# x y z rho theta phi s1 s2 stress_xx np intf bulk
-0.833185 -10.651009 -14.407009 17.936001 1.492729 2.503520 0.004787 0.006175 -2100310.000000 1 0 0
2.181215 -13.421409 -13.058409 18.852426 -1.409687 2.335973 0.009559 0.010190 953735.000000 1 0 0
2.014615 -11.081909 -14.725509 18.539364 -1.390967 2.488624 0.007079 0.007541 1399960.000000 1 0 0
-5.555985 -6.306809 -16.491609 18.509943 0.848606 2.670250 0.004741 -0.005877 327119.000000 1 0 0
4.590815 -14.191709 -11.573309 18.879134 -1.257935 2.230675 0.012140 0.011652 1669680.000000 1 0 0
13.986215 -10.771509 -7.932709 19.353746 -0.656274 1.993119 0.018089 -0.008059 -187249.000000 1 0 0
7.032215 10.784491 -10.904209 16.871842 0.992969 2.273517 0.020570 -0.013554 575465.000000 1 0 0
5.606915 -4.207309 -12.622309 14.438201 -0.643743 2.634644 -0.006041 0.001607 1522710.000000 1 0 0
13.554115 0.457391 -10.122709 16.923134 0.033733 2.211997 0.005727 0.001593 1189380.000000 1 0 0
13.975215 4.921391 -10.391409 18.097185 0.338590 2.182423 0.000098 -0.003994 -670334.000000 1 0 0
4.040315 4.366991 -13.478109 14.732759 0.824235 2.725907 0.000518 0.002260 456561.000000 1 0 0
10.308215 -5.057909 -13.709909 17.883047 -0.456154 2.444392 0.018910 -0.001723 -1995710.000000 1 0 0
2.508315 -7.618809 -12.084709 14.504417 -1.252746 2.555620 0.000494 0.003742 1060120.000000 1 0 0
-5.543185 -1.929709 -15.085109 16.186760 0.335002 2.770526 0.007050 -0.008021 1012730.000000 1 0 0
10.529715 0.035091 -9.629709 14.269107 0.003333 2.311577 0.003639 -0.001779 1881910.000000 1 0 0
-1.695685 -9.490509 -16.944609 19.495253 1.393990 2.624309 0.008504 -0.000922 1227130.000000 1 0 0
8.523515 1.819091 -18.150909 20.134917 0.210266 2.693937 0.013255 0.003614 -62407.700000 1 0 0
16.443215 -6.032509 -8.897409 19.645213 -0.351623 2.040817 0.025675 -0.002167 -187102.000000 1 0 0
10.104115 7.528791 -9.945609 16.052756 0.640371 2.238975 0.016748 -0.008028 -341811.000000 1 0 0
13.737915 -2.373409 -10.583609 17.503604 -0.171075 2.220127 0.016691 -0.005713 385401.000000 1 0 0
7.154215 -1.898009 -13.698709 15.570481 -0.259326 2.646211 0.002415 -0.000167 921499.000000 1 0 0
-2.817585 6.720491 -13.869509 15.667389 -1.173804 2.657821 0.000396 0.002429 134515.000000 1 0 0
11.235815 1.583991 -13.889509 17.935190 0.140054 2.456606 0.010902 -0.001986 208654.000000 1 0 0
-2.260785 10.819291 -12.879909 16.972338 -1.364802 2.432383 0.003950 0.005865 -2515630.000000 1 0 0
2.819115 -1.044109 -15.388509 15.679407 -0.354703 2.948665 0.004224 -0.002430 633098.000000 1 0 0
-8.943385 0.465391 -15.264509 17.697626 -0.051991 2.611020 0.006105 0.000778 -1189840.000000 1 0 0
2.321215 -1.862609 -18.111209 18.354107 -0.676220 2.978723 0.013285 -0.006367 136611.000000 1 0 0
1.000015 7.912391 -13.224209 15.442981 1.445077 2.598907 -0.000029 0.000223 -43056.700000 1 0 0
9.362815 -9.151609 -9.860209 16.390180 -0.773991 2.216290 0.010727 0.001700 -1160470.000000 1 0 0
3.914415 7.288291 -13.621109 15.936638 1.077924 2.595777 -0.003053 0.000557 1124000.000000 1 0 0
-2.760285 9.275791 -15.447609 18.228771 -1.281562 2.581922 -0.001511 0.005399 199368.000000 1 0 0
5.485815 -7.748909 -15.328309 18.030442 -0.954757 2.587038 0.005252 0.006492 -314945.000000 1 0 0
4.104315 7.386491 -16.445909 18.489824 1.063624 2.666953 0.005955 0.003335 -262373.000000 1 0 0
-0.270585 5.148891 -13.558009 14.505306 -1.518292 2.778191 0.006236 -0.000511 1026450.000000 1 0 0
8.645115 4.248291 -16.617909 19.207834 0.456752 2.616272 0.011668 -0.002346 -1512050.000000 1 0 0
5.253015 0.291991 -14.477709 15.404009 0.055528 2.793035 -0.001408 0.002310 676289.000000 1 0 0
6.166015 7.927391 -11.635909 15.370675 0.909732 2.429537 0.002318 -0.002749 1510510.000000 1 0 0
2.660015 -8.338509 -15.095709 17.449552 -1.261997 2.616158 0.001619 0.003912 1887100.000000 1 0 0
3.966215 11.524591 -13.843709 18.444385 1.239340 2.419713 0.006468 -0.009971 -1124440.000000 1 0 0
0.603315 -4.521209 -13.781909 14.517105 -1.438139 2.821978 0.001179 -0.002321 208220.000000 1 0 0
8.421715 -0.141309 -11.708009 14.422993 -0.016778 2.517956 -0.001690 0.001167 -742868.000000 1 0 0
-0.954185 -5.094109 -16.271409 17.076861 1.385631 2.833236 0.002406 -0.008451 885456.000000 1 0 0
4.488815 0.896191 -11.735309 12.596432 0.197059 2.769690 -0.006602 0.000956 488926.000000 1 0 0
-2.893785 -7.201509 -15.614309 17.436811 1.188713 2.680304 0.000264 -0.002653 1659330.000000 1 0 0
11.299515 -3.870609 -11.358409 16.482540 -0.330019 2.331067 0.019119 -0.005672 -156872.000000 1 0 0
6.445015 -7.011909 -12.601809 15.795907 -0.827500 2.494416 0.003045 0.004786 -1506830.000000 1 0 0
3.352815 -3.998209 -14.741409 15.637653 -0.872970 2.801389 0.004914 0.001562 2426390.000000 1 0 0
-0.629785 -1.497309 -18.417709 18.489202 1.172649 3.053624 0.017787 -0.014443 1008040.000000 1 0 0
14.782615 2.804391 -8.475309 17.269081 0.187481 2.083780 -0.001188 -0.000547 -1936780.000000 1 0 0
6.895415 4.248691 -14.256509 16.396529 0.552218 2.624952 0.003925 0.001013 3463320.000000 1 0 0
10.062715 -9.699909 -14.075509 19.835988 -0.767042 2.359719 0.017252 -0.001165 -72095.800000 1 0 0
9.027315 -3.291609 -15.554709 18.283219 -0.349646 2.588234 0.016037 -0.002847 -1143950.000000 1 0 0
-5.429185 -2.046909 -17.974609 18.887892 0.360540 2.829350 0.003536 -0.004109 12384.000000 1 0 0
5.022415 -9.088309 -11.076509 15.182591 -1.065941 2.388465 -0.000135 0.004361 3202250.000000 1 0 0
-2.490085 4.033391 -17.197209 17.838519 -1.017704 2.872638 0.001572 0.002780 1389730.000000 1 0 0
9.485515 9.359091 -14.462709 19.665643 0.778689 2.397098 0.042273 -0.017084 -1439420.000000 1 0 0
9.826415 9.982791 -11.642309 18.214222 0.793292 2.264238 0.031256 -0.015469 -56489.400000 1 0 0
11.974715 -6.027809 -9.641509 16.513237 -0.466346 2.194278 0.019449 -0.005626 -74717.600000 1 0 0
8.135415 6.884091 -13.688609 17.348017 0.702277 2.480072 0.008134 0.000082 -163275.000000 1 0 0
3.936015 -4.244809 -17.659609 18.584198 -0.823126 2.824830 0.012748 -0.002767 822612.000000 1 0 0
9.257015 -7.548409 -12.380909 17.203422 -0.684076 2.374134 0.012436 -0.000225 -227597.000000 1 0 0
12.019015 -8.753709 -8.830809 17.293564 -0.629482 2.106727 0.021325 -0.008483 590459.000000 1 0 0
-2.889385 -2.474609 -13.930309 14.440421 0.708226 2.875002 -0.001397 -0.004649 -3014750.000000 1 0 0
-0.354585 6.155991 -17.594209 18.643448 -1.513260 2.804502 0.008277 -0.002258 1600260.000000 1 0 0
1.079215 -8.428109 -17.572009 19.518536 -1.443440 2.691192 0.007892 0.000502 1963380.000000 1 0 0
-0.002585 8.628491 -15.998309 18.176819 -1.570497 2.646972 0.001446 0.002697 -801525.000000 1 0 0
1.794915 3.377491 -15.011809 15.491403 1.082319 2.892114 0.008734 0.001159 2759990.000000 1 0 0
-1.888985 -0.424409 -15.864209 15.981912 0.221006 3.020153 0.005957 -0.004986 1391030.000000 1 0 0
14.103715 -4.433309 -8.434609 17.020918 -0.304557 2.089257 0.019094 -0.005198 621950.000000 1 0 0
0.571315 0.668891 -14.634809 14.661223 0.863913 3.081557 0.002454 -0.002310 1550010.000000 1 0 0
8.825315 2.673991 -12.571309 15.590838 0.294199 2.508711 -0.001290 0.003805 315293.000000 1 0 0
5.883215 0.983191 -17.275109 18.275893 0.165588 2.809126 0.017941 0.005934 -485144.000000 1 0 0
15.306115 1.500191 -12.287809 19.685476 0.097700 2.244912 0.027647 -0.008133 -815572.000000 1 0 0
8.787915 -11.259609 -11.953309 18.624926 -0.908071 2.267628 0.010947 0.003117 806143.000000 1 0 0
-4.602285 0.765391 -15.137909 15.840554 -0.164798 2.842630 0.003022 -0.004689 415518.000000 1 0 0
2.345715 5.186891 -17.380309 18.288832 1.146082 2.825070 0.008516 0.000594 977204.000000 1 0 0
5.961315 -11.729309 -12.349409 18.044996 -1.100578 2.324532 0.007597 0.002933 -331335.000000 1 0 0
12.734515 7.131791 -8.698809 16.991162 0.510516 2.108262 0.009380 -0.003732 614512.000000 1 0 0
-4.985785 3.664491 -15.700609 16.875890 -0.633824 2.766183 -0.005851 0.002217 -783982.000000 1 0 0
-0.663285 -4.319009 -19.055909 19.550485 1.418413 2.916183 0.014671 -0.013083 -873293.000000 1 0 0
9.720415 4.404091 -10.324809 14.848709 0.425409 2.339681 -0.001769 -0.000322 157461.000000 1 0 0
13.291315 3.515191 -12.858809 18.824574 0.258553 2.322777 0.015010 -0.008293 386868.000000 1 0 0
-6.256685 5.822791 -17.114109 19.129656 -0.749494 2.678416 -0.012128 0.007015 -1241900.000000 1 0 0
-10.142585 3.078891 -15.553509 18.821882 -0.294720 2.543396 0.003489 0.010543 699313.000000 1 0 0
10.692015 13.472491 -8.468309 19.171318 0.899959 2.028309 0.035663 -0.008667 1673670.000000 1 0 0
7.376415 13.423091 -12.274209 19.627712 1.068313 2.246378 0.038829 -0.020919 -825390.000000 1 0 0
5.250515 15.171191 -11.170909 19.558173 1.237614 2.178719 0.023582 -0.019501 289377.000000 1 0 0
14.191015 9.322091 -9.981609 19.695654 0.581211 2.102256 0.025933 -0.009799 -1385390.000000 1 0 0
8.199915 -17.264109 -2.088809 19.226315 -1.127373 1.679654 0.019698 0.004415 -709222.000000 1 0 0
0.740615 -15.966509 -0.031609 15.983708 -1.524444 1.572774 0.002831 -0.004000 1363860.000000 1 0 0
-9.314785 -11.749509 7.520191 16.774071 0.900473 1.105909 0.003753 -0.002209 467446.000000 1 0 0
2.014715 -15.892009 -2.613909 16.231068 -1.444694 1.732544 0.001843 -0.000668 2698950.000000 1 0 0
-1.336885 -10.964409 -9.520209 14.582178 1.449466 2.282158 0.002919 0.001772 1199130.000000 1 0 0
-4.753985 -12.677409 -13.016209 18.781342 1.212029 2.336493 0.011379 0.002502 931941.000000 1 0 0
-8.364085 -17.837209 -1.767709 19.780009 1.132327 1.660284 0.005945 0.000085 786649.000000 1 0 0
-11.396985 -7.117609 -8.865509 16.098102 0.558252 2.154020 0.009778 -0.000509 3038780.000000 1 0 0
-13.469785 -11.449809 -4.665509 18.283879 0.704515 1.828821 0.002779 0.000206 295650.000000 1 0 0
-5.937185 -13.371009 9.853191 17.638578 1.152915 0.978080 0.006455 -0.005660 786149.000000 1 0 0
0.136315 -14.012109 -3.754709 14.507089 -1.561068 1.832596 0.002396 0.001599 -278773.000000 1 0 0
-14.690285 -11.527309 1.879291 18.767394 0.665335 1.470492 0.006813 -0.008791 1034470.000000 1 0 0
-4.047185 -16.448209 -7.621909 18.574628 1.329533 1.993623 0.003131 -0.001467 1120290.000000 1 0 0
0.549915 -15.202609 -9.234909 17.796216 -1.534640 2.116390 0.009587 0.003537 -474114.000000 1 0 0
4.494915 -14.222209 -2.652009 15.149543 -1.264681 1.746758 0.000944 0.004333 -42259.500000 1 0 0
-3.526785 -17.990709 -2.319009 18.479222 1.377217 1.696621 -0.009005 -0.002426 1330860.000000 1 0 0
-0.901785 -13.462709 0.650091 13.508530 1.503912 1.522653 -0.000454 -0.000418 2055980.000000 1 0 0
-8.525785 -11.355509 -10.597109 17.718220 0.926780 2.211913 0.015535 -0.003836 2161590.000000 1 0 0
-3.649085 -14.175609 -0.462709 14.645061 1.318846 1.602396 -0.002001 0.001749 4547940.000000 1 0 0
-1.598785 -14.939109 -7.307209 16.707137 1.464182 2.023469 -0.002723 0.003519 687619.000000 1 0 0
-14.131485 -7.934009 -1.849509 16.311593 0.511585 1.684427 0.012922 -0.002897 2964480.000000 1 0 0
-10.792385 -7.271509 -11.738709 17.525630 0.592899 2.304739 0.015719 -0.003592 -996100.000000 1 0 0
-9.437585 -14.801409 6.796991 18.824155 1.003178 1.201373 -0.002855 0.002353 1670630.000000 1 0 0
-2.438885 -14.377409 -12.348909 19.108993 1.402763 2.273437 0.015480 0.006073 -510892.000000 1 0 0
2.299715 -17.739409 -4.834009 18.529517 -1.441877 1.834732 0.009782 0.000960 448560.000000 1 0 0
-6.617685 -9.707609 -9.257909 14.957952 0.972458 2.238175 0.009830 -0.002526 529382.000000 1 0 0
-10.940385 -15.199809 0.511191 18.734662 0.946924 1.543507 0.001460 -0.004067 972362.000000 1 0 0
-12.590985 -10.964409 3.981291 17.163970 0.716454 1.336708 0.011860 -0.005689 2402220.000000 1 0 0
-17.085985 -8.781309 -1.562009 19.273872 0.474744 1.651928 0.019959 -0.002913 276413.000000 1 0 0
-1.589285 -19.330809 -4.035309 19.811354 1.488766 1.775918 -0.010584 0.004342 232332.000000 1 0 0
3.307915 -14.179909 -8.752109 16.988571 -1.341613 2.112010 0.005303 0.006336 663220.000000 1 0 0
-4.437685 -8.025809 -13.113209 16.001966 1.065709 2.531290 0.004268 -0.000901 2497770.000000 1 0 0
5.492215 -16.673409 1.280891 17.601355 -1.252590 1.497960 0.014835 -0.000117 4127470.000000 1 0 0
-2.793485 -13.767909 -3.331509 14.438069 1.370616 1.803639 0.000293 -0.002045 -1659830.000000 1 0 0
-0.371885 -13.981009 3.658591 14.456563 1.544203 1.314939 0.002591 0.002312 -2103240.000000 1 0 0
1.142215 -16.258809 7.016291 17.744911 -1.500660 1.164296 0.014067 -0.004521 2232480.000000 1 0 0
-5.567085 -10.391209 -14.669909 18.819562 1.078960 2.464669 0.011150 -0.002950 -1047490.000000 1 0 0
-0.428885 -17.281609 -5.862009 18.253797 1.545984 1.897728 0.003709 0.001397 191228.000000 1 0 0
-6.429885 -13.356609 -1.332309 14.883464 1.122138 1.660432 0.001540 -0.002434 2171370.000000 1 0 0
-1.570185 -17.733809 -0.098709 17.803461 1.482485 1.576341 -0.003066 0.001798 2585390.000000 1 0 0
-9.466285 -9.736509 -4.894409 14.434868 0.799469 1.916723 0.011189 -0.004045 2586590.000000 1 0 0
-0.840885 -16.750909 4.794191 17.443747 1.520639 1.292376 0.012647 -0.003385 2624710.000000 1 0 0
-6.819885 -9.912909 -6.325909 13.593886 0.968183 2.054826 0.008707 -0.002720 3374170.000000 1 0 0
-6.143885 -14.541509 -8.691409 18.020639 1.171039 2.074078 0.010167 -0.000307 -640947.000000 1 0 0
-5.779485 -12.195909 -10.370409 17.020225 1.128256 2.225973 0.011461 -0.003276 134317.000000 1 0 0
-10.774285 -12.215309 -8.974409 18.596748 0.847998 2.074394 0.015035 -0.004105 231888.000000 1 0 0
3.906615 -17.311609 6.517891 18.905987 -1.348850 1.218821 0.014261 -0.002689 1272940.000000 1 0 0
-6.655785 -14.354109 -4.176209 16.364005 1.136620 1.828858 0.002958 -0.005428 -559667.000000 1 0 0
-2.842785 -12.156909 -7.171009 14.397752 1.341083 2.092162 0.005410 -0.002752 2215760.000000 1 0 0
-6.981285 -12.811809 4.424391 15.246509 1.071869 1.276371 0.000830 0.000447 2469800.000000 1 0 0
2.594015 -16.390209 2.359891 16.761174 -1.413832 1.429532 0.005049 -0.004087 792959.000000 1 0 0
-6.355385 -11.982909 7.301791 15.404454 1.083148 1.076962 0.005981 0.000492 1505760.000000 1 0 0
-11.136585 -12.826909 -0.967809 17.014400 0.855819 1.627709 0.004560 0.001758 2169520.000000 1 0 0
-14.275885 -8.665309 4.546191 17.307696 0.545543 1.305009 0.010693 -0.006711 -835247.000000 1 0 0
-7.858185 -15.574909 4.380691 17.986643 1.103522 1.324769 -0.003575 0.003902 839878.000000 1 0 0
-16.509685 -9.144009 1.226491 18.912612 0.505800 1.505900 0.015119 -0.003009 -329397.000000 1 0 0
-6.520185 -17.063109 2.292191 18.409689 1.205797 1.445962 -0.007883 0.007291 539053.000000 1 0 0
-11.544985 -14.897209 -4.695109 19.423120 0.911501 1.814942 0.015427 0.002295 -687349.000000 1 0 0
-10.044585 -9.945909 -12.753609 19.038628 0.780462 2.304844 0.014848 -0.001459 -13260.000000 1 0 0
-4.317085 -15.994309 -4.617109 17.198048 1.307165 1.842598 -0.002692 -0.002279 50672.300000 1 0 0
-11.806885 -8.331609 -0.014209 14.450552 0.614512 1.571780 0.005207 -0.004720 2037880.000000 1 0 0
-9.535085 -11.190509 3.416491 15.093633 0.865102 1.342464 0.002572 -0.002147 2937060.000000 1 0 0
-14.140885 -12.721009 -0.717409 19.034269 0.732589 1.608496 0.006941 0.000205 -485668.000000 1 0 0
5.619815 -14.894209 -7.136309 17.445535 -1.209997 1.992222 0.002172 0.000701 972699.000000 1 0 0
-7.364185 -10.480309 -1.295009 12.874205 0.958282 1.671556 0.005572 -0.002156 2150900.000000 1 0 0
-11.680685 -8.198109 -6.117309 15.526393 0.611968 1.975770 0.010169 -0.002614 1032310.000000 1 0 0
-14.454685 -6.600809 -9.292109 18.407930 0.428375 2.099933 0.021978 -0.007557 2345790.000000 1 0 0
-3.801085 -16.405509 1.453891 16.902745 1.343118 1.484675 -0.006347 0.001605 1723010.000000 1 0 0
-7.930985 -15.517409 0.076791 17.426888 1.098306 1.566390 0.004246 0.001160 365332.000000 1 0 0
0.977415 -18.603109 3.610591 18.975442 -1.518304 1.379352 0.004040 -0.009164 898423.000000 1 0 0
-14.091785 -8.672609 -4.584509 17.170040 0.551693 1.841082 0.009230 -0.004207 274675.000000 1 0 0
-3.502985 -14.428509 11.212091 18.605477 1.332622 0.924012 0.005369 -0.009988 -93436.500000 1 0 0
-10.794985 -12.154809 -3.800409 16.694736 0.844581 1.800451 0.007002 -0.004721 1573910.000000 1 0 0
-9.882885 -10.661809 0.470891 14.545355 0.823294 1.538417 0.003825 -0.000752 746779.000000 1 0 0
-0.089985 -13.218809 -11.190109 17.319456 1.563989 2.273261 0.013166 0.002997 1795880.000000 1 0 0
-5.808885 -12.606709 -6.349809 15.264087 1.139016 1.999835 0.004116 -0.004590 1371130.000000 1 0 0
1.745815 -15.934809 9.882591 18.831665 -1.461672 1.018333 0.010703 -0.001464 663642.000000 1 0 0
-8.945385 -15.623909 -5.580709 18.848628 1.050809 1.871383 0.012812 -0.004240 -213381.000000 1 0 0
-3.305785 -15.559509 5.845191 16.946764 1.361448 1.218648 0.001785 0.002859 -799989.000000 1 0 0
-17.492485 -5.443709 -6.675309 19.498225 0.301703 1.920218 0.024811 -0.007706 560666.000000 1 0 0
18.809515 5.433391 -2.849209 19.784781 0.281209 1.715309 -0.003719 0.009103 -1568110.000000 1 0 0
12.792115 -12.534809 -5.857909 18.843427 -0.775239 1.886908 0.021141 -0.005607 -1684140.000000 1 0 0
11.017415 -13.488009 -1.621109 17.491078 -0.885877 1.663612 0.018637 -0.000795 2602040.000000 1 0 0
18.577615 -2.959309 4.729291 19.397203 -0.157967 1.324501 0.026117 -0.007436 -324987.000000 1 0 0
8.615315 -17.021109 5.011291 19.724473 -1.102237 1.313916 0.024832 -0.010352 1366790.000000 1 0 0
18.019115 -1.017209 6.790391 19.282962 -0.056392 1.210935 0.042142 -0.005966 -346654.000000 1 0 0
17.863815 -4.342409 -5.138409 19.088626 -0.238459 1.843345 0.017849 -0.010107 -361241.000000 1 0 0
5.255515 -11.742209 14.789391 19.601684 -1.149961 0.715911 -0.005196 0.001636 -1556040.000000 1 0 0
15.958215 -8.940809 -0.787709 18.309101 -0.510689 1.613832 0.008172 -0.001169 359022.000000 1 0 0
13.863215 -12.542809 -1.350509 18.743924 -0.735436 1.642909 0.011369 -0.000892 -1120200.000000 1 0 0
11.034315 -1.921909 13.933491 17.877136 -0.172446 0.677084 0.011932 -0.003087 275045.000000 1 0 0
16.985915 -6.185409 -1.448609 18.135023 -0.349224 1.650761 0.014222 -0.004482 -1443040.000000 1 0 0
17.756815 3.587991 -0.921309 18.139100 0.199378 1.621610 0.003294 0.009670 436524.000000 1 0 0
9.718415 -11.123709 9.627191 17.631429 -0.852722 0.993185 0.011654 -0.001793 931727.000000 1 0 0
9.045115 -11.141309 4.223691 14.959360 -0.888869 1.284559 -0.000579 0.001039 -1148810.000000 1 0 0
14.006915 -10.144809 6.802691 18.584602 -0.626831 1.196047 0.017945 -0.006289 121053.000000 1 0 0
16.201215 -0.630209 -4.761309 16.898124 -0.038879 1.856430 0.006372 -0.000284 -1188340.000000 1 0 0
15.734115 -0.530509 -1.766209 15.841821 -0.033704 1.682519 0.007604 0.003346 462791.000000 1 0 0
12.793215 -5.226209 -0.239809 13.821618 -0.387825 1.588148 0.004883 -0.002483 1127180.000000 1 0 0
14.200515 -7.536009 1.016991 16.108393 -0.487894 1.507620 0.006488 -0.004310 3264910.000000 1 0 0
15.500115 2.439991 3.653191 16.110646 0.156136 1.342050 0.008197 0.000791 1677270.000000 1 0 0
15.796015 -7.140309 4.957591 18.029859 -0.424543 1.292242 0.017882 -0.009294 -1514700.000000 1 0 0
13.624315 -12.151309 3.329891 18.557059 -0.728313 1.390378 0.005870 0.001208 1480630.000000 1 0 0
14.004415 -1.060609 9.258691 16.821768 -0.075590 0.987954 0.028106 -0.005488 1364980.000000 1 0 0
14.106015 -2.879309 -1.543109 14.479339 -0.201353 1.677572 -0.000117 0.001988 645358.000000 1 0 0
15.011515 1.789591 9.236691 17.716226 0.118655 1.022342 0.041571 -0.007768 -1631300.000000 1 0 0
14.329415 -10.177509 -2.967609 17.824717 -0.617574 1.738064 0.009341 -0.004780 147467.000000 1 0 0
7.405015 -12.719709 6.067591 15.919828 -1.043591 1.179774 -0.003759 -0.000281 -159101.000000 1 0 0
12.383915 -4.669109 7.021691 14.982192 -0.360549 1.083013 0.008004 -0.001169 3450180.000000 1 0 0
14.916615 -9.113809 -5.666709 18.376031 -0.548457 1.884281 0.020956 -0.005181 -1186650.000000 1 0 0
14.281215 -4.569409 4.647091 15.698027 -0.309666 1.270262 0.009430 -0.004836 279139.000000 1 0 0
17.033915 -4.273709 0.950391 17.587555 -0.245820 1.516732 0.006995 -0.005149 -533567.000000 1 0 0
10.133515 -14.479009 1.022791 17.702427 -0.960153 1.512987 0.016195 0.000390 390910.000000 1 0 0
16.373315 -2.632109 8.601391 18.681471 -0.159392 1.092324 0.045654 -0.007211 329650.000000 1 0 0
16.045515 -2.661409 3.212791 16.579013 -0.164370 1.375776 0.014408 -0.004729 1783860.000000 1 0 0
7.837815 -15.418209 2.658391 17.499130 -1.100493 1.418290 0.008273 0.002169 2487570.000000 1 0 0
16.530515 -7.149909 7.825391 19.637104 -0.408230 1.160915 0.031599 -0.007567 -1808130.000000 1 0 0
10.215515 -8.618009 5.166491 14.328973 -0.700778 1.201925 0.003302 -0.000915 1567000.000000 1 0 0
10.895615 -11.952709 2.168491 16.318212 -0.831631 1.437514 0.011948 0.000747 849924.000000 1 0 0
12.344815 -7.290809 12.054191 18.731094 -0.533477 0.871683 0.018528 -0.004443 -393959.000000 1 0 0
15.075615 -9.846609 4.238891 18.498597 -0.578585 1.339595 0.010558 -0.006953 -713646.000000 1 0 0
7.346315 -10.361309 7.861691 14.937579 -0.954046 1.016550 -0.001756 0.000959 -312229.000000 1 0 0
15.180815 -3.426609 -4.394109 16.171178 -0.221999 1.845981 0.010080 -0.002425 515190.000000 1 0 0
11.796815 -9.068909 9.839991 17.839153 -0.655399 0.986521 0.011315 -0.000870 -2028520.000000 1 0 0
16.861215 -6.660809 2.364591 18.282731 -0.376221 1.441098 0.016012 -0.008327 935110.000000 1 0 0
17.510315 4.008491 2.105191 18.086209 0.225044 1.454134 0.008683 0.010387 251640.000000 1 0 0
14.758215 -5.025009 8.866691 17.935268 -0.328177 1.053684 0.032071 -0.001965 1189990.000000 1 0 0
12.716515 -12.687609 6.233191 19.014149 -0.784260 1.236803 0.009298 0.002377 -4465.430000 1 0 0
18.091415 0.672291 -0.826409 18.122754 0.037144 1.616413 0.009624 0.003593 96547.400000 1 0 0
11.598115 -2.166409 10.986191 16.121600 -0.184662 0.821044 0.010122 -0.002740 1624200.000000 1 0 0
5.846715 -12.518209 10.600791 17.414546 -1.133849 0.916335 -0.000925 0.001136 -125285.000000 1 0 0
10.758615 -5.071309 11.107691 16.274113 -0.440484 0.819567 0.010187 0.000922 999913.000000 1 0 0
17.754615 1.333891 5.152091 18.535092 0.074988 1.289122 0.026864 0.001117 -1791980.000000 1 0 0
12.234015 -7.773209 7.165891 16.169227 -0.566027 1.111652 0.011681 -0.008106 -1121220.000000 1 0 0
10.704115 -7.894209 14.406991 19.607601 -0.635448 0.745475 0.023696 -0.002758 -214180.000000 1 0 0
14.196915 -0.276209 3.721191 14.679099 -0.019453 1.314497 0.000627 -0.000031 1388960.000000 1 0 0
11.590315 -7.736609 2.556191 14.167732 -0.588584 1.389379 0.007549 -0.003104 691948.000000 1 0 0
9.336915 6.063891 3.518591 11.676011 0.575991 1.264686 -0.000434 0.001654 493317.000000 1 0 0
-3.902785 14.835391 -9.835909 18.222669 -1.313552 2.140951 -0.003498 0.000517 1301720.000000 1 0 0
8.885515 -6.527509 9.309691 14.430215 -0.633587 0.869573 0.005206 -0.000113 -584648.000000 1 0 0
5.880115 -10.577809 -8.508409 14.793878 -1.063441 2.183560 -0.001992 -0.000240 1162300.000000 1 0 0
5.355615 1.068191 0.577291 5.491530 0.196869 1.465478 0.003385 0.002171 3722820.000000 1 0 0
-0.491385 9.969691 10.959491 14.823853 -1.521548 0.738744 0.007911 0.000956 2394670.000000 1 0 0
-6.245485 -5.205609 1.069391 8.200491 0.694836 1.440018 0.004177 -0.000494 4584410.000000 1 0 0
-0.955085 4.003391 -10.913709 11.663978 -1.336605 2.780968 0.007250 -0.003653 702442.000000 1 0 0
10.953915 5.770191 1.239491 12.442656 0.484833 1.471015 -0.002700 0.004896 1010710.000000 1 0 0
-10.037785 -1.884509 -13.662209 17.057681 0.185581 2.499663 0.006240 -0.001066 1125400.000000 1 0 0
7.452215 10.876091 -6.124109 14.537179 0.970078 2.005644 0.006498 -0.002474 1034870.000000 1 0 0
-12.393685 -2.960309 -9.597509 15.952399 0.234463 2.216342 0.007995 -0.002589 541711.000000 1 0 0
-3.862585 -8.683109 2.466291 9.818276 1.152243 1.316883 0.002985 0.002742 -1593150.000000 1 0 0
7.984815 -6.771409 -5.889809 12.012456 -0.703353 2.083240 0.000370 -0.003992 1757570.000000 1 0 0
14.243915 3.117191 -4.212909 15.177437 0.215447 1.852068 0.003726 0.005845 607700.000000 1 0 0
-2.545685 -4.933509 9.873891 11.327566 1.094432 0.512198 0.000308 -0.000247 1410490.000000 1 0 0
3.515015 -1.824509 -4.649609 6.107621 -0.478780 2.436081 -0.005268 0.002717 -2481000.000000 1 0 0
-3.939285 8.393991 -3.504509 9.912549 -1.132010 1.932152 0.001833 -0.001161 -228244.000000 1 0 0
5.858615 0.102291 11.715891 13.099463 0.017458 0.463754 0.000729 -0.002853 2195390.000000 1 0 0
7.138015 4.678491 12.463091 15.105236 0.580185 0.600445 0.005866 -0.000034 2089300.000000 1 0 0
1.114515 -14.484209 12.306791 19.039211 -1.494001 0.867950 -0.004652 -0.002496 -632515.000000 1 0 0
2.989315 8.695491 -9.077409 12.920794 1.239676 2.349761 -0.000076 -0.000728 1005620.000000 1 0 0
-4.458385 -8.908409 -4.627609 10.984158 1.106773 2.005673 0.007875 -0.001753 -121927.000000 1 0 0
5.690315 -6.661009 -3.975709 9.620551 -0.863827 1.996818 -0.000899 -0.001680 2637670.000000 1 0 0
-3.114085 3.515791 8.737891 9.920133 -0.845914 0.493197 -0.000358 0.000546 2552810.000000 1 0 0
-3.730085 3.153191 -11.164009 12.185699 -0.701783 2.729181 -0.000888 -0.004567 737270.000000 1 0 0
3.029815 -6.115209 8.478991 10.884340 -1.110791 0.677714 0.001114 0.001428 575070.000000 1 0 0
-5.119185 -8.715309 10.566391 14.622287 1.039709 0.763208 0.007718 -0.004946 1359000.000000 1 0 0
-13.188085 -2.538609 6.566691 14.949634 0.190167 1.116028 0.009435 -0.004317 -981215.000000 1 0 0
3.913915 -5.913009 -8.389909 10.985126 -0.986090 2.439902 -0.003362 0.001095 3142450.000000 1 0 0
2.988415 -0.496509 12.380191 12.745441 -0.164641 0.239980 0.001807 -0.001384 1651040.000000 1 0 0
1.472915 -1.393209 -7.602709 7.868399 -0.757596 2.880984 -0.004067 0.000021 -729415.000000 1 0 0
3.611115 -3.541009 3.417391 6.103889 -0.775596 0.976566 0.000437 0.000159 2378540.000000 1 0 0
1.512815 0.442191 -11.871209 11.975381 0.284374 3.009597 0.000208 -0.001968 1409890.000000 1 0 0
4.124415 3.587691 -10.640109 11.962201 0.715915 2.666997 -0.005804 0.003228 2622870.000000 1 0 0
2.860915 3.286591 3.373091 5.510377 0.854531 0.912039 -0.002812 0.002189 1649640.000000 1 0 0
-5.293185 0.927591 2.656891 5.994773 -0.173481 1.111630 -0.001855 -0.000116 1830120.000000 1 0 0
-9.506285 -9.286809 5.662391 14.445655 0.773720 1.168015 0.005387 -0.001602 -411540.000000 1 0 0
-3.019185 3.816891 -0.590309 4.902305 -0.901563 1.691504 -0.001889 -0.002118 -311984.000000 1 0 0
-15.919685 -6.500509 4.914191 17.884135 0.387668 1.292436 0.021786 -0.007340 1545570.000000 1 0 0
0.993015 6.772691 -8.099909 10.604902 1.425213 2.439960 0.002280 -0.000443 -52523.600000 1 0 0
-1.564385 6.558391 -9.562909 11.700813 -1.336640 2.527481 0.000855 -0.000309 -859114.000000 1 0 0
2.023415 -0.398109 5.247091 5.637789 -0.194270 0.374474 -0.000030 -0.000051 3122750.000000 1 0 0
-3.391385 -0.552509 -6.321309 7.194839 0.161497 2.643697 0.005124 -0.005023 -388593.000000 1 0 0
1.828715 -1.116609 -2.503409 3.295159 -0.548176 2.433684 0.003175 0.001987 1717180.000000 1 0 0
2.433015 -8.600309 -7.610809 11.739221 -1.295102 2.276176 -0.003051 0.001253 765332.000000 1 0 0
-2.396185 14.103691 -5.483809 15.320834 -1.402506 1.936848 -0.001047 0.002281 2449580.000000 1 0 0
6.822815 -5.194409 -8.134509 11.819600 -0.650713 2.329832 -0.001599 0.000657 3404320.000000 1 0 0
-14.184585 -4.951309 -2.287609 15.197075 0.335840 1.721900 0.012786 -0.003391 632694.000000 1 0 0
-2.752285 6.881991 -6.860209 10.099472 -1.190354 2.317556 0.001652 0.000543 -209673.000000 1 0 0
-5.620485 -1.105909 -8.120209 9.937338 0.194282 2.527231 0.008278 -0.007933 565133.000000 1 0 0
-5.666085 -10.537109 3.529891 12.473786 1.077425 1.283892 0.004548 -0.001417 -2877160.000000 1 0 0
8.063015 -7.687309 6.741391 13.021263 -0.761549 1.026610 0.000261 -0.001835 614396.000000 1 0 0
8.787015 -6.029409 13.131791 16.911811 -0.601385 0.681726 0.008731 -0.000319 567893.000000 1 0 0
-4.735985 9.533691 -0.797109 10.675027 -1.109742 1.645536 0.003737 0.000322 -77803.000000 1 0 0
2.787115 6.680791 12.191091 14.178281 1.175565 0.535835 0.007460 0.000804 1141460.000000 1 0 0
6.044415 -2.815209 10.920591 12.795298 -0.435877 0.548160 0.000981 -0.000284 728888.000000 1 0 0
-9.688085 -6.439109 -1.107409 11.685353 0.586600 1.665708 0.007189 -0.004781 32348.600000 1 0 0
0.859815 -13.452609 6.321891 14.888864 -1.506969 1.132270 0.005828 0.000261 916054.000000 1 0 0
-0.527885 -3.121909 8.750991 9.306171 1.403290 0.347160 -0.000648 -0.000300 1291310.000000 1 0 0
4.206115 0.683891 3.417491 5.462449 0.161184 0.894853 0.000606 0.001822 990566.000000 1 0 0
-10.151785 5.509291 8.324891 14.237796 -0.497215 0.946282 -0.002708 -0.002850 670607.000000 1 0 0
9.459415 7.959191 -0.056409 12.362541 0.699482 1.575359 -0.001424 0.004197 -1216140.000000 1 0 0
4.220715 2.847491 8.161691 9.619555 0.593507 0.557750 -0.001604 0.000002 2211970.000000 1 0 0
1.362615 2.681091 -9.781709 10.233611 1.100585 2.843306 0.003213 -0.002519 520945.000000 1 0 0
-1.413885 -10.205309 3.010291 10.733558 1.433129 1.286527 -0.000479 0.000603 -2905870.000000 1 0 0
-9.902985 9.548491 9.047091 16.464891 -0.767176 0.989057 0.003700 -0.007246 2475820.000000 1 0 0
9.737715 -2.062309 -7.630509 12.541965 -0.208702 2.224837 0.005575 -0.000545 1162340.000000 1 0 0
-5.200385 -1.877609 6.715091 8.698383 0.346487 0.688826 -0.003712 -0.000232 996881.000000 1 0 0
3.015215 -7.794409 -4.858309 9.666825 -1.201683 2.097372 -0.005671 0.000351 1870140.000000 1 0 0
-5.018385 4.945891 -13.064209 14.843166 -0.778123 2.646974 -0.006661 -0.005412 2391930.000000 1 0 0
-5.619585 9.585291 5.499091 12.397481 -1.040532 1.111224 0.004144 -0.001742 1264310.000000 1 0 0
-0.445885 -1.789209 -9.422109 9.600845 1.326563 2.948333 0.001600 -0.004668 617491.000000 1 0 0
-16.641785 0.190491 6.381491 17.824386 -0.011446 1.204650 0.010180 -0.003780 -659821.000000 1 0 0
-5.925785 -2.946609 4.035291 7.751194 0.461447 1.023240 -0.003301 -0.000518 1457580.000000 1 0 0
0.991315 -5.568209 -5.103109 7.617702 -1.394611 2.304872 -0.001916 0.001236 1673160.000000 1 0 0
-7.000485 1.437391 -8.491409 11.098510 -0.202513 2.441984 0.000445 -0.003255 1641950.000000 1 0 0
7.960415 1.913391 4.767291 9.473982 0.235888 1.043501 -0.001378 0.000872 1662410.000000 1 0 0
0.484815 -8.017809 -0.483509 8.046993 -1.510403 1.630918 -0.004581 0.002972 695375.000000 1 0 0
5.419015 5.441191 -3.339609 8.374083 0.787440 1.981007 0.002139 -0.000097 -881766.000000 1 0 0
-0.770185 -0.341409 -1.223209 1.485256 0.417253 2.538469 0.000866 -0.001036 131635.000000 1 0 0
9.079515 6.437991 -6.329709 12.804317 0.616786 2.087874 -0.000415 -0.000038 -862232.000000 1 0 0
-14.988785 -6.988409 2.421591 16.714235 0.436279 1.425403 0.009464 -0.007100 29594.200000 1 0 0
-6.377485 6.917391 8.966591 12.997013 -0.825986 0.809451 -0.000302 0.000065 49374.500000 1 0 0
-9.404085 -3.224809 -9.658609 13.860914 0.330350 2.341755 0.005491 -0.003872 754566.000000 1 0 0
14.890015 3.429391 -1.212309 15.327849 0.226367 1.649971 -0.004239 0.009169 2379930.000000 1 0 0
12.004615 1.540491 -5.778209 13.411621 0.127627 2.016215 0.005938 0.001045 -386759.000000 1 0 0
1.653915 -9.374609 12.736891 15.901167 -1.396168 0.641827 -0.004094 -0.002087 -1001590.000000 1 0 0
-3.599185 6.407891 7.894991 10.786384 -1.059030 0.749631 0.001812 0.000615 1890850.000000 1 0 0
-3.923585 13.128691 -12.339509 18.439645 -1.280390 2.303906 -0.001177 0.003068 -93119.300000 1 0 0
-10.195185 7.761691 6.503791 14.369584 -0.650700 1.101108 -0.002087 -0.004812 -61751.400000 1 0 0
8.158115 -9.370709 -7.157409 14.338533 -0.854465 2.093440 0.003239 -0.004181 -853424.000000 1 0 0
5.835915 -3.817809 -0.296709 6.980086 -0.579317 1.613317 0.001091 -0.000366 -852068.000000 1 0 0
-1.627885 -4.400809 4.250091 6.330909 1.216499 0.834803 -0.003341 0.001901 -1367860.000000 1 0 0
9.878815 -2.073609 -2.524009 10.404877 -0.206901 1.815820 0.002502 0.000481 -1549000.000000 1 0 0
13.574415 7.076791 1.426091 15.374636 0.480568 1.477907 -0.004563 0.007361 1929450.000000 1 0 0
5.369615 -3.729009 -3.270309 7.309801 -0.607002 2.034638 0.000641 -0.001062 -2638130.000000 1 0 0
-12.223685 -5.925009 1.863391 13.711179 0.451345 1.434471 0.006762 -0.004843 3252900.000000 1 0 0
3.719015 -5.755309 -0.216909 6.855779 -0.997105 1.602441 -0.000251 -0.000179 -126375.000000 1 0 0
-5.222285 3.757291 -8.738809 10.851557 -0.623676 2.506986 -0.002863 -0.003032 282646.000000 1 0 0
-1.756385 -9.308809 7.268391 11.940198 1.384309 0.916334 0.004595 -0.001485 3531410.000000 1 0 0
-7.400785 -7.459609 2.628191 10.831656 0.789357 1.325710 0.008783 -0.002595 -4337220.000000 1 0 0
-5.772485 13.106091 -8.463809 16.635121 -1.155918 2.104577 0.002564 -0.004141 1731570.000000 1 0 0
9.190015 -13.929909 -4.143409 17.194958 -0.987610 1.814158 0.012548 0.000553 1054660.000000 1 0 0
-6.431885 -5.142009 -6.764709 10.656955 0.674409 2.258506 0.012814 -0.004341 1246760.000000 1 0 0
3.458915 0.464691 -6.337409 7.234831 0.133546 2.638215 -0.004455 0.000052 1876020.000000 1 0 0
-3.660885 5.831691 4.937691 8.472986 -1.010217 0.948679 0.001750 0.001986 406442.000000 1 0 0
-2.621385 -10.756609 -2.909309 11.447287 1.331756 1.827763 0.000301 0.002499 763049.000000 1 0 0
-12.557385 -0.390209 1.783391 12.689392 0.031064 1.429788 0.000532 -0.001128 988093.000000 1 0 0
8.413215 -12.050909 -6.053209 15.894903 -0.961320 1.961487 0.003703 -0.004124 -882871.000000 1 0 0
6.163415 3.926891 1.001091 7.376336 0.567274 1.434660 0.002376 0.001081 -359452.000000 1 0 0
3.360715 -4.916009 -10.996209 12.505126 -0.971144 2.645263 -0.002172 0.001099 -146645.000000 1 0 0
-7.558585 4.270391 8.706891 12.295462 -0.514265 0.783938 -0.002716 0.000943 41600.000000 1 0 0
8.178215 8.753991 4.145391 12.676743 0.819390 1.237661 -0.001565 0.002492 2226030.000000 1 0 0
0.263615 10.495091 -6.262309 12.224276 1.545684 2.108639 -0.001372 0.001949 1599070.000000 1 0 0
5.498915 7.966091 3.302191 10.227469 0.966617 1.242031 -0.001212 0.001665 1525170.000000 1 0 0
8.040615 6.687691 -3.829309 11.137338 0.693796 1.921785 -0.001296 0.001771 2064430.000000 1 0 0
10.503515 2.461991 -8.255109 13.584257 0.230240 2.223954 -0.000880 0.000599 1069890.000000 1 0 0
3.354815 -12.544109 -0.308309 12.988630 -1.309471 1.594535 -0.004481 0.002680 -3540120.000000 1 0 0
0.590015 2.078091 5.280591 5.705367 1.294155 0.388316 0.001041 0.001183 2271760.000000 1 0 0
-4.798585 13.348991 1.524791 14.266988 -1.225708 1.463716 0.003689 0.000443 1878340.000000 1 0 0
8.193415 4.137991 -8.087109 12.233411 0.467670 2.293037 -0.006494 0.001799 -972979.000000 1 0 0
-13.876885 -0.484909 -3.607509 14.346331 0.034929 1.824983 0.006659 -0.000495 210131.000000 1 0 0
-8.492685 -0.017109 -0.451409 8.504691 0.002015 1.623899 -0.000705 -0.001927 -95019.600000 1 0 0
1.848415 -3.739009 -1.180009 4.334657 -1.111671 1.846503 -0.001058 0.001753 -1927850.000000 1 0 0
8.033915 -5.678709 -0.275209 9.842117 -0.615303 1.598762 0.002373 -0.001010 2460310.000000 1 0 0
-2.308285 -1.152209 7.453491 7.887350 0.462977 0.333223 -0.000430 0.000169 2621110.000000 1 0 0
-5.865885 8.840991 -11.786509 15.858547 -0.984998 2.408678 -0.009295 0.002910 -1288790.000000 1 0 0
-6.160885 9.212391 -8.863209 14.190882 -0.981345 2.245378 -0.002329 -0.002393 -339098.000000 1 0 0
-1.496685 14.076691 -8.265809 16.392586 -1.464871 2.099299 0.007846 -0.002282 10675.100000 1 0 0
-1.407485 7.272591 9.687791 12.195281 -1.379627 0.652796 0.005298 -0.000478 446984.000000 1 0 0
9.949315 2.369691 -4.078609 11.010874 0.233820 1.950254 -0.001986 0.002780 -1937860.000000 1 0 0
-2.965285 -7.492709 -6.984709 10.663947 1.193954 2.284957 0.002625 -0.000726 1282620.000000 1 0 0
-5.545185 -4.953509 -1.609509 7.607684 0.729101 1.783971 0.004558 -0.000244 468548.000000 1 0 0
5.673115 7.436991 -8.794109 12.838591 0.919138 2.325365 -0.001796 0.000087 -1094110.000000 1 0 0
-9.578785 5.254691 -7.503709 13.254077 -0.501749 2.172616 -0.004943 0.002135 2100670.000000 1 0 0
-0.469585 6.170691 -5.297209 8.146064 -1.494843 2.278747 0.003537 0.000751 -314489.000000 1 0 0
-8.212985 2.789091 -6.382109 10.768634 -0.327376 2.205150 0.003042 -0.000454 760318.000000 1 0 0
3.634615 1.429091 -1.979309 4.378400 0.374621 2.039872 0.001068 -0.000331 3119600.000000 1 0 0
-6.619785 12.428991 -3.480409 14.505675 -1.081404 1.813095 0.004206 -0.001192 1274770.000000 1 0 0
-6.576585 3.203891 -2.279009 7.662263 -0.453328 1.872799 0.000499 0.000685 -405583.000000 1 0 0
12.133115 4.025991 -0.828809 12.810464 0.320386 1.635539 -0.000935 0.004418 643687.000000 1 0 0
2.255915 12.352891 -5.592409 13.746203 1.390164 1.989781 0.000058 -0.000522 635261.000000 1 0 0
-9.186685 -1.415909 -4.295009 10.239487 0.152923 2.003642 0.000803 -0.000254 -1111280.000000 1 0 0
-1.194985 5.827791 3.441691 6.872872 -1.368550 1.046314 0.003325 0.000125 1671680.000000 1 0 0
11.490115 2.564591 12.088591 16.874060 0.219600 0.772166 0.030725 -0.003313 -965654.000000 1 0 0
-7.036385 -2.344709 -5.753609 9.386820 0.321654 2.230579 0.007505 -0.003509 -771911.000000 1 0 0
7.500315 -7.423009 10.904791 15.174658 -0.780218 0.768983 0.004223 -0.000704 -2508510.000000 1 0 0
-5.478685 -1.992909 -10.940909 12.397224 0.348877 2.652009 0.006842 -0.004839 455647.000000 1 0 0
0.785115 -6.193009 4.493591 7.691692 -1.444695 0.946886 -0.003198 0.001257 946599.000000 1 0 0
-4.851585 -9.416309 7.475791 12.965038 1.095037 0.956221 0.002565 -0.001828 1460980.000000 1 0 0
-8.795485 9.384191 1.595691 12.960317 -0.817769 1.447362 0.004811 -0.002662 378256.000000 1 0 0
-8.091385 7.200691 -9.163209 14.187490 -0.727218 2.272953 -0.002665 0.001851 -920012.000000 1 0 0
-1.266585 -10.642809 -0.139409 10.718818 1.452345 1.583803 -0.001960 0.002885 -1265080.000000 1 0 0
-3.921485 10.329791 7.791091 13.519753 -1.207974 0.956633 0.010181 -0.001326 2360890.000000 1 0 0
-7.464985 12.066891 1.981691 14.327001 -1.016788 1.432033 0.006966 -0.005369 2099330.000000 1 0 0
-8.141785 -8.198209 -2.842909 11.898800 0.788851 1.812054 0.011238 -0.002928 235095.000000 1 0 0
5.420315 4.569091 -8.099309 10.763606 0.700391 2.422603 -0.002034 0.001466 917700.000000 1 0 0
-8.908585 -0.179109 -10.225109 13.562737 0.020103 2.424793 0.004611 -0.004350 58031.300000 1 0 0
-15.189685 -2.233609 -1.666109 15.443169 0.146001 1.678893 0.008057 -0.000798 -167255.000000 1 0 0
-7.145785 -5.828409 8.819091 12.759662 0.684207 0.807690 0.004989 -0.001133 -1506480.000000 1 0 0
8.149215 3.346091 -1.025609 8.868929 0.389613 1.686696 0.000770 0.003964 888722.000000 1 0 0
11.889215 7.323591 -5.858809 15.143119 0.552091 1.968059 0.004668 0.001225 859511.000000 1 0 0
3.722715 13.308891 -9.552409 16.799812 1.298051 2.175602 -0.004126 -0.005658 882917.000000 1 0 0
-9.763685 5.450291 -0.504709 11.193299 -0.509133 1.615902 0.000064 0.002129 2537570.000000 1 0 0
11.152515 -1.380009 -5.194509 12.380062 -0.123114 2.003786 0.007291 0.001016 -561395.000000 1 0 0
10.623915 1.686491 -1.301609 10.835405 0.157431 1.691213 0.000092 0.002423 1004390.000000 1 0 0
14.605415 5.041191 4.888191 16.205744 0.332356 1.264391 0.005873 -0.002499 771399.000000 1 0 0
0.817515 -0.754309 10.374891 10.434351 -0.745208 0.106807 0.002387 -0.000730 1672220.000000 1 0 0
-7.853685 1.406791 -12.548309 14.870087 -0.177245 2.575238 -0.001122 -0.002231 -1002360.000000 1 0 0
3.126015 -11.461009 -7.822009 14.223591 -1.304521 2.153079 -0.002559 0.002972 -7187.760000 1 0 0
2.933615 5.028291 -6.804009 8.954571 1.042656 2.433858 -0.001090 0.000856 -1406260.000000 1 0 0
6.606315 7.997491 0.566391 10.388650 0.880373 1.516249 0.003400 -0.000666 -363152.000000 1 0 0
-9.108585 -5.463409 6.782591 12.602329 0.540279 1.002495 0.003817 -0.000775 46829.500000 1 0 0
-0.272085 -6.823509 -11.808309 13.640765 1.530943 2.617270 -0.000092 0.003992 1331150.000000 1 0 0
6.415915 -13.396709 -4.603909 15.550941 -1.124157 1.871355 0.002425 -0.001195 3399260.000000 1 0 0
-3.271085 -0.246309 10.033591 10.556212 0.075157 0.315982 0.000086 0.001744 -242723.000000 1 0 0
8.621615 8.406491 7.056491 13.956912 0.772765 1.040729 -0.005458 0.003952 41353.500000 1 0 0
-7.917585 5.750091 -2.684309 10.146783 -0.628122 1.838531 0.002144 0.000723 1547420.000000 1 0 0
-5.502985 5.838891 -6.513109 10.334219 -0.815006 2.252667 0.001583 0.000560 -291763.000000 1 0 0
3.332615 -13.663409 2.540691 14.291613 -1.331559 1.392071 0.002428 -0.003772 -2233120.000000 1 0 0
-11.288485 -7.131509 6.450491 14.828930 0.563439 1.120765 0.010752 -0.002097 -409803.000000 1 0 0
-12.906785 -3.728209 -6.779309 15.048046 0.281202 2.038134 0.012288 -0.003888 167341.000000 1 0 0
6.064715 0.355191 -7.365509 9.547652 0.058500 2.451909 -0.005806 0.004181 636918.000000 1 0 0
-1.406685 2.179691 -2.516409 3.614157 -0.997690 2.340976 0.000757 -0.001946 1901140.000000 1 0 0
7.516715 0.990391 -4.990409 9.076677 0.131004 2.152928 -0.001354 0.004097 312744.000000 1 0 0
3.681415 -4.480709 10.853991 12.306043 -0.883014 0.490696 -0.000089 0.000749 -460596.000000 1 0 0
6.052115 -2.553809 2.127691 6.904861 -0.399301 1.257555 0.003893 -0.000134 -1332990.000000 1 0 0
-6.286285 7.810891 1.165791 10.093882 -0.893129 1.455043 0.002449 0.000532 1746890.000000 1 0 0
6.064115 -3.450809 7.939291 10.569480 -0.517354 0.720990 0.001258 -0.001613 -198367.000000 1 0 0
6.700315 -2.311109 -7.915509 10.625005 -0.332147 2.411314 -0.003467 -0.000220 1576700.000000 1 0 0
12.058415 -8.216809 -5.815709 15.708081 -0.598145 1.950060 0.017817 -0.007238 2312940.000000 1 0 0
5.593515 -9.654609 10.004091 14.986018 -1.045690 0.839867 -0.003597 0.002584 1972210.000000 1 0 0
-6.631585 7.627791 -4.528109 11.075418 -0.855148 1.991982 0.004211 0.000288 2195590.000000 1 0 0
-1.353685 -7.557909 9.761791 12.419622 1.393567 0.666489 0.004070 -0.002425 -904034.000000 1 0 0
9.991615 -9.394009 0.774891 13.736092 -0.754581 1.514354 0.004121 -0.003956 1376000.000000 1 0 0
11.135015 5.977291 9.861691 16.030268 0.492653 0.908167 0.005559 -0.000663 1393670.000000 1 0 0
-15.347685 -4.247509 -5.078009 16.714633 0.269995 1.879481 0.014244 -0.003913 1955220.000000 1 0 0
-4.668385 -4.642909 7.853291 10.248151 0.782662 0.697714 0.002522 -0.000879 -788972.000000 1 0 0
2.930315 10.895691 -11.098809 15.826762 1.308070 2.347972 -0.002855 -0.001753 -974231.000000 1 0 0
9.979315 -1.480509 1.546291 10.206353 -0.147284 1.418708 -0.000298 0.001579 -639790.000000 1 0 0
-1.659485 -2.627409 0.692691 3.183864 1.007461 1.351479 -0.001270 -0.000923 13695.200000 1 0 0
1.507215 3.049891 0.881891 3.514436 1.111810 1.317152 0.001577 0.000414 322342.000000 1 0 0
-8.910585 -2.410409 4.317491 10.190649 0.264188 1.133301 -0.000099 -0.002672 5173700.000000 1 0 0
9.956115 4.877991 -2.732509 11.418652 0.455575 1.812443 -0.002809 0.002763 2191160.000000 1 0 0
2.639315 8.516691 2.489891 9.257405 1.270283 1.298481 -0.000566 -0.001192 2359290.000000 1 0 0
-8.067885 -0.111609 2.510791 8.450284 0.013833 1.269116 -0.003377 -0.002430 2320010.000000 1 0 0
7.004715 1.970891 13.721891 15.531926 0.274275 0.487592 0.005833 -0.002963 -982051.000000 1 0 0
6.933515 4.322591 3.768191 8.997648 0.557473 1.138676 -0.001271 0.001354 562908.000000 1 0 0
-0.305185 3.351991 7.801591 8.496693 -1.480001 0.407306 -0.002617 0.001920 455753.000000 1 0 0
2.704315 -10.199709 9.245791 14.029684 -1.311623 0.851286 -0.002504 -0.001854 2906500.000000 1 0 0
1.344215 -4.586409 6.892291 8.387237 -1.285694 0.606305 -0.000631 -0.000346 790824.000000 1 0 0
-0.070485 10.883591 -1.903909 11.049090 -1.564320 1.743974 0.000973 -0.000946 2991070.000000 1 0 0
8.805715 5.440091 8.058691 13.117839 0.553398 0.909259 -0.005657 0.002993 -54301.900000 1 0 0
2.692815 11.443391 -2.929309 12.115415 1.339685 1.815000 0.001542 -0.003514 1811840.000000 1 0 0
1.447715 2.515291 -6.744509 7.342409 1.048537 2.735241 0.000843 -0.002149 976103.000000 1 0 0
-13.520085 -2.293309 3.599591 14.177765 0.168023 1.314097 0.001485 -0.000874 -412099.000000 1 0 0
-0.974885 -10.578909 -5.375509 11.906294 1.478902 2.039225 -0.001486 0.000528 413506.000000 1 0 0
-5.704885 2.870591 0.469191 6.403604 -0.466189 1.497461 -0.000960 -0.000259 1097620.000000 1 0 0
3.770315 7.270091 -4.993809 9.592060 1.092375 2.118372 0.000654 -0.001605 -1816430.000000 1 0 0
3.001515 9.739291 -6.449609 12.060694 1.271846 2.135023 -0.000338 0.001294 1003300.000000 1 0 0
-12.130785 1.667091 -2.556309 12.508791 -0.136571 1.776607 0.002936 0.001758 1441460.000000 1 0 0
-2.469785 9.651691 -5.727409 11.491657 -1.320280 2.092545 -0.000403 0.000302 1628700.000000 1 0 0
-1.326185 3.388091 1.738791 4.032532 -1.197704 1.124984 -0.001313 -0.000861 -1426020.000000 1 0 0
12.866015 3.646591 9.709391 16.525865 0.276185 0.942797 0.025877 -0.005052 -359877.000000 1 0 0
-2.589185 -9.522509 11.686191 15.295395 1.305313 0.701255 0.002273 -0.009471 982271.000000 1 0 0
-0.437785 -8.901909 -7.633809 11.735020 1.521657 2.279059 0.002511 -0.000079 3551090.000000 1 0 0
2.348915 7.671291 -0.436709 8.034726 1.273665 1.625176 -0.000083 -0.000567 2782010.000000 1 0 0
-11.853385 -1.311409 -5.574609 13.164300 0.110188 2.008062 0.007632 0.000682 -1205230.000000 1 0 0
-6.267285 -7.184409 -10.952309 14.520595 0.853472 2.425323 0.007884 -0.001470 54848.900000 1 0 0
-4.743385 -2.214709 -1.391709 5.416779 0.436823 1.830636 0.001049 -0.002449 -993395.000000 1 0 0
-10.466185 3.708591 4.571691 12.008124 -0.340536 1.180225 -0.002542 -0.004194 2280670.000000 1 0 0
6.697715 9.362491 -3.646009 12.075140 0.949824 1.877527 0.002412 0.000731 -103932.000000 1 0 0
1.248415 -2.661609 -11.559209 11.927197 -1.132218 2.892543 -0.000635 -0.002338 -208699.000000 1 0 0
1.386815 8.875091 7.519691 11.714787 1.415791 0.873826 -0.000844 0.004348 216596.000000 1 0 0
10.266015 0.293291 10.488191 14.679211 0.028561 0.774897 0.009656 -0.002923 649194.000000 1 0 0
-5.297685 -0.841609 -3.966509 6.671354 0.157547 2.207513 0.002840 -0.004007 595161.000000 1 0 0
11.712515 5.652491 5.455691 14.103128 0.449633 1.173591 -0.001405 0.001443 2302760.000000 1 0 0
9.916315 -3.574909 3.669991 11.161636 -0.346005 1.235759 0.005310 -0.004910 -2233590.000000 1 0 0
7.272115 -1.571109 -3.387609 8.174836 -0.212775 1.998074 0.000267 0.001142 -2917640.000000 1 0 0
2.466515 9.291791 10.478391 14.220328 1.311329 0.742383 0.000782 0.003246 2814410.000000 1 0 0
2.452415 -10.952409 6.426291 12.933168 -1.350514 1.050791 -0.000331 0.001422 1340590.000000 1 0 0
5.875415 -7.580909 -1.280109 9.676227 -0.911469 1.703480 -0.002608 -0.001748 1674610.000000 1 0 0
-0.241085 -5.497009 -2.263109 5.949529 1.526967 1.961008 -0.003013 0.003948 724186.000000 1 0 0
7.749815 -5.127009 2.694791 9.675110 -0.584463 1.288535 0.002850 -0.003000 1340610.000000 1 0 0
-2.685385 -12.490709 4.682791 13.607264 1.359029 1.219475 0.002694 0.002647 -825426.000000 1 0 0
4.784015 -10.278709 -1.099809 11.390709 -1.135186 1.667500 -0.002181 -0.001945 1584870.000000 1 0 0
0.973015 0.240391 1.090891 1.481414 0.242207 0.743085 -0.001580 0.000837 -2206590.000000 1 0 0
-1.594885 8.650491 2.451591 9.131536 -1.388474 1.298987 0.001988 0.001151 281706.000000 1 0 0
-7.536285 0.691591 -3.083109 8.171870 -0.091512 1.957657 -0.001433 0.000770 -616239.000000 1 0 0
4.333815 -6.390109 12.864291 15.003514 -0.974847 0.540564 0.004014 0.000117 -1914870.000000 1 0 0
-5.025385 13.004791 8.487291 16.322168 -1.202046 1.023962 0.021119 -0.009479 2443400.000000 1 0 0
0.726415 6.131191 8.187791 10.254711 1.452867 0.646093 -0.000534 0.002993 1091830.000000 1 0 0
7.962615 -0.477709 -0.636809 8.002310 -0.059922 1.650459 0.001189 0.002495 2758220.000000 1 0 0
2.331515 -9.248409 -2.392309 9.833218 -1.323843 1.816551 -0.004155 0.000282 2041260.000000 1 0 0
-7.091385 12.224991 4.872991 14.949387 -1.045158 1.238763 0.007725 -0.005756 1501580.000000 1 0 0
-14.960685 0.226091 0.176991 14.963440 -0.015111 1.558968 0.003479 -0.001160 764095.000000 1 0 0
6.900515 -0.559609 3.924791 7.958282 -0.080920 1.055066 0.002726 -0.000207 2219030.000000 1 0 0
-4.139285 -5.012809 5.069791 8.244072 0.880555 0.908459 0.002134 -0.000525 -3862.390000 1 0 0
2.981915 5.138291 6.814991 9.040904 1.044964 0.716978 -0.002966 0.001273 -2189660.000000 1 0 0
1.991015 -7.176709 1.811391 7.664883 -1.300175 1.332216 -0.003854 0.000132 1590640.000000 1 0 0
-2.448085 6.454091 -1.717309 7.113196 -1.208255 1.814631 0.003465 -0.000951 923018.000000 1 0 0
2.645415 -3.762709 -6.593309 8.039150 -0.958019 2.532470 -0.005011 0.000446 -883001.000000 1 0 0
-5.075685 0.876191 -12.184209 13.228199 -0.170940 2.741638 -0.000764 -0.003053 150112.000000 1 0 0
-7.414785 6.347091 -11.917509 15.404273 -0.707970 2.455377 -0.010763 0.000363 2728740.000000 1 0 0
-1.081185 11.224991 -8.986809 14.419851 -1.474773 2.243656 -0.001279 0.000950 1630720.000000 1 0 0
4.656615 5.960791 -0.569509 7.585475 0.907620 1.645946 0.001148 0.000210 672031.000000 1 0 0
-2.547285 13.341991 3.554791 14.040438 -1.382144 1.314828 0.006233 -0.000517 1374730.000000 1 0 0
1.465215 -7.890309 10.152191 12.941052 -1.387190 0.668915 -0.002174 -0.001770 -64472.200000 1 0 0
12.982515 -0.317509 -1.092109 13.032237 -0.024452 1.654695 0.003122 0.001446 196348.000000 1 0 0
-1.042685 3.157891 -5.394909 6.337548 -1.251883 2.589181 0.003127 -0.004613 671049.000000 1 0 0
6.564115 1.090991 7.232091 9.827563 0.164700 0.743803 -0.000545 -0.001112 621324.000000 1 0 0
5.486515 -6.198709 6.876491 10.761597 -0.846271 0.877619 -0.001235 0.000198 -740670.000000 1 0 0
12.145115 -4.899109 2.679891 13.367382 -0.383418 1.368949 0.002925 -0.001931 -619916.000000 1 0 0
4.321615 -9.178609 13.879091 17.191637 -1.130751 0.631206 -0.002658 0.000884 -146880.000000 1 0 0
-2.741385 -4.297109 -1.392009 5.283752 1.002931 1.837394 0.001112 -0.000747 2564000.000000 1 0 0
-9.263385 -5.222009 -7.535909 13.033404 0.513320 2.187317 0.009514 -0.002531 638169.000000 1 0 0
-10.566485 -3.152909 7.858091 13.540348 0.289977 0.951643 0.000665 -0.001789 75913.600000 1 0 0
12.076315 -0.635009 1.643691 12.204193 -0.052535 1.435703 -0.001831 0.000420 337768.000000 1 0 0
-7.595685 4.648491 4.399791 9.932827 -0.549190 1.111905 -0.001814 -0.001522 2734600.000000 1 0 0
-1.011985 10.616591 6.997791 12.755594 -1.475762 0.990101 0.003572 0.000617 2169920.000000 1 0 0
7.293315 -10.046909 1.898591 12.559358 -0.942881 1.419045 0.000135 -0.002599 3820380.000000 1 0 0
-4.310585 -1.653309 1.678391 4.912390 0.366242 1.222109 -0.003302 0.000020 774264.000000 1 0 0
6.610215 -15.018409 -0.918109 16.434430 -1.156171 1.626690 0.009050 0.002816 -2347430.000000 1 0 0
-10.400085 1.685891 2.448391 10.816590 -0.160706 1.342462 -0.006496 0.000007 727469.000000 1 0 0
-2.972985 8.419991 -11.465009 14.532079 -1.231374 2.479886 -0.002431 0.003503 887811.000000 1 0 0
-1.232185 -5.119209 -6.895309 8.675821 1.334591 2.489430 -0.001254 -0.001576 -842843.000000 1 0 0
12.867415 -0.531709 6.472391 14.413359 -0.041299 1.105089 0.007169 -0.003981 2944070.000000 1 0 0
5.988415 -13.420409 3.722791 15.160068 -1.151093 1.322693 -0.001446 0.001005 359345.000000 1 0 0
-5.613285 3.468791 -4.926309 8.234683 -0.553521 2.212098 0.000909 -0.001225 662373.000000 1 0 0
-4.383085 8.156391 3.336691 9.842340 -1.077693 1.224928 0.003774 0.000703 -962092.000000 1 0 0
13.925815 6.153391 -4.004209 15.742497 0.416072 1.827979 0.002814 0.005402 -557429.000000 1 0 0
-6.695985 -8.464109 5.368991 12.054187 0.901504 1.109170 0.007754 -0.001164 1164070.000000 1 0 0
1.811615 11.348791 2.796791 11.827892 1.412501 1.332078 0.001071 -0.002806 1122890.000000 1 0 0
-7.341385 7.214291 6.004091 11.915999 -0.776667 1.042725 0.000887 -0.002934 -1092600.000000 1 0 0
-17.360585 -4.014109 5.219891 18.567451 0.227227 1.285824 0.017882 -0.008871 143190.000000 1 0 0
7.523515 -13.013109 -8.564009 17.299900 -1.046599 2.088668 0.000907 -0.000526 -2748400.000000 1 0 0
-2.180485 12.887391 -2.657409 13.337960 -1.403188 1.771375 -0.000614 0.001911 660090.000000 1 0 0
-5.475885 13.874591 -5.718809 15.974804 -1.194893 1.936910 0.007435 0.001135 3108830.000000 1 0 0
-5.607985 2.469591 7.437191 9.636399 -0.414817 0.689159 -0.001502 0.000243 1337670.000000 1 0 0
-7.472285 5.116291 1.460191 9.172984 -0.600385 1.410932 -0.000838 0.000011 3464790.000000 1 0 0
10.660115 -5.723909 -5.088209 13.125969 -0.492766 1.968871 0.010974 -0.002883 3507470.000000 1 0 0
-9.542885 -0.784409 6.783691 11.734582 0.082014 0.954406 -0.001251 -0.002198 816269.000000 1 0 0
-11.275285 -4.485009 -2.548909 12.399367 0.378585 1.777840 0.006074 -0.002330 -257874.000000 1 0 0
6.479115 -4.337009 13.520191 15.607182 -0.589881 0.523089 0.006273 -0.004022 -540274.000000 1 0 0
0.225215 10.310991 -11.632009 15.545767 1.548958 2.416206 -0.002482 0.002071 -1136800.000000 1 0 0
-11.697185 -3.181209 1.436691 12.206896 0.265541 1.452828 0.002962 -0.002117 3323800.000000 1 0 0
5.264015 5.939891 5.417391 9.609385 0.845650 0.971865 -0.001977 0.002331 -3966830.000000 1 0 0
-7.142485 0.099291 8.103291 10.802235 -0.013901 0.722508 -0.004393 0.001091 1686900.000000 1 0 0
1.715815 2.050291 9.577491 9.943643 0.873978 0.272217 0.000576 -0.000021 3295340.000000 1 0 0
10.452315 -4.916209 -2.061009 11.733191 -0.439645 1.747369 0.005828 -0.001858 1733240.000000 1 0 0
-9.683685 -2.373909 -1.628009 10.102456 0.240404 1.732652 0.000429 -0.000071 -25912.400000 1 0 0
-2.021685 -5.210509 -9.926609 11.391848 1.200676 2.628801 0.002445 -0.003424 593633.000000 1 0 0
7.660715 -1.623709 6.596291 10.238849 -0.208862 0.870765 0.002593 -0.003022 1507680.000000 1 0 0
1.447315 -11.902009 -2.510609 12.249723 -1.449788 1.777211 -0.004501 0.002571 -3556770.000000 1 0 0
-0.808285 -1.522609 4.808691 5.108343 1.082770 0.344215 0.000091 0.000407 2640990.000000 1 0 0
7.615315 1.512691 9.815991 12.515388 0.196086 0.669207 -0.000155 -0.000499 313065.000000 1 0 0
-3.851085 10.732491 -7.939309 13.894238 -1.226281 2.179020 0.001693 0.000848 2635250.000000 1 0 0
-9.550785 12.726991 6.428691 17.161639 -0.927017 1.186835 0.016686 -0.005248 1853520.000000 1 0 0
-2.560085 -2.443209 -11.101609 11.651997 0.762043 2.833008 0.004837 -0.004867 -3092610.000000 1 0 0
1.104815 -11.835809 11.054091 16.232681 -1.477721 0.821700 -0.003721 -0.001070 2525410.000000 1 0 0
1.364015 3.524391 -1.976309 4.264700 1.201528 2.052637 0.001924 -0.000709 2919790.000000 1 0 0
-1.997585 -9.350709 -12.114809 15.433558 1.360331 2.473437 0.001663 0.003262 -378101.000000 1 0 0
1.276415 -2.664309 1.588691 3.354358 -1.124025 1.077400 0.002322 0.000350 2867430.000000 1 0 0
-1.042285 -2.166809 -6.640709 7.062609 1.122445 2.794198 -0.000129 -0.004345 -1014890.000000 1 0 0
1.791415 5.931791 4.043191 7.398831 1.277504 0.992661 -0.004729 0.002546 534752.000000 1 0 0
-10.934385 8.599691 3.673891 14.387944 -0.666443 1.312592 -0.000675 -0.003671 1707190.000000 1 0 0
-16.275285 -1.497409 4.029191 16.833345 0.091747 1.329092 0.007599 -0.001652 878760.000000 1 0 0
-12.204185 0.249591 6.776191 13.961418 -0.020448 1.064032 -0.004542 0.000080 -637560.000000 1 0 0
-5.082285 3.057291 4.641491 7.531274 -0.541564 0.906766 -0.001926 0.000554 1551680.000000 1 0 0
5.194115 -6.105709 3.940691 8.932388 -0.865897 1.113896 -0.003618 -0.001189 1988280.000000 1 0 0
9.982015 3.359991 6.334591 12.290533 0.324692 1.029317 -0.003855 0.004005 624179.000000 1 0 0
-12.098985 5.835091 3.192891 13.806820 -0.449371 1.337429 -0.002366 -0.001918 1384510.000000 1 0 0
-4.746785 12.348191 -1.287609 13.291641 -1.203800 1.667822 -0.002290 0.001371 1453550.000000 1 0 0
-1.877085 -12.104109 10.318991 16.016070 1.416944 0.870702 0.010894 -0.006980 2043410.000000 1 0 0
5.242815 6.332191 13.931791 16.176481 0.879236 0.533097 0.006514 0.000561 347063.000000 1 0 0
12.905215 -3.779909 -5.981209 14.717580 -0.284928 1.989306 0.006552 -0.002662 1515000.000000 1 0 0
3.564315 -2.554109 6.383291 7.744302 -0.621766 0.601909 -0.000993 0.000751 1886400.000000 1 0 0
7.169415 -11.878209 -0.656809 13.889700 -1.027751 1.618101 0.003622 0.000623 -837245.000000 1 0 0
-6.076485 -6.530509 -4.115709 9.823965 0.821396 2.003080 0.012317 -0.002165 524127.000000 1 0 0
0.316115 -9.010809 5.085191 10.351511 -1.535729 1.057271 0.000313 -0.000346 2458600.000000 1 0 0
-10.211085 2.475791 -0.388309 10.514114 -0.237871 1.607737 -0.002052 0.001726 -1759430.000000 1 0 0
-1.860785 9.011591 -0.368109 9.209060 -1.367170 1.610779 0.004903 -0.001487 1826760.000000 1 0 0
-3.571185 2.375791 -6.567009 7.843682 -0.587033 2.563004 0.005281 -0.005810 -156245.000000 1 0 0
-12.718185 2.969691 6.377791 14.534356 -0.229390 1.116525 -0.003997 -0.004709 220942.000000 1 0 0
11.398015 1.554691 7.980091 14.000488 0.135564 0.964307 0.006740 -0.006413 -2741120.000000 1 0 0
5.933015 2.619391 -3.222809 7.242125 0.415758 2.031980 -0.003301 0.003731 1449140.000000 1 0 0
10.452315 -2.422209 6.449491 12.518543 -0.227719 1.029561 0.006834 -0.004559 2827180.000000 1 0 0
-0.827685 11.010191 4.085991 11.773049 -1.495763 1.216359 0.006052 -0.000973 404922.000000 1 0 0
-1.564185 -12.245109 7.447991 14.417418 1.443745 1.027925 0.001619 0.001958 -519476.000000 1 0 0
8.090415 8.658491 -7.895009 14.239222 0.819302 2.158504 0.004997 -0.003901 763248.000000 1 0 0
-4.717585 -5.914409 -8.792309 11.599162 0.897494 2.431057 0.008962 -0.004257 622690.000000 1 0 0
-8.544185 -5.378409 -11.690109 15.446328 0.561816 2.429232 0.008370 -0.001047 1920660.000000 1 0 0
6.024515 -0.688209 -9.999209 11.694127 -0.113742 2.596468 -0.005903 0.000845 -786774.000000 1 0 0
-11.170685 -5.393909 -5.403409 13.530532 0.449844 1.981603 0.003563 -0.004505 -1241120.000000 1 0 0
3.908115 8.895591 -2.699309 10.084204 1.156850 1.841778 0.004487 -0.002939 208816.000000 1 0 0
11.649515 -10.457109 -4.020109 16.162414 -0.731512 1.822167 0.013192 -0.008705 405807.000000 1 0 0
4.003515 -11.361509 3.969991 12.683566 -1.232007 1.252443 -0.003310 0.000216 -1152770.000000 1 0 0
-1.010185 0.842391 3.131291 3.396333 -0.695071 0.397679 -0.001698 0.000649 -1125260.000000 1 0 0
-10.617485 -5.133909 4.526191 12.632277 0.450388 1.204346 0.009183 -0.005404 2947260.000000 1 0 0
4.527815 -8.684909 2.774791 10.179795 -1.090221 1.294725 -0.004775 0.000466 3603100.000000 1 0 0
-3.608885 -5.752409 2.648391 7.288912 1.010495 1.198940 -0.001587 0.002111 2899610.000000 1 0 0
10.079015 5.086491 12.423791 16.787183 0.467370 0.737613 0.016804 0.001467 2372870.000000 1 0 0
1.627915 -12.288309 -5.244509 13.459477 -1.439087 1.971050 -0.000839 0.001104 1934940.000000 1 0 0
9.792915 -10.803809 -1.710809 14.681633 -0.834439 1.687589 0.008999 -0.005316 520075.000000 1 0 0
9.573015 -4.559509 -9.178709 14.024280 -0.444498 2.284300 0.008089 -0.003333 1456760.000000 1 0 0
-7.392485 -3.163509 -13.074409 15.349163 0.404355 2.590207 0.006672 -0.000698 1745970.000000 1 0 0
0.440315 6.278791 -2.464409 6.759467 1.500784 1.943985 0.001891 -0.001323 2102320.000000 1 0 0
-5.889185 -9.480709 1.009491 11.206490 1.014952 1.480593 0.004513 0.000272 762946.000000 1 0 0
-8.910285 -4.094809 0.617691 9.825588 0.430775 1.507889 -0.000069 -0.001532 2229150.000000 1 0 0
1.872015 3.895991 12.008291 12.762532 1.122872 0.345513 0.005346 -0.002504 2122560.000000 1 0 0
6.553215 4.279791 9.655391 12.429312 0.578539 0.681190 -0.006141 0.003632 3637090.000000 1 0 0
-8.304585 9.944291 -3.658409 13.462504 -0.875010 1.846005 0.001086 0.000097 3879050.000000 1 0 0
16.261215 2.062291 -6.017009 17.460944 0.126149 1.922607 -0.000415 0.001836 -172738.000000 1 0 0
-10.866785 2.610391 -5.127109 12.295870 -0.235750 2.000914 -0.001612 0.003927 917936.000000 1 0 0
-13.690585 4.025091 1.410491 14.339559 -0.285947 1.472273 -0.004423 0.003869 -375605.000000 1 0 0
-17.403785 10.536791 3.340591 20.617353 -0.544403 1.408051 0.011985 -0.003373 -1624000.000000 1 0 0
-14.327985 2.853691 -1.160209 14.655402 -0.196596 1.650045 0.000214 0.004914 2090560.000000 1 0 0
-14.344185 5.144091 5.071491 16.060428 -0.344332 1.249522 -0.003575 -0.002286 403970.000000 1 0 0
-17.563785 7.539791 3.131491 19.368563 -0.405491 1.408404 0.010816 0.002260 -542106.000000 1 0 0
-14.888685 12.603091 -3.350809 19.792391 -0.702452 1.740914 0.020964 -0.006780 -946139.000000 1 0 0
-8.517985 12.585591 -9.572909 17.960895 -0.975808 2.132922 0.002563 -0.007073 2354010.000000 1 0 0
-12.270785 8.857391 -9.924709 18.097663 -0.625226 2.151243 0.002395 -0.000415 -774406.000000 1 0 0
-13.805385 -3.514609 -12.248609 18.787484 0.249287 2.280957 0.011873 0.000614 -1338510.000000 1 0 0
-14.912585 5.925391 -7.818309 17.849969 -0.378213 2.024170 0.012376 0.005915 972546.000000 1 0 0
-10.909585 13.498191 -8.286309 19.232346 -0.891060 2.016234 0.009545 -0.013742 858647.000000 1 0 0
-10.876585 13.552791 3.934791 17.817430 -0.894512 1.348121 0.016822 -0.006996 -1789100.000000 1 0 0
-15.153885 3.268191 2.917491 15.774443 -0.212413 1.384775 -0.004007 0.003729 -162994.000000 1 0 0
-10.946985 9.490291 -12.503209 19.137198 -0.714242 2.282792 -0.001940 0.000818 -224219.000000 1 0 0
-13.037385 11.644191 -9.085209 19.700295 -0.729011 2.050111 0.005779 -0.013965 -812989.000000 1 0 0
-8.701285 14.545491 -3.350309 17.277391 -1.031693 1.765946 0.004623 -0.009426 2783120.000000 1 0 0
-16.685985 8.326991 -4.242109 19.124758 -0.462880 1.794469 0.010200 0.002129 -448999.000000 1 0 0
-16.942485 6.737291 0.307491 18.235499 -0.378485 1.553933 0.004678 0.005857 -376212.000000 1 0 0
-10.353385 2.857091 -12.557909 16.524425 -0.269256 2.434049 0.001759 -0.000027 412166.000000 1 0 0
-16.820085 0.903391 2.409491 17.015788 -0.053657 1.428716 -0.001330 0.000957 913161.000000 1 0 0
-12.531685 1.227891 -7.028709 14.420596 -0.097671 2.079915 0.004375 0.000423 1095340.000000 1 0 0
-12.226885 8.995991 -5.377909 16.104238 -0.634322 1.911281 0.005496 -0.000421 -1421720.000000 1 0 0
-9.679685 14.027591 1.286991 17.091692 -0.966782 1.495426 0.018354 -0.005529 945451.000000 1 0 0
-12.182085 11.118391 2.815591 16.731687 -0.739779 1.401713 0.009948 -0.004889 1289680.000000 1 0 0
-12.633185 6.830191 -3.684709 14.826529 -0.495640 1.821950 0.000840 0.004791 2649610.000000 1 0 0
-15.836585 3.800491 -9.656809 18.933967 -0.235528 2.106011 0.016996 0.005633 -1649600.000000 1 0 0
-15.157685 5.914991 -4.873009 16.984957 -0.372056 1.861787 0.003587 0.007763 343564.000000 1 0 0
-17.848985 5.279291 7.574091 20.095373 -0.287577 1.184341 0.008005 0.001754 -863036.000000 1 0 0
-15.739985 10.127391 -2.137009 18.838205 -0.571734 1.684481 0.011783 -0.002060 -1140150.000000 1 0 0
-8.749085 9.951391 -8.375309 15.675537 -0.849603 2.134466 -0.000100 -0.003750 431651.000000 1 0 0
-16.947885 4.308091 -1.389509 17.541984 -0.248924 1.650090 -0.004038 0.007675 185961.000000 1 0 0
-10.215385 5.349691 -4.588209 12.410679 -0.482419 1.949481 -0.002735 0.001814 774362.000000 1 0 0
-18.107985 2.758291 6.044591 19.288452 -0.151163 1.252047 0.015118 -0.004082 505871.000000 1 0 0
-10.349585 10.166991 -5.718909 15.594471 -0.776499 1.946284 -0.000435 -0.003678 1142250.000000 1 0 0
-15.265985 0.558391 -5.962509 16.398586 -0.036561 1.942925 0.006172 0.001474 987174.000000 1 0 0
-16.400885 -4.037909 -9.007409 19.142287 0.241400 2.060711 0.015264 -0.011969 -435902.000000 1 0 0
-10.034885 9.616491 -1.137409 13.945233 -0.764111 1.652450 0.001194 0.000638 3293510.000000 1 0 0
-17.449785 -2.979509 -3.352209 18.016931 0.169117 1.757946 0.016069 -0.000186 40187.700000 1 0 0
-11.893285 5.054191 -11.623609 17.381121 -0.401838 2.303321 0.004707 0.002708 831498.000000 1 0 0
-16.300085 7.041491 5.799291 18.679056 -0.407777 1.255109 0.005957 0.001905 1825200.000000 1 0 0
-12.139285 6.062791 -8.911609 16.233806 -0.463196 2.151908 0.008098 0.001704 2521170.000000 1 0 0
-14.555485 8.410791 0.071391 16.810968 -0.523969 1.566550 0.003547 0.001551 150241.000000 1 0 0
-14.912785 11.889591 3.997891 19.486833 -0.673077 1.364171 0.009477 -0.006660 2014200.000000 1 0 0
-17.323985 4.156091 -4.229509 18.310715 -0.235454 1.803887 0.006898 0.007305 425222.000000 1 0 0
-13.895885 13.458691 -0.731009 19.358883 -0.769417 1.608566 0.020619 -0.006506 195042.000000 1 0 0
-9.989485 6.845291 -13.184409 17.901856 -0.600758 2.398652 -0.010321 -0.002454 1509480.000000 1 0 0
-15.831885 -1.053909 -8.366709 17.937702 0.066471 2.056049 0.013421 -0.005618 68654.400000 1 0 0
-11.494685 11.930591 -0.004109 16.567039 -0.804004 1.571044 0.012838 -0.003394 1068590.000000 1 0 0
-12.057885 7.411791 -0.929609 14.184196 -0.551147 1.636382 -0.002305 0.005764 1389890.000000 1 0 0
-11.430885 0.151491 -11.771809 16.409253 -0.013252 2.370843 0.007873 -0.000770 858174.000000 1 0 0
-19.181085 -1.198809 -4.831709 19.816574 0.062418 1.817101 0.015389 0.002228 -1731300.000000 1 0 0
-17.917485 1.475991 -5.331309 18.752005 -0.082192 1.859079 0.000446 0.009348 -429024.000000 1 0 0
-13.286785 -0.089609 -9.533509 16.353424 0.006744 2.193172 0.012077 -0.003615 -1112010.000000 1 0 0
-6.012885 11.371991 -13.159409 18.402364 -1.084418 2.367554 -0.014978 0.005570 -1626010.000000 1 0 0
16.287215 5.691691 7.207491 18.698038 0.336192 1.175082 0.012804 -0.010247 337871.000000 1 0 0
14.953915 10.101191 -5.525809 18.872949 0.594085 1.867940 0.024863 0.000306 1507630.000000 1 0 0
2.547415 16.888691 4.342791 17.623196 1.421089 1.321807 0.017052 -0.009661 1598670.000000 1 0 0
-3.824085 18.262191 -5.811009 19.542238 -1.364380 1.872719 -0.003682 -0.000540 3346000.000000 1 0 0
5.471815 14.532291 5.747891 16.557973 1.210687 1.216279 -0.001602 -0.005670 -951411.000000 1 0 0
10.041115 6.044091 15.178091 19.176273 0.541841 0.657531 0.035857 0.001260 -1156310.000000 1 0 0
4.778315 12.745591 -1.055009 13.652671 1.212114 1.648148 0.001908 -0.005117 2244770.000000 1 0 0
3.747715 13.626091 13.054091 19.238633 1.302393 0.825030 0.004567 -0.002299 -268727.000000 1 0 0
-0.633385 12.405191 9.213391 15.465332 -1.519783 0.932604 0.004715 -0.000059 3276150.000000 1 0 0
-7.698285 13.937591 8.432491 18.017406 -1.066159 1.083748 0.025980 -0.015062 2106040.000000 1 0 0
11.423015 12.906891 -4.242709 17.750315 0.846312 1.812154 0.021680 0.004648 152619.000000 1 0 0
-5.728785 16.115391 0.987291 17.131828 -1.229243 1.513135 0.006736 0.000127 91718.100000 1 0 0
3.324515 10.622091 6.802291 13.044246 1.267473 1.022214 -0.006035 0.005503 1560290.000000 1 0 0
-1.154085 15.558291 2.502891 15.800531 -1.496754 1.411721 0.005945 -0.003750 -1701950.000000 1 0 0
9.940715 8.736091 9.605491 16.352448 0.720989 0.942949 0.003524 0.002000 1313470.000000 1 0 0
7.270115 12.236691 6.167191 15.512105 1.034708 1.161926 -0.006221 0.002157 392096.000000 1 0 0
11.868015 13.916491 -1.586009 18.358483 0.864678 1.657295 0.007203 0.002255 1026780.000000 1 0 0
9.741615 15.912791 -1.258009 18.700229 1.021463 1.638120 0.007001 -0.003322 390661.000000 1 0 0
10.165015 13.733991 2.947391 17.338891 0.933638 1.399980 -0.002484 0.001853 1268530.000000 1 0 0
-5.904185 14.520991 6.323691 16.902888 -1.184616 1.187350 0.010096 -0.010602 812139.000000 1 0 0
-0.787885 18.239591 -6.226109 19.289061 -1.527627 1.899461 0.016592 0.003501 1921630.000000 1 0 0
-3.332785 15.712491 5.490491 16.974549 -1.361784 1.241419 0.002605 -0.004827 2326530.000000 1 0 0
7.167115 12.268991 10.616991 17.737422 1.042102 0.929088 -0.006414 0.003172 957577.000000 1 0 0
1.647515 14.641691 6.219091 15.992826 1.458745 1.171394 0.005620 -0.003281 567435.000000 1 0 0
17.374815 7.676691 -1.531709 19.056807 0.416038 1.651259 -0.007432 0.014284 594115.000000 1 0 0
2.041915 16.130791 -3.246809 16.580518 1.444881 1.767891 -0.000810 -0.001519 114209.000000 1 0 0
6.827915 11.120891 0.556391 13.061554 1.020167 1.528186 0.002815 0.000442 1045590.000000 1 0 0
12.698715 9.304191 3.253991 16.075254 0.632329 1.366965 -0.002150 0.004262 -1851320.000000 1 0 0
6.063815 14.299491 -3.319009 15.882730 1.169724 1.781318 -0.001640 -0.000404 1608470.000000 1 0 0
3.158515 16.586791 1.486691 16.950165 1.382626 1.482974 0.005209 -0.007843 -1686830.000000 1 0 0
2.849615 18.808291 -2.413509 19.175430 1.420431 1.696996 0.013757 -0.017033 35068.800000 1 0 0
4.130915 11.928091 10.748091 16.579061 1.237405 0.865456 -0.001345 0.001770 2824730.000000 1 0 0
8.082915 11.531191 3.343991 14.473567 0.959426 1.337649 -0.006200 0.004373 -356247.000000 1 0 0
0.825615 12.518691 0.272591 12.548847 1.504941 1.549072 0.003472 -0.004333 201525.000000 1 0 0
11.987715 9.999091 -4.691309 16.300169 0.695197 1.862733 0.011664 0.005824 1413420.000000 1 0 0
-1.054285 16.373591 9.951591 19.189584 -1.506496 1.025591 0.009227 -0.006450 -121936.000000 1 0 0
8.145415 14.747491 -8.059309 18.675886 1.066169 2.016991 0.025207 -0.007556 1464640.000000 1 0 0
14.396115 7.658391 -1.456109 16.371296 0.488900 1.659857 -0.003655 0.009747 -279981.000000 1 0 0
12.508215 8.301891 6.007691 16.170008 0.585956 1.190137 0.004576 -0.002833 -536368.000000 1 0 0
-2.970085 14.195491 10.260391 17.765387 -1.364544 0.955073 0.015482 -0.006886 1771780.000000 1 0 0
-4.586785 17.268991 -3.057109 18.127398 -1.311182 1.740252 0.007334 -0.000636 3547460.000000 1 0 0
-7.057085 16.483791 -1.667409 18.008277 -1.166284 1.663520 0.007660 -0.001372 286033.000000 1 0 0
8.381315 11.178991 -1.892609 14.099583 0.927463 1.705434 0.005058 -0.000292 -136562.000000 1 0 0
8.552815 12.891591 -4.229009 16.038337 0.985030 1.837633 0.016962 -0.001785 1987870.000000 1 0 0
2.537115 14.834391 -7.388409 16.765580 1.401406 2.027163 -0.003998 -0.002077 -1902090.000000 1 0 0
11.370715 11.234491 9.708691 18.702022 0.779372 1.024969 0.009330 -0.003753 -306670.000000 1 0 0
8.681715 15.767091 1.440091 18.056776 1.067475 1.490958 0.002964 -0.002454 335640.000000 1 0 0
6.105815 9.885591 7.762691 13.973734 1.017501 0.981808 -0.007778 0.009520 2972940.000000 1 0 0
14.409115 11.431191 2.791191 18.603372 0.670661 1.420191 0.005318 0.003756 1653820.000000 1 0 0
12.251615 12.620191 1.156291 17.626919 0.800216 1.505151 0.005528 0.003386 1334870.000000 1 0 0
5.392315 15.882491 8.283491 18.706865 1.243494 1.112072 0.008896 -0.001914 -132726.000000 1 0 0
11.497015 15.030091 5.187191 19.621211 0.917806 1.303249 0.002549 0.002283 1647030.000000 1 0 0
6.053915 16.904691 1.737591 18.039891 1.226906 1.474327 0.002709 -0.013028 1631780.000000 1 0 0
-0.596385 16.209791 -4.149009 16.742977 -1.534021 1.821211 0.006752 0.001864 1619290.000000 1 0 0
16.079315 6.449491 2.667591 17.528729 0.381458 1.418019 -0.004701 0.004594 -335746.000000 1 0 0
7.687115 16.696891 -3.191809 18.656515 1.139334 1.742725 0.003202 -0.003060 356116.000000 1 0 0
14.793515 8.115391 7.547391 18.484338 0.501750 1.150191 0.018206 -0.008933 -1471650.000000 1 0 0
2.264515 13.015391 8.676691 15.805486 1.398533 0.989668 0.004170 0.003050 1841850.000000 1 0 0
15.971715 7.388691 -5.751309 18.513940 0.433292 1.886670 -0.001585 0.006346 -2344650.000000 1 0 0
-2.955485 17.052291 0.829891 17.326403 -1.399182 1.522881 0.001871 -0.002251 1552300.000000 1 0 0
-2.807785 18.589891 4.754691 19.392647 -1.420891 1.323091 0.005922 -0.003663 1363040.000000 1 0 0
-0.908885 19.233791 0.978991 19.280124 -1.523577 1.519997 0.010320 -0.002520 1382500.000000 1 0 0
6.932215 16.784491 -6.036909 19.136849 1.179122 1.891738 0.005836 -0.001252 -124983.000000 1 0 0
11.048715 10.028991 0.795391 14.942804 0.737057 1.517542 -0.001343 0.005105 -852499.000000 1 0 0
9.238615 8.765391 14.452991 19.263256 0.759120 0.722299 0.027007 0.000114 -877694.000000 1 0 0
6.288615 12.405991 -8.415909 16.256777 1.101643 2.114941 0.015995 -0.008644 1186070.000000 1 0 0
6.459115 8.949591 13.395791 17.356916 0.945640 0.689154 0.009133 -0.004871 2315290.000000 1 0 0
16.572815 9.437891 3.222591 19.342106 0.517676 1.403406 0.002011 0.002368 -1565990.000000 1 0 0
2.705115 14.739591 -0.681609 15.001259 1.389289 1.616249 0.001191 -0.004850 1725690.000000 1 0 0
9.196615 12.833991 8.318391 17.846139 0.949028 1.085899 -0.002655 -0.000905 674586.000000 1 0 0
7.273715 9.341891 10.596291 15.888965 0.909233 0.840761 -0.003684 0.004860 790793.000000 1 0 0
4.298015 15.739391 -5.258309 17.142087 1.304222 1.882571 -0.001556 -0.004361 1832050.000000 1 0 0
0.309115 16.419491 -8.173709 18.344066 1.551972 2.032616 0.001275 0.003217 109845.000000 1 0 0
-2.348985 15.811591 -1.917709 16.099743 -1.423314 1.690194 -0.000901 0.002560 -1841800.000000 1 0 0
13.282415 10.460191 7.620191 18.544688 0.667086 1.147345 0.013486 -0.009181 1012420.000000 1 0 0
-0.814585 15.874691 7.057291 17.391800 -1.519528 1.152961 0.010646 -0.004817 1555190.000000 1 0 0
13.303215 13.316791 6.801791 20.014415 0.785908 1.224045 0.010586 -0.003315 -530092.000000 1 0 0
5.526415 17.273491 4.592291 18.708390 1.261151 1.322795 0.010712 -0.010473 2089350.000000 1 0 0
10.839815 9.508391 -1.887309 14.542112 0.720059 1.700946 0.002055 0.005230 -91575.400000 1 0 0
3.330515 12.758391 4.776491 14.024397 1.315450 1.223258 -0.001314 0.001981 1296930.000000 1 0 0
-0.081885 18.034991 3.577591 18.386591 -1.566256 1.374971 0.012095 -0.009476 4236520.000000 1 0 0
-7.644485 15.906991 -5.628709 18.524386 -1.122810 1.879532 0.014342 -0.011934 430948.000000 1 0 0
-12.567085 -9.110309 8.230391 17.568970 0.627265 1.083247 0.012401 -0.001801 -362500.000000 1 0 0
-13.311985 -11.690409 6.726791 18.950576 0.720632 1.207920 0.012338 -0.003436 -1679800.000000 1 0 0
-6.580685 -12.190509 12.485391 18.649368 1.075802 0.837287 0.012001 -0.004221 -1177320.000000 1 0 0
-1.806885 -10.716609 14.383591 18.027707 1.403761 0.647059 -0.001484 -0.008347 658347.000000 1 0 0
-8.842785 2.844191 11.052891 14.437821 -0.311190 0.698899 -0.000347 0.002039 1477140.000000 1 0 0
0.401215 9.963091 15.335091 18.291778 1.530548 0.576529 0.013501 -0.005434 432401.000000 1 0 0
0.926015 -6.779409 16.556591 17.914759 -1.435044 0.391894 0.000896 -0.008440 1258540.000000 1 0 0
6.081015 2.409391 17.778091 18.943189 0.377239 0.352550 0.025891 -0.009533 -98016.200000 1 0 0
-5.128285 -2.954409 17.616791 18.584379 0.522661 0.324107 0.013061 -0.013350 -227831.000000 1 0 0
-4.372085 8.177991 13.077291 16.031537 -1.079841 0.616819 0.004729 0.002133 -710040.000000 1 0 0
0.087515 -4.811409 18.555791 19.169629 -1.552609 0.253747 0.008468 -0.017141 -770424.000000 1 0 0
-11.564385 1.979691 11.205191 16.223763 -0.169545 0.808388 -0.003244 -0.001414 1257280.000000 1 0 0
-3.402385 -6.053009 14.431791 16.015359 1.058712 0.448446 0.006232 -0.006739 1865230.000000 1 0 0
-7.506085 -2.239609 14.668291 16.628768 0.289963 0.490488 0.009364 -0.002286 974797.000000 1 0 0
-6.134285 -1.045009 10.533891 12.234556 0.168736 0.533574 -0.002008 0.002140 1721770.000000 1 0 0
-4.017985 2.442991 11.164591 12.114475 -0.546291 0.398637 0.000222 0.004170 1751070.000000 1 0 0
-6.508485 6.311091 13.567191 16.317442 -0.770001 0.589078 -0.005159 0.002822 264137.000000 1 0 0
-9.022885 5.507591 12.588891 16.438558 -0.548033 0.698489 -0.007655 0.001748 -1392330.000000 1 0 0
-12.289285 -2.244309 15.923791 20.239332 0.180633 0.665231 0.014988 0.003750 905787.000000 1 0 0
-3.437285 -7.701609 16.899391 18.887009 1.151017 0.462897 0.012096 -0.011728 -1408060.000000 1 0 0
-0.521985 -5.378409 14.369291 15.351751 1.474047 0.359697 0.005498 -0.001982 2049140.000000 1 0 0
-14.240485 -2.305409 13.633591 19.848958 0.160499 0.813627 0.009855 0.001562 1616430.000000 1 0 0
-6.501885 1.413791 12.229591 13.922507 -0.214110 0.498283 0.001218 0.000660 1655870.000000 1 0 0
2.178615 -2.194709 14.565691 14.890348 -0.789078 0.209203 0.003432 -0.001972 1902000.000000 1 0 0
-12.553085 3.967591 9.161191 16.038988 -0.306129 0.962850 -0.009867 0.001162 -1303170.000000 1 0 0
-9.083885 -3.012809 12.600891 15.823288 0.320249 0.649558 0.000465 0.001790 1630710.000000 1 0 0
-7.169285 -7.208409 15.253391 18.331005 0.788119 0.587897 0.018619 -0.010361 -1452550.000000 1 0 0
-3.282085 6.104291 19.487891 20.683625 -1.077470 0.341691 0.027526 -0.003339 -1339270.000000 1 0 0
0.656715 5.462591 16.189991 17.099327 1.451150 0.327591 0.013676 -0.003532 246422.000000 1 0 0
3.449715 1.585591 16.739191 17.164357 0.430833 0.223039 0.005197 -0.008058 2189990.000000 1 0 0
-11.719085 11.444991 7.785591 18.136708 -0.773566 1.127109 0.010424 -0.009846 864777.000000 1 0 0
0.624215 -9.483509 15.491691 18.174682 -1.505070 0.550281 -0.009566 0.001070 285127.000000 1 0 0
-2.529285 -3.579609 18.849391 19.352272 0.955667 0.228469 0.012188 -0.018522 1019490.000000 1 0 0
-12.835685 2.308791 13.836491 19.014042 -0.177970 0.755836 -0.006848 -0.001894 -591916.000000 1 0 0
-5.380385 -0.609009 15.830791 16.731210 0.112711 0.329565 0.010202 -0.002499 1171690.000000 1 0 0
-4.526185 -5.970709 11.725891 13.915180 0.922154 0.568575 0.004709 -0.002398 1872510.000000 1 0 0
2.448215 1.956891 13.894191 14.243304 0.674322 0.221863 0.004435 -0.001722 634082.000000 1 0 0
0.085915 3.386591 14.218491 14.616493 1.545433 0.233898 0.009230 -0.004680 1700750.000000 1 0 0
-12.944385 7.086191 12.170291 19.128178 -0.500871 0.881169 -0.003490 -0.002694 639974.000000 1 0 0
0.872515 1.422591 18.224891 18.301139 1.020634 0.091315 0.011535 -0.007390 1406250.000000 1 0 0
-2.005985 6.491291 12.451791 14.184778 -1.271078 0.499488 0.003454 0.001577 774491.000000 1 0 0
-13.431085 -2.661309 10.846791 17.467956 0.195612 0.900838 0.008816 -0.001134 -164739.000000 1 0 0
-2.609885 3.751691 13.481791 14.235356 -0.962992 0.326833 0.003450 -0.000991 764455.000000 1 0 0
3.549715 6.188491 16.351591 17.840191 1.050015 0.411407 0.012936 -0.005121 932729.000000 1 0 0
-3.798985 12.336891 12.295591 17.827302 -1.272074 0.809714 0.025193 -0.008034 -67419.600000 1 0 0
3.681915 -1.395509 17.023291 17.472732 -0.362288 0.227304 0.010906 -0.007619 -376454.000000 1 0 0
-15.781685 0.554491 9.193891 18.272840 -0.035121 1.043562 0.011557 0.000072 339351.000000 1 0 0
-4.781885 4.603091 15.291291 16.669686 -0.766349 0.409522 0.009590 -0.000397 1792980.000000 1 0 0
-8.035785 -8.242309 10.415891 15.524184 0.798085 0.835312 0.006331 -0.004794 3039750.000000 1 0 0
-2.677085 -0.418709 14.768191 15.014711 0.155148 0.181459 0.008523 -0.003300 1770430.000000 1 0 0
-1.873085 1.048991 17.223291 17.356571 -0.510514 0.124007 0.005223 -0.006465 335030.000000 1 0 0
-0.818685 -2.516009 14.374991 14.616460 1.256211 0.182022 0.007410 -0.002754 1304160.000000 1 0 0
5.026315 -8.256409 16.539091 19.156557 -1.023948 0.528896 -0.001929 0.000498 -310464.000000 1 0 0
-4.462985 9.985791 10.687791 15.292584 -1.150495 0.796956 0.007540 -0.004079 -1344310.000000 1 0 0
-6.251685 2.051591 15.312091 16.665915 -0.317093 0.405851 0.007117 0.002177 266800.000000 1 0 0
-5.024385 6.824291 17.296691 19.261124 -0.936153 0.455570 0.012391 0.004131 -2135380.000000 1 0 0
-4.257885 9.213891 15.827391 18.802438 -1.137913 0.570236 0.017834 0.001455 621470.000000 1 0 0
-4.485885 -10.022109 18.290691 21.333429 1.149941 0.540654 0.015759 -0.013309 1729420.000000 1 0 0
-6.861185 -4.036009 11.117291 13.673309 0.531726 0.621398 0.002945 0.001120 -224516.000000 1 0 0
-2.336085 -0.781409 19.550491 19.705065 0.322796 0.125337 0.008759 -0.010280 -912199.000000 1 0 0
-5.760585 -4.540509 15.313891 16.979865 0.667506 0.446682 0.012207 -0.007736 1707990.000000 1 0 0
-12.887685 0.016391 9.685391 16.121399 -0.001272 0.926322 -0.003368 0.002317 31535.200000 1 0 0
-14.451985 8.853291 10.437591 19.904370 -0.549633 1.018801 0.000783 0.000201 -853126.000000 1 0 0
-8.437085 10.521491 12.904591 18.665868 -0.894904 0.807445 0.001760 -0.004925 -1783730.000000 1 0 0
-10.457985 7.173891 10.703791 16.595340 -0.601249 0.869789 -0.004899 0.001949 -1591980.000000 1 0 0
-9.850485 -6.517009 14.859891 18.982092 0.584482 0.671584 0.022030 -0.006587 -997435.000000 1 0 0
-0.726885 -13.448209 14.413591 19.726487 1.516798 0.751491 -0.005211 -0.004853 176916.000000 1 0 0
3.740715 -5.684709 16.884691 18.204440 -0.988796 0.383117 0.007964 -0.005826 1976860.000000 1 0 0
-7.288185 9.379691 10.463091 15.829482 -0.910227 0.848662 0.003496 -0.003596 2150100.000000 1 0 0
-10.291585 -6.699009 11.846091 17.062336 0.577022 0.803373 0.012850 -0.005531 1548940.000000 1 0 0
-10.865685 -3.961909 10.671891 15.736870 0.349645 0.825560 0.005095 0.002532 -699116.000000 1 0 0
-10.201785 -10.303509 9.752891 17.474484 0.790359 0.978676 0.012191 -0.002198 1997150.000000 1 0 0
-9.902385 -3.633709 15.256091 18.547490 0.351697 0.604930 0.014286 -0.008045 1013520.000000 1 0 0
5.528115 -3.355209 16.086391 17.337516 -0.545504 0.382225 0.008401 -0.004292 93913.200000 1 0 0
-11.385885 0.474691 15.457291 19.203946 -0.041667 0.635286 0.005120 0.002936 -436197.000000 1 0 0
-3.134085 3.212091 18.832291 19.359628 -0.797689 0.233938 0.008289 -0.003997 -1271110.000000 1 0 0
0.507215 7.384191 13.948791 15.790893 1.502215 0.487847 0.014433 -0.006891 2230500.000000 1 0 0
-13.170385 -7.347609 12.210891 19.404955 0.508880 0.890187 0.011964 -0.002548 93912.600000 1 0 0
-1.529185 -1.090309 12.146191 12.290530 0.619398 0.153408 0.002994 -0.001178 -854167.000000 1 0 0
2.068615 -4.816609 13.122791 14.131048 -1.165141 0.380041 0.002073 -0.002417 581423.000000 1 0 0
-14.635385 -4.051509 8.645091 17.474176 0.270066 1.053266 0.014454 -0.007964 -1084830.000000 1 0 0
8.134115 0.969891 16.188491 18.143091 0.118677 0.468454 0.022656 -0.005484 858405.000000 1 0 0
-1.334385 11.300491 13.438291 17.608786 -1.453259 0.702610 0.008381 -0.002851 2216470.000000 1 0 0
2.744715 -12.095909 -13.801509 18.556027 -1.347662 2.409497 0.009524 0.009065 -7337.120000 1 0 0
0.635515 -10.641609 -13.962309 17.566838 -1.511147 2.489492 0.005418 0.007427 -2574380.000000 1 0 0
3.396115 -14.341909 -12.643009 19.418281 -1.338283 2.279813 0.015784 0.012751 -477240.000000 1 0 0
-5.000985 -10.206709 -16.188409 19.780075 1.115205 2.529452 0.002360 -0.009184 -953226.000000 1 0 0
-1.183085 -12.067009 -15.142309 19.398504 1.473066 2.466408 0.015128 0.007028 -236012.000000 1 0 0
5.839615 -15.155309 -11.959009 20.169343 -1.203010 2.205489 0.008445 0.012793 640301.000000 1 0 0
1.808515 -11.890509 -16.137209 20.126213 -1.419856 2.501099 0.015270 0.006474 -647273.000000 1 0 0
1.284415 -14.264309 -14.111609 20.106162 -1.480995 2.348795 0.024528 0.013360 -164270.000000 1 0 0
-1.159585 -10.683309 -16.006309 19.278996 1.462678 2.550345 0.006428 0.004270 -515786.000000 1 0 0
-5.782085 -5.528109 -15.110209 17.097103 0.762946 2.654693 0.008353 -0.004850 -215845.000000 1 0 0
-6.454185 -7.642209 -16.432909 19.237993 0.869478 2.594788 0.009210 -0.008903 460779.000000 1 0 0
5.112615 -12.722509 -11.440709 17.857517 -1.188691 2.266162 0.005726 0.012673 -354092.000000 1 0 0
-2.018485 -15.641709 -13.195409 20.563467 1.442461 2.267498 0.025707 0.011074 -235633.000000 1 0 0
15.742515 -7.486909 -8.904809 19.574887 -0.443926 2.043067 0.010080 0.005018 556423.000000 1 0 0
19.093515 -3.713609 -4.293209 19.919459 -0.192098 1.788029 0.011733 -0.014030 331136.000000 1 0 0
14.845015 -11.763409 -8.785609 20.879157 -0.670099 2.005105 0.026287 -0.009128 -166816.000000 1 0 0
17.866915 -3.712609 -6.644309 19.420529 -0.204877 1.919977 0.036533 -0.007230 469708.000000 1 0 0
9.432315 -9.063209 -15.414509 20.216761 -0.765444 2.437906 0.025670 -0.007776 369747.000000 1 0 0
1.292015 1.888791 -15.385809 15.555062 0.970860 2.993940 0.008100 -0.002516 149983.000000 1 0 0
4.737715 -4.344109 -14.019209 15.422563 -0.742085 2.711690 -0.003430 0.004712 -12944.700000 1 0 0
13.111215 -5.633809 -8.593209 16.657941 -0.405840 2.112811 0.020327 -0.004026 -1401560.000000 1 0 0
2.960315 0.976291 -12.143509 12.537202 0.318561 2.890325 -0.000738 0.000327 -3017500.000000 1 0 0
0.627315 6.362291 -13.038209 14.521266 1.472515 2.685704 0.007576 0.002115 -125544.000000 1 0 0
3.062515 -1.132209 -16.935309 17.247191 -0.354115 2.951131 0.011634 -0.002621 -380465.000000 1 0 0
13.071415 4.192591 -11.437009 17.867425 0.310379 2.265430 0.002051 -0.003253 159366.000000 1 0 0
-3.932885 9.608991 -16.453009 19.455123 -1.182305 2.578654 -0.000224 0.006626 -718623.000000 1 0 0
-0.219385 -5.027809 -17.691609 18.393478 1.527190 2.864451 0.009328 -0.008756 420135.000000 1 0 0
-0.524485 -8.560709 -17.547809 19.531678 1.509606 2.686973 0.007963 -0.002574 -529711.000000 1 0 0
5.585715 -10.202109 -12.099209 16.783150 -1.069870 2.375917 0.008419 0.002819 374311.000000 1 0 0
1.745915 -9.764309 -18.147409 20.681354 -1.393860 2.641372 0.015079 0.000066 -430021.000000 1 0 0
10.903115 8.687091 -14.466209 20.090163 0.672758 2.374691 0.048448 -0.023997 -1701910.000000 1 0 0
10.946915 -3.900809 -12.851809 17.326865 -0.342311 2.406438 0.020481 -0.004410 240308.000000 1 0 0
4.822915 7.468891 -12.360309 15.225705 0.997426 2.518034 -0.006880 0.001661 -685585.000000 1 0 0
9.632115 -6.038609 -12.612709 16.980073 -0.559982 2.408031 0.014141 -0.003547 -923780.000000 1 0 0
-3.329085 0.288791 -15.968209 16.314102 -0.086531 2.935304 0.005032 -0.004329 -1001430.000000 1 0 0
-0.707585 10.830491 -12.846009 16.817258 -1.505556 2.440067 -0.002164 0.005380 -2472500.000000 1 0 0
6.614915 -5.428609 -12.605709 15.235839 -0.687213 2.545209 -0.000076 0.002725 -208465.000000 1 0 0
17.868015 -6.316909 -8.203909 20.651233 -0.339818 1.979326 0.015340 -0.006690 258783.000000 1 0 0
13.029615 4.635891 -14.006709 19.683756 0.341829 2.362551 0.017393 -0.012824 421852.000000 1 0 0
14.160715 0.636791 -11.569209 18.296938 0.044939 2.255319 0.016098 -0.002496 15912.500000 1 0 0
14.927515 6.005991 -11.091609 19.542938 0.382525 2.174324 0.004702 -0.011439 273555.000000 1 0 0
8.268915 1.455891 -11.699309 14.400292 0.174282 2.519114 -0.006532 0.004729 868416.000000 1 0 0
9.845015 1.196291 -8.902509 13.327044 0.120920 2.302319 -0.003322 0.001289 -148838.000000 1 0 0
-0.148785 -5.693609 -12.950009 14.147158 1.544670 2.727244 -0.002302 -0.000002 150464.000000 1 0 0
10.544415 -5.806609 -8.981209 15.018772 -0.503366 2.211798 0.014169 -0.007235 -858874.000000 1 0 0
10.299415 8.444291 -11.271709 17.448078 0.686746 2.273148 0.030452 -0.014384 822961.000000 1 0 0
8.387015 8.157591 -14.606709 18.714814 0.771532 2.466244 0.025677 -0.007731 1046530.000000 1 0 0
8.591415 10.459391 -10.781409 17.304625 0.883138 2.243415 0.035538 -0.015494 -1238800.000000 1 0 0
6.937515 1.883991 -18.082509 19.459077 0.265171 2.763196 0.016679 0.008440 -1469050.000000 1 0 0
12.186115 2.368491 -12.892809 17.897924 0.191966 2.375106 0.011846 -0.005432 -1035680.000000 1 0 0
2.561115 -1.050109 -19.484509 19.680146 -0.389115 3.000473 0.020760 -0.007420 -428973.000000 1 0 0
10.293315 -2.328909 -15.591809 18.827657 -0.222508 2.546566 0.024776 0.003296 -194326.000000 1 0 0
8.231515 -0.826809 -13.132009 15.520667 -0.100109 2.579419 0.002481 0.000921 695980.000000 1 0 0
0.495915 4.314391 -14.680609 15.309480 1.456354 2.853976 0.005461 0.000047 963244.000000 1 0 0
3.980515 -7.642509 -15.755009 17.957527 -1.090617 2.641105 0.004718 0.001381 -762657.000000 1 0 0
11.415015 -5.855209 -14.508209 19.366832 -0.473945 2.417539 0.027903 -0.000220 -1223790.000000 1 0 0
-5.958785 4.309591 -16.821609 18.358819 -0.626149 2.729460 -0.004161 0.003031 45268.800000 1 0 0
11.316815 7.805491 -8.993009 16.427726 0.603797 2.150085 0.017940 -0.008172 -1447380.000000 1 0 0
9.576015 6.200491 -13.486009 17.664048 0.574617 2.439469 0.014470 -0.001713 -152112.000000 1 0 0
11.965415 0.523191 -10.205309 15.735095 0.043697 2.276500 0.003490 -0.000277 -480640.000000 1 0 0
5.441315 -7.372109 -13.766109 16.536676 -0.934958 2.554328 0.003079 0.005588 -687169.000000 1 0 0
8.642015 -10.352209 -10.641809 17.178497 -0.875194 2.238882 0.007688 0.002922 -169818.000000 1 0 0
9.981515 4.648891 -15.871009 19.316619 0.435874 2.535052 0.023526 -0.005758 -790756.000000 1 0 0
9.792015 -0.428509 -10.959509 14.702994 -0.043733 2.411921 0.001232 -0.000281 -1128590.000000 1 0 0
-1.675585 5.617791 -14.140009 15.307090 -1.280933 2.748570 0.001505 0.000241 -133562.000000 1 0 0
1.294515 -0.686709 -15.041609 15.112821 -0.487730 3.044477 0.004698 -0.002575 -669392.000000 1 0 0
11.476815 -10.486909 -14.274309 21.105650 -0.740359 2.313560 0.031542 -0.001558 891132.000000 1 0 0
9.421015 -7.838309 -10.818909 16.347581 -0.693952 2.294020 0.012164 -0.000279 -276386.000000 1 0 0
13.902315 -1.080109 -9.694209 16.982894 -0.077537 2.178303 0.006829 -0.000442 982740.000000 1 0 0
3.973215 11.177191 -12.286209 17.078260 1.229252 2.373744 0.004326 -0.008365 -627150.000000 1 0 0
-1.392385 2.906691 -16.984409 17.287503 -1.124067 2.954061 0.006164 -0.004491 -373298.000000 1 0 0
6.083715 -0.558709 -17.765709 18.786808 -0.091580 2.810378 0.013508 0.006341 48115.400000 1 0 0
6.380915 -6.645609 -16.096609 18.546726 -0.805715 2.621745 0.011978 0.005990 351676.000000 1 0 0
-1.712585 -5.290009 -19.783909 20.550431 1.257705 2.867608 0.016184 -0.016003 -636498.000000 1 0 0
-0.035885 -4.303909 -15.221909 15.818706 1.562459 2.866032 0.001309 -0.006731 -91476.300000 1 0 0
0.436415 0.889291 -13.054309 13.091840 1.114580 3.065855 0.001323 -0.002520 2137130.000000 1 0 0
15.723415 0.681291 -13.603409 20.802468 0.043303 2.283567 0.036274 -0.006767 458884.000000 1 0 0
-0.175885 7.072491 -16.335709 17.801867 -1.545933 2.732898 0.006443 0.001860 -366430.000000 1 0 0
-5.027385 -0.517209 -18.281109 18.966841 0.102518 2.871873 0.001404 -0.002689 -67921.900000 1 0 0
10.339015 -8.457009 -13.102809 18.710955 -0.685603 2.346579 0.014084 -0.006906 606097.000000 1 0 0
4.058115 8.803791 -17.145409 19.696195 1.138873 2.627000 0.005524 -0.012434 -478905.000000 1 0 0
9.156615 0.762491 -17.076009 19.391108 0.083080 2.647945 0.014240 0.005510 20494.000000 1 0 0
3.311215 4.840191 -18.619309 19.521021 0.970816 2.836464 0.012747 -0.004850 -653465.000000 1 0 0
1.384715 -8.102909 -16.050309 18.032942 -1.401540 2.668262 -0.001173 0.001759 341214.000000 1 0 0
4.575815 7.603091 -14.978409 17.409705 1.029028 2.606749 0.001671 -0.000938 172793.000000 1 0 0
-5.736385 -0.318809 -15.175409 16.226546 0.055520 2.779679 0.005130 -0.004682 -1652160.000000 1 0 0
2.863415 3.371691 -13.836409 14.526309 0.866737 2.832161 0.001051 0.000770 -536818.000000 1 0 0
-2.352085 -10.250209 -18.221609 21.038682 1.345234 2.618144 0.005683 0.003438 -20627.600000 1 0 0
6.095815 -9.184509 -15.615309 19.114185 -0.984846 2.526897 0.002340 0.008024 -87541.500000 1 0 0
-1.821685 5.490891 -17.475009 18.407726 -1.250458 2.821894 0.001252 0.004264 919734.000000 1 0 0
10.086015 -12.225709 -11.742909 19.725405 -0.881006 2.208459 0.015284 0.003419 570595.000000 1 0 0
10.806815 3.529491 -9.443409 14.779125 0.315677 2.263954 -0.002241 -0.001458 -858593.000000 1 0 0
4.801415 -0.491409 -11.008209 12.019806 -0.101992 2.728389 -0.004025 -0.001244 244785.000000 1 0 0
6.189815 9.525691 -11.472709 16.145453 0.994560 2.361125 0.010396 -0.010999 434769.000000 1 0 0
10.783815 -9.594009 -9.317609 17.180033 -0.727077 2.144029 0.015321 -0.005752 -1914950.000000 1 0 0
3.181215 -2.425009 -14.627409 15.164495 -0.651321 2.874653 0.005276 -0.002549 -46691.700000 1 0 0
9.205315 -4.623009 -14.683309 17.936265 -0.465415 2.529832 0.017792 -0.001723 -897233.000000 1 0 0
-3.989285 -6.625309 -16.624909 18.335668 1.028813 2.706184 -0.002870 -0.006183 -267424.000000 1 0 0
5.848015 -7.691109 -11.282909 14.854511 -0.920697 2.433434 0.002813 0.001257 452445.000000 1 0 0
5.356015 6.586891 -17.082609 19.075890 0.888099 2.680367 0.015320 -0.000756 -786670.000000 1 0 0
9.046915 1.366391 -19.607909 21.637555 0.149901 2.705001 0.029183 0.001312 386823.000000 1 0 0
13.008115 5.677391 -9.334509 16.987551 0.411529 2.152551 0.000489 -0.005385 591353.000000 1 0 0
-1.572085 -0.742709 -17.376909 17.463678 0.441354 3.041867 0.006237 -0.007473 339598.000000 1 0 0
-0.684385 -0.551209 -19.697309 19.716902 0.678030 3.097009 0.018499 -0.010542 -124613.000000 1 0 0
2.787815 6.531491 -16.662809 18.113020 1.167379 2.738712 0.005697 0.005302 -1308900.000000 1 0 0
7.602715 3.648391 -15.567909 17.705136 0.447422 2.645161 0.009259 -0.001429 -23146.500000 1 0 0
3.001315 -9.863409 -14.976709 18.182314 -1.275410 2.538696 0.008451 0.006571 201447.000000 1 0 0
8.969615 -10.618709 -13.383209 19.295628 -0.869388 2.337254 0.014900 0.002581 -59907.500000 1 0 0
3.730415 0.145891 -14.922309 15.382217 0.039088 2.896444 0.003551 -0.001443 -2313500.000000 1 0 0
-1.262585 -2.876209 -18.819009 19.079356 1.157148 2.976205 0.016912 -0.013073 -144533.000000 1 0 0
9.348615 10.198791 -13.145509 19.084453 0.828864 2.330639 0.041488 -0.018043 235505.000000 1 0 0
4.732015 2.121291 -10.723109 11.911209 0.421427 2.691148 -0.008277 0.004028 243995.000000 1 0 0
-0.284685 7.143491 -18.862809 20.172161 -1.530965 2.779313 0.012461 -0.002166 -100635.000000 1 0 0
0.811115 -1.645309 -17.755609 17.850115 -1.112776 3.038645 0.018747 -0.007808 -3166490.000000 1 0 0
-4.381385 -2.176809 -14.059809 14.886681 0.461109 2.806730 0.004134 -0.008059 -4770320.000000 1 0 0
10.092915 5.958891 -10.369909 15.649611 0.533333 2.295122 0.008652 -0.002012 -17774.800000 1 0 0
8.091415 5.541891 -17.303309 19.889396 0.600526 2.625951 0.030462 -0.015483 -872347.000000 1 0 0
11.322015 0.008991 -13.588609 17.687238 0.000794 2.446934 0.008546 0.002659 399967.000000 1 0 0
6.808615 12.005091 -11.923009 18.238355 1.054886 2.283303 0.028591 -0.016455 -374882.000000 1 0 0
-0.927085 0.621991 -15.196509 15.237462 -0.590934 3.068260 0.004321 -0.003441 -537792.000000 1 0 0
-4.422285 -2.875609 -18.983009 19.702294 0.576554 2.870550 -0.000101 -0.006557 845214.000000 1 0 0
5.793315 -12.013709 -13.900509 19.264368 -1.121469 2.376858 0.013369 0.004461 39721.300000 1 0 0
2.155515 -4.794309 -13.995009 14.949647 -1.148276 2.782293 0.001206 0.000722 -839720.000000 1 0 0
11.738415 1.757891 -15.359409 19.411131 0.148651 2.483676 0.024325 -0.003710 487251.000000 1 0 0
9.726315 2.134991 -13.727009 16.958484 0.216080 2.514008 0.006082 -0.000813 -45328.100000 1 0 0
-2.256285 -4.175409 -16.469709 17.139901 1.075373 2.861026 -0.001050 -0.009509 -1262810.000000 1 0 0
-2.887185 10.313191 -14.238809 17.816886 -1.297833 2.496718 0.001661 0.003758 -136632.000000 1 0 0
3.449015 5.781891 -13.732909 15.294403 1.032939 2.685781 0.001986 0.001910 -311455.000000 1 0 0
-5.035085 -2.506109 -16.508709 17.440474 0.461829 2.813239 0.004669 -0.006045 499903.000000 1 0 0
-4.300785 6.270791 -13.584709 15.568041 -0.969634 2.631302 -0.007028 -0.000622 -873588.000000 1 0 0
5.935015 -1.099309 -14.296909 15.518843 -0.183149 2.742107 0.000225 0.005785 -1299190.000000 1 0 0
6.537215 -2.914809 -12.638909 14.524921 -0.419422 2.626310 -0.003641 0.000111 720764.000000 1 0 0
2.814315 -3.342609 -18.340209 18.853559 -0.870993 2.907701 0.016201 -0.007343 -411914.000000 1 0 0
7.460715 -12.087709 -12.010309 18.601680 -1.017815 2.272680 0.007418 0.004333 -2465930.000000 1 0 0
-6.109485 -5.408609 -17.712209 19.501313 0.724623 2.709896 0.018961 -0.007080 384922.000000 1 0 0
0.488615 8.732791 -11.932609 14.794848 1.514903 2.509069 -0.001869 0.003002 138358.000000 1 0 0
0.267115 8.620791 -14.417409 16.800329 1.539821 2.602476 -0.001628 0.000192 -307834.000000 1 0 0
7.735815 -2.612709 -14.986509 17.066474 -0.325713 2.642727 0.007420 -0.008701 -655272.000000 1 0 0
14.248615 1.384691 -9.007909 16.913983 0.096877 2.132432 0.003761 0.003037 338837.000000 1 0 0
2.754015 10.825791 -14.681309 18.447850 1.321687 2.491170 0.001480 0.000292 312102.000000 1 0 0
6.010215 1.045291 -15.689509 16.833776 0.172197 2.770759 0.006611 0.003185 566311.000000 1 0 0
16.747515 -5.417809 -10.337409 20.413083 -0.312874 2.101814 0.046970 -0.008972 621827.000000 1 0 0
4.839515 -4.370909 -11.243609 12.997865 -0.734564 2.616017 -0.002031 0.003369 -1418920.000000 1 0 0
8.714415 -3.737909 -17.083509 19.538661 -0.405198 2.634879 0.007615 -0.002231 420331.000000 1 0 0
13.358615 -9.644709 -8.844609 18.700271 -0.625329 2.063451 0.024223 -0.007882 308326.000000 1 0 0
2.229215 -7.878109 -13.662509 15.927905 -1.295042 2.601716 0.000971 0.004998 253493.000000 1 0 0
-6.942985 -2.427809 -18.310509 19.732563 0.336388 2.759627 0.007691 -0.007426 -682991.000000 1 0 0
-1.463585 -6.524609 -15.775909 17.134524 1.350131 2.740689 -0.000589 -0.004446 -236156.000000 1 0 0
1.520515 -7.180609 -18.516309 19.918003 -1.362126 2.764195 0.008231 -0.004770 -352179.000000 1 0 0
5.290515 10.961391 -14.528509 18.953079 1.121125 2.444250 0.014013 -0.018433 -655423.000000 1 0 0
5.391015 -3.546909 -17.541009 18.690388 -0.581930 2.789069 0.013497 -0.001262 36784.300000 1 0 0
3.941715 13.106891 -14.123409 19.667191 1.278664 2.371894 0.007968 -0.010286 6332.100000 1 0 0
9.445915 10.415291 -15.666709 21.051113 0.834167 2.410166 0.054965 -0.025851 129436.000000 1 0 0
2.565115 4.012491 -16.287309 16.969276 1.001992 2.857127 0.006237 -0.002288 733482.000000 1 0 0
16.623615 1.554391 -11.412809 20.224068 0.093234 2.170403 0.025973 -0.006653 -511476.000000 1 0 0
9.918415 -3.824609 -10.571609 14.992048 -0.368037 2.353428 0.013257 -0.003084 -232109.000000 1 0 0
14.651515 -2.247409 -11.949309 19.039531 -0.152205 2.249270 0.032550 -0.007047 841524.000000 1 0 0
-2.816085 -8.632809 -16.212609 18.582369 1.255473 2.631036 0.003951 0.005869 -748962.000000 1 0 0
13.961015 8.136791 -8.976009 18.484751 0.527693 2.077834 0.022797 -0.004816 912986.000000 1 0 0
-8.153085 0.270991 -16.639709 18.531761 -0.033226 2.685777 -0.005604 -0.000854 -774655.000000 1 0 0
-3.510485 4.050291 -15.948709 16.825269 -0.856673 2.817381 -0.000143 -0.000464 -2644590.000000 1 0 0
14.977215 3.884291 -9.693409 18.258337 0.253756 2.130462 0.002137 -0.002213 511103.000000 1 0 0
5.341015 1.067091 -13.085509 14.173767 0.197195 2.747174 -0.005129 0.005242 295797.000000 1 0 0
7.777815 -7.787809 -12.856809 16.924595 -0.786040 2.433575 0.010882 0.001244 -3504250.000000 1 0 0
3.267915 -6.246709 -11.905509 13.836249 -1.088807 2.606964 0.000616 0.002221 -1333020.000000 1 0 0
-3.259885 3.598991 -18.572909 19.197201 -0.834798 2.885867 0.000043 0.002845 -6116.780000 1 0 0
0.823815 5.107991 -17.852909 18.587539 1.410894 2.859508 0.010998 -0.006129 -800770.000000 1 0 0
6.205815 7.193491 -10.251809 13.977054 0.858976 2.394216 -0.000383 -0.001697 357944.000000 1 0 0
9.689815 3.727291 -11.731609 15.665754 0.367213 2.417151 0.005465 0.000184 376451.000000 1 0 0
4.461515 1.489491 -17.784609 18.396087 0.322218 2.883038 0.013885 0.004419 -868934.000000 1 0 0
2.576615 8.170291 -13.401809 15.906008 1.265304 2.572820 0.000376 0.000201 448781.000000 1 0 0
14.349615 -3.632709 -9.790709 17.747282 -0.247948 2.155166 0.020226 -0.004621 374023.000000 1 0 0
-1.354485 9.426491 -16.205809 18.796851 -1.428084 2.610305 0.004282 0.003585 -1224420.000000 1 0 0
-5.249285 2.073091 -15.750409 16.731052 -0.376126 2.797518 -0.001533 -0.002155 703303.000000 1 0 0
4.420315 4.346191 -12.000109 13.506709 0.776943 2.664765 -0.003207 0.001764 438522.000000 1 0 0
9.058915 3.250391 -17.784109 20.221363 0.344498 2.645547 0.018670 0.004022 635117.000000 1 0 0
-4.234885 14.398391 -13.245909 20.017543 -1.284741 2.293900 0.002971 -0.000456 -726022.000000 1 0 0
15.492615 -5.114609 -7.938409 18.143833 -0.318867 2.023642 0.021404 -0.003600 1135650.000000 1 0 0
1.193615 9.340991 -16.755909 19.220804 1.443703 2.629578 0.004869 0.002290 -1081290.000000 1 0 0
0.496215 -3.155809 -12.893909 13.283759 -1.414835 2.898724 -0.001767 -0.002991 187243.000000 1 0 0
7.516415 3.426891 -13.014509 15.414847 0.427767 2.576024 -0.000258 0.004002 -325988.000000 1 0 0
-2.995085 7.691391 -15.059309 17.172968 -1.199455 2.640211 0.001318 0.005618 323827.000000 1 0 0
12.054615 -5.220709 -10.994309 17.130218 -0.408701 2.267650 0.024979 -0.007106 -1151120.000000 1 0 0
0.645115 -4.304609 -20.020109 20.487816 -1.422037 2.927509 0.021737 -0.011697 -309539.000000 1 0 0
3.360315 -4.581409 -16.233209 17.198782 -0.937960 2.804917 0.004889 -0.001153 480973.000000 1 0 0
-5.551485 4.078691 -14.273109 15.848544 -0.633639 2.691931 -0.007172 -0.000618 430132.000000 1 0 0
12.206415 -7.544209 -9.884909 17.424784 -0.553588 2.174008 0.018219 -0.002970 -82250.500000 1 0 0
-1.900385 -1.776209 -14.992909 15.216889 0.751636 2.969806 0.002813 -0.003655 822286.000000 1 0 0
7.094215 5.846891 -14.247709 16.956156 0.689310 2.568573 0.006627 -0.000353 -455170.000000 1 0 0
4.046715 -5.594609 -18.553909 19.797048 -0.944588 2.785327 0.016770 -0.001956 -11335.400000 1 0 0
7.564915 7.462091 -12.348609 16.291068 0.778556 2.431036 0.005966 -0.004295 1132310.000000 1 0 0
12.213015 -2.610409 -11.061709 16.683326 -0.210571 2.295669 0.017725 -0.005188 15379.500000 1 0 0
7.393615 -0.794609 -10.731109 13.055790 -0.107061 2.535610 -0.003735 0.000526 -2633370.000000 1 0 0
5.303415 3.976891 -14.333809 15.792402 0.643420 2.708422 0.000465 0.002735 -425754.000000 1 0 0
14.761115 2.883491 -12.858509 19.787529 0.192914 2.278156 0.021693 -0.012746 61004.800000 1 0 0
-6.530085 6.736191 -15.832409 18.403355 -0.800933 2.606655 -0.010788 0.008237 312269.000000 1 0 0
-11.294585 3.716491 -16.512609 20.348126 -0.317891 2.517520 0.016693 0.000541 585701.000000 1 0 0
-5.120885 6.441891 -18.025909 19.815520 -0.899151 2.713325 -0.007809 0.015284 -503514.000000 1 0 0
-10.113085 1.504491 -15.556809 18.615915 -0.147684 2.560153 0.014733 -0.003181 -261619.000000 1 0 0
-7.640285 5.859491 -17.916609 20.339923 -0.654243 2.648471 -0.007359 0.006240 -471791.000000 1 0 0
-8.684085 3.692691 -15.836209 18.434609 -0.402061 2.604203 -0.005997 0.016148 -840693.000000 1 0 0
8.940915 13.472291 -11.952609 20.107398 0.984884 2.207363 0.052520 -0.026056 -1259400.000000 1 0 0
13.688215 8.970691 -11.452209 19.974824 0.580133 2.181363 0.011239 -0.014956 635205.000000 1 0 0
8.533315 15.971591 -9.104209 20.268098 1.080102 2.036654 0.045826 -0.012179 242195.000000 1 0 0
7.138115 13.614091 -13.826509 20.675311 1.087884 2.303316 0.034089 -0.021155 -82889.000000 1 0 0
4.612715 16.095591 -12.308009 20.780574 1.291694 2.204687 0.030740 -0.022854 179026.000000 1 0 0
11.011015 11.036091 -11.433109 19.332711 0.786536 2.203574 0.036627 -0.021328 -32696.300000 1 0 0
15.746715 9.668991 -9.958909 20.991148 0.550673 2.065117 0.021876 -0.002697 -282534.000000 1 0 0
13.369515 10.589591 -9.460209 19.503305 0.669887 2.077224 0.050684 -0.013462 260150.000000 1 0 0
10.307115 11.921291 -8.613209 17.959431 0.857889 2.070987 0.026314 0.003924 352341.000000 1 0 0
5.389015 16.093691 -9.843609 19.620015 1.247679 2.096374 0.019050 -0.022925 -252630.000000 1 0 0
6.713815 14.659691 -11.578809 19.850709 1.141328 2.193575 0.031569 -0.009403 -580336.000000 1 0 0
10.857415 14.105491 -9.938209 20.386670 0.914787 2.080004 0.048957 -0.004379 -393138.000000 1 0 0
8.169615 -18.643609 -1.289509 20.395823 -1.157799 1.634063 0.032983 0.005843 -10961.400000 1 0 0
7.227015 -17.395609 -3.359009 19.134260 -1.177042 1.747260 0.020952 0.002047 -110117.000000 1 0 0
4.331615 -18.512009 5.533291 19.800876 -1.340942 1.287578 0.011699 0.005524 -109388.000000 1 0 0
9.698415 -17.027809 -2.583509 19.765628 -1.053057 1.701879 0.023562 0.002130 -1075740.000000 1 0 0
-9.642285 -12.346809 -10.093809 18.636050 0.907777 2.143169 0.018695 -0.002659 -887157.000000 1 0 0
-5.288885 -7.027009 -12.175409 15.019712 0.925601 2.516021 0.003394 -0.001908 3431.860000 1 0 0
-10.863785 -9.476709 -5.662209 15.488398 0.717311 1.945049 0.007485 -0.002946 -152365.000000 1 0 0
-4.588785 -11.414609 -13.964109 18.610390 1.188559 2.419372 0.006426 -0.003634 -82314.200000 1 0 0
-2.804185 -15.619009 7.376591 17.499457 1.393152 1.135662 -0.003416 0.003072 164748.000000 1 0 0
-4.789685 -11.996709 -11.593009 17.356843 1.190937 2.302209 0.008758 0.001040 234961.000000 1 0 0
-14.229485 -12.815709 -4.234009 19.612432 0.733171 1.788393 0.008758 0.001399 -234615.000000 1 0 0
-3.120285 -12.215809 -3.383209 13.054052 1.320714 1.832958 0.003154 -0.000292 564074.000000 1 0 0
-2.319685 -17.346909 -1.491709 17.564777 1.437862 1.655825 -0.009315 0.001621 -4111.720000 1 0 0
-5.695785 -12.084109 3.798691 13.888762 1.130334 1.293758 0.001765 -0.000919 83412.000000 1 0 0
-8.864485 -10.633809 -11.986509 18.312111 0.875893 2.284406 0.014969 -0.001629 -656036.000000 1 0 0
-10.155185 -11.892709 -7.549809 17.365597 0.864042 2.020564 0.014086 -0.002787 -98562.800000 1 0 0
-10.894885 -15.182109 6.187291 19.684449 0.948347 1.251052 0.006216 -0.007105 482354.000000 1 0 0
-9.405185 -15.625009 0.587391 18.246738 1.028958 1.538599 0.002810 0.004380 -2479540.000000 1 0 0
-14.964285 -7.687009 -8.230609 18.728665 0.474540 2.025800 0.017834 -0.005080 196866.000000 1 0 0
-2.437185 -16.630609 5.038791 17.547263 1.425284 1.279541 0.004172 0.003679 418985.000000 1 0 0
4.537515 -15.934209 6.015391 17.625918 -1.293374 1.222517 0.013508 -0.001733 -41470.800000 1 0 0
4.123415 -14.591709 -10.092609 18.214865 -1.295391 2.158061 0.004601 0.006542 108400.000000 1 0 0
-7.426285 -13.995709 -0.216109 15.845387 1.082960 1.584435 0.002519 -0.001718 1247670.000000 1 0 0
2.977415 -14.951409 9.589291 18.010112 -1.374228 1.009317 0.009846 -0.006570 -385489.000000 1 0 0
2.365115 -17.260509 10.580191 20.382821 -1.434620 1.025029 0.020498 -0.001275 57334.200000 1 0 0
-8.196485 -17.023309 -5.967709 19.813858 1.122069 1.876735 0.006383 -0.003209 -110232.000000 1 0 0
-6.336785 -9.211209 -7.747009 13.602109 0.968208 2.176748 0.010210 -0.002457 703924.000000 1 0 0
-5.992385 -13.021909 -4.827609 15.125628 1.139511 1.895647 0.002996 -0.005311 197354.000000 1 0 0
2.114915 -19.339509 -4.932009 20.070232 -1.461872 1.819077 0.007878 -0.004667 194884.000000 1 0 0
-5.651585 -12.810009 8.411991 16.333963 1.155297 1.029789 0.007259 -0.003025 912113.000000 1 0 0
2.140615 -17.535909 3.405691 17.991361 -1.449327 1.380351 0.004426 -0.006672 -22774.500000 1 0 0
-17.713485 -9.916809 -2.506809 20.454700 0.510370 1.693659 0.034119 -0.003161 708624.000000 1 0 0
-3.434585 -15.342909 2.521491 15.923541 1.350572 1.411777 -0.000790 0.003833 -180972.000000 1 0 0
-10.007085 -10.255009 -14.320509 20.257936 0.797633 2.355914 0.013469 -0.006052 -204040.000000 1 0 0
6.185515 -14.572409 -5.676209 16.817701 -1.169377 1.915071 0.002868 0.001193 200009.000000 1 0 0
-7.261885 -12.276909 -10.904109 17.954305 1.036645 2.223486 0.010807 -0.003112 -2405070.000000 1 0 0
-6.986585 -14.296809 3.935591 16.392071 1.116245 1.328337 -0.005676 0.003155 1188700.000000 1 0 0
3.212215 -15.003809 -3.188809 15.671666 -1.359887 1.775703 0.000924 0.001331 -743563.000000 1 0 0
-7.771085 -11.410909 7.795791 15.854746 0.972921 1.056754 0.006536 -0.002039 -991745.000000 1 0 0
-12.651285 -12.267109 -1.024309 17.651804 0.769982 1.628858 0.003157 0.002592 -637326.000000 1 0 0
-1.880485 -13.650909 4.033491 14.358015 1.433903 1.286041 -0.002821 0.004149 -2177520.000000 1 0 0
-3.133085 -14.028509 5.224791 15.294239 1.351065 1.222158 -0.002144 0.004081 314269.000000 1 0 0
-14.464585 -10.214609 -4.414809 18.249740 0.614862 1.815131 0.010377 -0.001957 946492.000000 1 0 0
-6.342685 -8.702709 -10.472309 15.021187 0.940991 2.342238 0.010294 -0.000920 288233.000000 1 0 0
0.881415 -19.460609 2.280491 19.613588 -1.525535 1.454262 0.006092 -0.011756 176451.000000 1 0 0
6.316115 -13.936609 -8.200309 17.359938 -1.145282 2.062774 -0.003459 0.002408 -3168350.000000 1 0 0
-3.998085 -16.760309 -6.029109 18.254940 1.336628 1.907389 -0.000205 -0.000550 -295787.000000 1 0 0
-3.547885 -13.658009 -13.255509 19.360714 1.316648 2.324934 0.015515 0.005056 -1053770.000000 1 0 0
-8.139385 -14.540909 -4.714909 17.318141 1.060493 1.846530 0.004880 -0.003056 -1352290.000000 1 0 0
-4.708385 -14.315909 10.211891 18.204309 1.253048 0.975251 0.009125 -0.003255 -1274870.000000 1 0 0
-0.364185 -12.143409 -10.026009 15.751695 1.540815 2.260753 0.007297 0.002806 592599.000000 1 0 0
2.301015 -17.278109 6.617591 18.644577 -1.438400 1.207953 0.008864 -0.006914 -790764.000000 1 0 0
-3.014885 -19.143909 -3.283709 19.656082 1.414594 1.738641 -0.009011 -0.002511 456105.000000 1 0 0
0.582315 -15.378509 -3.153809 15.709365 -1.532949 1.772930 -0.001660 0.000424 326339.000000 1 0 0
5.846715 -18.026809 0.503691 18.957944 -1.257167 1.544224 0.019001 -0.000675 -415988.000000 1 0 0
-6.930385 -16.762109 3.816491 18.535484 1.178745 1.363411 -0.005429 0.006735 585042.000000 1 0 0
-5.327585 -13.510609 -9.615709 17.417853 1.195191 2.155630 0.007440 -0.001959 -9139.820000 1 0 0
5.649815 -15.155809 -2.139109 16.315476 -1.213972 1.702284 0.007489 0.002454 -1712290.000000 1 0 0
-8.787585 -10.193409 -0.559409 13.469974 0.859328 1.612338 0.004930 -0.002976 12029.200000 1 0 0
-7.660985 -18.223209 -3.140109 20.015902 1.172831 1.728328 0.006857 -0.006352 101466.000000 1 0 0
7.821815 -16.016409 -1.095909 17.857972 -1.116502 1.632203 0.014609 0.003296 -692777.000000 1 0 0
-8.094785 -10.286209 -9.472709 16.157471 0.904060 2.197248 0.014746 -0.002731 -953104.000000 1 0 0
-9.381585 -14.999909 -6.987409 19.021969 1.011879 1.946937 0.021538 -0.006204 -434171.000000 1 0 0
-11.450185 -10.564509 -12.222909 19.801897 0.745189 2.236051 0.022738 0.009056 174511.000000 1 0 0
6.571815 -16.411409 2.496591 17.853741 -1.189909 1.430501 0.014907 0.000394 1259120.000000 1 0 0
-2.256185 -11.160809 -6.092909 12.914240 1.371332 2.062125 0.004174 -0.001494 -811411.000000 1 0 0
-12.311285 -15.266309 -3.337009 19.893808 0.892144 1.739334 0.005831 -0.002414 67579.000000 1 0 0
-0.544485 -19.929309 -3.010409 20.162748 1.543482 1.720662 -0.000877 0.003286 -619917.000000 1 0 0
-5.857085 -15.583209 -4.716509 17.302813 1.211273 1.846876 -0.002781 -0.004283 -2117630.000000 1 0 0
1.970015 -15.977809 -1.027809 16.131576 -1.448119 1.634554 0.006379 -0.002861 -15578.700000 1 0 0
-13.194685 -11.913009 5.111991 18.497350 0.734395 1.290788 0.014029 -0.005785 225860.000000 1 0 0
2.012415 -15.102609 -8.729509 17.559697 -1.438327 2.091088 0.010515 0.004546 -2771630.000000 1 0 0
-11.773785 -16.577809 0.383991 20.336992 0.953248 1.551914 0.017216 -0.007492 408818.000000 1 0 0
-7.619285 -16.600909 -1.061109 18.296712 1.140510 1.628823 0.003427 0.002640 550259.000000 1 0 0
-2.965685 -14.424109 -1.881909 14.845599 1.368016 1.697904 -0.003267 -0.001385 372416.000000 1 0 0
-1.888685 -10.407109 -13.261109 16.962667 1.391270 2.468315 0.005646 0.002283 -767907.000000 1 0 0
1.359715 -19.613609 4.825391 20.244182 -1.501582 1.330120 0.012121 -0.012000 -78917.700000 1 0 0
-17.419985 -9.321509 2.581091 19.925071 0.491335 1.440891 0.018301 -0.008311 151756.000000 1 0 0
-2.831285 -15.520509 -8.100109 17.734547 1.390358 2.045126 0.002086 -0.003154 -611886.000000 1 0 0
-10.304385 -12.153709 0.227891 15.935650 0.867558 1.556495 0.003349 0.002114 327986.000000 1 0 0
-6.863085 -11.468609 -6.599209 14.905721 1.031537 2.029437 0.007958 -0.003613 -269891.000000 1 0 0
-2.131385 -13.511809 -6.802509 15.276974 1.414343 2.032282 -0.001524 0.001369 547419.000000 1 0 0
-14.436385 -14.222309 -1.269009 20.305016 0.777928 1.633334 0.031508 -0.003995 471135.000000 1 0 0
-9.528385 -11.312209 -4.425509 15.438308 0.870784 1.861533 0.009234 -0.004985 1851740.000000 1 0 0
9.291415 -15.321309 -4.971209 18.595318 -1.025657 1.841424 0.007238 0.003592 -15455.800000 1 0 0
-5.587885 -10.913809 -9.392409 15.445163 1.097594 2.224478 0.009338 -0.003986 -409091.000000 1 0 0
-10.310185 -15.885309 -4.849909 19.549031 0.995097 1.821504 0.010840 0.000540 -1581010.000000 1 0 0
2.199415 -17.321109 -3.287709 17.767028 -1.444493 1.756915 0.008304 0.000083 641384.000000 1 0 0
-0.360285 -14.492309 -8.195809 16.653172 1.545941 2.085351 0.006167 0.003830 -1235010.000000 1 0 0
-0.669685 -18.296109 -7.118509 19.643556 1.534210 1.941621 0.000230 0.003230 50331.300000 1 0 0
-1.874985 -9.969209 -10.684409 14.732865 1.384890 2.382135 0.004126 0.001619 398346.000000 1 0 0
-4.989585 -17.314209 2.020191 18.131712 1.290220 1.459147 -0.007130 0.003611 -1493540.000000 1 0 0
0.188315 -12.836609 -2.678509 13.114435 -1.556127 1.776485 -0.002141 0.000408 -2031860.000000 1 0 0
2.681115 -14.990809 3.117491 15.544500 -1.393817 1.368874 0.005548 -0.001522 -1002640.000000 1 0 0
-9.515285 -13.186909 6.740391 17.603071 0.945740 1.177852 0.001437 -0.001647 -275949.000000 1 0 0
-1.152285 -17.870009 -4.589009 18.485778 1.506404 1.821665 -0.002770 0.001459 -69881.400000 1 0 0
-9.912285 -17.408909 -2.145609 20.147634 1.053196 1.677493 0.024015 -0.012577 1374900.000000 1 0 0
1.365715 -16.237209 1.415191 16.355883 -1.486884 1.484163 0.001136 -0.007025 -845591.000000 1 0 0
-0.505385 -18.028709 3.935691 18.460212 1.542771 1.355949 0.004637 -0.010493 941851.000000 1 0 0
-17.467785 -9.094709 -0.046309 19.693639 0.480036 1.573148 0.021403 -0.004396 816106.000000 1 0 0
-14.736085 -7.206709 -10.729509 19.601307 0.454851 2.150036 0.026655 -0.011848 532288.000000 1 0 0
2.815915 -12.664409 -8.822409 15.689218 -1.352007 2.167989 0.001741 0.004240 707230.000000 1 0 0
-11.387785 -14.431009 1.875491 18.478451 0.902725 1.469125 0.001276 -0.004965 112707.000000 1 0 0
-2.568585 -15.643409 10.658491 19.102809 1.408053 0.978878 0.013135 0.005459 257296.000000 1 0 0
-7.046885 -15.903209 1.312391 17.443997 1.153686 1.495491 -0.000930 0.007629 -922143.000000 1 0 0
-12.602385 -15.114709 -5.875409 20.537648 0.875793 1.860930 0.015441 0.000779 137320.000000 1 0 0
0.988715 -13.728209 -5.089109 14.674479 -1.498900 1.924954 0.002914 0.004021 127395.000000 1 0 0
5.984115 -16.382109 -7.528609 18.996397 -1.220571 1.978299 0.006147 0.002193 123641.000000 1 0 0
-6.619285 -12.865509 5.970891 15.652086 1.095617 1.179404 0.001119 0.000064 -79194.000000 1 0 0
-2.512785 -13.591309 0.526591 13.831669 1.387979 1.532716 -0.000983 0.000383 882326.000000 1 0 0
-4.232185 -15.528809 0.140291 16.095807 1.304721 1.562080 -0.006749 0.002648 338874.000000 1 0 0
-17.713085 -7.392509 -2.081009 19.306299 0.395371 1.678795 0.011862 -0.002336 822671.000000 1 0 0
1.308715 -12.814409 -11.857909 17.508051 -1.469021 2.314860 0.012656 0.009202 148172.000000 1 0 0
1.132515 -17.058409 -5.673009 18.012633 -1.504503 1.891196 0.008224 0.003215 -1249730.000000 1 0 0
-12.856585 -6.461009 -9.052109 16.999327 0.465681 2.132346 0.011533 -0.002464 863497.000000 1 0 0
-11.461985 -13.672709 -8.976509 19.972426 0.873127 2.036940 0.015393 -0.001481 131888.000000 1 0 0
-4.242485 -9.802709 3.596291 11.270541 1.162349 1.246030 0.005499 0.000330 -4292300.000000 1 0 0
-7.312785 -14.217809 9.802991 18.754241 1.095743 1.020772 0.004989 -0.005624 -404137.000000 1 0 0
-5.442385 -15.920209 -8.221309 18.725986 1.241397 2.025317 0.003399 -0.001771 -235166.000000 1 0 0
-0.282985 -13.496709 2.132791 13.667115 1.549832 1.414103 -0.001191 -0.001295 623076.000000 1 0 0
-11.048585 -13.410809 -4.695209 17.999057 0.881677 1.834708 0.014031 0.002074 -1280280.000000 1 0 0
-9.849885 -10.574609 6.574891 15.876769 0.820866 1.143820 0.008034 -0.002010 -222666.000000 1 0 0
-15.512185 -7.938509 -4.796709 18.073634 0.473011 1.839413 0.023033 -0.004758 324067.000000 1 0 0
-14.625085 -7.375109 5.418491 17.252403 0.467064 1.251318 0.017667 -0.002459 349012.000000 1 0 0
-1.607885 -19.352709 0.037991 19.419426 1.487904 1.568840 0.004346 -0.001291 -231359.000000 1 0 0
-15.125085 -11.725209 -1.461609 19.193359 0.659445 1.647022 0.006885 -0.003566 263437.000000 1 0 0
-4.397185 -12.044209 -6.836909 14.530710 1.220745 2.060670 0.004510 -0.004252 -1410970.000000 1 0 0
-7.288785 -18.428709 1.949391 19.913409 1.194164 1.472746 -0.004464 0.006207 -97850.400000 1 0 0
-2.523585 -11.674209 -8.682209 14.766056 1.357904 2.199361 0.005933 -0.000432 250476.000000 1 0 0
-1.796885 -20.355209 -5.278609 21.105143 1.482748 1.823590 -0.003128 0.002055 -30427.700000 1 0 0
-5.513485 -8.963409 -13.932209 17.459888 1.019340 2.494691 0.011096 -0.002997 1468180.000000 1 0 0
-8.468785 -19.153909 -0.844009 20.959602 1.154495 1.611076 0.007577 0.010547 69487.500000 1 0 0
-17.222585 -7.339609 5.463091 19.502120 0.402854 1.286869 0.028671 -0.010883 593245.000000 1 0 0
-3.542085 -14.625309 -4.437009 15.688630 1.333183 1.857526 -0.000274 -0.003291 -2556800.000000 1 0 0
-3.092185 -14.831609 -11.006009 18.726198 1.365254 2.199051 0.008626 0.004221 -508220.000000 1 0 0
-0.151985 -16.818009 6.233291 17.936623 1.561760 1.215874 0.016928 -0.004487 -534111.000000 1 0 0
-11.094985 -11.516509 3.656291 16.404181 0.804038 1.346021 0.006717 -0.006355 805764.000000 1 0 0
-0.156385 -14.643409 -0.177009 14.645314 1.560117 1.582883 -0.006623 0.003286 643639.000000 1 0 0
-7.235985 -9.480009 -2.492609 12.183725 0.918844 1.776836 0.007631 -0.002860 -219339.000000 1 0 0
-11.194985 -14.363609 -0.831609 18.229990 0.908744 1.616430 0.008655 -0.004735 365264.000000 1 0 0
0.184815 -14.671509 -10.658709 18.135474 -1.558200 2.199043 0.009974 0.004637 -341766.000000 1 0 0
-1.398685 -13.964909 -4.001109 14.593968 1.470972 1.848514 -0.002987 -0.001790 -4138400.000000 1 0 0
-11.493585 -8.172209 -7.689609 16.062926 0.618086 2.069990 0.009132 -0.000422 828443.000000 1 0 0
-0.033185 -17.318709 -0.188109 17.319763 1.568880 1.581658 0.003641 -0.004587 -893650.000000 1 0 0
-12.895085 -9.453009 4.475391 16.603365 0.632578 1.297874 0.011867 -0.006976 -953563.000000 1 0 0
3.936115 -16.887409 1.652691 17.418639 -1.341805 1.475773 0.010122 -0.005323 99947.800000 1 0 0
-3.775985 -17.865309 -8.346109 20.076974 1.362503 1.999515 0.006832 -0.004426 147265.000000 1 0 0
-13.299385 -11.068309 2.535391 17.487405 0.694094 1.425300 0.002946 -0.006793 -66217.600000 1 0 0
-8.470585 -12.257909 4.034491 15.436459 0.966116 1.306364 0.003417 -0.001749 1403750.000000 1 0 0
-8.264585 -9.348609 -5.871209 13.790249 0.846867 2.010588 0.009456 -0.002977 127895.000000 1 0 0
3.735315 -17.397209 -5.460909 18.612818 -1.359300 1.868573 0.000349 0.009403 -363079.000000 1 0 0
-2.690285 -13.071009 11.258591 17.459805 1.367810 0.869997 0.011080 -0.009755 72104.800000 1 0 0
0.246215 -16.785209 -9.401909 19.240576 -1.556129 2.081338 0.013454 0.005316 -33062.200000 1 0 0
-7.058185 -10.907809 -14.831909 19.717602 0.996479 2.422216 0.013175 0.008227 -1349690.000000 1 0 0
-4.654085 -18.603509 -1.353309 19.224529 1.325655 1.641250 -0.003017 -0.006075 -218425.000000 1 0 0
-2.395385 -17.113709 1.136591 17.317874 1.431731 1.505118 -0.000904 -0.004440 620223.000000 1 0 0
4.067015 -14.590309 -7.409309 16.861661 -1.298949 2.025746 0.000515 0.003296 -411852.000000 1 0 0
-1.141785 -15.868509 -6.116609 17.044828 1.498967 1.937836 -0.000458 0.001963 -522322.000000 1 0 0
-9.498885 -15.342709 8.294791 19.860290 1.016441 1.139931 0.003475 -0.000352 -422180.000000 1 0 0
-7.147385 -12.000409 -1.762409 14.078389 1.033622 1.696311 0.002986 -0.002890 615172.000000 1 0 0
-7.531985 -14.939309 -9.308809 19.145958 1.103816 2.078535 0.016023 -0.003336 -1513760.000000 1 0 0
-4.971785 -13.202009 -0.649909 14.122113 1.210630 1.616833 -0.000149 -0.000426 2038950.000000 1 0 0
-6.345385 -13.798009 -7.275809 16.840023 1.139759 2.017566 0.003785 -0.003861 397002.000000 1 0 0
5.699315 -15.397809 0.354791 16.422564 -1.216295 1.549191 0.008775 0.002590 -2057.740000 1 0 0
-14.321185 -12.661109 0.850191 19.134337 0.723951 1.526349 0.001914 -0.009568 862507.000000 1 0 0
0.772515 -15.251309 10.982391 18.809894 -1.520187 0.947318 0.005948 -0.004263 439035.000000 1 0 0
-9.217685 -10.739709 1.897091 14.279567 0.861515 1.437549 0.004001 -0.001447 -42892.700000 1 0 0
-9.403185 -8.886909 -3.538109 13.413250 0.757179 1.837732 0.010588 -0.006193 -464396.000000 1 0 0
-12.179885 -7.172209 -12.530409 18.889186 0.532186 2.296102 0.017036 0.000001 -681449.000000 1 0 0
-13.246385 -8.612109 -0.648809 15.813162 0.576479 1.611838 0.007073 -0.002889 304751.000000 1 0 0
-11.162785 -9.714709 0.535891 14.807786 0.716148 1.534599 0.003726 -0.003189 321702.000000 1 0 0
-15.602885 -12.261309 2.982291 20.066983 0.666045 1.421627 0.009979 -0.002450 -115883.000000 1 0 0
-10.358085 -12.532709 -2.343609 16.427149 0.880114 1.713952 0.009858 -0.002039 804580.000000 1 0 0
-3.452885 -8.839209 -12.179309 15.439871 1.198391 2.479686 0.000295 0.000906 -2517480.000000 1 0 0
-0.268185 -15.548909 3.891091 16.030630 1.553550 1.325619 0.008178 -0.003593 -649439.000000 1 0 0
-15.708685 -7.732109 1.228791 17.551588 0.457403 1.500729 0.008278 -0.004941 483955.000000 1 0 0
-6.191185 -13.390209 -13.287709 19.854262 1.137706 2.304012 0.006394 0.002811 405477.000000 1 0 0
-15.399285 -10.262609 1.119991 18.539512 0.587842 1.510349 0.018914 -0.007230 -210187.000000 1 0 0
-9.992685 -8.376609 -12.528109 18.082446 0.697647 2.336206 0.015839 -0.004986 -133378.000000 1 0 0
-13.154285 -11.570809 -6.233509 18.595039 0.721442 1.912640 0.010497 -0.003949 -341470.000000 1 0 0
-12.127785 -11.318709 -3.782309 17.014765 0.750905 1.794965 0.003388 -0.002766 -1522710.000000 1 0 0
-11.887985 -11.071709 -9.303809 18.720785 0.749861 2.090909 0.015285 -0.001237 787649.000000 1 0 0
-13.242185 -8.446109 -5.895509 16.776450 0.567764 1.929879 0.009326 -0.002234 -1181210.000000 1 0 0
-13.385685 -8.224909 -3.229809 16.039245 0.550981 1.773552 0.008769 -0.005342 211975.000000 1 0 0
-4.235085 -16.899509 -3.302709 17.732379 1.325249 1.758143 -0.005883 -0.003657 522611.000000 1 0 0
-15.502685 -8.794809 -1.796409 17.913933 0.516035 1.671245 0.017590 -0.002668 -426638.000000 1 0 0
-9.254885 -15.579109 3.595691 18.474051 1.034758 1.374911 -0.002866 0.002152 -1058770.000000 1 0 0
4.489515 -17.560609 8.032791 19.825652 -1.320499 1.153630 0.018955 -0.008714 473065.000000 1 0 0
-8.208485 -15.508409 5.972191 18.535292 1.083990 1.242737 -0.003722 0.005863 920384.000000 1 0 0
0.828315 -16.270709 8.594891 18.419941 -1.519932 1.085345 0.008582 0.002458 829306.000000 1 0 0
-10.982985 -7.765209 -10.250409 16.911397 0.615423 2.221975 0.016009 -0.000756 768740.000000 1 0 0
-4.835085 -16.028609 5.795191 17.716619 1.277823 1.237558 -0.002129 -0.000233 -991739.000000 1 0 0
-1.284585 -13.340409 -12.229109 18.142982 1.474800 2.310462 0.012061 0.008192 -1770620.000000 1 0 0
-6.494185 -14.326709 -2.589009 15.941519 1.145208 1.733926 0.004022 -0.003010 522463.000000 1 0 0
-17.777885 -6.844009 -7.354409 20.420113 0.367486 1.939231 0.030766 -0.009854 207309.000000 1 0 0
-17.222885 -3.940609 -10.345209 20.473874 0.224929 2.100512 0.013990 -0.012244 92255.200000 1 0 0
-15.240485 -5.202609 -9.138509 18.516260 0.328964 2.086951 0.012523 -0.013269 750310.000000 1 0 0
-16.126985 -5.422809 -5.783709 17.970470 0.324379 1.898474 0.021512 -0.005245 902683.000000 1 0 0
-15.076085 -4.453909 -12.419009 20.033907 0.287258 2.239411 0.014586 -0.007155 -873260.000000 1 0 0
-18.731085 -5.132309 -5.723009 20.247148 0.267436 1.857360 0.024056 -0.006275 -669719.000000 1 0 0
-17.428185 -4.385309 -7.831609 19.603742 0.246504 1.981763 0.013554 -0.010900 728495.000000 1 0 0
12.172415 -7.912709 8.764291 16.958521 -0.576412 1.027679 0.015633 -0.001263 350901.000000 1 0 0
15.893815 -3.483809 1.834291 16.374215 -0.215780 1.458538 0.009088 -0.005440 660653.000000 1 0 0
11.842715 -2.119409 12.572091 17.401128 -0.177088 0.763403 0.015036 -0.002316 345731.000000 1 0 0
9.674315 -10.109209 5.254591 14.946545 -0.807377 1.211561 -0.000518 0.000330 420314.000000 1 0 0
16.716415 -1.828609 7.277291 18.323245 -0.108957 1.162374 0.028958 -0.010761 706906.000000 1 0 0
5.188315 -12.856609 9.161091 16.617358 -1.187231 0.986879 0.001865 0.001187 32170.900000 1 0 0
15.164615 -9.045709 -2.169209 17.790331 -0.537843 1.693032 0.005210 -0.002428 487485.000000 1 0 0
11.101115 -8.579909 6.501591 15.463514 -0.657989 1.136858 0.008708 -0.005899 -2959540.000000 1 0 0
19.933515 -3.296909 3.933391 20.583639 -0.163911 1.378521 0.039789 -0.012581 205527.000000 1 0 0
13.568115 -8.616309 6.795491 17.450307 -0.565787 1.170795 0.017132 -0.008090 -968328.000000 1 0 0
8.243415 -11.063009 8.972491 16.457511 -0.930417 0.994179 0.000635 0.001248 -1339570.000000 1 0 0
16.638615 0.053291 -0.630209 16.650631 0.003203 1.608654 0.007354 0.003476 -1379900.000000 1 0 0
12.395115 -12.507409 2.353191 17.765463 -0.789908 1.437947 0.006548 0.001397 19319.200000 1 0 0
10.301115 -11.797109 3.594991 16.068874 -0.852993 1.345163 0.005729 0.002325 -1200150.000000 1 0 0
16.259915 3.058191 2.432091 16.722812 0.185910 1.424843 0.005460 0.004090 -726504.000000 1 0 0
18.146915 -3.208309 0.451791 18.433879 -0.174988 1.546285 0.007473 -0.005554 439527.000000 1 0 0
13.551515 -11.582709 -0.124709 17.827458 -0.707226 1.577792 0.013991 0.000679 -207357.000000 1 0 0
16.923615 -7.669609 -0.892909 18.601853 -0.425503 1.618816 0.014597 -0.004337 -72514.600000 1 0 0
10.214815 -5.787709 9.753891 15.263630 -0.515498 0.877562 0.008158 -0.000912 -347950.000000 1 0 0
11.233015 -13.297009 6.349591 18.528583 -0.869342 1.221016 0.009992 0.003095 -432927.000000 1 0 0
13.023715 -1.823509 10.255091 16.676607 -0.139110 0.908488 0.023302 -0.002443 1256760.000000 1 0 0
15.519315 -2.083009 -1.435909 15.724182 -0.133423 1.662242 0.003844 0.001824 272089.000000 1 0 0
10.430415 -12.486109 9.240691 18.710608 -0.874862 1.054256 0.015304 -0.007640 35307.900000 1 0 0
14.513915 1.196791 3.290391 14.930261 0.082272 1.348588 0.000962 0.001864 1233430.000000 1 0 0
14.955015 -5.831209 5.291391 16.901310 -0.371784 1.252366 0.016693 -0.008420 -1050680.000000 1 0 0
14.287415 -3.431409 -3.037709 15.004415 -0.235706 1.774660 0.003627 -0.001071 1476520.000000 1 0 0
14.111315 0.495091 9.665491 17.111284 0.035070 0.970532 0.036359 -0.005969 692930.000000 1 0 0
15.318615 -3.392609 4.412091 16.298353 -0.217952 1.296668 0.010143 -0.004604 -1056950.000000 1 0 0
18.592715 4.715691 -4.248909 19.646374 0.248393 1.788788 -0.003274 0.001772 531103.000000 1 0 0
18.068715 -5.936109 -5.229609 19.724722 -0.317421 1.839135 0.025874 -0.008579 449500.000000 1 0 0
17.307115 0.099891 5.973491 18.309254 0.005772 1.238457 0.035835 -0.000778 358211.000000 1 0 0
16.928315 -6.720609 3.941991 18.635282 -0.377921 1.357652 0.017485 -0.011897 -60270.300000 1 0 0
9.675315 -6.692309 14.246991 18.476349 -0.605126 0.690240 0.011338 -0.002545 -747139.000000 1 0 0
8.642015 -12.381409 5.130391 15.946932 -0.961425 1.243255 0.003520 -0.000705 -1601920.000000 1 0 0
16.783415 -10.279409 -0.514409 19.687912 -0.549541 1.596927 0.011670 0.002458 -362299.000000 1 0 0
14.897315 -8.848809 0.427091 17.332450 -0.535986 1.546153 0.014512 -0.007134 336543.000000 1 0 0
9.915115 -12.966409 1.500091 16.391691 -0.917968 1.479153 0.010550 -0.000680 -161393.000000 1 0 0
16.893715 -8.352509 8.807191 20.802130 -0.459170 1.133624 0.032999 -0.002291 465503.000000 1 0 0
19.042315 -0.328209 -1.683809 19.119432 -0.017234 1.658979 0.026442 -0.000442 151261.000000 1 0 0
13.452615 -1.244709 7.759391 15.579804 -0.092263 1.049457 0.017273 -0.005644 -189668.000000 1 0 0
12.777815 -9.826209 -3.052809 16.405688 -0.655554 1.757970 0.010824 -0.005611 -1027160.000000 1 0 0
8.798115 -15.309909 1.406691 17.713806 -1.049212 1.491301 0.015409 0.004447 -502471.000000 1 0 0
11.487315 -8.374009 11.240391 18.122605 -0.629911 0.901746 0.021175 -0.001394 177426.000000 1 0 0
13.855615 -4.072109 -0.509909 14.450611 -0.285847 1.606090 0.004475 -0.002575 -1021680.000000 1 0 0
7.284315 -13.304609 10.759791 18.596961 -1.069872 0.953812 0.013612 0.001569 1244970.000000 1 0 0
15.357815 -6.686609 1.793291 16.846041 -0.410636 1.464142 0.004720 -0.004781 -198461.000000 1 0 0
15.966115 -6.178109 -2.707609 17.332542 -0.369207 1.727654 0.013921 -0.003722 260687.000000 1 0 0
11.147415 -8.541409 3.859491 14.564210 -0.653803 1.302594 0.009893 -0.004940 606896.000000 1 0 0
10.584015 -14.541409 -0.509009 17.992583 -0.941620 1.599090 0.024971 0.001894 487675.000000 1 0 0
13.294315 -12.917009 4.717391 19.126989 -0.771004 1.321590 0.004942 0.001518 766620.000000 1 0 0
12.750615 -11.126109 6.657191 18.184793 -0.717466 1.195997 0.009602 -0.002931 68720.000000 1 0 0
10.863915 -10.575709 1.410391 15.226933 -0.771956 1.478039 0.005898 -0.002273 557847.000000 1 0 0
13.911115 -7.625109 11.881391 19.819911 -0.501407 0.927961 0.026232 -0.007795 -74937.300000 1 0 0
15.276615 -1.891909 -4.905609 16.156091 -0.123216 1.879305 0.008201 -0.000196 -780084.000000 1 0 0
12.822815 -11.519409 -7.100709 18.642464 -0.731904 1.961554 0.023421 -0.004119 465815.000000 1 0 0
17.646615 -5.356209 1.945991 18.543971 -0.294689 1.465663 0.022460 -0.009606 156105.000000 1 0 0
10.614815 -9.897509 9.195991 17.181421 -0.750443 1.006018 0.007411 -0.000730 -1407900.000000 1 0 0
16.397215 1.869791 10.043091 19.319121 0.113541 1.024118 0.043876 -0.004428 93355.000000 1 0 0
18.019215 3.616191 0.610791 18.388638 0.198054 1.537575 -0.004130 0.010882 551271.000000 1 0 0
13.315115 -4.113509 5.815791 15.100883 -0.299634 1.175449 0.010548 -0.008182 -913576.000000 1 0 0
12.133415 -6.225909 6.641191 15.168623 -0.474089 1.117619 0.010625 -0.005727 -225660.000000 1 0 0
16.442415 -10.241409 3.490891 19.683135 -0.557063 1.392499 0.004937 -0.008878 -293805.000000 1 0 0
16.245015 -8.280509 -5.461709 19.034117 -0.471398 1.861831 0.016125 -0.003565 -465277.000000 1 0 0
14.016615 -0.374609 5.314291 14.994916 -0.026720 1.208517 0.006426 -0.002691 1149890.000000 1 0 0
18.073315 -4.335109 5.349791 19.340583 -0.235415 1.290532 0.030409 -0.007896 60602.900000 1 0 0
13.594015 -13.577809 7.236691 20.531046 -0.784802 1.210581 0.020890 0.001859 18850.800000 1 0 0
14.936615 -13.544609 -0.769609 20.177988 -0.736563 1.608947 0.010566 0.002418 -294056.000000 1 0 0
17.805315 -6.222209 7.854191 20.431188 -0.336192 1.176215 0.050557 -0.007692 -649972.000000 1 0 0
14.305315 3.196991 9.325791 17.373346 0.219870 1.004172 0.028807 -0.009880 -2266460.000000 1 0 0
18.746215 3.721191 3.084491 19.359285 0.195956 1.410786 0.024494 0.004579 23914.700000 1 0 0
14.856915 -10.500809 8.104291 19.916688 -0.615273 1.151728 0.024588 -0.007640 -227353.000000 1 0 0
14.785915 -4.869509 10.454291 18.751736 -0.318147 0.979412 0.033702 -0.003634 323835.000000 1 0 0
17.659515 -7.945309 1.811591 19.449120 -0.422785 1.477516 0.022759 -0.010634 -256886.000000 1 0 0
18.423815 -5.794309 -1.983509 19.415079 -0.304707 1.673138 0.016405 -0.006627 -905551.000000 1 0 0
14.262015 -13.018809 -5.508709 20.080845 -0.739859 1.848686 0.029022 -0.007355 -1274240.000000 1 0 0
15.461815 -1.714709 9.465791 18.210138 -0.110448 1.024169 0.048943 -0.007518 -570335.000000 1 0 0
12.999315 -10.038909 10.216491 19.342662 -0.657599 1.014335 0.011536 -0.007569 -1336880.000000 1 0 0
16.469215 2.171191 4.870091 17.310889 0.131077 1.285615 0.018811 -0.000894 -2235780.000000 1 0 0
14.989715 2.377391 -0.012909 15.177078 0.157291 1.571647 0.001777 0.007002 -1430250.000000 1 0 0
15.031715 -10.009509 -6.984809 19.363117 -0.587467 1.939844 0.023377 -0.005656 1082540.000000 1 0 0
16.370715 -0.248909 -3.221409 16.686514 -0.015203 1.765071 0.010537 0.004954 15608.700000 1 0 0
12.063615 2.509591 13.589991 18.344391 0.205104 0.736498 0.054678 -0.007284 -75858.600000 1 0 0
17.719415 -3.007109 9.410091 20.287192 -0.168105 1.088467 0.050468 -0.014651 436317.000000 1 0 0
7.642915 -18.282909 4.614791 20.346381 -1.174839 1.341994 0.031100 -0.010126 85976.600000 1 0 0
6.846415 -11.365009 6.721691 14.873398 -1.028605 1.101872 -0.001724 -0.000109 191610.000000 1 0 0
18.031115 2.126291 -1.547309 18.221865 0.117381 1.655814 0.011430 0.008489 569621.000000 1 0 0
17.537915 -2.351609 3.684691 18.074442 -0.133292 1.365495 0.021846 -0.005081 -952033.000000 1 0 0
12.624115 -13.459509 -1.769209 18.537982 -0.817415 1.666379 0.017997 0.001634 -102274.000000 1 0 0
14.875415 -8.280409 4.323291 17.565136 -0.507935 1.322112 0.011615 -0.005771 -546938.000000 1 0 0
11.397315 -2.960109 15.079791 19.132724 -0.254106 0.662971 0.013501 -0.002498 93540.300000 1 0 0
12.009515 -13.848209 -6.319909 19.389239 -0.856387 1.902812 0.014192 -0.007740 -634797.000000 1 0 0
10.657715 -11.998409 -1.224709 16.094988 -0.844505 1.646963 0.014816 -0.004883 -1198970.000000 1 0 0
13.094215 -7.966009 2.115991 15.472336 -0.546545 1.433607 0.006889 -0.004444 -977075.000000 1 0 0
8.694315 -7.986809 10.029691 15.491124 -0.743010 0.866566 0.005063 -0.001254 -1720720.000000 1 0 0
15.694115 -3.975009 8.115291 18.109773 -0.248064 1.106139 0.041226 -0.010530 -402863.000000 1 0 0
10.107515 -17.604009 5.370591 20.997768 -1.049594 1.312153 0.032476 -0.005188 987045.000000 1 0 0
15.170015 -6.461909 8.276191 18.449416 -0.402689 1.105611 0.029015 0.000277 -223014.000000 1 0 0
16.489915 -5.096309 -0.322909 17.262501 -0.299744 1.589503 0.004817 -0.004039 -635425.000000 1 0 0
13.890815 -10.589509 3.478891 17.809973 -0.651351 1.374198 0.010320 -0.003514 -31874.700000 1 0 0
14.831215 -10.109109 -4.473509 18.497873 -0.598277 1.815057 0.017294 -0.008837 -94911.600000 1 0 0
13.505415 -6.656809 -0.125109 15.057390 -0.457951 1.579105 0.004224 -0.003793 209066.000000 1 0 0
17.676215 -1.092309 -5.197109 18.456751 -0.061717 1.856240 0.006905 -0.002658 -223726.000000 1 0 0
14.326515 0.168691 -1.745009 14.433383 0.011774 1.691994 0.000647 0.002822 -2750940.000000 1 0 0
4.879615 -12.939509 11.808891 18.184924 -1.210177 0.864030 -0.002266 0.003192 -236937.000000 1 0 0
12.017415 -7.560909 13.600991 19.661449 -0.561587 0.806874 0.027381 -0.003853 -323120.000000 1 0 0
12.067515 -5.788709 11.661091 17.751482 -0.447271 0.854086 0.016091 0.000882 208613.000000 1 0 0
13.276615 -4.669009 8.373291 16.376207 -0.338163 1.034090 0.020268 -0.004225 -282703.000000 1 0 0
15.318215 -1.203709 3.073091 15.669732 -0.078419 1.373401 0.012327 -0.000355 280644.000000 1 0 0
15.127215 -10.394609 5.693191 19.216997 -0.602047 1.270024 0.018997 -0.009027 516515.000000 1 0 0
13.687215 -8.108509 -5.702309 16.899826 -0.534824 1.914969 0.018825 -0.006480 543205.000000 1 0 0
9.422615 -1.908309 13.653391 16.698575 -0.199822 0.613500 0.001466 -0.004436 853628.000000 1 0 0
9.981615 -9.218309 13.802091 19.367694 -0.745663 0.777550 0.025351 0.001967 108330.000000 1 0 0
20.233915 6.091591 -2.962909 21.337704 0.292428 1.710104 0.016805 0.004450 -1542160.000000 1 0 0
11.156015 -3.644109 10.554391 15.783896 -0.315723 0.838363 0.012278 -0.000562 828873.000000 1 0 0
10.331015 -13.934709 -3.001609 17.604421 -0.932830 1.742137 0.017018 -0.002154 711401.000000 1 0 0
14.949815 -12.913909 2.800391 19.952649 -0.712461 1.429980 0.008161 0.008614 162959.000000 1 0 0
11.342915 -0.451709 14.496291 18.412175 -0.039802 0.664345 0.034007 -0.003017 234314.000000 1 0 0
18.946915 -1.886609 5.839691 19.915995 -0.099246 1.273207 0.044780 -0.007174 651122.000000 1 0 0
18.867215 -0.410309 7.974791 20.487495 -0.021744 1.170977 0.042432 -0.004859 -118313.000000 1 0 0
18.789015 0.686491 0.610191 18.811451 0.036521 1.538353 0.017925 0.001020 217716.000000 1 0 0
18.445515 0.834191 3.819991 18.855376 0.045194 1.366790 0.025807 -0.001934 -948.036000 1 0 0
16.642815 -3.995209 -4.193109 17.621781 -0.235598 1.811051 0.009450 -0.005249 -1693230.000000 1 0 0
11.069815 -8.239109 15.929291 21.075247 -0.639834 0.713876 0.031600 -0.005096 327185.000000 1 0 0
16.455315 -7.706209 6.310791 19.235102 -0.437977 1.236518 0.020307 -0.008088 187902.000000 1 0 0
18.762815 2.259591 5.939191 19.809668 0.119852 1.266300 0.029558 -0.000955 -120267.000000 1 0 0
15.303015 1.559591 7.705691 17.204425 0.101563 1.106392 0.030764 -0.005427 -157964.000000 1 0 0
8.768615 -15.873609 3.890291 18.547087 -1.066111 1.359475 0.016458 -0.004622 745479.000000 1 0 0
11.278515 -15.151409 1.933491 18.987061 -0.930897 1.468787 0.019384 0.005406 -133750.000000 1 0 0
8.057415 -16.166509 6.233291 19.108424 -1.108428 1.238509 0.017416 -0.007942 -68375.400000 1 0 0
14.546315 -11.704609 -2.487409 18.835614 -0.677566 1.703242 0.008974 -0.002198 455967.000000 1 0 0
13.623115 -4.867009 3.227791 14.822135 -0.343129 1.351269 0.005526 -0.002322 -2111690.000000 1 0 0
-1.027285 10.252091 -5.392909 11.629452 -1.470927 2.052995 -0.001013 0.002020 -1257400.000000 1 0 0
8.237615 -1.811709 -8.096409 11.691554 -0.216485 2.335746 -0.003154 -0.000809 -1788910.000000 1 0 0
3.007715 -10.220709 7.679891 13.133544 -1.284599 0.946220 -0.000768 0.000609 475288.000000 1 0 0
-6.285885 1.392691 8.364591 10.555488 -0.218036 0.655997 -0.004300 0.001865 -472065.000000 1 0 0
7.131315 -6.386009 -7.151709 11.949214 -0.730317 2.212435 -0.001473 -0.001101 -71299.300000 1 0 0
-11.299185 -4.460709 -4.120609 12.827663 0.376000 1.897823 0.009306 -0.002730 244345.000000 1 0 0
2.099215 -3.262009 2.866191 4.823117 -0.998980 0.934450 0.000280 0.000763 1658940.000000 1 0 0
-3.638285 -4.238109 8.972991 10.569449 0.861406 0.556791 -0.001597 -0.000163 -2193040.000000 1 0 0
-4.869785 -1.005709 -2.441109 5.539429 0.203657 2.027151 0.000402 -0.001890 -481983.000000 1 0 0
5.038915 -5.252509 -3.590609 8.116156 -0.806150 2.029072 0.000433 -0.000519 228274.000000 1 0 0
2.671015 14.371391 -8.922509 17.125489 1.387037 2.118827 -0.001882 -0.003402 -97668.100000 1 0 0
5.407315 -5.485609 13.638191 15.663052 -0.792586 0.514124 0.003166 -0.002035 -898906.000000 1 0 0
-4.724485 -0.800209 9.830091 10.935803 0.167783 0.453565 0.001137 0.001578 -3256740.000000 1 0 0
-0.817985 12.092491 -2.560409 12.387620 -1.503255 1.778988 0.000059 -0.000220 -827702.000000 1 0 0
3.132315 9.404191 -10.513309 14.449217 1.249277 2.385619 0.000794 0.000801 -261387.000000 1 0 0
-10.561385 2.685791 1.212491 10.964783 -0.249024 1.459989 -0.004071 0.001312 260953.000000 1 0 0
5.537815 -8.969109 -0.641309 10.560473 -1.017658 1.631561 -0.003134 -0.001549 621780.000000 1 0 0
-6.924485 5.504291 9.471191 12.959520 -0.671625 0.751261 -0.000880 0.002075 62180.400000 1 0 0
-5.471885 -1.901809 5.141491 7.745536 0.334500 0.844907 -0.001688 -0.001774 553265.000000 1 0 0
6.646715 -3.807409 -7.339709 10.608794 -0.520199 2.334846 -0.002882 0.000221 509928.000000 1 0 0
6.296215 4.776791 11.114891 13.638213 0.649031 0.618099 0.000851 0.003420 263637.000000 1 0 0
3.779015 -9.934809 3.370291 11.150796 -1.207316 1.263748 -0.005368 0.000458 1076980.000000 1 0 0
-6.683085 6.737791 -5.857609 11.152266 -0.789474 2.123793 0.001795 -0.000774 100198.000000 1 0 0
-10.979585 8.489291 5.280791 14.849448 -0.658177 1.207217 0.002040 -0.003643 135223.000000 1 0 0
-9.187685 -5.466009 5.151791 11.867256 0.536682 1.121737 0.005891 -0.002554 -1371450.000000 1 0 0
3.245615 9.825791 -7.949009 13.048637 1.251764 2.225826 -0.001422 0.000548 736056.000000 1 0 0
-8.092985 -8.607909 6.084891 13.289786 0.816221 1.095207 0.004287 -0.000436 -1046560.000000 1 0 0
-7.773185 -5.730709 -7.481909 12.216481 0.635285 2.229945 0.009005 -0.002762 -627650.000000 1 0 0
9.194515 -1.732009 7.112191 11.752541 -0.186192 0.920827 0.002945 -0.007240 391850.000000 1 0 0
-4.067385 -0.468409 -4.906209 6.390142 0.114657 2.446162 0.004969 -0.005219 -824221.000000 1 0 0
9.033515 1.209891 -4.604609 10.211300 0.133141 2.038606 -0.003610 0.003930 -3263820.000000 1 0 0
-2.248185 -10.640309 10.630991 15.208172 1.362569 0.796754 0.009380 -0.006901 203186.000000 1 0 0
-12.898485 0.291891 -2.623409 13.165804 -0.022626 1.771398 0.005029 0.001398 -658227.000000 1 0 0
-9.776085 -5.083109 -6.036709 12.563905 0.479483 2.071999 0.006402 -0.003096 -1529030.000000 1 0 0
-5.609385 8.349991 -0.165809 10.060568 -0.979260 1.587278 0.001592 0.000214 505165.000000 1 0 0
6.363815 9.564191 0.439391 11.496301 0.983685 1.532567 0.003697 -0.000336 663986.000000 1 0 0
-0.515885 -12.059309 -0.018909 12.070354 1.528043 1.572363 -0.002309 0.001689 -813625.000000 1 0 0
6.344615 4.709791 2.385391 8.253869 0.638573 1.277611 0.003051 0.000605 134482.000000 1 0 0
3.436715 -7.487809 -8.240709 11.652793 -1.140504 2.356309 -0.002597 -0.000953 624047.000000 1 0 0
-6.518085 -9.880809 4.700591 12.736223 0.987652 1.192785 0.005234 -0.000189 -2340170.000000 1 0 0
-0.071685 6.529191 -9.246409 11.319521 -1.559818 2.526734 0.002045 -0.000016 -3846640.000000 1 0 0
-17.284985 -2.648109 4.442491 18.042143 0.152021 1.322009 0.020215 -0.006642 326871.000000 1 0 0
-8.329385 0.858491 -9.166809 12.415557 -0.102705 2.401391 -0.000013 -0.002518 649350.000000 1 0 0
-10.057185 -5.874909 -11.923409 16.668210 0.528684 2.367904 0.010823 0.003839 -188500.000000 1 0 0
2.247515 9.558491 6.352091 11.694662 1.339859 0.996598 -0.003403 0.004729 -831394.000000 1 0 0
-11.278085 1.589791 -1.218509 11.454580 -0.140040 1.677375 0.000521 0.001914 -1218000.000000 1 0 0
-6.042885 -5.358809 -3.059109 8.636634 0.725472 1.932856 0.010357 -0.001988 511720.000000 1 0 0
-6.861185 -8.305609 1.393491 10.862819 0.880348 1.442161 0.005215 0.000544 -665608.000000 1 0 0
-0.028085 10.749291 -7.854509 13.313202 -1.568184 2.201829 -0.000990 0.003266 1021190.000000 1 0 0
-2.866285 9.265491 -4.243809 10.586540 -1.270783 1.983261 0.001880 -0.000138 -809045.000000 1 0 0
3.363515 -4.794909 9.342091 11.026289 -0.959080 0.559998 0.001881 -0.001745 -829992.000000 1 0 0
-8.956185 1.542691 -0.417609 9.097667 -0.170575 1.616715 -0.003499 0.000065 -2523100.000000 1 0 0
2.519715 3.591791 -10.334209 11.227012 0.959051 2.740096 -0.001550 0.001574 167506.000000 1 0 0
-13.673785 0.494991 1.074391 13.724858 -0.036184 1.492436 0.002411 0.000016 -634734.000000 1 0 0
9.537915 -12.763209 -5.171209 16.751500 -0.929027 1.884624 0.010518 -0.002258 -1512490.000000 1 0 0
-4.675685 9.425591 -8.373209 13.446725 -1.110303 2.242979 -0.002363 -0.000312 -1198350.000000 1 0 0
-2.267285 7.206791 8.301191 11.224446 -1.265996 0.738375 0.003117 0.002246 -253727.000000 1 0 0
-10.713885 -1.245209 -4.495109 11.685200 0.115705 1.965662 0.003915 -0.001893 -3695980.000000 1 0 0
2.751715 -7.153509 9.618391 12.298702 -1.203578 0.672823 -0.000002 0.001727 -877313.000000 1 0 0
-16.123585 -6.435309 3.318391 17.674697 0.379751 1.381927 0.017158 -0.010113 -1055740.000000 1 0 0
-10.804685 -0.083009 6.168691 12.441899 0.007683 1.052041 -0.003988 -0.001334 -2699230.000000 1 0 0
-8.347485 9.880591 9.361091 15.966734 -0.869307 0.944328 0.004423 -0.007811 824217.000000 1 0 0
0.324815 -5.961809 -3.691509 7.019681 -1.516368 2.124546 -0.004692 0.002898 320166.000000 1 0 0
4.862215 1.432391 -3.041209 5.911161 0.286492 2.111204 -0.002800 0.003469 916680.000000 1 0 0
0.287215 5.450691 3.861891 6.686308 1.518152 0.955033 -0.000924 0.002469 -1621900.000000 1 0 0
5.987415 -11.235909 -1.541909 12.824675 -1.081190 1.691318 -0.002478 -0.001476 -1395360.000000 1 0 0
6.293315 -13.609709 5.310291 15.906891 -1.137667 1.230426 0.000115 -0.000319 166007.000000 1 0 0
8.166015 -8.335209 -5.967509 13.106131 -0.795651 2.043530 0.002435 -0.005085 616726.000000 1 0 0
-13.111385 -1.304709 -4.699109 13.989007 0.099183 1.913372 0.007875 0.000064 -3827970.000000 1 0 0
-6.710785 -1.475509 -6.993109 9.803843 0.216428 2.364996 0.007776 -0.004052 -73215.600000 1 0 0
-5.568985 12.740591 -4.622109 14.652649 -1.158717 1.891722 0.003284 0.000535 306787.000000 1 0 0
-4.336085 6.888791 -6.777909 10.592314 -1.009010 2.265151 0.003333 0.000887 -1751690.000000 1 0 0
-9.320385 -3.706409 -8.103109 12.894473 0.378494 2.250313 0.006747 -0.002536 654025.000000 1 0 0
-2.227385 -6.330509 9.258891 11.435194 1.232475 0.627183 0.001798 -0.001324 -335060.000000 1 0 0
7.530215 -6.040409 10.052291 13.936974 -0.676054 0.765165 0.003405 0.001458 498397.000000 1 0 0
9.592015 -4.970209 12.206091 16.300257 -0.478071 0.724504 0.007924 0.000058 -219888.000000 1 0 0
-6.410285 2.780391 -9.157109 11.518462 -0.409249 2.489794 -0.001075 -0.003428 -313678.000000 1 0 0
7.401515 5.393491 8.840591 12.729030 0.629730 0.803041 -0.006830 0.003885 671247.000000 1 0 0
12.657215 3.127091 11.181291 17.175711 0.242210 0.861903 0.033522 -0.004404 -530545.000000 1 0 0
-7.523385 -7.184109 -3.917609 11.115773 0.762334 1.930970 0.011886 -0.004588 -519001.000000 1 0 0
2.287915 1.484691 -5.898709 6.498741 0.575621 2.708494 -0.001349 0.000763 576610.000000 1 0 0
12.768615 7.005391 -7.124009 16.213097 0.501800 2.025725 0.006643 0.000492 315313.000000 1 0 0
0.716515 -7.714709 1.056491 7.819610 -1.478186 1.435274 -0.001783 0.001921 177018.000000 1 0 0
-10.245685 -6.034609 -8.542409 14.641152 0.532285 2.193769 0.007519 -0.001162 574470.000000 1 0 0
-6.677585 0.310291 3.258891 7.436854 -0.046434 1.117192 -0.002259 -0.001109 1175800.000000 1 0 0
10.700415 -8.067109 1.286991 13.462298 -0.645996 1.475050 0.002785 -0.002777 -279607.000000 1 0 0
6.249215 0.990191 10.460591 12.225266 0.157144 0.543984 0.002174 -0.001296 -340863.000000 1 0 0
-12.959385 5.373991 1.905191 14.158220 -0.393097 1.435823 -0.002606 0.002438 83896.700000 1 0 0
2.129815 7.444491 3.614391 8.545196 1.292147 1.134072 -0.004825 0.002213 -44442.400000 1 0 0
10.020715 -9.506409 -0.802409 13.835838 -0.759066 1.628824 0.005793 -0.004629 797001.000000 1 0 0
6.921415 -11.659809 -9.073109 16.314976 -1.035086 2.160508 -0.000323 0.000213 -668869.000000 1 0 0
10.268415 3.521691 12.071891 16.234937 0.330392 0.732395 0.011882 -0.001208 -1999980.000000 1 0 0
-11.089285 -3.020209 -2.001509 11.666188 0.265904 1.743214 0.005663 -0.000445 -564973.000000 1 0 0
12.387515 0.963491 6.873191 14.199281 0.077623 1.065517 0.007490 -0.003788 -136438.000000 1 0 0
-9.568285 9.172091 2.984791 13.586328 -0.764260 1.349299 0.001179 -0.001997 399537.000000 1 0 0
-6.623685 7.694891 -8.855409 13.472298 -0.860071 2.288033 -0.003231 -0.000760 -1836990.000000 1 0 0
8.527915 5.488891 12.179491 15.849077 0.571890 0.694355 0.011155 0.004012 798350.000000 1 0 0
1.242615 4.936091 -2.711109 5.767079 1.324180 2.060202 0.002358 -0.001962 37034.000000 1 0 0
1.130915 0.542091 9.484191 9.566750 0.446982 0.131471 0.003543 -0.000491 609385.000000 1 0 0
2.670415 12.595091 -4.043409 13.495058 1.361870 1.875092 0.001860 -0.002420 505349.000000 1 0 0
2.103515 0.707291 12.952491 13.141235 0.324366 0.169689 0.002307 -0.003923 144635.000000 1 0 0
-12.184685 -1.700909 0.895791 12.335400 0.138698 1.498113 0.000014 -0.000921 287067.000000 1 0 0
3.345915 8.755991 -1.169109 9.446128 1.205791 1.694880 0.002353 -0.000313 749799.000000 1 0 0
3.678215 -2.783009 -5.870809 7.465977 -0.647724 2.475661 -0.006054 0.002303 -776536.000000 1 0 0
-7.779685 -7.224209 9.219491 14.061000 0.748393 0.855716 0.003588 -0.002395 -109991.000000 1 0 0
-6.968585 10.844691 -3.432509 13.339813 -0.999655 1.831037 0.005743 0.000468 1191060.000000 1 0 0
0.386715 0.518091 2.498891 2.581167 0.929588 0.253165 -0.001049 0.000684 -2716050.000000 1 0 0
-7.100585 4.614591 -1.933009 8.686155 -0.576297 1.795214 0.001782 0.000022 -1209940.000000 1 0 0
-6.848785 -3.899709 -5.942809 9.870693 0.517617 2.216883 0.008533 -0.002954 -106116.000000 1 0 0
2.938215 -6.118809 13.441291 15.057929 -1.123119 0.467631 -0.000389 -0.001480 -2949140.000000 1 0 0
-5.489485 -0.627209 -11.742409 12.977365 0.113763 2.701795 0.004463 -0.006558 -1047450.000000 1 0 0
11.912515 2.443991 -0.683709 12.179842 0.202354 1.626960 -0.002791 0.004235 -416953.000000 1 0 0
6.078815 -10.957409 10.808991 16.548447 -1.064300 0.859030 -0.000782 -0.000999 313148.000000 1 0 0
-8.156785 6.330891 -10.506009 14.730565 -0.660028 2.364866 -0.006793 0.001079 321097.000000 1 0 0
2.949115 8.014091 11.348691 14.202665 1.218184 0.645077 0.004639 0.002419 1049550.000000 1 0 0
-6.132885 -9.924609 -0.470609 11.676114 1.017285 1.611113 0.005848 0.001224 -55654.500000 1 0 0
11.267515 4.218991 6.006491 13.447479 0.358278 1.107764 -0.000544 0.000367 -558039.000000 1 0 0
-8.092285 10.799991 1.348091 13.562530 -0.927752 1.471234 0.004930 0.000079 283718.000000 1 0 0
4.229615 -2.774409 -3.663009 6.245368 -0.580546 2.197547 -0.003065 0.001390 -4399780.000000 1 0 0
6.420915 6.423291 6.259991 11.030607 0.785583 0.967317 -0.002871 0.002833 -5813440.000000 1 0 0
-0.382985 10.440391 -10.179309 14.586527 -1.534130 2.343197 -0.004519 0.002304 -279416.000000 1 0 0
13.903515 6.529291 -2.448909 15.554309 0.439045 1.728897 -0.002583 0.007658 625027.000000 1 0 0
1.457515 9.457091 -6.089009 11.341823 1.417881 2.137511 -0.002111 0.000625 -540696.000000 1 0 0
0.754815 7.432791 7.217691 10.388031 1.469591 0.802643 0.000525 0.003493 52470.300000 1 0 0
12.260315 6.261491 1.975991 13.907772 0.472180 1.428236 -0.003738 0.005795 -223720.000000 1 0 0
-6.812985 6.767091 -3.213309 10.125988 -0.782019 1.893712 0.000877 -0.000870 271758.000000 1 0 0
1.146315 9.956391 11.081491 14.941325 1.456167 0.735244 0.006091 0.001503 1072780.000000 1 0 0
-3.490685 13.767791 -10.913209 17.911870 -1.322489 2.225939 -0.005139 0.005403 832.363000 1 0 0
-10.121685 -5.496909 -2.302609 11.745916 0.497517 1.768109 0.003534 -0.001926 -1132950.000000 1 0 0
-3.901485 3.904091 -12.552109 13.712000 -0.785732 2.727323 -0.003408 -0.004939 -236397.000000 1 0 0
-3.180685 8.673791 2.477291 9.564955 -1.219322 1.308813 0.003039 0.002747 -2846730.000000 1 0 0
7.053015 8.821991 7.089991 13.335685 0.896372 1.010242 -0.004892 0.005304 29537.500000 1 0 0
-1.350585 -2.195309 -8.189209 8.585256 1.019265 2.836666 0.001799 -0.005345 -1627340.000000 1 0 0
0.797815 -1.354009 4.798091 5.048913 -1.038338 0.316529 -0.000611 -0.000468 165646.000000 1 0 0
2.720815 -8.815309 -6.046409 11.030484 -1.271426 2.150952 -0.003678 -0.000698 326980.000000 1 0 0
5.132915 3.918391 8.931091 11.021115 0.652013 0.626027 0.000623 0.001979 1092090.000000 1 0 0
6.182315 -7.618709 -2.861009 10.220133 -0.889104 1.854526 -0.000528 -0.003162 746667.000000 1 0 0
1.669815 2.243391 -8.285209 8.744471 0.930936 2.816058 0.001041 0.000025 129561.000000 1 0 0
-5.396885 10.981091 -0.703009 12.255813 -1.113995 1.628189 0.003087 -0.000385 760125.000000 1 0 0
-5.391685 3.363091 -3.334309 7.176229 -0.557704 2.054016 -0.001196 0.001446 161646.000000 1 0 0
1.996515 13.629391 -6.511709 15.236427 1.425345 2.012387 -0.007702 -0.001420 581556.000000 1 0 0
-5.225285 -2.539609 2.659091 6.389365 0.452404 1.141562 -0.004071 -0.001007 -95491.300000 1 0 0
10.302515 -3.410209 -1.770309 10.995696 -0.319656 1.732500 -0.000446 0.000813 -26433.600000 1 0 0
2.313615 -3.324409 6.985791 8.075010 -0.962795 0.525422 -0.000184 -0.000744 -1384130.000000 1 0 0
-2.900485 9.978191 -11.690809 15.641359 -1.287909 2.414980 -0.000698 0.005521 -2306840.000000 1 0 0
0.483915 -1.971309 9.303691 9.522547 -1.330077 0.214809 0.002343 -0.001721 437632.000000 1 0 0
9.435515 2.580591 5.041691 11.004864 0.266969 1.094903 -0.002447 0.000551 1149430.000000 1 0 0
13.318015 1.979291 -4.905809 14.330181 0.147538 1.920204 0.003358 0.004549 -762039.000000 1 0 0
-6.494685 3.771491 7.713491 10.765826 -0.526111 0.772054 -0.002902 0.000722 -977746.000000 1 0 0
10.585515 -0.074909 1.888791 10.752965 -0.007076 1.394227 -0.003449 0.003881 848677.000000 1 0 0
15.364115 6.602391 -4.515309 17.321536 0.405868 1.834519 0.001730 0.004536 -255646.000000 1 0 0
8.040515 -5.004809 -9.179109 13.189164 -0.556763 2.340550 0.001604 0.000481 116626.000000 1 0 0
4.466815 5.733091 -2.142509 7.577012 0.908912 1.857471 0.001262 -0.001708 -102944.000000 1 0 0
-1.680285 -10.608009 1.440891 10.836484 1.413704 1.437435 -0.000163 0.002311 -1062840.000000 1 0 0
-2.665885 12.302991 -12.792809 17.947883 -1.357409 2.364244 0.000805 0.002250 -729165.000000 1 0 0
8.288115 4.280491 -9.664209 13.431768 0.476730 2.373884 -0.004065 0.000019 -1306030.000000 1 0 0
4.118015 7.600891 -8.877109 12.390910 1.074286 2.369455 0.000049 -0.001346 -2558880.000000 1 0 0
-1.708885 -4.929609 -2.452409 5.765037 1.237102 2.010193 -0.000596 0.000979 -684416.000000 1 0 0
-3.359385 -9.279809 6.980191 12.088151 1.223462 0.955206 0.003031 -0.000356 -118238.000000 1 0 0
1.051815 7.290091 -1.388309 7.495274 1.427505 1.757097 0.000295 -0.000350 1273780.000000 1 0 0
0.266315 -0.981009 -2.221709 2.443214 -1.305715 2.712488 0.004055 0.001903 -1518570.000000 1 0 0
4.171615 -6.687409 7.499391 10.879553 -1.013059 0.810259 0.000403 0.001027 -2154790.000000 1 0 0
-13.921785 3.868591 5.903591 15.608795 -0.271042 1.182921 -0.004161 -0.001232 -661662.000000 1 0 0
4.269015 6.362491 12.676491 14.812130 0.979823 0.543666 0.007381 0.003553 -1201860.000000 1 0 0
8.237415 10.136191 -7.316109 14.970732 0.888375 2.081389 0.013071 -0.004410 -120361.000000 1 0 0
12.454715 5.171091 9.438091 16.460184 0.393533 0.960160 0.017795 -0.002355 122558.000000 1 0 0
7.551615 3.989391 0.287591 8.545457 0.486017 1.537136 0.002205 0.003287 -1563430.000000 1 0 0
-10.816585 -7.602909 -1.030909 13.261430 0.612665 1.648612 0.008214 -0.004105 -459488.000000 1 0 0
10.492615 6.849991 0.204491 12.532324 0.578369 1.554479 -0.001940 0.004823 -1655550.000000 1 0 0
14.520115 3.575991 4.252891 15.546978 0.241473 1.293713 0.005367 -0.000673 911530.000000 1 0 0
2.248115 5.646091 8.166291 10.179424 1.191867 0.639767 -0.002859 0.003783 -395766.000000 1 0 0
4.250415 0.180791 11.735491 12.482806 0.042509 0.347778 0.000925 -0.002196 -1172150.000000 1 0 0
-1.521085 -1.505509 -0.402009 2.177584 0.780252 1.756474 0.002416 -0.002892 -872199.000000 1 0 0
2.940315 -5.289509 -9.526909 11.286557 -1.063452 2.575669 -0.002802 0.000983 1018060.000000 1 0 0
-3.977185 -5.323209 -1.403109 6.791412 0.929128 1.778896 0.001540 -0.000362 113059.000000 1 0 0
-1.409585 -8.693209 8.678491 12.364264 1.410048 0.792733 0.004186 -0.000860 60765.200000 1 0 0
3.979115 8.552391 -5.937809 11.146045 1.135322 2.132617 0.001920 -0.000312 165162.000000 1 0 0
-14.226385 -1.798709 -2.809409 14.612261 0.125767 1.764265 0.006427 -0.000914 -1046500.000000 1 0 0
8.903315 -10.671109 -6.680309 15.419732 -0.875465 2.018871 0.001211 -0.003753 -174108.000000 1 0 0
14.876715 6.159491 1.632391 16.183963 0.392547 1.469760 -0.005800 0.006886 -127179.000000 1 0 0
-5.733985 0.422491 -8.557709 10.309776 -0.073549 2.550008 0.003849 -0.007206 653012.000000 1 0 0
-7.953285 -4.674309 -13.045909 15.978099 0.531342 2.526096 0.005978 -0.000469 884419.000000 1 0 0
0.873015 -10.545209 12.013191 16.008759 -1.488197 0.722109 -0.000587 -0.003970 -373251.000000 1 0 0
0.391315 11.729391 3.398791 12.218163 1.537447 1.288902 0.002934 -0.000409 -1931310.000000 1 0 0
5.067115 -13.210909 -3.762809 14.641124 -1.204546 1.830716 -0.000799 0.002354 341990.000000 1 0 0
-7.426585 1.610191 -7.013209 10.340792 -0.213510 2.316118 0.000926 -0.000768 138023.000000 1 0 0
1.533315 2.841891 4.181791 5.283443 1.076019 0.657554 -0.000898 0.002755 -19825.100000 1 0 0
17.238715 5.548191 2.161291 18.238061 0.311375 1.452013 -0.001841 0.003760 -994035.000000 1 0 0
2.281315 -8.209609 -3.543709 9.228215 -1.299751 1.964930 -0.005564 0.001193 230015.000000 1 0 0
-0.431885 -9.361009 -0.548009 9.386977 1.524692 1.629209 -0.000465 0.004114 -844039.000000 1 0 0
0.774115 11.806091 -5.611409 13.094691 1.505321 2.013657 -0.001893 0.000664 -1321300.000000 1 0 0
6.016915 -5.020909 7.819991 11.070910 -0.695406 0.786461 -0.000597 -0.000077 -644348.000000 1 0 0
-6.000485 -1.897709 -9.431809 11.338701 0.306306 2.553183 0.006484 -0.005942 -809003.000000 1 0 0
2.117415 -1.175209 11.181791 11.441023 -0.506690 0.213280 -0.000658 -0.001131 -442470.000000 1 0 0
17.864915 2.131791 -5.810109 18.906535 0.118767 1.883158 -0.003354 0.002326 126438.000000 1 0 0
-8.815785 4.779191 7.904291 12.768576 -0.496771 0.903273 -0.000289 -0.003451 -1932240.000000 1 0 0
11.366315 -7.129009 -4.878309 14.276337 -0.560183 1.919528 0.014360 -0.006444 112946.000000 1 0 0
10.876115 0.502491 9.044791 14.154526 0.046168 0.877594 0.005104 -0.003183 46256.100000 1 0 0
-8.460185 -7.305309 -1.573609 11.287981 0.712275 1.710658 0.009528 -0.004852 -1423680.000000 1 0 0
10.255815 -10.516209 -3.229109 15.039932 -0.797933 1.787183 0.012391 -0.006898 598722.000000 1 0 0
7.688615 -13.743109 -3.641509 16.163182 -1.060725 1.798044 0.009804 -0.006250 -468831.000000 1 0 0
1.774715 -1.119409 -11.739509 11.925551 -0.562727 2.964725 -0.001924 -0.002232 236842.000000 1 0 0
-11.837885 -2.613809 -6.397409 13.707457 0.217314 2.056364 0.010599 -0.002873 -26735.700000 1 0 0
2.668215 -12.060809 -6.413109 13.917991 -1.353073 2.049668 -0.001440 0.001520 -70969.300000 1 0 0
-5.529185 1.550391 1.234391 5.873612 -0.273381 1.359059 -0.003037 -0.000301 415714.000000 1 0 0
0.041115 6.859091 -3.942609 7.911573 1.564802 2.092473 0.004110 -0.000953 1056440.000000 1 0 0
5.457615 -11.874109 3.627191 13.562321 -1.139969 1.300055 -0.008235 -0.000937 -3307540.000000 1 0 0
-4.304885 -9.218909 1.067691 10.230361 1.133926 1.466241 0.004938 0.002719 -238588.000000 1 0 0
7.106815 -6.321609 -4.646409 10.585777 -0.726991 2.025203 0.001806 -0.000978 542364.000000 1 0 0
-6.990985 -6.068909 2.207091 9.517184 0.714912 1.336760 0.002795 -0.000079 489725.000000 1 0 0
-6.251585 -0.774609 7.143891 9.524574 0.123278 0.722661 -0.003660 -0.000263 -980666.000000 1 0 0
4.154815 -5.045609 3.236591 7.293571 -0.881918 1.111007 -0.003370 0.000600 -187188.000000 1 0 0
-2.515785 10.565191 -8.778609 13.964827 -1.337030 2.250577 -0.003002 -0.000113 -1394730.000000 1 0 0
-2.257385 -4.838609 2.821491 6.038935 1.134277 1.084656 -0.002437 0.001648 297260.000000 1 0 0
15.037415 5.038591 6.433791 17.114465 0.323313 1.185399 0.014203 -0.008721 370716.000000 1 0 0
6.834315 0.350991 0.262791 6.848366 0.051312 1.532414 0.002770 0.001443 4436510.000000 1 0 0
-9.673585 9.120791 0.322591 13.299291 -0.755994 1.546538 0.001589 -0.001694 -1571100.000000 1 0 0
7.134115 10.473991 -2.568109 12.930401 0.972850 1.770736 0.001466 0.000729 -320364.000000 1 0 0
1.592415 -4.158809 -5.427509 7.020637 -1.205116 2.454478 -0.002611 0.001282 -745167.000000 1 0 0
0.959215 -8.060609 -7.813209 11.266755 -1.452353 2.337097 -0.002433 0.001474 122032.000000 1 0 0
-10.463585 0.084691 -10.470209 14.802671 -0.008094 2.356495 0.005073 -0.002578 -3309170.000000 1 0 0
5.874215 -2.474609 0.520991 6.395430 -0.398704 1.489243 0.002426 0.000032 -105190.000000 1 0 0
-3.330085 5.271991 -1.117409 6.334979 -1.007425 1.748111 0.002642 -0.002687 1095970.000000 1 0 0
-0.358385 4.559991 -5.083509 6.838422 -1.492364 2.408898 0.002733 -0.002277 -1160700.000000 1 0 0
3.985315 -9.707809 10.068391 14.542929 -1.181248 0.806094 -0.002592 -0.000588 -991422.000000 1 0 0
7.209915 -13.520109 -0.742609 15.340394 -1.080886 1.619224 0.007704 0.000991 475762.000000 1 0 0
12.985615 -0.046709 0.486191 12.994797 -0.003597 1.533373 -0.003154 0.000328 242017.000000 1 0 0
9.297615 2.331191 -0.686209 9.609941 0.245666 1.642263 0.000969 0.003687 -546897.000000 1 0 0
-0.757585 -5.730009 4.590191 7.380840 1.439345 0.899622 -0.004214 0.004138 652.728000 1 0 0
11.437515 -3.694309 3.400091 12.491008 -0.312421 1.295115 0.004049 -0.003455 -3250420.000000 1 0 0
1.717015 -8.176009 11.697591 14.374592 -1.363798 0.620189 -0.004016 -0.001167 197829.000000 1 0 0
9.374815 -6.002709 -6.044109 12.666923 -0.569527 2.068213 0.003445 -0.004312 -333301.000000 1 0 0
3.192715 6.393191 -0.126209 7.147184 1.107634 1.588456 0.000309 0.000836 -826541.000000 1 0 0
6.410915 -1.359909 11.389691 13.140557 -0.209026 0.522131 0.001583 -0.002264 428355.000000 1 0 0
-4.985985 -7.641309 -3.813809 9.889125 0.992663 1.966716 0.008555 -0.002084 -318259.000000 1 0 0
-3.478185 -8.508609 -5.835609 10.888000 1.182740 2.136449 0.008351 -0.000108 -429869.000000 1 0 0
9.788815 5.333891 2.197691 11.362268 0.498917 1.376149 -0.001570 0.001633 -675640.000000 1 0 0
8.875715 -1.431009 0.334191 8.996543 -0.159852 1.533641 0.000118 0.001927 1486220.000000 1 0 0
-3.924085 9.595991 9.215991 13.871408 -1.182616 0.844122 0.008060 -0.002083 235940.000000 1 0 0
-14.351285 -3.556409 -6.109409 15.997885 0.242918 1.962635 0.011048 -0.002152 -329832.000000 1 0 0
10.580115 6.353491 -5.893109 13.676052 0.540796 2.016294 0.001015 -0.000588 -1281690.000000 1 0 0
-1.852885 4.535591 2.708291 5.598179 -1.182966 1.065827 0.001822 -0.000354 475118.000000 1 0 0
6.981915 -3.726809 2.619091 8.336419 -0.490305 1.251209 0.001541 -0.002738 -2155510.000000 1 0 0
8.270315 -11.208609 -1.594209 14.020433 -0.935114 1.684749 0.007569 -0.004357 -2049840.000000 1 0 0
4.527315 0.458691 1.826891 4.903520 0.100972 1.189022 0.003209 0.001852 70946.700000 1 0 0
-10.718785 2.267191 3.913391 11.633879 -0.208443 1.227727 -0.003472 -0.002760 147899.000000 1 0 0
-0.800785 -3.065809 4.357691 5.387941 1.315306 0.628712 -0.002487 0.000473 57024.500000 1 0 0
8.567215 -8.757209 -8.569409 14.950607 -0.796365 2.181179 0.006220 -0.004311 -1103450.000000 1 0 0
11.986715 -4.742409 1.089391 12.936713 -0.376741 1.486487 0.002203 -0.001225 570018.000000 1 0 0
2.926615 4.896491 3.457291 6.670349 1.032072 1.025926 -0.004323 0.000440 354947.000000 1 0 0
6.116015 7.402291 1.961091 9.800276 0.880263 1.369331 -0.000008 -0.000332 -318126.000000 1 0 0
-1.687585 -1.343809 -10.354709 10.577040 0.672475 2.936195 0.004749 -0.005102 1497230.000000 1 0 0
-0.946385 -8.654409 6.067191 10.611562 1.461876 0.962156 -0.000225 -0.000448 480573.000000 1 0 0
-4.247185 -0.221209 2.308891 4.839266 0.052037 1.073426 -0.003201 0.000239 431105.000000 1 0 0
-8.426985 6.238291 -7.973809 13.172395 -0.637248 2.220992 -0.003298 0.000407 -1144330.000000 1 0 0
6.371415 11.178491 -9.471509 15.976954 1.052750 2.205356 0.008117 -0.006047 359791.000000 1 0 0
-11.142185 -5.768909 3.130891 12.931786 0.477750 1.326258 0.008186 -0.004192 1370230.000000 1 0 0
1.480715 -6.229509 3.029991 7.083795 -1.337433 1.128810 -0.002956 0.000275 602780.000000 1 0 0
10.139615 2.095391 7.287791 12.661530 0.203785 0.957477 0.000606 -0.000423 -2731610.000000 1 0 0
-4.006585 -2.523009 -10.604709 11.613706 0.561983 2.721669 0.003357 -0.005330 -3359750.000000 1 0 0
-8.274885 11.894991 5.889591 15.641349 -0.962988 1.184738 0.013320 -0.004621 347516.000000 1 0 0
6.874215 5.901891 -3.004409 9.545345 0.709440 1.890991 0.001938 0.000609 -2635740.000000 1 0 0
3.814115 -9.864109 -2.310209 10.825211 -1.201837 1.785860 -0.004841 -0.001852 -895259.000000 1 0 0
8.433915 -12.881709 -7.361009 17.066160 -0.991110 2.016754 0.001074 -0.001471 -691651.000000 1 0 0
-1.064185 9.479791 3.700791 10.232046 -1.459006 1.200720 0.003689 -0.000369 -145275.000000 1 0 0
0.579815 -13.229009 4.746491 14.066700 -1.526995 1.226614 0.002708 0.000341 -501973.000000 1 0 0
-11.296385 -6.939909 -5.174409 14.231837 0.550903 1.942904 0.005236 -0.004620 207594.000000 1 0 0
3.590815 10.291291 -3.373809 11.409961 1.235086 1.870974 0.002882 -0.002013 -1063060.000000 1 0 0
11.661615 -8.233509 -7.359509 16.060707 -0.614765 2.046800 0.020786 -0.005315 343308.000000 1 0 0
11.689315 -4.806009 -5.907609 13.951260 -0.390078 2.008042 0.009854 -0.003608 -164137.000000 1 0 0
1.196515 -10.374409 -2.644209 10.772737 -1.455970 1.818784 -0.005009 0.001075 -484996.000000 1 0 0
2.357515 -12.016909 -3.816809 12.827004 -1.377074 1.872933 -0.002359 0.001941 -1851790.000000 1 0 0
-7.608785 -5.666009 7.314091 11.978865 0.640079 0.914000 0.003757 0.000780 -963354.000000 1 0 0
-7.306485 -0.703409 9.468191 11.980240 0.095976 0.659470 -0.002582 0.001258 839297.000000 1 0 0
16.050315 2.481291 -7.608309 17.934765 0.153380 2.008898 0.000821 0.001490 -1052880.000000 1 0 0
-2.030785 6.324391 -5.557509 8.660711 -1.260093 2.267499 0.001879 0.000847 -702130.000000 1 0 0
7.710315 1.197891 8.301391 11.392848 0.154130 0.754449 0.000323 -0.001426 -1106850.000000 1 0 0
7.824715 8.278291 -3.800109 12.008209 0.813558 1.892791 0.005430 0.002033 -524145.000000 1 0 0
8.040515 0.507791 4.004791 8.997004 0.063070 1.109483 0.000554 -0.001076 -244562.000000 1 0 0
-6.942485 5.807491 5.293891 10.485720 -0.696613 1.041569 0.000982 -0.003442 -273131.000000 1 0 0
-6.048585 -2.102309 -4.536009 7.847322 0.334509 2.187112 0.005138 -0.003120 -1145250.000000 1 0 0
-15.036085 -2.218609 3.246491 15.541743 0.146495 1.360358 0.006427 -0.001905 -1449270.000000 1 0 0
1.045715 1.309391 -10.597609 10.729275 0.896893 2.984769 0.001006 -0.003659 655739.000000 1 0 0
1.421515 -9.211309 9.373091 13.218311 -1.417681 0.782577 0.001706 -0.002012 371642.000000 1 0 0
-0.206985 -6.675309 -1.110909 6.770282 1.539799 1.735628 -0.003038 0.003710 669307.000000 1 0 0
-0.392885 -10.216509 -8.514209 13.305006 1.532359 2.265197 0.001759 0.000448 -758159.000000 1 0 0
-4.370585 6.592491 3.738191 8.748544 -0.985361 1.129300 0.001070 0.000730 -739994.000000 1 0 0
10.727615 -1.151409 -8.522509 13.749205 -0.106922 2.239354 0.009631 -0.002110 610991.000000 1 0 0
3.056515 -1.063409 6.273391 7.058934 -0.334817 0.476259 0.000555 0.000003 694790.000000 1 0 0
1.957715 -12.417509 6.881791 14.331303 -1.414426 1.069922 0.003922 0.001208 430926.000000 1 0 0
2.888915 -4.942209 -1.290809 5.868343 -1.041823 1.792571 0.001698 0.001797 -1792710.000000 1 0 0
-1.079585 9.588391 -1.600009 9.780734 -1.458676 1.735123 0.003843 -0.002050 975409.000000 1 0 0
4.583115 -2.548509 2.685291 5.891573 -0.507488 1.097542 0.002060 0.000660 -1764390.000000 1 0 0
17.803415 6.698991 -2.736709 19.217899 0.359889 1.713686 -0.000321 0.014411 498687.000000 1 0 0
-7.124885 3.482791 -5.443809 9.619193 -0.454664 2.172360 0.001941 -0.000884 -1312180.000000 1 0 0
-13.850885 -5.886709 2.127691 15.199587 0.401876 1.430352 0.006768 -0.005526 2455990.000000 1 0 0
6.665015 -6.162309 3.285291 9.653477 -0.746228 1.223537 -0.001032 -0.002493 498689.000000 1 0 0
-4.511985 1.960691 3.591891 6.091305 -0.409933 0.940140 -0.001887 -0.001533 538186.000000 1 0 0
6.956615 -12.105709 -5.407009 14.972590 -1.049221 1.940273 0.003423 -0.002668 -479040.000000 1 0 0
2.962415 -12.302509 3.285691 13.073768 -1.334497 1.316753 -0.001701 -0.002188 -1008300.000000 1 0 0
3.350615 11.299791 -6.177509 13.306897 1.282535 2.053566 -0.003026 0.003094 302908.000000 1 0 0
-5.630185 -8.332109 6.611391 12.034680 0.976551 0.989196 0.005690 -0.001718 126801.000000 1 0 0
-4.027485 6.607691 6.345591 10.007434 -1.023410 0.883968 0.004756 -0.000712 162576.000000 1 0 0
4.236515 4.233391 -7.130209 9.311796 0.785029 2.442953 -0.001892 0.001035 -2747720.000000 1 0 0
-0.327885 -2.642709 1.615391 3.114628 1.447356 1.025529 -0.001068 0.000531 -130476.000000 1 0 0
-13.192185 -0.975409 6.546191 14.759329 0.073804 1.111264 0.002984 -0.001467 -347623.000000 1 0 0
-0.594985 -9.203109 -6.099709 11.057020 1.506236 2.155149 -0.001810 0.001796 -421798.000000 1 0 0
2.081915 -1.524909 -4.034709 4.789426 -0.632178 2.572556 -0.002433 0.003152 -1195710.000000 1 0 0
11.446415 -2.017109 1.136391 11.678207 -0.174431 1.473333 -0.001195 -0.000508 603770.000000 1 0 0
0.556315 -4.160209 -1.957709 4.631356 -1.437862 2.007227 -0.001629 0.002119 -1773390.000000 1 0 0
1.110615 -7.439109 -11.369009 13.631881 -1.422597 2.557117 -0.001978 0.001738 -2031820.000000 1 0 0
-4.428285 4.094291 -10.067809 11.736001 -0.746229 2.601881 -0.003337 -0.002745 -22634.000000 1 0 0
-1.060785 5.824291 -2.080909 6.275174 -1.390640 1.908806 0.002726 -0.001087 -1497010.000000 1 0 0
-11.320485 1.678691 -3.944609 12.105013 -0.147215 1.902724 0.001704 0.001406 -279911.000000 1 0 0
-1.764885 -11.264809 4.178391 12.143710 1.415387 1.219539 0.004395 0.000479 -422548.000000 1 0 0
-3.551985 -5.518809 -9.799809 11.794495 0.998923 2.551483 0.003013 -0.003174 -1644330.000000 1 0 0
-12.734785 -3.852309 -8.356309 15.711236 0.293751 2.131602 0.012691 -0.002184 46793.100000 1 0 0
11.312515 4.452291 0.463791 12.165977 0.374953 1.532665 -0.001681 0.005898 173229.000000 1 0 0
-8.890485 -2.331509 -3.045109 9.682425 0.256472 1.890725 0.002113 -0.001461 64909.800000 1 0 0
-2.424985 -6.079809 -6.390209 9.147645 1.191274 2.344184 -0.000485 -0.001577 319763.000000 1 0 0
-0.038485 2.734791 -1.939709 3.353063 -1.556725 2.187671 0.001785 -0.000895 -787104.000000 1 0 0
8.078815 6.029991 -5.248009 11.365282 0.641190 2.050772 0.000931 0.000764 -947406.000000 1 0 0
-9.728585 -0.964809 -0.824409 9.811008 0.098849 1.654925 -0.001431 -0.001161 -253735.000000 1 0 0
6.232315 0.500091 -8.952509 10.919673 0.080070 2.531948 -0.005452 0.002353 413931.000000 1 0 0
-4.115485 2.643591 7.893891 9.286512 -0.570980 0.554738 -0.002979 0.000784 -1508420.000000 1 0 0
-10.062985 -3.390609 1.546691 10.730897 0.324992 1.426158 0.000887 -0.001831 2403230.000000 1 0 0
-1.822785 -8.125309 -7.883809 11.467242 1.350116 2.328847 0.000480 -0.001664 -302324.000000 1 0 0
-9.348685 -9.857509 4.195391 14.218640 0.811885 1.271275 0.004176 -0.002452 -325373.000000 1 0 0
-1.090285 -10.742209 7.443491 13.114471 1.469647 0.967235 0.006277 -0.000653 -54291.300000 1 0 0
9.514515 3.861091 -3.899309 10.983562 0.385505 1.933725 -0.002072 0.002591 -505579.000000 1 0 0
12.833615 -0.783509 3.034091 13.210650 -0.060976 1.339058 -0.002646 -0.001003 -503669.000000 1 0 0
6.495415 11.934291 -6.878709 15.229391 1.072367 2.039436 0.008802 -0.002206 464203.000000 1 0 0
-11.780185 -0.090609 -6.608709 13.507628 0.007692 2.082035 0.006143 0.000687 295332.000000 1 0 0
-7.688685 -6.696509 -11.439009 15.323513 0.716535 2.413583 0.009844 -0.003969 -2191800.000000 1 0 0
4.209515 5.977491 6.630291 9.869709 0.957239 0.834185 -0.006109 0.004529 -4542920.000000 1 0 0
-4.177385 -1.354309 -7.493509 8.685470 0.313508 2.611507 0.005851 -0.008375 -917111.000000 1 0 0
9.668815 9.215091 0.873991 13.385355 0.761376 1.505455 -0.000376 0.003560 -1364420.000000 1 0 0
-8.933185 3.940391 4.967991 10.954881 -0.415425 1.100113 -0.004231 -0.003120 493084.000000 1 0 0
-6.983685 7.846791 -12.190409 16.091925 -0.843531 2.430345 -0.011645 -0.000030 -1688590.000000 1 0 0
11.126215 -3.630109 7.270091 13.777684 -0.315377 1.014939 0.007279 -0.001828 1021220.000000 1 0 0
11.777415 6.880791 6.475791 15.099293 0.528748 1.127543 0.002598 -0.003086 304575.000000 1 0 0
-9.630985 -0.904209 -14.839509 17.713964 0.093611 2.563908 -0.008016 0.003118 225520.000000 1 0 0
1.668215 -13.044709 11.970791 17.783341 -1.443602 0.832341 -0.003267 -0.000806 251060.000000 1 0 0
2.951015 3.191891 13.000791 13.708290 0.824590 0.322680 0.004730 -0.002439 -504034.000000 1 0 0
-2.561085 -1.314909 10.978991 11.350171 0.474325 0.256447 0.002867 0.000064 -592560.000000 1 0 0
2.503115 -10.055509 -8.257209 13.249919 -1.326825 2.243611 -0.004007 0.001712 -1158860.000000 1 0 0
13.777515 3.557291 -7.465909 16.069040 0.252677 2.053996 0.001682 -0.000763 -2799430.000000 1 0 0
7.478615 -1.593809 5.013091 9.143358 -0.209974 0.990494 0.002237 -0.001893 337034.000000 1 0 0
-1.110785 8.770791 10.091191 13.416137 -1.444821 0.719450 0.011741 -0.001530 62010.000000 1 0 0
-12.123285 -4.640309 0.880291 13.010820 0.365557 1.503086 0.005502 -0.004728 -363205.000000 1 0 0
-5.015085 4.851991 -5.409009 8.828945 -0.768870 2.230199 0.002092 -0.002113 -514535.000000 1 0 0
-11.178085 0.374691 1.944191 11.352086 -0.033508 1.398685 -0.005931 0.000262 -1585000.000000 1 0 0
-1.290185 2.222791 -4.085909 4.827010 -1.044887 2.580112 0.001573 -0.003462 912639.000000 1 0 0
3.096615 -9.857109 13.097991 16.682595 -1.266409 0.667892 -0.002696 -0.000089 -2607010.000000 1 0 0
8.917815 4.606891 -1.569009 10.159363 0.476835 1.725857 0.000143 0.002328 -940076.000000 1 0 0
4.095915 2.237291 3.755191 5.990279 0.499940 0.893253 -0.001198 0.002340 1484900.000000 1 0 0
-5.418485 -3.243809 7.549291 9.842463 0.539431 0.696625 -0.000593 -0.000012 73960.300000 1 0 0
1.676415 -5.914209 7.700091 9.852900 -1.294586 0.673722 -0.002219 -0.000427 -972941.000000 1 0 0
-5.896385 -6.314909 -9.739209 13.019126 0.819658 2.415944 0.008529 -0.002460 -1080800.000000 1 0 0
-11.745985 -5.800109 5.555091 14.229142 0.458671 1.169728 0.010075 -0.003926 -628017.000000 1 0 0
10.556615 6.174591 4.498491 13.030890 0.529244 1.218326 -0.002719 0.002123 -1451500.000000 1 0 0
1.458315 -3.673809 0.394391 3.972292 -1.192923 1.471347 0.004055 0.001042 -304815.000000 1 0 0
8.787815 4.282591 6.945091 11.991687 0.453463 0.953100 -0.003564 0.004522 796788.000000 1 0 0
-7.844485 12.045291 3.517791 14.798643 -0.993543 1.330788 0.008877 -0.006669 166994.000000 1 0 0
-6.213885 13.269591 -6.979009 16.229633 -1.132845 2.015307 0.009197 -0.003342 -147521.000000 1 0 0
4.440915 -6.982209 -0.944609 8.328581 -1.004303 1.684459 0.000402 -0.000544 -322865.000000 1 0 0
-1.892685 -8.196409 11.121491 13.944567 1.343858 0.647573 0.001725 -0.006448 -101340.000000 1 0 0
11.594615 8.892891 -5.820309 15.728782 0.654283 1.949851 0.011251 0.001152 589733.000000 1 0 0
-3.347785 -2.871309 -1.840809 4.779191 0.708933 1.966190 0.002576 -0.002126 -2038940.000000 1 0 0
-2.073085 6.086391 4.783991 8.014262 -1.242511 0.931121 0.001718 0.001476 416140.000000 1 0 0
0.384015 -11.364609 -5.651609 12.698130 -1.537019 2.032053 -0.002801 0.000692 -213876.000000 1 0 0
-8.901485 6.290491 -1.565909 11.011757 -0.615194 1.713483 0.001139 0.002003 -336237.000000 1 0 0
2.865115 -0.014909 3.935491 4.867976 -0.005204 0.629291 0.000215 0.000779 -386672.000000 1 0 0
-10.061885 3.949891 -0.980109 10.853745 -0.374076 1.661221 0.003045 0.002130 -25489.400000 1 0 0
6.421215 5.358191 13.680791 16.034533 0.695398 0.548691 0.012542 0.002863 -1432380.000000 1 0 0
-8.684885 -1.633809 5.730591 10.532627 0.185948 0.995504 -0.002000 -0.003693 -92284.200000 1 0 0
12.885615 -1.865109 -1.524609 13.108857 -0.143745 1.687364 0.002326 0.000352 -2064690.000000 1 0 0
5.268215 -5.613909 5.448891 9.431886 -0.817155 0.954877 -0.002485 -0.001903 264101.000000 1 0 0
-9.013785 -1.167209 3.286791 9.665076 0.128775 1.223806 -0.003533 -0.000098 520420.000000 1 0 0
2.038315 5.519591 5.570491 8.102529 1.217043 0.812755 -0.003204 0.001328 -1196260.000000 1 0 0
9.242415 3.077991 -7.503809 12.296480 0.321476 2.227160 -0.003930 0.000929 -560768.000000 1 0 0
2.335815 -2.343109 -1.637809 3.691695 -0.786957 2.030460 -0.001715 0.002972 -402747.000000 1 0 0
-6.243785 0.459391 -3.971309 7.413986 -0.073443 2.136075 -0.001455 0.000892 -1537630.000000 1 0 0
-4.063385 4.238991 5.019991 7.725312 -0.806546 0.863461 -0.000503 -0.000515 124394.000000 1 0 0
-6.360185 1.780991 -12.388209 14.038932 -0.273029 2.651774 -0.003396 -0.002326 -3894610.000000 1 0 0
-0.339685 2.950491 6.287791 6.953926 -1.456173 0.441276 0.000290 0.000175 1890560.000000 1 0 0
-8.823685 9.429991 -2.235109 13.106405 -0.818601 1.742170 0.002261 0.001163 1322520.000000 1 0 0
-1.308085 -3.684609 -6.164509 7.299905 1.229662 2.576361 -0.002363 -0.000476 161996.000000 1 0 0
-3.357785 7.063891 -2.911509 8.345667 -1.127067 1.927156 0.002846 0.001017 742174.000000 1 0 0
6.887215 -0.348609 -4.319209 8.137003 -0.050574 2.130353 -0.000491 0.003348 -30085.400000 1 0 0
-5.256085 -10.885709 7.007991 13.972725 1.120969 1.045409 0.002066 0.000864 210903.000000 1 0 0
9.791115 8.400491 -1.546609 12.993313 0.709103 1.690110 0.002900 0.003638 -219559.000000 1 0 0
13.657715 4.590791 -4.326409 15.044147 0.324267 1.862496 -0.000811 0.002059 442268.000000 1 0 0
4.740015 1.213991 -6.920309 8.475388 0.250726 2.526151 -0.007067 0.001918 256674.000000 1 0 0
9.026315 -4.939809 3.586191 10.896644 -0.500743 1.235436 0.002067 -0.003374 -1076620.000000 1 0 0
-8.802085 -3.365709 -0.758509 9.454102 0.365222 1.651113 -0.000312 -0.000920 -48636.900000 1 0 0
-8.589285 -4.333809 -10.465409 14.215573 0.467289 2.398225 0.005010 -0.002595 -206256.000000 1 0 0
10.355115 -1.288609 10.610691 14.882059 -0.123805 0.777050 0.005881 -0.002004 -46812.100000 1 0 0
2.185315 -11.585509 9.903191 15.397169 -1.384362 0.872149 -0.004172 -0.001967 468611.000000 1 0 0
-6.311085 -10.564809 2.073991 12.479841 1.032314 1.403834 0.006122 0.000567 -1144000.000000 1 0 0
-3.735785 -1.287709 6.709291 7.786454 0.331942 0.532261 -0.000038 0.000619 -974467.000000 1 0 0
4.675015 -7.629009 3.960291 9.784756 -1.021022 1.154101 -0.004482 0.000618 413978.000000 1 0 0
11.415815 -9.563509 -5.274509 15.798797 -0.697335 1.911187 0.014251 -0.008741 624513.000000 1 0 0
11.203915 1.069691 11.531991 16.113930 0.095186 0.773237 0.014812 -0.002293 177505.000000 1 0 0
-10.217085 -3.483909 4.442291 11.673063 0.328624 1.180395 0.005251 -0.002468 2259770.000000 1 0 0
2.142315 8.785091 8.945491 12.719636 1.331607 0.790793 -0.001877 0.003924 -512144.000000 1 0 0
6.551115 8.840891 4.101491 11.743112 0.933079 1.214007 -0.003198 0.002944 410947.000000 1 0 0
-4.263085 3.568691 0.403291 5.574235 -0.696966 1.498384 -0.000287 -0.001624 127425.000000 1 0 0
4.846415 6.868391 4.223291 9.407375 0.956314 1.105224 -0.001888 0.001658 -1772290.000000 1 0 0
-8.246685 13.286291 1.241291 15.686750 -1.015301 1.491584 0.007691 -0.000729 1031300.000000 1 0 0
8.823215 8.086491 -9.187309 15.087979 0.741858 2.225489 0.006881 -0.006760 -1708480.000000 1 0 0
6.955515 1.960091 5.993991 9.388773 0.274681 0.878351 -0.002563 0.000615 -707916.000000 1 0 0
11.412215 -6.287109 3.036191 13.378522 -0.503542 1.341856 0.005855 -0.002918 -441487.000000 1 0 0
11.460115 4.723891 -2.121109 12.575710 0.390982 1.740274 -0.000879 0.005168 963217.000000 1 0 0
-3.918285 14.277991 -5.986409 15.970318 -1.302962 1.955027 -0.000110 0.004878 830373.000000 1 0 0
7.125015 -3.071909 6.886091 10.374040 -0.407063 0.844934 0.002747 -0.003733 -1684150.000000 1 0 0
-7.872485 -0.518909 0.928291 7.943992 0.065819 1.453674 0.001314 -0.001474 64611.100000 1 0 0
-3.255485 1.125291 10.749891 11.288251 -0.332803 0.310084 0.001369 0.003591 -297595.000000 1 0 0
7.091715 -1.145409 -1.828009 7.412557 -0.160131 1.819977 0.001254 0.001755 -912527.000000 1 0 0
-7.938985 5.298591 2.996291 10.004014 -0.588520 1.266619 -0.001567 -0.000467 857028.000000 1 0 0
9.410415 -2.361109 2.733491 10.079817 -0.245829 1.296173 -0.001953 -0.002249 -1975770.000000 1 0 0
0.207615 3.517291 1.712091 3.917358 1.511838 1.118477 0.000419 0.000133 -4458560.000000 1 0 0
-7.503085 -3.133309 3.938291 9.034603 0.395589 1.119745 -0.000739 -0.001787 147830.000000 1 0 0
-2.267685 8.420691 -6.763909 11.036344 -1.307738 2.230491 -0.002107 0.000803 -546233.000000 1 0 0
4.520315 9.728091 7.465891 13.069373 1.135813 0.962767 -0.008099 0.007865 636035.000000 1 0 0
-11.782085 -3.156209 6.843691 13.986254 0.261737 1.059492 0.005531 -0.004807 -2614730.000000 1 0 0
-4.812485 2.296491 -5.620709 7.747661 -0.445237 2.382516 0.002817 -0.003176 -1630050.000000 1 0 0
-2.693685 2.932591 -1.886509 4.406239 -0.827835 2.013235 0.000789 -0.000050 1085750.000000 1 0 0
2.352715 5.338791 11.381591 12.789783 1.155717 0.473677 0.006597 -0.003019 380279.000000 1 0 0
-0.679985 1.667591 4.457891 4.807913 -1.183614 0.383933 -0.000545 -0.000538 -48863.100000 1 0 0
5.142615 1.650791 7.619191 9.339361 0.310612 0.616659 -0.000072 -0.000148 -922209.000000 1 0 0
3.241415 -8.206009 1.932691 9.032201 -1.194603 1.355151 -0.004937 -0.000044 2216480.000000 1 0 0
5.035515 6.366891 -4.599309 9.329917 0.901635 2.086289 0.003704 -0.001191 -2074790.000000 1 0 0
-4.077685 3.030091 -7.931509 9.419013 -0.639065 2.571914 0.003904 -0.009216 6969.270000 1 0 0
-8.743585 -2.337509 -12.829009 15.700246 0.261231 2.527196 0.007487 -0.004532 -40218.600000 1 0 0
-7.790585 8.206691 1.409991 11.403116 -0.811403 1.446829 0.001268 0.001533 -2587050.000000 1 0 0
7.320415 0.879891 -6.552509 9.863978 0.119623 2.297335 -0.004450 0.002804 -127330.000000 1 0 0
8.996215 8.776991 5.528591 13.730723 0.773064 1.156393 -0.004308 0.003852 621954.000000 1 0 0
9.345215 -1.073009 -1.326809 9.499727 -0.114319 1.710923 -0.000774 0.002025 747323.000000 1 0 0
5.397215 0.059391 4.247691 6.868503 0.011003 0.904053 0.000650 0.000639 448367.000000 1 0 0
-4.168785 -7.203809 -8.033809 11.567875 1.046192 2.338511 0.013270 -0.005167 310761.000000 1 0 0
-2.110485 7.452491 -0.547309 7.764877 -1.294830 1.641340 0.005088 -0.002162 323501.000000 1 0 0
13.458015 -3.425109 -7.413409 15.741924 -0.249213 2.061146 0.012416 -0.002264 780495.000000 1 0 0
-4.707885 -5.038109 1.626991 7.084760 0.819268 1.339082 0.002208 0.000267 2458030.000000 1 0 0
-8.863585 1.277191 2.539091 9.308133 -0.143109 1.294513 -0.004536 -0.000204 -1003480.000000 1 0 0
-1.087085 11.246791 10.210191 15.228921 -1.474438 0.835985 0.005732 -0.001958 472556.000000 1 0 0
-8.610085 0.360591 7.470591 11.404969 -0.041856 0.856575 -0.007271 -0.001085 1073550.000000 1 0 0
-5.899185 13.040291 -2.179609 14.477578 -1.145964 1.721922 -0.002600 -0.001918 745057.000000 1 0 0
-12.968985 -0.810509 3.304991 13.408000 0.062415 1.321735 0.001740 -0.003237 482243.000000 1 0 0
-6.616385 12.801991 8.812191 16.891484 -1.093780 1.021961 0.019370 -0.009420 1488010.000000 1 0 0
-8.030185 0.936891 -14.044309 16.205069 -0.116146 2.619267 0.000184 -0.000345 -764634.000000 1 0 0
7.338915 2.812991 3.669091 8.673800 0.366026 1.134033 0.001260 0.000513 -674026.000000 1 0 0
-1.635785 0.634991 -2.098309 2.735308 -0.370281 2.445136 0.000592 -0.003139 279271.000000 1 0 0
-6.257785 9.623191 -10.410209 15.496391 -0.994223 2.307409 -0.006922 0.001704 -295786.000000 1 0 0
-10.059185 13.712591 5.296291 17.812160 -0.937892 1.268890 0.014532 -0.005296 140165.000000 1 0 0
-5.624085 8.520091 2.463091 10.501861 -0.987356 1.334053 0.003998 -0.000627 -1641850.000000 1 0 0
-2.398185 -10.730809 -1.291509 11.071114 1.350923 1.687718 -0.000649 0.002971 -45370.900000 1 0 0
-2.314585 -12.475009 8.818991 15.451788 1.387345 0.963387 0.005191 -0.001914 629961.000000 1 0 0
-14.564485 -6.419109 -1.679009 16.004633 0.415124 1.675897 0.015098 -0.004516 675862.000000 1 0 0
-2.710585 -9.352209 3.278091 10.274092 1.288692 1.246055 -0.000504 0.002270 -1503940.000000 1 0 0
4.676215 -2.731809 7.547891 9.289802 -0.528715 0.622382 -0.001230 0.000294 -634831.000000 1 0 0
-14.986785 -1.279609 -0.378509 15.046076 0.085176 1.595956 0.005909 -0.001023 251328.000000 1 0 0
5.473615 8.742391 -2.818209 10.692622 1.011406 1.837513 0.002116 0.000086 -2086340.000000 1 0 0
-5.627785 -5.727209 8.488191 11.684275 0.794154 0.757636 0.004475 -0.000772 -3312260.000000 1 0 0
3.386315 3.597391 7.000691 8.568431 0.815613 0.614550 -0.000543 0.001062 -257890.000000 1 0 0
3.326415 2.131991 9.278091 10.084314 0.569971 0.402584 0.002986 -0.001638 1072690.000000 1 0 0
9.911715 -3.257609 5.218091 11.665444 -0.317541 1.107039 0.005756 -0.004096 -520227.000000 1 0 0
6.471515 10.016491 -5.105609 12.972195 0.997177 1.975320 0.004728 -0.000768 854864.000000 1 0 0
-4.551285 12.066291 -8.507709 15.449618 -1.210107 2.153968 -0.000351 -0.000577 -194586.000000 1 0 0
-3.266085 -7.239309 2.169891 8.233064 1.146978 1.304087 0.001386 0.001132 961612.000000 1 0 0
-7.391885 -4.041909 1.170891 8.505762 0.500386 1.432699 0.003135 -0.001241 2257220.000000 1 0 0
-1.989285 -3.972309 -10.990709 11.854627 1.106518 2.757460 0.002817 -0.003172 -475256.000000 1 0 0
-5.192185 8.332391 -4.445809 10.777418 -1.013541 1.996006 0.005288 -0.000349 -1102360.000000 1 0 0
-10.920985 -3.269309 -10.140509 15.257334 0.290870 2.297797 0.011003 -0.000968 -938716.000000 1 0 0
4.690815 -11.359209 -7.747009 14.527613 -1.179174 2.133247 -0.001278 -0.000490 -1902760.000000 1 0 0
-9.358185 -4.020509 7.317191 12.541188 0.405781 0.947823 0.001452 -0.001780 -896611.000000 1 0 0
-5.704885 -9.629809 -5.198209 12.341002 1.035970 2.005580 0.010369 -0.004461 -1099520.000000 1 0 0
4.965915 4.442091 -9.615209 11.698065 0.729777 2.535620 -0.005363 0.003938 134058.000000 1 0 0
-3.468485 -7.235009 -14.112609 16.233961 1.123762 2.624634 -0.002545 -0.000944 110919.000000 1 0 0
0.660415 -0.843909 -8.814009 8.878913 -0.906777 3.020607 -0.000776 -0.005699 -729558.000000 1 0 0
-7.735585 2.240491 -2.896309 8.558486 -0.281920 1.916027 0.000633 -0.000153 5858.740000 1 0 0
-2.331985 7.626391 -12.669009 14.970096 -1.274047 2.579774 -0.002266 0.002336 -359233.000000 1 0 0
-9.857385 8.867291 7.619191 15.292121 -0.732571 1.049225 0.001742 -0.006143 -191533.000000 1 0 0
-10.529285 -3.187909 -14.456009 18.166035 0.293992 2.491076 0.008656 0.007037 -493946.000000 1 0 0
-3.177085 4.880891 7.974891 9.875011 -0.993772 0.630754 0.000948 0.000379 28281.300000 1 0 0
8.624715 -2.304409 -3.465409 9.576276 -0.261088 1.941074 0.001262 0.001735 -4956740.000000 1 0 0
1.881615 -8.426909 -1.118709 8.706595 -1.351113 1.699642 -0.004007 0.003230 -951312.000000 1 0 0
-13.522785 -2.918109 5.061691 14.730981 0.212533 1.220040 0.011570 -0.005645 340307.000000 1 0 0
7.023515 2.725191 -1.993809 7.793055 0.370127 1.829517 0.000182 0.002934 1390600.000000 1 0 0
-11.093185 4.356991 8.892691 14.870174 -0.374252 0.929765 -0.006761 0.000085 -3654890.000000 1 0 0
-1.786585 -2.463909 8.073591 8.628187 0.943421 0.360494 -0.000128 -0.000442 -1346580.000000 1 0 0
3.080115 11.888891 -9.846709 15.741363 1.317295 2.246608 -0.003109 -0.005430 401718.000000 1 0 0
3.565715 -4.953609 -7.114109 9.373533 -0.946891 2.432506 -0.005464 -0.000619 122152.000000 1 0 0
8.232515 -13.814209 -9.707409 18.784049 -1.033363 2.113894 -0.002983 0.007972 -202047.000000 1 0 0
-6.258085 -5.691609 -0.433509 8.470300 0.738029 1.621999 0.006692 -0.000304 -653404.000000 1 0 0
-1.176185 -4.097909 9.888291 10.768220 1.291289 0.407071 -0.000641 0.000232 1055780.000000 1 0 0
2.745215 3.312791 1.832191 4.676292 0.878816 1.168205 -0.002728 0.001941 -464079.000000 1 0 0
-9.091085 13.421991 7.820391 17.998782 -0.975449 1.121318 0.019646 -0.012058 374172.000000 1 0 0
3.920615 -11.099509 0.015491 11.771600 -1.231252 1.569480 -0.003229 0.000714 238220.000000 1 0 0
-12.597285 -1.461009 -9.134609 15.629051 0.115462 2.195015 0.012162 -0.001671 -190222.000000 1 0 0
-4.207785 0.911391 -13.542709 14.210597 -0.213301 2.833787 0.001444 -0.004296 725687.000000 1 0 0
3.973315 -3.161909 4.930391 7.077687 -0.672166 0.800134 0.000997 0.001361 157212.000000 1 0 0
1.720215 -1.160609 1.085291 2.341796 -0.593536 1.088919 0.000646 0.001426 230679.000000 1 0 0
8.170415 -9.136209 7.372791 14.303288 -0.841145 1.029250 0.001502 -0.000595 -1660780.000000 1 0 0
-0.122185 2.442191 -6.461909 6.909088 -1.520807 2.779837 0.000745 -0.005116 -602033.000000 1 0 0
-3.757385 -9.758409 -3.442709 11.008939 1.203252 1.888851 0.006939 0.001003 242024.000000 1 0 0
-9.346785 2.272291 -5.413709 11.037842 -0.238483 2.083423 0.000260 0.001520 -1698790.000000 1 0 0
8.819215 -7.811509 5.289091 12.914051 -0.724879 1.148824 -0.001901 -0.001824 1589050.000000 1 0 0
-5.529985 -4.341809 4.639491 8.423593 0.665614 0.987506 -0.001711 0.000379 -319044.000000 1 0 0
-0.275285 -12.324209 10.362591 16.104198 1.548463 0.871772 0.006151 -0.004227 377061.000000 1 0 0
-14.149785 -8.151309 3.043191 16.610878 0.522640 1.386551 0.001505 -0.008881 -1454640.000000 1 0 0
10.867215 -1.463209 -3.633509 11.551612 -0.133839 1.890774 0.005383 0.001822 -467547.000000 1 0 0
-13.621085 2.903691 2.612091 14.169982 -0.210032 1.385396 -0.003282 0.001499 -1275350.000000 1 0 0
-6.299785 6.243291 1.206391 8.951053 -0.780894 1.435609 0.001062 0.000688 1384050.000000 1 0 0
7.022615 -6.930109 -0.326009 9.871667 -0.778768 1.603827 -0.001868 -0.002037 287085.000000 1 0 0
-6.773285 7.863591 10.106291 14.486220 -0.859751 0.798686 0.000102 -0.000608 86311.400000 1 0 0
-12.631885 -5.034309 -1.970509 13.740149 0.379247 1.714705 0.005630 -0.003894 -2545800.000000 1 0 0
-9.393985 -5.611809 0.254691 10.945512 0.538493 1.547525 0.005242 -0.001668 -1021920.000000 1 0 0
-1.823385 1.924491 2.204091 3.447668 -0.812368 0.877210 -0.000458 0.000762 258706.000000 1 0 0
-7.086685 7.278291 7.582491 12.676308 -0.798736 0.929590 0.001253 -0.002878 -293689.000000 1 0 0
5.698115 7.146691 -0.453909 9.151488 0.897699 1.620416 0.002728 -0.000810 -1091430.000000 1 0 0
-0.016785 -3.968909 7.498591 8.484185 1.566567 0.486806 -0.001770 -0.000264 -124495.000000 1 0 0
6.488015 0.637791 13.078491 14.613283 0.097988 0.462426 0.003886 -0.004089 463224.000000 1 0 0
5.765315 6.120391 -7.878309 11.522404 0.815263 2.323670 -0.003117 0.000125 -582582.000000 1 0 0
9.962015 5.215591 9.097091 14.463789 0.482308 0.890586 0.000010 0.001950 -2186450.000000 1 0 0
-1.244185 -4.922309 -8.488009 9.890573 1.323217 2.602533 0.003434 -0.002639 1275410.000000 1 0 0
9.998915 -3.586809 -7.989009 13.291643 -0.344422 2.215617 0.009271 -0.004053 592332.000000 1 0 0
8.356015 -5.567509 1.274091 10.121435 -0.587740 1.444581 0.001904 -0.002396 1053920.000000 1 0 0
15.665715 3.082191 -4.922209 16.707563 0.194266 1.869843 -0.000043 0.004465 -632569.000000 1 0 0
-6.948385 3.686891 1.011191 7.930683 -0.487836 1.442945 -0.000653 -0.000409 92304.900000 1 0 0
-1.721585 3.798591 0.253891 4.178230 -1.145271 1.509994 0.001034 -0.002524 -1786450.000000 1 0 0
-2.528485 10.122991 7.014791 12.572807 -1.326028 0.978903 0.007609 0.000612 91620.200000 1 0 0
5.435415 -5.630609 -8.809909 11.783972 -0.803035 2.415264 -0.004682 -0.001832 -750797.000000 1 0 0
-1.264185 -0.953709 6.276191 6.472889 0.646315 0.247157 0.000625 -0.000224 22838.000000 1 0 0
-5.769385 5.064891 -7.936109 11.041773 -0.720465 2.372778 -0.001529 -0.000178 -284906.000000 1 0 0
6.850215 -1.277309 2.530191 7.413422 -0.184346 1.222498 0.001815 0.002034 -1615530.000000 1 0 0
8.746015 7.530991 3.278791 11.998294 0.710890 1.294004 -0.000878 0.001587 -210207.000000 1 0 0
-5.280985 -4.842009 -7.818209 10.604634 0.742061 2.399779 0.009843 -0.007369 277716.000000 1 0 0
-2.188985 7.954991 -10.143709 13.075487 -1.302271 2.458748 -0.000378 0.000101 632307.000000 1 0 0
-2.844585 -2.273909 1.691891 4.015573 0.674364 1.135882 -0.005098 0.001450 -940412.000000 1 0 0
5.935415 -2.150009 -9.313109 11.251031 -0.347532 2.545893 -0.004766 0.001124 1031680.000000 1 0 0
1.107215 -7.648309 5.116091 9.268061 -1.427029 0.986020 -0.003510 0.001017 228068.000000 1 0 0
1.915015 11.865291 1.294691 12.088367 1.410780 1.463488 0.002824 -0.003413 1142470.000000 1 0 0
-1.226985 7.091691 2.489391 7.615421 -1.399475 1.237787 0.004105 0.000432 505334.000000 1 0 0
8.592915 7.865191 -6.682209 13.429495 0.741210 2.091600 0.006512 -0.002664 1581.870000 1 0 0
3.719615 -11.199709 5.514891 13.026245 -1.250141 1.133637 0.000862 0.001747 72423.700000 1 0 0
7.956315 -7.172709 12.407491 16.391965 -0.733650 0.712201 0.006710 0.001087 60434.500000 1 0 0
-8.719285 0.039091 -3.924009 9.561658 -0.004483 1.993678 0.000720 -0.001257 -759004.000000 1 0 0
-3.219585 -5.105209 11.289191 12.801356 1.008147 0.490973 0.001708 -0.002768 914377.000000 1 0 0
-8.161485 0.159791 -11.607709 14.190641 -0.019576 2.528693 0.002052 -0.003533 -1793530.000000 1 0 0
1.366415 -4.994509 5.375491 7.463787 -1.303748 0.766692 -0.001182 0.001086 -738035.000000 1 0 0
6.734015 3.750891 -7.742009 10.924964 0.508207 2.358384 -0.006003 0.001858 -2287980.000000 1 0 0
16.323215 4.181091 -1.250509 16.896527 0.250753 1.644874 -0.001301 0.014034 -694945.000000 1 0 0
8.006615 7.456091 0.163991 10.941940 0.749810 1.555808 0.000771 0.000338 -3895130.000000 1 0 0
5.418815 -10.315909 14.029391 18.237471 -1.087124 0.693111 -0.003931 -0.000701 -96529.800000 1 0 0
-4.889885 -9.332109 9.093991 13.917612 1.088145 0.858708 -0.001927 -0.002040 555421.000000 1 0 0
-12.542985 -3.207209 2.762491 13.237977 0.250334 1.360572 0.005495 -0.003259 -588133.000000 1 0 0
-2.083385 -1.283609 -5.920809 6.406569 0.552186 2.749674 0.004114 -0.005106 -2433030.000000 1 0 0
-2.326185 13.126691 -4.261909 13.995893 -1.395407 1.880222 -0.000997 0.003664 473675.000000 1 0 0
3.988615 -0.413909 -5.119209 6.502820 -0.103403 2.477099 -0.003493 0.002959 -1044980.000000 1 0 0
-8.864485 3.783791 -7.454209 12.184474 -0.403435 2.229104 -0.001352 0.000068 461983.000000 1 0 0
-4.555185 8.047691 -11.362809 14.650204 -1.055734 2.458473 -0.005702 0.001671 -464284.000000 1 0 0
-10.135385 -6.546309 7.376391 14.141829 0.573478 1.022070 0.003324 -0.000349 -1369950.000000 1 0 0
8.213615 5.204591 4.142891 10.569521 0.564798 1.168029 -0.004012 0.002753 -1851790.000000 1 0 0
-6.682685 -7.498809 4.107191 10.851702 0.842883 1.182639 0.009127 -0.001299 -295447.000000 1 0 0
-4.065085 11.845691 8.092491 14.910859 -1.240219 0.997119 0.009999 -0.004101 -384896.000000 1 0 0
-7.205885 10.007491 -7.935309 14.664371 -0.946741 2.142575 0.001163 -0.005259 -721940.000000 1 0 0
13.111815 5.501791 4.709391 14.978910 0.397293 1.250970 -0.000246 0.000534 -1471020.000000 1 0 0
5.192015 3.914291 -3.664509 7.463733 0.645996 2.084005 0.002539 0.002808 151220.000000 1 0 0
-2.861485 -4.092109 5.083491 7.125681 0.960561 0.776452 -0.001893 0.001513 -3506930.000000 1 0 0
12.347715 -2.407209 -5.320009 13.658815 -0.192537 1.970877 0.006919 -0.002713 -1174680.000000 1 0 0
-5.248685 9.850991 7.027191 13.189849 -1.081248 1.008923 0.004861 -0.001502 144960.000000 1 0 0
1.617015 3.898391 -0.447009 4.244055 1.177605 1.676318 0.004042 0.000569 599885.000000 1 0 0
0.061315 9.701191 7.779891 12.435576 1.564476 0.894876 0.000675 0.000357 -496238.000000 1 0 0
-5.488785 2.132991 5.904591 8.339101 -0.370648 0.784048 -0.001583 -0.000528 620044.000000 1 0 0
8.803915 0.878291 10.589591 13.799266 0.099432 0.696016 0.008459 -0.000863 -2808850.000000 1 0 0
0.449815 -2.872809 -10.226409 10.631783 -1.415481 2.864561 -0.000672 -0.002313 -1773260.000000 1 0 0
1.254715 10.700791 -2.734009 11.115576 1.454075 1.819308 0.000020 -0.001069 -233300.000000 1 0 0
2.363815 -4.282609 11.688891 12.671169 -1.066452 0.396342 0.001309 -0.001530 -1318030.000000 1 0 0
6.522015 -3.008709 9.425591 11.850349 -0.432224 0.651154 0.002904 -0.000838 53942.500000 1 0 0
-10.663585 -8.232009 5.505691 14.553029 0.657417 1.182816 0.007970 -0.001472 -1554910.000000 1 0 0
-2.995685 0.898191 -6.848709 7.528990 -0.291299 2.713225 0.006177 -0.006940 663952.000000 1 0 0
11.019115 2.549091 -5.158009 12.430761 0.227335 1.998672 -0.000391 0.003242 -3550920.000000 1 0 0
-2.046885 -3.998809 0.041391 4.492430 1.097695 1.561583 -0.003312 0.000350 890673.000000 1 0 0
-1.161685 -6.383009 -10.579309 12.410242 1.390770 2.591481 0.001001 -0.000048 676588.000000 1 0 0
0.381115 6.836191 -6.584209 9.498977 1.515104 2.336645 0.001389 0.001948 -1596540.000000 1 0 0
1.980815 3.895591 -6.245209 7.622460 1.100391 2.531015 -0.000637 -0.000393 -1922230.000000 1 0 0
1.520715 -14.864809 6.449091 16.274701 -1.468848 1.163351 0.008694 -0.001735 -139032.000000 1 0 0
-1.642585 5.402591 -10.647309 12.052023 -1.275640 2.653963 0.004628 -0.002388 -190348.000000 1 0 0
13.690315 4.346691 -0.646509 14.378331 0.307435 1.615776 -0.003437 0.008447 -542.266000 1 0 0
-2.469685 3.414591 -6.046109 7.369818 -0.944620 2.532885 0.003577 -0.004068 -1055170.000000 1 0 0
5.909015 7.733891 14.246691 17.253919 0.918369 0.599341 0.013256 -0.003572 248087.000000 1 0 0
15.752115 0.571791 -5.675809 16.753235 0.036283 1.916426 -0.004542 0.001699 10478.400000 1 0 0
6.238615 -8.301009 10.603391 14.841124 -0.926305 0.774944 -0.000799 0.004150 -647712.000000 1 0 0
0.044615 -5.854109 -6.349209 8.636263 -1.563175 2.396729 -0.001043 -0.000634 -1790630.000000 1 0 0
8.704615 5.531591 -7.591709 12.806360 0.566099 2.205337 -0.001919 0.001693 -33922.500000 1 0 0
-15.823185 -0.651609 5.304691 16.701423 0.041157 1.247579 0.005303 -0.006455 -492002.000000 1 0 0
-0.385385 4.015291 -12.385409 13.025722 -1.475110 2.826741 0.004446 -0.001026 371052.000000 1 0 0
-11.366385 3.632991 5.873891 13.300223 -0.309364 1.113372 -0.002295 -0.005136 -1195690.000000 1 0 0
5.271615 -9.567409 -9.564409 14.519062 -1.067188 2.289950 -0.000307 0.000590 142056.000000 1 0 0
1.502015 11.234891 -11.663109 16.263669 1.437892 2.370467 -0.003768 0.000766 -2837070.000000 1 0 0
5.913015 2.366891 1.254891 6.491584 0.380752 1.376261 0.003049 0.002677 -185737.000000 1 0 0
5.710715 4.510291 4.782691 8.707991 0.668487 0.989354 -0.001445 0.001754 -78485.400000 1 0 0
0.403515 -1.518009 -6.391409 6.581587 -1.310986 2.900613 -0.001925 -0.001737 -530088.000000 1 0 0
12.724015 6.954091 -4.566409 15.202369 0.500177 1.875882 0.003598 0.001532 -1191010.000000 1 0 0
7.497615 3.131291 12.768591 15.134600 0.395619 0.566715 0.007445 -0.000539 -416947.000000 1 0 0
-2.476885 -0.066409 8.640091 8.988356 0.026805 0.279281 -0.001162 0.000531 827042.000000 1 0 0
2.208615 -15.354409 13.131591 20.324235 -1.427934 0.868326 -0.005255 0.003566 73420.500000 1 0 0
18.945415 4.434091 -1.618109 19.524553 0.229907 1.653767 0.012670 0.008199 1308180.000000 1 0 0
-0.426785 -13.337309 7.250191 15.186548 1.538808 1.073093 0.002223 0.000716 -1609990.000000 1 0 0
4.386015 1.586291 -0.599009 4.702367 0.347033 1.698528 0.001675 0.001075 434228.000000 1 0 0
2.753915 -0.446909 -7.436109 7.942260 -0.160879 2.782657 -0.006996 0.000964 265113.000000 1 0 0
7.124515 -11.274309 0.880291 13.365765 -1.007233 1.504887 -0.000962 0.000968 292844.000000 1 0 0
-11.831685 -7.362209 1.232791 13.989663 0.556616 1.482560 0.007262 -0.004754 223489.000000 1 0 0
0.138615 -7.051609 9.903591 12.158352 -1.551142 0.618843 0.000860 -0.000132 -1831780.000000 1 0 0
-4.741685 -7.184109 10.655991 13.698363 0.987407 0.679475 0.005948 -0.001663 -787408.000000 1 0 0
11.834215 0.668691 -1.715409 11.976578 0.056445 1.714521 -0.000874 0.003102 965136.000000 1 0 0
6.636715 -9.726909 -7.388609 13.901450 -0.972045 2.131166 -0.002413 -0.003545 -1324510.000000 1 0 0
-10.976585 4.790391 3.537691 12.487935 -0.411503 1.283575 -0.003721 -0.003740 -499515.000000 1 0 0
5.930415 -9.085709 2.095391 11.050366 -0.992512 1.380019 -0.005150 -0.002115 2739910.000000 1 0 0
11.584515 -1.359609 5.948591 13.093329 -0.116830 1.099185 0.004883 -0.004820 983269.000000 1 0 0
-6.466585 3.568591 4.057091 8.426835 -0.504263 1.068489 -0.002847 -0.000899 -901834.000000 1 0 0
9.484115 6.314591 -3.181909 11.829921 0.587407 1.843121 0.001897 0.002674 988244.000000 1 0 0
-2.292585 6.776891 10.899391 13.037596 -1.244587 0.580849 0.001437 -0.000115 -208197.000000 1 0 0
2.050515 9.838191 3.099991 10.516870 1.365314 1.271588 -0.001561 -0.001696 -207576.000000 1 0 0
2.882315 6.095691 -5.599509 8.764684 1.129108 2.263827 -0.001694 0.000579 -1777170.000000 1 0 0
11.715615 -0.031209 -5.790209 13.068402 -0.002664 2.029816 0.004349 0.000787 107963.000000 1 0 0
-2.626985 -12.521809 6.295791 14.259514 1.364003 1.113510 0.003865 0.001960 146038.000000 1 0 0
10.809815 1.868491 -2.847509 11.333652 0.171160 1.824761 -0.000193 0.003632 535216.000000 1 0 0
-8.887885 5.531791 0.798591 10.499188 -0.556725 1.494661 -0.001393 -0.000408 530540.000000 1 0 0
1.208715 -10.160709 5.761691 11.743002 -1.452393 1.057962 -0.002439 -0.000898 79024.600000 1 0 0
9.342615 -5.744309 -1.229009 11.035942 -0.551267 1.682392 0.006080 -0.002320 1026060.000000 1 0 0
-7.795785 8.732091 -4.583309 12.571014 -0.841988 1.943992 0.001059 -0.000655 -206047.000000 1 0 0
-7.422485 0.010091 -1.624909 7.598271 -0.001359 1.786313 -0.001738 -0.001220 -1604370.000000 1 0 0
4.253615 8.744191 2.682191 10.087034 1.118047 1.301654 0.000407 0.000111 898214.000000 1 0 0
-1.334185 -10.455009 -3.817309 11.209778 1.443870 1.918281 -0.000642 0.003135 -1018200.000000 1 0 0
3.152515 7.879291 -3.678809 9.249606 1.190203 1.979833 0.004326 -0.003049 -226328.000000 1 0 0
-4.272285 1.661691 -11.067909 11.979660 -0.370941 2.748926 -0.000042 -0.005641 -360358.000000 1 0 0
1.340715 2.908791 10.845691 11.308739 1.138900 0.287154 0.003828 -0.001683 280707.000000 1 0 0
2.116315 5.658991 -8.056309 10.070108 1.212926 2.498128 -0.000150 0.000022 -85307.400000 1 0 0
15.520015 6.043791 4.096291 17.151614 0.371352 1.329637 0.002097 -0.002441 -315106.000000 1 0 0
-4.388085 9.076291 4.633591 11.095247 -1.120463 1.139973 0.005117 0.000231 -358352.000000 1 0 0
-1.108385 -8.058209 -12.442109 14.865038 1.434107 2.562583 0.001257 0.001715 -132214.000000 1 0 0
14.202615 -4.311909 -5.214809 15.732167 -0.294756 1.908662 0.008543 -0.001536 28922.100000 1 0 0
-6.001585 -6.189909 -5.676909 10.322853 0.800844 2.153084 0.013210 -0.002898 300682.000000 1 0 0
-8.809385 2.660191 -12.231909 15.306910 -0.293265 2.496610 0.002426 -0.000263 -763296.000000 1 0 0
10.627615 5.471391 13.852391 18.296749 0.475439 0.711940 0.033461 -0.000491 412767.000000 1 0 0
-0.395485 10.930591 5.593191 12.284869 -1.534631 1.098097 0.003126 0.002270 436673.000000 1 0 0
0.608815 11.194791 -0.512009 11.223018 1.516466 1.616434 0.001765 -0.002381 199415.000000 1 0 0
-1.561085 -0.561809 3.694491 4.049923 0.345453 0.422084 -0.002561 0.001074 505472.000000 1 0 0
-4.800485 6.753991 8.884191 12.148658 -0.952883 0.750585 0.003492 -0.000729 -1362240.000000 1 0 0
3.434915 -8.777009 -11.390209 14.784161 -1.197766 2.450317 -0.003416 0.004193 2378800.000000 1 0 0
6.739215 -3.767709 12.018991 14.285265 -0.509782 0.571009 0.009829 0.000213 -68256.000000 1 0 0
-2.579085 -1.822409 -12.527209 12.919126 0.615149 2.894648 -0.000293 -0.006417 836375.000000 1 0 0
-16.036085 -4.950309 5.327191 17.607968 0.299418 1.263435 0.012868 -0.007469 907759.000000 1 0 0
-8.881985 7.327691 5.790391 12.888496 -0.689804 1.104850 -0.001443 -0.004027 -4597280.000000 1 0 0
-12.900685 1.451791 6.002591 14.302673 -0.112064 1.137700 -0.001331 -0.003952 246298.000000 1 0 0
-3.709585 3.654691 10.198991 11.451515 -0.777944 0.472081 0.002893 0.002683 370948.000000 1 0 0
2.055115 -12.326309 -1.104509 12.545172 -1.405590 1.658953 -0.006300 0.003177 -3990330.000000 1 0 0
10.247015 -5.105609 -3.652309 12.016985 -0.462249 1.879610 0.008313 -0.001110 419886.000000 1 0 0
3.267915 -13.512609 0.952891 13.934772 -1.333511 1.502361 -0.000199 0.000938 357219.000000 1 0 0
9.898315 -1.847309 -6.062709 11.753537 -0.184506 2.112761 0.005646 0.000146 -72163.100000 1 0 0
11.895315 -5.371209 -1.557609 13.144373 -0.424134 1.689576 0.005592 -0.002036 -1039930.000000 1 0 0
1.402715 0.860191 5.999891 6.221433 0.550093 0.267667 0.001164 -0.002360 575967.000000 1 0 0
-10.746985 11.720591 6.590891 17.213651 -0.828705 1.177876 0.010987 -0.006196 -918586.000000 1 0 0
4.762215 -14.125909 3.033191 15.212503 -1.245636 1.370063 -0.000250 -0.001124 -3589440.000000 1 0 0
5.221515 -3.520409 -1.723409 6.528985 -0.593208 1.837925 0.001955 0.001399 -1445350.000000 1 0 0
1.983315 -2.925009 -7.775409 8.540855 -0.974951 2.714994 -0.005369 0.000934 -648325.000000 1 0 0
-2.820085 14.869391 -8.660209 17.437055 -1.383365 2.090537 0.002183 -0.002835 -1584430.000000 1 0 0
-2.268685 6.175291 -8.180509 10.497708 -1.218722 2.464290 0.003843 -0.001321 -377123.000000 1 0 0
2.569315 -3.592609 -11.447609 12.270125 -0.949964 2.773363 -0.004733 0.001181 -632096.000000 1 0 0
14.542215 2.765791 -2.672309 15.042169 0.187946 1.749399 -0.000137 0.008082 616380.000000 1 0 0
-3.413885 13.002391 2.244291 13.629146 -1.314033 1.405374 0.003250 0.000522 -220316.000000 1 0 0
7.812515 -5.082009 13.971991 16.795200 -0.576724 0.588267 0.003796 -0.003037 -684978.000000 1 0 0
-11.300485 7.195691 2.998891 13.728520 -0.567011 1.350578 0.000812 0.000379 730584.000000 1 0 0
-2.116985 11.943091 4.097091 12.802546 -1.395362 1.245044 0.005993 -0.001265 -451962.000000 1 0 0
1.753915 1.516191 0.715391 2.426280 0.712830 1.271497 -0.001624 0.000665 -1498560.000000 1 0 0
-6.759385 8.494191 5.301391 12.080782 -0.898643 1.116502 0.001438 -0.000147 -1654640.000000 1 0 0
-1.100685 9.180391 1.044791 9.304981 -1.451471 1.458276 0.004050 -0.000610 294156.000000 1 0 0
4.853115 13.079491 -8.478309 16.325058 1.215495 2.116879 0.004615 -0.009182 -2547170.000000 1 0 0
8.936215 6.781991 7.211991 13.336572 0.649194 0.999447 -0.010016 0.004014 -1470680.000000 1 0 0
7.236815 -13.883109 2.887991 15.920198 -1.090280 1.388382 0.005305 -0.001356 -508106.000000 1 0 0
4.169615 -13.317909 -1.405409 14.025961 -1.267380 1.671165 -0.004349 0.004277 -3407650.000000 1 0 0
12.169215 -11.886309 -4.532209 17.604405 -0.773638 1.831176 0.016166 -0.005958 -1094360.000000 1 0 0
2.670015 0.132991 -1.919809 3.291251 0.049768 2.193590 0.002627 -0.002039 1191900.000000 1 0 0
-13.536685 -3.336009 -10.642509 17.539493 0.241627 2.222792 0.010195 -0.005436 85453.300000 1 0 0
-6.511985 13.747491 5.073491 16.035578 -1.128421 1.248875 0.014874 -0.006431 497647.000000 1 0 0
7.294915 -4.327709 -0.615809 8.504356 -0.535442 1.643271 0.000727 0.000062 -1682270.000000 1 0 0
11.730515 1.962491 -7.292109 13.951029 0.165763 2.120803 0.005685 0.000012 -715123.000000 1 0 0
-7.434285 -4.551209 9.726291 13.060736 0.549336 0.730716 0.005262 -0.000263 75300.800000 1 0 0
1.062315 2.833091 8.422091 8.949108 1.212055 0.344899 0.000374 0.000352 -2434130.000000 1 0 0
1.559715 8.072291 -8.737309 11.997298 1.379930 2.386595 -0.000495 0.000522 -643041.000000 1 0 0
-8.546685 -1.961709 -5.607809 10.408730 0.225621 2.139761 0.008251 -0.002424 -1756850.000000 1 0 0
6.654715 -0.535909 7.174191 9.800074 -0.080357 0.749463 0.001099 -0.000862 7725.440000 1 0 0
-10.810385 6.438891 7.147891 14.471216 -0.537193 1.054183 -0.001715 -0.004034 394425.000000 1 0 0
-5.945785 11.048491 4.937191 13.483225 -1.077094 1.195903 0.002542 -0.001332 651316.000000 1 0 0
6.042215 -1.223209 -6.962209 9.299299 -0.199744 2.416867 -0.003303 0.002831 -886052.000000 1 0 0
4.535915 -5.748709 11.365891 13.520564 -0.902779 0.572337 0.002699 0.000049 -1113960.000000 1 0 0
-8.942985 -7.366009 2.770891 11.912721 0.689004 1.336047 0.009635 -0.003724 -3353410.000000 1 0 0
-1.137585 12.794491 -9.197609 15.798389 -1.482117 2.192212 0.005273 -0.001269 560057.000000 1 0 0
-4.586585 9.265191 -2.353609 10.602830 -1.111129 1.794640 0.001876 -0.001324 314765.000000 1 0 0
-3.326485 9.684391 -0.142709 10.240766 -1.239933 1.584732 0.005313 -0.001485 -1412650.000000 1 0 0
-3.460685 10.750791 -6.379509 12.971275 -1.259370 2.084973 0.001563 0.002524 680973.000000 1 0 0
4.903315 -4.913709 0.384991 6.952356 -0.786457 1.515392 -0.001202 -0.000036 -1501960.000000 1 0 0
-2.170585 2.996491 -10.856409 11.469613 -0.943897 2.813122 0.004881 -0.003706 -878859.000000 1 0 0
-3.438085 12.077591 -2.154009 12.740815 -1.293466 1.740676 -0.001211 0.001884 -1318710.000000 1 0 0
-0.098985 0.452391 -0.045809 0.465353 -1.355386 1.669396 -0.005105 0.000417 -1940310.000000 1 0 0
-4.754885 -1.541709 0.111991 4.999834 0.313542 1.548396 -0.001082 -0.001115 37163.900000 1 0 0
2.672015 2.678291 -2.426909 4.494752 0.786571 2.141166 -0.006590 -0.000432 1587800.000000 1 0 0
6.052615 -9.774409 8.493591 14.293856 -1.016356 0.934510 -0.003293 0.001991 -1491970.000000 1 0 0
-4.115285 -5.416009 6.588091 9.469513 0.921029 0.801380 0.004437 -0.000642 82107.400000 1 0 0
-6.195085 5.261291 -12.015209 14.506051 -0.704069 2.546844 -0.013533 0.000405 678309.000000 1 0 0
-13.044085 3.094491 7.929691 15.575751 -0.232927 1.036652 -0.006373 -0.001601 536071.000000 1 0 0
4.598115 -7.515609 -4.787509 10.027327 -1.021739 2.068542 -0.003521 -0.001327 512402.000000 1 0 0
-6.024285 2.428391 -1.025509 6.575771 -0.383176 1.727388 -0.001462 -0.000025 -519434.000000 1 0 0
-6.767885 -2.810609 -14.487909 16.235865 0.393614 2.673299 0.006121 -0.004248 159815.000000 1 0 0
2.728315 -6.082309 0.981791 6.738108 -1.149136 1.424569 -0.002246 0.000501 -134631.000000 1 0 0
4.820815 -7.928409 13.056391 16.017780 -1.024484 0.617862 -0.000997 0.000455 97014.400000 1 0 0
-10.125585 -1.637209 8.008891 13.013465 0.160303 0.907864 0.003724 -0.001183 -745170.000000 1 0 0
-4.387085 13.277191 -0.019909 13.983229 -1.251668 1.572220 0.000395 0.000097 706601.000000 1 0 0
6.716815 2.262891 -4.543009 8.418741 0.324957 2.140794 -0.002897 0.004303 -1121720.000000 1 0 0
5.035915 4.573291 0.074191 6.803009 0.737291 1.559891 0.000388 0.001147 -306771.000000 1 0 0
-5.873685 12.204891 1.822591 13.666798 -1.122255 1.437039 0.003426 -0.002334 -60057.500000 1 0 0
6.514015 -7.361109 6.689291 11.889699 -0.846374 0.973254 -0.003174 -0.000477 -1793080.000000 1 0 0
-0.159785 4.892391 7.643391 9.076477 -1.538148 0.569613 -0.001414 0.001682 -327394.000000 1 0 0
-5.839185 -3.384009 -1.565709 6.928135 0.525235 1.798759 0.002435 -0.002432 -184589.000000 1 0 0
2.340515 -6.442909 -5.178209 8.590864 -1.222349 2.217749 -0.003255 0.002582 -219745.000000 1 0 0
-14.484085 -4.805809 -3.870309 15.743691 0.320369 1.819175 0.013038 -0.007172 47851.300000 1 0 0
-12.398585 -5.139409 -6.342609 14.844768 0.392957 2.012259 0.010067 -0.005909 -1508850.000000 1 0 0
-14.889785 -3.768209 -1.404209 15.423259 0.247869 1.661967 0.013106 -0.003015 596105.000000 1 0 0
11.895415 2.870491 8.693691 15.010692 0.236784 0.953090 0.008586 -0.005321 -1185160.000000 1 0 0
8.804515 -6.647709 7.689691 13.447783 -0.646715 0.962076 0.002456 -0.003981 63052.400000 1 0 0
-8.746285 -1.716309 -9.812609 13.256339 0.193771 2.404194 0.002939 -0.005001 -291835.000000 1 0 0
-8.793285 5.113391 -3.890009 10.890399 -0.526714 1.936061 0.002845 0.000243 -217370.000000 1 0 0
-3.993285 -6.302109 4.119091 8.522313 1.006006 1.066342 0.003931 0.000195 -1211220.000000 1 0 0
-0.103485 -9.493909 3.596191 10.152715 1.559897 1.208727 -0.002167 -0.000526 192537.000000 1 0 0
7.858515 -10.566509 3.337791 13.584853 -0.931327 1.322555 -0.002669 0.000269 -344358.000000 1 0 0
-0.036185 6.459591 9.604791 11.574957 -1.565195 0.592064 0.002531 0.000440 214999.000000 1 0 0
0.081515 3.600591 -9.784109 10.425914 1.548161 2.788887 0.005502 -0.003263 -1353890.000000 1 0 0
4.454015 -3.053309 10.938791 12.199102 -0.600941 0.458566 0.001945 -0.001252 -839542.000000 1 0 0
8.502515 -9.172009 1.343091 12.578649 -0.823259 1.463817 0.000672 -0.002371 -195901.000000 1 0 0
-0.264985 -0.416709 11.537391 11.547954 1.004398 0.042776 0.005848 -0.000671 -2335280.000000 1 0 0
11.022715 5.931491 11.420591 16.944401 0.493673 0.831181 0.019530 0.000254 472454.000000 1 0 0
-6.350085 -2.989109 -11.866809 13.786933 0.439950 2.607496 0.005299 -0.004191 79112.400000 1 0 0
-1.581385 3.044291 8.680591 9.333871 -1.091703 0.376357 0.002796 -0.003621 -467726.000000 1 0 0
-1.490885 13.670891 -6.698209 15.296470 -1.462170 2.024049 0.008253 0.001106 258046.000000 1 0 0
7.610515 3.091391 9.762891 12.758945 0.385840 0.699475 -0.001103 0.000382 466338.000000 1 0 0
6.512815 8.535691 -8.067309 13.429678 0.919021 2.215182 0.005749 -0.003662 -976775.000000 1 0 0
6.564315 -2.924109 -3.867209 8.160634 -0.419068 2.064495 0.002923 0.000207 -2573620.000000 1 0 0
1.985515 8.257691 1.021391 8.554236 1.334831 1.451109 -0.000534 0.001328 770896.000000 1 0 0
-17.577385 6.163591 6.281191 19.657255 -0.337258 1.245557 0.005778 -0.000520 595832.000000 1 0 0
-14.534285 3.030091 -10.179809 18.001539 -0.205535 2.171832 0.014688 -0.001225 -749483.000000 1 0 0
-18.298185 0.127591 -4.560809 18.858442 -0.006973 1.815063 0.011158 0.003931 751783.000000 1 0 0
-13.056285 7.983591 0.152891 15.304499 -0.548814 1.560806 -0.001701 0.004102 -2259820.000000 1 0 0
-12.587885 -4.326909 -12.888909 18.528383 0.331084 2.340094 0.013816 0.004857 -702072.000000 1 0 0
-17.309285 -0.488809 -8.563509 19.317970 0.028232 2.030065 0.002573 -0.006549 -722694.000000 1 0 0
-16.681185 -2.144909 -2.233609 16.966189 0.127881 1.702830 0.010585 -0.001220 -95703.000000 1 0 0
-15.283285 4.092291 1.564991 15.898894 -0.261625 1.472203 -0.005060 0.006076 -1177420.000000 1 0 0
-13.108785 5.886591 4.438691 15.039753 -0.422069 1.271204 -0.000576 -0.001086 -788605.000000 1 0 0
-10.169185 14.325791 2.764891 17.784410 -0.953489 1.414696 0.026521 -0.005464 -93702.800000 1 0 0
-11.705485 2.487691 -6.499309 13.617930 -0.209408 2.068332 -0.002449 0.005902 89470.900000 1 0 0
-15.915085 10.633391 3.834691 19.520855 -0.589017 1.373070 0.011236 -0.004277 -894932.000000 1 0 0
-12.705285 1.042191 -8.583109 15.368155 -0.081845 2.163372 0.007906 -0.001436 504448.000000 1 0 0
-12.258985 14.262891 4.221691 19.275255 -0.860812 1.349985 0.024233 -0.010711 -1044260.000000 1 0 0
-10.537985 11.113091 -1.030809 15.349674 -0.811954 1.638002 0.002560 -0.000720 638896.000000 1 0 0
-16.895485 5.728091 8.817291 19.900077 -0.326870 1.111767 0.004129 0.002015 614695.000000 1 0 0
-11.732485 12.526191 -9.261809 19.502250 -0.818105 2.065658 0.007059 -0.008892 -1590470.000000 1 0 0
-17.124185 -0.470409 3.162491 17.420113 0.027464 1.388242 0.004677 -0.002733 796619.000000 1 0 0
-13.212985 14.932691 -0.576009 19.947431 -0.846422 1.599677 0.024769 -0.002337 415624.000000 1 0 0
-16.235785 4.876191 -10.812909 20.107137 -0.291765 2.138580 0.014849 0.009281 490439.000000 1 0 0
-11.756085 7.617291 -9.049709 16.677107 -0.574929 2.144376 -0.000093 0.002439 -321540.000000 1 0 0
-14.887885 13.414291 -1.971509 20.136513 -0.733379 1.668861 0.027187 -0.012853 353592.000000 1 0 0
-11.910985 10.596991 -5.502709 16.865574 -0.727085 1.903150 0.008555 -0.005629 1498850.000000 1 0 0
-17.753285 2.930591 -1.009909 18.021859 -0.163598 1.626864 0.001599 0.008337 287211.000000 1 0 0
-9.401185 15.474691 0.613491 18.116973 -1.024866 1.536927 0.022292 -0.007173 78009.700000 1 0 0
-7.966185 13.211091 -3.774809 15.882135 -1.028180 1.810769 0.001785 -0.004166 -1462840.000000 1 0 0
-17.729985 11.597691 2.145391 21.294636 -0.579272 1.469877 0.028452 0.007090 31875.000000 1 0 0
-7.923785 15.597191 -7.197209 18.917150 -1.100748 1.961089 0.019681 -0.017502 -149438.000000 1 0 0
-6.234985 15.192091 -5.246809 17.239596 -1.181348 1.880049 0.002920 -0.004380 -117623.000000 1 0 0
-17.470385 5.363091 -0.311309 18.277692 -0.297850 1.587829 0.006250 0.008606 733511.000000 1 0 0
-5.231885 12.272391 -12.081509 17.998529 -1.167814 2.306690 -0.017379 -0.001712 -1088920.000000 1 0 0
-10.966285 3.740691 -11.416509 16.266188 -0.328732 2.348795 -0.000821 -0.002694 429464.000000 1 0 0
-11.814485 11.073091 1.262991 16.241630 -0.753017 1.492955 0.008141 -0.001752 163390.000000 1 0 0
-12.885585 0.237491 -11.085909 16.999767 -0.018429 2.281175 0.010484 -0.001849 517930.000000 1 0 0
-14.083485 -2.123309 -12.917909 19.228244 0.149639 2.307459 0.012286 -0.002527 56097.500000 1 0 0
-18.833685 -2.321309 -3.796609 19.352272 0.122635 1.768261 0.017509 0.003202 808620.000000 1 0 0
-18.345485 4.930691 -5.182609 19.690809 -0.262564 1.837133 0.022558 0.006585 -21625.200000 1 0 0
-8.005085 15.277591 -2.099809 17.375136 -1.088153 1.691944 0.009095 -0.011236 -249381.000000 1 0 0
-15.959785 9.170891 -5.391209 19.180331 -0.521552 1.855716 0.007566 0.001430 85118.900000 1 0 0
-18.205285 1.721091 2.234591 18.422485 -0.094258 1.449200 0.004306 -0.003368 206739.000000 1 0 0
-15.685785 -2.643509 -8.675809 18.119097 0.166960 2.070108 0.010373 -0.007672 -41879.600000 1 0 0
-9.703885 10.509691 -7.170309 16.001010 -0.825242 2.035453 0.000479 -0.008685 803811.000000 1 0 0
-13.846885 12.034291 -7.782409 19.928027 -0.715477 1.971999 0.010619 -0.013870 -563475.000000 1 0 0
-11.055685 6.443891 -3.816009 13.353420 -0.527719 1.860606 -0.002961 0.002385 430950.000000 1 0 0
-13.040685 4.915191 -12.734909 18.878466 -0.360446 2.311183 0.014264 -0.000401 376466.000000 1 0 0
-17.713485 9.077991 2.715991 20.088655 -0.473590 1.435181 0.015796 -0.003748 820684.000000 1 0 0
-13.196385 8.609791 -6.570509 17.071751 -0.578085 1.965870 -0.003423 -0.002331 -804199.000000 1 0 0
-15.845485 7.026491 -3.959309 17.779963 -0.417384 1.795363 0.006565 0.008108 -972981.000000 1 0 0
-14.878285 -0.223009 -9.403209 17.602086 0.014988 2.134369 0.016415 -0.004189 236926.000000 1 0 0
-9.972585 5.851291 -6.087209 13.066911 -0.530611 2.055390 -0.003589 0.000333 474227.000000 1 0 0
-12.774985 12.314391 -0.854909 17.764440 -0.767042 1.618940 0.017741 -0.006970 -847281.000000 1 0 0
-10.453085 3.476191 -14.039209 17.845175 -0.321047 2.476279 -0.006075 0.004037 315827.000000 1 0 0
-10.954585 6.259991 -12.064109 17.456608 -0.519162 2.333794 -0.001132 -0.000666 -818009.000000 1 0 0
-5.633185 11.840191 -14.663209 19.670602 -1.126721 2.411988 -0.010504 0.002177 -451493.000000 1 0 0
-15.611485 13.313191 3.640091 20.837701 -0.706107 1.395208 0.007909 -0.007116 288523.000000 1 0 0
-14.955085 11.012891 -3.225009 18.850438 -0.634739 1.742726 0.018357 -0.004115 708366.000000 1 0 0
-18.220785 8.028691 -4.677509 20.453263 -0.415038 1.801531 0.021069 0.003915 481778.000000 1 0 0
-3.935185 16.334791 -10.446209 19.784700 -1.334393 2.127033 0.006732 -0.002335 -88139.500000 1 0 0
-15.789085 4.440791 -4.688009 17.058525 -0.274174 1.849198 0.003296 0.010071 887651.000000 1 0 0
-18.803385 -1.814509 -6.233109 19.892496 0.096201 1.889504 0.021408 -0.003426 498806.000000 1 0 0
-10.707185 8.603191 -5.710709 14.875177 -0.676870 1.964822 -0.000807 0.001185 -229229.000000 1 0 0
-11.321085 13.472191 -6.767609 18.853844 -0.871943 1.937940 0.005746 -0.009460 -49866.800000 1 0 0
-9.532885 10.667291 -4.449309 14.982101 -0.841497 1.872319 -0.006073 0.000784 176267.000000 1 0 0
-11.142785 6.304591 -0.295809 12.806132 -0.514893 1.593897 -0.002102 0.002499 -112647.000000 1 0 0
-14.662585 9.395991 -1.192309 17.455591 -0.569890 1.639155 0.011208 0.000512 310087.000000 1 0 0
-18.368385 3.512591 4.633491 19.266684 -0.188949 1.327923 -0.003618 0.000375 147921.000000 1 0 0
-14.778185 13.089991 0.574491 19.750257 -0.724894 1.541704 0.015455 -0.007986 132294.000000 1 0 0
-16.980885 2.704591 -9.456609 19.623780 -0.157946 2.073613 0.020521 0.005800 -396226.000000 1 0 0
-9.082585 8.460591 -8.949209 15.302395 -0.749958 2.195460 0.001262 0.000092 -2762050.000000 1 0 0
-17.557585 4.783191 -2.784709 18.409300 -0.265974 1.722646 -0.003816 0.010306 869100.000000 1 0 0
-13.616885 5.872291 -4.562709 15.515208 -0.407153 1.869289 -0.000764 0.008539 -1030840.000000 1 0 0
-12.143585 9.610191 3.418491 15.859020 -0.669463 1.353536 0.002875 -0.002135 340822.000000 1 0 0
-17.625685 2.600291 -4.273409 18.321799 -0.146472 1.806206 0.011777 0.008860 900339.000000 1 0 0
-11.179985 1.502191 -12.578109 16.895487 -0.133564 2.410530 0.008877 0.000493 -63920.900000 1 0 0
-11.109385 12.036691 3.509891 16.751707 -0.825440 1.359708 0.014356 -0.006581 -325767.000000 1 0 0
-16.038585 13.118391 -4.336809 21.169230 -0.685577 1.777121 0.013341 -0.006348 162179.000000 1 0 0
-11.098085 4.070991 -4.628909 12.695167 -0.351579 1.944021 -0.004260 0.003880 -263508.000000 1 0 0
-11.108485 15.051891 -8.736809 20.646784 -0.935011 2.007722 0.017296 -0.018395 306168.000000 1 0 0
-15.482985 7.129791 -0.129209 17.046215 -0.431545 1.578376 0.001704 0.007212 -1540130.000000 1 0 0
-12.851685 8.372191 -4.082909 15.872288 -0.577392 1.830956 0.002054 0.002023 609461.000000 1 0 0
-19.170085 1.929691 -6.236609 20.251202 -0.100324 1.883847 0.009031 0.006147 544432.000000 1 0 0
-12.729985 10.086191 -8.996709 18.566759 -0.670039 2.076656 0.006437 -0.007049 757750.000000 1 0 0
-16.715985 10.913291 -1.157309 19.996586 -0.578387 1.628704 0.020673 -0.004330 84273.100000 1 0 0
-10.528485 6.557391 -14.646909 19.193236 -0.557033 2.438937 -0.008472 -0.002361 -289669.000000 1 0 0
-13.501385 12.821591 -4.123509 19.070499 -0.759579 1.788742 0.011697 -0.012114 -168743.000000 1 0 0
-17.946385 7.884391 -0.293509 19.604145 -0.413946 1.585769 0.011794 0.002080 386461.000000 1 0 0
-12.881685 6.580691 -2.075809 14.613428 -0.472295 1.713326 -0.002379 0.005624 904179.000000 1 0 0
-13.634885 8.424391 -10.692209 19.266650 -0.553445 2.159111 0.004141 -0.001965 -62814.900000 1 0 0
-14.926685 1.354191 -0.948809 15.017989 -0.090475 1.634017 0.000789 0.005032 -660175.000000 1 0 0
-13.356985 2.709391 -2.459609 13.849171 -0.200129 1.749343 -0.000828 0.005790 1157790.000000 1 0 0
-11.149285 9.382691 -10.904009 18.199969 -0.699568 2.213201 0.001212 -0.002160 -674515.000000 1 0 0
-15.567685 4.529991 -8.236109 18.185355 -0.283167 2.040809 0.023849 0.001971 667761.000000 1 0 0
-18.470485 10.759491 4.485891 21.841444 -0.527470 1.363940 0.019291 -0.004215 144625.000000 1 0 0
-15.419585 6.350691 -6.391309 17.858995 -0.390687 1.936789 0.008013 0.010046 460064.000000 1 0 0
-7.555385 11.474991 -12.817809 18.789771 -0.988523 2.321522 -0.018043 0.006477 -1749600.000000 1 0 0
-16.618885 9.052291 -2.843209 19.136749 -0.498764 1.719922 0.002867 -0.001403 266263.000000 1 0 0
-20.745885 -0.974409 -4.811009 21.318702 0.046934 1.798428 0.016144 0.002564 -494957.000000 1 0 0
-15.383685 4.447991 4.032691 16.513782 -0.281461 1.324100 -0.001895 -0.002609 121520.000000 1 0 0
-6.901085 12.621791 -9.459609 17.216817 -1.070444 2.152490 0.000289 -0.004044 -43538.300000 1 0 0
-17.045685 1.597391 5.824291 18.083954 -0.093439 1.242882 0.010268 -0.006225 -105038.000000 1 0 0
-10.250985 14.132991 -2.882009 17.695482 -0.943276 1.734392 0.011814 -0.010289 2528550.000000 1 0 0
-9.847885 8.397091 -12.966409 18.319927 -0.706048 2.357142 -0.015591 -0.001267 324052.000000 1 0 0
-13.691485 11.714591 2.960791 18.260741 -0.707743 1.407938 0.016660 -0.005551 1066040.000000 1 0 0
-17.046785 6.690291 1.880491 18.408941 -0.373995 1.468467 0.006649 0.004766 915394.000000 1 0 0
-9.331985 13.166291 -8.345309 18.168141 -0.954203 2.048046 0.012727 -0.014503 63570.400000 1 0 0
-5.608785 9.818291 -13.008509 17.235969 -1.051778 2.426039 -0.007612 0.006607 -237792.000000 1 0 0
-15.798485 1.856491 3.187491 16.223402 -0.116974 1.373035 -0.004000 0.000226 -878963.000000 1 0 0
-18.657185 -4.792009 4.619091 19.808834 0.251411 1.335446 0.024857 -0.007586 799297.000000 1 0 0
-5.275585 14.517291 -9.069909 17.912196 -1.222234 2.101748 0.000829 -0.002088 -117706.000000 1 0 0
-15.344085 -0.768409 -6.860409 16.825475 0.050037 1.990773 0.009096 -0.001474 498757.000000 1 0 0
-8.886485 11.002891 -9.580209 17.082553 -0.891408 2.166170 -0.003982 -0.006943 308148.000000 1 0 0
-16.607385 1.362391 -6.192809 17.776733 -0.081852 1.926624 0.002946 0.002532 -1561920.000000 1 0 0
-11.313085 8.687891 -1.524309 14.345343 -0.654891 1.677255 -0.002149 0.001400 -141678.000000 1 0 0
-10.494985 10.945091 -12.916109 19.918976 -0.806389 2.276320 -0.004507 0.001405 -610447.000000 1 0 0
-13.942685 11.866291 -10.381809 21.047311 -0.705119 2.086630 0.014812 -0.010595 -190654.000000 1 0 0
-13.300185 5.815091 -7.815809 16.486269 -0.412174 2.064715 0.006673 0.006696 692577.000000 1 0 0
-8.837885 15.434991 -4.680609 18.391717 -1.050777 1.828122 0.012512 -0.009955 498454.000000 1 0 0
-8.548985 6.121991 -13.009009 16.727171 -0.621455 2.461823 -0.011187 -0.000651 318987.000000 1 0 0
-16.421585 7.356591 4.214191 18.480998 -0.421175 1.340744 0.005977 0.001129 -52397.800000 1 0 0
-12.665285 5.533291 -10.300809 17.237559 -0.411895 2.211275 0.009521 0.001571 657408.000000 1 0 0
-12.277785 9.248591 -13.335409 20.349781 -0.645596 2.285389 0.005212 -0.002790 -1326040.000000 1 0 0
-10.841285 5.191891 -8.522809 14.735246 -0.446626 2.187558 -0.001873 0.003803 383814.000000 1 0 0
-17.894185 -4.376209 -2.704209 18.618964 0.239853 1.716551 0.020912 -0.001415 700868.000000 1 0 0
-9.066085 13.382291 -10.892709 19.491811 -0.975353 2.163777 0.014918 -0.007150 115587.000000 1 0 0
-14.987885 6.136091 6.119591 17.312934 -0.388586 1.209519 0.000623 -0.002351 -120201.000000 1 0 0
-16.484985 -3.225909 -4.589609 17.413378 0.193246 1.837515 0.017748 -0.002161 -135820.000000 1 0 0
-11.108285 -1.144009 -12.685109 16.900141 0.102625 2.419754 0.009015 0.003247 393667.000000 1 0 0
-15.417585 7.048591 -8.846909 19.122039 -0.428808 2.051784 0.014452 0.006688 106203.000000 1 0 0
-14.859885 9.141891 1.448891 17.506845 -0.551525 1.487940 0.006716 0.000862 -169904.000000 1 0 0
-19.368385 5.305791 8.032091 21.628690 -0.267381 1.190320 0.024417 -0.002692 -903174.000000 1 0 0
-16.327185 0.480591 0.937391 16.361132 -0.029426 1.513471 0.003761 0.000390 -127906.000000 1 0 0
-17.521085 3.765691 7.184591 19.307698 -0.211703 1.189515 0.016098 0.001054 747675.000000 1 0 0
-15.389885 4.017991 -1.487009 15.975106 -0.255379 1.664014 -0.000026 0.007125 -1124190.000000 1 0 0
-10.749785 13.320091 0.354991 17.120418 -0.891780 1.550060 0.014023 -0.008858 -514521.000000 1 0 0
-13.345885 3.386091 0.006791 13.768744 -0.248475 1.570303 -0.002728 0.003838 -95494.200000 1 0 0
-15.057685 0.225891 -4.397409 15.688280 -0.015001 1.854902 0.006409 0.003527 -361230.000000 1 0 0
-19.006285 6.873391 3.531391 20.517141 -0.347005 1.397816 0.016556 0.005592 1165360.000000 1 0 0
-14.009785 1.449191 -6.453109 15.492477 -0.103075 2.000423 0.007098 0.002302 61684.800000 1 0 0
-14.319985 11.977691 5.503791 19.463267 -0.696564 1.284107 0.009392 -0.007017 -52944.100000 1 0 0
17.656615 5.342591 6.428191 19.535121 0.293825 1.235490 0.011113 -0.008691 47165.300000 1 0 0
18.352415 7.552891 -0.243509 19.847332 0.390421 1.583066 -0.005941 0.012015 569245.000000 1 0 0
16.342915 5.152391 8.746991 19.239227 0.305404 1.098824 0.017307 -0.005155 114360.000000 1 0 0
11.582615 12.287591 10.909891 20.103919 0.814923 0.997178 0.010025 -0.003972 446877.000000 1 0 0
-2.268285 16.381591 -0.436809 16.543652 -1.433206 1.597203 0.000419 0.000649 -95652.400000 1 0 0
14.973115 12.731791 3.560691 19.974263 0.704674 1.391574 0.008034 -0.002529 68716.200000 1 0 0
13.487515 11.738491 6.664791 19.082051 0.716175 1.214004 0.013110 -0.003253 772442.000000 1 0 0
-0.496585 15.782691 8.601391 17.981208 -1.539343 1.072016 0.005685 -0.002694 -196918.000000 1 0 0
0.888615 12.954891 9.506791 16.093412 1.502311 0.938838 0.001906 0.000799 1171230.000000 1 0 0
0.744615 15.402791 -3.752609 15.870806 1.522491 1.809504 0.000291 0.002147 -740307.000000 1 0 0
5.396215 10.133591 13.680991 17.859964 1.081482 0.698178 0.008425 -0.007741 365337.000000 1 0 0
-1.274485 16.571891 -2.750409 16.846858 -1.494041 1.734790 0.001658 0.003742 -1224150.000000 1 0 0
8.557815 10.037891 3.330791 13.604764 0.864823 1.323457 -0.002563 0.003825 252893.000000 1 0 0
12.575615 13.767491 -4.898709 19.279192 0.830612 1.827706 0.029450 -0.000133 -382986.000000 1 0 0
2.583515 11.636991 7.875891 14.287188 1.352331 0.986928 0.006451 0.000473 544408.000000 1 0 0
-0.386685 15.124891 -8.680409 17.443089 -1.545236 2.091674 0.003706 0.000727 -1433540.000000 1 0 0
2.466415 15.995891 0.222891 16.186457 1.417811 1.557026 0.004717 -0.003913 -698128.000000 1 0 0
1.992615 13.447291 5.318891 14.597628 1.423687 1.197844 0.003290 0.000626 -4957.950000 1 0 0
17.483115 9.200691 -2.097509 19.867349 0.484435 1.676569 -0.015381 0.011902 364405.000000 1 0 0
-7.120185 14.934791 7.311091 18.088589 -1.125920 1.154711 0.024262 -0.013888 -241916.000000 1 0 0
8.613415 15.900891 -0.156109 18.084623 1.074353 1.579429 0.003801 -0.007001 -410653.000000 1 0 0
15.632315 10.423791 2.399791 18.941586 0.588102 1.443761 0.004529 0.003732 -65265.100000 1 0 0
14.009415 7.513591 8.789491 18.165156 0.492283 1.065730 0.019808 -0.010016 -1081650.000000 1 0 0
4.182815 18.300991 -1.644409 18.844794 1.346099 1.658168 0.014569 -0.015897 -38705.200000 1 0 0
-0.300985 17.609391 -4.822409 18.260254 -1.553706 1.838060 0.010667 0.000589 358026.000000 1 0 0
1.424615 13.715891 -0.601409 13.802785 1.467301 1.614382 0.003098 -0.005285 1010360.000000 1 0 0
10.216815 14.649791 4.278191 18.365799 0.961815 1.335693 -0.006112 -0.000612 803790.000000 1 0 0
-1.685085 15.417991 -5.044109 16.309414 -1.461935 1.885228 0.002071 0.001836 393844.000000 1 0 0
15.084915 8.632391 -6.096009 18.418310 0.519768 1.908133 0.008316 0.001659 -267355.000000 1 0 0
-2.379085 18.540891 1.082091 18.724198 -1.443178 1.512973 0.003489 -0.003778 678993.000000 1 0 0
-3.773685 19.466691 3.816191 20.192970 -1.379318 1.380667 0.012434 -0.006234 -181481.000000 1 0 0
1.818315 17.584091 -2.533409 17.858462 1.467756 1.713137 0.003638 -0.006679 -413507.000000 1 0 0
3.010915 12.237791 3.311791 13.030621 1.329554 1.313823 0.001978 -0.000640 37951.500000 1 0 0
-2.534885 16.120291 2.019691 16.442888 -1.414825 1.447655 0.005589 -0.006868 -1744290.000000 1 0 0
11.803715 12.777391 -2.731609 17.608267 0.824988 1.726558 0.004972 0.004618 402757.000000 1 0 0
7.194515 11.739491 4.633691 14.527483 1.020984 1.246164 -0.007797 0.003279 -143670.000000 1 0 0
7.180215 15.770691 1.919691 17.434316 1.143553 1.460463 0.002092 -0.008921 -1064300.000000 1 0 0
5.643315 12.174191 10.213091 16.863130 1.136734 0.920219 -0.002175 0.004881 -878915.000000 1 0 0
-1.228785 14.119291 3.177291 14.524443 -1.483986 1.350258 0.003144 -0.002749 -900215.000000 1 0 0
4.662215 16.185291 1.367291 16.898798 1.290336 1.489797 0.006069 -0.013062 -2429560.000000 1 0 0
7.463815 13.291991 11.859891 19.314310 1.059146 0.909619 0.002882 -0.000904 354489.000000 1 0 0
0.892315 17.280891 -9.366209 19.676160 1.519206 2.066918 0.011261 -0.001404 -81600.500000 1 0 0
9.919315 9.671591 15.585391 20.852743 0.772754 0.726653 0.035485 -0.001013 -303603.000000 1 0 0
13.530415 7.529191 -0.090909 15.484479 0.507793 1.576667 -0.004932 0.008435 394359.000000 1 0 0
12.497815 13.484391 -0.164609 18.386170 0.823351 1.579749 0.009377 0.003991 643002.000000 1 0 0
9.388315 12.408291 3.272191 15.900106 0.923074 1.363518 -0.006634 0.005230 -508996.000000 1 0 0
-0.609585 12.907291 0.863191 12.950476 -1.523603 1.504094 0.004037 -0.002765 -610549.000000 1 0 0
15.890815 7.366891 -1.052109 17.546966 0.434101 1.630792 -0.009597 0.011364 -2094670.000000 1 0 0
-4.147185 18.694791 -2.317709 19.289015 -1.352495 1.691244 0.004572 0.002188 259049.000000 1 0 0
11.753715 9.359491 -3.225209 15.367233 0.672481 1.782244 0.010307 0.004612 603729.000000 1 0 0
14.699915 9.676991 7.844591 19.268348 0.582190 1.151494 0.015698 -0.010167 748455.000000 1 0 0
4.508515 13.819691 4.682891 15.272198 1.255445 1.259147 0.002264 0.001587 -836573.000000 1 0 0
2.284915 15.959491 5.622991 17.074665 1.428593 1.235215 0.012904 -0.002286 -274010.000000 1 0 0
6.344915 18.233091 5.572191 20.093602 1.235914 1.289801 0.014110 -0.014381 -264671.000000 1 0 0
10.837015 17.043091 -0.965709 20.219803 1.004426 1.618575 0.014747 -0.011160 -1054740.000000 1 0 0
9.975115 13.604491 -4.402009 17.434528 0.938120 1.826047 0.020415 -0.001836 380537.000000 1 0 0
16.575415 7.969091 2.617191 18.576880 0.448152 1.429442 -0.004801 0.007341 192497.000000 1 0 0
4.129515 14.037491 -0.430609 14.638629 1.284690 1.600217 0.002789 -0.006581 532381.000000 1 0 0
5.725015 13.103991 -2.333309 14.489123 1.158897 1.732539 0.001208 -0.004511 -618570.000000 1 0 0
-6.207285 17.004391 -2.879409 18.329503 -1.220786 1.728541 0.010055 -0.001990 1081480.000000 1 0 0
18.100315 9.935491 3.095991 20.878710 0.502008 1.421963 0.008532 -0.001951 482045.000000 1 0 0
7.968215 12.846091 9.374891 17.787722 1.015596 1.015679 -0.003850 0.000503 639673.000000 1 0 0
-2.371985 15.754591 6.751691 17.303721 -1.421360 1.169961 0.004025 -0.003572 -805667.000000 1 0 0
11.059415 16.168291 6.219091 20.552405 0.970877 1.263380 -0.001487 0.006401 130886.000000 1 0 0
13.693315 11.979191 1.426191 18.249436 0.718728 1.492567 0.010051 0.004429 370523.000000 1 0 0
17.430615 7.933491 -5.463509 19.915234 0.427126 1.848698 -0.009061 0.011351 -1037820.000000 1 0 0
9.492415 9.161791 8.135091 15.499163 0.767676 1.018231 -0.003219 0.003135 -758154.000000 1 0 0
-2.005785 14.289391 -1.858409 14.548661 -1.431339 1.698884 0.000979 -0.000936 338410.000000 1 0 0
11.082415 11.623891 0.837491 16.082168 0.809241 1.518697 -0.001235 0.007787 -592275.000000 1 0 0
11.784815 9.811391 -0.643009 15.347922 0.694273 1.612704 -0.001846 0.010488 -1013510.000000 1 0 0
-0.011485 16.167891 11.128291 19.627523 -1.570086 0.967969 0.008845 -0.004290 -570069.000000 1 0 0
2.190615 19.908091 -1.465009 20.081761 1.461201 1.643813 0.019995 -0.019722 -995493.000000 1 0 0
9.384015 14.368791 1.765891 17.252253 0.992257 1.468260 0.002040 -0.000650 -566946.000000 1 0 0
8.489115 11.629791 -5.215309 15.313933 0.940254 1.918308 0.015268 -0.003370 -1333890.000000 1 0 0
10.726815 9.902691 10.351291 17.896286 0.745471 0.954025 0.007278 -0.000252 441816.000000 1 0 0
-4.909785 15.722291 5.910491 17.499437 -1.268110 1.226268 0.000536 -0.007088 1663730.000000 1 0 0
14.393415 9.206691 -1.918109 17.193391 0.569062 1.682590 0.008434 0.012496 -813034.000000 1 0 0
12.172215 9.572591 6.958491 16.976981 0.666411 1.148476 0.004072 -0.004461 -1858100.000000 1 0 0
3.326615 13.010591 9.861291 16.660939 1.320474 0.937406 0.000853 0.002000 -729868.000000 1 0 0
8.500815 12.513291 -2.652209 15.358402 0.974069 1.744354 0.008643 -0.001100 -980959.000000 1 0 0
9.448515 17.061391 2.023391 19.607641 1.065044 1.467418 0.002747 -0.001315 -191452.000000 1 0 0
9.534415 14.159991 -7.585709 18.680294 0.978191 1.988958 0.035535 -0.015515 -376338.000000 1 0 0
6.453615 11.379091 7.291891 14.976799 1.054884 1.062283 -0.008513 0.004634 -828320.000000 1 0 0
5.450215 16.806591 -5.461809 18.493179 1.257206 1.870610 0.008715 -0.006161 -1792600.000000 1 0 0
-4.056385 17.299791 -4.552909 18.343009 -1.340481 1.821628 -0.001037 0.001025 343133.000000 1 0 0
-0.264385 18.884891 -0.465309 18.892472 -1.556797 1.595428 0.006083 0.007924 -679717.000000 1 0 0
6.594615 15.663191 -2.637709 17.198314 1.172296 1.724774 0.002058 0.000185 18563.500000 1 0 0
-0.917085 20.820991 1.126491 20.871600 -1.526779 1.516798 0.013513 -0.000879 -99031.000000 1 0 0
-1.271085 18.923391 4.326291 19.453204 -1.503727 1.346526 0.011498 -0.007350 1788620.000000 1 0 0
7.182315 13.703891 -4.346509 16.070918 1.088049 1.844665 0.010628 -0.001577 175124.000000 1 0 0
-0.816585 12.030291 7.693791 14.303465 -1.503023 1.002856 0.007401 0.001630 803200.000000 1 0 0
7.751015 10.835191 10.935191 17.235370 0.949839 0.883484 -0.001265 0.003007 302471.000000 1 0 0
1.535515 16.017191 -7.211309 17.632674 1.475222 1.992126 0.004974 -0.002218 -687337.000000 1 0 0
9.001915 7.244491 14.922091 18.872888 0.677644 0.658906 0.028236 0.001157 529191.000000 1 0 0
11.348915 11.456791 -4.915209 16.858683 0.790128 1.866647 0.017275 0.002070 -660274.000000 1 0 0
-3.177085 17.017591 4.607191 17.914197 -1.386227 1.310692 0.005541 -0.006435 -580137.000000 1 0 0
3.905615 15.300591 -6.754109 17.174979 1.320874 1.974963 0.001327 -0.007567 -972797.000000 1 0 0
-4.270585 14.111091 9.374791 17.471333 -1.276919 1.004416 0.020708 -0.011619 -1020890.000000 1 0 0
6.461815 17.950391 0.583891 19.086972 1.225257 1.540200 0.003112 -0.012047 -256678.000000 1 0 0
9.837115 10.622591 -2.229609 14.648529 0.823771 1.723597 0.004139 0.003111 -1253200.000000 1 0 0
7.377415 18.176291 -2.598809 19.787814 1.185230 1.702511 0.008894 -0.003464 139655.000000 1 0 0
3.671615 10.395391 10.532391 15.247169 1.231277 0.808233 -0.002377 0.004972 1150940.000000 1 0 0
0.043515 18.562691 2.095191 18.680610 1.568452 1.458401 0.014000 -0.011195 483935.000000 1 0 0
-0.825585 17.183591 -7.407609 18.730458 -1.522788 1.977392 0.010525 0.002345 -303005.000000 1 0 0
10.040515 8.829891 13.122491 18.734425 0.721331 0.794771 0.019509 0.002377 -746322.000000 1 0 0
3.870615 11.513091 5.603391 13.376506 1.246475 1.138565 -0.003314 0.001124 218704.000000 1 0 0
13.054915 13.881891 8.292191 20.782159 0.816089 1.160365 0.009023 -0.004161 70087.900000 1 0 0
-0.253685 17.330491 6.672191 18.572248 -1.556159 1.203326 0.006449 -0.008302 -887468.000000 1 0 0
12.028215 13.749291 5.940991 19.209797 0.852066 1.256372 0.000450 0.004161 6096.870000 1 0 0
4.870315 14.560891 -4.372009 15.964146 1.248015 1.848205 -0.002606 -0.000939 -341906.000000 1 0 0
3.921215 17.562891 4.750291 18.611725 1.351132 1.312710 0.014361 -0.011531 323831.000000 1 0 0
7.132115 11.618391 2.048391 13.785861 1.020245 1.421658 -0.000417 0.001519 619536.000000 1 0 0
6.567015 8.624991 11.842591 16.055002 0.920043 0.741248 0.004515 0.003303 150864.000000 1 0 0
-5.428285 14.767591 1.808991 15.837312 -1.218546 1.456323 0.007698 -0.002544 -80724.600000 1 0 0
6.831115 13.750091 6.071991 16.510548 1.109708 1.194193 -0.005008 0.001260 241208.000000 1 0 0
5.967615 15.815491 4.958691 17.616208 1.209987 1.285455 0.002322 -0.007698 693650.000000 1 0 0
1.379515 17.992091 4.288791 18.547563 1.494273 1.337452 0.020914 -0.011943 773692.000000 1 0 0
7.195015 18.174191 -6.887109 20.724423 1.193836 1.909557 0.011429 0.002487 396231.000000 1 0 0
-2.262385 18.785491 -5.924309 19.827014 -1.450941 1.874231 0.007770 0.002582 1406730.000000 1 0 0
13.564415 10.298391 -4.740109 17.678202 0.649377 1.842251 0.013271 0.009697 -365036.000000 1 0 0
-1.533985 17.884391 9.721191 20.413380 -1.485233 1.074449 0.022318 -0.010993 -28651.100000 1 0 0
3.528715 11.864191 -1.609209 12.482003 1.281703 1.700079 0.003825 -0.004801 827606.000000 1 0 0
4.314315 13.902391 -10.938209 18.208081 1.269891 2.215215 0.000862 -0.017918 -197557.000000 1 0 0
11.629215 13.513591 2.362891 17.984410 0.860205 1.439030 0.003818 0.004901 -234124.000000 1 0 0
16.009115 6.325691 -6.931609 18.556760 0.376302 1.953614 -0.000468 0.000463 491166.000000 1 0 0
2.657115 16.125091 2.959091 16.608282 1.407483 1.391670 0.006684 -0.007316 32407.500000 1 0 0
13.333815 10.668991 3.636491 17.459726 0.674830 1.360981 -0.003885 0.004742 -1367000.000000 1 0 0
-4.879885 19.485591 -5.781409 20.902780 -1.325408 1.851036 -0.001750 -0.002877 353317.000000 1 0 0
5.474715 11.832691 0.044991 13.037910 1.137450 1.567346 0.003283 -0.002254 735017.000000 1 0 0
5.017415 15.393791 9.725891 18.887461 1.255717 1.029860 0.007043 0.003308 -207554.000000 1 0 0
7.857215 9.398991 14.105691 18.682809 0.874508 0.715128 0.012491 -0.003590 -1349220.000000 1 0 0
-4.892085 13.592691 7.022991 16.062881 -1.225324 1.118293 0.009480 -0.006084 -1453780.000000 1 0 0
-4.545785 17.087391 0.732691 17.696890 -1.310787 1.529382 0.008525 -0.002761 -2325280.000000 1 0 0
-0.577685 16.530391 3.602391 16.928223 -1.535864 1.356353 0.010817 -0.007027 -1457290.000000 1 0 0
7.814715 16.944591 -4.760909 19.257600 1.138674 1.820609 0.004157 -0.000966 -132596.000000 1 0 0
3.079815 16.368991 -4.432309 17.235849 1.384821 1.830875 -0.002986 -0.002188 163436.000000 1 0 0
9.769815 14.306991 8.116891 19.131732 0.971660 1.132648 0.009556 -0.003395 98061.500000 1 0 0
12.762215 10.902791 9.060291 19.074429 0.706987 1.075836 0.010960 -0.010314 -866953.000000 1 0 0
4.042715 12.275891 12.263691 17.816822 1.252661 0.811625 0.005051 0.002093 517416.000000 1 0 0
-3.054885 19.092591 6.225791 20.313045 -1.412137 1.259291 0.008493 -0.006911 -113263.000000 1 0 0
-2.444485 15.674391 10.319091 18.924737 -1.416088 0.994085 0.017759 -0.007107 133447.000000 1 0 0
2.282115 14.260491 7.670291 16.352462 1.412111 1.082570 0.007666 -0.003982 -940489.000000 1 0 0
4.829515 17.355091 8.024991 19.721153 1.299386 1.151713 0.023540 -0.003662 18963.400000 1 0 0
-1.851885 13.392191 9.395391 16.463706 -1.433387 0.963471 0.015232 -0.005208 -415370.000000 1 0 0
6.004015 17.688191 3.157091 18.944326 1.243563 1.403364 0.007187 -0.015954 535077.000000 1 0 0
7.286115 15.403691 -6.854009 18.366780 1.128972 1.953224 0.012145 -0.003354 294048.000000 1 0 0
11.014015 7.521791 9.481991 16.364413 0.599177 0.952770 0.004919 -0.000684 621760.000000 1 0 0
9.165615 16.313391 -2.681509 18.903061 1.058904 1.713132 0.008785 -0.006817 288789.000000 1 0 0
14.953215 11.204791 -6.696509 19.849161 0.643068 1.914918 0.049892 -0.000526 712882.000000 1 0 0
11.201715 6.567391 16.105491 20.688061 0.530273 0.678537 0.057461 -0.011485 -996102.000000 1 0 0
8.600415 8.472191 10.393791 15.930349 0.777888 0.859981 -0.001799 0.007943 -1203290.000000 1 0 0
16.225815 9.400691 4.783391 19.352800 0.525109 1.321040 0.003936 -0.004563 20199.500000 1 0 0
-3.244785 14.321091 4.667791 15.408132 -1.347984 1.263017 0.003925 -0.002789 -942937.000000 1 0 0
4.724615 14.827491 12.603091 20.025343 1.262329 0.890071 0.001897 0.004410 -217908.000000 1 0 0
16.203715 10.447291 -4.521509 19.802785 0.572673 1.801155 0.013351 -0.002716 1125620.000000 1 0 0
14.713915 13.887891 6.321491 21.197501 0.756526 1.267970 0.015057 -0.002510 -401703.000000 1 0 0
6.297315 9.423791 9.320591 14.674379 0.981708 0.882580 -0.005359 0.007261 483814.000000 1 0 0
10.384415 11.872491 8.623891 17.976751 0.852158 1.070455 0.004148 -0.007565 -914031.000000 1 0 0
8.103415 11.394891 -0.330809 13.986361 0.952630 1.594451 0.000544 0.000513 -483788.000000 1 0 0
7.295415 13.587591 -8.847609 17.779929 1.078053 2.091647 0.025969 -0.008543 -235723.000000 1 0 0
2.822215 15.225091 -2.195609 15.639341 1.387511 1.711652 -0.002265 -0.001564 610559.000000 1 0 0
12.189015 13.517891 -7.816609 19.809211 0.837046 1.976423 0.034509 -0.017579 1267290.000000 1 0 0
-7.969685 14.722491 9.778791 19.387944 -1.074636 1.042139 0.027499 -0.017403 188497.000000 1 0 0
11.565415 9.475991 2.176491 15.109280 0.686422 1.426244 -0.000629 0.006230 -2144550.000000 1 0 0
12.082315 8.615191 4.533891 15.516443 0.619425 1.274271 -0.001483 0.000659 136381.000000 1 0 0
14.045615 7.944691 6.201291 17.287377 0.514768 1.203902 0.007660 -0.004736 -2900440.000000 1 0 0
16.133715 7.325291 7.286691 19.158614 0.426205 1.180638 0.016286 -0.012901 -467921.000000 1 0 0
13.643815 8.280491 2.453091 16.147379 0.545481 1.418287 -0.002465 0.005485 -2617290.000000 1 0 0
-4.183385 17.410791 -7.125309 19.271906 -1.334991 1.949510 -0.000420 -0.004743 155505.000000 1 0 0
3.189015 19.412191 -3.859409 20.047394 1.407972 1.764520 0.013977 -0.012631 352932.000000 1 0 0
0.035615 14.747191 6.339491 16.052104 1.568381 1.164802 0.011581 -0.003469 353535.000000 1 0 0
7.020115 15.951791 8.249691 19.282091 1.156220 1.128692 0.005625 -0.003609 396548.000000 1 0 0
12.829515 15.156291 -2.095509 19.967492 0.868349 1.675936 0.016515 -0.003075 311380.000000 1 0 0
12.676815 15.745291 4.266891 20.659675 0.892943 1.362767 0.003001 0.001494 943583.000000 1 0 0
3.162415 18.168691 1.344091 18.490775 1.398464 1.498042 0.020459 -0.010022 -624719.000000 1 0 0
10.365315 14.419591 -1.331609 17.808356 0.947541 1.645641 0.007148 0.002567 -291430.000000 1 0 0
-6.217385 15.810391 -0.494609 16.996146 -1.196125 1.599902 0.002820 -0.001882 -417268.000000 1 0 0
-3.774485 16.003591 -2.493209 16.630627 -1.339177 1.721280 -0.000369 -0.000290 -2221570.000000 1 0 0
-6.853285 16.992191 1.745791 18.405158 -1.187431 1.475800 0.016322 -0.005233 73023.000000 1 0 0
0.358315 19.332791 -6.466709 20.388808 1.552264 1.893540 0.018953 -0.005519 456345.000000 1 0 0
4.835815 14.937491 7.131991 17.244681 1.257707 1.144418 0.004753 0.000548 -1894250.000000 1 0 0
8.696715 12.259691 6.875191 16.528796 0.953806 1.141807 -0.003416 0.002037 -748504.000000 1 0 0
-7.453985 17.524391 -5.516909 19.826811 -1.168630 1.852773 0.010595 -0.008186 294969.000000 1 0 0
-7.972685 17.722191 -1.163909 19.467779 -1.148050 1.630618 0.030370 -0.009739 126827.000000 1 0 0
-13.896885 -9.061009 9.122091 18.932455 0.577792 1.068062 0.021345 -0.005761 -179228.000000 1 0 0
-12.700385 -12.917009 7.642491 19.661042 0.793854 1.171563 0.013542 -0.001179 368722.000000 1 0 0
-4.005685 -14.851109 12.655491 19.918896 1.307343 0.882333 0.005382 -0.006764 -136976.000000 1 0 0
-2.032685 -14.078709 15.038691 20.700340 1.427407 0.757589 0.010686 -0.002472 -978805.000000 1 0 0
-7.114185 -13.578409 13.070191 20.144844 1.088186 0.864776 0.011823 -0.009098 -101907.000000 1 0 0
-10.126285 -11.678109 8.908791 17.840584 0.856449 1.047942 0.012157 -0.000428 435550.000000 1 0 0
-10.634385 -10.552409 11.295291 18.762385 0.781529 0.924771 0.020223 -0.007394 338997.000000 1 0 0
-6.282985 -12.207709 10.915891 17.540261 1.095479 0.899076 0.009782 -0.003540 1034480.000000 1 0 0
-12.644785 -10.321309 7.229791 17.851888 0.684571 1.153831 0.012535 -0.003538 -8484.460000 1 0 0
-7.755685 -11.169009 12.720891 18.620378 0.963843 0.818701 0.013863 -0.004902 -575981.000000 1 0 0
-14.874485 -11.532109 6.974191 20.071851 0.659494 1.215934 0.024449 -0.008709 -729632.000000 1 0 0
-11.262085 -9.303809 9.116591 17.219398 0.690465 1.012859 0.009644 0.000064 -768529.000000 1 0 0
-5.233085 -11.842509 13.291591 18.555231 1.154707 0.772274 0.010871 -0.013642 -521851.000000 1 0 0
3.825715 -12.415109 14.646091 19.577513 -1.271879 0.725590 -0.010680 0.001989 -1121150.000000 1 0 0
6.326415 -12.784509 14.266691 20.174382 -1.111277 0.785311 -0.000127 0.000608 -503016.000000 1 0 0
6.543015 -8.522609 16.085191 19.343714 -0.916048 0.588911 -0.004480 -0.000379 -551760.000000 1 0 0
0.632415 -1.812509 14.353891 14.481689 -1.235087 0.132950 0.003995 -0.003838 -541331.000000 1 0 0
-0.249885 -6.376809 15.541991 16.801179 1.531630 0.389620 0.003746 -0.006182 -106322.000000 1 0 0
-1.445285 -4.581609 18.316391 18.935949 1.265223 0.256510 0.009724 -0.019058 -2741730.000000 1 0 0
-5.259085 12.698891 12.803491 18.784280 -1.178162 0.820840 0.021601 -0.009405 -845384.000000 1 0 0
-4.084085 8.907591 11.750191 15.300062 -1.140901 0.695110 0.003922 0.004155 -319741.000000 1 0 0
-0.742285 -3.942909 15.000491 15.527789 1.384716 0.261352 0.005297 -0.004489 259610.000000 1 0 0
-4.615785 9.224291 14.285591 17.620190 -1.106833 0.625362 0.014707 -0.002315 317537.000000 1 0 0
-13.487785 -2.622509 16.893591 21.775934 0.192040 0.682827 0.014473 0.004375 -907466.000000 1 0 0
-0.297585 0.948691 17.231491 17.260152 -1.266837 0.057637 0.005891 -0.005462 -1398600.000000 1 0 0
-3.295285 -7.294409 15.397391 17.353586 1.146484 0.479395 0.007380 -0.009474 257794.000000 1 0 0
-7.463985 5.612591 12.596691 15.680844 -0.644752 0.637952 -0.006947 0.004070 -3108850.000000 1 0 0
-9.834385 10.047591 13.479791 19.477525 -0.796121 0.806445 -0.002258 -0.002344 -1048110.000000 1 0 0
-5.619685 2.229291 11.142991 12.677415 -0.377652 0.497111 0.000791 0.002538 -626775.000000 1 0 0
-7.060585 -7.488209 16.831891 19.729108 0.814782 0.548802 0.014599 -0.013916 -228704.000000 1 0 0
-4.662185 2.785591 18.727791 19.499375 -0.538569 0.282253 0.009969 0.001988 -1343720.000000 1 0 0
0.898715 -8.384209 16.577391 18.598724 -1.464013 0.470551 -0.001709 -0.001968 421501.000000 1 0 0
-15.102185 -3.657209 13.861891 20.823141 0.237590 0.842370 0.025929 -0.004423 593864.000000 1 0 0
-14.278985 2.161191 13.170291 19.545248 -0.150215 0.831408 -0.007868 0.006594 -615484.000000 1 0 0
-5.450685 0.963391 16.154491 17.076465 -0.174940 0.330103 0.008899 -0.002904 61657.000000 1 0 0
4.508615 5.743291 15.190791 16.854469 0.905255 0.448055 0.010110 -0.000225 -641504.000000 1 0 0
-1.071285 -12.001709 13.793491 18.315269 1.481771 0.718013 -0.002827 -0.010019 43813.700000 1 0 0
-5.970885 -4.013309 16.783591 18.260532 0.591787 0.404959 0.015736 -0.009777 -114236.000000 1 0 0
-12.851585 -1.579409 9.807891 16.243537 0.122283 0.922533 -0.001036 0.000786 -779888.000000 1 0 0
-14.488085 10.471791 10.137391 20.550662 -0.625856 1.054931 -0.004035 0.000735 523641.000000 1 0 0
-3.606285 -3.333009 17.716691 18.384651 0.746038 0.270387 0.012245 -0.015102 -2415920.000000 1 0 0
-7.920785 9.371991 11.925291 17.110979 -0.869122 0.799678 -0.001275 -0.001419 83064.800000 1 0 0
-4.517385 10.679591 16.435491 20.114318 -1.170627 0.614427 0.027444 -0.000805 241519.000000 1 0 0
-12.579185 12.755491 8.235191 19.716917 -0.792357 1.139915 0.009790 -0.008524 273085.000000 1 0 0
-12.447585 3.197091 10.537591 16.619404 -0.251410 0.884012 -0.009267 0.003114 801016.000000 1 0 0
-10.159585 -3.467509 13.685691 17.393646 0.328907 0.665155 0.010341 0.000075 -1238350.000000 1 0 0
-4.177585 -6.524809 17.669891 19.293792 1.001298 0.413219 0.011565 -0.014524 -464930.000000 1 0 0
0.793115 -3.589809 17.805091 18.180677 -1.353354 0.203618 0.007081 -0.016522 -724641.000000 1 0 0
-5.953285 1.799591 13.731091 15.073917 -0.293552 0.425295 0.003329 0.001086 -634540.000000 1 0 0
-10.554885 8.693091 10.208491 17.064252 -0.688971 0.929495 -0.002597 -0.007000 -100860.000000 1 0 0
4.634015 2.561391 17.243191 18.037806 0.504942 0.297926 0.012718 -0.009855 -2049660.000000 1 0 0
0.573415 -5.325609 13.186091 14.232495 -1.463538 0.385853 0.005027 -0.002300 -988198.000000 1 0 0
-3.982285 5.815291 20.882791 22.040126 -0.970348 0.325504 0.026135 0.000671 -656764.000000 1 0 0
-10.770285 10.890291 8.927191 17.728288 -0.790938 1.043086 0.011335 -0.010695 227704.000000 1 0 0
0.596015 4.224291 12.960591 13.644661 1.430629 0.317991 0.009167 -0.001807 -2191230.000000 1 0 0
-3.141285 7.203491 13.290991 15.440479 -1.159580 0.533979 0.007327 0.003495 -927646.000000 1 0 0
0.850015 8.913591 14.227991 16.811018 1.475722 0.561703 0.013937 -0.000124 322557.000000 1 0 0
-4.305785 -6.516309 13.204091 15.341124 0.986887 0.534155 0.008036 -0.006171 -14195.300000 1 0 0
-5.311585 8.184091 16.479791 19.151391 -0.995115 0.534544 0.017723 0.002680 337690.000000 1 0 0
1.682715 -10.632609 15.782191 19.103964 -1.413838 0.598607 -0.008220 -0.000278 -656969.000000 1 0 0
-15.171385 -1.114109 14.310991 20.885800 0.073303 0.815915 0.012024 0.005647 1279680.000000 1 0 0
-13.689385 -5.289809 8.292691 16.856751 0.368742 1.056467 0.017032 -0.005550 -739571.000000 1 0 0
-14.065885 -1.943109 12.097091 18.653804 0.137275 0.865177 0.005757 0.000440 319560.000000 1 0 0
9.463315 1.484991 16.909091 19.433910 0.155651 0.515428 0.032919 -0.008384 -506100.000000 1 0 0
4.931415 -6.724309 16.761991 18.721632 -0.938023 0.461631 0.003115 -0.007367 138019.000000 1 0 0
-6.169485 -2.587009 11.058591 12.924689 0.397053 0.544054 0.000718 0.000383 201982.000000 1 0 0
0.445115 -6.259809 17.992191 19.055243 -1.499809 0.335602 0.006039 -0.013622 39707.600000 1 0 0
-8.514885 11.963691 12.217591 19.102426 -0.952243 0.876840 0.012243 -0.004144 -411.256000 1 0 0
-6.688885 -5.742609 14.840891 17.261830 0.709425 0.536013 0.016877 -0.008288 -1241750.000000 1 0 0
-4.310685 -8.982809 17.111291 19.800736 1.123373 0.527289 0.012990 -0.014075 -393743.000000 1 0 0
2.352115 -6.168309 16.232491 17.523534 -1.206494 0.386258 -0.000225 -0.005774 -785237.000000 1 0 0
2.216615 5.317891 16.135991 17.133696 1.175873 0.342942 0.012412 -0.003304 -2163600.000000 1 0 0
0.888315 -8.850709 14.056791 16.634829 -1.470765 0.564191 -0.004383 -0.001800 -263776.000000 1 0 0
-9.890985 -2.822309 11.197391 15.204558 0.277955 0.742989 -0.004805 0.000720 -343480.000000 1 0 0
-1.128185 10.085491 12.402391 16.025268 -1.459397 0.685777 0.009963 -0.003297 -206368.000000 1 0 0
-12.301885 -3.684509 11.347291 17.136890 0.291005 0.847104 0.007999 0.000814 -548597.000000 1 0 0
-1.884085 6.712691 19.899991 21.086005 -1.297162 0.336992 0.028169 -0.009278 -1344660.000000 1 0 0
0.442415 -13.348509 15.517191 20.473438 -1.537665 0.710680 -0.012956 -0.009867 -411482.000000 1 0 0
4.071515 -8.691209 15.368291 18.119015 -1.132695 0.558246 -0.000541 0.000082 -873314.000000 1 0 0
4.284415 -4.341109 16.204791 17.314638 -0.791971 0.359988 0.005457 -0.000756 -577519.000000 1 0 0
8.102215 1.821291 14.844291 17.009290 0.221114 0.510057 0.014131 -0.001264 157166.000000 1 0 0
-6.289685 -0.127709 11.801391 13.373454 0.020302 0.489753 0.001048 0.002028 188509.000000 1 0 0
-3.248585 -11.159109 18.299591 21.678424 1.287511 0.565840 0.016386 -0.013727 1471680.000000 1 0 0
3.284815 -1.534309 13.575491 14.051266 -0.436976 0.260970 0.003775 -0.003026 1105700.000000 1 0 0
-2.737085 8.667891 16.023791 18.422427 -1.264933 0.516004 0.023212 0.000702 -407366.000000 1 0 0
-3.315385 4.090291 14.906591 15.809134 -0.889655 0.339534 0.005384 0.000418 270510.000000 1 0 0
-4.552085 -9.328909 19.759391 22.320026 1.116831 0.483708 0.021020 -0.009920 -81093.800000 1 0 0
-5.709085 -3.020209 19.102891 20.165211 0.486592 0.326037 0.014027 -0.017142 -1148190.000000 1 0 0
-6.681885 -8.809409 10.967991 15.574020 0.921881 0.789431 0.009214 -0.006630 -965405.000000 1 0 0
-11.675885 2.258191 12.764491 17.445857 -0.191048 0.750038 -0.003487 -0.002604 -532879.000000 1 0 0
-11.690585 -7.392209 11.673791 18.099501 0.563847 0.869801 0.012527 -0.000996 -2234780.000000 1 0 0
-11.018485 -7.279209 15.639791 20.469415 0.583816 0.701219 0.030679 -0.017104 -669189.000000 1 0 0
0.108615 5.740891 17.669191 18.578749 1.551879 0.314203 0.014649 -0.006366 -45385.200000 1 0 0
-2.233185 -0.097609 13.217791 13.405470 0.043681 0.167529 0.005945 -0.001509 351290.000000 1 0 0
-5.876385 -10.825609 18.023391 21.830445 1.073480 0.599517 0.016068 -0.012558 311602.000000 1 0 0
0.355815 2.462091 19.289991 19.449736 1.427273 0.128254 0.014428 -0.009151 -719572.000000 1 0 0
-0.904785 10.727391 14.861191 18.350764 -1.486652 0.626916 0.012628 -0.008984 -572324.000000 1 0 0
-12.801985 -2.340809 14.399791 19.409384 0.180850 0.734899 0.011725 -0.000175 316488.000000 1 0 0
-13.697785 8.456591 11.797991 19.958352 -0.553093 0.938337 0.002799 -0.000015 700560.000000 1 0 0
-17.988485 -0.545409 6.855991 19.258444 0.030311 1.206813 0.025719 -0.007792 -219507.000000 1 0 0
-2.037285 -8.029309 17.610991 19.461946 1.322309 0.439667 0.006144 -0.010835 -1721020.000000 1 0 0
5.731915 2.614991 14.421291 15.737428 0.428011 0.411882 0.009437 -0.004774 -2503900.000000 1 0 0
-14.155485 -6.845909 11.002491 19.191119 0.450460 0.960254 0.024321 -0.005307 996686.000000 1 0 0
3.229215 7.764191 16.188691 18.242373 1.176649 0.479073 0.016612 -0.018468 -359536.000000 1 0 0
1.001215 2.114291 14.537391 14.724415 1.128535 0.159553 0.008202 -0.004773 -1454680.000000 1 0 0
-14.310585 0.647091 9.756991 17.332352 -0.045187 0.972863 -0.000707 0.003168 -3296240.000000 1 0 0
-9.502485 -5.119809 15.570391 18.945890 0.494193 0.606172 0.017503 -0.002274 -578473.000000 1 0 0
-2.532585 -0.054709 18.196991 18.372465 0.021599 0.138320 0.004759 -0.008250 220189.000000 1 0 0
6.832315 3.802691 17.480191 19.149362 0.507877 0.420624 0.032516 -0.011470 -260209.000000 1 0 0
-4.182785 -0.942509 14.836991 15.444103 0.221629 0.281320 0.009895 -0.001876 -1049680.000000 1 0 0
4.553915 -9.067909 17.829891 20.515119 -1.105389 0.517397 -0.002674 0.001953 -67508.300000 1 0 0
1.937515 6.840391 13.496291 15.254336 1.294780 0.484837 0.015127 0.000541 -1467100.000000 1 0 0
-3.731285 -0.786709 20.345491 20.699768 0.207798 0.185279 0.011967 -0.009796 -764551.000000 1 0 0
-10.634585 1.485791 16.434091 19.631131 -0.138815 0.578755 0.001463 0.001317 -424898.000000 1 0 0
-4.050585 7.087191 18.507691 20.227954 -1.051569 0.415397 0.026434 0.002638 -721204.000000 1 0 0
-12.685485 1.103491 14.828191 19.545190 -0.086770 0.709540 0.005451 -0.000050 -509054.000000 1 0 0
-16.071485 -4.716109 8.480291 18.773643 0.285433 1.102112 0.026677 -0.009300 -1708340.000000 1 0 0
-2.372285 0.831691 15.743991 15.943422 -0.337197 0.158334 0.008881 -0.001777 -300712.000000 1 0 0
-13.724585 -8.766709 12.683591 20.642018 0.568433 0.909101 0.015111 -0.009211 626395.000000 1 0 0
6.104615 -3.229209 14.587691 16.139852 -0.486561 0.442158 0.007609 -0.004560 926391.000000 1 0 0
-15.682585 0.487991 7.585991 17.427819 -0.031107 1.120446 0.011921 -0.002751 -49002.800000 1 0 0
-14.035485 5.925491 12.462591 19.683050 -0.399479 0.885163 0.000732 -0.005459 21342.300000 1 0 0
0.289315 9.248491 16.747591 19.133742 1.539524 0.504759 0.016826 -0.015035 -145101.000000 1 0 0
-10.308285 -5.434309 10.847891 15.920716 0.485153 0.821164 0.008298 -0.003639 11064.700000 1 0 0
-3.200885 -11.107809 15.055691 18.981647 1.290232 0.654798 0.007810 -0.010330 -1156970.000000 1 0 0
-3.577385 2.787891 12.695391 13.481208 -0.661997 0.343118 0.005229 0.001794 -1462130.000000 1 0 0
-12.462285 -7.746309 7.361291 16.416530 0.556136 1.105814 0.013315 -0.003054 363830.000000 1 0 0
-8.149185 -1.881709 13.261091 15.678220 0.226930 0.562679 0.001936 0.000722 -426534.000000 1 0 0
-9.805085 6.381791 9.566591 15.112465 -0.576983 0.885340 0.000099 0.000258 -1068610.000000 1 0 0
-17.880185 -3.562909 6.617391 19.395494 0.196690 1.222622 0.021919 -0.012217 277933.000000 1 0 0
-1.323985 -0.005609 20.485891 20.528631 0.004237 0.064540 0.010268 -0.011091 -1383630.000000 1 0 0
-2.624985 2.793291 20.280591 20.639656 -0.816451 0.186802 0.012005 -0.003446 -664336.000000 1 0 0
-3.812085 11.356191 11.086991 16.322268 -1.246932 0.824049 0.012495 -0.006278 -1016570.000000 1 0 0
-4.187185 -4.780209 15.025491 16.314052 0.851433 0.400117 0.005909 -0.006393 940279.000000 1 0 0
-0.194385 -14.331609 13.177591 19.470021 1.557234 0.827370 -0.001288 -0.005840 -582267.000000 1 0 0
-12.080985 0.441091 8.379391 14.709145 -0.036495 0.964689 -0.001862 -0.000113 -814329.000000 1 0 0
-7.810285 1.835591 15.636791 17.574959 -0.230833 0.474065 0.003102 0.005118 -703347.000000 1 0 0
3.493915 -2.084409 18.466191 18.909056 -0.537903 0.216854 0.012518 -0.006767 -328908.000000 1 0 0
-2.082585 4.922691 12.554191 13.644697 -1.170571 0.402516 0.002116 0.002819 -809008.000000 1 0 0
-10.235085 -6.156409 13.318191 17.889454 0.541522 0.731053 0.005743 -0.006442 54540.400000 1 0 0
2.377215 -3.741309 14.286691 14.958545 -1.004756 0.300848 0.002465 -0.002344 -366537.000000 1 0 0
6.809615 1.239191 17.044791 18.396503 0.180007 0.385732 0.017870 -0.005001 -989231.000000 1 0 0
-1.964985 -5.674509 13.818691 15.067098 1.237437 0.409943 0.000973 -0.003114 -1285590.000000 1 0 0
-12.830285 3.683191 14.619991 19.797127 -0.279553 0.739967 -0.014492 0.002641 -25711.100000 1 0 0
-13.330185 -6.360609 13.447991 19.974975 0.445208 0.832212 0.014065 -0.007800 -14247.400000 1 0 0
-9.573285 6.883391 11.966991 16.799932 -0.623378 0.777993 -0.005636 0.003613 -1069730.000000 1 0 0
-1.278785 -2.509609 12.855491 13.160436 1.099534 0.215691 0.003914 -0.000763 309206.000000 1 0 0
0.123715 6.656291 15.282291 16.669431 1.552212 0.410841 0.014434 -0.002782 364042.000000 1 0 0
-16.516285 -0.798609 9.756391 19.199287 0.048315 1.037744 0.023252 -0.000023 455759.000000 1 0 0
-1.358985 2.826791 13.784991 14.137311 -1.122665 0.223721 0.006706 -0.001153 -962931.000000 1 0 0
-11.130185 -3.293409 16.234791 19.957354 0.287690 0.620696 0.010845 -0.007538 -476112.000000 1 0 0
-5.196185 -1.437809 17.145291 17.972997 0.269950 0.304666 0.018224 -0.005833 217119.000000 1 0 0
-11.881485 6.631791 11.094591 17.556773 -0.509088 0.886760 -0.000846 0.002289 -2306380.000000 1 0 0
-2.957285 4.770191 18.683791 19.508570 -1.015836 0.291819 0.023901 -0.003784 43193.800000 1 0 0
5.050415 -1.867709 16.391391 17.253194 -0.354215 0.317401 0.005733 -0.005427 -703617.000000 1 0 0
-8.035385 -4.160609 12.177891 15.171655 0.477775 0.639031 0.008679 -0.002360 -1792510.000000 1 0 0
-11.752685 -0.777609 16.383091 20.177610 0.066068 0.623321 0.024905 0.005848 483113.000000 1 0 0
2.083815 2.068491 17.388391 17.634542 0.781708 0.167279 0.007656 -0.009216 -1007790.000000 1 0 0
-8.985985 -7.616409 11.584491 16.521442 0.703092 0.793746 0.009247 -0.004681 1428890.000000 1 0 0
-7.334985 6.939891 14.801591 17.917901 -0.757728 0.598683 -0.009823 0.002255 -539663.000000 1 0 0
-5.670985 3.403691 15.907291 17.227509 -0.540562 0.394040 0.006249 0.001490 397090.000000 1 0 0
-9.384385 4.227891 11.682591 15.569993 -0.423290 0.722239 -0.005504 0.000110 -37361.200000 1 0 0
-10.360885 -0.036809 14.288391 17.649572 0.003553 0.627394 0.006766 0.002421 57947.000000 1 0 0
8.239215 -0.576109 16.014991 18.019337 -0.069809 0.476148 0.012304 -0.001722 115381.000000 1 0 0
-8.652885 -7.526209 14.871991 18.780105 0.715873 0.656880 0.027930 -0.005622 -3267220.000000 1 0 0
0.009415 4.146991 15.603391 16.145074 1.568526 0.259770 0.011958 -0.006339 90798.200000 1 0 0
-8.049585 3.144791 9.701391 12.992402 -0.372444 0.727714 -0.006463 0.002549 -776433.000000 1 0 0
-2.165485 -9.691809 13.214591 16.530151 1.350972 0.644461 0.001140 -0.007267 536427.000000 1 0 0
-6.001385 10.331791 10.579091 15.958687 -1.044565 0.846104 0.011326 -0.005856 -1844520.000000 1 0 0
-8.648585 -2.764009 15.692791 18.130126 0.309332 0.524520 0.010721 -0.006929 -338319.000000 1 0 0
4.222315 5.951191 17.773291 19.212873 0.953729 0.389571 0.020749 -0.008161 -424972.000000 1 0 0
-6.787685 -0.928109 15.166491 16.642010 0.135892 0.424274 0.006161 -0.001482 -489771.000000 1 0 0
-0.884485 -10.031909 15.498691 18.483261 1.482857 0.576224 -0.010364 -0.004681 -267869.000000 1 0 0
-4.428085 5.759391 16.303191 17.848601 -0.915342 0.419198 0.012261 0.002341 -65982.000000 1 0 0
3.850615 0.171291 17.302291 17.726416 0.044455 0.219190 0.012665 -0.008972 -381348.000000 1 0 0
1.256115 0.134091 19.091691 19.133438 0.106347 0.066071 0.009167 -0.012905 -539736.000000 1 0 0
-6.369585 6.206791 17.825191 19.920675 -0.772454 0.462794 0.001654 0.002859 -2152620.000000 1 0 0
-12.178185 0.532191 10.963291 16.394669 -0.043673 0.838323 -0.000325 0.000546 -693817.000000 1 0 0
-5.477985 5.202991 14.014291 15.921048 -0.759658 0.494436 0.001231 0.001900 -1012060.000000 1 0 0
-8.817085 -9.464809 9.757191 16.202666 0.820813 0.924547 0.011650 -0.005392 64939.400000 1 0 0
6.785315 -3.623609 17.055491 18.709912 -0.490505 0.423697 0.006040 -0.001477 -4054.880000 1 0 0
-16.548585 1.835391 9.766491 19.303074 -0.110458 1.040307 0.015549 0.003852 65743.700000 1 0 0
-4.200085 -9.437009 11.602091 15.534039 1.152054 0.727436 0.008483 -0.012361 -65904.300000 1 0 0
-11.149685 -3.924309 9.103391 14.919363 0.338425 0.914518 0.003109 0.002509 -439669.000000 1 0 0
3.599215 -5.255209 18.399491 19.470820 -0.970287 0.333270 0.003473 -0.011388 -127626.000000 1 0 0
2.453515 -1.724209 16.065091 16.342575 -0.612570 0.184540 0.003967 -0.005441 -284091.000000 1 0 0
-3.139285 -4.268009 20.218891 20.901544 0.936615 0.256280 0.013290 -0.016782 -520414.000000 1 0 0
-6.378785 -3.350209 14.462791 16.158129 0.483613 0.462189 0.012899 -0.002444 -88062.800000 1 0 0
-9.667585 5.199791 13.980291 17.774942 -0.493474 0.665648 -0.010897 0.001675 -147843.000000 1 0 0
-5.871385 -5.061809 11.826291 14.140588 0.711486 0.580230 0.005575 -0.000381 331607.000000 1 0 0
6.038615 2.209291 19.359091 20.399025 0.350734 0.320683 0.032552 -0.013426 75017.200000 1 0 0
-2.901585 11.740991 13.474891 18.106428 -1.328518 0.731453 0.024831 -0.015511 381724.000000 1 0 0
3.344515 1.455991 15.129891 15.563396 0.410593 0.236577 0.004931 -0.005107 -943251.000000 1 0 0
-5.665085 7.381291 12.796291 15.821558 -0.916194 0.628708 -0.009693 -0.001457 -2073690.000000 1 0 0
-1.790985 -1.633409 15.282391 15.473433 0.739415 0.157302 0.008554 -0.003592 -221008.000000 1 0 0
-7.435985 10.548691 14.147491 19.149941 -0.956776 0.739546 0.017549 -0.006274 -207422.000000 1 0 0
-10.097585 1.995791 10.571091 14.754402 -0.195135 0.772067 -0.005624 0.001592 -1371330.000000 1 0 0
-13.492085 5.279591 9.196791 17.160752 -0.372993 1.005199 -0.010194 0.002697 -325932.000000 1 0 0
0.501515 -4.724509 20.085291 20.639559 -1.465041 0.232275 0.010529 -0.020804 -105436.000000 1 0 0
-14.409085 -2.980509 7.482391 16.507312 0.203973 1.100358 0.012258 -0.008807 365824.000000 1 0 0
-2.254485 2.538091 17.725891 18.048042 -0.844505 0.189225 0.003229 -0.003725 -601699.000000 1 0 0
-6.296485 -8.337709 14.525591 17.892901 0.923987 0.623555 0.011866 -0.012102 -258097.000000 1 0 0
-7.987385 1.974591 12.115791 14.645467 -0.242354 0.596561 -0.004779 0.001330 -433159.000000 1 0 0
-14.564285 -3.472009 10.107691 18.064846 0.234024 0.976987 0.011830 -0.005438 -125263.000000 1 0 0
-0.568985 7.063591 12.781191 14.614270 -1.490418 0.506250 0.013343 -0.001667 -782570.000000 1 0 0
-1.801285 -2.253109 19.269291 19.484011 0.896381 0.148598 0.010810 -0.015710 -160667.000000 1 0 0
-12.770885 10.268791 7.282591 17.932643 -0.677223 1.152605 0.006986 -0.012244 917626.000000 1 0 0
-19.502585 2.178191 6.663691 20.724385 -0.111226 1.243442 0.031265 -0.010009 1139370.000000 1 0 0
-16.184885 8.473291 6.542191 19.404830 -0.482295 1.226916 0.011559 0.001040 249393.000000 1 0 0
-12.122985 7.326491 13.527091 19.586383 -0.543610 0.808426 -0.011526 0.000852 -109676.000000 1 0 0
-15.983285 8.354591 10.459391 20.848584 -0.481649 1.045253 0.003385 0.006660 -82154.500000 1 0 0
1.698115 10.944991 15.397791 18.967561 1.416874 0.623575 0.010885 -0.002416 201400.000000 1 0 0
2.224815 14.018191 12.700291 19.046177 1.413400 0.840869 -0.001821 -0.009308 -532271.000000 1 0 0
-3.142185 13.706591 11.765191 18.334767 -1.345444 0.874100 0.012922 -0.006004 -65462.500000 1 0 0
9.177915 4.892191 15.904491 19.003170 0.489728 0.579131 0.036060 -0.000018 137530.000000 1 0 0
-0.537685 12.642191 13.021791 18.157123 -1.528291 0.771060 0.006498 -0.000410 -899726.000000 1 0 0
3.932115 13.318091 14.630191 20.171156 1.283707 0.759323 0.006708 -0.002791 34635.500000 1 0 0
-2.898485 -4.070709 -13.735109 14.615920 0.952039 2.792654 -0.005552 -0.005994 -40736.700000 1 0 0
5.534415 -11.533609 16.346491 20.757207 -1.123397 0.664039 -0.015662 0.004111 52473.800000 1 0 0
7.818715 -13.574509 7.314891 17.288934 -1.048222 1.133936 -0.004709 -0.002968 -446002.000000 1 0 0
-0.058585 15.603791 1.330491 15.660521 -1.567042 1.485736 0.003171 -0.005268 -1713550.000000 1 0 0
-13.721185 8.264991 9.159091 18.451827 -0.542148 1.051374 0.003149 0.002121 383678.000000 1 0 0
-15.450685 -9.749809 4.749391 18.876948 0.562922 1.316466 0.015817 -0.005366 -1190840.000000 1 0 0
9.600515 -11.130609 11.254591 18.512865 -0.859071 0.917341 0.019174 -0.001505 -166394.000000 1 0 0
-5.594785 -10.247109 -16.928909 20.564359 1.071040 2.537849 0.005226 -0.001934 -10671.800000 1 0 0
-1.857685 -12.610209 -14.752009 19.495901 1.424532 2.429005 0.014683 0.004843 -83700.100000 1 0 0
5.758415 -15.535109 -12.826009 20.952458 -1.215826 2.229571 0.028003 0.004903 290404.000000 1 0 0
2.512615 -11.880209 -16.774909 20.708698 -1.362372 2.515020 0.029018 0.006787 208624.000000 1 0 0
0.474115 -13.888609 -14.435209 20.037303 -1.536673 2.375199 0.032949 0.009117 366983.000000 1 0 0
-6.548085 -5.826109 -14.633909 17.057909 0.727119 2.601957 0.009901 -0.003326 -81058.400000 1 0 0
-6.128885 -8.185809 -17.140909 19.959496 0.928114 2.603689 0.003420 -0.011745 143786.000000 1 0 0
-2.770785 -16.211409 -13.305209 21.154565 1.401516 2.251001 0.030659 0.005356 368916.000000 1 0 0
16.337615 -8.192009 -9.130809 20.430329 -0.464783 2.034120 0.019760 0.003426 84515.900000 1 0 0
18.941215 -2.805009 -4.061509 19.573798 -0.147022 1.779812 0.010162 -0.009173 -40167.500000 1 0 0
15.758315 -11.506609 -8.834909 21.419201 -0.630704 1.995967 0.027844 -0.009878 151019.000000 1 0 0
18.161315 -2.815309 -6.747509 19.577748 -0.153793 1.922664 0.098528 -0.004261 -335414.000000 1 0 0
9.158315 -9.834109 -15.897309 20.816073 -0.820965 2.439827 0.039487 0.008877 109434.000000 1 0 0
-4.731485 9.770791 -15.964509 19.305980 -1.119830 2.544405 -0.004886 -0.000401 367183.000000 1 0 0
2.439615 -9.532609 -18.753709 21.178385 -1.320251 2.658391 0.021076 0.011573 284751.000000 1 0 0
10.953515 7.849691 -14.912009 20.098884 0.621804 2.406744 0.049375 -0.044166 313797.000000 1 0 0
18.590115 -5.777809 -8.504709 21.243953 -0.301335 1.982679 0.024094 -0.007283 258579.000000 1 0 0
12.622115 5.410091 -13.636409 19.352998 0.404933 2.352677 0.032294 -0.017682 -46836.500000 1 0 0
15.867715 5.895591 -11.011609 20.194007 0.355739 2.147533 0.003886 -0.010557 278887.000000 1 0 0
3.192815 -0.356409 -19.335509 19.600587 -0.111168 2.976944 0.023766 -0.003626 238660.000000 1 0 0
10.218915 -1.560409 -15.038209 18.248530 -0.151528 2.539369 0.017101 0.006029 139945.000000 1 0 0
12.312015 -5.820809 -14.197209 19.673034 -0.441631 2.376991 0.032024 0.005656 -77201.600000 1 0 0
10.126915 6.585291 -12.814409 17.610495 0.576569 2.385697 0.021891 -0.011991 431514.000000 1 0 0
10.176815 5.562491 -16.043709 19.796703 0.500217 2.515671 0.017508 -0.020041 295049.000000 1 0 0
12.191215 -9.895809 -14.480909 21.359998 -0.681844 2.315760 0.054405 -0.012501 313869.000000 1 0 0
-1.689485 2.083191 -17.353309 17.559367 -0.889379 2.988244 -0.002296 -0.008839 306447.000000 1 0 0
5.854015 -1.222809 -17.126409 18.140525 -0.205923 2.805640 0.002291 0.007327 74484.300000 1 0 0
6.640915 -5.864109 -15.623109 17.960264 -0.723358 2.625737 -0.006156 -0.000206 335465.000000 1 0 0
-1.866585 -4.831809 -20.601709 21.242903 1.202145 2.895272 0.015676 -0.014652 274813.000000 1 0 0
16.043515 -0.211109 -13.543109 20.996541 -0.013158 2.271841 0.029139 0.002947 79578.900000 1 0 0
-4.135985 -0.238009 -18.454009 18.913315 0.057483 2.920759 0.000546 -0.009186 197949.000000 1 0 0
4.212415 8.788491 -18.082709 20.541820 1.123837 2.647264 0.016771 -0.011192 254557.000000 1 0 0
9.067815 0.997991 -16.159909 18.557045 0.109617 2.627671 0.017665 -0.037974 19576.500000 1 0 0
4.227115 4.921291 -18.380609 19.491906 0.861132 2.802289 0.018452 -0.006073 320843.000000 1 0 0
-2.346785 -11.200109 -18.216109 21.512240 1.364252 2.580697 0.014117 -0.001178 201429.000000 1 0 0
6.667915 -9.182009 -16.373709 19.921565 -0.942706 2.535550 0.033147 0.003861 267091.000000 1 0 0
10.304915 -12.273009 -10.819709 19.336084 -0.872347 2.164652 0.003906 0.004041 319001.000000 1 0 0
6.145415 7.114291 -17.116409 19.528203 0.858338 2.639333 0.025715 -0.009909 442679.000000 1 0 0
8.375615 1.351991 -20.279909 21.983028 0.160039 2.745371 0.027895 -0.003247 174275.000000 1 0 0
-1.470185 -0.846609 -20.142009 20.213330 0.522475 3.057563 0.022593 -0.017652 256948.000000 1 0 0
-0.912185 6.967291 -19.553909 20.778128 -1.440613 2.796610 0.008747 -0.006881 -18916.400000 1 0 0
8.428215 5.972991 -18.080109 20.823107 0.616534 2.622504 0.034211 -0.018781 92379.600000 1 0 0
11.536815 -0.230309 -12.694709 17.155372 -0.019960 2.403844 -0.023252 -0.005126 -238789.000000 1 0 0
-4.466185 -2.627309 -19.899009 20.562591 0.531748 2.886852 -0.000222 -0.008808 372680.000000 1 0 0
5.647015 -11.283209 -14.490009 19.213536 -1.106765 2.425165 -0.000461 0.002839 122353.000000 1 0 0
11.339715 2.437391 -15.890209 19.673046 0.211722 2.511062 0.027460 -0.001169 -157592.000000 1 0 0
-2.905185 -4.415509 -17.120709 17.918022 0.988853 2.842154 -0.000873 -0.010146 296595.000000 1 0 0
-6.865585 -4.912409 -17.421309 19.358978 0.621061 2.690356 0.016790 -0.012828 90743.200000 1 0 0
2.848715 10.603191 -15.600009 19.076245 1.308328 2.528325 -0.006237 -0.003699 9305.090000 1 0 0
16.776415 -6.111209 -10.986109 20.964007 -0.349334 2.122391 0.026320 -0.002264 -81992.900000 1 0 0
9.399515 -3.513009 -17.702009 20.348298 -0.357669 2.625898 0.003597 -0.003238 133499.000000 1 0 0
-7.425285 -1.724009 -18.728209 20.220111 0.228139 2.755047 0.004466 0.001123 666815.000000 1 0 0
1.209115 -7.402609 -19.385909 20.786391 -1.408890 2.772417 0.012761 -0.006711 303245.000000 1 0 0
5.618915 10.171491 -14.115309 18.283145 1.066099 2.452840 0.011037 -0.017412 413036.000000 1 0 0
6.113315 -4.150209 -17.670609 19.153258 -0.596411 2.745538 0.020849 -0.014472 618175.000000 1 0 0
4.767815 13.454491 -14.438409 20.303276 1.230237 2.361910 0.010985 -0.018741 -98811.800000 1 0 0
9.199915 11.271891 -15.337709 21.140938 0.886266 2.382554 0.053320 -0.031936 178117.000000 1 0 0
17.190715 0.802191 -11.535809 20.718086 0.046630 2.161323 0.038965 -0.001700 221331.000000 1 0 0
14.874415 -3.118809 -12.255309 19.523519 -0.206682 2.249418 0.027382 -0.003969 56463.500000 1 0 0
-8.687685 0.332691 -17.422609 19.471360 -0.038276 2.678738 0.003757 -0.004178 428886.000000 1 0 0
-3.380685 4.332591 -19.164309 19.936678 -0.908189 2.862330 0.007312 0.001589 112603.000000 1 0 0
4.336915 2.422191 -17.654309 18.339860 0.509350 2.867310 0.015081 0.010311 560891.000000 1 0 0
-5.093985 14.700291 -12.975109 20.258349 -1.237223 2.265922 0.006639 -0.015387 382784.000000 1 0 0
0.926315 9.703591 -17.592409 20.112449 1.475624 2.635618 0.010342 -0.001350 422079.000000 1 0 0
1.212915 -5.065509 -20.052509 20.717955 -1.335775 2.887456 0.017578 0.004203 568380.000000 1 0 0
3.931315 -6.417409 -18.093209 19.595984 -1.021162 2.747413 0.016164 -0.010001 138508.000000 1 0 0
-7.337585 7.220191 -15.959209 18.991252 -0.777334 2.568716 -0.006106 0.005250 171038.000000 1 0 0
-11.619785 3.075191 -17.133409 20.929164 -0.258720 2.529832 0.015572 -0.002093 325035.000000 1 0 0
-4.851385 7.333791 -17.840709 19.889981 -0.986371 2.683663 -0.011577 0.038337 325376.000000 1 0 0
-8.122985 5.041291 -17.911109 20.302841 -0.555444 2.651305 -0.001966 0.006759 390990.000000 1 0 0
-8.113885 3.902791 -15.106109 17.585831 -0.448334 2.604096 -0.023290 -0.006050 467780.000000 1 0 0
9.398715 13.342791 -12.774909 20.725931 0.957121 2.234925 0.044164 -0.037204 240810.000000 1 0 0
14.406215 9.182491 -12.037009 20.898487 0.567465 2.184593 0.052112 -0.022392 68509.400000 1 0 0
8.721015 15.521791 -9.919609 20.380891 1.058896 2.079117 0.030779 -0.017209 -45289.400000 1 0 0
7.551115 14.352291 -14.258909 21.594538 1.086467 2.292017 0.051999 -0.025946 130966.000000 1 0 0
3.954915 15.591791 -12.772809 20.539960 1.322382 2.241901 0.021035 -0.024637 112769.000000 1 0 0
10.670115 11.903091 -11.247109 19.545649 0.839965 2.183923 0.031976 -0.021020 105890.000000 1 0 0
16.109515 10.084191 -10.732509 21.826455 0.559302 2.084861 0.037764 -0.003340 206531.000000 1 0 0
13.532115 11.294091 -10.076409 20.302922 0.695494 2.090132 0.056582 -0.017394 191876.000000 1 0 0
10.913615 11.341491 -8.167909 17.732770 0.804622 2.049480 0.027217 -0.002414 148082.000000 1 0 0
6.036515 16.776591 -9.973409 20.429449 1.225402 2.080808 0.047546 -0.014939 274493.000000 1 0 0
11.719615 14.029491 -10.329909 20.997214 0.874866 2.085142 0.059273 -0.022055 250536.000000 1 0 0
7.990815 -19.451309 -1.756609 21.101949 -1.181005 1.654137 0.030460 0.001473 148667.000000 1 0 0
7.646615 -17.367909 -4.210909 19.438281 -1.156061 1.789157 0.020312 0.011831 166094.000000 1 0 0
4.111015 -18.453309 4.611191 19.459911 -1.351597 1.331562 0.021909 -0.029526 68754.600000 1 0 0
10.314715 -17.659009 -2.230909 20.572091 -1.042146 1.679453 0.027603 -0.005465 451094.000000 1 0 0
-3.078385 -14.913809 7.950991 17.178953 1.367243 1.089608 0.012201 -0.023691 152712.000000 1 0 0
-15.156885 -12.731709 -4.046109 20.203925 0.698657 1.772423 0.006297 0.000346 148576.000000 1 0 0
-10.003385 -12.593009 -6.926009 17.510603 0.899504 1.977444 0.025679 -0.006101 273708.000000 1 0 0
-11.469685 -15.625409 6.800091 20.541381 0.937588 1.233387 0.002009 -0.000754 251451.000000 1 0 0
-14.381985 -8.435909 -8.281309 18.616824 0.530479 2.031780 0.013128 -0.004924 -21478.900000 1 0 0
4.703215 -15.238709 6.640991 17.275452 -1.271436 1.176219 0.011263 -0.011385 295428.000000 1 0 0
2.904515 -14.227109 8.978891 17.072414 -1.369410 1.016988 0.006220 -0.003206 285520.000000 1 0 0
2.843115 -17.843109 10.001791 20.651772 -1.412785 1.065226 0.004481 0.010973 242879.000000 1 0 0
-7.454385 -17.246309 -5.418109 19.554001 1.162817 1.851555 -0.035715 -0.005563 40164.800000 1 0 0
1.961415 -19.659509 -4.050809 20.168106 -1.471356 1.773024 0.017557 -0.010144 66966.800000 1 0 0
-17.620485 -10.734109 -2.031609 20.732343 0.547145 1.668946 -0.025810 0.001989 113886.000000 1 0 0
-4.174585 -14.916709 2.937791 15.765976 1.297918 1.383363 -0.001278 0.006900 89760.600000 1 0 0
-10.535485 -9.642009 -14.817909 20.579972 0.741146 2.374622 0.015137 -0.004502 209133.000000 1 0 0
0.537815 -20.323809 2.478691 20.481464 -1.544340 1.449478 0.006030 -0.012154 215198.000000 1 0 0
5.271115 -18.753509 0.711191 19.493193 -1.296792 1.534304 0.006801 0.010532 141602.000000 1 0 0
-8.011885 -18.955009 -3.633809 20.897063 1.170893 1.745576 0.012612 -0.007768 9822.510000 1 0 0
-9.290085 -15.594609 -7.722509 19.726497 1.033527 1.973035 0.022241 -0.004750 31272.600000 1 0 0
-11.705685 -11.278509 -12.795109 20.686775 0.766815 2.237650 0.012073 0.015066 374089.000000 1 0 0
-13.252785 -15.143309 -3.368909 20.403570 0.851877 1.736670 0.011721 0.002660 165137.000000 1 0 0
-0.372285 -20.852509 -2.867309 21.052012 1.552945 1.707422 0.002816 0.005619 465858.000000 1 0 0
-11.902985 -16.783409 -0.534409 20.582747 0.953915 1.596763 0.012278 -0.001815 84638.500000 1 0 0
0.639215 -19.865709 5.390891 20.594094 -1.538631 1.305942 0.011596 -0.022945 95548.700000 1 0 0
-18.340785 -9.132909 2.442991 20.634017 0.462011 1.452122 0.031873 -0.003406 -141531.000000 1 0 0
-15.071285 -14.702209 -0.750309 21.068022 0.773003 1.606418 0.028158 -0.006169 -34979.400000 1 0 0
10.115715 -15.548109 -5.385409 19.315124 -0.993994 1.853360 0.014764 0.006646 -36718.000000 1 0 0
-0.089385 -19.048009 -7.100309 20.328528 1.566104 1.927597 0.004824 0.002604 246949.000000 1 0 0
-10.006885 -16.471009 -2.263309 19.405012 1.024847 1.687698 0.009929 -0.010927 491323.000000 1 0 0
-14.489385 -6.625909 -11.439609 19.614016 0.428903 2.193504 0.021314 -0.010090 -2704.890000 1 0 0
-12.062185 -14.766209 2.454491 19.223990 0.885849 1.442768 0.006270 -0.015419 206729.000000 1 0 0
-2.929485 -16.522109 10.667891 19.883809 1.395313 1.004499 0.006991 0.005127 207106.000000 1 0 0
-12.542285 -14.419309 -6.519809 20.192407 0.854904 1.899572 0.013075 0.000691 350309.000000 1 0 0
5.206615 -16.904509 -7.686709 19.286181 -1.272015 1.980743 0.011604 0.005942 87853.300000 1 0 0
-17.520785 -7.267109 -3.002909 19.204329 0.393175 1.727807 -0.002046 -0.000767 -46437.600000 1 0 0
-12.062485 -13.881109 -9.682609 20.783206 0.855383 2.055432 0.022160 -0.004038 152987.000000 1 0 0
-8.065985 -13.648009 9.700691 18.585792 1.037020 1.021671 0.015074 -0.006829 513660.000000 1 0 0
-15.747085 -7.874109 -5.715009 18.510365 0.463676 1.884671 0.027926 -0.003123 114230.000000 1 0 0
-0.953685 -19.780409 -0.501909 19.809746 1.522620 1.596136 0.003924 -0.003079 209871.000000 1 0 0
-14.709985 -10.875709 -1.369209 18.345012 0.636645 1.645502 -0.000373 -0.013444 -18721.900000 1 0 0
-7.044585 -18.853209 1.135391 20.158343 1.213206 1.514443 -0.003546 -0.006345 202040.000000 1 0 0
-2.668985 -20.663609 -5.494909 21.547674 1.442344 1.828656 0.001934 0.005545 53301.600000 1 0 0
-8.991685 -19.862809 -1.199709 21.836229 1.145708 1.625765 0.004308 0.013756 72907.700000 1 0 0
-17.829085 -7.479009 4.745291 19.908030 0.397189 1.330119 0.027443 -0.011190 83065.500000 1 0 0
-2.695885 -15.671809 -10.807209 19.226783 1.400442 2.167709 0.010445 0.003640 291639.000000 1 0 0
-2.912685 -18.254409 -8.269709 20.250810 1.412569 1.991458 0.003575 0.001890 131743.000000 1 0 0
4.112815 -18.126709 -5.938109 19.512918 -1.347681 1.880017 0.008194 0.037737 509146.000000 1 0 0
0.928415 -17.361409 -9.077709 19.613396 -1.517371 2.051984 0.023292 0.002351 83674.700000 1 0 0
-7.532585 -10.415409 -15.491509 20.129765 0.944659 2.448983 0.008285 0.011553 457263.000000 1 0 0
-5.337085 -19.120609 -1.764009 19.929724 1.298597 1.659424 -0.000087 -0.007866 435007.000000 1 0 0
-9.670985 -16.270109 8.407991 20.710836 1.034503 1.152756 -0.004452 0.004235 312859.000000 1 0 0
-7.459385 -14.960209 -10.255809 19.612035 1.108257 2.121086 0.020427 -0.004597 478680.000000 1 0 0
-12.809285 -7.878309 -12.441909 19.517855 0.551410 2.261997 0.024252 -0.009265 442209.000000 1 0 0
-15.247785 -13.057009 3.360791 20.353756 0.708153 1.404918 0.012144 -0.005443 22367.400000 1 0 0
-6.085585 -14.331109 -13.365809 20.519744 1.169229 2.280176 -0.012638 0.013829 540591.000000 1 0 0
-13.872285 -11.372109 -6.822909 19.191593 0.686681 1.934262 0.013542 -0.009327 246524.000000 1 0 0
-11.710885 -10.198709 -8.973609 17.935556 0.716489 2.094771 0.013331 0.001356 230120.000000 1 0 0
-9.753085 -14.784209 3.744991 18.103052 0.987635 1.362421 -0.002726 0.001540 446192.000000 1 0 0
4.525315 -18.497209 8.187591 20.728287 -1.330861 1.164733 0.020488 -0.008707 64303.900000 1 0 0
-4.888585 -16.751109 5.180691 18.202678 1.286846 1.282195 -0.003120 0.010421 283577.000000 1 0 0
-17.587585 -7.577309 -6.781209 20.315599 0.406801 1.911121 -0.008362 -0.007895 76639.200000 1 0 0
-16.733785 -3.489409 -11.023309 20.339835 0.205579 2.143560 0.015032 -0.009591 -421753.000000 1 0 0
-15.573185 -4.508209 -13.226709 20.923525 0.281783 2.255115 0.010183 -0.006248 279118.000000 1 0 0
-19.562985 -5.252209 -6.165809 21.173410 0.262292 1.866283 0.044508 -0.003528 -295360.000000 1 0 0
5.563315 -13.633409 8.763091 17.135113 -1.183357 1.033970 0.016800 -0.000429 219731.000000 1 0 0
19.704115 -3.749409 3.130191 20.300451 -0.188038 1.415986 0.023197 -0.004368 86751.000000 1 0 0
17.776715 -2.357609 0.247491 17.934078 -0.131854 1.556996 0.003833 -0.012280 301995.000000 1 0 0
14.300215 -11.479709 0.450891 18.343478 -0.676425 1.546213 0.013194 0.004851 75596.700000 1 0 0
10.842115 -13.655009 5.561291 18.301330 -0.899723 1.262040 0.005562 0.003506 460888.000000 1 0 0
9.750515 -13.144109 9.325791 18.836415 -0.932553 1.052854 0.011947 0.000832 341220.000000 1 0 0
18.536815 5.346691 -4.956809 19.919100 0.280814 1.822286 0.027069 0.015077 -68144.900000 1 0 0
18.560015 -6.232209 -4.472309 20.082732 -0.323957 1.795374 0.005135 -0.014072 23146.000000 1 0 0
17.717315 -10.163309 -0.384909 20.429005 -0.520809 1.589639 0.027107 -0.001109 80823.000000 1 0 0
17.453615 -8.977009 8.361191 21.333656 -0.475050 1.168073 0.051885 -0.008590 4877.970000 1 0 0
19.877815 -0.037509 -2.030009 19.981238 -0.001887 1.672568 0.042432 0.000592 207639.000000 1 0 0
7.452215 -13.777609 11.566391 19.471503 -1.074972 0.934754 0.012052 0.007608 325150.000000 1 0 0
16.297115 -6.806109 -3.338909 17.974076 -0.395609 1.757644 0.023378 -0.005370 333266.000000 1 0 0
14.264715 -7.224009 11.096191 19.462627 -0.468774 0.964135 0.030520 -0.038698 350855.000000 1 0 0
16.739315 1.051291 10.382991 19.726033 0.062721 1.016483 0.076296 -0.022786 431049.000000 1 0 0
16.426215 -10.161909 2.544391 19.482270 -0.554013 1.439822 -0.005058 -0.008703 152377.000000 1 0 0
16.474515 -7.750509 -6.216009 19.238472 -0.439733 1.899803 0.025836 0.006272 307952.000000 1 0 0
18.798615 -4.913609 5.554191 20.208427 -0.255662 1.292368 0.142209 -0.016240 -56671.200000 1 0 0
13.186415 -13.696609 8.086591 20.660871 -0.804374 1.168648 0.019560 0.001752 193570.000000 1 0 0
15.280515 -14.077309 -1.477109 20.828985 -0.744437 1.641772 0.016104 -0.001660 196408.000000 1 0 0
18.622915 -6.636009 8.105091 21.366845 -0.342308 1.181724 0.055151 -0.014926 315241.000000 1 0 0
19.401915 3.170091 2.673591 19.840158 0.161959 1.435629 0.025090 0.003995 152776.000000 1 0 0
15.590115 -11.094009 7.989791 20.735609 -0.618472 1.175245 0.034107 -0.015916 329939.000000 1 0 0
14.653615 -4.016709 10.851391 18.671236 -0.267539 0.950616 0.044841 -0.002300 -2682.990000 1 0 0
18.568415 -7.867509 2.076791 20.273056 -0.400772 1.468175 0.027449 -0.013121 -105184.000000 1 0 0
18.678815 -4.924609 -1.698809 19.391644 -0.257781 1.658514 0.003753 -0.004789 320008.000000 1 0 0
14.547215 -13.711309 -6.093209 20.898533 -0.755826 1.866655 0.032008 -0.006135 382220.000000 1 0 0
13.890215 -9.715709 10.281591 19.825342 -0.610366 1.025574 0.020363 -0.003593 625059.000000 1 0 0
14.194715 2.277291 0.497591 14.384838 0.159077 1.536198 -0.007400 0.004811 -144425.000000 1 0 0
13.008615 2.412591 13.582591 18.961314 0.183377 0.772266 0.048680 -0.009792 50823.100000 1 0 0
18.306115 -3.592209 8.945291 20.689032 -0.193768 1.123678 0.048618 -0.015199 239763.000000 1 0 0
6.865315 -18.218809 5.156791 20.140756 -1.210426 1.311875 0.017872 -0.023273 190343.000000 1 0 0
12.190515 -2.761709 15.563391 19.961333 -0.222785 0.676647 0.020604 0.016012 218132.000000 1 0 0
11.395915 -13.614609 -7.006609 19.087091 -0.873877 1.946671 0.007058 -0.005229 167365.000000 1 0 0
10.598115 -18.015609 4.668891 21.416834 -1.039043 1.351031 0.027388 -0.001844 575340.000000 1 0 0
18.251315 -0.394209 -5.487609 19.062522 -0.021596 1.862803 0.019547 -0.004974 16451.500000 1 0 0
4.144315 -13.515309 11.634891 18.308731 -1.273260 0.882162 -0.003913 -0.005095 137424.000000 1 0 0
9.059315 -2.412309 14.372091 17.159470 -0.260241 0.577994 0.005643 -0.004522 330547.000000 1 0 0
9.038715 -9.310009 13.873291 18.995864 -0.800183 0.751988 0.014436 -0.011546 436731.000000 1 0 0
20.925615 5.493991 -2.704409 21.803191 0.256754 1.695154 0.031392 0.004196 406749.000000 1 0 0
14.729815 -13.521009 2.103591 20.104980 -0.742636 1.465974 0.011386 0.005852 254082.000000 1 0 0
10.810915 0.310391 14.299391 17.928882 0.028703 0.647554 0.019942 -0.023032 -36568.400000 1 0 0
19.428615 0.288591 7.660491 20.886299 0.014853 1.195260 0.059766 -0.006355 85924.200000 1 0 0
19.638415 1.111891 0.602091 19.679079 0.056558 1.540196 0.026660 0.000122 260826.000000 1 0 0
17.803715 0.380391 3.286491 18.108506 0.021363 1.388296 0.018843 -0.000614 57396.600000 1 0 0
10.368715 -8.260509 16.569991 21.220529 -0.672711 0.674776 0.032729 0.001745 23879.800000 1 0 0
18.745815 3.102591 5.501491 19.781255 0.164022 1.288964 0.012975 0.003473 124931.000000 1 0 0
15.397015 2.358291 7.199891 17.160071 0.151984 1.137822 0.030701 -0.006570 51052.800000 1 0 0
11.311415 -16.100209 1.899991 19.768025 -0.958352 1.474533 0.004345 0.010652 255068.000000 1 0 0
8.633215 -16.381909 6.957491 19.781457 -1.085785 1.211391 0.019138 0.000704 289484.000000 1 0 0
6.204015 6.647391 7.157391 11.571769 0.819885 0.903936 -0.003016 0.004037 -1303370.000000 1 0 0
18.272515 2.846391 -6.285209 19.531784 0.154532 1.898420 -0.005561 0.002816 376450.000000 1 0 0
14.111115 4.343291 -7.049409 16.360987 0.298590 2.016250 0.006543 -0.007370 288581.000000 1 0 0
-10.490485 -4.016609 -13.993209 17.944173 0.365662 2.465173 0.006281 0.003358 -349900.000000 1 0 0
7.666015 -14.271909 -10.317409 19.206877 -1.077880 2.137878 -0.006845 0.012473 -88787.800000 1 0 0
1.978015 -15.700109 13.985891 21.118975 -1.445469 0.846988 -0.005135 0.001693 263201.000000 1 0 0
-9.445485 -7.933009 2.197791 12.529171 0.698585 1.394470 0.007503 -0.002813 461786.000000 1 0 0
-13.961185 2.899991 -9.433409 17.097188 -0.204806 2.155260 0.021329 -0.001470 216676.000000 1 0 0
-12.872985 -4.898409 -13.592209 19.350874 0.363600 2.349571 0.018332 0.006088 193985.000000 1 0 0
-18.014885 -1.120309 -8.487709 19.945736 0.062108 2.010355 0.039280 -0.020997 555740.000000 1 0 0
-12.210985 15.156991 4.539091 19.986142 -0.892630 1.341685 0.020851 -0.014795 491164.000000 1 0 0
-17.259385 6.441191 9.328691 20.649450 -0.357191 1.102054 0.007842 0.004147 207291.000000 1 0 0
-13.648985 15.432591 0.104091 20.602681 -0.846653 1.565744 0.029773 -0.015980 208338.000000 1 0 0
-15.722985 5.675491 -10.788609 19.895164 -0.346412 2.143936 0.007371 0.001365 51432.900000 1 0 0
-18.083485 2.896891 -0.119709 18.314441 -0.158846 1.577333 0.010929 0.005635 -125714.000000 1 0 0
-9.704885 15.528091 -0.285109 18.313593 -1.012205 1.586365 0.016882 -0.008672 -43450.500000 1 0 0
-18.443585 12.199491 2.321991 22.234771 -0.584382 1.466175 0.041019 -0.006206 -301233.000000 1 0 0
-8.504885 16.216991 -7.622309 19.834905 -1.087786 1.965232 0.035263 -0.025617 4076.170000 1 0 0
-15.006785 -1.902809 -12.955609 19.916629 0.126124 2.279028 0.013554 -0.010014 159708.000000 1 0 0
-18.939585 5.539491 -4.759709 20.298982 -0.284545 1.807480 0.022894 0.008019 37552.600000 1 0 0
-16.605085 9.702991 -5.841709 20.099812 -0.528824 1.865687 0.010963 0.012553 33841.200000 1 0 0
-18.986585 1.271191 2.534091 19.197082 -0.066852 1.438406 0.007547 -0.009360 130686.000000 1 0 0
-14.049485 11.338691 -7.168009 19.425094 -0.679027 1.948737 0.017384 -0.017519 219749.000000 1 0 0
-12.792185 5.146691 -13.622109 19.382732 -0.382514 2.350117 0.012206 -0.004076 83298.600000 1 0 0
-13.948185 9.166391 -6.736809 17.998866 -0.581402 1.954428 0.004844 -0.006373 180427.000000 1 0 0
-6.211085 11.479891 -15.325509 20.130492 -1.074858 2.436125 -0.011587 -0.017721 153277.000000 1 0 0
-15.064185 13.935091 3.175091 20.765299 -0.746483 1.417290 0.017937 -0.007227 8623.290000 1 0 0
-18.676485 8.834191 -4.892009 21.231716 -0.441825 1.803296 0.025182 -0.003808 216453.000000 1 0 0
-3.759285 16.961591 -9.754309 19.924215 -1.352687 2.082394 0.000829 -0.002375 103123.000000 1 0 0
-19.214285 -2.618209 -6.529209 20.461533 0.135430 1.895573 0.003966 -0.006862 -158491.000000 1 0 0
-11.022585 14.155191 -6.178509 18.974741 -0.909182 1.902461 0.012444 -0.005703 64571.400000 1 0 0
-19.147985 3.213891 4.180191 19.860726 -0.166295 1.358735 0.010873 -0.000326 144713.000000 1 0 0
-15.445485 12.441891 0.381691 19.837070 -0.678107 1.551554 0.021634 -0.004987 151821.000000 1 0 0
-16.925585 2.314491 -8.592209 19.122195 -0.135902 2.036813 -0.021630 -0.003035 234760.000000 1 0 0
-15.792285 13.949891 -4.724509 21.594367 -0.723532 1.791365 -0.018369 0.030657 192768.000000 1 0 0
-10.468385 15.657191 -8.381209 20.615028 -0.981457 1.989480 0.014436 -0.020802 -49928.100000 1 0 0
-19.013085 1.948491 -7.173409 20.414500 -0.102125 1.929849 0.007369 -0.001248 11507.400000 1 0 0
-17.159185 10.353891 -0.530309 20.047990 -0.542917 1.597251 0.018184 -0.002684 15301.400000 1 0 0
-11.448185 6.743991 -14.794809 19.885390 -0.532357 2.409839 0.000466 -0.005170 220672.000000 1 0 0
-13.483785 12.451391 -4.998209 19.021874 -0.745612 1.836679 0.024388 -0.012271 356512.000000 1 0 0
-18.842385 7.691891 -0.043209 20.351966 -0.387575 1.572919 0.015474 -0.000446 -6693.880000 1 0 0
-14.309185 9.093391 -10.676509 20.035728 -0.566109 2.132789 0.006167 0.004119 485854.000000 1 0 0
-18.497985 11.682291 4.709791 22.379310 -0.563291 1.358758 0.003168 -0.004689 251940.000000 1 0 0
-8.132285 11.753891 -13.519209 19.673765 -0.965541 2.328382 -0.020858 -0.008429 447930.000000 1 0 0
-21.178585 -1.212609 -5.622509 21.945740 0.057194 1.829886 0.010738 0.002850 152254.000000 1 0 0
-10.363885 13.190491 -2.919709 17.027151 -0.904830 1.743122 0.008652 -0.008966 398261.000000 1 0 0
-18.799685 -4.762509 3.680291 19.739661 0.248110 1.383258 0.027334 -0.007600 12513.800000 1 0 0
-11.151785 11.623991 -12.815009 20.584070 -0.806128 2.242818 0.002436 0.000001 185743.000000 1 0 0
-14.883785 11.749391 -10.326409 21.591896 -0.668249 2.069462 0.016961 0.000184 395843.000000 1 0 0
-12.292085 9.887091 -14.038709 21.117180 -0.677385 2.298023 0.006490 -0.001426 231442.000000 1 0 0
-18.795585 -4.557209 -2.943409 19.562869 0.237871 1.721829 0.036202 -0.007568 -316122.000000 1 0 0
-9.235985 12.839591 -11.653709 19.646054 -0.947210 2.205803 0.006572 0.001490 78626.800000 1 0 0
-15.384985 7.941191 -8.523209 19.297807 -0.476496 2.028252 -0.003933 0.006581 31005.200000 1 0 0
-14.351185 8.813291 2.180791 16.981945 -0.550734 1.442023 0.006364 0.001272 -50645.300000 1 0 0
-19.792985 6.147391 7.913691 22.185112 -0.301139 1.206051 0.029432 0.000137 345108.000000 1 0 0
-19.011285 5.930491 3.647391 20.246065 -0.302380 1.389654 0.013770 0.004301 246327.000000 1 0 0
-14.316185 12.876291 5.812191 20.113020 -0.732496 1.277639 0.006467 -0.006196 28599.700000 1 0 0
18.088415 6.101491 6.053791 20.026665 0.325330 1.263706 0.011942 -0.007126 251269.000000 1 0 0
18.001415 7.957391 0.541091 19.689179 0.416217 1.543311 -0.007523 0.011785 -40940.800000 1 0 0
17.142315 4.688091 8.965791 19.905340 0.266953 1.103559 0.040721 0.003363 -39636.200000 1 0 0
12.098615 13.049491 10.673591 20.750692 0.823191 1.030520 0.021166 -0.005886 128312.000000 1 0 0
15.402715 12.484391 4.371091 20.302957 0.681130 1.353804 0.015787 -0.004105 85534.300000 1 0 0
5.315415 10.245191 14.620891 18.627614 1.092206 0.668255 0.013083 -0.006021 292404.000000 1 0 0
13.249915 13.191491 -5.239309 19.417158 0.783189 1.844012 0.031850 -0.000424 274566.000000 1 0 0
18.047815 9.277291 -2.857609 20.492869 0.474816 1.710696 0.009830 0.009736 -69171.100000 1 0 0
14.586015 7.061991 9.394491 18.731791 0.450897 1.045434 0.028525 -0.012234 55128.600000 1 0 0
4.677515 18.989191 -1.215409 19.594533 1.329279 1.632864 0.007649 -0.013832 472733.000000 1 0 0
-4.556485 18.977491 3.591491 19.844533 -1.335157 1.388812 0.005425 -0.021327 233806.000000 1 0 0
6.910115 14.063691 11.877991 19.662750 1.114097 0.922178 0.011973 0.019532 -277766.000000 1 0 0
0.225815 17.535491 -9.993409 20.184466 1.557919 2.088751 0.005950 0.012518 109148.000000 1 0 0
10.859715 9.605091 15.702391 21.371856 0.724168 0.745538 0.053710 -0.000650 82878.800000 1 0 0
-1.340585 12.320691 0.707991 12.413615 -1.462415 1.513732 -0.000125 0.000691 664574.000000 1 0 0
-4.773785 19.408391 -2.341709 20.123574 -1.329619 1.687427 0.005182 0.010787 102773.000000 1 0 0
6.613815 17.980391 6.447591 20.214065 1.218322 1.246158 0.018123 -0.021022 -9603.590000 1 0 0
11.283715 17.373891 -1.736109 20.789141 0.994798 1.654404 0.018035 -0.008047 379367.000000 1 0 0
18.464515 10.422991 3.825491 21.545566 0.513898 1.392296 0.015307 -0.006342 254606.000000 1 0 0
11.715015 16.413391 6.861391 21.300696 0.950903 1.242828 0.012541 0.009801 -26565.900000 1 0 0
17.885515 8.285891 -6.219309 20.669481 0.433837 1.876426 -0.014738 0.018718 267287.000000 1 0 0
0.510815 15.375691 11.081291 18.959636 1.537586 0.946573 0.002504 -0.000029 459767.000000 1 0 0
1.279815 20.071891 -1.679709 20.182669 1.507121 1.654118 0.017144 -0.013384 23828.000000 1 0 0
14.374915 9.791691 -1.169809 17.432264 0.597973 1.637953 -0.000183 0.005443 -18049.100000 1 0 0
9.961015 17.582391 1.416391 20.257553 1.055348 1.500820 0.018371 -0.008422 284902.000000 1 0 0
0.215015 18.064791 -0.466809 18.072100 1.558894 1.596630 0.002355 0.008300 113987.000000 1 0 0
-0.147385 21.181391 1.550891 21.238604 -1.563838 1.497709 0.018797 0.000511 266477.000000 1 0 0
6.150215 17.672691 -0.269509 18.714213 1.235898 1.585198 0.005137 -0.015357 -73765.500000 1 0 0
6.487415 18.465791 -2.762209 19.766177 1.232945 1.710999 -0.014221 -0.012712 44772.200000 1 0 0
10.190715 9.720791 12.828891 19.050587 0.761802 0.831982 0.017845 0.002366 130452.000000 1 0 0
13.000715 14.828991 8.241391 21.373771 0.850999 1.174955 0.008844 -0.003185 216486.000000 1 0 0
0.561815 17.515891 7.122891 18.917125 1.538733 1.184747 0.011420 -0.007164 284750.000000 1 0 0
7.191215 18.127491 -7.835909 21.017159 1.193136 1.952858 0.016691 -0.004311 -15888.600000 1 0 0
-0.932685 18.464191 9.268691 20.681027 -1.520326 1.106075 0.035116 -0.012967 216125.000000 1 0 0
15.751815 6.801291 -7.712709 18.811249 0.407598 1.993256 0.005633 0.002989 -290631.000000 1 0 0
-5.145185 19.826091 -6.627609 21.528400 -1.316882 1.883733 -0.003257 -0.003019 324398.000000 1 0 0
4.084115 15.335191 9.893591 18.701102 1.310515 1.013330 0.005652 -0.003602 52421.100000 1 0 0
9.310015 14.823291 7.465391 19.029934 1.009995 1.167669 0.006734 0.001325 -9763.970000 1 0 0
-2.290685 19.415191 6.688791 20.662449 -1.453355 1.241141 0.009949 -0.005539 4882.920000 1 0 0
5.302715 18.072491 8.429891 20.634843 1.285393 1.149957 0.020681 -0.004079 -19038.100000 1 0 0
14.307815 10.992391 -7.360409 19.486453 0.655097 1.958128 -0.022851 -0.028377 -112681.000000 1 0 0
11.832315 7.033491 15.569191 20.781563 0.536314 0.723969 0.060670 -0.010374 190399.000000 1 0 0
17.004815 9.165391 5.273491 20.024430 0.494349 1.304300 0.007232 -0.011666 117245.000000 1 0 0
4.335015 15.547091 12.120591 20.184477 1.298872 0.926682 -0.018607 0.014658 227151.000000 1 0 0
16.213115 11.317391 -4.140409 20.201272 0.609409 1.777217 0.025827 0.020369 122247.000000 1 0 0
15.369815 13.455391 6.855591 21.547108 0.719081 1.247000 0.019393 -0.003591 293461.000000 1 0 0
12.746015 14.259891 -8.020909 20.739825 0.841397 1.967890 0.054888 -0.020890 432809.000000 1 0 0
-8.371685 15.573491 9.649591 20.142823 -1.077554 1.071215 0.034186 -0.014091 204521.000000 1 0 0
-4.547585 16.557091 -6.923009 18.513396 -1.302745 1.954056 -0.003637 -0.005936 117568.000000 1 0 0
2.494815 19.234391 -4.483109 19.906887 1.441811 1.797949 0.009867 -0.023827 163574.000000 1 0 0
7.382515 16.558591 8.884391 20.189622 1.151406 1.115145 0.002617 -0.000942 600751.000000 1 0 0
13.204515 15.653991 -1.378409 20.525756 0.870074 1.638002 0.018895 -0.005233 132447.000000 1 0 0
12.469515 16.606091 3.922391 21.133769 0.926719 1.384116 0.005830 -0.005141 290928.000000 1 0 0
2.467315 18.532591 0.808491 18.713584 1.438441 1.527579 0.008920 -0.008896 -41275.500000 1 0 0
-7.280385 17.689291 1.261891 19.170482 -1.180356 1.504924 0.006666 0.008524 347351.000000 1 0 0
0.284715 20.087591 -5.894509 20.936513 1.556624 1.856197 0.015623 0.005864 315395.000000 1 0 0
-7.256785 17.989291 -6.321609 20.401918 -1.187367 1.885835 0.016279 -0.012544 31009.000000 1 0 0
-7.497285 18.507991 -0.920809 19.990070 -1.185915 1.616876 0.020610 -0.003909 55529.500000 1 0 0
-14.662885 -8.925609 8.576791 19.189269 0.546808 1.107435 0.026264 -0.010740 262390.000000 1 0 0
-13.327485 -13.606609 7.825791 20.591374 0.795761 1.180944 0.013596 -0.000250 9662.620000 1 0 0
-3.477685 -15.491709 13.117391 20.594982 1.349970 0.880298 0.005556 0.010020 44370.100000 1 0 0
-1.769785 -14.694109 15.712991 21.585807 1.450932 0.755496 0.000983 0.005578 599699.000000 1 0 0
-7.927385 -13.868109 12.673391 20.390751 1.051501 0.900107 0.003798 -0.006734 190404.000000 1 0 0
-10.026585 -11.159609 11.700691 19.025653 0.838827 0.908416 0.021309 -0.002039 3242.770000 1 0 0
-7.431785 -10.348109 13.072691 18.254042 0.947974 0.772521 0.014183 -0.009654 499735.000000 1 0 0
-15.275485 -12.175209 7.546891 20.941149 0.672935 1.202115 0.020032 0.003765 293086.000000 1 0 0
-4.646385 -12.569209 13.465591 18.997264 1.216712 0.782976 0.015253 -0.011866 473422.000000 1 0 0
3.626615 -12.880809 13.842391 19.253035 -1.296349 0.768474 -0.009454 0.006940 353675.000000 1 0 0
6.514215 -13.539509 14.811891 21.098470 -1.122361 0.792543 0.005681 0.004649 290104.000000 1 0 0
7.093415 -9.142009 16.549891 20.193854 -0.910915 0.610170 0.003618 -0.004006 699401.000000 1 0 0
-5.268885 13.406691 13.437091 19.699135 -1.196335 0.820144 0.016369 -0.005913 421375.000000 1 0 0
-13.814785 -1.821409 17.285991 22.202957 0.131089 0.678453 0.029681 -0.007429 47106.700000 1 0 0
-10.473585 9.981691 12.779991 19.304359 -0.761355 0.847277 0.000464 0.007385 382652.000000 1 0 0
-6.990785 -8.424809 16.974591 20.198644 0.878155 0.572807 0.020292 -0.015487 129503.000000 1 0 0
-4.821485 1.877491 18.498591 19.208580 -0.371336 0.272735 0.009536 -0.000140 547817.000000 1 0 0
-15.453185 -3.840009 14.725491 21.688400 0.243560 0.824455 0.024310 -0.000425 197069.000000 1 0 0
-14.392785 2.706791 12.400891 19.190130 -0.185894 0.868186 -0.007674 0.003522 140092.000000 1 0 0
-14.889185 10.674591 9.300491 20.545896 -0.622002 1.101040 -0.006067 0.001877 42000.000000 1 0 0
-4.874685 11.383391 15.906691 20.158545 -1.166195 0.661488 0.041941 0.002759 203354.000000 1 0 0
-13.418085 12.746991 7.789391 20.079975 -0.759755 1.172424 0.016848 -0.029532 29710.900000 1 0 0
-4.001685 -6.417209 18.597291 20.076187 1.013214 0.386230 0.015395 -0.014851 275829.000000 1 0 0
0.320215 -2.780309 17.958391 18.175160 -1.456129 0.154599 0.002044 -0.016510 -81644.100000 1 0 0
-4.460985 6.551391 21.245391 22.675708 -0.972990 0.357076 0.027664 0.004479 232500.000000 1 0 0
2.079515 -10.552409 16.641591 19.814648 -1.376224 0.573765 -0.007799 -0.000589 346893.000000 1 0 0
-14.859085 -0.249409 14.071791 20.466312 0.016783 0.812675 -0.014522 0.012649 43377.800000 1 0 0
-14.067885 -5.894109 7.664891 17.070339 0.396757 1.105130 0.019350 -0.004953 50643.400000 1 0 0
10.266415 1.167591 16.513191 19.479425 0.113243 0.559115 0.042714 0.000220 610531.000000 1 0 0
-7.738885 12.511591 12.232591 19.132865 -1.016858 0.877144 0.018908 0.002233 49847.200000 1 0 0
-1.713185 7.630391 19.723291 21.217117 -1.349938 0.377488 0.036698 -0.023521 510885.000000 1 0 0
1.290415 -13.185209 15.121291 20.103939 -1.473239 0.719469 -0.016990 -0.020045 473121.000000 1 0 0
-3.446685 -11.911509 17.754491 21.656076 1.289132 0.609667 0.015680 -0.016288 455637.000000 1 0 0
-2.426285 8.746491 16.918091 19.199212 -1.300199 0.492430 0.033451 -0.008690 498619.000000 1 0 0
-5.425185 -9.461609 20.109491 22.876763 1.050173 0.496961 0.060893 -0.026573 272345.000000 1 0 0
-6.652485 -3.059609 19.207191 20.555606 0.431073 0.364221 0.014933 -0.012276 182997.000000 1 0 0
-11.010085 -8.217309 15.789391 20.929668 0.641157 0.716053 0.071345 -0.020936 243901.000000 1 0 0
-0.584985 6.389991 17.679691 18.808127 -1.479504 0.348158 0.025125 -0.013628 108251.000000 1 0 0
-6.011685 -11.578209 18.587191 22.708566 1.091888 0.611984 0.029303 -0.019430 456612.000000 1 0 0
0.370415 3.324491 18.891791 19.185651 1.459834 0.175248 0.015420 -0.005992 139737.000000 1 0 0
-17.993885 -1.150509 7.588291 19.562355 0.063852 1.172441 0.002778 0.002220 296639.000000 1 0 0
-1.622185 -8.880409 17.534991 19.722298 1.390118 0.475433 0.002718 -0.006659 259698.000000 1 0 0
5.887515 3.387291 14.952191 16.422685 0.522086 0.426402 0.012224 -0.006826 340870.000000 1 0 0
-13.715085 -6.758109 10.165391 18.360577 0.457831 0.984052 0.012054 -0.003385 141248.000000 1 0 0
3.558215 8.353391 16.857491 19.147194 1.168112 0.494058 0.024369 -0.010443 246848.000000 1 0 0
6.104815 4.408991 17.405791 18.964955 0.625480 0.408325 0.030366 -0.032830 256628.000000 1 0 0
5.265315 -9.411709 18.357391 21.290787 -1.060732 0.531156 0.004970 0.012863 416909.000000 1 0 0
-4.486685 -0.524409 19.832491 20.340429 0.116353 0.223949 0.008722 -0.011999 762894.000000 1 0 0
-11.254185 2.052891 16.877791 20.389479 -0.180428 0.595676 0.022110 -0.005026 276260.000000 1 0 0
-16.765385 -4.180409 8.846291 19.411616 0.244365 1.097614 0.027089 -0.010759 499733.000000 1 0 0
-13.243085 -8.966609 13.477691 20.914768 0.595176 0.870545 0.023322 -0.015351 207783.000000 1 0 0
-14.414485 6.043891 13.325591 20.539653 -0.397027 0.864824 -0.010681 0.000617 211988.000000 1 0 0
1.110215 9.163391 17.218091 19.536196 1.450226 0.492099 0.021161 -0.018498 260684.000000 1 0 0
-3.987285 -10.606409 14.874991 18.699190 1.211209 0.650983 0.011536 -0.011946 618244.000000 1 0 0
-18.649085 -3.006409 6.575891 20.001730 0.159834 1.235800 0.090224 -0.016780 -233030.000000 1 0 0
-0.708185 -0.585109 20.918691 20.938851 0.690519 0.043886 0.013103 -0.016049 282965.000000 1 0 0
-1.780085 2.363391 20.341291 20.555350 -0.925256 0.144443 0.014595 -0.012630 -32953.600000 1 0 0
-8.083885 1.988491 16.533591 18.511157 -0.241193 0.466453 -0.001423 0.014548 627532.000000 1 0 0
2.618915 -2.347409 18.726491 19.053884 -0.730783 0.185644 0.006782 -0.008766 -126148.000000 1 0 0
-12.493585 4.441691 14.157491 19.397238 -0.341582 0.752662 -0.013474 -0.001800 193195.000000 1 0 0
-13.362085 -5.435809 13.232991 19.575633 0.386362 0.828485 0.014376 -0.003221 93524.200000 1 0 0
-16.831985 -0.692309 10.646091 19.928228 0.041107 1.007210 0.006134 0.008529 19022.800000 1 0 0
-7.313885 7.888791 14.843191 18.331564 -0.823196 0.627144 -0.009194 0.002853 35789.700000 1 0 0
-9.471385 0.288391 14.362191 17.206476 -0.030439 0.583214 0.002656 0.004628 294054.000000 1 0 0
7.502915 -0.844609 15.478291 17.221631 -0.112099 0.453840 0.009336 -0.003392 215929.000000 1 0 0
3.924115 6.504791 18.485491 19.985603 1.027979 0.389918 0.022258 -0.005483 145505.000000 1 0 0
1.698715 0.286991 19.918291 19.992656 0.167365 0.086278 0.012726 -0.011010 240783.000000 1 0 0
-7.109885 6.743891 17.568391 20.116632 -0.758986 0.508806 -0.004073 0.003070 481659.000000 1 0 0
7.590015 -3.342309 16.636191 18.588765 -0.414805 0.462456 0.005042 0.000196 362026.000000 1 0 0
-17.429385 2.000491 9.451191 19.927630 -0.114277 1.076655 0.052337 0.002750 393378.000000 1 0 0
4.460715 -5.155609 18.787291 19.986010 -0.857535 0.348101 0.024050 -0.022941 200976.000000 1 0 0
-3.835085 -3.766609 20.627491 21.316393 0.776390 0.254926 0.012517 -0.013387 366359.000000 1 0 0
-9.906285 5.926191 14.544091 18.568382 -0.539114 0.670885 -0.008750 0.005255 -8875.340000 1 0 0
6.570115 2.862491 19.798791 21.055934 0.410885 0.347300 0.043923 -0.020503 218535.000000 1 0 0
-7.397185 11.291791 14.738091 19.985850 -0.990848 0.741544 0.012156 -0.008701 252958.000000 1 0 0
-14.396985 5.009791 9.092791 17.749649 -0.334870 1.032959 -0.004503 -0.003744 222890.000000 1 0 0
0.428315 -5.560409 20.530791 21.274750 -1.493919 0.265235 0.000489 -0.011244 235165.000000 1 0 0
-6.417885 -8.250009 13.587491 17.142690 0.909662 0.655716 0.019715 -0.008413 372845.000000 1 0 0
-12.743185 10.042191 6.360491 17.426709 -0.667408 1.197179 -0.004766 -0.015801 128688.000000 1 0 0
-19.299785 1.798891 7.510691 20.787693 -0.092939 1.201130 0.002163 -0.006298 177372.000000 1 0 0
-15.321885 8.868991 6.576791 18.885797 -0.524719 1.215103 -0.013887 -0.004253 144426.000000 1 0 0
-12.621185 7.821991 14.166291 20.522223 -0.554816 0.808906 -0.012093 0.001927 333574.000000 1 0 0
-16.588185 8.983591 10.834791 21.754666 -0.496345 1.049454 0.005908 0.000408 368871.000000 1 0 0
2.476615 10.579391 14.994391 18.517259 1.340839 0.627067 0.011422 -0.032234 473787.000000 1 0 0
1.598215 13.747691 13.361091 19.237256 1.455063 0.803013 0.002096 -0.025074 227411.000000 1 0 0
8.790415 5.170791 16.725991 19.589978 0.531721 0.547548 0.038592 -0.007184 192291.000000 1 0 0
-0.370985 13.248191 13.734091 19.086053 -1.542801 0.767588 0.006117 0.014695 17402.200000 1 0 0
4.729115 13.651591 15.025291 20.844419 1.237319 0.765797 0.034559 0.016670 -133660.000000 1 0 0
-3.741985 -4.391009 -13.437709 14.623797 0.865031 2.736062 -0.002717 -0.009169 144144.000000 1 0 0
5.064115 -12.015109 17.016991 21.437959 -1.171912 0.653800 -0.053095 0.026127 169156.000000 1 0 0
8.759315 -13.527709 7.439991 17.750436 -0.996174 1.138294 0.005185 -0.006803 215464.000000 1 0 0
-0.354785 15.382291 0.455491 15.393122 -1.547736 1.541201 0.002411 -0.003485 -441860.000000 1 0 0
-14.225485 7.539591 8.809791 18.352718 -0.487363 1.070111 0.011717 0.001030 116749.000000 1 0 0
-15.899985 -9.719809 5.585991 19.454756 0.548694 1.279570 0.014260 -0.005797 173377.000000 1 0 0
8.927015 -10.737209 11.796991 18.279722 -0.877195 0.869303 0.004994 0.009831 140362.000000 1 0 0
-25.136895 6.239191 31.394853 40.699235 -0.243292 0.689779 0.028222 -0.008093 -521008.000000 0 0 1
-24.097585 5.333491 31.240503 39.813424 -0.217817 0.668629 0.022697 -0.008224 -717093.000000 0 0 1
-22.974985 5.732991 31.967773 39.782604 -0.244538 0.637541 0.024839 -0.009794 -381592.000000 0 0 1
-21.704085 4.945791 31.612393 38.663568 -0.224048 0.613518 0.027536 -0.012988 -291960.000000 0 0 1
-21.628085 3.674691 32.214913 38.975351 -0.168297 0.597853 0.001861 -0.008647 -130350.000000 0 0 1
-20.395185 3.062091 31.939263 38.019159 -0.149025 0.573359 0.031899 -0.005688 -342309.000000 0 0 1
-20.214885 1.732491 32.656323 38.445787 -0.085495 0.555926 0.014452 -0.008549 63827.200000 0 0 1
-20.982785 0.618291 32.190613 38.430393 -0.029458 0.577859 0.012454 0.000692 307070.000000 0 0 1
-21.022285 -0.338109 33.217070 39.311888 0.016082 0.564301 0.016694 -0.000347 -76240.700000 0 0 1
-21.713285 -1.692009 32.798357 39.370825 0.077768 0.586175 0.013929 -0.014028 -38871.200000 0 0 1
-21.010085 -2.569809 31.878053 38.265361 0.121709 0.586146 0.026240 -0.015591 209645.000000 0 0 1
-21.217085 -3.930409 32.246073 38.799768 0.183171 0.589733 0.027138 -0.017179 241281.000000 0 0 1
-22.557985 -4.746009 32.072373 39.497144 0.207367 0.623196 0.008656 -0.008459 1659050.000000 0 0 1
-23.673585 -4.422009 32.974115 40.832402 0.184663 0.630814 0.001403 -0.002784 1286180.000000 0 0 1
-23.474585 -4.671609 34.368473 41.881643 0.196441 0.608320 0.004799 -0.003030 -838567.000000 0 0 1
-24.737185 -4.274909 -33.712839 42.032829 0.171123 2.501532 0.011290 -0.001484 -261284.000000 0 0 1
-24.690685 -4.737609 -32.398529 41.009018 0.189574 2.481661 0.011712 -0.003560 713262.000000 0 0 1
-25.820085 -4.297809 -31.635069 41.060024 0.164940 2.450357 0.020744 -0.003498 188440.000000 0 0 1
-25.778655 -4.873809 -30.192299 39.998350 0.186858 2.426204 0.012621 -0.014408 -566956.000000 0 0 1
-25.984775 -6.274909 -30.271089 40.384674 0.236948 2.418207 0.008655 -0.000659 504289.000000 0 0 1
-25.770555 -6.843509 -29.007429 39.400331 0.259565 2.398268 -0.005764 -0.008078 -204238.000000 0 0 1
-25.914325 -8.350009 -28.995009 39.774181 0.311712 2.387643 0.005690 -0.011461 117846.000000 0 0 1
-27.232375 -8.833409 -28.808079 40.614490 0.313663 2.359309 0.023530 -0.019813 -229135.000000 0 0 1
-27.281335 -10.234109 -28.850529 41.004406 0.358887 2.351242 0.022878 -0.009658 408199.000000 0 0 1
-28.685875 -10.835209 -28.574489 41.913991 0.361153 2.320936 0.052955 -0.009421 490129.000000 0 0 1
-28.921375 -11.118309 -27.199269 41.229395 0.367014 2.291223 0.055134 -0.013355 293124.000000 0 0 1
-30.256685 -11.539309 -26.900809 42.098411 0.364353 2.263992 0.053188 -0.015553 507173.000000 0 0 1
-30.352855 -12.328309 -25.574779 41.561429 0.385811 2.233625 0.050172 -0.012183 -174595.000000 0 0 1
-30.057355 -11.441309 -24.534209 40.450903 0.363714 2.222470 0.068731 -0.011082 195200.000000 0 0 1
-29.853515 -12.120109 -23.318909 39.773118 0.385656 2.197278 0.066021 -0.016689 -434983.000000 0 0 1
-29.479805 -11.152809 -22.161309 38.530088 0.361678 2.183607 0.079292 -0.021426 80039.100000 0 0 1
-29.211445 -11.717909 -20.873209 37.766504 0.381490 2.156386 0.079473 -0.018242 325332.000000 0 0 1
-28.137215 -12.649409 -20.835909 37.226947 0.422489 2.164820 0.070553 -0.028916 -301847.000000 0 0 1
-27.744905 -13.203509 -19.449009 36.364493 0.444174 2.135109 0.070085 -0.029350 -232172.000000 0 0 1
-27.280225 -12.176709 -18.710609 35.250104 0.419820 2.130336 0.060588 -0.031085 -62519.700000 0 0 1
-27.148055 -12.500409 -17.335109 34.551167 0.431513 2.096386 0.061169 -0.022433 -59648.600000 0 0 1
-26.970155 -11.217409 -16.501809 33.548908 0.394154 2.085036 0.060991 -0.024311 -577271.000000 0 0 1
-25.674165 -10.726409 -16.674209 32.438370 0.395748 2.110670 0.046111 -0.021499 -129575.000000 0 0 1
-25.542015 -9.507409 -15.995509 31.601293 0.356337 2.101530 0.043843 -0.021038 -70154.600000 0 0 1
-24.118885 -8.873409 -16.021409 30.284378 0.352534 2.128256 0.035234 -0.018839 317925.000000 0 0 1
-23.300485 -9.364009 -14.970909 29.235687 0.382126 2.108397 0.024418 -0.022626 -63114.700000 0 0 1
-22.110085 -8.613409 -14.922909 28.031053 0.371482 2.132195 0.040603 -0.041265 -70206.100000 0 0 1
-21.085585 -9.155409 -13.890709 26.858429 0.409639 2.114352 0.036114 -0.022826 -83093.600000 0 0 1
-20.373485 -10.295609 -14.344209 26.959874 0.467913 2.131825 0.024845 -0.015184 237138.000000 0 0 1
-19.254885 -10.514909 -13.510409 25.765191 0.499837 2.122768 0.042976 -0.015144 -131904.000000 0 0 1
-18.222085 -11.484909 -14.066609 25.725805 0.562383 2.149322 0.045472 -0.006690 -427818.000000 0 0 1
-17.585285 -11.173209 -15.295209 25.846205 0.566024 2.204059 0.062666 -0.014738 -48585.200000 0 0 1
-18.310185 -11.253809 -16.508609 27.100651 0.551100 2.225796 0.051117 -0.019674 -671813.000000 0 0 1
-17.569885 -10.703309 -17.716909 27.150517 0.547146 2.281733 0.055598 -0.012662 -266444.000000 0 0 1
-18.099585 -11.120909 -18.982309 28.488553 0.550962 2.300050 0.032244 -0.004288 207034.000000 0 0 1
-17.532685 -10.389809 -20.007209 28.559265 0.534958 2.346965 0.035316 -0.005889 -314092.000000 0 0 1
-18.259785 -10.746909 -21.285309 30.032985 0.531962 2.358494 0.053522 -0.008551 1072010.000000 0 0 1
-19.615685 -10.244509 -21.334709 30.739143 0.481297 2.337905 0.036712 -0.021397 1407020.000000 0 0 1
-20.386385 -10.872809 -22.391209 32.174352 0.489960 2.340515 0.041401 -0.013526 1053640.000000 0 0 1
-21.526785 -10.000709 -23.020309 33.065863 0.434904 2.340880 0.024792 -0.019310 167966.000000 0 0 1
-21.029785 -9.033809 -23.844709 33.051955 0.405737 2.376663 0.023209 -0.021219 101049.000000 0 0 1
-22.029985 -8.419709 -24.641809 34.109097 0.365062 2.378122 0.011949 -0.020604 145440.000000 0 0 1
-21.389085 -7.725809 -25.886259 34.456923 0.346620 2.420772 0.015185 -0.021566 182137.000000 0 0 1
-20.629685 -8.592809 -26.700159 34.818369 0.394672 2.444701 0.029353 -0.024564 -78240.800000 0 0 1
-19.975385 -7.918809 -27.726939 35.078579 0.377424 2.482297 0.020039 -0.028659 -100599.000000 0 0 1
-18.773585 -8.675009 -28.341489 35.084802 0.432859 2.511206 0.038706 -0.029164 258803.000000 0 0 1
-19.172385 -9.820009 -29.129129 36.228706 0.473356 2.504846 0.046323 -0.026301 -462411.000000 0 0 1
-18.052785 -10.228609 -29.804229 36.315556 0.515494 2.533434 0.015268 -0.022990 -841338.000000 0 0 1
-18.254485 -11.395109 -30.822609 37.591329 0.558050 2.532101 0.020102 -0.013781 -437835.000000 0 0 1
-18.897785 -10.997809 -31.994519 38.752127 0.527051 2.542096 0.026131 -0.009377 184808.000000 0 0 1
-18.945485 -12.030009 -32.939189 39.857781 0.565744 2.543512 0.008896 -0.012351 -240449.000000 0 0 1
-19.451785 -11.689209 -34.291811 41.121015 0.541105 2.556977 0.008588 -0.011565 -656964.000000 0 0 1
-18.597285 -10.845109 33.831371 40.100337 0.527942 0.566717 0.009069 -0.008234 -103942.000000 0 0 1
-18.869685 -10.968109 32.413393 39.076751 0.526523 0.592620 0.015370 -0.015850 -57565.000000 0 0 1
-18.417185 -12.281509 31.717883 38.678835 0.588130 0.609329 0.018046 -0.014736 -637088.000000 0 0 1
-17.032885 -12.402809 31.553413 37.941622 0.629382 0.588759 0.027337 -0.016744 -261948.000000 0 0 1
-16.664185 -13.311609 30.528023 37.240491 0.674018 0.609816 0.035527 -0.019797 26717.400000 0 0 1
-16.713885 -14.834709 30.841763 38.087227 0.725904 0.627042 0.035406 -0.005732 306114.000000 0 0 1
-18.089685 -15.252109 30.865203 38.891185 0.700497 0.654044 0.021945 -0.003230 687363.000000 0 0 1
-18.350485 -16.530809 31.408023 39.955874 0.733278 0.666375 0.039479 -0.008608 -279989.000000 0 0 1
-18.605585 -16.474209 32.924623 41.250432 0.724715 0.646554 0.005767 -0.019177 173941.000000 0 0 1
-17.442585 -16.103709 33.675702 41.202259 0.745508 0.614041 0.028724 -0.013945 494445.000000 0 0 1
-17.716385 -16.033209 -33.820699 41.409827 0.735567 2.526519 0.011272 -0.009097 669516.000000 0 0 1
-16.385985 -15.635309 -33.084579 40.094299 0.761959 2.541298 0.012805 -0.015063 678581.000000 0 0 1
-16.011885 -14.286009 -33.463639 39.752807 0.728496 2.571393 0.012560 -0.013580 -450741.000000 0 0 1
-14.879085 -13.813409 -32.787669 38.564604 0.748274 2.587163 0.013887 -0.010740 -449865.000000 0 0 1
-15.086385 -13.352609 -31.332259 37.250526 0.724509 2.570152 0.014686 -0.005137 -288667.000000 0 0 1
-15.238485 -14.437809 -30.435199 36.972464 0.758424 2.537795 0.008921 -0.005919 -192354.000000 0 0 1
-15.504985 -14.055909 -29.121709 35.861499 0.736417 2.518471 0.011404 -0.006743 -184576.000000 0 0 1
-15.643285 -15.355009 -28.277239 35.778359 0.776099 2.482168 0.023439 -0.015413 30437.500000 0 0 1
-14.461085 -16.072409 -27.996569 35.373058 0.838122 2.484000 0.030269 -0.020526 81008.700000 0 0 1
-13.774885 -16.775809 -29.042319 36.257848 0.883312 2.499750 0.026394 -0.018177 -919483.000000 0 0 1
-12.368985 -17.143709 -28.660269 35.613335 0.945794 2.506071 0.023395 -0.009378 -1161430.000000 0 0 1
-11.448285 -16.089309 -28.739389 34.869494 0.952363 2.539582 0.025165 -0.015554 -895277.000000 0 0 1
-10.178985 -16.632109 -28.472879 34.510052 1.021594 2.541106 0.042067 -0.023253 -14026.400000 0 0 1
-9.122985 -15.506109 -28.409949 33.627273 1.038989 2.577078 0.025700 -0.023568 -104019.000000 0 0 1
-9.254685 -14.739109 -27.252899 32.335910 1.010114 2.573272 0.025682 -0.019954 379085.000000 0 0 1
-8.045085 -14.016309 -26.962689 31.435123 1.049729 2.601624 0.021209 -0.021596 462549.000000 0 0 1
-7.912085 -12.569809 -27.521439 31.273484 1.009002 2.646711 0.013516 -0.024332 -263615.000000 0 0 1
-7.618785 -12.458409 -28.895709 32.376224 1.021936 2.673649 0.029497 -0.018796 174132.000000 0 0 1
-7.557185 -11.126409 -29.328539 32.265636 0.974159 2.711606 0.018540 -0.019514 88893.100000 0 0 1
-6.654985 -10.931909 -30.612019 33.179680 1.023955 2.745598 0.009986 -0.008057 1284760.000000 0 0 1
-5.242085 -11.108409 -30.326009 32.719154 1.129878 2.756751 0.024656 -0.004322 1535700.000000 0 0 1
-4.327585 -10.759009 -31.351839 33.427864 1.188370 2.787309 0.025971 -0.002684 -75783.800000 0 0 1
-4.261985 -9.202209 -31.699569 33.282246 1.137062 2.831964 0.015069 -0.002950 -542249.000000 0 0 1
-3.022785 -8.877309 -32.338119 33.670429 1.242604 2.859341 0.016371 -0.006816 399976.000000 0 0 1
-2.966585 -7.509509 -32.697929 33.680082 1.194570 2.899501 0.001807 -0.009883 956.691000 0 0 1
-1.632885 -7.028309 -33.321489 34.093769 1.342516 2.928343 0.022018 -0.016233 80501.600000 0 0 1
-1.356585 -7.484009 34.214542 35.049759 1.391479 0.218745 0.021308 -0.023820 263461.000000 0 0 1
-0.302085 -6.647509 33.708262 34.358806 1.525384 0.194905 0.021769 -0.016665 462248.000000 0 0 1
0.407515 -7.267909 32.485203 33.290794 -1.514785 0.220440 0.016683 -0.018491 -526255.000000 0 0 1
-0.374385 -7.202309 31.350873 32.169716 1.518862 0.226109 0.013371 -0.012237 -217717.000000 0 0 1
0.281015 -7.755309 30.254573 31.234003 -1.534577 0.251090 0.013223 -0.018582 -69241.900000 0 0 1
-0.182985 -7.176809 28.855943 29.735593 1.545305 0.243842 0.004416 -0.014191 -137949.000000 0 0 1
0.259315 -5.850409 28.694813 29.286290 -1.526501 0.201319 0.015023 -0.015585 81301.900000 0 0 1
0.127115 -5.362209 27.409623 27.929498 -1.547095 0.193245 0.017171 -0.010779 -106114.000000 0 0 1
-1.174385 -4.525009 27.283683 27.681297 1.316867 0.169697 0.007696 0.000415 1084300.000000 0 0 1
-2.418385 -5.234709 27.381033 27.981632 1.138016 0.207563 0.007253 -0.004358 610845.000000 0 0 1
-3.501585 -4.330009 27.113693 27.679639 0.890786 0.202565 0.005108 -0.004885 1011360.000000 0 0 1
-4.910685 -4.956809 27.379663 28.254747 0.790072 0.249529 0.007460 -0.003042 515187.000000 0 0 1
-5.318785 -5.885509 26.396513 27.562739 0.835936 0.291937 0.002508 -0.003072 3700.770000 0 0 1
-6.643885 -6.324209 26.658033 28.191976 0.760752 0.331395 -0.008221 -0.002385 510429.000000 0 0 1
-6.714985 -7.898909 26.705283 28.647093 0.866235 0.370307 -0.000492 -0.008059 300116.000000 0 0 1
-6.081485 -8.447209 27.881233 29.760762 0.946813 0.357298 -0.000582 -0.014094 1861.930000 0 0 1
-5.894585 -9.844309 27.782733 30.058889 1.031274 0.391660 -0.003326 -0.018736 36099.600000 0 0 1
-5.429685 -10.447809 29.091353 31.383833 1.091516 0.384587 0.009619 -0.023044 -311615.000000 0 0 1
-5.115085 -11.764809 28.951713 31.666646 1.160673 0.417106 0.012776 -0.027004 84996.000000 0 0 1
-4.574285 -12.346609 30.107603 32.860776 1.215986 0.412261 0.018503 -0.029528 -491852.000000 0 0 1
-4.575485 -13.880009 29.955353 33.330360 1.252368 0.453907 0.026936 -0.029753 -496863.000000 0 0 1
-5.872585 -14.409409 29.928123 33.731452 1.183797 0.479454 0.036891 -0.030432 -506449.000000 0 0 1
-5.839085 -15.779009 30.110293 34.492054 1.216369 0.509552 0.027991 -0.029796 61324.600000 0 0 1
-5.957885 -16.354509 31.546663 36.029964 1.221443 0.504187 0.041731 -0.026855 -264615.000000 0 0 1
-7.189985 -16.183709 32.192763 36.742105 1.152715 0.502914 0.036304 -0.026388 -522597.000000 0 0 1
-7.146685 -16.606809 33.514607 38.080048 1.164406 0.494704 0.037393 -0.023807 -270112.000000 0 0 1
-8.593585 -16.810709 34.002023 38.891994 1.098231 0.506871 0.038871 -0.018468 318338.000000 0 0 1
-9.304485 -17.951109 33.531190 39.155542 1.092597 0.542620 0.045078 -0.021469 294844.000000 0 0 1
-9.641185 -18.065509 32.135953 38.105571 1.080570 0.567328 0.055041 -0.023498 -571429.000000 0 0 1
-10.165985 -19.512809 31.815173 38.682066 1.090498 0.605041 0.081324 -0.025516 -463455.000000 0 0 1
-11.287585 -19.913809 32.539303 39.784112 1.055130 0.613050 0.065696 -0.021814 -148883.000000 0 0 1
-11.736085 -21.217709 32.135103 40.256573 1.065556 0.646400 0.060291 -0.013361 87598.100000 0 0 1
-11.414285 -22.296309 33.242665 41.623143 1.097646 0.645734 0.050910 -0.016387 284041.000000 0 0 1
-10.041385 -22.671609 33.111776 41.366907 1.153858 0.642765 0.045163 -0.013793 270153.000000 0 0 1
-9.598885 -23.415609 34.239501 42.576669 1.181754 0.636494 0.027866 -0.018123 102421.000000 0 0 1
-9.963785 -24.939909 34.306932 43.568815 1.190711 0.664185 0.040575 -0.009176 -140046.000000 0 0 1
-9.338885 -25.672579 33.283625 43.059212 1.221908 0.687282 0.040679 -0.002685 44806.700000 0 0 1
-9.566085 -27.047359 33.495568 44.102411 1.230848 0.708260 0.038554 -0.002852 -704404.000000 0 0 1
-8.769185 -27.905899 32.463183 43.697781 1.266326 0.733401 0.040656 -0.004119 1716830.000000 0 0 1
-7.324685 -27.862789 32.357873 43.324565 1.313729 0.727452 0.032374 -0.009791 1139310.000000 0 0 1
-6.560385 -28.115509 33.499901 44.224019 1.341561 0.711314 0.038003 -0.014942 -572589.000000 0 0 1
-5.129585 -27.560579 33.379041 43.589661 1.386781 0.698580 0.044434 -0.021780 -27241.200000 0 0 1
-4.913185 -26.337049 34.040388 43.318905 1.386366 0.666793 0.041921 -0.015081 64077.400000 0 0 1
-4.488285 -25.388559 33.097938 41.954703 1.395820 0.661784 0.051559 -0.009916 -354948.000000 0 0 1
-4.343485 -24.049309 33.819029 41.724835 1.392115 0.625748 0.044486 -0.017084 -241690.000000 0 0 1
-3.102085 -23.939209 -34.377984 42.006600 1.441933 2.529408 0.035161 -0.014341 -322489.000000 0 0 1
-2.950685 -22.728209 -33.656129 40.718707 1.441694 2.543750 0.036147 -0.023393 -8228.330000 0 0 1
34.123686 -15.229009 1.816991 37.411899 -0.419763 1.522210 0.081921 -0.027679 -65851.200000 0 0 1
34.695886 -15.677109 3.055691 38.195727 -0.424386 1.490710 0.079803 -0.034540 383393.000000 0 0 1
33.963546 -16.652809 3.801091 38.016928 -0.455869 1.470645 0.088346 -0.035445 -80406.900000 0 0 1
34.613626 -16.892909 5.205791 38.866101 -0.454036 1.436451 0.068582 -0.023172 65544.900000 0 0 1
-35.460908 -17.491909 4.948291 39.848820 0.458252 1.446298 0.067365 -0.022705 14173.500000 0 0 1
-34.933016 -17.631809 6.247091 39.626033 0.467426 1.412485 0.050541 -0.015372 -229990.000000 0 0 1
-33.634735 -18.433809 6.451591 38.893750 0.501352 1.404149 0.031309 -0.018002 -158568.000000 0 0 1
-33.673535 -19.862409 6.343491 39.606340 0.532924 1.409940 0.044957 -0.015711 -569076.000000 0 0 1
-32.445215 -20.435009 6.613391 38.910391 0.562066 1.400003 0.037544 -0.012884 -819120.000000 0 0 1
-32.574985 -21.979109 6.936391 39.903940 0.593560 1.396082 0.040495 -0.014742 -250319.000000 0 0 1
-32.748975 -22.762609 5.751491 40.295303 0.607405 1.427574 0.055924 -0.020298 288920.000000 0 0 1
-33.010755 -24.092609 6.082091 41.317740 0.630474 1.423057 0.061802 -0.022659 -48415.100000 0 0 1
-32.412535 -25.113029 5.056291 41.313469 0.659181 1.448100 0.062777 -0.020826 75824.000000 0 0 1
-33.114185 -25.111489 3.849391 41.736722 0.648811 1.478435 0.072563 -0.019789 147249.000000 0 0 1
-32.527075 -26.070559 2.986091 41.792361 0.675657 1.499285 0.069052 -0.017822 13380.700000 0 0 1
-32.771005 -25.852919 1.479591 41.767229 0.667934 1.535364 0.068423 -0.022034 426860.000000 0 0 1
-34.144523 -25.998179 1.120291 42.930279 0.650767 1.544698 0.066652 -0.023257 514744.000000 0 0 1
-34.493181 -25.484079 -0.190109 42.886525 0.636304 1.575229 0.062069 -0.016147 42988.600000 0 0 1
-35.382948 -24.194309 -0.158809 42.864237 0.599760 1.574501 0.080302 -0.022992 -175882.000000 0 0 1
34.605236 -24.545709 0.093691 42.426678 -0.616944 1.568588 0.064213 -0.012057 -439542.000000 0 0 1
33.930396 -23.360309 0.380091 41.196120 -0.602951 1.561570 0.073035 -0.018595 -1425230.000000 0 0 1
32.447306 -23.435209 0.237591 40.026156 -0.625506 1.564860 0.044957 -0.009433 -1349650.000000 0 0 1
32.003866 -23.492209 -1.052609 39.714473 -0.633210 1.597304 0.048095 -0.016900 -506564.000000 0 0 1
30.604686 -23.457209 -1.145309 38.577185 -0.653951 1.600489 0.042956 -0.013063 27708.900000 0 0 1
30.024216 -23.516809 -2.583409 38.225226 -0.664451 1.638432 0.036320 -0.009835 -22305.600000 0 0 1
30.238986 -22.234409 -3.185709 37.668475 -0.634020 1.655470 0.056216 -0.022734 50930.000000 0 0 1
29.878466 -22.151909 -4.552509 37.472059 -0.637975 1.692588 0.048874 -0.040863 -132791.000000 0 0 1
29.855536 -20.741609 -5.132909 36.713951 -0.607182 1.711064 0.040517 -0.037705 433471.000000 0 0 1
28.972326 -19.940609 -4.336209 35.437640 -0.602806 1.693465 0.038195 -0.029680 281173.000000 0 0 1
29.045966 -18.583209 -4.680109 34.798093 -0.569162 1.705698 0.038542 -0.032587 183284.000000 0 0 1
28.251216 -17.683509 -3.641209 33.527543 -0.559274 1.679614 0.056876 -0.026082 249804.000000 0 0 1
28.800046 -17.378609 -2.337909 33.718312 -0.542933 1.640188 0.059616 -0.020175 252867.000000 0 0 1
29.292186 -18.508609 -1.540009 34.683893 -0.563518 1.615212 0.051880 -0.008965 265385.000000 0 0 1
28.356426 -19.775809 -1.329309 34.596772 -0.608980 1.609229 0.045957 -0.007108 773394.000000 0 0 1
27.251506 -19.448109 -0.460209 33.482613 -0.619830 1.584541 0.039107 0.009610 709346.000000 0 0 1
26.658746 -20.653409 0.017491 33.723173 -0.659143 1.570278 0.023014 0.008008 -538937.000000 0 0 1
25.639156 -20.420609 1.124691 32.796838 -0.672580 1.536497 0.015991 0.010838 -560074.000000 0 0 1
24.938156 -21.599009 1.570291 33.028695 -0.713769 1.523235 0.001393 0.018868 468414.000000 0 0 1
24.069656 -21.460809 2.686991 32.359460 -0.728162 1.487665 -0.008399 0.019921 1353380.000000 0 0 1
22.618956 -20.881409 2.388591 30.876461 -0.745476 1.493359 -0.026567 0.017356 449987.000000 0 0 1
22.563056 -19.568709 1.888091 29.926423 -0.714446 1.507663 0.003008 0.001423 166933.000000 0 0 1
22.728556 -18.588909 2.881691 29.503203 -0.685540 1.472967 0.016280 0.003134 -304762.000000 0 0 1
22.697256 -17.157409 2.277991 28.543500 -0.647282 1.490904 0.024023 0.003237 352493.000000 0 0 1
21.357156 -16.712409 2.106491 27.200553 -0.663991 1.493276 0.013732 0.004964 168108.000000 0 0 1
21.246456 -15.383309 1.602291 26.279754 -0.626679 1.509788 0.024777 -0.011921 -178818.000000 0 0 1
19.834656 -15.096509 1.079691 24.949628 -0.650579 1.527508 0.010628 -0.002187 -415356.000000 0 1 0
18.855056 -15.020109 2.091891 24.196959 -0.672670 1.484236 0.005453 0.000596 582845.000000 0 1 0
17.894356 -13.936209 1.884891 22.759146 -0.661683 1.487882 0.008219 -0.002153 136494.000000 0 1 0
18.312656 -12.480009 2.244891 22.274280 -0.598199 1.469841 0.020679 -0.006612 -380461.000000 0 1 0
19.213956 -11.844109 1.321391 22.609846 -0.552415 1.512320 0.021172 -0.009972 618034.000000 0 1 0
19.609956 -10.579809 1.842791 22.357966 -0.494755 1.488281 0.022899 -0.015334 -463000.000000 0 1 0
20.550656 -9.807209 0.934391 22.789996 -0.445259 1.529785 0.031122 -0.018108 -492328.000000 0 1 0
19.893056 -9.444309 -0.266509 22.022709 -0.443248 1.582898 0.033085 -0.013054 624708.000000 0 1 0
20.770556 -8.755909 -1.148209 22.569899 -0.398948 1.621692 0.038653 -0.008979 -89795.300000 0 1 0
20.136856 -8.466809 -2.538409 21.991439 -0.398022 1.686481 0.033645 -0.008481 50103.200000 0 1 0
21.014956 -7.835209 -3.501509 22.699768 -0.356875 1.725668 0.048973 -0.014269 1505570.000000 0 1 0
22.076956 -8.684409 -4.051709 24.067142 -0.374778 1.739952 0.051904 -0.016199 235644.000000 0 1 0
21.681956 -9.892609 -4.953209 24.341430 -0.428048 1.775716 0.038986 -0.010791 -717104.000000 0 1 0
21.309456 -9.464609 -6.215609 24.131008 -0.417979 1.831311 0.038330 -0.018237 464381.000000 0 1 0
19.919456 -9.181809 -6.321109 22.826449 -0.431920 1.851384 0.028809 -0.008988 24588.300000 0 1 0
19.424756 -9.151709 -7.862009 22.866704 -0.440291 1.921777 0.031791 -0.000684 -63079.100000 0 1 0
19.206856 -10.447409 -8.491509 23.455435 -0.498180 1.941238 0.028405 0.001765 550087.000000 0 1 0
20.312356 -10.880509 -9.259909 24.833913 -0.491767 1.952900 0.032187 0.002434 -69065.300000 0 1 0
20.190156 -12.424909 -9.596809 25.575761 -0.551662 1.955442 0.029708 -0.000414 -672191.000000 0 0 1
19.228356 -12.580509 -10.566709 25.291387 -0.579370 2.001817 0.045837 -0.001730 -386323.000000 0 0 1
19.106756 -13.899309 -11.079809 26.096381 -0.628916 2.009286 0.046268 0.006048 334520.000000 0 0 1
17.877956 -14.063209 -12.047409 25.739760 -0.666531 2.057875 0.042259 0.000792 617127.000000 0 0 1
17.628256 -15.442609 -12.330009 26.481290 -0.719404 2.055122 0.042605 -0.003615 294258.000000 0 0 1
16.628856 -15.676509 -13.319109 26.451285 -0.755927 2.098480 0.049075 -0.001762 80191.500000 0 0 1
16.399756 -17.133009 -13.691309 27.385105 -0.807261 2.094343 0.043250 -0.008358 -445654.000000 0 0 1
15.704356 -17.904509 -12.725909 27.002723 -0.850768 2.061541 0.039674 -0.006000 373262.000000 0 0 1
15.989956 -19.301709 -12.901709 28.190225 -0.878964 2.046165 0.034845 -0.005457 -530688.000000 0 0 1
15.059456 -20.202209 -12.081709 27.944305 -0.930223 2.017893 0.027269 -0.004941 314823.000000 0 0 1
13.713456 -20.070209 -12.539209 27.351489 -0.971384 2.047043 0.011669 -0.008192 302585.000000 0 0 1
12.775656 -20.643009 -11.648009 26.926332 -1.016606 2.018158 0.009269 -0.004573 -13798.100000 0 0 1
11.324556 -20.371809 -12.089809 26.256803 -1.063440 2.049293 0.008381 -0.006948 -266478.000000 0 0 1
10.446256 -21.174109 -11.348009 26.196269 -1.112482 2.018827 0.008757 -0.008022 -1615610.000000 0 0 1
9.143256 -20.928709 -11.707609 25.664725 -1.158910 2.044489 0.004599 -0.006609 -993138.000000 0 0 1
8.155156 -21.630209 -10.762409 25.499059 -1.210250 2.006525 0.006472 -0.009358 -314099.000000 0 0 1
8.215856 -23.044709 -10.839009 26.758981 -1.228327 1.987841 0.018553 -0.012919 -428593.000000 0 0 1
7.349556 -23.542509 -9.880009 26.568408 -1.268201 1.951820 0.017895 -0.015666 -312808.000000 0 0 1
7.336256 -25.106709 -9.800009 27.932198 -1.286508 1.929275 0.020627 -0.013941 -117170.000000 0 0 1
8.508856 -25.628849 -9.252809 28.545631 -1.250243 1.900900 0.018539 -0.009468 -769883.000000 0 0 1
8.717656 -26.912609 -9.768809 29.928510 -1.257537 1.903294 0.012438 -0.006675 -121052.000000 0 0 1
10.141256 -27.405109 -9.482309 30.721317 -1.216373 1.884576 0.012518 -0.003280 -188449.000000 0 0 1
10.376256 -27.634499 -8.113409 30.613064 -1.211603 1.839032 0.020459 -0.004959 -286437.000000 0 0 1
11.771456 -27.835899 -8.030009 31.271161 -1.170716 1.830492 0.027206 -0.003194 -151323.000000 0 0 1
12.133856 -28.153619 -6.495309 31.337610 -1.163865 1.779579 0.025677 -0.007926 -173.763000 0 0 1
11.660856 -29.322579 -5.846209 32.093105 -1.192296 1.753983 0.023097 -0.011711 507691.000000 0 0 1
10.238956 -29.396559 -5.682809 31.643139 -1.235633 1.751367 0.026897 -0.011808 516821.000000 0 0 1
9.801256 -30.485459 -4.687609 32.363584 -1.259728 1.716150 0.039787 -0.016670 25926.300000 0 0 1
10.075756 -31.828809 -5.001409 33.758082 -1.264216 1.719498 0.036377 -0.017426 349494.000000 0 0 1
9.258056 -32.341779 -6.112509 34.191594 -1.291995 1.750535 0.033598 -0.021277 771353.000000 0 0 1
9.525556 -33.861509 -6.330409 35.740903 -1.296574 1.748855 0.029724 -0.021591 -32980.500000 0 0 1
8.906556 34.226611 -5.279109 35.758309 1.316219 1.718971 0.031416 -0.021787 262984.000000 0 0 1
9.409156 32.938192 -5.327809 34.667597 1.292546 1.725090 0.037664 -0.020017 -61412.800000 0 0 1
8.821156 32.156719 -4.090109 33.594589 1.303065 1.692848 0.032137 -0.015059 16960.000000 0 0 1
7.439956 31.902769 -4.259509 33.034574 1.341684 1.700097 0.025793 -0.008702 -361533.000000 0 0 1
7.025556 30.987619 -3.264709 31.941342 1.347844 1.673185 0.010274 -0.004651 53754.300000 0 0 1
5.699056 30.293119 -3.633209 31.037921 1.384839 1.688122 0.006892 -0.009837 -12442.300000 0 0 1
5.692656 29.492859 -4.815309 30.420754 1.380123 1.729755 0.007484 -0.012355 96931.300000 0 0 1
5.112756 30.257669 -5.869909 31.242962 1.403404 1.759799 -0.000724 -0.012554 -311860.000000 0 0 1
5.270456 29.609759 -7.276909 30.942995 1.394644 1.808191 0.016708 -0.020661 -119274.000000 0 0 1
4.435756 28.468009 -7.471509 29.764525 1.416224 1.824531 0.013023 -0.024529 -52926.200000 0 0 1
4.972856 27.204209 -7.138309 28.561403 1.389995 1.823403 0.014213 -0.017145 -440370.000000 0 0 1
4.102656 26.052589 -7.661409 27.463911 1.414603 1.853510 0.014452 -0.019363 250978.000000 0 0 1
2.744356 26.030879 -7.214509 27.151193 1.465757 1.839743 0.015581 -0.017267 424101.000000 0 0 1
1.809856 26.696549 -8.062609 27.946144 1.503106 1.863462 0.021105 -0.020449 214658.000000 0 0 1
1.355256 25.813809 -9.310109 27.474854 1.518343 1.916501 0.033730 -0.026519 141470.000000 0 0 1
2.425556 25.605729 -10.253909 27.688975 1.476351 1.950155 0.022087 -0.024302 785521.000000 0 0 1
1.963256 24.793459 -11.360709 27.342928 1.491777 1.999278 0.036113 -0.023867 -546575.000000 0 0 1
1.853056 23.270629 -11.181109 25.883841 1.491333 2.017475 0.044958 -0.018733 56228.700000 0 0 1
0.790556 22.925229 -10.296709 25.143853 1.536326 1.992715 0.052806 -0.020106 273142.000000 0 0 1
0.698556 21.524029 -10.125009 23.796799 1.538353 2.010286 0.024598 -0.019577 -416871.000000 0 1 0
-0.458444 21.191929 -9.138709 23.082982 -1.549167 1.977851 0.033927 -0.009221 989798.000000 0 1 0
-1.715444 21.258429 -9.844509 23.489954 -1.490276 2.003244 0.043165 -0.009125 1519390.000000 0 1 0
-2.847444 20.923029 -8.966909 22.940936 -1.435536 1.972372 0.031955 -0.003641 1541780.000000 0 1 0
-4.236444 20.876129 -9.662509 23.390688 -1.370583 1.996643 0.048661 -0.006289 91120.600000 0 1 0
-5.061444 19.953729 -9.035909 22.481485 -1.322377 1.984416 0.027575 -0.016842 -570056.000000 0 1 0
-5.750744 19.180729 -9.962309 22.365577 -1.279506 2.032451 0.022495 -0.025380 -1445990.000000 0 1 0
-6.645444 18.147129 -9.243009 21.422265 -1.219765 2.016915 0.024552 -0.023180 -180725.000000 0 1 0
-7.645544 18.754729 -8.448909 21.944892 -1.183704 1.966010 0.035298 -0.015537 -722529.000000 0 1 0
-8.757444 19.179629 -9.178709 22.995645 -1.142466 1.981386 0.031507 -0.018746 -1396800.000000 0 1 0
-9.901544 19.286029 -8.158409 23.163573 -1.096482 1.930726 0.037875 -0.021632 -301798.000000 0 1 0
-10.262544 18.023229 -7.668709 22.112569 -1.053176 1.924957 0.035153 -0.020300 -657288.000000 0 1 0
-11.218544 18.254329 -6.675409 22.441866 -1.019733 1.872821 0.042146 -0.014918 -667333.000000 0 1 0
-11.658744 16.964729 -5.942309 21.425204 -0.968689 1.851833 0.026650 -0.022439 -497504.000000 0 1 0
-12.461344 17.343029 -4.883409 21.906927 -0.947748 1.795601 0.035268 -0.015570 -355005.000000 0 1 0
-12.848744 16.242829 -4.078709 21.108187 -0.901542 1.765248 0.023929 -0.015755 -682166.000000 0 1 0
-14.131344 16.576829 -3.329909 22.035753 -0.864867 1.722491 0.020724 -0.015601 -1057120.000000 0 1 0
-15.251144 16.566329 -4.168909 22.900228 -0.826710 1.753864 0.048249 -0.028978 -1077280.000000 0 1 0
-16.268144 17.071429 -3.372409 23.821405 -0.809488 1.712844 0.051532 -0.024124 -419735.000000 0 1 0
-17.603744 17.314329 -4.131909 25.034985 -0.777110 1.736600 0.056271 -0.029685 232566.000000 0 0 1
-17.495444 18.266429 -5.131209 25.808570 -0.806954 1.770948 0.051706 -0.032087 1449740.000000 0 0 1
-18.842644 18.558229 -5.640509 27.041975 -0.777794 1.780923 0.045349 -0.026790 1759880.000000 0 0 1
-18.966244 19.560529 -6.812809 28.084641 -0.800822 1.815822 0.043807 -0.017167 -477.290000 0 0 1
-18.722644 20.905529 -6.420009 28.788801 -0.840427 1.795691 0.049222 -0.019402 51444.800000 0 0 1
-18.880444 21.852429 -7.521209 29.842393 -0.858232 1.825575 0.039025 -0.009242 15282.400000 0 0 1
-18.797044 23.275429 -7.010409 30.728168 -0.891443 1.800966 0.048125 -0.013128 235950.000000 0 0 1
-17.495844 23.628929 -6.563109 30.124828 -0.933441 1.790421 0.054510 -0.014095 311458.000000 0 0 1
-17.483644 24.486599 -5.481109 30.582902 -0.950730 1.750991 0.053422 -0.022603 -10430.700000 0 0 1
-16.029644 24.840319 -5.102609 30.000459 -0.997727 1.741712 0.042750 -0.016592 -340362.000000 0 0 1
-15.997044 25.629349 -3.938409 30.467688 -1.012795 1.700424 0.038430 -0.016388 -371730.000000 0 0 1
-14.734244 26.109809 -3.579709 30.193284 -1.057027 1.689636 0.044559 -0.019008 -251166.000000 0 0 1
-14.268044 27.300509 -4.487909 31.129346 -1.089210 1.715470 0.043752 -0.013914 -512275.000000 0 0 1
-14.929744 28.469239 -4.246909 32.425778 -1.087807 1.702147 0.047054 -0.011228 -483097.000000 0 0 1
-14.385244 29.487369 -5.050609 33.195615 -1.116921 1.723536 0.038566 -0.007531 -462041.000000 0 0 1
-14.888244 30.880469 -4.748809 34.609455 -1.121551 1.708442 0.032362 -0.001170 -45496.200000 0 0 1
-16.236444 31.118459 -5.082709 35.465681 -1.089891 1.714605 0.048023 -0.001298 -121501.000000 0 0 1
-16.670644 32.434949 -4.765909 36.778393 -1.096034 1.700746 0.045266 -0.001614 29641.700000 0 0 1
12.477115 -8.633709 18.966173 24.288578 -0.605312 0.674742 0.038390 -0.003385 -213720.000000 0 1 0
12.367715 -10.003909 19.230373 24.956879 -0.680128 0.691102 0.035668 -0.007450 -106331.000000 0 1 0
13.082115 -10.775609 18.313173 24.952510 -0.689020 0.746719 0.045583 -0.008495 -293058.000000 0 1 0
13.316715 -12.247309 18.871173 26.142927 -0.743590 0.764330 0.060702 -0.021344 -694896.000000 0 0 1
14.441815 -12.264909 19.703873 27.335629 -0.704066 0.765822 0.053083 -0.020075 -6207.130000 0 0 1
14.713115 -13.427209 20.445673 28.544548 -0.739734 0.772351 0.052989 -0.021118 -286063.000000 0 0 1
15.482915 -14.439809 19.608273 28.856769 -0.750552 0.823711 0.043930 -0.017698 -1020380.000000 0 0 1
14.681115 -15.015209 18.626573 28.070284 -0.796648 0.845217 0.052713 -0.023736 113418.000000 0 0 1
15.366615 -15.898309 17.764073 28.362852 -0.802403 0.893979 0.049534 -0.026965 -329801.000000 0 0 1
14.810315 -15.763309 16.333073 27.103443 -0.816559 0.924016 0.043217 -0.024552 -394473.000000 0 0 1
13.510915 -16.265109 16.221473 26.650230 -0.877633 0.916400 0.077977 -0.032648 -328029.000000 0 0 1
13.108415 -16.162809 14.853973 25.567703 -0.889370 0.950881 0.088196 -0.045541 -367279.000000 0 0 1
12.329115 -17.383309 14.408173 25.725123 -0.953889 0.976312 0.057256 -0.027753 -390346.000000 0 0 1
13.156315 -18.487509 14.121773 26.726412 -0.952306 1.014102 0.051570 -0.024176 374584.000000 0 0 1
12.459715 -19.568209 13.524573 26.852809 -1.003805 1.042971 0.049481 -0.026799 -1159230.000000 0 0 1
13.526715 -20.431209 12.987073 27.732118 -0.985989 1.083426 0.052282 -0.027351 -314210.000000 0 0 1
14.445615 -20.939209 13.978873 29.026456 -0.966892 1.068327 0.033418 -0.028945 432304.000000 0 0 1
14.960715 -22.166909 13.495573 29.955389 -0.977107 1.103446 0.020869 -0.015388 -346567.000000 0 0 1
15.665715 -22.997709 14.553573 31.402480 -0.972809 1.088908 0.014979 -0.013033 -157871.000000 0 0 1
17.023615 -22.703409 14.811673 32.009903 -0.927406 1.089734 -0.009573 -0.012555 55869.800000 0 0 1
17.449015 -23.226509 16.066673 33.197542 -0.926493 1.065609 -0.007493 -0.009764 373751.000000 0 0 1
18.904115 -22.835209 16.446173 33.901164 -0.879303 1.064295 0.001141 -0.007418 -344124.000000 0 0 1
19.884615 -23.387209 15.688973 34.474677 -0.866166 1.098327 -0.000687 -0.025067 -1147810.000000 0 0 1
21.120915 -22.741309 15.892573 34.868812 -0.822324 1.097546 0.006538 -0.015060 -758894.000000 0 0 1
22.202915 -23.355809 15.063473 35.572060 -0.810698 1.133531 0.000408 -0.017845 -744480.000000 0 0 1
22.650215 -24.610909 15.595573 36.904620 -0.826861 1.134494 0.003035 -0.014946 931477.000000 0 0 1
23.814115 -25.158149 14.925073 37.720052 -0.812836 1.163988 0.006342 -0.014440 630629.000000 0 0 1
24.442115 -26.317159 15.739973 39.214240 -0.822321 1.157769 0.010675 -0.011341 -738053.000000 0 0 1
24.940815 -25.921759 16.977373 39.777042 -0.804682 1.129830 0.008114 -0.003683 -32075.600000 0 0 1
25.202215 -26.999899 17.812773 41.005379 -0.819822 1.121423 0.008901 0.004077 -141570.000000 0 0 1
25.572415 -26.646849 19.283673 41.663689 -0.805971 1.089599 0.001246 0.007913 -42387.100000 0 0 1
24.497515 -26.116439 20.054573 41.041230 -0.817373 1.060261 0.002745 0.011295 441575.000000 0 0 1
24.874615 -25.829829 21.406173 41.763031 -0.804235 1.032630 -0.003737 0.020046 -1265090.000000 0 0 1
23.690715 -25.847329 22.296773 41.550938 -0.828905 1.004378 -0.003447 0.016018 -1042480.000000 0 0 1
23.158515 -27.161289 22.289973 42.082007 -0.864778 1.012574 -0.002006 0.015880 81063.300000 0 0 1
22.043715 -27.267149 23.159573 42.021288 -0.890933 0.987068 0.007579 0.012147 -85276.300000 0 0 1
21.608315 -28.748379 23.081273 42.733286 -0.926249 1.000212 0.033369 0.010955 -588201.000000 0 0 1
22.442515 -29.627549 23.783163 44.125922 -0.922520 1.001566 0.027889 0.005875 206299.000000 0 0 1
22.356015 -31.040279 23.411973 44.848755 -0.946624 1.021578 0.041155 0.002259 -864032.000000 0 0 1
23.550515 -31.764879 23.967653 46.239406 -0.932821 1.025890 0.010473 0.014080 -748607.000000 0 0 1
23.455515 -31.825219 25.364993 46.972211 -0.935661 1.000359 0.014002 0.011342 412222.000000 0 0 1
24.538015 -32.578579 25.888593 48.308356 -0.925254 1.005219 0.032220 0.005231 -728656.000000 0 0 1
24.430515 -33.059639 27.323243 49.359390 -0.934383 0.984167 0.034724 -0.006104 -181982.000000 0 0 1
23.695615 -34.219667 27.527823 49.902393 -0.965151 0.986475 0.015814 0.004544 344781.000000 0 0 1
22.333115 -34.305263 27.148423 49.118794 -0.993710 0.985184 0.016839 0.011141 -453864.000000 0 0 1
21.509215 33.395387 27.715263 48.435875 0.998596 0.961604 0.057935 -0.012684 -232014.000000 0 0 1
21.124015 33.502814 29.082213 49.136927 1.008241 0.937431 0.053801 -0.002287 264168.000000 0 0 1
20.413715 32.312119 29.438173 48.243122 1.007346 0.914478 0.053016 -0.009618 -137858.000000 0 0 1
19.949015 32.474469 30.928813 49.083050 1.019930 0.889073 0.041822 -0.018930 -552469.000000 0 0 1
20.983115 32.609639 31.864433 50.189857 0.999030 0.882946 0.025830 -0.001869 -324323.000000 0 0 1
20.598715 32.818019 33.179224 51.011668 1.010283 0.862654 0.016321 -0.004936 -587806.000000 0 0 1
21.764315 32.713149 34.161569 52.065807 0.983735 0.855127 0.010187 0.010746 -56065.000000 0 0 1
22.219015 31.376229 -34.410162 51.596624 0.954623 2.300847 0.018186 0.004844 514672.000000 0 0 1
23.382915 31.344929 -33.573419 51.540661 0.929868 2.280220 0.021395 0.010632 307312.000000 0 0 1
24.038115 29.989139 -33.508129 50.989942 0.895104 2.287830 0.031434 -0.000092 -505809.000000 0 0 1
24.450615 29.438509 34.122474 51.271840 0.877694 0.842605 0.036382 -0.001183 192958.000000 0 0 1
23.720615 28.241719 33.995920 50.159593 0.872187 0.826091 0.035266 -0.006835 6419.130000 0 0 1
24.070815 27.406159 32.703613 48.990080 0.850101 0.839875 0.048994 -0.017791 347900.000000 0 0 1
25.285215 26.671819 32.831021 49.280868 0.812079 0.841692 0.041471 -0.016812 337333.000000 0 0 1
25.480915 25.901479 31.642753 48.181194 0.793583 0.854302 0.057088 -0.021925 -730028.000000 0 0 1
26.749615 25.096709 31.828013 48.563454 0.753528 0.856097 0.040324 -0.013308 -635688.000000 0 0 1
26.685915 24.270789 32.947214 48.854152 0.738038 0.830645 0.051927 -0.017421 384775.000000 0 0 1
27.434315 24.851219 34.040229 50.288785 0.736035 0.827260 0.047993 -0.023298 -878617.000000 0 0 1
27.253715 24.099389 -33.427529 49.405923 0.724051 2.313917 0.037649 -0.025260 -1042500.000000 0 0 1
26.024115 24.283259 -32.807049 48.406959 0.750808 2.315473 0.033713 -0.024162 195125.000000 0 0 1
24.863715 23.725429 -33.434039 47.947214 0.761976 2.342433 0.044656 -0.022866 -62791.500000 0 0 1
24.840915 22.209929 -33.283139 47.096915 0.729538 2.355612 0.039454 -0.022851 -905310.000000 0 0 1
24.535615 21.775029 -31.989249 45.819869 0.725858 2.343610 0.021706 -0.031507 332341.000000 0 0 1
24.391515 20.403229 -31.901669 45.043915 0.696598 2.357791 0.023259 -0.022542 -411285.000000 0 0 1
24.146515 19.801229 -30.493929 43.646564 0.686845 2.344313 0.024441 -0.021341 -875072.000000 0 0 1
22.883015 19.999029 -29.951519 42.669509 0.718245 2.348917 0.024269 -0.021876 -412629.000000 0 0 1
22.816015 19.328329 -28.664849 41.422559 0.702831 2.335067 0.025817 -0.024194 -164791.000000 0 0 1
21.457715 19.493929 -27.950929 40.270352 0.737481 2.337940 0.037341 -0.033500 -187925.000000 0 0 1
21.396715 18.916929 -26.648589 39.061707 0.723963 2.321588 0.038303 -0.025396 -38066.700000 0 0 1
22.045615 19.688029 -25.656599 39.139350 0.728967 2.285666 0.036171 -0.027254 -424736.000000 0 0 1
22.262815 18.797729 -24.402909 38.006441 0.701208 2.267996 0.042113 -0.018224 -226326.000000 0 0 1
23.152015 17.704529 -24.508809 38.080807 0.652848 2.269989 0.045445 -0.027338 334743.000000 0 0 1
23.197515 17.019729 -23.272809 37.005669 0.632979 2.250932 0.048886 -0.027272 -474162.000000 0 0 1
23.985315 15.722729 -23.472309 37.060071 0.580242 2.256682 0.050286 -0.029098 464261.000000 0 0 1
25.409415 15.984829 -23.609109 38.190878 0.561536 2.237231 0.056406 -0.031411 1399500.000000 0 0 1
26.171315 14.817829 -23.855809 38.387568 0.515185 2.241384 0.057920 -0.028885 -8951.620000 0 0 1
26.387015 13.854129 -22.697309 37.461704 0.483475 2.221668 0.052088 -0.024352 -744324.000000 0 0 1
25.162015 13.276729 -22.301609 36.149140 0.485522 2.235636 0.047510 -0.022150 106074.000000 0 0 1
25.173015 12.750529 -21.011809 35.181711 0.468847 2.210848 0.036192 -0.020344 -388332.000000 0 0 1
23.819515 12.078629 -20.752309 33.821900 0.469303 2.231378 0.030056 -0.012645 433524.000000 0 0 1
22.763215 13.051229 -20.576609 33.345095 0.520591 2.235824 0.044838 -0.016102 167040.000000 0 0 1
21.604015 12.553329 -21.221209 32.781996 0.526380 2.274890 0.041238 -0.018165 266327.000000 0 0 1
20.466215 13.620129 -21.283409 32.517032 0.587190 2.284359 0.048604 -0.020128 -251849.000000 0 0 1
20.777615 14.757329 -22.063409 33.708783 0.617573 2.284357 0.045915 -0.014675 421280.000000 0 0 1
19.876015 15.854029 -21.860309 33.530275 0.673304 2.280959 0.045962 -0.018376 524143.000000 0 0 1
18.484815 15.800829 -22.550809 33.164643 0.707274 2.318512 0.040712 -0.011251 511947.000000 0 0 1
17.542115 14.844429 -22.028609 31.833041 0.702294 2.335058 0.029247 -0.009655 206801.000000 0 0 1
16.405215 14.846929 -22.838109 31.798453 0.735578 2.372029 0.030827 -0.015775 -440265.000000 0 0 1
15.116315 14.245729 -22.246209 30.435795 0.755757 2.390469 0.008565 -0.009143 -58523.600000 0 0 1
14.017815 14.518929 -23.080609 30.659631 0.802957 2.423104 0.018023 -0.007636 -206049.000000 0 0 1
12.841015 13.942529 -22.527909 29.441340 0.826502 2.442116 0.031870 -0.010868 297845.000000 0 0 1
11.548815 14.126329 -23.358909 29.640630 0.885452 2.478465 0.029740 -0.001439 -136486.000000 0 0 1
11.266515 15.498429 -23.360309 30.213237 0.942214 2.454639 0.006452 -0.001568 120626.000000 0 0 1
10.959615 16.026929 -24.657909 31.384520 0.971009 2.474576 0.015571 -0.009870 -751753.000000 0 0 1
10.800815 17.585729 -24.603909 32.113359 1.020015 2.443638 0.009985 0.001025 665820.000000 0 0 1
12.058015 18.253929 -24.311309 32.705373 0.987026 2.408851 0.005174 -0.004333 1470440.000000 0 0 1
13.185115 18.087029 -25.181349 33.691070 0.940883 2.414965 0.012856 -0.007609 37759.600000 0 0 1
12.906215 18.277829 -26.683849 34.823515 0.955979 2.443796 0.011433 -0.022381 -1359880.000000 0 0 1
13.944115 17.908429 -27.513559 35.667157 0.909220 2.451831 0.008356 -0.019723 -584338.000000 0 0 1
13.428315 17.621529 -28.783269 36.322369 0.919634 2.485594 0.013464 -0.019312 12851.700000 0 0 1
14.395315 17.836429 -29.990549 37.746475 0.891757 2.489023 0.013860 -0.008277 -171195.000000 0 0 1
15.405515 16.868129 -30.078339 37.769964 0.830686 2.492043 0.009906 -0.006868 -448547.000000 0 0 1
16.173915 17.159229 -31.215289 39.120697 0.814949 2.494637 0.013165 -0.003329 -318805.000000 0 0 1
17.443215 16.299829 -31.366539 39.418396 0.751526 2.491014 0.013826 -0.004325 -553841.000000 0 0 1
18.504715 16.697029 -30.567449 39.440895 0.734091 2.457542 0.013163 -0.006583 -523948.000000 0 0 1
19.656315 15.918829 -30.760869 39.824752 0.680723 2.453417 0.020101 -0.006883 665078.000000 0 0 1
20.912215 16.693429 -31.329279 41.200911 0.673680 2.434729 0.027961 -0.007844 315415.000000 0 0 1
20.818415 17.158529 -32.668209 42.367835 0.689324 2.451303 0.029627 -0.005078 -11476.800000 0 0 1
21.884715 18.026529 -32.925539 43.450980 0.689028 2.430674 0.034806 0.000334 -391946.000000 0 0 1
21.953015 18.248829 34.407679 44.708422 0.693518 0.692579 0.017852 0.010261 -2247.920000 0 0 1
22.917615 19.209729 34.015138 45.290842 0.697608 0.721164 0.023273 0.009923 380508.000000 0 0 1
22.776215 19.408929 32.610963 44.259884 0.705745 0.742462 0.031506 0.005095 -546777.000000 0 0 1
23.670115 20.551429 32.116033 44.878448 0.714991 0.773281 0.039426 0.007134 739142.000000 0 0 1
25.065515 20.166329 32.156443 45.486236 0.677506 0.785621 0.026078 0.000968 569830.000000 0 0 1
25.804315 21.343429 31.909113 46.255768 0.691064 0.809527 0.028882 -0.005865 -1378110.000000 0 0 1
27.262115 21.003929 31.879673 46.911635 0.656457 0.823622 0.033197 -0.001335 -1341680.000000 0 0 1
27.842415 20.764829 33.171179 48.028172 0.640807 0.808394 0.017989 -0.006240 231653.000000 0 0 1
29.207815 20.424029 32.973880 48.554239 0.610233 0.824241 0.007311 -0.001074 5186.980000 0 0 1
29.799815 19.735429 34.170012 49.448011 0.584950 0.807885 0.003398 0.004739 -375715.000000 0 0 1
29.907515 20.565129 -33.589879 49.453655 0.602372 2.317495 0.001078 -0.006148 149072.000000 0 0 1
28.832215 20.376229 -32.690549 48.116103 0.615220 2.317754 0.001852 -0.011755 -74827.300000 0 0 1
29.231715 20.728329 -31.252169 47.548448 0.616810 2.287987 0.015030 -0.020257 -14101.900000 0 0 1
30.242515 19.902629 -30.722329 47.482480 0.582049 2.274472 0.017250 -0.020494 -283383.000000 0 0 1
30.768815 20.358329 -29.541389 47.263889 0.584525 2.245967 0.013469 -0.015243 -667773.000000 0 0 1
32.189915 19.827829 -29.394309 47.889026 0.552075 2.231662 0.027140 -0.003816 -267566.000000 0 0 1
33.121415 20.313629 -30.390519 49.328038 0.550147 2.234566 0.019294 -0.010997 -222447.000000 0 0 1
34.362115 20.244929 -29.751559 49.757084 0.532414 2.211720 0.029359 0.001343 -124951.000000 0 0 1
35.496415 21.130229 -30.381899 51.279059 0.536940 2.204932 0.020112 -0.004587 334055.000000 0 0 1
-35.317827 20.584529 -31.575869 51.653724 -0.527704 2.228497 0.019780 -0.008345 -817094.000000 0 0 1
-34.230127 21.345229 -31.943979 51.456177 -0.557578 2.240559 0.019383 -0.010772 -1160880.000000 0 0 1
-33.338027 20.637229 -32.930289 51.202766 -0.554295 2.269382 0.017901 -0.013742 -854913.000000 0 0 1
-32.769627 19.544729 -32.350129 50.023752 -0.537789 2.274040 0.027722 -0.011882 -308867.000000 0 0 1
-31.746727 19.099529 -33.198959 49.747538 -0.541611 2.301440 0.022596 -0.007941 27440.900000 0 0 1
-31.021227 17.754129 -32.945149 48.609757 -0.519819 2.315491 0.016095 0.001329 346174.000000 0 0 1
-31.957027 16.676929 -32.971789 48.851923 -0.480978 2.311671 0.019742 -0.001043 335301.000000 0 0 1
-31.338227 15.426029 -33.022639 48.068093 -0.457423 2.328145 0.011116 0.002931 -194486.000000 0 0 1
-32.366927 14.338429 -33.409369 48.676426 -0.417014 2.327263 0.017646 0.001404 -2533.440000 0 0 1
-31.907527 13.006329 -33.520009 48.071258 -0.387063 2.342418 0.018195 -0.004314 286814.000000 0 0 1
-33.028627 12.137629 -33.654929 48.691544 -0.352169 2.333926 0.013384 -0.003708 126347.000000 0 0 1
-32.671627 10.629429 -33.763469 48.170445 -0.314541 2.347478 0.018076 -0.001072 4065.980000 0 0 1
-31.958527 10.234329 33.878089 47.684524 -0.309919 0.780640 0.013163 -0.001541 491291.000000 0 0 1
-32.150827 8.865929 33.615760 47.352927 -0.269073 0.781443 0.025560 -0.009448 -281148.000000 0 0 1
-31.156927 8.382529 32.555043 45.835049 -0.262819 0.780921 0.032561 -0.008663 513399.000000 0 0 1
-29.851227 8.165529 33.115021 45.325227 -0.267009 0.751583 0.017288 0.001529 463260.000000 0 0 1
-29.092327 7.450229 32.152583 43.996113 -0.250701 0.751296 0.029063 -0.001421 -182284.000000 0 0 1
20.238415 -3.999209 -31.627029 37.760510 -0.195091 2.563614 0.023678 -0.016799 -225039.000000 0 0 1
21.353215 -4.244809 -32.462829 39.087255 -0.196232 2.550841 0.029094 -0.019903 -168203.000000 0 0 1
22.424215 -3.345109 -32.255999 39.426953 -0.148082 2.528931 0.022232 -0.015840 -69782.300000 0 0 1
22.300915 -1.853209 -32.544549 39.495732 -0.082910 2.539234 0.025561 -0.016017 -1287530.000000 0 0 1
23.394415 -1.138909 -32.090899 39.729354 -0.048645 2.511101 0.028163 -0.021452 -516263.000000 0 0 1
23.178815 0.263591 -32.262219 39.726285 0.011372 2.518560 0.024960 -0.023976 -263394.000000 0 0 1
24.161315 1.244491 -31.589349 39.789507 0.051462 2.488012 0.023659 -0.020963 740523.000000 0 0 1
25.464315 1.228391 -32.191719 41.063939 0.048202 2.471785 0.028453 -0.025283 249738.000000 0 0 1
26.396215 1.983791 -31.466739 41.119962 0.075013 2.442214 0.025231 -0.021247 -418634.000000 0 0 1
27.801815 1.992191 -32.066749 42.487482 0.071535 2.426045 0.023499 -0.022789 -373088.000000 0 0 1
28.003915 2.511991 -33.391119 43.651990 0.089462 2.441743 0.025886 -0.023925 -49330.900000 0 0 1
28.332315 1.536091 -34.360731 44.561637 0.054164 2.451337 0.022006 -0.024041 -226532.000000 0 0 1
28.867315 2.157591 33.182887 44.034998 0.074603 0.717340 0.021559 -0.027455 -158498.000000 0 0 1
27.982815 3.031891 32.517643 43.007294 0.107927 0.713469 0.014809 -0.015752 168092.000000 0 0 1
28.309515 4.387791 32.842823 43.581330 0.153770 0.717277 0.025820 -0.008800 -123.008000 0 0 1
27.400115 5.404991 32.110863 42.556876 0.194761 0.715844 0.021380 -0.003935 -135937.000000 0 0 1
27.666015 6.724991 32.360123 43.102336 0.238453 0.721563 0.031622 -0.010093 -193527.000000 0 0 1
27.216815 7.567891 31.325833 42.182173 0.271208 0.733804 0.029118 -0.007580 -206625.000000 0 0 1
27.421015 9.086691 31.533913 42.765262 0.319989 0.741625 0.023767 -0.007636 -99816.700000 0 0 1
28.781115 9.419991 31.450243 43.660125 0.316309 0.766500 0.026968 -0.011355 -360477.000000 0 0 1
29.040715 10.765491 31.616003 44.258677 0.354998 0.775107 0.025202 -0.007140 -24952.400000 0 0 1
30.428715 11.226691 31.106063 44.939208 0.353457 0.806290 0.034183 -0.002119 -685552.000000 0 0 1
31.506715 10.656491 31.817133 46.027859 0.326150 0.807568 0.032793 -0.013642 -258890.000000 0 0 1
32.777515 10.937291 31.316593 46.633880 0.322065 0.834509 0.037472 -0.011123 -285167.000000 0 0 1
33.227115 12.422691 31.373543 47.356769 0.357781 0.846654 0.033723 -0.006326 -1449410.000000 0 0 1
33.589415 12.831791 32.654143 48.571562 0.364910 0.833499 0.035881 -0.007892 108559.000000 0 0 1
33.881515 14.206691 32.735563 49.207765 0.397037 0.842965 0.038846 0.000928 492735.000000 0 0 1
32.613415 15.141191 32.660243 48.575528 0.434651 0.833404 0.028518 -0.002211 -140479.000000 0 0 1
32.117315 15.377291 31.351463 47.443621 0.446532 0.848892 0.028260 -0.006797 94367.000000 0 0 1
31.132315 16.394891 31.308203 47.097951 0.484716 0.843642 0.024253 -0.002527 834823.000000 0 0 1
29.698515 15.841391 31.643903 46.198355 0.490015 0.816251 0.021829 0.003020 166591.000000 0 0 1
29.109015 14.895891 30.739093 44.878883 0.472986 0.816283 0.017474 0.014778 852661.000000 0 0 1
27.788415 14.474591 31.110133 44.153710 0.480216 0.788955 0.003796 0.018844 745650.000000 0 0 1
27.005115 13.833491 29.929743 42.619610 0.473403 0.792239 0.008925 0.019361 9639.650000 0 0 1
27.567815 12.652291 29.366303 42.219008 0.430273 0.801582 0.019361 0.007465 -1787.810000 0 0 1
26.829315 12.281891 28.241463 40.844059 0.429304 0.807308 0.016676 -0.005261 -174947.000000 0 0 1
26.652815 10.778291 27.985753 40.121645 0.384290 0.798862 0.018450 0.004467 -511891.000000 0 0 1
27.751015 10.110791 27.460003 40.328633 0.349392 0.821798 0.026778 -0.004261 -273625.000000 0 0 1
27.382915 8.759991 27.302633 39.648395 0.309619 0.811214 0.031133 -0.011409 56000.100000 0 0 1
28.538215 7.919591 26.734763 39.898586 0.270697 0.836496 0.035151 -0.016211 -372229.000000 0 0 1
28.966015 8.324891 25.501363 39.479784 0.279859 0.868549 0.034857 -0.007918 578645.000000 0 0 1
29.974115 7.345891 25.128103 39.797377 0.240338 0.887438 0.035112 -0.003814 818901.000000 0 0 1
30.732115 7.599591 23.781653 39.595248 0.242422 0.926521 0.043796 -0.004066 469144.000000 0 0 1
31.418315 8.870691 23.537173 40.246716 0.275179 0.946135 0.039454 -0.006417 378512.000000 0 0 1
30.628715 10.008691 23.285273 39.755452 0.315836 0.945037 0.047631 -0.013672 -542767.000000 0 0 1
30.191215 10.156391 21.813573 38.606912 0.324510 0.970342 0.032260 0.002706 -45891.200000 0 0 1
31.167215 10.366291 20.816073 38.886555 0.321093 1.005930 0.030534 -0.008608 133403.000000 0 0 1
30.585415 10.094091 19.541173 37.672479 0.318774 1.025452 0.031705 -0.008196 -512033.000000 0 0 1
31.362215 10.691891 18.351773 37.877336 0.328560 1.064999 0.042426 -0.031972 415222.000000 0 0 1
32.536815 9.989891 17.984473 38.495240 0.297897 1.084690 0.046090 -0.028740 -87634.800000 0 0 1
33.703415 10.239691 18.707473 39.884094 0.294955 1.082586 0.061939 -0.018001 -743832.000000 0 0 1
35.000915 9.674191 18.105273 40.576531 0.269666 1.108281 0.060877 -0.028660 -368739.000000 0 0 1
34.910515 8.311991 17.923373 40.113346 0.233742 1.107591 0.062059 -0.021220 -147486.000000 0 0 1
-35.416227 7.848591 17.094173 40.101374 -0.218085 1.130427 0.063659 -0.012586 -805312.000000 0 0 1
-35.459827 6.332791 16.901273 39.788900 -0.176727 1.132085 0.058586 -0.006678 -313941.000000 0 0 1
34.740015 5.806191 16.249773 38.789632 0.165602 1.138540 0.040008 -0.003412 -132585.000000 0 0 1
34.851515 4.460091 15.834973 38.539160 0.127282 1.147377 0.034013 -0.000341 -50527.700000 0 0 1
33.653415 3.508291 16.132973 37.485107 0.103872 1.125879 0.029647 -0.007896 96221.700000 0 0 1
33.552315 3.046991 17.487173 37.958440 0.090565 1.092021 0.040945 0.004519 -5252.860000 0 0 1
32.358215 2.314891 17.664073 36.938222 0.071418 1.072186 0.030546 0.004321 21443.800000 0 0 1
32.273415 1.411491 18.939873 37.447088 0.043708 1.040514 0.030182 -0.004674 261480.000000 0 0 1
33.238815 0.362691 18.959473 38.267636 0.010911 1.052450 0.032759 0.000243 303654.000000 0 0 1
32.978515 -0.492909 20.040173 38.593185 -0.014945 1.024803 0.039674 -0.005140 311652.000000 0 0 1
33.542315 -1.913209 19.813173 39.003962 -0.056977 1.037960 0.044382 -0.000426 149477.000000 0 0 1
33.156815 -2.686609 20.927873 39.300993 -0.080851 1.009242 0.051804 -0.001783 739.581000 0 0 1
33.721415 -3.959509 20.933073 39.887405 -0.116883 1.018311 0.033300 -0.007885 -173483.000000 0 0 1
33.249315 -4.825809 22.123873 40.227741 -0.144134 0.988473 0.038515 -0.004368 -222285.000000 0 0 1
33.800715 -4.329709 23.299773 41.280917 -0.127401 0.971066 0.040444 -0.005560 111470.000000 0 0 1
33.201215 -4.814209 24.485473 41.533548 -0.143997 0.940314 0.041007 -0.016987 -128563.000000 0 0 1
33.666315 -4.104509 25.779673 42.601165 -0.121319 0.920855 0.028347 -0.012864 -692731.000000 0 0 1
32.824415 -4.234809 26.852853 42.619849 -0.128305 0.889172 0.038923 -0.011499 -578666.000000 0 0 1
33.139215 -3.484109 28.014683 43.533539 -0.104751 0.871709 0.027500 -0.014817 216695.000000 0 0 1
32.136215 -3.847209 29.169863 43.570841 -0.119149 0.837286 0.036926 -0.024445 510152.000000 0 0 1
32.318615 -5.238409 29.466413 44.047738 -0.160689 0.837980 0.034986 -0.020378 -529819.000000 0 0 1
31.327715 -5.671009 30.316953 43.962526 -0.179083 0.809847 0.044188 -0.025944 -706992.000000 0 0 1
31.438415 -7.144509 30.711103 44.526282 -0.223459 0.809681 0.039250 -0.022532 73007.200000 0 0 1
32.612415 -7.454609 31.432963 45.903943 -0.224721 0.816529 0.031602 -0.019507 -160333.000000 0 0 1
33.112115 -8.729309 31.159483 46.298233 -0.257764 0.832516 0.018479 -0.014586 499953.000000 0 0 1
34.435415 -8.938909 31.970513 47.831115 -0.253979 0.838735 0.023297 -0.007667 536432.000000 0 0 1
34.163615 -9.140309 33.367673 48.622005 -0.261422 0.814452 0.017525 -0.011421 323239.000000 0 0 1
35.383515 -9.329409 34.051035 49.985037 -0.257798 0.821362 0.005184 -0.007304 49567.800000 0 0 1
35.164315 -9.730509 -33.253709 49.366193 -0.269960 2.309883 0.021098 -0.013844 16650.400000 0 0 1
34.454615 -8.822309 -32.398459 48.110433 -0.250670 2.309620 0.019819 -0.015022 551721.000000 0 0 1
35.099915 -7.579009 -32.159499 48.204552 -0.212662 2.301168 0.002172 -0.008468 -40125.300000 0 0 1
34.270315 -6.659509 -31.243609 46.850471 -0.191931 2.300809 0.018591 -0.007843 -96991.900000 0 0 1
34.616515 -6.909909 -29.911399 46.268151 -0.197024 2.273757 0.017585 -0.000196 195890.000000 0 0 1
34.119115 -5.928809 -29.022039 45.183443 -0.172050 2.268312 0.023253 -0.008087 -679886.000000 0 0 1
34.807815 -5.922409 -27.687389 44.869259 -0.168532 2.235808 0.029031 -0.006096 -773613.000000 0 0 1
-35.203627 -5.492209 -27.770289 45.173539 0.154765 2.232861 0.035299 -0.008964 -814591.000000 0 0 1
-34.837327 -4.942409 -26.555249 44.082287 0.140931 2.217303 0.039180 -0.003230 -334649.000000 0 0 1
-33.340627 -4.923909 -26.235539 42.710020 0.146625 2.232258 0.048164 -0.004602 -762381.000000 0 0 1
-32.990227 -4.279409 -25.030309 41.631536 0.128997 2.215841 0.056362 -0.005938 765795.000000 0 0 1
-31.584427 -4.159009 -24.779209 40.359418 0.130926 2.231868 0.065214 -0.005321 1142800.000000 0 0 1
-30.720827 -3.143709 -25.612979 40.120778 0.101977 2.263210 0.039591 -0.007866 -111182.000000 0 0 1
-30.500227 -3.645909 -26.907049 40.835595 0.118973 2.290167 0.044353 -0.002044 -76798.600000 0 0 1
-29.481927 -2.916709 -27.548869 40.455301 0.098611 2.319883 0.033137 -0.001151 45289.800000 0 0 1
-29.046027 -3.522609 -28.900399 41.125582 0.120687 2.350031 0.031380 -0.010917 -38739.300000 0 0 1
-30.143327 -3.592309 -29.792049 42.533411 0.118615 2.346808 0.046243 -0.015125 747.332000 0 0 1
-29.805027 -4.341209 -30.901329 43.151800 0.144637 2.369006 0.037461 -0.008599 -711085.000000 0 0 1
-31.054427 -4.517709 -31.812289 44.685667 0.144464 2.363014 0.031862 -0.010897 -227202.000000 0 0 1
-32.014527 -5.444909 -31.336879 45.128450 0.168464 2.338372 0.036780 -0.008160 178971.000000 0 0 1
-32.790927 -4.973209 -30.245909 44.886442 0.150517 2.310179 0.038505 -0.012248 -700360.000000 0 0 1
-33.958327 -3.957509 -30.506729 45.820196 0.116017 2.299351 0.041200 -0.014704 -478075.000000 0 0 1
-33.682827 -2.789009 -31.246489 46.028844 0.082614 2.316986 0.034110 -0.012557 -197229.000000 0 0 1
-33.087727 -1.756309 -30.437649 44.992586 0.053031 2.313801 0.034608 -0.007370 -100126.000000 0 0 1
-32.661927 -0.531009 -31.263289 45.215890 0.016256 2.334253 0.023273 -0.004893 215098.000000 0 0 1
-33.733327 0.196891 -31.852849 46.395906 -0.005837 2.327522 0.030122 -0.005530 81145.000000 0 0 1
-33.283427 1.435491 -32.358449 46.442614 -0.043103 2.341640 0.028761 -0.004255 182161.000000 0 0 1
-34.429227 2.373591 -32.825139 47.628724 -0.068832 2.331164 0.021693 -0.005607 216025.000000 0 0 1
-35.011627 1.902891 -34.029329 48.861337 -0.054297 2.341231 0.027358 -0.007781 -826923.000000 0 0 1
34.991115 2.288291 -34.072489 48.893240 0.065303 2.341828 0.013430 -0.008754 -395188.000000 0 0 1
34.198415 1.762091 33.474347 47.887038 0.051480 0.796760 0.024381 -0.014504 327402.000000 0 0 1
34.624015 2.233291 32.190113 47.328779 0.064412 0.822845 0.021323 -0.008484 437600.000000 0 0 1
-35.630727 1.485491 31.623393 47.663344 -0.041667 0.845344 0.020236 -0.007655 59358.400000 0 0 1
-35.377227 1.670091 30.125503 46.496057 -0.047173 0.865952 0.026335 -0.009574 -71660.300000 0 0 1
-34.818127 2.958291 29.861103 45.964539 -0.084761 0.863666 0.031958 -0.014621 320295.000000 0 0 1
-34.436827 3.118691 28.505153 44.812554 -0.090316 0.881366 0.032575 -0.016692 156574.000000 0 0 1
-34.015327 4.606091 28.232383 44.444639 -0.134594 0.882495 0.038625 -0.007857 -131552.000000 0 0 1
-33.400527 4.757891 26.985723 43.202569 -0.141498 0.896136 0.040138 -0.003239 -90027.900000 0 0 1
-32.751627 5.941391 26.829223 42.752501 -0.179456 0.892397 0.040145 -0.002097 -921650.000000 0 0 1
-32.052327 6.018191 25.509733 41.404308 -0.185600 0.906998 0.039218 0.000645 -306608.000000 0 0 1
-30.898027 5.196591 25.452303 40.367218 -0.166626 0.888574 0.033851 -0.000570 500401.000000 0 0 1
-29.999327 5.365591 24.365363 39.018202 -0.176986 0.896355 0.034171 -0.000568 133750.000000 0 0 1
-30.485727 4.993791 22.921673 38.467136 -0.162365 0.932439 0.044629 -0.006261 -133122.000000 0 0 1
-30.486827 3.644691 22.765573 38.223052 -0.118985 0.932786 0.037528 -0.007847 -9679.630000 0 0 1
-31.178627 3.296891 21.587273 38.065556 -0.105351 0.967806 0.055482 -0.008712 -135833.000000 0 0 1
-31.180627 1.754591 21.343973 37.826912 -0.056213 0.971267 0.048908 -0.007841 781668.000000 0 0 1
-29.961827 1.264791 20.737173 36.460130 -0.042188 0.965795 0.047493 -0.001790 742466.000000 0 0 1
-29.816627 1.574091 19.354673 35.582472 -0.052743 0.995673 0.050735 0.004157 -39955.300000 0 0 1
-28.490727 1.265291 18.595773 34.045928 -0.044381 0.992979 0.047992 0.008154 121059.000000 0 0 1
-28.406027 -0.162609 18.407473 33.849134 0.005724 0.995827 0.048641 0.004496 -122984.000000 0 0 1
-27.227627 -0.594609 17.795473 32.532692 0.021835 0.992017 0.046507 0.001567 -681110.000000 0 0 1
-27.228127 -0.566109 16.239773 31.708383 0.020788 1.033098 0.058939 0.008416 -206891.000000 0 0 1
-27.133827 0.797391 15.804373 31.411122 -0.029379 1.043561 0.057733 0.010165 274305.000000 0 0 1
-27.163227 0.880691 14.409273 30.761073 -0.032411 1.083288 0.064338 0.007522 -63997.200000 0 0 1
-26.574027 2.208091 13.920073 30.080276 -0.082902 1.089686 0.060710 0.004826 444644.000000 0 0 1
-25.152327 2.305091 13.911473 28.835431 -0.091390 1.067354 0.061341 -0.000722 605404.000000 0 0 1
-24.742427 3.596191 13.492173 28.410544 -0.144334 1.075946 0.063858 -0.000783 1134380.000000 0 0 1
-23.185627 3.863191 13.441673 27.077225 -0.165103 1.051327 0.060564 -0.002096 772896.000000 0 0 1
-22.584827 4.223791 14.641673 27.245062 -0.184883 1.003438 0.056702 0.002280 656677.000000 0 0 1
-21.210527 4.534491 14.410873 26.040762 -0.210614 0.984359 0.049022 0.003188 260507.000000 0 0 1
-20.559127 5.329791 15.541073 26.317471 -0.253658 0.939090 0.038347 0.006353 -373355.000000 0 0 1
-20.907927 6.703091 15.740573 27.015522 -0.310248 0.948812 0.047800 0.003961 263809.000000 0 0 1
-20.180327 7.149591 16.819373 27.225972 -0.340487 0.904893 0.040480 -0.000430 -471456.000000 0 0 1
-20.324427 8.680891 17.039273 27.906576 -0.403662 0.914000 0.038615 -0.004930 -386707.000000 0 0 1
-19.729927 9.484591 16.056773 27.148617 -0.448106 0.937953 0.038921 -0.003876 306624.000000 0 0 1
-20.001227 10.897591 16.262173 27.986868 -0.498878 0.950760 0.039218 -0.006185 1362.900000 0 0 1
-19.196627 11.714491 17.330673 28.391759 -0.547913 0.914216 0.044087 -0.006130 -746332.000000 0 0 1
-19.551227 11.276991 18.593073 29.242492 -0.523180 0.881721 0.032841 -0.000528 531348.000000 0 0 1
-18.953827 12.080891 19.651473 29.855918 -0.567456 0.852357 0.040592 0.009711 27598.200000 0 0 1
-12.040685 -33.732748 -20.342309 41.190848 1.227949 2.087314 0.059792 -0.026252 144142.000000 0 0 1
-13.294485 -34.270148 -19.903009 41.800911 1.200737 2.067054 0.087183 -0.018865 180533.000000 0 0 1
-14.205085 -33.186048 -19.668609 41.109031 1.166350 2.069685 0.061906 -0.046186 172631.000000 0 0 1
-15.489885 -33.840948 -19.107309 41.835817 1.141536 2.045102 0.043284 -0.029712 -1135760.000000 0 0 1
-16.272885 34.239991 -20.026709 42.874851 -1.127136 2.056801 0.039075 -0.033495 44703.700000 0 0 1
-17.010785 33.193791 -19.448409 42.064655 -1.097223 2.051435 0.044034 -0.023498 -1010520.000000 0 0 1
-18.237485 33.568691 -18.689509 42.529526 -1.073120 2.025780 0.049623 -0.024463 -2069480.000000 0 0 1
-18.017485 34.407691 -17.545309 42.618738 -1.088411 1.995094 0.049366 -0.028840 694000.000000 0 0 1
-19.303385 -34.124548 -16.967309 42.719961 1.055999 1.979233 0.016596 -0.019596 954941.000000 0 0 1
-19.524485 34.080891 -15.615009 42.267495 -1.050552 1.949195 0.028027 -0.020421 -269909.000000 0 0 1
-19.582885 32.622991 -15.606409 41.125526 -1.030172 1.960033 0.032993 -0.022721 160251.000000 0 0 1
-19.719485 32.203691 -14.275709 40.369935 -1.021355 1.932237 0.034593 -0.017763 -177380.000000 0 0 1
-19.854185 30.739491 -14.032909 39.192187 -0.997319 1.936979 0.029414 -0.018295 -217045.000000 0 0 1
-18.643285 30.029991 -13.956609 38.002097 -1.015207 1.946857 0.037669 -0.028685 -330608.000000 0 0 1
-18.796685 28.686691 -13.562409 36.880625 -0.990746 1.947372 0.043217 -0.031843 343971.000000 0 0 1
-17.449685 28.020091 -13.142009 35.529275 -1.013812 1.949690 0.051070 -0.026692 900877.000000 0 0 1
-16.420685 28.066391 -14.135409 35.456607 -1.041430 1.980860 0.053874 -0.026889 -188383.000000 0 0 1
-15.247785 27.444591 -13.714909 34.260754 -1.063676 1.982651 0.061374 -0.032707 -366275.000000 0 0 1
-13.947485 27.859191 -14.411009 34.327016 -1.106635 2.004038 0.049275 -0.027645 -281386.000000 0 0 1
-13.882485 27.568191 -15.799909 34.675145 -1.104298 2.043904 0.036845 -0.023582 -99913.100000 0 0 1
-13.060185 28.455491 -16.526809 35.403655 -1.140509 2.056477 0.043755 -0.016796 -66552.800000 0 0 1
-13.148185 28.160091 -18.064509 35.947072 -1.133971 2.097320 0.056293 -0.030275 182864.000000 0 0 1
-12.590785 26.922091 -18.540309 35.029557 -1.133342 2.128544 0.037931 -0.016572 243156.000000 0 0 1
-13.009785 26.906691 -19.871509 35.890129 -1.120424 2.157569 0.026947 -0.020053 -143682.000000 0 0 1
-12.317785 25.812491 -20.656109 35.280127 -1.125552 2.196279 0.009002 -0.013607 -481605.000000 0 0 1
-11.191185 26.200491 -21.386309 35.624185 -1.167117 2.214711 0.006671 -0.014009 -380329.000000 0 0 1
-10.405085 25.066991 -21.748809 34.779743 -1.177348 2.246350 0.021481 -0.011726 320173.000000 0 0 1
-9.268985 25.449691 -22.735709 35.362598 -1.221520 2.269115 0.034516 -0.017883 -2370.530000 0 0 1
-9.656785 25.999191 -23.973609 36.659860 -1.215162 2.283586 0.032044 -0.016513 155465.000000 0 0 1
-8.522085 26.177591 -24.828509 37.072187 -1.256068 2.304647 0.024831 -0.016460 -33382.800000 0 0 1
-8.799485 26.884691 -26.165169 38.533539 -1.254481 2.317228 0.018405 -0.012619 -113189.000000 0 0 1
-9.617385 26.144191 -27.060169 38.836395 -1.218301 2.341686 0.019423 -0.012355 -163270.000000 0 0 1
-9.972685 26.822291 -28.190249 40.169390 -1.214829 2.348695 0.027822 -0.006054 60404.800000 0 0 1
-11.487085 26.658591 -28.473439 40.661657 -1.163942 2.346548 0.016991 -0.006955 186950.000000 0 0 1
-11.741985 27.174891 -29.801869 42.005956 -1.162936 2.359539 0.017015 -0.006040 96073.500000 0 0 1
-13.084785 26.919391 -30.183489 42.507743 -1.118352 2.360394 0.009633 0.002841 140168.000000 0 0 1
-13.341885 27.329991 -31.629589 43.878984 -1.116651 2.375805 0.011917 0.001450 -74708.200000 0 0 1
-12.492085 26.675491 -32.585109 43.925202 -1.132830 2.406594 0.015139 -0.004430 327525.000000 0 0 1
-12.707485 25.245691 -32.713709 43.232070 -1.104470 2.429047 0.001848 -0.003090 657579.000000 0 0 1
-11.650885 24.556491 -33.657989 43.262277 -1.127795 2.462270 0.014022 -0.001865 753406.000000 0 0 1
-12.163685 24.861291 33.917204 43.776885 -1.115776 0.684438 0.021124 0.003170 -15081.600000 0 0 1
-11.683685 23.961991 32.986737 42.412384 -1.117124 0.679699 0.024455 -0.004043 -548358.000000 0 0 1
-12.254285 24.071591 31.568723 41.547482 -1.099914 0.707756 0.042906 -0.003208 -32018.100000 0 0 1
-13.560285 23.508891 31.490513 41.571645 -1.047599 0.711322 0.047640 -0.005896 37597.600000 0 0 1
-13.937885 23.393891 30.118683 40.603864 -1.033477 0.735092 0.069820 -0.005647 367146.000000 0 0 1
-15.292285 22.687391 29.831363 40.478165 -0.977704 0.742214 0.051344 -0.005200 634527.000000 0 0 1
-15.151285 21.293791 29.968723 39.763190 -0.952370 0.717153 0.056561 -0.011356 414462.000000 0 0 1
-16.478885 20.770791 29.977763 40.020565 -0.900112 0.724156 0.049364 -0.016579 615534.000000 0 0 1
-16.533485 19.262191 30.242433 39.484083 -0.861481 0.698294 0.070355 -0.027024 -18846.800000 0 0 1
-16.034785 18.530391 29.157213 38.087173 -0.857473 0.698918 0.063224 -0.026446 -73392.600000 0 0 1
-15.403785 17.345491 29.544023 37.563172 -0.844619 0.665650 0.050795 -0.032912 -107271.000000 0 0 1
-15.135285 16.428491 28.339783 36.084837 -0.826346 0.667510 0.046597 -0.028351 936954.000000 0 0 1
-13.953285 16.833491 27.604553 35.214655 -0.878680 0.669884 0.065146 -0.030753 482825.000000 0 0 1
-13.500885 15.891391 26.621503 33.815893 -0.866551 0.664463 0.044441 -0.023388 559706.000000 0 0 1
-12.177585 16.533491 26.069223 33.185151 -0.935965 0.667181 0.041606 -0.021910 406523.000000 0 0 1
-12.299885 17.406591 24.957533 32.820040 -0.955640 0.706812 0.045067 -0.024218 -242030.000000 0 0 1
-12.663885 18.764591 25.215213 33.886440 -0.977128 0.731596 0.047583 -0.024480 712686.000000 0 0 1
-11.516085 19.633191 25.885233 34.469228 -1.040316 0.721272 0.042739 -0.015803 527064.000000 0 0 1
-11.349185 19.404491 27.302633 35.366255 -1.041573 0.688820 0.055759 -0.019563 -979887.000000 0 0 1
-12.356885 19.775991 28.161063 36.562657 -1.012310 0.691620 0.078339 -0.022031 -782470.000000 0 0 1
-12.204385 19.429391 29.662633 37.500933 -1.009942 0.658381 0.070129 -0.019638 -409097.000000 0 0 1
-11.057785 20.078991 30.122903 37.852737 -1.067405 0.650482 0.056726 -0.022252 -383334.000000 0 0 1
-10.994385 20.243491 31.544493 39.060599 -1.073261 0.630762 0.040607 -0.020708 627841.000000 0 0 1
-9.709385 21.079791 31.918353 39.464046 -1.139161 0.628695 0.039572 -0.022376 969298.000000 0 0 1
-8.474785 20.420991 31.671973 38.625803 -1.177423 0.609439 0.049918 -0.026612 -274820.000000 0 0 1
-7.446685 21.144891 32.267303 39.290436 -1.232186 0.607197 0.043665 -0.022220 -154101.000000 0 0 1
-6.256585 20.304091 32.807080 39.085872 -1.271885 0.574693 0.046567 -0.020116 -245379.000000 0 0 1
-6.566485 19.436391 33.896575 39.621582 -1.244991 0.544265 0.050013 -0.022345 354577.000000 0 0 1
-5.373485 19.024591 -34.269061 39.562330 -1.295518 2.618352 0.043940 -0.014282 704744.000000 0 0 1
-4.573485 17.963191 33.769727 38.522557 -1.321490 0.502000 0.033443 -0.013340 -433813.000000 0 0 1
-5.266185 16.773591 33.751323 38.055721 -1.266585 0.480222 0.035858 -0.015163 -251058.000000 0 0 1
-4.968085 15.998691 32.585423 36.639456 -1.269707 0.474867 0.035352 -0.008563 -128815.000000 0 0 1
-5.512885 14.579891 32.617363 36.150483 -1.209297 0.445799 0.038897 -0.009832 -751690.000000 0 0 1
-4.877185 13.667991 33.408997 36.424744 -1.228048 0.409786 0.039541 -0.006285 -846552.000000 0 0 1
-5.544485 12.453291 33.361311 36.038907 -1.151922 0.387907 0.042978 -0.007611 -62118.900000 0 0 1
-4.766385 11.211791 33.900961 36.023573 -1.168822 0.344995 0.057172 -0.006296 200575.000000 0 0 1
-4.471485 11.126391 -33.548559 35.627189 -1.188669 2.798314 0.058139 -0.011646 15395.900000 0 0 1
-3.699785 9.945491 -33.311989 34.961262 -1.214653 2.833210 0.068874 -0.010516 362528.000000 0 0 1
-3.507485 9.459291 -31.849429 33.409082 -1.215715 2.834831 0.065861 -0.006933 673627.000000 0 0 1
-4.690585 8.789491 -31.399279 32.941941 -1.080586 2.834347 0.062107 -0.007688 525902.000000 0 0 1
-4.578885 8.568891 -30.010879 31.544333 -1.080039 2.828506 0.063465 0.000976 481185.000000 0 0 1
-5.867585 7.975991 -29.338489 30.964366 -0.936539 2.816096 0.058749 -0.005317 399108.000000 0 0 1
-5.688085 7.214891 -28.184449 29.644091 -0.903180 2.826479 0.053476 -0.004640 782028.000000 0 0 1
-6.855685 6.394591 -27.986769 29.515258 -0.750613 2.818360 0.063623 -0.017498 334584.000000 0 0 1
-6.711985 5.567291 -26.643059 28.033874 -0.692445 2.825277 0.047902 -0.018384 -151491.000000 0 0 1
-6.793985 6.237291 -25.367069 26.991670 -0.742704 2.792873 0.028988 -0.013614 -335632.000000 0 0 1
-5.775485 7.148091 -25.122929 26.750944 -0.891211 2.790920 0.026645 -0.007679 -818791.000000 0 0 1
-6.240885 8.299591 -24.213509 26.346269 -0.926048 2.736457 0.011576 0.006230 77249.500000 0 0 1
-6.376785 7.762491 -22.910809 25.016491 -0.883090 2.728362 0.004442 0.009302 -112965.000000 0 0 1
-7.649485 7.950591 -22.329309 24.906316 -0.804697 2.682674 0.012054 0.003582 154243.000000 0 1 0
-7.538185 7.975391 -20.784809 23.504029 -0.813573 2.655807 0.001012 0.002356 -18372.600000 0 1 0
-6.838985 9.110391 -20.304509 23.281839 -0.926860 2.630311 -0.012794 0.005209 -13491.000000 0 1 0
-6.766085 9.213391 -18.905109 22.092298 -0.937370 2.597762 -0.007704 0.003777 213781.000000 0 1 0
-8.077485 9.555191 -18.107909 22.010084 -0.869008 2.536958 -0.010936 0.010248 193364.000000 0 1 0
-7.974485 9.652091 -16.681209 20.857085 -0.880287 2.497735 -0.010281 0.007128 429124.000000 0 1 0
-9.139485 10.233591 -16.074609 21.134087 -0.841814 2.435035 -0.004133 0.010460 492125.000000 0 1 0
-9.448685 11.705491 -16.300209 22.180915 -0.891680 2.396279 -0.012841 0.011722 -636508.000000 0 1 0
-8.503685 12.533991 -15.670309 21.793856 -0.974680 2.373194 -0.027750 0.004791 21381.400000 0 1 0
-8.692585 13.875791 -16.062609 22.937001 -1.011150 2.346603 -0.006095 -0.003308 549924.000000 0 1 0
-7.484585 14.744691 -15.562209 22.706987 -1.101077 2.325879 -0.000829 -0.006401 155016.000000 0 1 0
-7.287585 15.108091 -14.206609 21.981607 -1.121358 2.273516 0.003908 -0.006598 208741.000000 0 1 0
-8.319885 15.891691 -13.598109 22.509440 -1.088497 2.219441 0.000888 -0.005474 -422681.000000 0 1 0
-7.782685 16.661491 -12.319609 22.134774 -1.133808 2.161051 0.018582 -0.016163 652500.000000 0 1 0
-7.060385 17.864091 -12.635309 22.991864 -1.194411 2.152629 0.016397 -0.012462 373722.000000 0 1 0
-5.880385 17.798191 -13.428709 23.058290 -1.251695 2.192451 0.023238 -0.014300 -197740.000000 0 1 0
-5.587285 19.174191 -14.076509 24.433900 -1.287252 2.184753 0.027081 -0.004233 -36446.300000 0 1 0
-5.148685 20.175591 -13.168409 24.636770 -1.320935 2.134715 0.036176 -0.015350 -206101.000000 0 1 0
-5.279585 21.459891 -13.717709 26.011084 -1.329566 2.126310 0.041957 -0.016920 -98555.800000 0 0 1
-4.781785 22.625891 -12.792709 26.428201 -1.362520 2.076079 0.052826 -0.016537 -985077.000000 0 0 1
-4.980685 23.992291 -13.201409 27.833692 -1.366108 2.064961 0.045565 -0.022512 440856.000000 0 0 1
-6.345285 24.367891 -13.376809 28.513080 -1.316058 2.059120 0.046466 -0.023732 369167.000000 0 0 1
-7.273085 24.364391 -12.142809 28.177457 -1.280704 2.016331 0.013273 -0.024231 -723247.000000 0 0 1
-7.525585 23.018491 -11.724509 26.906309 -1.254814 2.021671 0.025383 -0.023073 -625196.000000 0 0 1
-8.169485 22.846491 -10.478309 26.429105 -1.227383 1.978463 0.030071 -0.019265 -356102.000000 0 0 1
-7.532985 23.296491 -9.174909 26.146726 -1.258055 1.929329 0.028648 -0.014415 -493242.000000 0 0 1
-7.476185 24.702191 -9.044009 27.347498 -1.276908 1.907849 0.023023 -0.015104 147072.000000 0 0 1
-6.892285 25.111391 -7.791909 27.180864 -1.302924 1.861544 0.019695 -0.012893 -28066.600000 0 0 1
-6.808885 26.623991 -7.585509 28.508556 -1.320420 1.840119 0.017207 -0.014486 35973.400000 0 0 1
-5.917885 27.470691 -8.298209 29.300520 -1.358614 1.857936 0.012007 -0.018339 -106733.000000 0 0 1
-6.028085 27.472891 -9.711809 29.755953 -1.354800 1.903270 0.014903 -0.017324 63895.300000 0 0 1
-5.247685 28.651091 -10.383309 30.923071 -1.389646 1.913228 0.018252 -0.014822 367922.000000 0 0 1
-5.843085 29.947491 -10.323209 32.211217 -1.378106 1.897038 0.013838 -0.012045 708502.000000 0 0 1
-6.962285 30.092091 -11.244809 32.870246 -1.343431 1.919944 0.021268 -0.017935 240003.000000 0 0 1
-7.920385 31.222391 -11.017209 34.043341 -1.322360 1.900352 0.022327 -0.014006 -128882.000000 0 0 1
-8.973785 30.827191 -10.144809 33.671377 -1.287525 1.876840 0.021294 -0.011017 1048350.000000 0 0 1
-10.111885 31.717391 -10.072909 34.780836 -1.262171 1.864617 0.022745 -0.010306 1726800.000000 0 0 1
-11.349785 31.314291 -9.189809 34.552207 -1.223076 1.840005 0.031806 -0.011040 897885.000000 0 0 1
-12.060185 30.201491 -9.709209 33.938869 -1.190873 1.860929 0.035114 -0.019367 -236762.000000 0 0 1
-13.242085 29.998691 -8.961609 33.993892 -1.155099 1.837574 0.054795 -0.019537 -713.370000 0 0 1
-14.074585 28.816491 -9.420209 33.424907 -1.116455 1.856499 0.065189 -0.022756 -241023.000000 0 0 1
-13.669185 27.537491 -9.015609 32.038121 -1.110045 1.856052 0.047420 -0.020888 -145589.000000 0 0 1
-14.702985 26.641591 -9.359309 31.836281 -1.066510 1.869187 0.059652 -0.020407 -16115.600000 0 0 1
-14.596185 25.195991 -8.804509 30.420486 -1.045732 1.864424 0.053379 -0.020223 -101466.000000 0 0 1
-13.671185 24.314191 -9.398209 29.434801 -1.058580 1.895775 0.049336 -0.019269 73710.700000 0 0 1
-13.983385 22.986091 -8.932209 28.349247 -1.024266 1.891335 0.050945 -0.017763 452336.000000 0 0 1
-13.093185 21.811191 -9.529809 27.165728 -1.030159 1.929224 0.055437 -0.020011 280312.000000 0 0 1
-13.355885 21.507091 -10.894209 27.561176 -1.015079 1.977162 0.059046 -0.021450 427618.000000 0 0 1
-12.622485 20.306891 -11.209909 26.407556 -1.014656 2.009202 0.056696 -0.022973 168973.000000 0 0 1
-12.989185 19.780091 -12.598709 26.808551 -0.989740 2.060032 0.049340 -0.022421 -50372.400000 0 0 1
-14.254985 19.187191 -12.755609 27.093513 -0.931827 2.060993 0.056393 -0.024549 -348053.000000 0 0 1
-14.513485 18.739091 -14.082709 27.570228 -0.911797 2.106905 0.063939 -0.024872 -556356.000000 0 0 1
-16.001085 18.735491 -14.386409 28.531073 -0.863955 2.099294 0.058950 -0.011667 -541796.000000 0 0 1
-16.506785 20.003291 -14.743009 29.832229 -0.880875 2.087708 0.032709 -0.009398 -206314.000000 0 0 1
-17.796485 19.864791 -15.298609 30.746906 -0.840262 2.091587 0.027300 -0.004064 -396599.000000 0 0 1
-18.198785 21.226191 -15.860309 32.144927 -0.862037 2.086791 0.020724 -0.004369 -292306.000000 0 0 1
-18.385985 22.192591 -14.885009 32.436384 -0.878933 2.047551 0.028860 -0.019587 273187.000000 0 0 1
-18.531985 23.399891 -15.602009 33.681034 -0.900972 2.052431 0.033234 -0.015508 -248265.000000 0 0 1
-19.110385 24.495491 -14.728709 34.382710 -0.908271 2.013490 0.029833 -0.000153 393813.000000 0 0 1
-20.499185 24.349491 -14.430909 34.948039 -0.871039 1.996459 0.036344 -0.002726 743884.000000 0 0 1
-20.999985 25.389691 -13.582009 35.638557 -0.879744 1.961787 0.049369 -0.016976 90846.300000 0 0 1
-25.268555 -1.152409 3.863091 25.588110 0.045575 1.419245 0.052199 -0.021182 -185215.000000 0 0 1
-25.745915 -0.390509 4.916991 26.214146 0.015167 1.382109 0.065342 -0.016750 550594.000000 0 0 1
-27.089025 -0.755209 5.252091 27.603806 0.027872 1.379362 0.066152 -0.026449 461643.000000 0 0 1
-27.584715 -0.005309 6.512491 28.343060 0.000192 1.338951 0.067337 -0.028068 -448288.000000 0 0 1
-28.157055 1.274791 6.204391 28.860688 -0.045243 1.354128 0.079422 -0.026194 317609.000000 0 0 1
-28.568055 2.153291 7.267691 29.556552 -0.075232 1.322357 0.086386 -0.013820 -325436.000000 0 0 1
-27.443315 2.759891 8.116691 28.751230 -0.100230 1.284598 0.089407 -0.016150 -453252.000000 0 0 1
-26.785945 1.908291 8.962191 28.309880 -0.071122 1.248680 0.077699 -0.020651 113644.000000 0 0 1
-25.691845 2.521191 9.631791 27.553561 -0.097819 1.213688 0.078223 -0.018595 343030.000000 0 0 1
-24.844485 1.496691 10.448391 26.993655 -0.060170 1.173346 0.073457 -0.015600 -143756.000000 0 0 1
-24.066485 0.544991 9.774491 25.981405 -0.022641 1.185093 0.068101 -0.017056 540623.000000 0 0 1
-24.835485 -0.510009 9.199591 26.489506 0.020533 1.216115 0.070735 -0.021189 -117575.000000 0 0 1
-23.967185 -1.503909 8.347891 25.423906 0.062667 1.236242 0.085783 -0.022006 83056.000000 0 0 1
-22.981185 -2.104409 9.166491 24.831189 0.091316 1.192700 0.055591 -0.025606 180092.000000 0 1 0
-22.034085 -2.768709 8.328491 23.717724 0.125001 1.211997 0.063889 -0.017876 -708278.000000 0 1 0
-20.734585 -3.005109 9.060391 22.826397 0.143930 1.162631 0.071469 -0.008671 -629606.000000 0 1 0
-19.956185 -1.811509 9.251391 22.070775 0.090526 1.138266 0.053062 -0.012280 503683.000000 0 1 0
-20.216185 -1.136009 10.462291 22.791318 0.056134 1.093874 0.040245 -0.010743 -705829.000000 0 1 0
-19.632985 0.224491 10.699691 22.360409 -0.011434 1.071839 0.029406 -0.004768 -876390.000000 0 1 0
-20.001085 1.253091 9.838091 22.324911 -0.062569 1.114443 0.025473 -0.005672 476498.000000 0 1 0
-20.744985 2.179091 10.640391 23.416250 -0.104658 1.099096 0.046271 0.006634 -61717.800000 0 1 0
-21.262785 3.391291 9.854591 23.679524 -0.158162 1.141573 0.039787 -0.007607 -298149.000000 0 1 0
-21.866985 4.408891 10.629591 24.710151 -0.198956 1.126114 0.057489 -0.010629 542090.000000 0 1 0
-22.327185 5.512391 9.904191 25.039621 -0.242051 1.164140 0.050171 -0.012275 -214776.000000 0 0 1
-22.443185 6.778591 10.768591 25.799388 -0.293321 1.140217 0.054853 -0.016686 264397.000000 0 0 1
-23.570885 6.749591 11.640891 27.141369 -0.278890 1.127523 0.068299 -0.011061 554300.000000 0 0 1
-23.541585 7.809091 12.567991 27.805440 -0.320293 1.101793 0.066315 -0.011182 73554.500000 0 0 1
-24.528485 7.627491 13.758891 29.139874 -0.301485 1.079049 0.066174 -0.007185 449232.000000 0 0 1
-25.891305 7.709591 13.377491 30.145559 -0.289407 1.111003 0.061309 -0.002084 261931.000000 0 0 1
-26.733035 7.100891 14.355391 31.163361 -0.259627 1.092069 0.062168 0.002582 -196741.000000 0 0 1
-28.077035 6.742591 13.722691 31.970215 -0.235683 1.127152 0.061776 0.016755 -589755.000000 0 0 1
-28.053235 5.604291 12.867891 31.368371 -0.197178 1.148103 0.063815 0.028513 739809.000000 0 0 1
-29.230135 5.494591 12.041491 32.087207 -0.185809 1.186104 0.052048 -0.003103 466448.000000 0 0 1
-29.373285 4.115891 11.308691 31.742982 -0.139217 1.206536 0.069673 -0.005006 -176319.000000 0 0 1
-29.876735 3.101691 12.156091 32.403863 -0.103446 1.186245 0.058118 -0.005062 251052.000000 0 0 1
-30.377205 2.033291 11.401591 32.510077 -0.066835 1.212468 0.051192 -0.010262 -924803.000000 0 0 1
-31.442945 1.202691 12.059591 33.697759 -0.038231 1.204805 0.044934 -0.000515 -856849.000000 0 0 1
-31.069235 0.028991 12.711491 33.569036 -0.000933 1.182441 0.052993 -0.000522 643050.000000 0 0 1
-32.229395 -0.481909 13.424391 34.916764 0.014951 1.176164 0.037070 0.002595 579585.000000 0 0 1
-32.097405 -1.663809 14.389691 35.214697 0.051790 1.149847 0.032311 0.006079 -378854.000000 0 0 1
-31.774625 -2.900809 13.758891 34.746922 0.091041 1.163668 0.031675 0.001698 367208.000000 0 0 1
-31.829895 -3.916909 14.753291 35.300765 0.122442 1.139629 0.036163 0.003505 -95440.600000 0 0 1
-31.688375 -5.323409 14.130091 35.102012 0.166438 1.156502 0.032204 0.001686 -92349.100000 0 0 1
-32.804355 -5.644109 13.335191 35.858179 0.170385 1.189755 0.021583 -0.013469 62316.500000 0 0 1
-32.651335 -6.942209 12.826791 35.760740 0.209497 1.203939 0.022709 -0.010842 424836.000000 0 0 1
-33.949205 -7.298509 11.997891 36.739164 0.211760 1.238125 0.019322 0.005054 1015150.000000 0 0 1
-35.193355 -7.374909 12.648091 38.117394 0.206565 1.232565 -0.004352 0.004594 30532.100000 0 0 1
35.527817 -6.175509 13.069991 38.356061 -0.172102 1.223077 0.002816 -0.003024 -1020680.000000 0 0 1
34.021446 -6.078509 12.925091 36.898036 -0.176801 1.212913 0.004691 -0.001420 -193783.000000 0 0 1
33.131976 -6.895009 13.674991 36.500334 -0.205179 1.186773 0.004779 0.002399 -586667.000000 0 0 1
31.846746 -6.729209 13.191691 35.121478 -0.208237 1.185750 0.025626 0.005173 -709090.000000 0 0 1
30.810496 -7.787009 13.637191 34.581746 -0.247555 1.165440 0.014910 -0.002897 -70029.900000 0 0 1
30.467166 -7.686509 14.979591 34.809751 -0.247131 1.125941 0.039752 0.000080 -30651.700000 0 0 1
29.478476 -8.625109 15.339491 34.331808 -0.284645 1.107610 0.062410 0.005841 161119.000000 0 0 1
29.130866 -8.485509 16.844991 34.703962 -0.283446 1.063986 0.054948 -0.012713 -449645.000000 0 0 1
30.162656 -8.895609 17.665291 36.069103 -0.286791 1.058979 0.042826 -0.011753 -513012.000000 0 0 1
29.741926 -8.993909 19.004991 36.423375 -0.293656 1.021860 0.030340 -0.015774 -708152.000000 0 0 1
30.869416 -9.276109 19.953291 37.909114 -0.291911 1.016500 0.035299 -0.017666 96490.600000 0 0 1
31.913166 -8.288309 20.008491 38.567940 -0.254101 1.025367 0.037945 -0.015339 165423.000000 0 0 1
33.143466 -8.706009 19.494491 39.424854 -0.256873 1.053569 0.008710 -0.012643 47160.000000 0 0 1
34.367946 -8.004209 20.156291 40.638641 -0.228819 1.051824 0.008980 -0.010916 251116.000000 0 0 1
34.499426 -8.446709 21.513591 41.525798 -0.240113 1.026194 0.004410 -0.011510 275600.000000 0 0 1
-35.631582 -7.971609 22.114791 42.687471 0.220099 1.026212 -0.007048 -0.003501 228500.000000 0 0 1
-35.549193 -8.624509 23.507491 43.482519 0.238009 0.999623 -0.008450 0.002913 -69193.100000 0 0 1
35.040166 -7.995809 24.555391 43.528306 -0.224348 0.971424 0.005127 -0.004855 297966.000000 0 0 1
35.035806 -8.779209 25.672391 44.313135 -0.245523 0.952877 0.003544 -0.010598 -97392.900000 0 0 1
34.488976 -8.086309 26.915991 44.489869 -0.230301 0.921041 0.014074 -0.009996 1086080.000000 0 0 1
35.519476 -7.231209 27.553591 45.531571 -0.200840 0.920838 -0.005673 -0.018341 1113550.000000 0 0 1
35.032636 -6.611609 28.779091 45.817410 -0.186533 0.891654 0.000799 -0.022595 -306268.000000 0 0 1
-35.263927 -6.022809 29.747491 46.526681 0.169160 0.877125 -0.001114 -0.011845 141689.000000 0 0 1
-34.779456 -6.919909 30.746191 46.934251 0.196401 0.856494 0.001311 -0.010346 -386895.000000 0 0 1
-33.403815 -6.689809 30.958091 46.032291 0.197656 0.833174 -0.002735 -0.024587 -37209.900000 0 0 1
-32.912235 -7.568309 32.128091 46.612324 0.226025 0.810327 -0.003317 -0.010153 -166214.000000 0 0 1
-32.730905 -8.880609 31.700091 46.422765 0.264943 0.819131 0.002012 -0.011073 144459.000000 0 0 1
-32.188925 -9.608509 32.766691 46.926606 0.290083 0.797841 0.003693 -0.004930 -344922.000000 0 0 1
-32.324505 -11.167509 32.718791 47.329760 0.332644 0.807518 0.016139 -0.010686 710921.000000 0 0 1
-33.693115 -11.561709 32.944991 48.520836 0.330557 0.824415 0.008603 -0.010895 910541.000000 0 0 1
-33.788595 -12.968109 33.028591 48.997233 0.366465 0.831063 0.017012 -0.010810 257518.000000 0 0 1
-35.264686 -13.336709 33.299891 50.302571 0.361563 0.847323 0.020002 -0.013737 183707.000000 0 0 1
-35.489575 -14.725609 33.416191 50.921462 0.393309 0.854985 0.024104 -0.020767 590660.000000 0 0 1
34.445446 -14.968509 33.595191 50.390296 -0.409938 0.841024 0.018256 -0.015962 534986.000000 0 0 1
34.024736 -16.410809 34.069891 50.869979 -0.449404 0.836932 0.010288 -0.012612 -108309.000000 0 0 1
34.439466 -16.778809 -33.451791 50.858899 -0.453353 2.288607 0.020473 -0.016939 228943.000000 0 0 1
34.562156 -18.172309 -33.361391 51.359107 -0.484063 2.277816 0.016031 -0.021888 -106482.000000 0 0 1
35.011776 -18.715509 -31.970791 50.972799 -0.490903 2.248766 0.018273 -0.027938 -173545.000000 0 0 1
33.963346 -18.782009 -31.064791 49.712111 -0.505150 2.245792 0.019081 -0.019923 -388030.000000 0 0 1
34.401666 -19.721709 -30.084991 49.774764 -0.520539 2.219837 0.010725 -0.014067 -566588.000000 0 0 1
33.310216 -20.004609 -29.026491 48.500434 -0.540827 2.212398 0.008782 -0.015453 572599.000000 0 0 1
32.127496 -20.600809 -29.546291 48.265440 -0.570179 2.229589 0.014258 -0.009756 243999.000000 0 0 1
31.245536 -19.799409 -30.264791 47.793909 -0.564811 2.256523 0.006748 -0.004718 -779633.000000 0 0 1
29.829986 -20.417309 -30.492391 47.291442 -0.600217 2.271527 0.002010 0.002081 421694.000000 0 0 1
28.983416 -19.610209 -31.287691 46.941648 -0.594849 2.300331 -0.003316 0.005703 211832.000000 0 0 1
27.755926 -20.293409 -31.489591 46.624117 -0.631320 2.312293 0.000408 0.001945 169600.000000 0 0 1
26.824306 -19.690309 -32.530291 46.534627 -0.633213 2.344872 0.005022 0.008367 55286.500000 0 0 1
27.426946 -19.760709 -33.783891 47.791990 -0.624343 2.355894 -0.006035 0.003576 -106821.000000 0 0 1
26.451296 -19.579209 34.077391 47.373886 -0.637199 0.767961 0.030223 -0.008860 -228783.000000 0 0 1
27.024706 -19.495609 32.650991 46.652982 -0.624944 0.795582 0.037553 -0.003265 -203015.000000 0 0 1
27.723096 -18.283109 32.440091 46.424149 -0.583018 0.797111 0.007049 -0.009064 241216.000000 0 0 1
28.088856 -18.035409 31.072591 45.604449 -0.570790 0.821191 0.018547 -0.010986 -26622.900000 0 0 1
26.926396 -17.502409 30.176891 44.068241 -0.576382 0.816500 0.017668 -0.011767 133544.000000 0 0 1
26.538766 -16.255109 30.736391 43.740832 -0.549563 0.791620 0.020219 -0.012025 187383.000000 0 0 1
25.601356 -15.576509 29.928591 42.353012 -0.546591 0.786049 0.028764 -0.017723 -87117.300000 0 0 1
25.436356 -14.123109 30.388691 42.070690 -0.506852 0.763639 0.042078 -0.022002 -292604.000000 0 0 1
26.669896 -13.439409 30.490591 42.679939 -0.466776 0.775029 0.033097 -0.005504 122484.000000 0 0 1
26.526286 -12.119809 30.873691 42.470206 -0.428576 0.756927 0.045865 -0.025192 -129390.000000 0 0 1
27.830456 -11.289209 30.880791 43.076720 -0.385361 0.771481 0.036900 -0.027471 90085.500000 0 0 1
28.254806 -11.068009 29.525291 42.338844 -0.373349 0.799093 0.034841 -0.024240 156630.000000 0 0 1
29.588706 -10.590409 29.513691 43.112716 -0.343714 0.816782 0.026036 -0.018182 354038.000000 0 0 1
30.094516 -10.059909 28.122191 42.399756 -0.322600 0.845626 0.033965 -0.026693 61327.600000 0 0 1
29.965876 -8.688409 27.961591 41.896214 -0.282205 0.840083 0.039625 -0.014990 -205081.000000 0 0 1
30.539116 -8.232309 26.779891 41.443589 -0.263307 0.868232 0.038731 -0.015863 -100579.000000 0 0 1
30.477586 -6.722309 26.673791 41.055619 -0.217090 0.863608 0.058310 -0.026385 69417.000000 0 0 1
29.158976 -6.329309 26.367291 39.818841 -0.213746 0.847070 0.060229 -0.021102 -203389.000000 0 0 1
28.961936 -4.964809 26.590791 39.629702 -0.169775 0.835265 0.061156 -0.018394 832952.000000 0 0 1
27.447976 -4.554009 26.535991 38.448527 -0.164416 0.809073 0.057225 -0.007927 381929.000000 0 0 1
26.877966 -4.814209 25.284191 37.214137 -0.177234 0.823819 0.069157 -0.008555 685436.000000 0 0 1
25.476356 -4.491209 25.441391 36.283330 -0.174496 0.793736 0.066952 -0.006582 734749.000000 0 0 1
24.645856 -4.770609 24.183291 34.856972 -0.191202 0.804063 0.067679 0.002460 -341423.000000 0 0 1
25.070456 -3.865509 23.202991 34.378027 -0.152981 0.829917 0.072083 0.008514 190940.000000 0 0 1
24.800356 -4.258209 21.911191 33.366005 -0.170041 0.854372 0.072291 0.003379 -96799.400000 0 0 1
25.323256 -3.280109 20.846091 32.963403 -0.128812 0.886147 0.074841 0.000588 392747.000000 0 0 1
24.339156 -2.300009 20.526491 31.922115 -0.094219 0.872364 0.064823 0.010023 452209.000000 0 0 1
24.877956 -1.408309 19.583891 31.692662 -0.056548 0.904687 0.061205 -0.001946 -402371.000000 0 0 1
23.826856 -0.406509 19.050691 30.509231 -0.017059 0.896403 0.018799 -0.001839 569708.000000 0 0 1
22.876656 -1.238809 18.302291 29.323197 -0.054099 0.896744 0.038954 -0.008464 -417869.000000 0 0 1
21.731356 -0.578209 17.952191 28.193392 -0.026601 0.880518 0.043986 -0.010314 -901073.000000 0 0 1
20.671156 -1.494209 17.347991 27.027433 -0.072159 0.873867 0.047267 -0.009187 -93579.000000 0 0 1
21.051756 -2.070009 16.068691 26.564341 -0.098014 0.921160 0.057536 -0.015222 305908.000000 0 0 1
19.932356 -2.768609 15.555391 25.434901 -0.138017 0.912745 0.071655 -0.019890 49669.000000 0 0 1
20.211756 -3.351309 14.151991 24.900306 -0.164315 0.966302 0.064436 -0.022897 318697.000000 0 1 0
19.135256 -4.180809 13.710891 23.908696 -0.215107 0.960062 0.063677 -0.020828 902998.000000 0 1 0
19.352956 -4.516009 12.343791 23.394453 -0.229248 1.014979 0.064767 -0.020858 -27297.500000 0 1 0
18.447556 -5.688609 11.864491 22.659187 -0.299115 1.019718 0.054802 -0.018169 -177461.000000 0 1 0
18.697656 -7.011809 12.290391 23.448274 -0.358780 1.019081 0.073197 -0.027918 276584.000000 0 1 0
17.552756 -7.846509 12.192791 22.766886 -0.420377 1.005638 0.057176 -0.009294 -71075.200000 0 1 0
17.766156 -9.333409 12.450291 23.616913 -0.483720 1.015521 0.059463 -0.024439 -608399.000000 0 1 0
18.526756 -9.970209 11.470291 23.962749 -0.493701 1.071655 0.053737 -0.029288 240798.000000 0 1 0
18.134256 -11.341409 11.342191 24.210000 -0.558897 1.083213 0.065044 -0.026221 137501.000000 0 1 0
18.848856 -11.982409 10.178791 24.545169 -0.566264 1.143187 0.074546 -0.026452 417004.000000 0 1 0
18.144256 -11.447609 9.058091 23.287568 -0.562846 1.171287 0.053752 -0.025472 724387.000000 0 1 0
18.811156 -11.911209 7.907591 23.627664 -0.564474 1.229536 0.054015 -0.042159 100703.000000 0 1 0
18.449956 -11.266409 6.586991 22.599144 -0.548211 1.275032 0.043212 -0.028720 -186317.000000 0 1 0
18.877256 -9.914009 6.639791 22.332157 -0.483590 1.268912 0.043767 -0.022257 483812.000000 0 1 0
19.161056 -9.483009 5.326491 22.032818 -0.459568 1.326625 0.014674 -0.029125 -363582.000000 0 1 0
19.867656 -8.080709 5.299991 22.093246 -0.386292 1.328542 0.052103 -0.020002 -225229.000000 0 1 0
20.243256 -7.767409 4.011291 22.050228 -0.366379 1.387862 0.040551 -0.024632 229701.000000 0 1 0
21.045256 -6.644809 3.965991 22.422877 -0.305833 1.392988 0.080423 -0.021037 -679401.000000 0 1 0
21.572156 -6.348709 2.530891 22.628952 -0.286220 1.458719 0.067019 -0.023191 -282622.000000 0 1 0
20.599956 -5.869909 1.660691 21.484225 -0.277591 1.493421 0.041034 -0.032232 132217.000000 0 1 0
21.209056 -5.410609 0.481091 21.893611 -0.249781 1.548821 0.051397 -0.018735 213650.000000 0 1 0
-25.644805 -16.062709 0.038791 30.260009 0.559572 1.569514 0.037137 -0.008917 -558766.000000 0 0 1
-24.815285 -15.313409 -0.797109 29.170778 0.552895 1.598125 0.041728 -0.006557 -540392.000000 0 0 1
-23.433685 -15.505509 -0.720509 28.108318 0.584540 1.596432 0.041176 -0.006125 197162.000000 0 0 1
-22.727985 -14.950509 0.586291 27.210711 0.581840 1.549248 0.047880 -0.016386 -415868.000000 0 0 1
-23.060485 -15.671109 1.749991 27.936215 0.596879 1.508113 0.045996 -0.007177 113127.000000 0 0 1
-22.143485 -15.411109 2.824491 27.125891 0.608013 1.466482 0.052158 -0.001307 326719.000000 0 0 1
-22.461985 -16.064709 4.149191 27.925462 0.620852 1.421663 0.050205 -0.002800 -416161.000000 0 0 1
-22.382985 -17.475909 4.157991 28.700075 0.662903 1.425407 0.067493 -0.008415 106135.000000 0 0 1
-22.746985 -18.003709 5.362691 29.501141 0.669522 1.388001 0.063360 -0.010669 -394046.000000 0 0 1
-22.787585 -19.517409 5.375891 30.481199 0.708252 1.393502 0.052896 -0.008216 -72664.900000 0 0 1
-23.281885 -20.095309 6.545091 31.443693 0.712068 1.361110 0.042824 -0.003289 -82021.400000 0 0 1
-23.595985 -21.439909 6.325891 32.503186 0.737560 1.374923 0.056700 -0.008514 41623.000000 0 0 1
-24.200285 -22.289409 7.481491 33.740840 0.744318 1.347204 0.051959 -0.005822 450316.000000 0 0 1
-23.249785 -22.481109 8.528591 33.446818 0.768591 1.312959 0.055213 0.000892 -62713.600000 0 0 1
-23.817985 -23.309609 9.505691 34.655338 0.774611 1.292943 0.054325 0.003070 -68218.200000 0 0 1
-23.002085 -23.603709 10.768491 34.672632 0.798306 1.254997 0.050231 -0.001423 -141823.000000 0 0 1
-22.976685 -22.554809 11.744391 34.272120 0.776133 1.221028 0.051058 0.001043 173824.000000 0 0 1
-22.016685 -22.776909 12.762191 34.152533 0.802368 1.187821 0.058511 -0.002971 -600420.000000 0 0 1
-22.426385 -22.062709 14.070491 34.462800 0.777224 1.150227 0.044989 0.001915 -618901.000000 0 0 1
-23.508485 -22.748909 14.627291 35.834612 0.768979 1.150327 0.036504 0.001169 -188877.000000 0 0 1
-24.016085 -22.008309 15.751091 36.183351 0.741802 1.120410 0.037789 0.004628 -677902.000000 0 0 1
-25.438475 -22.349309 16.189591 37.532792 0.720845 1.124813 0.012481 0.001648 -823687.000000 0 0 1
-26.397225 -21.925809 15.238091 37.546691 0.693129 1.152894 0.007728 0.003049 193098.000000 0 0 1
-26.876585 -22.929409 14.339591 38.127844 0.706312 1.185221 0.004189 -0.000644 -522665.000000 0 0 1
-27.875115 -23.965209 14.845891 39.645350 0.710119 1.186974 0.003486 -0.001006 -867910.000000 0 0 1
-27.446055 -24.898909 15.857391 40.307549 0.736776 1.166459 0.001385 0.004182 -717402.000000 0 0 1
-28.419355 -25.787829 16.249391 41.673908 0.736891 1.170254 0.000304 0.000257 -594047.000000 0 0 1
-28.644355 -27.085079 15.356691 42.307547 0.757426 1.199335 0.011271 0.000983 25513.300000 0 0 1
-29.182895 -26.958159 14.026691 42.132313 0.745791 1.231398 0.019808 -0.009632 59170.300000 0 0 1
-30.544125 -27.345449 14.038391 43.333516 0.730200 1.240883 0.014201 -0.015384 -64751.900000 0 0 1
-30.990315 -27.807169 12.628191 43.509878 0.731314 1.276321 0.023677 -0.018016 -54046.000000 0 0 1
-30.318085 -29.005189 12.254791 43.711179 0.763271 1.286629 0.035046 -0.022457 375405.000000 0 0 1
-30.707045 -29.329759 10.919491 43.845099 0.762461 1.319100 0.036801 -0.011690 40937.600000 0 0 1
-30.107615 -30.686889 10.450691 44.242181 0.794926 1.332327 0.036472 -0.019450 40080.100000 0 0 1
-30.588125 -31.866239 11.097691 45.543928 0.805860 1.324648 0.024843 -0.004418 46387.500000 0 0 1
-30.083635 -32.995009 10.413391 45.849040 0.831520 1.341673 0.036432 -0.004537 -234616.000000 0 0 1
-30.180005 -34.368331 11.103791 47.067070 0.850194 1.332637 0.019907 0.005420 -146600.000000 0 0 1
-31.473535 34.038223 11.427091 47.746858 -0.824527 1.329124 0.014172 0.008509 -403195.000000 0 0 1
-31.473465 32.646719 11.765891 46.848943 -0.803694 1.316933 0.018274 0.005663 -888656.000000 0 0 1
-32.815375 32.081749 12.215691 47.490110 -0.774094 1.310646 0.035191 0.005813 232631.000000 0 0 1
-33.935985 31.947829 11.339591 47.967710 -0.755231 1.332137 0.020196 0.007941 776323.000000 0 0 1
-34.374986 33.126470 10.662991 48.915254 -0.766904 1.351043 0.023867 0.011661 -578944.000000 0 0 1
35.543577 33.110982 10.019291 49.599085 0.749981 1.367391 0.009182 0.014621 296023.000000 0 0 1
35.438367 32.480839 8.770691 48.865200 0.741881 1.390331 -0.005696 0.015698 1085500.000000 0 0 1
34.047386 32.244689 8.465191 47.650855 0.758212 1.392198 0.002239 0.016558 973694.000000 0 0 1
33.870006 31.627249 7.067391 46.876521 0.751170 1.419453 0.002870 0.013384 -146429.000000 0 0 1
34.086756 30.200799 6.990191 46.074483 0.725025 1.418493 0.008287 0.010969 20411.000000 0 0 1
33.991286 29.742459 5.640891 45.517481 0.718831 1.446549 0.018822 -0.002172 -99691.000000 0 0 1
34.142556 28.251499 5.505591 44.656163 0.691260 1.447193 0.018656 -0.000490 -331463.000000 0 0 1
33.255866 27.449349 6.224391 43.567906 0.690037 1.427439 0.028487 -0.001295 -355575.000000 0 0 1
33.698216 27.081109 7.511791 43.879189 0.676954 1.398756 0.016345 0.000928 -7297.990000 0 0 1
32.755236 26.019869 8.123791 42.613790 0.671300 1.378985 0.014232 -0.001546 21130.300000 0 0 1
32.781786 24.885009 7.319991 41.803008 0.649307 1.394782 0.034063 -0.010060 209868.000000 0 0 1
31.830676 23.918889 7.740791 40.561374 0.644423 1.378777 0.022993 -0.007156 -504206.000000 0 0 1
31.907786 22.622829 6.939691 39.724785 0.616745 1.395201 0.027477 -0.003960 27990.800000 0 0 1
32.948156 21.714029 7.183091 40.108314 0.582701 1.390733 0.038501 -0.003131 1301960.000000 0 0 1
34.345986 22.096929 7.047191 41.443744 0.571695 1.399924 0.048332 -0.011922 907616.000000 0 0 1
35.299283 20.925829 7.115391 41.648031 0.535117 1.399108 0.040472 -0.011872 -588147.000000 0 0 1
35.233656 20.009729 6.022891 40.964314 0.516494 1.423234 0.051522 -0.018403 11390.600000 0 0 1
-35.630275 18.696229 6.378691 40.740069 -0.483234 1.413579 0.060220 -0.021093 -143580.000000 0 0 1
35.343633 17.600629 5.381691 39.848678 0.462035 1.435329 0.049893 -0.017465 68318.800000 0 0 1
-35.282828 17.621329 4.122891 39.653341 -0.463192 1.466635 0.050748 -0.016703 362542.000000 0 0 1
35.484787 16.627529 3.308291 39.326704 0.438199 1.486574 0.050596 -0.016152 -197334.000000 0 0 1
-35.047418 16.427329 1.923691 38.754087 -0.438310 1.521138 0.055334 -0.000345 1378010.000000 0 0 1
-33.873215 15.610729 2.120691 37.357555 -0.431846 1.513998 0.057229 -0.022518 889667.000000 0 0 1
-32.706995 16.336729 2.488791 36.644649 -0.463237 1.502827 0.069324 -0.019369 132752.000000 0 0 1
-31.461695 15.404429 2.657591 35.131147 -0.455313 1.495076 0.064518 -0.014861 202603.000000 0 0 1
-31.448395 14.610329 3.830591 34.887486 -0.434913 1.460776 0.076925 -0.018469 780381.000000 0 0 1
-30.134665 14.070729 4.041091 33.502446 -0.436842 1.449881 0.071351 -0.016332 567404.000000 0 0 1
-29.927525 13.337929 5.421791 33.210735 -0.419251 1.406808 0.083143 -0.019354 -126297.000000 0 0 1
-30.292175 11.979829 5.543391 33.043326 -0.376600 1.402238 0.078822 -0.019912 297234.000000 0 0 1
-29.975595 11.590529 6.820291 32.854118 -0.368959 1.361682 0.069839 -0.011761 -125112.000000 0 0 1
-29.929845 10.010729 7.060891 32.339859 -0.322776 1.350689 0.074786 -0.018668 -34843.500000 0 0 1
-31.203255 9.435329 7.195491 33.383284 -0.293641 1.353550 0.058173 -0.019007 -12222.500000 0 0 1
-31.089755 8.013729 7.465591 32.962521 -0.252270 1.342327 0.061674 -0.015446 515443.000000 0 0 1
-32.412485 7.222829 7.200491 33.979192 -0.219258 1.357269 0.046844 -0.016629 898153.000000 0 0 1
-33.406365 7.340829 8.242991 35.182665 -0.216306 1.334307 0.040485 -0.019280 507985.000000 0 0 1
-34.623694 6.769629 7.794391 36.130051 -0.193084 1.353355 0.036743 -0.016322 463250.000000 0 0 1
-35.427538 6.137129 8.977991 37.059130 -0.171528 1.326100 0.024713 -0.014139 62276.500000 0 0 1
35.246076 6.899729 9.966391 37.272257 0.193314 1.300108 0.033389 -0.012994 275159.000000 0 0 1
-35.211187 7.603929 10.853191 37.622323 -0.212686 1.278160 0.044974 -0.023862 -192157.000000 0 0 1
35.438713 8.610329 11.787591 38.327372 0.238346 1.258179 0.045705 -0.026041 -489951.000000 0 0 1
34.739276 8.045429 12.871391 37.910671 0.227582 1.224391 0.035652 -0.029154 443522.000000 0 0 1
34.089476 9.029629 13.632391 37.808315 0.258934 1.201922 0.047930 -0.024241 -428289.000000 0 0 1
33.243696 8.618529 14.838291 37.411192 0.253668 1.162957 0.039870 -0.028449 -1417850.000000 0 0 1
32.072786 7.943729 14.640891 36.140312 0.242792 1.153694 0.020693 -0.020071 -941167.000000 0 0 1
31.673206 7.491929 15.919791 36.232040 0.232269 1.115883 0.022804 -0.015373 632611.000000 0 0 1
30.156656 7.091329 15.966691 34.851773 0.230954 1.094904 -0.009274 -0.003199 529994.000000 0 0 1
29.312036 8.221729 16.113391 34.444646 0.273463 1.083990 -0.012618 -0.006119 771199.000000 0 0 1
27.909386 7.939929 16.214391 33.239777 0.277167 1.061228 -0.002111 -0.001966 979274.000000 0 0 1
27.346456 7.422629 17.573591 33.342993 0.265044 1.015665 -0.008731 -0.001507 -374940.000000 0 0 1
27.168656 8.398729 18.604791 33.982536 0.299815 0.991445 0.004727 -0.009518 141809.000000 0 0 1
26.469856 7.899029 19.714491 33.936840 0.290003 0.950941 0.001201 -0.005571 -306912.000000 0 0 1
27.291206 6.968129 20.639091 34.919004 0.249984 0.938429 0.013052 -0.001908 -136355.000000 0 0 1
26.766976 6.832729 21.948591 35.283110 0.249930 0.899412 0.012841 -0.002873 56170.400000 0 0 1
27.297626 5.720129 22.669291 35.941300 0.206558 0.888302 0.020545 -0.004656 -628466.000000 0 0 1
26.663666 5.565429 24.066791 36.347428 0.205773 0.847136 0.026429 -0.003320 115609.000000 0 0 1
25.338356 5.097729 24.209491 35.413537 0.198536 0.818082 0.015087 0.003909 20351.700000 0 0 1
24.407056 6.182629 24.209391 34.928841 0.248095 0.805007 0.017704 0.002028 -147974.000000 0 0 1
22.942856 5.700029 24.187391 33.821515 0.243514 0.773960 0.013297 -0.001975 -97505.500000 0 0 1
22.630056 5.084529 22.928991 32.614575 0.221010 0.791149 -0.000834 0.008907 394768.000000 0 0 1
21.202556 5.137929 22.906591 31.633188 0.237743 0.761022 0.019699 -0.002319 -345210.000000 0 0 1
20.524056 4.544929 21.649391 30.175974 0.217927 0.770679 0.015765 0.002912 -160212.000000 0 0 1
19.186456 4.844229 21.338191 29.101633 0.247313 0.747736 0.031391 -0.004800 357311.000000 0 0 1
18.299056 4.124129 22.204391 29.067144 0.221670 0.701461 0.044088 -0.007690 -54198.300000 0 0 1
16.822256 3.974429 21.746891 27.779699 0.232006 0.671589 0.074251 -0.009422 10321.900000 0 0 1
16.557956 3.074529 20.721191 26.701805 0.183592 0.682462 0.063650 -0.006115 643690.000000 0 0 1
15.158356 2.887229 20.465391 25.630920 0.188217 0.646055 0.070436 -0.017393 476274.000000 0 0 1
14.398956 1.915829 21.374491 25.843165 0.132276 0.596895 0.085701 -0.019171 -733679.000000 0 0 1
14.572856 0.545129 21.042791 25.602038 0.037390 0.606025 0.061108 -0.014306 726958.000000 0 0 1
13.785456 -0.229771 21.992191 25.956657 -0.016666 0.559980 0.059371 -0.015383 381199.000000 0 0 1
13.932356 -1.740071 21.798891 25.929328 -0.124251 0.572214 0.039296 -0.011247 -125022.000000 0 0 1
13.489356 -2.341971 20.600591 24.735236 -0.171903 0.586570 0.031974 -0.008542 167916.000000 0 1 0
13.771856 -3.695171 20.702491 25.137849 -0.262139 0.603140 0.033756 0.004865 -107959.000000 0 0 1
13.556956 -4.397571 19.353091 24.034804 -0.313669 0.634765 0.036752 0.001286 -126691.000000 0 1 0
12.202056 -4.609471 19.050591 23.088144 -0.361190 0.600374 0.026321 0.000407 -355909.000000 0 1 0
11.929656 -5.094271 17.751491 21.985989 -0.403585 0.631064 0.031058 -0.000999 -343304.000000 0 1 0
10.437056 -5.248971 17.479891 21.024520 -0.465978 0.589165 0.031368 -0.003830 -353234.000000 0 1 0
9.842956 -6.135771 18.400991 21.751504 -0.557424 0.562426 0.026202 0.003335 983170.000000 0 1 0
8.443956 -6.341271 18.054991 20.916377 -0.644130 0.529225 0.020097 -0.011183 1422590.000000 0 1 0
7.587756 -6.934671 19.198991 21.777625 -0.740458 0.491571 0.008170 -0.006426 -196628.000000 0 1 0
7.493156 -8.370071 19.238091 22.278007 -0.840622 0.528536 -0.006634 0.000693 481717.000000 0 1 0
8.661356 -9.012271 19.775091 23.394323 -0.805251 0.563680 0.012949 -0.003400 651502.000000 0 1 0
8.753356 -10.425771 19.136091 23.484206 -0.872378 0.618327 0.024525 -0.010818 189286.000000 0 1 0
9.058356 -10.365371 17.727491 22.444569 -0.852586 0.660258 0.021350 -0.008753 -45463.800000 0 1 0
9.453856 -11.620771 17.311491 22.893349 -0.887859 0.713341 0.025257 -0.011880 -9202.000000 0 1 0
9.668156 -11.740371 15.801591 21.931708 -0.881891 0.766287 0.031431 -0.020609 179411.000000 0 1 0
10.032556 -13.024671 15.354791 22.495863 -0.914446 0.819536 0.016700 -0.014752 -62342.700000 0 1 0
9.882956 -13.114871 13.958891 21.552803 -0.925015 0.866287 0.018558 -0.011144 -204899.000000 0 1 0
10.467256 -14.381171 13.231691 22.168878 -0.941626 0.931216 0.030556 -0.020163 605321.000000 0 1 0
11.794456 -14.356771 12.695791 22.503537 -0.883067 0.971370 0.017788 -0.016660 559619.000000 0 1 0
12.088856 -13.382971 11.655191 21.472956 -0.836160 0.997047 0.001367 -0.012653 -1241290.000000 0 1 0
13.538256 -13.334471 11.203191 22.059102 -0.777815 1.038084 0.013862 -0.014039 -525084.000000 0 1 0
14.102856 -14.371771 10.505691 22.711405 -0.794842 1.089901 0.021096 -0.017207 -329534.000000 0 1 0
15.462356 -14.165971 10.207591 23.322824 -0.741671 1.117796 0.035852 -0.024826 17183.600000 0 1 0
16.138056 -15.502371 9.744091 24.407123 -0.765310 1.160118 0.026122 -0.027662 89039.800000 0 1 0
16.658356 -16.333971 10.718291 25.674524 -0.775566 1.140139 0.031313 -0.021148 -106422.000000 0 0 1
15.656056 -17.182771 11.175091 25.792293 -0.831856 1.122676 0.052472 -0.016585 -10420.600000 0 0 1
16.080356 -17.857071 12.537991 27.104502 -0.837703 1.089894 0.035380 -0.016166 -90620.900000 0 0 1
17.357056 -18.446771 12.466191 28.230421 -0.815824 1.113429 0.057508 -0.020227 -139473.000000 0 0 1
17.762256 -18.981671 13.699891 29.385176 -0.818573 1.085786 0.038009 -0.021449 -382620.000000 0 0 1
19.076256 -19.756971 13.648091 30.667765 -0.802926 1.109588 0.015407 -0.023625 85771.400000 0 0 1
20.164156 -18.844371 13.567891 30.753718 -0.751578 1.113884 0.022654 -0.025266 -265978.000000 0 0 1
21.406156 -19.427571 13.268991 31.807549 -0.736981 1.140473 0.017011 -0.030636 448598.000000 0 0 1
22.216856 -18.717671 12.105191 31.471822 -0.700123 1.175983 0.028653 -0.027479 -135380.000000 0 0 1
21.842256 -19.059771 10.773091 30.926017 -0.717475 1.214986 0.020667 -0.015351 1471680.000000 0 0 1
20.511456 -18.767771 10.223491 29.622100 -0.741035 1.218418 0.028302 -0.017894 1592390.000000 0 0 1
20.179256 -17.288471 10.005091 28.393581 -0.708397 1.210692 0.074891 -0.028913 -157049.000000 0 0 1
21.067656 -16.629471 9.147791 28.356084 -0.668205 1.242317 0.062135 -0.020765 64587.100000 0 0 1
20.568156 -15.310071 9.031891 27.184966 -0.639880 1.232120 0.062298 -0.033595 216388.000000 0 0 1
-34.224070 24.642791 8.412491 43.003768 -0.624051 1.373904 0.044588 -0.002942 -260122.000000 0 0 1
-33.195025 23.997891 9.078291 41.955021 -0.625954 1.352690 0.047452 -0.021265 -825796.000000 0 0 1
-32.236475 24.783391 9.648591 41.791172 -0.655425 1.337818 0.044442 -0.009248 -150025.000000 0 0 1
-31.090695 23.873791 10.320291 40.535140 -0.654844 1.313361 0.048514 -0.033200 1011910.000000 0 0 1
-30.257515 23.290691 9.294191 39.298288 -0.656021 1.332030 0.045192 -0.026876 373369.000000 0 0 1
-29.424755 22.299891 9.849491 38.211435 -0.648514 1.310090 0.045247 -0.026329 337066.000000 0 0 1
-28.623775 21.437991 8.813391 36.831831 -0.642834 1.329165 0.042813 -0.031761 782858.000000 0 0 1
-29.587325 20.640191 8.113391 36.976403 -0.609115 1.349576 0.044871 -0.034980 1097880.000000 0 0 1
-28.964545 20.003691 6.990191 35.888094 -0.604407 1.374766 0.052677 -0.033054 144856.000000 0 0 1
-30.039075 19.267491 6.168191 36.216416 -0.570316 1.399647 0.050313 -0.023605 -153493.000000 0 0 1
-30.453015 18.024891 6.664991 36.009789 -0.534436 1.384635 0.062666 -0.027111 936153.000000 0 0 1
-31.696605 17.673391 6.029391 36.788273 -0.508644 1.406159 0.044046 -0.024739 664317.000000 0 0 1
-32.357465 16.333291 6.462191 36.817684 -0.467462 1.394364 0.067179 -0.023512 -495484.000000 0 0 1
-33.083725 16.514691 7.622991 37.754177 -0.462990 1.367487 0.051093 -0.020225 -187829.000000 0 0 1
-33.839695 15.384291 7.960991 38.015507 -0.426691 1.359820 0.056037 -0.013607 87201.100000 0 0 1
-34.910634 15.656891 9.067791 39.320674 -0.421593 1.338090 0.058950 -0.020828 88509.100000 0 0 1
35.524967 16.689691 8.820691 40.229015 0.439198 1.349738 0.060766 -0.017441 -28109.500000 0 0 1
34.886466 17.120591 10.032091 40.135060 0.456222 1.318159 0.075202 -0.020973 277157.000000 0 0 1
33.915886 18.321691 9.941791 39.809683 0.495296 1.318392 0.064757 -0.022501 766504.000000 0 0 1
32.772346 18.089891 9.113091 38.526864 0.504367 1.331995 0.052625 -0.017512 1079850.000000 0 0 1
31.825496 19.192191 9.143791 38.272853 0.542655 1.329553 0.044270 -0.009274 950774.000000 0 0 1
30.502576 19.155491 8.334691 36.970354 0.560751 1.343399 0.011616 -0.008568 20228.000000 0 0 1
29.863056 20.390791 8.507591 37.147888 0.599096 1.339726 -0.002197 -0.000942 -318105.000000 0 0 1
28.677076 20.705191 7.821391 36.225044 0.625347 1.353171 -0.012571 -0.004726 -126756.000000 0 0 1
28.480376 20.524891 6.283891 35.663570 0.624463 1.393672 -0.024726 0.008937 -677004.000000 0 0 1
28.531806 19.170891 5.911591 34.878846 0.591626 1.400485 -0.008397 0.003552 -15995.300000 0 0 1
28.268286 18.850191 4.568391 34.282589 0.588117 1.437142 -0.002677 0.000677 -90530.600000 0 0 1
26.870926 19.149391 3.998291 33.237512 0.619161 1.450210 0.012723 0.004648 -37135.800000 0 0 1
25.772056 18.320691 4.413891 31.926933 0.617987 1.432102 0.012459 -0.002509 1500240.000000 0 0 1
24.448256 18.630491 3.967891 30.992847 0.651161 1.442418 0.024349 -0.012428 982602.000000 0 0 1
23.744856 19.871291 4.548691 31.294999 0.696820 1.424931 0.014411 -0.013034 -439983.000000 0 0 1
24.450956 21.030991 4.146591 32.516858 0.710345 1.442927 0.017386 -0.010083 297767.000000 0 0 1
23.840956 22.193891 4.642691 32.901589 0.749635 1.429215 0.019008 -0.009702 197438.000000 0 0 1
24.762656 23.404591 4.337291 34.347869 0.757211 1.444183 0.008651 -0.005619 -183039.000000 0 0 1
26.075556 23.341491 4.806491 35.325093 0.730128 1.434308 -0.004698 -0.001435 -353427.000000 0 0 1
26.779576 24.498491 4.355391 36.555317 0.740943 1.451367 0.004390 -0.002045 -650168.000000 0 0 1
28.089956 24.637191 5.184591 37.721569 0.720008 1.432916 -0.007411 -0.000391 420615.000000 0 0 1
29.111036 23.656191 4.918391 37.831975 0.682388 1.440421 -0.010220 -0.004800 639132.000000 0 0 1
29.623176 23.599291 3.558991 38.041103 0.672695 1.477103 -0.002242 -0.012064 -685776.000000 0 0 1
30.627956 24.656991 3.101291 39.441817 0.677812 1.492086 0.021740 -0.015925 -721269.000000 0 0 1
30.011036 25.910791 3.100291 39.769878 0.712208 1.492761 0.007075 -0.017000 -174028.000000 0 0 1
30.751876 26.883591 2.348591 40.913582 0.718382 1.513361 0.032380 -0.014322 -710427.000000 0 0 1
30.208756 28.282991 2.699791 41.470295 0.752486 1.505648 0.031499 -0.007744 -151565.000000 0 0 1
28.948946 28.598591 2.220891 40.753567 0.779310 1.516274 0.046839 -0.015852 -936221.000000 0 0 1
27.862066 27.961391 2.849891 39.575952 0.787177 1.498723 0.023538 -0.004040 -931017.000000 0 0 1
26.549296 28.558691 2.282191 39.059856 0.821845 1.512335 0.009847 0.001814 -97898.100000 0 0 1
26.382686 29.860591 2.741991 39.940199 0.847156 1.502090 0.013069 -0.004820 515901.000000 0 0 1
25.088556 30.398191 2.440291 39.489754 0.880800 1.508961 0.008197 0.002000 681947.000000 0 0 1
24.839356 31.847491 3.016891 40.501332 0.908403 1.496239 0.016451 -0.006538 -195569.000000 0 0 1
24.675156 32.028691 4.415091 40.671776 0.914362 1.462028 0.011232 -0.029658 -84554.900000 0 0 1
25.900356 32.018491 5.123091 41.500099 0.890641 1.447033 0.006311 -0.029850 76122.800000 0 0 1
25.753056 31.728891 6.649091 41.402329 0.888986 1.409501 0.013712 -0.038391 -56300.000000 0 0 1
25.242556 30.473691 7.053891 40.194401 0.879013 1.394388 0.013183 -0.037351 519097.000000 0 0 1
26.033256 29.269491 6.703691 39.741326 0.843850 1.401303 -0.002139 -0.031725 236512.000000 0 0 1
25.524956 27.914291 7.226891 38.509206 0.830080 1.382010 0.004920 -0.025046 -342549.000000 0 0 1
24.292456 27.614791 6.620091 37.370118 0.849316 1.392707 0.013970 -0.031082 -325014.000000 0 0 1
23.872156 26.298391 6.847991 36.171538 0.833720 1.380327 0.027782 -0.028963 -475693.000000 0 0 1
22.514456 25.973191 6.199491 34.927655 0.856610 1.392356 0.042289 -0.017232 -383262.000000 0 0 1
22.470856 25.907791 4.805791 34.630169 0.856321 1.431572 0.026210 -0.019487 177162.000000 0 0 1
22.889456 27.087491 4.151091 35.705615 0.869201 1.454274 0.023083 -0.017374 -511341.000000 0 0 1
22.833656 26.983091 2.579191 35.441716 0.868500 1.497959 0.026793 -0.009109 -294588.000000 0 0 1
23.931256 26.257391 2.099491 35.588811 0.831713 1.511769 0.009404 0.005005 -89991.700000 0 0 1
23.810656 25.977691 0.724691 35.246460 0.828896 1.550234 0.016114 0.001764 -19795.600000 0 0 1
25.119756 25.408391 0.152091 35.729702 0.791110 1.566540 0.032755 -0.001576 -1431080.000000 0 0 1
26.238956 26.224291 0.080791 37.097207 0.785119 1.568619 0.028461 0.003247 -738680.000000 0 0 1
27.202216 25.773891 -0.806209 37.482049 0.758443 1.592307 0.026334 0.008717 -408730.000000 0 0 1
28.064676 24.564691 -0.384009 37.298761 0.718993 1.581092 0.026657 -0.002478 -1083050.000000 0 0 1
27.342026 23.344691 -0.401209 35.954443 0.706697 1.581955 0.027413 -0.005980 -278356.000000 0 0 1
27.852156 22.313591 0.352291 35.689817 0.675438 1.560925 0.027399 -0.009538 -415543.000000 0 0 1
26.746426 21.375091 0.904891 34.250323 0.674238 1.544373 0.025984 -0.007233 55975.300000 0 0 1
26.224056 20.512391 -0.048409 33.293568 0.663791 1.572250 0.038892 -0.020801 -246179.000000 0 0 1
25.127956 19.866791 0.508891 32.036893 0.668998 1.554911 0.028682 -0.008976 -745261.000000 0 0 1
24.552256 18.715591 -0.356909 30.874164 0.651311 1.582357 0.033114 -0.016314 -529942.000000 0 0 1
23.363756 18.278991 0.243091 29.665564 0.663895 1.562602 0.030881 -0.015836 101154.000000 0 0 1
22.603756 17.410391 -0.608009 28.538065 0.656331 1.592103 0.038549 -0.027586 153304.000000 0 0 1
21.350156 16.888191 0.104191 27.222252 0.669235 1.566969 0.032485 -0.016638 -698385.000000 0 0 1
20.742656 15.784191 -0.569709 26.071499 0.650474 1.592650 0.030274 -0.020380 1253670.000000 0 0 1
19.348356 15.508791 -0.316809 24.798828 0.675689 1.583572 0.035003 -0.017556 1438120.000000 0 1 0
18.322356 16.500291 -0.985809 24.676713 0.733122 1.610756 0.031815 -0.021562 -122111.000000 0 1 0
18.433756 17.800891 -0.427309 25.629235 0.767934 1.587470 0.026554 -0.016441 150104.000000 0 0 1
17.514256 18.708791 -1.035909 25.648414 0.818363 1.611196 0.017381 -0.023118 289191.000000 0 0 1
17.700356 20.156791 -0.574309 26.831486 0.850194 1.592202 0.023957 -0.015489 -544487.000000 0 0 1
17.206756 20.430291 0.684491 26.719614 0.870838 1.545176 0.020377 -0.014460 -134493.000000 0 0 1
17.316556 21.837991 0.919391 27.885592 0.900366 1.537820 0.031653 -0.014668 6626.180000 0 0 1
16.089856 22.695391 0.491891 27.824561 0.954090 1.553117 0.025041 -0.021433 45605.300000 0 0 1
14.908956 22.425291 1.229091 26.957027 0.984068 1.525186 0.019382 -0.016718 142304.000000 0 0 1
13.955956 23.379691 0.765491 27.239028 1.032640 1.542690 0.011759 -0.020010 1061450.000000 0 0 1
12.527156 23.340391 1.443391 26.528981 1.078209 1.516361 0.014562 -0.020735 1047690.000000 0 0 1
12.539356 24.005991 2.647191 27.212693 1.089435 1.473364 0.005826 -0.001945 -263187.000000 0 0 1
11.295156 23.865491 3.271391 26.605341 1.128749 1.447524 -0.003621 -0.002617 -261682.000000 0 0 1
11.208656 24.220891 4.772091 27.111960 1.137375 1.393860 -0.000125 -0.003367 46978.300000 0 0 1
11.933556 23.345391 5.636091 26.817579 1.098250 1.359054 0.007483 -0.004233 605432.000000 0 0 1
11.204456 23.111191 6.860191 26.584379 1.119377 1.309789 -0.002811 0.012170 -159409.000000 0 0 1
11.742256 21.896791 7.648791 25.997193 1.078567 1.272161 0.012457 0.004237 124437.000000 0 0 1
12.912656 22.159391 8.402291 26.988401 1.043182 1.254204 0.024992 0.011597 826333.000000 0 0 1
14.099656 21.747091 7.687291 27.033881 0.995584 1.282460 0.026535 0.002223 890922.000000 0 0 1
15.418956 21.862391 8.516491 28.075594 0.956540 1.262599 0.046636 -0.001672 298455.000000 0 0 1
15.567856 20.789391 9.450891 27.638311 0.928040 1.221806 0.056892 -0.001338 258555.000000 0 0 1
16.863356 20.757591 10.020391 28.559737 0.888543 1.212310 0.064466 -0.009443 233789.000000 0 0 1
17.187356 21.536491 11.283591 29.774907 0.897241 1.182121 0.048469 -0.010912 -551698.000000 0 0 1
16.541656 20.957991 12.347891 29.416563 0.902628 1.137616 0.058102 -0.013643 -159100.000000 0 0 1
16.798756 21.665291 13.547291 30.579603 0.911251 1.111835 0.062901 -0.012305 726754.000000 0 0 1
18.120956 21.238891 14.289891 31.363363 0.864449 1.097724 0.033339 -0.003016 1053060.000000 0 0 1
19.353056 21.566591 13.648891 32.030467 0.839440 1.130594 0.032617 0.001475 -11414.400000 0 0 1
20.386656 21.098391 14.521891 32.735961 0.802553 1.111177 0.020155 -0.002042 182021.000000 0 0 1
21.778456 21.553691 14.032491 33.701239 0.780211 1.141337 0.011954 -0.000387 -142191.000000 0 0 1
22.114156 20.953491 12.786591 33.039092 0.758455 1.173405 0.017779 0.006071 -551533.000000 0 0 1
23.495956 21.106391 12.646691 34.021735 0.731874 1.189931 0.007805 0.009760 -562600.000000 0 0 1
24.099256 20.391491 11.430691 33.574510 0.702252 1.223393 0.012286 0.003270 -426280.000000 0 0 1
23.873356 21.145791 10.256691 33.500467 0.724885 1.259634 0.016281 0.002957 317474.000000 0 0 1
24.833356 20.935891 9.260191 33.775113 0.700448 1.293068 0.038432 -0.006097 -431510.000000 0 0 1
24.514756 21.977291 8.137891 33.914596 0.730874 1.328479 0.009842 -0.009391 45738.100000 0 0 1
24.762256 23.343291 8.488791 35.073325 0.755910 1.326339 0.012308 -0.007346 737447.000000 0 0 1
26.147156 23.672891 8.561891 36.295806 0.735775 1.332660 -0.001540 -0.009169 40179.600000 0 0 1
26.446236 25.011991 9.249491 37.557372 0.757533 1.321960 -0.006805 -0.007664 -693878.000000 0 0 1
27.733296 25.521591 9.073391 38.766142 0.743891 1.334550 -0.022036 -0.001854 -251069.000000 0 0 1
27.960706 26.683091 9.830391 39.880133 0.762022 1.321731 -0.012866 -0.000683 43144.100000 0 0 1
29.193336 27.420791 9.279391 41.112744 0.754099 1.343129 -0.012756 0.000926 -64208.300000 0 0 1
28.907246 28.186191 8.116691 41.182167 0.772769 1.372405 -0.013601 -0.003507 144582.000000 0 0 1
30.067506 28.270791 7.309391 41.913241 0.754610 1.395507 -0.000648 0.000611 -145374.000000 0 0 1
30.085786 29.324391 6.202691 42.468197 0.772583 1.424217 0.011060 -0.000969 -68718.000000 0 0 1
30.168816 30.688691 6.684291 43.550350 0.793940 1.416703 0.010389 -0.004371 102886.000000 0 0 1
30.211916 31.603191 5.597891 44.077862 0.807901 1.443452 0.008490 -0.012418 -48021.300000 0 0 1
30.222056 33.035891 6.025591 45.177987 0.829851 1.437023 -0.000132 -0.009128 -197839.000000 0 0 1
28.947226 33.503191 6.374491 44.732984 0.858222 1.427809 -0.008053 -0.017207 -205893.000000 0 0 1
28.903686 -33.950448 6.618291 45.076133 -0.865520 1.423439 0.004618 -0.016837 -1423850.000000 0 0 1
27.647926 -33.419848 7.203991 43.968074 -0.879635 1.406208 0.035805 -0.027868 -1100250.000000 0 0 1
26.636066 -33.536448 6.226691 43.277535 -0.899576 1.426417 0.032447 -0.032143 -183672.000000 0 0 1
25.376856 -33.075348 6.705691 42.224753 -0.916350 1.411312 0.017155 -0.032645 267942.000000 0 0 1
24.241656 -33.168748 5.671191 41.472716 -0.939659 1.433621 0.030667 -0.017614 -172986.000000 0 0 1
24.401756 -32.408148 4.468691 40.813025 -0.925409 1.461085 0.021348 0.004438 -853962.000000 0 0 1
23.387156 -32.628148 3.571091 40.302702 -0.948898 1.482073 0.030069 -0.004226 -745398.000000 0 0 1
23.638456 -31.910748 2.193991 39.772931 -0.933230 1.515605 0.025704 0.016394 -95793.700000 0 0 1
23.779456 -30.514648 2.287491 38.753566 -0.908818 1.511735 0.027411 0.017195 -306024.000000 0 0 1
24.675156 -30.008548 1.352791 38.874238 -0.882622 1.535990 0.022759 0.025796 -534788.000000 0 0 1
24.916756 -28.503448 1.530191 37.889745 -0.852439 1.530400 0.025684 0.014670 398395.000000 0 0 1
23.794656 -27.654048 1.261291 36.503738 -0.860272 1.536237 0.012156 0.012266 336630.000000 0 0 1
23.245756 -27.575148 -0.052009 36.066005 -0.870382 1.572238 0.022924 0.010840 450209.000000 0 0 1
22.034156 -26.588548 -0.165409 34.532337 -0.878794 1.575586 0.000881 0.010170 75910.300000 0 0 1
22.384356 -25.249748 0.107291 33.743454 -0.845480 1.567617 -0.001415 0.002378 -226547.000000 0 0 1
22.496556 -24.843648 1.464691 33.547686 -0.834937 1.527122 -0.014041 0.010859 -429133.000000 0 0 1
21.256656 -24.762448 2.349391 32.719167 -0.861433 1.498930 -0.022859 0.013182 -574423.000000 0 0 1
21.451556 -23.963348 3.483891 32.350407 -0.840650 1.462895 -0.023645 0.010457 -675883.000000 0 0 1
20.316256 -23.795548 4.275091 31.579341 -0.864110 1.435003 -0.015938 0.012919 -590927.000000 0 0 1
20.511056 -22.899348 5.522391 31.234282 -0.840359 1.393057 -0.012221 0.008638 -285004.000000 0 0 1
20.674156 -21.532448 5.350091 30.326400 -0.805731 1.393451 0.003988 0.012526 967376.000000 0 0 1
19.501256 -20.809648 4.867591 28.931538 -0.817844 1.401747 0.000807 0.009639 126934.000000 0 0 1
19.571256 -19.296448 5.211991 27.974128 -0.778328 1.383387 0.007881 0.009727 26253.600000 0 0 1
19.340356 -18.852048 6.536891 27.788128 -0.772613 1.333330 0.038745 -0.005182 940547.000000 0 0 1
17.950956 -18.872648 6.943191 26.955919 -0.810423 1.310284 0.025613 0.002386 1214270.000000 0 0 1
18.408215 -26.588299 -12.088709 34.524440 -0.965228 1.928527 0.051457 -0.010561 -114151.000000 0 0 1
18.539515 -25.230399 -12.431109 33.687077 -0.937089 1.948748 0.062941 -0.014977 425540.000000 0 0 1
17.281215 -24.662509 -12.833809 32.735095 -0.959595 1.973656 0.038885 -0.012322 563422.000000 0 0 1
17.320415 -23.112509 -13.096809 31.712951 -0.927682 1.996520 0.036182 -0.018991 -15310.700000 0 0 1
17.573815 -22.262109 -12.018309 30.803900 -0.902549 1.971597 0.045591 -0.018631 -323245.000000 0 0 1
18.863515 -22.213009 -11.447109 31.309524 -0.866761 1.945086 0.053161 -0.024539 -415664.000000 0 0 1
18.928915 -22.962209 -10.030709 31.403535 -0.881383 1.895907 0.055074 -0.016448 458849.000000 0 0 1
18.106915 -22.353709 -8.994509 30.140502 -0.889976 1.873832 0.059204 -0.015784 933265.000000 0 0 1
16.725215 -22.702609 -9.106809 29.632335 -0.935856 1.883179 0.047493 -0.004149 115900.000000 0 0 1
15.723715 -21.984009 -8.225709 28.252330 -0.949919 1.866227 0.038616 -0.008197 -591179.000000 0 0 1
15.343315 -20.648409 -8.568609 27.114483 -0.931742 1.892324 0.029003 -0.011834 -104674.000000 0 0 1
14.554015 -20.026509 -7.612909 25.900518 -0.942350 1.869131 0.023455 -0.011910 230844.000000 0 0 1
13.021715 -20.066609 -7.874409 25.184126 -0.995178 1.888803 0.016317 0.001102 112646.000000 0 0 1
12.534315 -21.329109 -8.175009 26.055148 -1.039498 1.889945 0.019147 0.001617 -1478290.000000 0 0 1
11.169215 -21.358509 -8.321609 25.498754 -1.088966 1.903240 0.018311 0.000995 -1235890.000000 0 0 1
10.578715 -22.749209 -7.957409 26.320260 -1.135527 1.877933 0.018365 -0.002299 -222414.000000 0 0 1
10.806715 -22.952909 -6.602409 26.214747 -1.130763 1.825397 0.026055 -0.005617 71850.200000 0 0 1
10.267315 -24.149709 -6.134409 26.949160 -1.168796 1.800438 0.021260 -0.006163 -191513.000000 0 0 1
10.753615 -24.612309 -4.773109 27.279820 -1.158873 1.746670 0.036210 -0.007553 -304396.000000 0 0 1
9.993415 -25.643019 -4.200709 27.840236 -1.199189 1.722261 0.056499 -0.010498 -594270.000000 0 0 1
10.595215 -26.245659 -3.126109 28.475705 -1.187110 1.680800 0.044379 -0.011297 -228310.000000 0 0 1
9.587015 -27.065809 -2.312209 28.806513 -1.230375 1.651150 0.055750 -0.011006 402589.000000 0 0 1
8.608915 -26.257479 -1.669209 27.683116 -1.253975 1.631130 0.053158 -0.012499 63948.700000 0 0 1
7.837515 -27.042239 -0.768509 28.165581 -1.288700 1.598085 0.055363 -0.014531 18428.300000 0 0 1
7.019615 -26.347459 0.295891 27.268135 -1.310420 1.559945 0.057422 -0.014141 228957.000000 0 0 1
5.659615 -26.040509 0.034991 26.648463 -1.356786 1.569483 0.069298 -0.023223 3157.950000 0 0 1
5.107115 -25.446119 1.184491 25.980582 -1.372725 1.525189 0.060612 -0.017536 -181270.000000 0 0 1
3.663415 -24.940509 0.983191 25.227292 -1.424953 1.531813 0.028377 -0.022312 388401.000000 0 0 1
2.694415 -25.947419 0.822491 26.099903 -1.467326 1.539278 0.014433 -0.021879 429180.000000 0 0 1
1.364415 -25.497909 0.550991 25.540333 -1.517336 1.549221 0.005067 -0.015276 521683.000000 0 0 1
0.445715 -26.518139 -0.063409 26.521961 -1.553990 1.573187 0.010637 -0.013160 -324090.000000 0 0 1
0.015515 -27.586209 0.745891 27.596296 -1.570234 1.543764 0.010804 -0.006557 -165855.000000 0 0 1
0.852515 -28.729059 0.684691 28.749860 -1.541131 1.546979 -0.000123 -0.008675 -276164.000000 0 0 1
0.374515 -29.898709 1.591991 29.943405 -1.558271 1.517605 0.006646 -0.001319 83373.200000 0 0 1
0.722015 -29.671949 2.943591 29.826341 -1.546468 1.471944 -0.001600 -0.001363 108290.000000 0 0 1
0.133315 -30.672959 3.761891 30.903075 -1.566450 1.448762 0.009724 -0.002371 -172359.000000 0 0 1
0.326915 -30.509119 5.292291 30.966459 -1.560081 1.399049 0.011856 -0.005662 -496189.000000 0 0 1
1.648115 -30.681089 5.739391 31.256777 -1.517130 1.386128 0.003302 0.005157 -123125.000000 0 0 1
1.699515 -30.634409 7.124891 31.497928 -1.515376 1.342620 0.013366 0.005979 -277875.000000 0 0 1
3.086315 -31.063079 7.599591 32.127777 -1.471765 1.331990 0.016624 0.005844 -153701.000000 0 0 1
3.269915 -32.457399 7.452591 33.462161 -1.470390 1.346196 0.003359 0.005164 361319.000000 0 0 1
4.566815 -32.811089 7.932591 34.063902 -1.432500 1.335765 0.005319 0.005387 393858.000000 0 0 1
4.701715 -34.331176 7.721591 35.501532 -1.434691 1.351544 -0.001192 0.017690 -232558.000000 0 0 1
4.729615 34.035963 6.384091 34.951004 1.432721 1.387107 -0.003196 0.020374 58388.600000 0 0 1
4.684615 32.614829 6.309291 33.548172 1.428138 1.381603 -0.009417 0.014134 -125682.000000 0 0 1
5.160515 32.094779 4.889091 32.872617 1.411371 1.421514 0.000885 0.006677 -329538.000000 0 0 1
6.526915 32.266249 4.646191 33.246030 1.371207 1.430586 0.010294 0.007457 -729246.000000 0 0 1
7.120415 31.018389 4.331391 32.118557 1.345151 1.435528 0.007004 0.009750 186180.000000 0 0 1
8.569315 31.215109 3.836391 32.596535 1.302872 1.452830 -0.001491 0.004400 79956.500000 0 0 1
9.563115 31.475249 4.804891 33.245021 1.275830 1.425759 0.007564 -0.000306 -640833.000000 0 0 1
10.771915 31.777469 4.161491 33.810645 1.243973 1.447401 0.024902 -0.008549 -437991.000000 0 0 1
11.822115 32.131679 5.221291 34.633352 1.218241 1.419460 0.041104 -0.019193 -288794.000000 0 0 1
12.310115 30.961009 5.891191 33.835324 1.192360 1.395791 0.035258 -0.016535 651247.000000 0 0 1
13.442815 31.321939 6.718291 34.740590 1.165389 1.376186 0.053734 -0.019826 594856.000000 0 0 1
14.016615 30.230809 7.635691 34.185832 1.136646 1.345538 0.051926 -0.014542 55616.700000 0 0 1
13.339015 29.885699 8.846091 33.901883 1.150995 1.306809 0.044139 -0.006408 171440.000000 0 0 1
14.086115 28.866399 9.458691 33.483645 1.116814 1.284411 0.048137 -0.013157 131059.000000 0 0 1
14.039215 28.858659 10.979291 33.918529 1.118022 1.241163 0.044662 0.000213 169771.000000 0 0 1
14.684015 30.052129 11.407091 35.339390 1.116296 1.242124 0.054115 0.006135 306608.000000 0 0 1
14.368315 30.239499 12.765891 35.830765 1.127225 1.206510 0.053839 0.009427 -72599.400000 0 0 1
15.160015 31.407339 13.330091 37.335483 1.121092 1.205704 0.061575 0.005841 800685.000000 0 0 1
16.501415 31.092759 13.756391 37.792786 1.082879 1.198243 0.055325 0.002996 988314.000000 0 0 1
17.126015 32.323179 14.236091 39.252447 1.083565 1.199654 0.055529 0.010716 280762.000000 0 0 1
18.276515 31.985309 15.232891 39.863918 1.051669 1.178705 0.053917 0.013183 573009.000000 0 0 1
19.446015 31.365339 14.723091 39.732875 1.015812 1.191193 0.023649 0.013487 248295.000000 0 0 1
19.412615 29.976739 14.924791 38.706639 0.996118 1.174952 0.015381 0.015663 -79229.300000 0 0 1
20.634015 29.241339 14.325091 38.549017 0.956292 1.190057 0.014168 0.007315 1024340.000000 0 0 1
21.837515 29.435019 15.094891 39.637774 0.932507 1.180112 0.010361 0.011727 1581520.000000 0 0 1
23.060415 29.141159 14.371091 39.843671 0.901361 1.201792 0.001268 0.012788 1095180.000000 0 0 1
24.338915 29.158579 15.226991 40.920249 0.875247 1.189511 0.010170 0.008057 -87495.900000 0 0 1
24.415615 28.074539 16.115591 40.546446 0.854992 1.162049 -0.001402 0.012655 -201723.000000 0 0 1
24.915015 28.376999 17.394091 41.576032 0.850270 1.139148 -0.002798 0.001758 -990165.000000 0 0 1
25.714915 27.186419 17.771491 41.426853 0.813207 1.127428 -0.013322 -0.001206 -859675.000000 0 0 1
25.071315 26.030399 18.267391 40.495062 0.804164 1.102797 -0.022524 0.004689 -113146.000000 0 0 1
24.814315 26.099429 19.690691 41.044533 0.810634 1.070438 -0.004939 -0.001913 -303423.000000 0 0 1
24.325315 24.611759 20.054091 39.995327 0.791251 1.045568 0.003784 -0.000215 -589622.000000 0 0 1
25.255715 23.561829 20.227591 40.027070 0.750714 1.041011 0.006159 -0.003856 -268390.000000 0 0 1
24.689415 22.261829 20.409891 39.009228 0.733740 1.020187 0.015029 -0.005501 -369461.000000 0 0 1
25.727815 21.115929 20.404791 39.040471 0.687262 1.020831 0.003116 -0.009106 -271113.000000 0 0 1
25.147215 19.814429 20.411791 37.968872 0.667342 1.003217 -0.002832 0.011078 122793.000000 0 0 1
26.062615 18.731929 20.246691 37.948301 0.623185 1.008023 -0.003005 0.004065 223793.000000 0 0 1
26.814715 18.439729 21.559391 39.036648 0.602404 0.985693 0.032330 0.015185 -84816.900000 0 0 1
25.914915 17.938629 22.516791 38.734779 0.605480 0.950463 0.015172 0.019552 113339.000000 0 0 1
26.587415 17.714629 23.718391 39.790209 0.587734 0.932179 0.033832 0.027435 -236624.000000 0 0 1
25.717415 17.097029 24.871991 39.652361 0.586712 0.892778 0.011907 0.032721 175355.000000 0 0 1
25.268715 15.794629 24.427191 38.531363 0.558647 0.884138 0.010075 0.022555 41863.200000 0 0 1
24.367215 15.201529 25.302191 38.275952 0.557773 0.848583 0.005891 0.025299 -581116.000000 0 0 1
23.743115 13.981229 24.624691 36.953831 0.532184 0.841475 0.008153 0.016065 -185826.000000 0 0 1
22.616415 13.445229 25.286091 36.491955 0.536358 0.805262 0.003726 0.011728 377491.000000 0 0 1
22.002215 12.378429 24.574691 35.231213 0.512465 0.798857 0.004572 0.009163 -29598.200000 0 0 1
20.685115 11.812629 25.132191 34.627145 0.518875 0.758608 0.010430 0.003239 51484.500000 0 0 1
19.588415 12.692029 24.977291 34.185650 0.574923 0.751542 0.009141 0.004088 909643.000000 0 0 1
18.345115 11.992829 25.133291 33.347466 0.578996 0.717154 0.013648 0.003598 791979.000000 0 0 1
17.003915 12.722529 25.303891 33.034569 0.642356 0.698229 0.011207 0.000107 69620.600000 0 0 1
16.870515 13.183729 26.626391 34.167085 0.663337 0.677249 0.014239 0.004257 33325.500000 0 0 1
15.591315 13.712629 26.864391 33.953215 0.721375 0.657998 0.018817 0.002658 -239097.000000 0 0 1
15.413315 14.148729 28.260191 35.162412 0.742647 0.637301 0.011253 0.014602 20304.500000 0 0 1
14.888615 13.085329 29.086491 35.198304 0.721024 0.598182 0.014473 0.013436 60451.500000 0 0 1
14.927915 13.370129 30.496791 36.491879 0.730404 0.581364 0.007238 0.013525 -421088.000000 0 0 1
16.275915 13.182529 31.228291 37.601737 0.680773 0.590789 0.005560 0.014708 703279.000000 0 0 1
17.300515 14.152229 30.919791 38.152678 0.685635 0.625923 0.013437 0.013446 1371210.000000 0 0 1
18.606215 13.613529 30.678791 38.375873 0.631664 0.644452 0.022770 0.016620 403482.000000 0 0 1
19.585315 14.713929 30.233491 38.912058 0.644316 0.680958 0.025891 0.017658 -536903.000000 0 0 1
19.368215 15.380729 29.008091 38.120387 0.671147 0.706005 0.016434 0.018923 312280.000000 0 0 1
19.792215 14.681129 27.836791 37.177335 0.638208 0.724611 0.017265 0.015804 -408561.000000 0 0 1
19.517315 15.381729 26.459791 36.299362 0.667447 0.754035 0.004208 0.014515 -392196.000000 0 0 1
20.405715 16.432029 26.166891 37.028515 0.677944 0.786018 0.000697 0.024136 21499.900000 0 0 1
20.466815 16.851829 24.827991 36.322222 0.688831 0.818183 -0.008519 0.017698 -1036010.000000 0 0 1
21.663415 17.612429 24.331891 37.034337 0.682620 0.853952 -0.004839 0.020070 -1101500.000000 0 0 1
21.534115 18.080329 23.004091 36.329115 0.698433 0.885098 -0.009881 0.011821 762393.000000 0 0 1
22.665515 18.851029 22.514391 37.094267 0.693777 0.918578 -0.001782 0.011060 625261.000000 0 0 1
22.805815 20.254129 23.121391 38.274452 0.726208 0.922167 0.006718 0.005252 -567255.000000 0 0 1
21.875115 21.164629 22.635791 37.932060 0.768892 0.931357 0.001306 0.008723 -74394.900000 0 0 1
21.977215 22.372029 23.302691 39.070719 0.794300 0.931759 0.003808 0.009699 309586.000000 0 0 1
21.012215 23.537429 22.824791 38.942198 0.842021 0.944535 -0.011019 0.010885 290769.000000 0 0 1
21.501515 24.275899 21.730191 39.036337 0.845930 0.980430 -0.002597 0.007106 -93816.300000 0 0 1
20.608315 25.302879 21.352591 38.998352 0.887297 0.991392 -0.000267 0.006896 -489961.000000 0 0 1
21.028215 26.318729 20.266391 39.313966 0.896676 1.029204 -0.001839 0.003538 -664625.000000 0 0 1
21.161515 25.656999 18.966991 38.286265 0.881124 1.052502 -0.007230 0.004364 165819.000000 0 0 1
21.452115 26.642869 17.918091 38.614682 0.892909 1.088265 -0.001281 0.001178 -479860.000000 0 0 1
21.555115 26.061759 16.502091 37.631865 0.879761 1.116852 -0.004067 0.014128 -149321.000000 0 0 1
20.317215 25.647589 15.966591 36.407692 0.900849 1.116812 0.002142 0.015274 -391726.000000 0 0 1
20.425515 25.269639 14.635191 35.636289 0.891013 1.147594 0.010406 0.017130 -727335.000000 0 0 1
19.072215 24.898429 13.991591 34.343060 0.917133 1.151184 0.025395 0.002598 316118.000000 0 0 1
18.230915 26.036739 13.777091 34.642261 0.959936 1.161792 0.041957 -0.000267 -284818.000000 0 0 1
17.454515 26.357599 14.886591 34.942720 0.985879 1.130698 0.040327 -0.003150 -516670.000000 0 0 1
15.917315 26.244499 14.577591 33.980006 1.025610 1.127405 0.059093 -0.014346 471478.000000 0 0 1
15.345915 24.946349 14.605391 32.728197 1.019307 1.108211 0.061961 -0.007777 51480.000000 0 0 1
15.327215 24.244279 15.838091 32.765129 1.007037 1.066282 0.056081 -0.000046 -654692.000000 0 0 1
14.309215 24.691529 16.886291 33.159796 1.045572 1.036495 0.084466 -0.012543 -398613.000000 0 0 1
14.676915 25.962009 17.470191 34.563641 1.056265 1.040893 0.063228 -0.014842 63067.800000 0 0 1
13.595915 26.589789 18.120691 34.931722 1.098133 1.025413 0.074740 -0.019127 -205453.000000 0 0 1
13.992815 27.940699 18.777991 36.456748 1.106506 1.029700 0.072827 -0.023134 -313321.000000 0 0 1
14.026615 29.052329 17.903591 36.896102 1.120999 1.064155 0.071917 -0.022308 232674.000000 0 0 1
14.671515 30.126619 18.575891 38.313578 1.117607 1.064618 0.050485 -0.014535 39317.700000 0 0 1
14.439615 31.458849 17.843891 38.943114 1.140483 1.094823 0.053569 -0.014234 -605144.000000 0 0 1
13.139915 31.928329 17.932691 38.905745 1.180378 1.091757 0.063357 -0.009243 -706058.000000 0 0 1
13.012515 33.109961 17.236091 39.530721 1.196331 1.119628 0.052224 -0.008286 2036380.000000 0 0 1
11.537015 33.777439 17.412091 39.713965 1.241660 1.116937 0.047996 -0.010377 1690740.000000 0 0 1
11.323615 -33.792529 16.797891 39.399599 -1.247464 1.130346 0.042902 -0.001737 -186206.000000 0 0 1
12.066115 -32.610409 17.127491 38.760558 -1.216409 1.113104 0.039787 -0.009850 -142315.000000 0 0 1
11.882315 -32.173869 18.609091 39.021091 -1.217018 1.073674 0.038668 -0.018899 -111889.000000 0 0 1
12.693615 -32.956579 19.514591 40.349513 -1.203147 1.065989 0.049581 -0.020011 541093.000000 0 0 1
12.493915 -32.735749 20.861591 40.779078 -1.206200 1.033779 0.053019 -0.023944 -449118.000000 0 0 1
13.604815 -33.363749 21.761591 42.092726 -1.183608 1.027464 0.061218 -0.024152 322406.000000 0 0 1
14.787815 -32.613749 21.493491 41.764893 -1.145100 1.030220 0.057907 -0.023736 -176530.000000 0 0 1
15.873015 -33.107379 22.230991 42.921651 -1.123731 1.026351 0.068310 -0.021504 979921.000000 0 0 1
17.266915 -32.414109 21.926191 42.773575 -1.081334 1.032574 0.078288 -0.026537 1211840.000000 0 0 1
17.162315 -31.097529 22.380991 41.982260 -1.066506 1.008529 0.073218 -0.028072 354738.000000 0 0 1
18.356115 -30.471289 21.964491 41.807718 -1.028609 1.017647 0.066206 -0.022125 -122713.000000 0 0 1
-5.031985 12.940691 18.813073 23.381917 -1.199939 0.635796 0.017830 0.001978 -143364.000000 0 1 0
-4.701085 14.258491 18.454473 23.790173 -1.252315 0.682944 0.020635 -0.002823 187339.000000 0 1 0
-5.830485 14.935791 17.946973 24.065873 -1.198619 0.729146 0.016046 -0.002620 48166.400000 0 1 0
-5.424085 16.359691 17.640873 24.662939 -1.250650 0.773774 0.020079 -0.009122 37404.000000 0 1 0
-5.066785 17.066491 18.788073 25.882988 -1.282200 0.758476 0.031882 -0.005458 176809.000000 0 0 1
-4.501485 18.328091 18.456273 26.397278 -1.329958 0.796556 0.021917 0.003258 -250857.000000 0 0 1
-3.880385 18.987391 19.743073 27.665272 -1.369206 0.776114 0.022635 -0.000859 13034.200000 0 0 1
-4.817685 19.469191 20.682373 28.810068 -1.328217 0.770034 0.018590 -0.003512 -256169.000000 0 0 1
-4.127185 20.139291 21.656573 29.860205 -1.368663 0.759377 0.021384 -0.001485 83695.200000 0 0 1
-5.055185 20.705191 22.788873 31.202444 -1.331330 0.751954 0.009522 0.006402 222197.000000 0 0 1
-5.715685 19.763191 23.568373 31.284516 -1.289269 0.717646 0.011182 -0.006706 -283031.000000 0 0 1
-6.326485 20.189291 24.754343 32.563927 -1.267130 0.707211 0.015703 -0.012965 149225.000000 0 0 1
-5.346485 20.472791 25.944933 33.479241 -1.315351 0.684151 0.006935 -0.009091 -114709.000000 0 0 1
-4.830785 21.824191 25.659883 34.030300 -1.352959 0.716620 0.025431 -0.008578 122752.000000 0 0 1
-3.768285 22.292191 26.460813 34.803970 -1.403339 0.707050 0.026798 -0.002456 699521.000000 0 0 1
-2.349485 21.697191 26.183123 34.085834 -1.462931 0.694846 0.028402 0.001542 38509.200000 0 0 1
-1.998485 20.381791 26.605253 33.574556 -1.473056 0.656025 0.046858 0.003874 -687486.000000 0 0 1
-0.641885 20.185891 26.373473 33.218101 -1.539008 0.653520 0.043148 0.008327 -559305.000000 0 0 1
-0.152585 18.776491 26.729313 32.665517 -1.562670 0.612396 0.051903 0.016221 -196415.000000 0 0 1
-0.550885 17.688691 25.892633 31.362743 -1.539663 0.599557 0.061105 0.010697 -207788.000000 0 0 1
-0.103785 16.410891 26.351383 31.043896 -1.564472 0.557004 0.055927 0.011292 943729.000000 0 0 1
1.425915 16.080591 26.117213 30.703866 1.482355 0.553640 0.070167 0.005513 930302.000000 0 0 1
1.748515 15.763391 24.771433 29.413698 1.460325 0.569495 0.064847 -0.000464 -191410.000000 0 0 1
1.330615 14.446991 24.464653 28.443018 1.478952 0.535275 0.080166 -0.004088 -189633.000000 0 0 1
1.493715 14.236891 22.971473 27.066747 1.466260 0.557279 0.092098 -0.016250 -449691.000000 0 0 1
2.803015 14.114991 22.522773 26.727610 1.374762 0.568558 0.072292 -0.015164 -667489.000000 0 0 1
2.845515 13.648191 21.189773 25.364868 1.365251 0.581939 0.060751 -0.023596 129461.000000 0 0 1
4.323615 13.647991 20.767473 25.223981 1.264003 0.603556 0.046859 -0.023983 397679.000000 0 0 1
4.927915 14.875791 20.279373 25.628625 1.250903 0.657900 0.033170 -0.020931 298921.000000 0 0 1
6.338315 14.809791 20.182173 25.822940 1.166403 0.673634 0.029388 -0.018886 -984.572000 0 0 1
6.829715 15.875091 19.220173 25.847215 1.164516 0.732347 0.031335 -0.019527 -29184.800000 0 0 1
6.301715 15.672191 17.890273 24.604695 1.188485 0.756696 0.026281 -0.027991 361801.000000 0 1 0
6.735215 16.719391 17.040473 24.804815 1.187845 0.813468 0.019211 -0.015336 7763.570000 0 1 0
6.488915 16.365091 15.572373 23.503638 1.193303 0.846576 0.008453 -0.008056 -141654.000000 0 1 0
7.337415 15.431391 14.965973 22.714440 1.126951 0.851474 0.006357 -0.007214 -124220.000000 0 1 0
7.485915 14.096791 15.487973 22.240407 1.082629 0.800443 0.016324 -0.018919 -453553.000000 0 1 0
8.627315 13.263791 14.863673 21.709156 0.994111 0.816641 0.013716 -0.019401 -707451.000000 0 1 0
9.879515 13.815191 15.078373 22.711707 0.949995 0.844770 0.011767 -0.017830 -12313.300000 0 1 0
10.839115 13.122791 14.210373 22.172702 0.880416 0.875133 0.013217 -0.011537 651622.000000 0 1 0
12.248115 13.705691 14.037073 23.127941 0.841500 0.918603 0.030790 -0.005613 -876547.000000 0 1 0
12.919815 13.644191 15.280573 24.219444 0.812660 0.888056 0.037883 -0.010165 -771570.000000 0 1 0
14.240815 14.056591 15.239873 25.152381 0.778888 0.919897 0.032948 -0.008297 -619739.000000 0 0 1
15.242215 13.092291 14.567673 24.818345 0.709667 0.943483 0.022390 -0.012634 -575927.000000 0 1 0
16.566415 13.631191 14.559373 25.927414 0.688502 0.974546 0.024449 -0.016917 204708.000000 0 0 1
17.428615 12.737591 13.966373 25.711134 0.631128 0.996549 0.024308 -0.020380 131581.000000 0 0 1
18.875915 13.282991 13.710273 26.846035 0.613205 1.034797 0.021813 -0.018014 776433.000000 0 0 1
19.706515 13.317391 14.866473 28.048380 0.594290 1.012161 0.001147 -0.011291 795842.000000 0 0 1
21.084215 13.469491 14.493173 28.914068 0.568492 1.045754 0.004481 -0.020865 690312.000000 0 0 1
22.058715 13.339491 15.695673 30.180839 0.543888 1.023882 0.000290 -0.009822 -202244.000000 0 0 1
22.387415 12.035491 16.103673 30.089494 0.493274 1.006061 0.005498 -0.008463 169433.000000 0 0 1
23.140215 12.085091 17.284873 31.309516 0.481293 0.985958 -0.005530 -0.007529 -461644.000000 0 0 1
23.419315 10.646991 17.692273 31.222415 0.426693 0.968358 0.002423 0.004308 -1046920.000000 0 0 1
22.270415 9.910091 17.930173 30.260079 0.418679 0.936593 -0.017856 0.009324 -551126.000000 0 0 1
22.465415 8.503991 18.090473 30.071214 0.361868 0.925309 -0.013865 0.009166 -837033.000000 0 0 1
21.146215 7.836191 18.379773 29.092685 0.354883 0.886967 0.006965 -0.000010 -799969.000000 0 0 1
21.221815 6.452891 18.214973 28.701750 0.295185 0.883268 0.017474 -0.000237 201131.000000 0 0 1
19.913315 5.949191 18.343573 27.720383 0.290314 0.847665 0.020049 0.003004 -416719.000000 0 0 1
19.793415 4.463291 18.104673 27.193371 0.221784 0.842264 0.045193 -0.001721 -538610.000000 0 0 1
19.965515 4.207391 16.698873 26.366195 0.207694 0.884930 0.077436 -0.016809 364800.000000 0 0 1
20.066815 2.859891 16.255873 25.982868 0.141565 0.894847 0.070374 -0.019894 -675012.000000 0 0 1
18.856215 1.991191 16.535873 25.158632 0.105209 0.853613 0.094436 -0.021753 -541259.000000 0 0 1
18.912315 1.515091 17.875973 26.067634 0.079941 0.815158 0.070908 -0.019069 292155.000000 0 0 1
17.611415 1.238591 18.385273 25.489494 0.070213 0.765136 0.075197 -0.014172 181718.000000 0 0 1
17.686915 0.377391 19.621073 26.418854 0.021334 0.733715 0.054546 -0.013191 -76197.400000 0 0 1
18.074615 -0.988509 19.399573 26.533229 -0.054636 0.750801 0.053070 -0.010743 65292.200000 0 0 1
17.164515 -1.895809 19.980873 26.409277 -0.110003 0.712721 0.043386 -0.003240 -132630.000000 0 0 1
17.442115 -3.329509 19.471873 26.352738 -0.188620 0.739369 0.032786 -0.003251 -4004.300000 0 0 1
17.142015 -3.371209 18.083473 25.144099 -0.194185 0.768155 0.042797 -0.007624 201472.000000 0 0 1
17.317015 -4.685209 17.645673 25.163465 -0.264229 0.793659 0.053934 -0.001599 -162015.000000 0 0 1
16.867315 -4.960709 16.195773 23.904351 -0.286037 0.826405 0.047220 -0.008054 -65861.700000 0 1 0
15.480215 -4.769309 15.976773 22.751717 -0.298863 0.792282 0.032580 0.002529 378009.000000 0 1 0
14.982615 -4.766909 14.610573 21.463248 -0.308035 0.822044 0.032449 -0.006101 327867.000000 0 1 0
15.412615 -3.605109 13.709473 20.940276 -0.229775 0.857019 0.037838 -0.004972 -70533.500000 0 1 0
14.829015 -2.365109 14.051773 20.565645 -0.158160 0.818572 0.041223 -0.001690 467222.000000 0 1 0
15.405815 -1.411709 13.180973 20.324126 -0.091380 0.865134 0.048753 -0.008580 207886.000000 0 1 0
14.617115 -0.074909 13.319573 19.775659 -0.005125 0.831817 0.050773 -0.005422 -231139.000000 0 1 0
15.123315 1.113391 12.757373 19.816782 0.073488 0.871387 0.056369 -0.010959 99413.500000 0 1 0
15.903415 1.856191 13.673773 21.055548 0.116191 0.863982 0.068323 -0.017183 -58368.100000 0 1 0
16.286415 3.205691 13.075973 21.130661 0.194348 0.903563 0.071612 -0.019843 137468.000000 0 1 0
15.223415 4.135191 13.265273 20.611153 0.265234 0.871608 0.074218 -0.015223 423144.000000 0 1 0
15.453915 5.420491 12.783473 20.775523 0.337345 0.908012 0.074116 -0.012841 -481398.000000 0 1 0
14.266015 6.378191 12.823173 20.214704 0.420431 0.883631 0.069359 -0.015845 -489724.000000 0 1 0
14.506415 7.566591 12.098673 20.348642 0.480780 0.934067 0.049915 -0.019068 748649.000000 0 1 0
13.453415 8.551991 12.242773 20.100159 0.566238 0.915886 0.032935 -0.012960 413493.000000 0 1 0
13.493615 9.557591 13.431473 21.303278 0.616278 0.888614 0.030826 -0.013263 -122426.000000 0 1 0
13.332915 8.907291 14.716673 21.764349 0.588972 0.828228 0.057360 -0.016205 399902.000000 0 1 0
13.849615 9.675191 15.775673 23.114779 0.609778 0.819628 0.068277 -0.021149 -224815.000000 0 1 0
13.511215 9.125391 17.153373 23.665669 0.594020 0.760022 0.073752 -0.018354 -155225.000000 0 1 0
12.214415 9.430291 17.605773 23.411227 0.657472 0.719671 0.073574 -0.017416 -39638.600000 0 1 0
11.640815 8.760991 18.748573 23.743894 0.645169 0.660612 0.078310 -0.013952 -604.210000 0 1 0
12.237515 9.117691 20.101773 25.238271 0.640332 0.649345 0.080576 -0.012894 -166997.000000 0 0 1
13.572415 8.644191 20.205173 25.829856 0.567107 0.672541 0.069414 -0.010423 -31776.000000 0 0 1
14.044415 8.810291 21.517873 27.164051 0.560263 0.656480 0.057899 -0.006183 469991.000000 0 0 1
15.578015 8.504991 21.520073 27.894855 0.499737 0.689646 0.046906 -0.004378 653602.000000 0 0 1
16.372415 9.444091 20.814473 28.115638 0.523208 0.737255 0.058239 0.002834 -178045.000000 0 0 1
17.102715 8.860391 19.796973 27.621178 0.477998 0.771692 0.046700 -0.000737 -139322.000000 0 0 1
18.009915 9.901991 19.063173 28.032321 0.502696 0.822976 0.043979 -0.005746 180760.000000 0 0 1
18.960515 10.505891 19.938873 29.452224 0.505980 0.827131 0.020420 -0.004023 -166212.000000 0 0 1
19.807615 11.263991 19.152073 29.766104 0.517064 0.871840 0.013287 -0.001539 -594338.000000 0 0 1
20.666315 12.213391 20.060573 31.284022 0.533761 0.874683 -0.004891 0.002858 -161511.000000 0 0 1
19.923515 13.338191 20.561773 31.585444 0.589941 0.861910 0.007635 -0.001182 478203.000000 0 0 1
20.580715 14.157491 21.519273 32.970888 0.602559 0.859687 -0.006232 0.010438 -664084.000000 0 0 1
21.872515 14.939791 21.278073 33.975883 0.599252 0.894037 -0.018059 0.005207 176719.000000 0 0 1
22.966615 14.049991 21.036373 34.167186 0.549020 0.907536 -0.030794 0.007757 36719.300000 0 0 1
24.185015 14.757191 21.022573 35.279430 0.547871 0.932426 -0.014529 0.007825 -159446.000000 0 0 1
25.449515 13.895991 20.958773 35.777738 0.499784 0.944924 -0.006632 0.003195 -391597.000000 0 0 1
25.596615 13.125791 19.730473 34.882153 0.473830 0.969597 -0.009631 -0.000659 115948.000000 0 0 1
26.857815 12.488091 19.705073 35.575055 0.435233 0.983753 0.008907 -0.011553 10006.600000 0 0 1
27.115215 11.657891 18.465873 34.815654 0.406047 1.011736 0.014923 -0.012168 -331000.000000 0 0 1
27.484015 12.484191 17.381973 34.833304 0.426370 1.048347 0.018226 -0.018878 111289.000000 0 0 1
27.656215 11.722491 16.226173 34.140470 0.400909 1.075518 0.023245 -0.024092 50854.800000 0 0 1
26.483115 11.603291 15.204373 32.667486 0.412947 1.086678 0.015370 -0.027178 19735.900000 0 0 1
26.131815 12.805791 14.546673 32.534070 0.455653 1.107252 0.025146 -0.029428 437577.000000 0 0 1
25.069015 12.441491 13.656173 31.140604 0.460675 1.116831 0.027448 -0.021945 274045.000000 0 0 1
24.584215 13.422991 12.552273 30.693971 0.499767 1.149494 0.022228 -0.025064 -339591.000000 0 0 1
23.797715 14.486091 12.967773 30.730135 0.546805 1.135158 0.005423 -0.025135 10615.300000 0 0 1
23.475515 15.377491 11.887773 30.477634 0.579913 1.170111 -0.006887 -0.019452 166971.000000 0 0 1
22.706615 16.610291 12.540873 30.802039 0.631567 1.151471 -0.009910 -0.015295 329378.000000 0 0 1
21.377615 16.243991 12.944173 29.806396 0.649782 1.121563 0.009494 -0.023147 560476.000000 0 0 1
20.725515 17.417391 13.436173 30.223223 0.698885 1.110108 0.004617 -0.015383 -492635.000000 0 0 1
20.100715 18.331991 12.338273 29.871953 0.739409 1.145008 0.023612 -0.016149 -722858.000000 0 0 1
18.983915 17.864791 11.654973 28.554827 0.755037 1.150357 0.040174 -0.014638 -11654.700000 0 0 1
17.755615 17.771391 12.373373 28.003295 0.785842 1.113132 0.039677 -0.013803 -592184.000000 0 0 1
16.684815 17.172791 11.491473 26.558270 0.799810 1.123323 0.044464 -0.006421 -570550.000000 0 0 1
16.752515 15.742091 11.498273 25.703510 0.754313 1.107005 0.042158 -0.008096 -651957.000000 0 0 1
15.617115 15.268591 10.900173 24.409791 0.774114 1.107891 0.039115 -0.010583 -886917.000000 0 1 0
15.726315 13.930691 10.209573 23.358435 0.724926 1.118444 0.041247 -0.017042 -349036.000000 0 1 0
15.947015 12.757391 10.973673 23.183610 0.674732 1.077721 0.050090 -0.013804 444994.000000 0 1 0
16.120615 11.617291 10.240073 22.353853 0.624450 1.094951 0.030200 -0.014197 -485366.000000 0 1 0
16.780915 10.496791 10.983873 22.636854 0.558973 1.064181 0.048180 -0.018136 -784097.000000 0 1 0
17.316615 9.474391 10.139773 22.191084 0.500635 1.096256 0.047470 -0.022744 529546.000000 0 1 0
17.855415 8.323891 10.819673 22.475950 0.436230 1.068558 0.053812 -0.019928 -17109.100000 0 1 0
19.151115 8.481291 11.600673 23.943122 0.416902 1.064994 0.042057 -0.017815 -970699.000000 0 1 0
18.927615 9.179891 12.819273 24.634503 0.451576 1.023502 0.036464 -0.016487 899594.000000 0 1 0
20.100515 9.265891 13.670373 26.014736 0.431945 1.017510 0.037467 -0.018510 62513.900000 0 0 1
19.735415 9.443591 15.173673 26.625333 0.446308 0.964417 0.025519 0.002399 72703.800000 0 0 1
19.061715 8.385691 15.831773 26.159392 0.414443 0.920774 0.039600 -0.008082 681941.000000 0 0 1
17.713315 8.198891 15.406673 24.866622 0.433502 0.902599 0.055179 -0.018025 -185381.000000 0 1 0
17.235115 6.773591 15.824173 24.358472 0.374467 0.863689 0.069145 -0.020018 -397760.000000 0 1 0
16.777715 6.676291 17.107473 24.874288 0.378717 0.812401 0.089717 -0.009575 -147618.000000 0 1 0
16.224315 5.404691 17.335773 24.350936 0.321561 0.778576 0.108854 -0.007100 -1231010.000000 0 1 0
14.752715 5.482691 17.760573 23.730580 0.355821 0.725111 0.107901 -0.015824 -143108.000000 0 1 0
14.080015 4.229891 17.818073 23.100271 0.291840 0.689858 0.103310 -0.013324 53062.600000 0 1 0
13.847015 3.653191 16.561873 21.894777 0.257948 0.712958 0.110252 -0.017724 -785321.000000 0 1 0
13.474115 2.196591 16.634073 21.519042 0.161601 0.687251 0.084458 -0.015405 -823659.000000 0 1 0
14.545315 1.419391 16.981473 22.404269 0.097276 0.710621 0.067642 -0.012234 -768036.000000 0 1 0
14.287715 0.054291 16.866573 22.104819 0.003800 0.702813 0.061471 -0.008778 -55185.800000 0 1 0
13.336215 -0.706209 17.845373 22.289250 -0.052905 0.642456 0.053922 -0.007123 558150.000000 0 1 0
11.976315 -0.422409 17.538073 21.241340 -0.035256 0.599430 0.048451 -0.009007 -58555.800000 0 1 0
11.177515 -1.237009 18.377873 21.545608 -0.110221 0.549137 0.035383 -0.011179 54698.000000 0 1 0
-25.618265 14.535991 28.829233 41.215473 -0.516109 0.796132 -0.004976 -0.001906 -787991.000000 0 0 1
-24.559685 14.577091 29.705723 41.208005 -0.535654 0.765736 0.002371 -0.004960 -457816.000000 0 0 1
-24.006585 13.246691 29.865023 40.542700 -0.504220 0.742721 0.002039 -0.002202 -215232.000000 0 0 1
-22.868785 13.112291 30.869603 40.593668 -0.520609 0.706785 0.000273 -0.009627 -405951.000000 0 0 1
-23.231285 13.350491 32.245763 41.925141 -0.521592 0.693322 -0.002913 -0.014597 460821.000000 0 0 1
-22.120485 13.330091 33.164646 42.034520 -0.542339 0.661640 -0.001160 -0.008682 83506.700000 0 0 1
-22.480385 13.502591 -34.172890 43.075214 -0.540889 2.487057 0.009106 -0.008162 -33387.900000 0 0 1
-23.178785 12.370691 -33.671429 42.708959 -0.490249 2.478988 0.002237 -0.008111 16807.000000 0 0 1
-23.872985 12.715391 -32.505129 42.286925 -0.489407 2.447572 -0.003795 -0.002832 -451246.000000 0 0 1
-24.819185 11.660991 -31.952399 42.106133 -0.439228 2.432348 -0.000541 -0.008547 -429415.000000 0 0 1
-24.277485 10.531191 -31.215579 40.923278 -0.409287 2.438402 0.009731 -0.006207 551091.000000 0 0 1
-23.699085 9.481191 -32.075079 40.992076 -0.380563 2.469419 0.016371 -0.010361 229119.000000 0 0 1
-22.912385 8.445691 -31.225479 39.640101 -0.353155 2.477903 0.022179 -0.002500 185183.000000 0 0 1
-23.749185 7.634891 -30.401279 39.326240 -0.311045 2.454437 0.029136 -0.004001 464810.000000 0 0 1
-22.947085 6.917591 -29.477839 37.991641 -0.292794 2.458942 0.031275 -0.000062 -328238.000000 0 0 1
-23.663085 6.193291 -28.363799 37.454019 -0.255986 2.429960 0.038672 0.000376 -531886.000000 0 0 1
-24.222485 4.978891 -28.747469 37.920115 -0.202725 2.431200 0.040627 -0.014364 48711.200000 0 0 1
-24.465185 4.079391 -27.687729 37.172531 -0.165223 2.411097 0.051603 -0.008326 -417625.000000 0 0 1
-25.153145 2.754491 -28.187609 37.878876 -0.109074 2.410060 0.038019 -0.006500 1367880.000000 0 0 1
-26.559115 2.812791 -28.514349 39.068741 -0.105513 2.388900 0.029294 -0.011818 1314850.000000 0 0 1
-26.954755 3.662991 -29.609309 40.208053 -0.135067 2.398534 0.024698 -0.010832 181210.000000 0 0 1
-28.362875 3.457191 -30.268979 41.624704 -0.121293 2.385013 0.021820 -0.016519 1160710.000000 0 0 1
-29.526855 3.792691 -29.511889 41.918627 -0.127749 2.351850 0.022189 -0.016067 1662330.000000 0 0 1
-30.808945 3.752191 -30.186299 43.295297 -0.121192 2.342307 0.023520 -0.019394 1526130.000000 0 0 1
-31.292925 5.127391 -30.824539 44.223179 -0.162408 2.342033 0.026006 -0.023753 -19978.700000 0 0 1
-30.304495 5.617291 -31.725349 44.231371 -0.183281 2.370657 0.029421 -0.020934 254988.000000 0 0 1
-30.552135 6.890091 -32.322129 45.006959 -0.221808 2.371949 0.036276 -0.024001 -874876.000000 0 0 1
-29.839465 8.024591 -31.588799 44.188686 -0.262710 2.367223 0.019362 -0.022330 -219628.000000 0 0 1
-28.423805 7.930391 -31.578549 43.220465 -0.272086 2.390053 0.024665 -0.024478 562538.000000 0 0 1
-27.883935 7.452091 -30.321069 41.861853 -0.261151 2.380833 0.014368 -0.024520 -338556.000000 0 0 1
-28.012625 8.380491 -29.057839 41.222540 -0.290694 2.353081 0.010299 -0.017230 16434.900000 0 0 1
-29.279345 8.622791 -28.447079 41.723721 -0.286404 2.321012 0.010465 -0.014511 322709.000000 0 0 1
-29.869315 7.602691 -27.726269 41.457483 -0.249239 2.303374 0.016418 -0.006188 -675050.000000 0 0 1
-31.152935 8.073091 -27.040919 42.034408 -0.253566 2.269603 -0.007379 -0.003439 -590872.000000 0 0 1
-31.115005 8.813691 -25.850079 41.401102 -0.276031 2.245136 -0.012791 0.000700 -10976.700000 0 0 1
-30.645555 8.130291 -24.655509 40.163987 -0.259327 2.231751 -0.006570 0.003728 -10813.600000 0 0 1
-30.088255 9.100491 -23.591809 39.302614 -0.293712 2.214623 -0.004681 0.003757 -336063.000000 0 0 1
-31.027485 10.029591 -23.123409 39.974862 -0.312647 2.187622 -0.003713 0.007218 -162940.000000 0 0 1
-30.395655 11.064091 -22.386809 39.338012 -0.349094 2.176193 -0.004456 0.009241 -395451.000000 0 0 1
-31.222175 11.930791 -21.447209 39.713358 -0.365003 2.141293 -0.013754 0.008798 -417122.000000 0 0 1
-31.434235 11.298191 -20.202809 39.037338 -0.345045 2.114753 -0.020633 0.005576 339950.000000 0 0 1
-32.224885 12.092991 -19.325009 39.473277 -0.359006 2.082395 -0.015906 0.005983 326473.000000 0 0 1
-31.362255 13.048691 -18.433209 38.647672 -0.394277 2.067984 -0.011424 0.007213 71008.800000 0 0 1
-30.713295 12.454691 -17.337809 37.403549 -0.385251 2.052776 0.006503 0.006983 20273.100000 0 0 1
-31.590305 12.001991 -16.329009 37.531743 -0.363083 2.020915 0.001238 0.004844 -421396.000000 0 0 1
-32.034695 13.135791 -15.322509 37.862250 -0.389139 1.987437 -0.005921 0.009561 -396532.000000 0 0 1
-32.844675 14.009291 -16.040809 39.145121 -0.403167 1.993007 -0.012013 0.011042 -291877.000000 0 0 1
-33.372255 15.023991 -15.258609 39.651644 -0.423015 1.965805 -0.018876 0.014419 -151971.000000 0 0 1
-34.115656 16.088291 -16.070709 40.999741 -0.440655 1.973569 -0.018357 0.009369 -404528.000000 0 0 1
-35.265625 15.634691 -16.717809 42.042752 -0.417302 1.979738 -0.012809 0.003099 -63450.500000 0 0 1
35.301067 16.720591 -17.171009 42.668338 0.442352 1.984966 -0.011840 -0.001797 -545792.000000 0 0 1
34.825456 16.600991 -18.650109 42.851276 0.444827 2.021089 -0.018174 -0.001019 852362.000000 0 0 1
33.670196 15.782791 -18.932809 41.728047 0.438334 2.041731 0.005718 -0.007340 769957.000000 0 0 1
32.411646 16.361991 -18.688009 40.834682 0.467495 2.046147 0.033879 -0.014925 45831.300000 0 0 1
31.291006 15.272891 -18.958509 39.646101 0.454076 2.069393 0.041369 -0.018457 362541.000000 0 0 1
30.901186 15.172391 -20.358809 39.994573 0.456419 2.104865 0.029459 -0.017854 534272.000000 0 0 1
30.142706 13.962691 -20.632009 39.105233 0.433793 2.126572 0.021890 -0.015127 134796.000000 0 0 1
30.799826 12.580791 -20.444709 39.049862 0.387786 2.121813 0.012838 0.003569 -321597.000000 0 0 1
30.973486 12.206991 -19.098009 38.381004 0.375419 2.091615 0.018320 0.002473 -21968.700000 0 0 1
31.810726 11.110791 -18.833209 38.601318 0.336032 2.080468 0.018912 0.005601 -359299.000000 0 0 1
31.970526 10.954091 -17.308009 37.969380 0.330095 2.044113 0.015473 0.009996 345667.000000 0 0 1
30.800486 10.423891 -16.664109 36.537925 0.326333 2.044378 0.023242 0.001075 662117.000000 0 0 1
30.968456 10.311491 -15.275409 36.037623 0.321421 2.008515 0.010434 -0.004952 -84973.100000 0 0 1
30.414796 11.474391 -14.417909 35.561181 0.360754 1.988256 0.033170 -0.012889 -1248770.000000 0 0 1
29.035246 11.489291 -14.318809 34.352258 0.376795 2.000744 0.045137 -0.003485 -914702.000000 0 0 1
28.696466 12.451191 -13.348409 34.010283 0.409379 1.974124 0.053497 -0.002366 -241950.000000 0 0 1
27.160286 12.498191 -13.340509 32.739198 0.431274 1.990487 0.070135 -0.001148 -104765.000000 0 0 1
26.493796 11.392691 -12.672409 31.500867 0.406109 1.984811 0.062165 -0.008175 739798.000000 0 0 1
25.213756 11.085391 -13.225809 30.553910 0.414219 2.018468 0.059147 0.000886 108229.000000 0 0 1
25.209156 10.241591 -14.502109 30.833471 0.385895 2.060468 0.042974 -0.005696 -378882.000000 0 0 1
25.708256 8.891291 -14.416609 30.786492 0.332976 2.058136 0.028436 -0.002976 1507230.000000 0 0 1
27.144566 8.798391 -14.519609 32.016530 0.313446 2.041489 0.034364 -0.008043 681185.000000 0 0 1
27.745926 7.621991 -13.655309 31.849625 0.268093 2.013897 0.048424 -0.010457 -282310.000000 0 0 1
27.189236 6.327691 -13.878009 31.175205 0.228658 2.032151 0.031017 -0.014382 100806.000000 0 0 1
26.145656 6.072891 -12.993309 29.821157 0.228225 2.021621 0.041707 -0.011965 -672726.000000 0 0 1
25.621956 4.631391 -13.185309 29.185387 0.178828 2.039553 0.045495 -0.014180 -74477.800000 0 0 1
24.956256 4.082691 -12.026409 28.002100 0.162157 2.014716 0.051663 -0.019705 501734.000000 0 0 1
24.436456 2.767891 -12.183509 27.445209 0.112788 2.030766 0.049906 -0.022515 52239.600000 0 0 1
23.538456 2.346991 -10.970809 26.075390 0.099380 2.005051 0.051323 -0.020950 -105329.000000 0 0 1
24.265656 1.948191 -9.822209 26.250587 0.080114 1.954299 0.051924 -0.021704 277629.000000 0 0 1
23.485256 1.800691 -8.640609 25.089039 0.076524 1.922394 0.054739 -0.014062 -491425.000000 0 0 1
24.036056 1.011791 -7.376809 25.162930 0.042070 1.868329 0.059486 -0.009212 -281699.000000 0 0 1
24.071756 -0.398109 -7.430109 25.195525 -0.016537 1.870145 0.051179 -0.014585 149824.000000 0 0 1
25.177556 -0.925409 -8.093209 26.462535 -0.036739 1.881613 0.062351 -0.019558 -778829.000000 0 0 1
25.502256 -2.384309 -7.692109 26.743570 -0.093223 1.862542 0.074338 -0.027056 -394352.000000 0 0 1
26.401816 -2.332809 -6.620209 27.318951 -0.088129 1.815563 0.084364 -0.028960 223004.000000 0 0 1
26.623996 -3.594909 -5.962009 27.519195 -0.134213 1.789177 0.090619 -0.036120 579272.000000 0 0 1
28.022656 -3.795209 -5.259309 28.763401 -0.134615 1.754678 0.092362 -0.026517 540826.000000 0 0 1
29.106216 -4.017509 -6.129909 30.014796 -0.137163 1.776473 0.071609 -0.019798 -451570.000000 0 0 1
30.206286 -4.471009 -5.413009 31.011455 -0.146949 1.746244 0.063558 -0.017143 -1179520.000000 0 0 1
31.324626 -4.854609 -6.366709 32.331632 -0.153754 1.769011 0.047014 -0.014107 -814306.000000 0 0 1
31.122606 -6.029609 -7.188009 32.506004 -0.191367 1.793768 0.038973 -0.021417 -182210.000000 0 0 1
31.798816 -5.915509 -8.400809 33.417534 -0.183927 1.824912 0.033903 -0.022032 -1395750.000000 0 0 1
31.265516 -6.902209 -9.455409 33.385293 -0.217276 1.857947 0.036070 -0.022693 258365.000000 0 0 1
29.956176 -6.639309 -9.909409 32.243594 -0.218108 1.883182 0.041515 -0.020327 243586.000000 0 0 1
28.929936 -6.918609 -8.969709 31.068699 -0.234742 1.863671 0.045779 -0.014820 -676034.000000 0 0 1
27.730846 -5.925809 -8.996309 29.749767 -0.210524 1.878005 0.056157 -0.014800 -304238.000000 0 0 1
27.000936 -5.931109 -10.207009 29.468825 -0.216229 1.924491 0.045926 -0.009891 389695.000000 0 0 1
25.786556 -5.222109 -10.115309 28.187522 -0.199811 1.937840 0.055208 -0.013763 296310.000000 0 0 1
24.520556 -5.989109 -9.657709 27.025885 -0.239558 1.936226 0.062178 -0.010663 -854133.000000 0 0 1
24.568456 -6.489109 -8.322709 26.739205 -0.258227 1.887310 0.057270 -0.018112 1561380.000000 0 0 1
23.251356 -6.800909 -7.814209 25.454662 -0.284557 1.882820 0.046543 -0.022827 729799.000000 0 0 1
22.217856 -5.713109 -7.405309 24.106252 -0.251688 1.883040 0.049987 -0.015045 -126489.000000 0 1 0
21.701856 -5.058209 -8.555709 23.869567 -0.228989 1.937388 0.045866 -0.014364 416760.000000 0 1 0
21.178056 -3.811709 -8.195009 23.026015 -0.178077 1.934676 0.019315 -0.013968 -310380.000000 0 1 0
21.140656 -2.828609 -9.404409 23.310326 -0.133010 1.986074 0.023968 -0.008489 -989551.000000 0 1 0
22.455556 -2.683309 -9.813209 24.652611 -0.118930 1.980197 0.041143 -0.013635 -12713.900000 0 1 0
22.540056 -1.846509 -10.934409 25.120212 -0.081739 2.021149 0.049734 -0.018646 -295014.000000 0 0 1
23.834556 -2.008509 -11.755009 26.651462 -0.084070 2.027581 0.048381 -0.016101 266859.000000 0 0 1
24.921856 -1.224509 -11.242109 27.367561 -0.049094 1.994108 0.052500 -0.021195 1087140.000000 0 0 1
26.137756 -1.488609 -11.932209 28.771095 -0.056891 1.998441 0.040058 -0.021615 416963.000000 0 0 1
27.323506 -0.585709 -11.478509 29.642423 -0.021433 1.968424 0.033426 -0.017572 672894.000000 0 0 1
28.508346 -0.733909 -12.282309 31.050275 -0.025738 1.977476 0.034625 -0.015378 548935.000000 0 0 1
29.460626 0.281491 -12.104909 31.851791 0.009555 1.960634 0.035055 -0.013627 -305081.000000 0 0 1
29.235486 1.593391 -12.868009 31.981842 0.054448 1.984883 0.033086 -0.014237 -406564.000000 0 0 1
29.527436 1.460691 -14.273109 32.828719 0.049429 2.020585 0.028538 -0.014726 370537.000000 0 0 1
29.583206 2.675891 -14.942509 33.250640 0.090208 2.036879 0.024440 -0.009785 -124264.000000 0 0 1
29.796946 2.493091 -16.478109 34.140908 0.083475 2.074474 0.013857 -0.010581 -362241.000000 0 0 1
28.702916 1.872791 -17.078909 33.452263 0.065155 2.106616 0.015776 -0.004748 -351045.000000 0 0 1
29.000676 1.663891 -18.496109 34.437100 0.057311 2.137790 0.013616 -0.005304 77063.100000 0 0 1
27.912906 0.855491 -19.274409 33.931771 0.030639 2.174912 0.006416 -0.001853 159827.000000 0 0 1
27.674866 -0.486009 -18.850609 33.488504 -0.017560 2.168684 0.007254 0.002882 236133.000000 0 0 1
27.198246 -1.126009 -20.017409 33.789187 -0.041376 2.204856 -0.005693 0.004419 -264330.000000 0 0 1
27.021166 -2.647009 -19.969709 33.703700 -0.097649 2.204965 -0.003437 -0.004464 -661747.000000 0 0 1
25.837656 -3.132909 -19.424109 32.476078 -0.120665 2.211931 0.009173 0.000145 -323768.000000 0 0 1
25.649856 -4.513409 -19.451709 32.506230 -0.174179 2.212298 0.012538 0.001067 -30138.400000 0 0 1
26.474316 -5.353709 -18.419909 32.693190 -0.199532 2.169313 0.002058 0.003779 802527.000000 0 0 1
27.875966 -5.386409 -18.691409 33.991936 -0.190875 2.153014 -0.006978 0.009656 379984.000000 0 0 1
28.709786 -5.500409 -17.562209 34.101870 -0.189293 2.111795 0.003985 -0.000256 -69735.000000 0 0 1
30.181176 -5.326509 -17.975509 35.530185 -0.174686 2.101247 0.003030 0.002614 -308525.000000 0 0 1
30.614726 -6.358009 -18.786009 36.477389 -0.204767 2.111809 -0.009231 0.006204 -219034.000000 0 0 1
31.922376 -6.155809 -19.280509 37.797753 -0.190498 2.106094 0.010558 0.007060 -129134.000000 0 0 1
32.496416 -7.425009 -19.867809 38.805640 -0.224631 2.108287 0.005418 0.019720 -200935.000000 0 0 1
32.951966 -8.337509 -18.879809 38.881787 -0.247819 2.077811 0.017097 0.009839 -37012.000000 0 0 1
33.370816 -9.558009 -19.403309 39.767516 -0.278950 2.080500 0.016418 0.014681 -338352.000000 0 0 1
34.115356 -10.373809 -18.357109 40.105572 -0.295196 2.046225 0.031808 0.003558 -708130.000000 0 0 1
33.323476 -10.905709 -17.304309 39.100226 -0.316282 2.029251 0.011542 0.008264 -190781.000000 0 0 1
34.055136 -11.570209 -16.309409 39.492011 -0.327514 1.996520 0.019218 -0.006766 -383311.000000 0 0 1
35.070946 -10.759709 -15.407009 39.788422 -0.297682 1.968414 0.039524 -0.017821 -299090.000000 0 0 1
35.545686 -11.400809 -14.204309 39.940414 -0.310371 1.934392 0.028836 -0.015817 479701.000000 0 0 1
-35.047632 -12.599709 -14.410509 39.934346 0.345115 1.939981 0.019483 -0.005748 -261817.000000 0 0 1
-33.666515 -12.495309 -15.108309 38.959312 0.355391 1.969037 0.034214 -0.004578 -693899.000000 0 0 1
-33.760845 -12.197609 -16.477209 39.497782 0.346701 2.001123 0.045131 -0.013699 -101538.000000 0 0 1
-32.496585 -12.417009 -17.071009 38.750865 0.364982 2.026988 0.062061 -0.010725 -107202.000000 0 0 1
-32.285925 -11.745009 -18.470709 39.006324 0.348899 2.064092 0.083983 -0.015609 186936.000000 0 0 1
-32.301775 -10.297809 -18.418109 38.583368 0.308614 2.068443 0.072894 -0.013156 -633766.000000 0 0 1
-33.576835 -9.759809 -18.543009 39.579047 0.282876 2.058395 0.065860 -0.013210 -853173.000000 0 0 1
-33.566435 -8.306009 -18.308409 39.126630 0.242577 2.057740 0.074524 -0.015216 19043.200000 0 0 1
-34.811028 -7.693409 -18.555409 40.190788 0.217509 2.050688 0.074760 -0.011541 -53384.100000 0 0 1
-34.762518 -6.387309 -18.134209 39.725054 0.181714 2.044846 0.060048 -0.013123 -65692.300000 0 0 1
23.573015 27.328991 -27.074749 45.117655 0.859053 2.214413 0.012047 0.005231 -284400.000000 0 0 1
24.362715 26.568591 -26.220609 44.575242 0.828682 2.199668 0.019475 -0.006413 -517342.000000 0 0 1
25.620415 26.365191 -26.830739 45.512828 0.799724 2.201261 0.029798 -0.005610 -81481.900000 0 0 1
26.528815 25.463891 -25.945279 45.003836 0.764919 2.185250 0.023425 -0.008325 -299230.000000 0 0 1
26.954115 26.105091 -24.744709 44.947755 0.769398 2.153785 0.034537 -0.002652 155677.000000 0 0 1
27.180915 25.231791 -23.631209 43.975896 0.748227 2.138109 0.024448 0.001686 40804.300000 0 0 1
27.913715 25.985391 -22.491909 44.275298 0.749637 2.103659 0.030893 0.001123 284596.000000 0 0 1
27.131715 27.108491 -22.068409 44.249462 0.784970 2.092926 0.036949 -0.000028 128576.000000 0 0 1
27.607915 27.612191 -20.854609 44.266745 0.785476 2.061348 0.020580 -0.000495 81899.700000 0 0 1
26.580915 28.416091 -20.002409 43.750607 0.818754 2.045631 0.028180 0.010947 34028.800000 0 0 1
25.619915 27.715691 -19.248109 42.367785 0.824672 2.042394 0.042752 0.001494 -238981.000000 0 0 1
24.924415 28.701791 -18.555609 42.300471 0.855721 2.024906 0.039555 0.001844 -304442.000000 0 0 1
23.989615 28.167491 -17.450009 40.907358 0.865329 2.011498 0.042501 -0.001399 249059.000000 0 0 1
22.841515 27.509391 -17.939809 40.004226 0.877841 2.035824 0.050565 0.000705 -202097.000000 0 0 1
21.856515 27.227491 -16.992909 38.830432 0.894389 2.023745 0.024711 0.005548 -355588.000000 0 0 1
20.877315 26.197491 -17.559109 37.821860 0.897936 2.053593 0.018275 0.002470 -518009.000000 0 0 1
20.186815 26.697491 -18.675009 38.327790 0.923383 2.079728 0.014845 0.002331 -450848.000000 0 0 1
19.571115 25.631691 -19.329609 37.598483 0.918679 2.110761 0.016120 0.000664 -73504.900000 0 0 1
18.880715 26.135891 -20.652709 38.289693 0.945191 2.140497 0.009697 0.004492 1007260.000000 0 0 1
17.796215 27.063991 -20.423709 38.292202 0.989124 2.133370 -0.001796 0.010090 230268.000000 0 0 1
16.817015 27.088191 -21.439309 38.421687 1.015205 2.162770 -0.003814 0.002137 -54993.400000 0 0 1
15.739615 28.132691 -21.072909 38.513001 1.060706 2.149768 -0.002924 0.009084 -173611.000000 0 0 1
15.011415 27.701591 -19.946409 37.290480 1.074195 2.135177 0.000170 0.011177 -741840.000000 0 0 1
14.033415 28.632091 -19.644809 37.451994 1.115077 2.122963 -0.006912 0.009138 -402603.000000 0 0 1
13.780015 28.682991 -18.139809 36.628615 1.122931 2.088903 -0.000783 0.010471 -372948.000000 0 0 1
13.046015 27.588291 -17.701009 35.279428 1.129077 2.096402 0.001614 0.013074 -300553.000000 0 0 1
12.594115 27.735991 -16.358809 34.576112 1.144562 2.063630 0.023374 0.009500 -634543.000000 0 0 1
11.710915 26.609891 -15.962909 33.166945 1.156209 2.072922 0.027251 0.006198 -308688.000000 0 0 1
12.376915 25.369291 -15.677709 32.289000 1.116900 2.077781 0.018713 0.006937 420713.000000 0 0 1
11.394815 24.328191 -15.729409 31.130644 1.132764 2.100492 0.047300 0.004493 694935.000000 0 0 1
12.034415 22.938091 -15.912709 30.400616 1.087626 2.121672 0.035339 0.007494 241465.000000 0 0 1
12.489515 22.686891 -17.236609 31.109222 1.067556 2.158039 0.032987 0.008507 -362633.000000 0 0 1
13.390515 21.610791 -17.319809 30.762119 1.016074 2.168837 0.033183 0.008702 -150769.000000 0 0 1
12.833515 20.216491 -17.709909 29.783326 1.005178 2.207595 0.040984 0.004023 134431.000000 0 0 1
12.079815 19.663791 -16.626209 28.443232 1.019916 2.195109 0.044840 -0.006341 -95430.000000 0 0 1
11.586115 18.362291 -16.881809 27.502859 1.007913 2.231687 0.045161 -0.011078 -309005.000000 0 0 1
12.619515 17.236191 -17.104109 27.365836 0.938816 2.245949 0.031438 -0.013287 -42660.600000 0 0 1
13.229915 16.897391 -15.876309 26.694749 0.906535 2.207733 0.040806 -0.020567 -29071.400000 0 0 1
14.202115 15.883091 -16.067609 26.685964 0.841214 2.216925 0.034097 -0.014755 -777176.000000 0 0 1
14.709515 15.254191 -14.674609 25.776041 0.803574 2.176465 0.045197 -0.013981 -1008120.000000 0 0 1
15.496715 16.117391 -13.889809 26.321954 0.805029 2.126674 0.023849 -0.002820 504702.000000 0 0 1
16.748715 16.581491 -14.366509 27.601845 0.780381 2.118222 0.008167 -0.002148 -150073.000000 0 0 1
17.813315 15.507891 -14.791009 27.867235 0.716320 2.130302 0.005070 -0.002443 -667222.000000 0 0 1
18.267415 14.550191 -13.827709 27.140597 0.672610 2.105382 0.008950 -0.003860 138158.000000 0 0 1
18.947815 15.073991 -12.749009 27.363883 0.672023 2.055455 0.004387 -0.001861 -1215560.000000 0 0 1
19.767415 14.010991 -12.034909 27.053606 0.616602 2.031808 0.017425 0.005903 -578858.000000 0 0 1
19.045315 13.022891 -11.253909 25.670414 0.599760 2.024614 0.038045 -0.003275 57588.300000 0 0 1
19.817215 12.082791 -10.564209 25.501340 0.547530 1.997927 0.050981 0.005221 -509568.000000 0 0 1
20.011815 10.719291 -11.301709 25.359506 0.491758 2.032707 0.040239 -0.005291 -970879.000000 0 0 1
20.927615 10.867191 -12.364009 26.625732 0.478949 2.053712 0.040559 0.001196 415706.000000 0 0 1
21.188415 9.685591 -13.108809 26.732012 0.428757 2.083321 0.036159 -0.007675 -273245.000000 0 0 1
21.956415 8.571591 -12.371809 26.619879 0.372196 2.054158 0.038800 -0.000015 -401317.000000 0 0 1
21.108815 8.034391 -11.326909 25.267219 0.363687 2.035642 0.036093 -0.016333 970938.000000 0 0 1
21.623415 6.977591 -10.452209 25.010148 0.312138 2.001950 0.031839 -0.009431 -881865.000000 0 0 1
21.964415 5.659191 -11.237409 25.312869 0.252168 2.030788 0.041378 -0.014193 -653129.000000 0 0 1
20.972315 4.725491 -11.493509 24.377633 0.221619 2.061762 0.042841 -0.025711 418532.000000 0 1 0
19.967015 5.153091 -12.437509 24.081687 0.252569 2.113522 0.000992 -0.024865 -130914.000000 0 1 0
18.988615 4.098291 -12.863509 23.298784 0.212568 2.155690 0.008327 -0.033327 -454590.000000 0 1 0
19.577715 3.262491 -13.854109 24.204692 0.165126 2.180193 0.018408 -0.022175 650233.000000 0 1 0
18.896315 2.006191 -14.053509 23.634649 0.105772 2.207583 0.029128 -0.015708 -175807.000000 0 1 0
19.816715 0.939491 -14.759209 24.726890 0.047374 2.210414 0.050710 -0.010295 347511.000000 0 1 0
20.889415 0.572091 -13.875709 25.084462 0.027380 2.156948 0.058984 -0.009085 674420.000000 0 0 1
22.132315 0.469591 -14.554009 26.493000 0.021214 2.152386 0.039792 -0.013573 250927.000000 0 0 1
22.466715 -0.858709 -15.331909 27.213197 -0.038203 2.169291 0.038066 -0.009431 -1381770.000000 0 0 1
21.499915 -1.148709 -16.263309 26.982607 -0.053378 2.217718 0.037225 -0.003302 -453851.000000 0 0 1
21.973715 -2.254309 -16.915609 27.822004 -0.102234 2.224328 0.035995 -0.006419 44214.200000 0 0 1
20.990215 -2.895709 -17.962409 27.778092 -0.137090 2.273967 0.030930 -0.002118 -47355.900000 0 0 1
20.169615 -3.880209 -17.418309 26.930780 -0.190057 2.274152 0.041607 0.001644 -371153.000000 0 0 1
19.453815 -4.566209 -18.373409 27.145595 -0.230547 2.314267 0.038763 -0.004191 -776275.000000 0 0 1
18.501615 -5.550509 -17.740409 26.226704 -0.291458 2.313695 0.040073 -0.000557 -690647.000000 0 0 1
19.160715 -6.669509 -17.188309 26.590474 -0.334966 2.273664 0.039768 0.009263 715736.000000 0 0 1
18.284915 -7.668409 -16.609409 25.865326 -0.397105 2.268095 0.047916 0.013346 294923.000000 0 0 1
19.082015 -8.773909 -15.902309 26.343656 -0.430974 2.218866 0.041405 0.010913 366279.000000 0 0 1
20.011715 -9.499009 -16.713609 27.749678 -0.443181 2.217175 0.046041 0.007843 703354.000000 0 0 1
20.681715 -10.519909 -15.978609 28.172997 -0.470550 2.173850 0.043424 0.008651 -319812.000000 0 0 1
21.350015 -11.498809 -16.946709 29.584400 -0.494038 2.180746 0.033141 0.002733 -325019.000000 0 0 1
22.386915 -10.858109 -17.668509 30.516368 -0.451592 2.188279 0.021015 0.005276 268047.000000 0 0 1
22.982715 -11.664509 -18.672509 31.826539 -0.469657 2.197769 0.020185 0.002800 -214763.000000 0 0 1
22.143215 -11.695409 -19.997909 32.047167 -0.485930 2.244667 0.031255 0.008465 246525.000000 0 0 1
20.959715 -12.462009 -20.037609 31.561323 -0.536417 2.258648 0.048797 -0.011672 -81053.200000 0 0 1
21.025215 -13.856809 -19.841409 32.058577 -0.582716 2.238152 0.042044 -0.004527 -1170490.000000 0 0 1
19.646315 -14.451609 -19.652309 31.321557 -0.634214 2.249054 0.043390 -0.012758 -582875.000000 0 0 1
18.779715 -14.151809 -20.716409 31.338810 -0.645781 2.293009 0.037418 -0.002368 -650366.000000 0 0 1
17.501915 -14.701709 -20.541809 30.731469 -0.698663 2.302891 0.045954 -0.010313 -86901.400000 0 0 1
16.443415 -14.050509 -21.461309 30.469501 -0.707087 2.352309 0.040560 -0.012943 -130823.000000 0 0 1
16.580015 -14.527109 -22.779209 31.698993 -0.719499 2.372598 0.031801 -0.011734 428555.000000 0 0 1
15.848115 -13.774609 -23.773509 31.718801 -0.715515 2.418116 0.042791 -0.015496 66302.100000 0 0 1
15.932515 -14.336509 -25.260989 33.128509 -0.732720 2.437988 0.037235 -0.013039 -227846.000000 0 0 1
15.099915 -15.474809 -25.320819 33.295961 -0.797659 2.434844 0.049636 -0.019935 64192.200000 0 0 1
15.144415 -16.131009 -26.596519 34.596786 -0.816933 2.447692 0.043536 -0.017565 72059.800000 0 0 1
16.221015 -17.249209 -26.822889 35.778820 -0.816108 2.418384 0.029049 -0.019038 -1380.940000 0 0 1
17.523915 -16.770109 -27.049519 36.331813 -0.763421 2.410602 0.029073 -0.012652 -316600.000000 0 0 1
18.357815 -17.920509 -27.188969 37.381735 -0.773345 2.385224 0.028720 -0.004878 -839292.000000 0 0 1
19.826015 -17.603009 -27.101289 37.913278 -0.726075 2.367168 0.022563 -0.004161 -1180250.000000 0 0 1
20.173715 -17.090209 -25.837759 36.968146 -0.702839 2.344682 0.026260 0.000566 -367033.000000 0 0 1
21.559715 -16.939909 -25.676829 37.564363 -0.665973 2.323401 0.021824 0.003314 -499225.000000 0 0 1
21.926515 -16.370109 -24.305109 36.599056 -0.641315 2.297074 0.010467 0.005324 -139219.000000 0 0 1
21.576315 -14.995809 -24.087209 35.645551 -0.607371 2.312768 0.013328 0.007314 -372960.000000 0 0 1
20.221815 -14.633109 -24.221809 34.781399 -0.626410 2.341167 0.039179 -0.000879 -209860.000000 0 0 1
19.951315 -13.288409 -23.610309 33.646448 -0.587570 2.348602 0.044760 -0.000420 -149119.000000 0 0 1
20.517815 -12.235909 -24.359309 34.118531 -0.537735 2.365936 0.042098 -0.000225 141813.000000 0 0 1
20.454915 -11.002109 -23.683609 33.171724 -0.493484 2.365948 0.043820 0.002203 -88128.900000 0 0 1
20.942815 -9.825109 -24.543709 33.727258 -0.438656 2.385776 0.039516 0.005098 -70923.900000 0 0 1
20.489115 -8.587209 -24.029709 32.725692 -0.396872 2.395397 0.050457 -0.004396 -47661.700000 0 0 1
20.203615 -7.728509 -25.130569 33.158128 -0.365357 2.430885 0.034347 -0.002164 -87317.600000 0 0 1
19.417015 -6.471609 -24.627809 32.022354 -0.321717 2.448200 0.044432 -0.009059 -397679.000000 0 0 1
18.137715 -6.839909 -24.181209 30.991804 -0.360619 2.465854 0.053725 -0.010549 -341760.000000 0 0 1
17.615015 -5.877009 -23.247409 29.753488 -0.322023 2.467597 0.049595 -0.016767 -122620.000000 0 0 1
18.070115 -6.007309 -21.800009 28.945763 -0.320950 2.423608 0.048315 -0.013849 -1007150.000000 0 0 1
17.589415 -7.104109 -21.047309 28.334522 -0.383851 2.408062 0.057437 -0.007552 -116814.000000 0 0 1
18.221115 -8.337009 -21.229209 29.192363 -0.429112 2.385056 0.062118 -0.010649 -349259.000000 0 0 1
17.847315 -9.329109 -20.111309 28.460915 -0.481656 2.355519 0.052555 -0.006070 1011740.000000 0 0 1
16.428915 -9.502809 -19.925309 27.517823 -0.524401 2.380507 0.052389 -0.006587 732491.000000 0 0 1
16.128915 -10.487909 -18.971009 27.019203 -0.576555 2.349182 0.059343 -0.006729 262203.000000 0 0 1
14.592915 -10.618509 -18.726609 26.007534 -0.629042 2.374664 0.048196 -0.005242 529490.000000 0 0 1
13.974115 -9.695209 -17.836509 24.645771 -0.606551 2.379967 0.054180 -0.002275 167468.000000 0 1 0
13.873215 -8.370809 -18.248709 24.403933 -0.542901 2.415505 0.054720 -0.013024 -544901.000000 0 1 0
12.737615 -7.503009 -17.636009 23.012405 -0.532324 2.443967 0.042914 0.006479 249097.000000 0 1 0
11.504215 -7.695809 -18.314009 22.955944 -0.589586 2.494416 0.029539 -0.004522 557323.000000 0 1 0
10.522315 -6.807009 -17.742209 21.721889 -0.574201 2.526620 0.015988 0.000042 146204.000000 0 1 0
9.102115 -6.872209 -18.303909 21.566382 -0.646701 2.584364 0.014051 0.005281 -211278.000000 0 1 0
8.939715 -6.529309 -19.677009 22.577313 -0.630820 2.629129 0.021234 0.000720 29424.000000 0 1 0
7.547915 -6.388609 -19.888009 22.210769 -0.702405 2.680174 0.018222 0.000247 235843.000000 0 1 0
7.168015 -6.029109 -21.354209 23.318080 -0.699312 2.728239 0.026383 -0.006659 117632.000000 0 1 0
7.326015 -7.088309 -22.266109 24.488655 -0.768909 2.712255 0.023806 -0.004347 10568.200000 0 1 0
6.742215 -6.804909 -23.540509 25.414953 -0.790026 2.755125 0.034717 -0.005534 -7949.310000 0 0 1
6.794415 -7.980809 -24.512509 26.659342 -0.865522 2.737531 0.028413 -0.006070 -29592.100000 0 0 1
6.028815 -9.083809 -24.017109 26.375817 -0.984859 2.715465 0.033931 -0.010116 222739.000000 0 0 1
5.966815 -10.042009 -25.090519 27.676325 -1.034663 2.705881 0.040638 0.000163 -71269.200000 0 0 1
5.170815 -11.330309 -24.825509 27.774433 -1.142658 2.676602 0.040871 -0.008621 332895.000000 0 0 1
5.798815 -12.183209 -23.845209 27.398008 -1.126559 2.626661 0.038612 -0.019627 816030.000000 0 0 1
4.884615 -13.275909 -23.591109 27.507266 -1.218238 2.601443 0.056359 -0.025384 -115905.000000 0 0 1
5.529815 -14.321409 -22.672609 27.381177 -1.202310 2.546393 0.061106 -0.025804 175789.000000 0 0 1
6.502215 -15.220309 -23.250709 28.540009 -1.167058 2.522957 0.050256 -0.023994 1003020.000000 0 0 1
7.748815 -14.568009 -23.568309 28.770406 -1.081951 2.530786 0.055025 -0.020954 960226.000000 0 0 1
8.764815 -14.148409 -22.397209 27.904022 -1.016168 2.502524 0.043603 -0.009654 428306.000000 0 0 1
9.339115 -15.317709 -21.703509 28.158366 -1.023279 2.450839 0.045270 -0.003153 356491.000000 0 0 1
8.524115 -15.934109 -20.696009 27.475101 -1.079573 2.423807 0.039271 -0.008711 44009.600000 0 0 1
9.144615 -15.989609 -19.252209 26.644683 -1.051287 2.378285 0.044547 -0.006309 588695.000000 0 0 1
10.096715 -17.071409 -19.085609 27.525209 -1.036695 2.336975 0.058677 -0.005494 101667.000000 0 0 1
10.426315 -17.415309 -17.752609 26.965834 -1.031343 2.289404 0.029826 -0.001026 282598.000000 0 0 1
9.224915 -17.877309 -16.826309 26.226359 -1.094421 2.267353 0.027913 -0.004753 14510.400000 0 0 1
8.886715 -19.286209 -16.908109 27.144350 -1.139013 2.243236 0.025686 -0.004135 245588.000000 0 0 1
8.072815 -19.761309 -17.986709 27.914179 -1.182970 2.270979 0.031854 -0.008712 260005.000000 0 0 1
6.623415 -19.211309 -18.040309 27.173458 -1.238792 2.296811 0.031061 -0.007931 -244293.000000 0 0 1
6.566415 -17.847809 -18.273909 26.374189 -1.218255 2.336259 0.037046 -0.009984 370095.000000 0 0 1
5.193515 -17.412809 -18.162609 25.691612 -1.280938 2.355969 0.037355 -0.008185 1138280.000000 0 0 1
5.058415 -16.014709 -17.654209 24.366567 -1.264853 2.381143 0.053094 -0.002065 26448.600000 0 1 0
5.316315 -15.974909 -16.271609 23.414231 -1.249533 2.339140 0.042960 0.005118 119948.000000 0 1 0
4.898015 -14.706509 -15.762709 22.107351 -1.249300 2.364575 0.030806 0.008091 155707.000000 0 1 0
10.607615 30.334691 -17.845209 36.758216 1.234401 2.077703 0.026106 -0.018416 -1100940.000000 0 0 1
9.772015 29.890691 -18.806809 36.642076 1.254824 2.109772 0.041675 -0.011172 -1375370.000000 0 0 1
8.791215 29.128191 -18.223909 35.466150 1.277679 2.110451 0.044691 -0.011520 -514803.000000 0 0 1
7.686415 28.624091 -19.171409 35.298194 1.308456 2.144953 0.040294 -0.012363 -74135.000000 0 0 1
6.809515 29.583591 -19.709409 36.194186 1.344558 2.146644 0.048965 -0.026429 273426.000000 0 0 1
5.824915 28.928091 -20.523409 35.944045 1.372095 2.178498 0.047010 -0.030271 295093.000000 0 0 1
4.833215 29.882891 -21.196709 36.954669 1.410446 2.181674 0.043532 -0.031083 -355883.000000 0 0 1
3.804415 30.331491 -20.359409 36.728442 1.446020 2.158345 0.037384 -0.030979 -833658.000000 0 0 1
2.850515 30.990591 -21.133609 37.618766 1.479074 2.167337 0.030750 -0.026867 -145431.000000 0 0 1
1.417815 30.572291 -20.669709 36.931180 1.524454 2.164798 0.042811 -0.025075 127961.000000 0 0 1
0.990315 29.289591 -20.971509 36.036995 1.536998 2.191913 0.048351 -0.034307 240994.000000 0 0 1
0.341615 29.216491 -22.282309 36.745358 1.559104 2.222319 0.047561 -0.036049 51301.600000 0 0 1
-0.201285 27.765091 -22.513309 35.746187 -1.563547 2.252105 0.057140 -0.034033 168123.000000 0 0 1
-1.319185 27.471891 -21.707909 35.038241 -1.522814 2.238964 0.061418 -0.034873 15415.100000 0 0 1
-1.874485 26.175591 -21.956009 34.216101 -1.499306 2.267491 0.058919 -0.036963 44977.400000 0 0 1
-2.907885 25.630191 -20.968309 33.242028 -1.457824 2.253351 0.049442 -0.031464 -92823.300000 0 0 1
-4.039185 26.457391 -20.899809 33.957482 -1.419299 2.233778 0.050252 -0.028108 -383976.000000 0 0 1
-5.170285 25.837391 -20.359409 33.298771 -1.373296 2.228645 0.040697 -0.023535 -661463.000000 0 0 1
-6.265785 26.835891 -20.038509 34.072965 -1.341420 2.199511 0.043421 -0.026579 -239312.000000 0 0 1
-7.436985 26.174791 -19.580309 33.523379 -1.293964 2.194542 0.037855 -0.020928 -355720.000000 0 0 1
-8.209285 27.092891 -18.850109 34.010935 -1.276585 2.158242 0.037830 -0.023075 308648.000000 0 0 1
-9.437385 26.491091 -18.119309 33.453722 -1.228567 2.143163 0.038450 -0.020488 84762.000000 0 0 1
-9.149285 25.716791 -16.963509 32.137570 -1.228990 2.126852 0.041069 -0.019967 -410944.000000 0 0 1
-10.352485 25.157191 -16.497709 31.815603 -1.180405 2.115941 0.014162 -0.017792 -142268.000000 0 0 1
-10.115585 24.393391 -15.188409 30.463919 -1.177694 2.092745 0.017244 -0.016196 -203954.000000 0 0 1
-9.530585 23.119691 -15.133509 29.229698 -1.179793 2.115009 0.023369 -0.017662 -231320.000000 0 0 1
-9.847285 22.553091 -13.926509 28.276467 -1.159119 2.085770 0.037199 -0.017696 -337682.000000 0 0 1
-9.292185 21.148491 -13.836809 26.926950 -1.156811 2.110480 0.056752 -0.013801 263282.000000 0 0 1
-10.172685 20.164191 -14.401209 26.785685 -1.103561 2.138439 0.030143 -0.015583 -11464.000000 0 0 1
-10.342585 20.125791 -15.842609 27.622541 -1.096093 2.181616 0.040263 -0.009333 131363.000000 0 0 1
-9.062385 20.072291 -16.719709 27.650901 -1.146706 2.220150 0.029040 -0.007698 171259.000000 0 0 1
-8.597685 18.765091 -16.889509 26.670289 -1.141165 2.256568 0.027726 -0.007143 245890.000000 0 0 1
-7.505485 18.680791 -17.824209 26.888784 -1.188760 2.295464 0.032412 -0.005042 332164.000000 0 0 1
-6.856685 17.338991 -17.833709 25.801084 -1.194219 2.333945 0.025629 0.002706 -561815.000000 0 0 1
-7.695285 16.353091 -18.339909 25.748655 -1.130968 2.363519 0.024865 -0.004490 -511037.000000 0 0 1
-7.439385 15.877391 -19.680909 26.358569 -1.132622 2.413824 0.034736 -0.005407 467503.000000 0 0 1
-6.209985 14.922391 -19.824809 25.578599 -1.176444 2.457598 0.027963 -0.000431 300377.000000 0 0 1
-6.551085 13.707291 -19.119509 24.420528 -1.124962 2.470154 0.009800 0.000794 18391.000000 0 1 0
-5.451585 12.896791 -18.789809 23.432967 -1.170868 2.501187 0.013945 0.002857 -192709.000000 0 1 0
-4.746785 13.337491 -17.517609 22.523038 -1.228877 2.461897 0.029217 0.004651 -357681.000000 0 1 0
-4.048285 14.554091 -17.597609 23.192370 -1.299500 2.432215 0.020142 -0.001279 -219918.000000 0 1 0
-3.646285 15.050291 -16.318109 22.496385 -1.333103 2.382362 0.024382 0.003892 38080.000000 0 1 0
-2.911085 16.403791 -16.291009 23.301411 -1.395161 2.344994 0.038478 -0.001040 334598.000000 0 1 0
-3.699585 17.588091 -16.464509 24.374329 -1.363473 2.312419 0.026335 -0.003055 -183332.000000 0 1 0
-2.863385 18.714191 -16.589409 25.171977 -1.418968 2.290342 0.034456 -0.009031 -233680.000000 0 0 1
-3.512285 19.863091 -17.280409 26.561082 -1.395781 2.279159 0.052569 -0.018506 -114267.000000 0 0 1
-3.618785 19.629991 -18.669109 27.330711 -1.388493 2.322770 0.049752 -0.018207 -366438.000000 0 0 1
-4.086685 20.735091 -19.345509 28.651243 -1.376200 2.312041 0.058965 -0.016029 -38526.400000 0 0 1
-3.137085 21.953291 -19.489609 29.523434 -1.428859 2.291802 0.046998 -0.016532 276256.000000 0 0 1
-1.975885 21.775391 -20.271709 29.816337 -1.480305 2.318403 0.058105 -0.015690 285048.000000 0 0 1
-0.860785 22.620791 -20.057909 30.245013 -1.532762 2.295857 0.056740 -0.018260 929113.000000 0 0 1
0.159215 22.304291 -18.923809 29.250936 1.563658 2.274370 0.064080 -0.017976 50329.300000 0 0 1
-0.402285 22.428791 -17.651609 28.544558 -1.552862 2.237486 0.062165 -0.022336 370296.000000 0 0 1
0.640115 22.177091 -16.681909 27.758227 1.541941 2.215513 0.061845 -0.021124 415512.000000 0 0 1
0.182815 22.312491 -15.249509 27.026435 1.562603 2.170314 0.064497 -0.029859 -767566.000000 0 0 1
-0.601885 21.241091 -14.790509 25.890256 -1.542468 2.178857 0.059160 -0.019264 -296322.000000 0 0 1
-0.807685 21.324091 -13.392409 25.193765 -1.532938 2.131257 0.064830 -0.020834 197966.000000 0 0 1
-1.752385 20.197191 -12.924009 24.042200 -1.484249 2.138331 0.045484 -0.012965 254392.000000 0 1 0
-1.093685 18.937891 -13.123409 23.066506 -1.513109 2.176010 0.041533 -0.006732 385808.000000 0 1 0
-1.922285 17.877591 -12.630009 21.973178 -1.463683 2.183146 0.027913 -0.005544 144338.000000 0 1 0
-1.449885 16.402291 -12.816509 20.866246 -1.482630 2.232196 0.013091 0.000145 -96315.200000 0 1 0
-0.372885 16.132091 -11.905209 20.052865 -1.547686 2.206435 0.008264 -0.000818 609333.000000 0 1 0
0.125615 14.732291 -11.908709 18.943957 1.562270 2.250585 0.012783 -0.000791 586482.000000 0 1 0
0.834615 14.173091 -13.193809 19.381684 1.511977 2.319563 0.002781 -0.000228 -145678.000000 0 1 0
0.001515 14.170991 -14.341109 20.161458 1.570689 2.362161 0.004338 -0.001011 -93754.300000 0 1 0
0.399515 13.164291 -15.224009 20.130291 1.540457 2.428395 0.011030 -0.004458 -124770.000000 0 1 0
-0.191485 13.245391 -16.668209 21.290990 -1.556341 2.470072 0.012170 0.008625 -70895.900000 0 1 0
0.658015 13.827191 -17.635809 22.419767 1.523244 2.476110 0.016627 -0.001520 -362045.000000 0 1 0
0.097515 13.896191 -18.949609 23.498964 1.563779 2.508839 0.024375 -0.002886 -354545.000000 0 1 0
-0.758585 15.152391 -19.321109 24.565741 -1.520774 2.475928 0.024692 -0.003971 240263.000000 0 1 0
-0.046585 16.408091 -19.460909 25.454952 -1.567957 2.441098 0.022453 -0.003176 -33038.300000 0 0 1
-0.814885 17.562491 -19.550509 26.293108 -1.524430 2.409175 0.051858 -0.008757 217442.000000 0 0 1
0.201715 18.708791 -19.868709 27.291485 1.560015 2.386224 0.064664 -0.013645 670429.000000 0 0 1
0.608815 18.670991 -21.227409 28.276836 1.538200 2.419917 0.055717 -0.014235 -412601.000000 0 0 1
1.607915 19.614491 -21.425809 29.092592 1.489003 2.398633 0.057618 -0.017024 -302733.000000 0 0 1
2.136115 19.685291 -22.877709 30.256623 1.462706 2.428164 0.061566 -0.024897 -325917.000000 0 0 1
2.975015 18.628091 -23.194309 29.897031 1.412428 2.458789 0.042451 -0.020320 -394567.000000 0 0 1
3.299915 18.559691 -24.555009 30.956421 1.394835 2.486862 0.044019 -0.030309 318936.000000 0 0 1
4.312515 17.465091 -25.012209 30.809703 1.328717 2.518074 0.032387 -0.013763 1295800.000000 0 0 1
5.656515 17.655591 -24.470709 30.700678 1.260748 2.493230 0.024014 -0.002547 1785560.000000 0 0 1
6.586015 16.616991 -24.885809 30.639900 1.193447 2.518714 0.024759 -0.001698 728430.000000 0 0 1
7.105015 16.638591 -26.344259 31.958472 1.167216 2.539810 0.018081 -0.011811 -502370.000000 0 0 1
8.194415 17.585291 -26.554659 32.886788 1.134732 2.510625 0.000396 -0.004522 991394.000000 0 0 1
8.685215 17.535091 -27.905409 34.082609 1.110912 2.530041 0.015306 -0.013575 4358.380000 0 0 1
9.189015 16.222891 -28.478979 34.039278 1.055432 2.561936 0.017792 -0.008711 -1200610.000000 0 0 1
10.433415 15.829991 -27.976179 33.795138 0.988056 2.546001 0.021425 -0.003465 -290740.000000 0 0 1
10.744915 14.483191 -28.380809 33.625680 0.932507 2.575535 0.014884 0.005023 -148610.000000 0 0 1
10.332415 13.328191 -27.465429 32.229633 0.911343 2.590933 0.020245 0.004320 -1650220.000000 0 0 1
8.980515 13.219591 -27.368119 31.692604 0.974075 2.613062 0.037128 0.007036 -1721790.000000 0 0 1
8.584015 12.463291 -26.279529 30.325444 0.967665 2.619111 0.036170 0.010607 1203660.000000 0 0 1
7.048415 12.070391 -26.287389 29.772493 1.042267 2.652889 0.031781 0.000803 1145110.000000 0 0 1
6.139815 13.138991 -26.139219 29.892962 1.133651 2.635050 0.032273 0.002613 -931991.000000 0 0 1
4.913015 12.573491 -25.774739 29.095834 1.198295 2.659134 0.040835 -0.008529 -894549.000000 0 0 1
3.736215 13.443191 -26.131359 29.623076 1.299712 2.651159 0.052158 -0.004663 -988954.000000 0 0 1
3.462515 13.379991 -27.534489 30.808461 1.317568 2.676392 0.047804 -0.008898 343119.000000 0 0 1
4.130215 14.412391 -28.295839 32.022339 1.291702 2.654352 0.052458 -0.004491 151231.000000 0 0 1
3.914715 14.188291 -29.829409 33.262986 1.301583 2.683222 0.067395 -0.010923 174219.000000 0 0 1
4.721115 13.119291 -30.377529 33.424527 1.225364 2.711290 0.064123 -0.010619 258803.000000 0 0 1
4.771215 13.166391 -31.797229 34.744526 1.223137 2.726732 0.063809 -0.009275 -1467760.000000 0 0 1
5.913815 12.358291 -32.376289 35.155720 1.124472 2.741281 0.062593 -0.001251 -522781.000000 0 0 1
7.220615 12.885391 -32.204439 35.430163 1.060025 2.711568 0.062927 0.003323 476550.000000 0 0 1
7.761315 12.911991 -30.874019 34.353494 1.029573 2.687628 0.057593 0.006473 -880074.000000 0 0 1
7.725515 11.582091 -30.096259 33.160416 0.982547 2.708318 0.065045 0.008393 -447300.000000 0 0 1
8.671915 10.636091 -30.586499 33.524058 0.886778 2.719844 0.050872 0.016327 206503.000000 0 0 1
8.530115 9.378291 -29.902839 32.479147 0.832725 2.740611 0.045993 0.009385 -72668.500000 0 0 1
9.558015 8.279591 -30.191529 32.732793 0.713850 2.744950 0.029935 0.009037 -593035.000000 0 0 1
10.843815 8.435791 -29.695119 32.719276 0.661142 2.708263 0.026556 0.011652 -551121.000000 0 0 1
11.534215 7.219191 -29.703549 32.671940 0.559242 2.712024 0.010593 0.006647 95478.700000 0 0 1
12.657615 7.140591 -28.595699 32.076740 0.513630 2.671393 0.012770 0.024042 1092470.000000 0 0 1
13.514815 5.994891 -28.454479 32.066280 0.417502 2.662394 0.013116 0.007312 624637.000000 0 0 1
14.386315 5.724391 -29.535819 33.348153 0.378699 2.658755 0.007767 0.005640 -427629.000000 0 0 1
15.372615 4.567091 -29.194929 33.309451 0.288787 2.639289 0.012085 0.002287 222857.000000 0 0 1
16.147315 4.771891 -28.028889 32.697482 0.287344 2.600640 0.008484 -0.005980 -26411.200000 0 0 1
17.011015 3.720491 -27.730219 32.744186 0.215320 2.580877 0.020717 -0.008285 -221967.000000 0 0 1
17.754115 4.009791 -26.396789 32.063648 0.222125 2.537930 0.024085 -0.010388 200859.000000 0 0 1
18.684515 5.094591 -26.456489 32.787372 0.266193 2.509700 0.032888 -0.011455 450185.000000 0 0 1
19.092015 5.549891 -25.172349 32.077305 0.282895 2.473073 0.031498 -0.009302 492828.000000 0 0 1
20.213115 6.639791 -25.275829 33.038226 0.317385 2.441912 0.028184 -0.006804 326581.000000 0 0 1
19.644015 7.931891 -25.488749 33.143303 0.383762 2.448145 0.030045 -0.003293 526298.000000 0 0 1
20.424015 8.737491 -26.348229 34.463217 0.404244 2.441111 0.030343 -0.012669 -702064.000000 0 0 1
20.519915 8.498191 -27.862879 35.631814 0.392639 2.468611 0.039091 -0.008816 -212045.000000 0 0 1
19.390515 8.697691 -28.694179 35.707111 0.421651 2.504113 0.034159 -0.006791 -426529.000000 0 0 1
18.471015 7.663291 -28.603389 34.900692 0.393269 2.531448 0.029802 -0.006269 -745182.000000 0 0 1
17.160815 8.149791 -29.287639 34.909576 0.443372 2.566160 0.017366 0.000825 -372239.000000 0 0 1
17.118015 8.231791 -30.673369 36.078309 0.448239 2.587140 0.012758 0.004660 5940.700000 0 0 1
16.053515 9.027591 -31.122619 36.163935 0.512271 2.607240 0.003990 0.010674 -409869.000000 0 0 1
15.652415 8.764891 -32.572559 37.185925 0.510466 2.638173 -0.002190 0.020638 -35587.600000 0 0 1
14.974215 7.518691 -32.674889 36.720651 0.465334 2.667754 0.002401 0.021067 -137565.000000 0 0 1
13.731415 7.715291 -33.311529 36.847462 0.511912 2.699922 -0.004198 0.015252 -104296.000000 0 0 1
13.077015 6.376291 -33.645709 36.656502 0.453675 2.733463 -0.002595 0.012816 -196500.000000 0 0 1
12.911815 5.395391 -32.628729 35.502946 0.395811 2.736442 0.006862 0.013504 305520.000000 0 0 1
12.099015 4.333291 -33.120519 35.526502 0.343919 2.771452 0.014824 -0.002323 210548.000000 0 0 1
11.788715 3.346791 -31.975589 34.243439 0.276619 2.775610 0.021201 -0.006195 -81811.900000 0 0 1
12.872215 2.457791 -31.887969 34.475748 0.188667 2.751672 0.022548 -0.012194 -8418.040000 0 0 1
12.824315 1.613091 -30.768949 33.373543 0.125127 2.743898 0.034523 -0.008178 234961.000000 0 0 1
12.032815 0.251991 -31.087959 33.336367 0.020939 2.772220 0.040345 -0.006172 240920.000000 0 0 1
12.650715 -0.734709 -31.842429 34.271281 -0.058011 2.762846 0.040568 -0.006344 135299.000000 0 0 1
13.611515 -1.494209 -31.076999 33.960063 -0.109338 2.726563 0.045950 -0.015514 507541.000000 0 0 1
14.085915 -2.786109 -31.722629 34.820979 -0.195274 2.716549 0.043898 -0.012734 367357.000000 0 0 1
13.067215 -3.784409 -31.846619 34.630637 -0.281899 2.737878 0.047932 -0.011035 483118.000000 0 0 1
13.516615 -4.798209 -32.724279 35.729542 -0.341110 2.728512 0.049723 -0.008958 292078.000000 0 0 1
12.904515 -6.271109 -32.565759 35.586261 -0.452355 2.726606 0.056247 -0.012157 45252.100000 0 0 1
13.257615 -6.807809 -31.354619 34.716319 -0.474391 2.697886 0.053231 -0.008287 166911.000000 0 0 1
12.723415 -8.101009 -31.095249 34.560471 -0.566969 2.689957 0.060194 -0.017827 -105514.000000 0 0 1
13.069615 -8.662809 -29.738169 33.618712 -0.585335 2.656372 0.042892 -0.017229 481985.000000 0 0 1
14.462315 -8.948009 -29.525059 34.072783 -0.554065 2.619002 0.062945 -0.015535 925217.000000 0 0 1
14.776415 -9.540609 -28.286059 33.308660 -0.573322 2.585284 0.075971 -0.017636 -28742.400000 0 0 1
14.646015 -11.106409 -28.315399 33.758257 -0.648807 2.565816 0.062814 -0.014819 141979.000000 0 0 1
13.290815 -11.532009 -28.333699 33.353134 -0.714662 2.585845 0.058343 -0.021189 400710.000000 0 0 1
13.194915 -12.995009 -28.412899 33.915614 -0.777765 2.563951 0.063444 -0.027494 132864.000000 0 0 1
-10.456285 -3.292109 -17.874109 20.967968 0.305020 2.591447 0.022152 0.008223 281639.000000 0 1 0
-10.974085 -2.793409 -19.105509 22.209326 0.249253 2.606551 0.016066 0.006054 1153510.000000 0 1 0
-12.084885 -3.602509 -19.629209 23.330846 0.289713 2.570557 0.020291 0.008471 778710.000000 0 1 0
-12.798885 -2.870509 -20.805109 24.594793 0.220627 2.579075 0.011278 -0.010896 169504.000000 0 1 0
-13.580485 -1.776009 -20.362509 24.540081 0.130039 2.549483 0.006448 -0.005549 -489992.000000 0 1 0
-14.598285 -1.381709 -21.203309 25.779825 0.094368 2.536548 0.013144 -0.009232 -62593.200000 0 0 1
-15.276085 -0.019109 -20.863609 25.858255 0.001251 2.509589 0.012656 0.000030 -323078.000000 0 0 1
-14.492485 1.053791 -21.215709 25.714761 -0.072585 2.541070 0.011507 -0.004359 -245933.000000 0 0 1
-15.197385 2.255491 -21.057909 26.066900 -0.147338 2.511276 0.006709 0.008676 295507.000000 0 0 1
-14.426785 3.406591 -21.842409 26.397497 -0.231882 2.545334 0.020069 -0.011456 251057.000000 0 0 1
-13.300685 3.981891 -21.244209 25.378733 -0.290883 2.562733 0.028609 -0.012067 -86375.800000 0 0 1
-12.967585 5.191991 -21.925309 25.996812 -0.380836 2.574348 0.035861 -0.017009 -153621.000000 0 0 1
-11.704885 5.881391 -21.346409 25.045245 -0.465624 2.591190 0.018800 -0.012627 11384.500000 0 0 1
-11.934485 6.177991 -19.995909 24.092237 -0.477675 2.549856 0.023148 -0.015459 457318.000000 0 1 0
-10.730285 6.404091 -19.281809 22.976935 -0.538081 2.566572 0.012307 -0.004981 -97365.600000 0 1 0
-10.959785 6.897391 -17.885609 22.081347 -0.561711 2.514927 0.007457 -0.004749 -128322.000000 0 1 0
-11.554685 8.171491 -17.878709 22.802023 -0.615543 2.472016 0.004758 -0.005012 -380163.000000 0 1 0
-12.522285 8.250591 -16.896509 22.591412 -0.582587 2.415715 0.021555 -0.001873 -775398.000000 0 1 0
-13.207085 9.630791 -16.967709 23.560186 -0.630065 2.374866 0.031834 -0.000262 -282763.000000 0 1 0
-12.512685 10.731491 -16.407209 23.257874 -0.708918 2.353851 0.001752 0.012905 180042.000000 0 1 0
-13.374585 11.867191 -16.362909 24.237461 -0.725751 2.311908 0.025670 -0.009058 79864.100000 0 1 0
-12.789885 13.120191 -15.642409 24.091607 -0.798146 2.277445 0.029454 -0.007090 -348231.000000 0 1 0
-12.668585 13.012691 -14.219309 23.065384 -0.798796 2.235058 0.048618 -0.010811 119274.000000 0 1 0
-12.333785 14.319991 -13.794509 23.398138 -0.859779 2.201305 0.037694 -0.016169 -632793.000000 0 1 0
-12.889185 14.597991 -12.320709 23.044138 -0.847486 2.134898 0.032316 -0.015327 585689.000000 0 1 0
-14.198885 15.147791 -12.214509 24.088548 -0.817721 2.102575 0.029130 -0.015488 151891.000000 0 1 0
-15.169485 14.145991 -12.438709 24.185612 -0.750499 2.110990 0.028025 -0.013493 -1399310.000000 0 1 0
-16.566785 14.645591 -12.093709 25.203363 -0.723923 2.071274 0.016956 -0.009147 -1102360.000000 0 0 1
-17.534985 13.686791 -12.298309 25.417560 -0.662763 2.075846 0.013750 -0.010609 -761386.000000 0 0 1
-18.772185 14.205591 -11.906309 26.380939 -0.647798 2.039043 0.050187 -0.014492 37165.000000 0 0 1
-20.085685 13.650191 -12.549609 27.335968 -0.596902 2.047764 0.050369 -0.018508 336185.000000 0 0 1
-20.392785 12.357191 -12.092909 26.735824 -0.544790 2.040151 0.055192 -0.020006 107078.000000 0 0 1
-21.432385 11.884891 -12.913109 27.701013 -0.506314 2.055742 0.075574 -0.015317 -198513.000000 0 0 1
-22.122485 10.571891 -12.483609 27.513810 -0.445795 2.041733 0.064584 -0.013746 828961.000000 0 0 1
-21.120585 9.494991 -12.444209 26.288635 -0.422489 2.063907 0.056616 -0.019030 1463040.000000 0 0 1
-21.533585 8.408091 -11.606809 25.867147 -0.372259 2.036116 0.049626 -0.013916 250007.000000 0 0 1
-20.476685 7.259591 -11.633309 24.644070 -0.340704 2.062415 0.046293 -0.011983 360162.000000 0 1 0
-20.592985 6.443491 -12.758809 25.067445 -0.303247 2.104795 0.063280 -0.014483 385652.000000 0 0 1
-19.397685 5.698391 -12.771509 23.913454 -0.285728 2.134206 0.057477 -0.013314 -41282.400000 0 1 0
-19.345785 4.529391 -13.824609 24.205260 -0.229985 2.178691 0.058206 -0.018309 10590.900000 0 1 0
-20.286685 3.487291 -13.597609 24.669937 -0.170237 2.154576 0.045791 -0.021546 532934.000000 0 1 0
-20.012685 2.427791 -14.506309 24.836158 -0.120723 2.194543 0.042982 -0.023091 -194620.000000 0 1 0
-20.657885 1.045291 -14.148809 25.060520 -0.050557 2.170727 0.030741 -0.021935 434429.000000 0 0 1
-21.965385 0.974691 -14.721109 26.460144 -0.044345 2.160783 0.042710 -0.023023 755282.000000 0 0 1
-22.563085 -0.339409 -14.565209 26.858022 0.015042 2.143973 0.037278 -0.028467 -69310.000000 0 0 1
-23.899985 -0.442109 -15.336209 28.400776 0.018496 2.141225 0.053079 -0.024104 123006.000000 0 0 1
-24.985785 -0.018909 -14.518609 28.897748 0.000757 2.097184 0.077835 -0.031575 536917.000000 0 0 1
-26.217955 -0.235909 -15.212309 30.312558 0.008998 2.096531 0.075505 -0.025704 866252.000000 0 0 1
-27.514845 0.203191 -14.464509 31.085849 -0.007385 2.054779 0.076195 -0.021286 266706.000000 0 0 1
-27.787315 -0.660709 -13.369809 30.843528 0.023773 2.019138 0.081351 -0.023636 501602.000000 0 0 1
-28.956355 -0.139109 -12.711409 31.623880 0.004804 1.984448 0.089859 -0.021623 721595.000000 0 0 1
-29.168355 -0.795209 -11.304709 31.292519 0.027256 1.940414 0.086111 -0.023095 -320224.000000 0 0 1
-29.536465 -2.135109 -11.272909 31.686589 0.072162 1.934526 0.082733 -0.018822 391434.000000 0 0 1
-28.589215 -3.073109 -11.763509 31.067143 0.107081 1.959131 0.081980 -0.022294 -159288.000000 0 0 1
-28.971575 -4.520609 -11.388909 31.456245 0.154788 1.941268 0.071254 -0.017578 -133718.000000 0 0 1
-30.062105 -5.131709 -12.062409 32.795828 0.169074 1.947442 0.071734 -0.015645 249713.000000 0 0 1
-30.439035 -6.386009 -11.486409 33.154993 0.206797 1.924576 0.074792 -0.014513 -467606.000000 0 0 1
-29.668025 -7.634609 -11.864709 32.851945 0.251870 1.940305 0.073242 -0.020402 -690523.000000 0 0 1
-28.308765 -7.537709 -11.555109 31.491647 0.260230 1.946499 0.048610 -0.009421 -429237.000000 0 0 1
-27.520375 -8.426809 -12.344309 31.317154 0.297137 1.975962 0.051586 -0.014879 1160940.000000 0 0 1
-26.037525 -8.573809 -11.820009 29.852563 0.318104 1.977894 0.046524 -0.020562 283082.000000 0 0 1
-25.251735 -7.474409 -12.113709 28.987219 0.287779 2.001927 0.039531 -0.020650 1518820.000000 0 0 1
-23.903885 -7.588709 -11.528809 27.602494 0.307404 2.001679 0.049662 -0.026944 1541930.000000 0 0 1
-23.846585 -7.161109 -10.006409 26.834108 0.291731 1.952928 0.047010 -0.025065 -479949.000000 0 0 1
-24.120385 -5.790009 -9.740909 26.649625 0.235589 1.944985 0.037937 -0.011632 1372490.000000 0 0 1
-25.528125 -5.459709 -9.716309 27.854986 0.210696 1.927105 0.047805 -0.009380 653305.000000 0 0 1
-25.848885 -4.206309 -8.848309 27.643272 0.161313 1.896620 0.053149 -0.020968 -288720.000000 0 0 1
-25.582035 -4.330909 -7.475809 27.001574 0.167705 1.851327 0.040954 -0.009438 508580.000000 0 0 1
-25.798725 -3.072809 -6.855209 26.870249 0.118549 1.828771 0.053917 -0.013610 -76960.900000 0 0 1
-25.571305 -3.011809 -5.313309 26.290567 0.117241 1.774297 0.049071 -0.004482 348374.000000 0 0 1
-24.180585 -3.138009 -5.016909 24.894119 0.129053 1.773716 0.024268 -0.002273 689940.000000 0 1 0
-23.936085 -2.956509 -3.592009 24.384004 0.122894 1.718644 -0.001595 0.003472 923150.000000 0 1 0
-22.533285 -3.538809 -3.155009 23.026641 0.155776 1.708244 -0.010261 0.005797 821282.000000 0 1 0
-22.644185 -4.933609 -3.085709 23.379932 0.214523 1.703164 0.012453 0.005431 147095.000000 0 1 0
-21.511285 -5.541909 -2.556709 22.360342 0.252145 1.685388 0.018537 -0.002176 -626721.000000 0 1 0
-21.745185 -7.042809 -2.554009 22.999504 0.313218 1.682072 0.047142 -0.002880 -234195.000000 0 1 0
-22.552185 -7.491109 -1.522409 23.812507 0.320701 1.634773 0.055097 0.004029 123770.000000 0 1 0
-22.763085 -8.866309 -1.679609 24.486539 0.371425 1.639443 0.040551 0.000079 -104375.000000 0 1 0
-23.064585 -9.767909 -0.469009 25.052088 0.400602 1.589519 0.029802 -0.006635 -56854.300000 0 0 1
-21.970485 -10.045609 0.370191 24.160992 0.428852 1.555474 0.020933 -0.003628 192418.000000 0 1 0
-22.333785 -11.035709 1.320691 24.946524 0.458938 1.517831 0.012971 -0.002642 -702048.000000 0 1 0
-21.118385 -11.492909 2.076891 24.132688 0.498390 1.484628 0.019030 -0.007635 -590405.000000 0 1 0
-20.324485 -12.270309 1.194591 23.771248 0.543151 1.520522 0.024992 -0.003373 71332.100000 0 1 0
-19.182685 -12.759409 1.845391 23.112408 0.586954 1.490867 0.010628 -0.004232 82971.400000 0 1 0
-18.427485 -13.985809 1.172191 23.163530 0.649214 1.520170 0.019789 0.000275 310751.000000 0 1 0
-19.120785 -15.244909 1.296691 24.488632 0.673089 1.517821 0.026077 0.003089 292379.000000 0 1 0
-18.543785 -16.330809 0.620591 24.717452 0.722028 1.545686 0.025035 0.002856 -420703.000000 0 1 0
-17.265385 -17.002109 1.131391 24.257891 0.777715 1.524139 0.033101 0.003214 -1063370.000000 0 1 0
-16.131685 -16.193009 0.961191 22.877253 0.787295 1.528769 0.033751 -0.003041 -952816.000000 0 1 0
-15.054685 -16.738509 1.636291 22.572078 0.838311 1.498241 0.037578 -0.009970 -609934.000000 0 1 0
-15.013685 -16.629709 3.192291 22.630703 0.836424 1.429264 0.037937 -0.009666 -773468.000000 0 1 0
-14.680085 -15.321109 3.617891 21.525112 0.806762 1.401917 0.021881 -0.011618 -136342.000000 0 1 0
-13.910985 -15.328609 4.791191 21.247054 0.833843 1.343341 -0.002205 -0.004914 -309886.000000 0 1 0
-14.599385 -15.722709 6.130691 22.314368 0.822428 1.292475 0.027632 -0.009984 -425872.000000 0 1 0
-15.470685 -14.765209 6.749591 22.425666 0.762070 1.265080 0.025024 -0.008384 507990.000000 0 1 0
-15.932785 -15.079909 8.035791 23.363032 0.757904 1.219673 0.032661 -0.007110 245311.000000 0 1 0
-16.845085 -16.340309 8.286491 24.888321 0.770189 1.231369 0.031455 -0.010536 -450311.000000 0 1 0
-16.182485 -17.545709 8.074391 25.197630 0.825794 1.244600 0.030974 -0.007325 -65166.500000 0 0 1
-16.826585 -18.749109 8.532191 26.598146 0.839386 1.244242 0.035705 -0.006346 -113237.000000 0 0 1
-16.626685 -19.188409 9.996991 27.287021 0.856803 1.195698 0.043188 -0.010990 654688.000000 0 0 1
-15.280385 -19.601309 10.247791 26.883428 0.908644 1.179709 0.040431 -0.012882 589760.000000 0 0 1
-14.880885 -19.684809 11.625191 27.277784 0.923493 1.130533 0.039754 -0.015251 1090900.000000 0 0 1
-13.482085 -20.382809 11.893891 27.178855 0.986418 1.117851 0.039144 -0.013348 1420190.000000 0 0 1
-12.362185 -19.531009 11.684591 25.900070 1.006499 1.102753 0.016688 -0.008604 -678943.000000 0 0 1
-11.170385 -20.197909 11.935791 25.984537 1.065617 1.093542 0.008811 -0.004342 -122118.000000 0 0 1
-9.975385 -19.343309 12.405391 25.051260 1.094666 1.052731 0.012753 -0.007342 270326.000000 0 0 1
-9.320485 -18.709409 11.317991 23.769947 1.108613 1.074528 0.004840 -0.006945 -983064.000000 0 1 0
-8.231785 -17.993509 11.744291 23.009933 1.141734 1.035145 0.004673 -0.003795 -723028.000000 0 1 0
-7.362585 -17.383109 10.649791 21.674829 1.170156 1.057164 -0.001442 -0.001214 -215578.000000 0 1 0
-6.567185 -18.250809 9.897491 21.775681 1.225391 1.098963 -0.003007 0.001243 59143.200000 0 1 0
-5.755485 -17.454109 8.998391 20.463201 1.252275 1.115492 0.000362 0.002505 315583.000000 0 1 0
-4.623685 -18.261809 8.331391 20.598161 1.322819 1.154394 -0.002862 -0.002502 114039.000000 0 1 0
-3.579585 -18.596209 9.225891 21.065362 1.380632 1.117463 0.006893 0.011210 7446.110000 0 1 0
-2.381185 -18.783909 8.490291 20.750671 1.444702 1.149266 0.009782 -0.004546 -325083.000000 0 1 0
-1.165585 -19.281809 9.214691 21.402273 1.510420 1.125697 0.011209 0.000052 -453014.000000 0 1 0
-0.101185 -19.623509 8.343891 21.323998 1.565640 1.168762 0.018800 -0.006046 -506763.000000 0 1 0
0.984915 -20.089809 9.076191 22.066892 -1.521810 1.146913 0.028357 -0.002837 -828447.000000 0 1 0
2.044315 -20.708609 8.194191 22.364492 -1.472397 1.195667 0.034531 -0.013420 -729456.000000 0 1 0
1.879815 -22.060309 7.789891 23.470691 -1.485789 1.232481 0.029544 -0.007128 -122808.000000 0 1 0
2.154215 -23.029709 8.815091 24.753060 -1.477527 1.206683 0.029793 -0.005682 -23280.300000 0 1 0
1.959515 -24.483009 8.335391 25.937158 -1.490931 1.243622 0.018995 -0.010519 2700.610000 0 0 1
2.013415 -25.399519 9.405291 27.159693 -1.491692 1.217177 0.020057 -0.012429 -2541.220000 0 0 1
1.588615 -26.674679 8.952191 28.181624 -1.511311 1.247535 0.027998 -0.006748 -739072.000000 0 0 1
1.653615 -27.769699 10.027091 29.570817 -1.511319 1.224850 0.032941 -0.012959 -266856.000000 0 0 1
0.834315 -27.721219 11.152891 29.892291 -1.540709 1.188445 0.022549 -0.018396 280872.000000 0 0 1
-0.539285 -28.026179 10.841291 30.054802 1.551557 1.201759 0.006883 -0.014382 790616.000000 0 0 1
-1.310685 -28.122439 12.212591 30.687732 1.524224 1.161501 0.000097 -0.016541 223474.000000 0 0 1
-0.706985 -29.142299 12.991091 31.914603 1.546541 1.151566 -0.014207 -0.011833 -212326.000000 0 0 1
-1.269885 -29.253479 14.237591 32.558987 1.527414 1.118218 -0.020619 -0.018455 -508253.000000 0 0 1
-0.581985 -30.277919 15.114891 33.845990 1.551577 1.107859 -0.038869 0.002795 2591.790000 0 0 1
-0.538285 -29.823519 16.431391 34.054701 1.552749 1.067290 -0.034015 0.006393 -260221.000000 0 0 1
-0.166785 -30.850879 17.300191 35.370909 1.565390 1.059730 -0.042487 0.012635 -72022.300000 0 0 1
-0.556385 -30.652939 18.798791 35.962575 1.552647 1.020744 -0.040027 0.010264 166655.000000 0 0 1
-1.936585 -30.713309 19.104591 36.222136 1.507826 1.015225 -0.039208 0.010585 83035.400000 0 0 1
-2.191585 -30.283869 20.432791 36.598015 1.498554 0.978457 -0.017772 0.002261 563785.000000 0 0 1
-3.713685 -30.424619 20.751291 37.014389 1.449335 0.975653 0.019641 -0.013469 658392.000000 0 0 1
-4.597785 -29.530259 20.054791 35.991256 1.416339 0.979771 0.024704 -0.021390 1311940.000000 0 0 1
-5.798085 -29.174469 20.796291 36.293983 1.374614 0.960640 0.046925 -0.026138 995651.000000 0 0 1
-5.699685 -28.110359 21.921691 36.100405 1.370747 0.918211 0.046960 -0.026823 -446765.000000 0 0 1
-4.838385 -28.521909 22.968191 36.938423 1.402759 0.899762 0.039388 -0.022364 220933.000000 0 0 1
-4.678485 -27.491149 23.951591 36.760444 1.402230 0.861159 0.038701 -0.021677 -221843.000000 0 0 1
-3.707385 -27.799369 25.119191 37.650012 1.438216 0.840385 0.041907 -0.018072 -1968.650000 0 0 1
-4.020785 -28.940009 25.883091 39.033643 1.432745 0.845848 0.043752 -0.015631 81706.800000 0 0 1
-3.398285 -30.071059 25.338791 39.469878 1.458265 0.873721 0.029689 -0.014933 -87822.500000 0 0 1
-3.702285 -31.308819 26.219291 41.004881 1.453092 0.877054 0.041627 -0.010640 188612.000000 0 0 1
-2.966585 -31.306449 27.439891 41.735381 1.476319 0.853336 0.040780 -0.013764 367029.000000 0 0 1
-3.444785 -32.274399 28.401291 43.129302 1.464465 0.851953 0.039245 -0.014475 -152040.000000 0 0 1
-2.891585 -32.031939 29.810991 43.853182 1.480768 0.823319 0.061685 -0.016240 -462104.000000 0 0 1
-1.514685 -32.231029 29.935091 44.014125 1.523836 0.822864 0.057747 -0.014202 -391555.000000 0 0 1
-1.275085 -32.558619 31.239391 45.139662 1.531654 0.806456 0.054082 -0.018630 -162784.000000 0 0 1
-28.139855 3.210591 -10.374209 30.162619 -0.113603 1.921909 0.088769 -0.013888 54026.500000 0 0 1
-29.090785 2.856891 -11.335109 31.351560 -0.097892 1.940725 0.074210 -0.022151 -108955.000000 0 0 1
-29.888405 3.907391 -11.804509 32.371761 -0.129995 1.944058 0.049736 -0.022102 16250.800000 0 0 1
-30.650205 3.675691 -13.130009 33.546131 -0.119354 1.972951 0.055244 -0.022292 223452.000000 0 0 1
-31.662095 2.707791 -12.907909 34.299191 -0.085314 1.956631 0.062034 -0.018028 -159971.000000 0 0 1
-32.521835 2.479891 -13.957409 35.477160 -0.076106 1.975144 0.059414 -0.016682 -111978.000000 0 0 1
-33.623215 1.432491 -13.626909 36.307923 -0.042578 1.955533 0.038886 -0.013871 224226.000000 0 0 1
-33.129505 0.121691 -13.631409 35.824492 -0.003673 1.961139 0.064672 -0.014296 -139186.000000 0 0 1
-33.874135 -0.644209 -12.761709 36.204050 0.019015 1.931031 0.038611 -0.006708 -92277.000000 0 0 1
-33.284235 -2.062009 -12.706809 35.686905 0.061872 1.934848 0.039292 -0.011730 170659.000000 0 0 1
-33.440695 -2.811509 -13.902909 36.324586 0.083877 1.963558 0.041055 -0.016193 102827.000000 0 0 1
-32.776185 -4.042409 -13.668509 35.741398 0.122714 1.963219 0.055638 -0.014749 -20364.200000 0 0 1
-33.397475 -5.263209 -14.355309 36.731017 0.156308 1.972321 0.055785 -0.021429 -2529.010000 0 0 1
-32.893985 -6.484409 -13.827009 36.266348 0.194635 1.961958 0.059901 -0.022826 -126978.000000 0 0 1
-33.572415 -7.588909 -14.302209 37.272668 0.222310 1.964616 0.059290 -0.015258 -286756.000000 0 0 1
-33.025915 -8.906309 -13.619009 36.817263 0.263410 1.949707 0.040233 -0.018360 1372210.000000 0 0 1
-31.639895 -9.326409 -13.691309 35.714378 0.286649 1.964223 0.054274 -0.018322 1197860.000000 0 0 1
-31.185625 -9.708909 -14.977109 35.932158 0.301815 2.000736 0.061742 -0.021916 -776043.000000 0 0 1
-30.134925 -10.755609 -14.671209 35.200017 0.342822 2.000713 0.063983 -0.022988 -549845.000000 0 0 1
-30.690245 -11.910609 -14.069309 35.800827 0.370198 1.974676 0.054291 -0.015008 848381.000000 0 0 1
-29.565475 -12.741509 -13.777709 35.018405 0.406907 1.975169 0.061999 -0.015587 613080.000000 0 0 1
-29.869955 -14.160809 -14.289409 36.012914 0.442699 1.978809 0.063948 -0.016570 26090.000000 0 0 1
-29.905635 -14.180209 -15.702409 36.633196 0.442767 2.013782 0.061506 -0.019346 -40581.700000 0 0 1
-30.014915 -15.407509 -16.384609 37.506558 0.474253 2.022886 0.059935 -0.022038 -189845.000000 0 0 1
-28.979035 -16.543409 -16.205109 37.095477 0.518729 2.022889 0.063160 -0.021085 1316280.000000 0 0 1
-27.606825 -16.192009 -16.505709 36.010504 0.530450 2.046943 0.064550 -0.025861 642322.000000 0 0 1
-26.735795 -17.306609 -16.515709 35.876038 0.574489 2.049191 0.064616 -0.029680 67427.300000 0 0 1
-25.325015 -16.843609 -16.909909 34.799549 0.586916 2.078216 0.074225 -0.046477 -176297.000000 0 0 1
-25.331875 -16.268109 -18.165309 35.161538 0.570872 2.113700 0.074238 -0.040329 2113640.000000 0 0 1
-23.989885 -15.766109 -18.584809 34.197660 0.581419 2.145341 0.040021 -0.031201 2005110.000000 0 0 1
-24.116385 -15.156909 -20.019109 34.815179 0.561105 2.183414 0.046090 -0.027663 -173645.000000 0 0 1
-24.490885 -16.103509 -20.974609 36.042485 0.581651 2.191910 0.044626 -0.028057 -361282.000000 0 0 1
-25.847725 -16.076509 -21.293609 37.148040 0.556417 2.181214 0.053114 -0.035461 -834651.000000 0 0 1
-26.296545 -17.472709 -21.791809 38.362571 0.586466 2.174929 0.052918 -0.029225 -145581.000000 0 0 1
-25.893205 -17.792909 -23.141509 39.020189 0.602060 2.205657 0.049269 -0.012898 173395.000000 0 0 1
-26.484515 -18.980409 -23.604609 40.235097 0.621820 2.197733 0.037642 -0.006828 -612528.000000 0 0 1
-26.025785 -19.251209 -25.033309 40.922086 0.636875 2.229043 0.033007 -0.006787 572321.000000 0 0 1
-24.631885 -19.529009 -25.112819 40.233887 0.670356 2.244866 0.041059 -0.004600 104523.000000 0 0 1
-24.286685 -20.845709 -24.770909 40.472023 0.709304 2.229447 0.031646 -0.005464 -741570.000000 0 0 1
-22.766985 -21.072809 -24.736109 39.677122 0.746773 2.243925 0.028663 -0.002371 -133337.000000 0 0 1
-22.235585 -21.046309 -26.011019 40.173891 0.757928 2.275044 0.029024 -0.005199 -321192.000000 0 0 1
-20.922085 -21.571909 -26.051779 39.771549 0.800689 2.285026 0.026949 -0.004713 112848.000000 0 0 1
-20.326585 -21.274209 -27.464189 40.249767 0.808173 2.321761 0.029297 -0.003792 -236746.000000 0 0 1
-20.889485 -22.020109 -28.554179 41.672497 0.811741 2.325681 0.062336 0.006321 192618.000000 0 0 1
-20.521385 -21.562209 -29.885379 42.180470 0.810125 2.358184 0.042840 -0.005569 321818.000000 0 0 1
-19.208185 -22.074209 -30.552839 42.304859 0.854712 2.377783 0.035405 -0.007602 297187.000000 0 0 1
-19.333585 -23.373909 -31.105049 43.447109 0.879722 2.368750 0.040332 -0.006469 311246.000000 0 0 1
-18.401485 -23.540909 -32.186409 43.917582 0.907326 2.393345 0.029462 -0.009596 207928.000000 0 0 1
-18.879485 -24.550709 -33.255799 45.443597 0.915246 2.391761 0.039187 -0.003421 539127.000000 0 0 1
-17.930885 -24.718709 -34.313335 45.934042 0.943228 2.414354 0.044076 -0.006638 367485.000000 0 0 1
-18.671185 -24.825609 33.311627 45.547651 0.925957 0.750486 0.073719 -0.011561 -18711.400000 0 0 1
-17.923785 -24.639809 31.958313 44.155589 0.941896 0.761552 0.077317 -0.009656 -169006.000000 0 0 1
-17.327885 -23.363809 31.795813 43.094047 0.932657 0.740956 0.060964 -0.007919 -161792.000000 0 0 1
-16.867685 -23.272309 30.470383 41.887509 0.943622 0.756222 0.076010 -0.015241 -414197.000000 0 0 1
-16.016885 -22.054709 30.346943 40.790780 0.942680 0.731811 0.055505 -0.008139 -618552.000000 0 0 1
-16.831485 -20.919409 30.501293 40.635569 0.893265 0.721818 0.050894 -0.006938 28283.400000 0 0 1
-16.250185 -19.657509 30.239133 39.558707 0.880006 0.700668 0.044847 -0.009289 -190104.000000 0 0 1
-15.214185 -19.128209 31.260703 39.681121 0.898879 0.663571 0.048020 -0.012420 130114.000000 0 0 1
-14.785085 -17.838509 30.964033 38.672761 0.878722 0.642387 0.053884 -0.012504 573179.000000 0 0 1
-13.709385 -17.481909 31.869653 38.848927 0.905762 0.608776 0.056252 -0.019219 863007.000000 0 0 1
-13.104885 -16.072109 31.851463 38.007452 0.886747 0.577130 0.049910 -0.022116 -256831.000000 0 0 1
-12.622285 -15.741409 30.548113 36.610125 0.894927 0.583722 0.060669 -0.028138 14160.600000 0 0 1
-12.042585 -14.496009 30.362093 35.735344 0.877584 0.555499 0.051544 -0.028247 -663685.000000 0 0 1
-10.597785 -14.384609 30.806583 35.612857 0.935833 0.525564 0.058197 -0.037137 -1109520.000000 0 0 1
-10.109785 -13.131109 30.546133 34.751978 0.914674 0.497087 0.060959 -0.037705 30033.400000 0 0 1
-8.733885 -12.994409 30.901683 34.641729 0.979023 0.468965 0.039419 -0.031708 554921.000000 0 0 1
-8.406485 -11.476709 30.753013 33.884091 0.938601 0.433278 0.037466 -0.034085 -359763.000000 0 0 1
-9.129185 -10.729409 31.705773 34.694643 0.865805 0.418124 0.036020 -0.033589 84330.000000 0 0 1
-8.963885 -9.372509 31.456133 34.024748 0.807679 0.391055 0.024969 -0.025038 -272730.000000 0 0 1
-9.650885 -8.433309 32.435763 34.876052 0.718171 0.376303 0.009018 -0.020243 301473.000000 0 0 1
-11.056085 -8.309409 32.235303 35.077030 0.644504 0.405295 0.018660 -0.019600 386035.000000 0 0 1
-11.824985 -7.647809 33.229600 36.090519 0.574087 0.400851 0.019289 -0.022249 -23937.600000 0 0 1
-11.601785 -6.164009 33.620898 36.096554 0.488372 0.372513 0.010824 -0.017684 -634759.000000 0 0 1
-11.962885 -5.301409 32.604323 35.132000 0.417147 0.381648 0.018521 -0.013221 226601.000000 0 0 1
-12.386185 -4.030709 33.077821 35.550055 0.314612 0.375136 0.020536 -0.015177 -42595.000000 0 0 1
-11.863285 -2.928509 32.106463 34.353146 0.242016 0.363662 0.013183 -0.001395 629855.000000 0 0 1
-10.453385 -2.717509 32.114843 33.882462 0.254335 0.324435 0.014304 -0.006317 468975.000000 0 0 1
-10.117685 -1.542609 31.426363 33.050922 0.151301 0.314837 0.007485 0.001191 -574592.000000 0 0 1
-8.647685 -1.216209 31.663613 32.845791 0.139723 0.269109 0.014737 -0.002476 -473445.000000 0 0 1
-8.360985 -0.838909 33.002511 34.055477 0.100002 0.249318 0.019769 -0.017781 -1163250.000000 0 0 1
-7.049085 -0.476309 33.196614 33.940118 0.067468 0.209699 0.024870 -0.022566 -1082610.000000 0 0 1
-6.676185 0.170791 -34.300181 34.944285 -0.025576 2.949295 0.044547 -0.026232 -429962.000000 0 0 1
-7.205485 1.467791 -34.001589 34.787663 -0.200955 2.928605 0.034356 -0.024876 550646.000000 0 0 1
-6.441985 2.488891 34.161105 34.852185 -0.368688 0.199473 0.049040 -0.015052 -172463.000000 0 0 1
-7.225385 3.794791 34.284143 35.242149 -0.483606 0.233699 0.053974 -0.018511 599618.000000 0 0 1
-8.451185 3.830391 33.519320 34.779868 -0.425543 0.270054 0.023903 -0.008710 797213.000000 0 0 1
-9.027885 5.101191 33.700424 35.259658 -0.514323 0.298501 0.008170 0.007745 -747429.000000 0 0 1
-10.294885 5.345991 32.915458 34.899737 -0.478957 0.338832 -0.000614 0.015131 -635114.000000 0 0 1
-10.951485 6.588391 33.162321 35.539857 -0.541594 0.367851 0.006609 0.013472 459469.000000 0 0 1
-11.967885 6.776691 32.179743 34.995566 -0.515226 0.403894 -0.020360 0.018284 -12746.800000 0 0 1
-12.836685 8.017391 32.345713 35.711401 -0.558289 0.437643 0.010730 0.003298 -463784.000000 0 0 1
-13.880285 7.959391 33.281118 36.927591 -0.520655 0.448143 0.010695 0.000723 -18848.300000 0 0 1
-14.412785 9.245791 33.319216 37.461756 -0.570376 0.474723 0.015118 0.006934 361747.000000 0 0 1
-15.462285 9.461391 -34.368583 38.856141 -0.549124 2.656236 0.021394 0.002362 901683.000000 0 0 1
-14.698185 9.794491 -33.159399 37.570127 -0.587800 2.652161 0.020214 -0.001532 1048380.000000 0 0 1
-15.482185 10.242091 -32.016439 37.008794 -0.584445 2.616153 0.027934 -0.005089 -528591.000000 0 0 1
-14.669985 10.302091 -30.736819 35.582209 -0.612239 2.613611 0.040386 -0.014867 383148.000000 0 0 1
-13.705185 11.327191 -30.570679 35.365291 -0.690686 2.614804 0.045597 -0.016050 -752980.000000 0 0 1
-12.473985 11.201691 -31.153559 35.378276 -0.731711 2.647890 0.048548 -0.025556 -1428770.000000 0 0 1
-11.781185 12.552291 -31.306999 35.727924 -0.817077 2.638844 0.050956 -0.024584 -326449.000000 0 0 1
-12.097085 13.299991 -32.453229 37.100422 -0.832727 2.635696 0.045879 -0.025867 -347745.000000 0 0 1
-11.552385 14.578391 -32.460789 37.412430 -0.900687 2.621247 0.039163 -0.027324 -419791.000000 0 0 1
-11.898885 15.595391 -31.333739 36.967592 -0.919043 2.582243 0.053074 -0.029723 234353.000000 0 0 1
-13.203885 16.151891 -31.348309 37.655579 -0.885486 2.554403 0.055818 -0.027210 234973.000000 0 0 1
-13.336485 17.011391 -30.245899 37.176117 -0.905904 2.521086 0.044830 -0.026624 389928.000000 0 0 1
-14.742885 17.684791 -30.171989 37.953306 -0.875873 2.489765 0.030556 -0.029205 195451.000000 0 0 1
-14.981685 18.444991 -31.351889 39.339669 -0.888639 2.493031 0.035172 -0.020935 407519.000000 0 0 1
-16.221185 19.150291 -31.481549 40.261004 -0.868019 2.468563 0.028606 -0.019199 687464.000000 0 0 1
-16.524085 20.336191 -30.514999 40.221527 -0.888452 2.432071 -0.006215 -0.012692 -329608.000000 0 0 1
-15.965185 21.553991 -31.002499 40.995324 -0.933270 2.428351 -0.001240 -0.004415 -47816.200000 0 0 1
-16.472085 22.753091 -30.507539 41.469780 -0.944177 2.397433 -0.013621 -0.008932 -377405.000000 0 0 1
-17.778085 23.266191 -31.165949 42.763212 -0.918322 2.387368 -0.006272 -0.004880 -646210.000000 0 0 1
-18.875485 22.691091 -30.548559 42.478041 -0.876937 2.373391 -0.000451 -0.012530 -486209.000000 0 0 1
-19.874485 22.481691 -31.550819 43.541656 -0.846875 2.381268 0.017256 -0.013132 -602888.000000 0 0 1
-21.150585 21.798891 -31.041409 43.429345 -0.800492 2.367072 0.021383 -0.020116 -94228.800000 0 0 1
-22.111485 22.608391 -30.317379 43.808682 -0.796509 2.335108 0.047999 -0.019131 562946.000000 0 0 1
-22.921185 23.445191 -31.064369 45.166943 -0.796699 2.329206 0.060768 -0.018221 -785107.000000 0 0 1
-24.080885 22.823291 -31.874859 46.008676 -0.758593 2.336162 0.058520 -0.025873 -966095.000000 0 0 1
-23.796185 21.899691 -32.887529 46.124229 -0.743919 2.364593 0.057612 -0.022311 -402105.000000 0 0 1
-24.942685 21.463591 -33.570119 47.008256 -0.710568 2.366180 0.064265 -0.024719 -346808.000000 0 0 1
-24.737885 20.521691 34.026091 46.806811 -0.692510 0.756930 0.054917 -0.014460 -98077.800000 0 0 1
-24.433185 19.144091 34.304614 46.263195 -0.664616 0.735478 0.052578 -0.017516 309577.000000 0 0 1
-24.205285 18.377591 33.132709 44.960072 -0.649388 0.742270 0.042718 -0.013049 -318233.000000 0 0 1
-23.908185 16.908391 33.610320 44.577445 -0.615556 0.716703 0.017829 -0.008017 -363724.000000 0 0 1
-24.995985 16.096591 33.989027 45.156986 -0.572122 0.718664 0.017284 -0.004368 17336.800000 0 0 1
-25.550265 15.509491 32.856011 44.417089 -0.545564 0.738149 0.027961 -0.008153 -392519.000000 0 0 1
-26.503705 14.289491 33.078921 44.730872 -0.494475 0.738454 0.005755 -0.003115 -336117.000000 0 0 1
-27.702215 14.723791 33.679607 46.027369 -0.488531 0.749940 0.008014 -0.003280 -795836.000000 0 0 1
-28.682445 13.731491 33.620635 46.277247 -0.446497 0.757575 0.012574 -0.001634 -495158.000000 0 0 1
-28.600295 12.432991 -34.400199 46.431992 -0.410071 2.405165 0.017298 -0.004462 -1493880.000000 0 0 1
-27.470815 11.689391 34.229806 45.419898 -0.402311 0.717229 0.015846 -0.010645 -993296.000000 0 0 1
-27.802565 10.292891 34.287389 45.327158 -0.354568 0.712940 0.018726 -0.004555 -518941.000000 0 0 1
-26.640945 9.311591 34.289028 44.409268 -0.336249 0.688635 0.016308 -0.013547 201095.000000 0 0 1
-25.707225 9.217691 33.195052 42.985331 -0.344284 0.688435 0.022785 -0.012727 1102880.000000 0 0 1
-24.594885 10.135291 33.214709 42.554076 -0.390885 0.675284 0.015305 -0.018869 354664.000000 0 0 1
-23.363585 9.560591 32.474793 41.132398 -0.388420 0.660772 0.011966 -0.012791 -449891.000000 0 0 1
-23.446885 9.537191 31.054873 40.063943 -0.386318 0.683871 0.000554 -0.004261 -263942.000000 0 0 1
-22.220685 9.330391 30.401973 38.795554 -0.397540 0.670283 0.005334 -0.003197 -127957.000000 0 0 1
-22.264085 9.385291 28.873683 37.649206 -0.398940 0.696779 0.020227 -0.005148 -82294.400000 0 0 1
-22.569585 10.681591 28.341703 37.772141 -0.442039 0.722230 0.002198 0.007694 192442.000000 0 0 1
-22.667485 10.542091 26.933703 36.747447 -0.435320 0.748162 0.004531 0.002104 -737365.000000 0 0 1
-23.026685 11.905291 26.211423 36.864656 -0.477172 0.779852 -0.004814 0.001059 366964.000000 0 0 1
-24.342785 12.406891 26.379063 37.978376 -0.471357 0.802959 -0.010221 0.002809 90446.900000 0 0 1
-25.295235 11.679091 25.623963 37.852841 -0.432550 0.827204 -0.006179 0.007827 139469.000000 0 0 1
-26.766535 12.165191 25.839103 39.142030 -0.426584 0.849795 -0.003308 0.007417 505200.000000 0 0 1
-26.860425 13.445191 25.293523 39.268535 -0.464094 0.870928 -0.004045 0.005826 815.151000 0 0 1
-28.077915 14.044591 25.710743 40.579085 -0.463808 0.884604 -0.001305 -0.001389 256894.000000 0 0 1
-28.266055 15.397991 25.004243 40.758804 -0.498805 0.910351 0.002236 -0.001639 60528.700000 0 0 1
-27.302845 16.355691 25.407263 40.724476 -0.539719 0.897096 0.005078 -0.002854 40505.600000 0 0 1
-27.201955 17.311991 24.432733 40.455034 -0.566773 0.922351 0.004181 -0.003890 -123418.000000 0 0 1
-22.476085 -9.008009 31.644533 39.845892 0.381180 0.653151 0.020960 -0.010628 -727809.000000 0 0 1
-21.532785 -9.183309 30.658243 38.573590 0.403124 0.652120 0.026058 -0.016768 -492216.000000 0 0 1
-22.099185 -9.070109 29.370733 37.858695 0.389463 0.682816 0.026266 -0.018566 -402599.000000 0 0 1
-21.131985 -8.685709 28.249753 36.332504 0.389972 0.680062 0.026317 -0.026004 -273690.000000 0 0 1
-20.627685 -7.327709 28.205323 35.703458 0.341332 0.660006 0.025859 -0.026420 1017140.000000 0 0 1
-19.454685 -7.072609 29.023273 35.649080 0.348688 0.619553 0.024435 -0.026622 -881055.000000 0 0 1
-18.116985 -7.381809 28.477143 34.549442 0.386914 0.601932 0.032205 -0.019107 -1943060.000000 0 0 1
-17.700785 -8.741309 28.515443 34.682254 0.458705 0.605546 0.034581 -0.022336 163794.000000 0 0 1
-17.445785 -9.357209 29.761603 35.744451 0.492310 0.586972 0.046580 -0.023745 -1483720.000000 0 0 1
-16.140285 -9.078409 30.455653 35.643696 0.512366 0.546311 0.049703 -0.022418 -577459.000000 0 0 1
-14.998985 -9.708709 29.852923 34.791171 0.574469 0.539316 0.032922 -0.024684 -799767.000000 0 0 1
-13.851585 -9.137109 30.313873 34.558415 0.583125 0.500844 0.018301 -0.022149 -736965.000000 0 0 1
-12.553085 -9.905309 29.972333 33.971103 0.668043 0.490093 0.023346 -0.028176 75276.200000 0 0 1
-12.214385 -9.823109 28.590683 32.605395 0.677312 0.501485 0.036272 -0.021037 -358690.000000 0 0 1
-11.190585 -10.715309 28.247633 32.217632 0.763705 0.501681 0.039569 -0.026670 -320795.000000 0 0 1
-10.513485 -10.436709 26.880013 30.691910 0.781734 0.503703 0.039060 -0.029507 -253482.000000 0 0 1
-11.306785 -10.620409 25.740233 30.053220 0.754106 0.542369 0.037505 -0.023950 -221571.000000 0 0 1
-10.628185 -10.371509 24.500553 28.649670 0.773176 0.544903 0.025954 -0.013152 90208.700000 0 0 1
-11.507485 -10.671909 23.267673 28.065930 0.747742 0.593414 0.022229 -0.012343 -471669.000000 0 0 1
-11.688485 -12.072409 22.916273 28.416884 0.801555 0.632704 0.034462 -0.010161 864619.000000 0 0 1
-12.922985 -12.512809 22.312073 28.660121 0.769274 0.678515 0.032064 -0.004483 500120.000000 0 0 1
-14.165585 -12.408709 23.204773 29.884801 0.719382 0.681745 0.033709 -0.004604 -959422.000000 0 0 1
-15.257085 -13.121009 22.661973 30.306840 0.710268 0.726128 0.021967 0.009387 -523435.000000 0 0 1
-16.322485 -12.954709 23.555173 31.449868 0.670871 0.724282 0.011034 0.014697 -527972.000000 0 0 1
-17.576985 -13.729409 23.098773 32.109195 0.663111 0.767884 0.018472 0.008564 -604157.000000 0 0 1
-17.547385 -15.199909 23.164473 32.795438 0.713836 0.786493 0.014476 0.010517 362829.000000 0 0 1
-18.768085 -15.943309 23.063373 33.739432 0.704198 0.818149 0.024403 0.008991 426074.000000 0 0 1
-19.644985 -15.946209 24.354773 35.119254 0.681846 0.804478 0.021110 0.006589 164256.000000 0 0 1
-19.078485 -16.771909 25.411123 35.930637 0.721148 0.785228 0.026663 0.009122 769285.000000 0 0 1
-19.973485 -16.777109 26.549403 37.219381 0.698642 0.776569 0.022611 0.005589 305816.000000 0 0 1
-19.641385 -17.751909 27.695653 38.314011 0.734911 0.762864 0.027127 0.003107 -204597.000000 0 0 1
-19.883585 -19.114909 27.409933 38.884973 0.765690 0.788517 0.037775 0.007106 198103.000000 0 0 1
-19.683385 -20.020209 28.478803 39.991082 0.793881 0.778270 0.032404 0.001957 -497452.000000 0 0 1
-19.873485 -21.560009 28.160203 40.654476 0.826080 0.805610 0.049447 0.008327 836712.000000 0 0 1
-21.206885 -21.995809 27.814883 41.318462 0.803657 0.832292 0.041650 0.009714 826972.000000 0 0 1
-21.245885 -23.370309 27.579893 41.931009 0.832978 0.852976 0.052445 0.017617 -191301.000000 0 0 1
-22.645085 -23.940209 27.276203 42.777620 0.813192 0.879381 0.057689 0.016478 -420623.000000 0 0 1
-23.234985 -24.323909 28.473583 44.071102 0.808290 0.868355 0.059417 0.015786 -12849.200000 0 0 1
-24.474885 -24.934209 28.153493 44.870413 0.794694 0.892535 0.054053 0.010790 -66015.200000 0 0 1
-25.147135 -25.690829 29.305723 46.381273 0.796092 0.886867 0.026013 0.000868 -294191.000000 0 0 1
-25.757925 -24.797709 30.235763 46.825190 0.766407 0.868836 0.002037 0.018982 252086.000000 0 0 1
-26.450215 -25.667999 31.138843 48.250260 0.770391 0.869300 0.004331 0.028965 176546.000000 0 0 1
-27.764345 -25.104199 31.748403 49.081980 0.735124 0.867357 -0.014078 0.019624 -55411.000000 0 0 1
-28.730425 -24.909409 30.724963 48.887006 0.714284 0.891187 0.010600 0.016559 -451547.000000 0 0 1
-29.454465 -23.794909 31.143833 49.027559 0.679512 0.882489 0.004733 0.004548 -709640.000000 0 0 1
-30.682695 -23.647909 30.213023 49.127163 0.656633 0.908415 0.001532 -0.001926 -553021.000000 0 0 1
-31.619125 -24.656509 30.466273 50.357783 0.662300 0.921035 0.000793 -0.001802 176849.000000 0 0 1
-32.702825 -24.670909 29.526653 50.497047 0.646309 0.946261 0.001160 -0.009212 112055.000000 0 0 1
-33.829015 -25.613059 29.933953 51.927571 0.648051 0.956412 -0.000198 -0.008905 -223065.000000 0 0 1
-33.417805 -26.977449 30.021263 52.400465 0.679163 0.960732 -0.001116 -0.005284 312911.000000 0 0 1
-34.419371 -27.661099 30.758503 53.813707 0.676962 0.962374 -0.004203 -0.003986 242547.000000 0 0 1
-34.006625 -29.099379 31.119143 54.512618 0.707792 0.963242 -0.003430 -0.004725 383106.000000 0 0 1
-33.015085 -29.100019 32.151813 54.502716 0.722452 0.939846 0.003538 0.005980 215599.000000 0 0 1
-32.613865 -30.426779 32.439353 55.152196 0.750719 0.941991 -0.001871 -0.000890 -67278.600000 0 0 1
-31.688715 -30.565229 33.688334 55.437458 0.767353 0.917658 -0.001434 -0.005326 -23381.400000 0 0 1
-32.327585 -30.458809 -33.921809 55.888290 0.755643 2.223023 0.002937 0.002761 -334866.000000 0 0 1
-31.359105 -30.539149 -32.895039 54.755061 0.772152 2.215257 0.006372 -0.002000 -26588.200000 0 0 1
-31.847285 -30.080449 -31.526079 53.971999 0.756875 2.194591 0.015084 -0.007612 -244264.000000 0 0 1
-31.979975 -28.695829 -31.387329 53.210280 0.731325 2.201698 0.005344 -0.000649 45316.600000 0 0 1
-30.746925 -27.996469 -31.255809 52.020201 0.738611 2.215348 0.020981 0.001094 -25502.000000 0 0 1
-30.883625 -26.482879 -31.196279 51.267427 0.708835 2.224967 0.012434 0.005162 -94472.500000 0 0 1
-31.566675 -26.120759 -30.012119 50.788546 0.691273 2.202999 0.009824 -0.002111 39066.300000 0 0 1
-31.706355 -24.741309 -29.774519 50.039458 0.662629 2.208088 0.024796 -0.004125 -35611.100000 0 0 1
-30.387865 -24.122209 -29.265489 48.598068 0.670956 2.217043 0.031377 -0.009279 -42099.600000 0 0 1
-30.242675 -22.721809 -29.256659 47.821043 0.644343 2.229124 0.034877 -0.004174 -355489.000000 0 0 1
-28.955495 -22.403109 -28.805109 46.583842 0.658503 2.237438 0.037264 -0.006040 -302326.000000 0 0 1
-28.484825 -20.926709 -28.964379 45.697349 0.633612 2.257292 0.045003 -0.012384 -24890.900000 0 0 1
-28.239345 -20.455909 -30.254739 46.165508 0.626899 2.285447 0.048229 -0.003275 321870.000000 0 0 1
-27.821685 -19.062709 -30.249799 45.304342 0.600707 2.301914 0.038692 -0.008413 -145684.000000 0 0 1
-27.348085 -18.503909 -31.639319 45.731378 0.594853 2.334846 0.050039 -0.002138 203388.000000 0 0 1
-28.278905 -18.324309 -32.698589 46.953962 0.574957 2.341161 0.046283 -0.012888 795557.000000 0 0 1
-29.290495 -17.305009 -32.448279 47.013693 0.533632 2.332545 0.045115 -0.013296 -44676.100000 0 0 1
-29.826465 -16.616809 -33.722939 47.989301 0.508290 2.350007 0.042151 -0.017316 419219.000000 0 0 1
-30.828005 -17.361209 34.371947 49.327560 0.512893 0.799856 0.040915 -0.022129 463688.000000 0 0 1
-32.106355 -17.029709 -33.962759 49.742317 0.487683 2.322349 0.043951 -0.019845 -747091.000000 0 0 1
-33.157975 -17.433709 33.829600 50.476008 0.484056 0.836303 0.037281 -0.027386 -388939.000000 0 0 1
-33.443645 -18.808209 33.994905 51.262849 0.512302 0.845778 0.024510 -0.024241 327649.000000 0 0 1
-34.341476 -19.308709 32.978841 51.378665 0.512204 0.873851 0.024609 -0.022845 60147.400000 0 0 1
-34.864957 -20.712909 33.345390 52.502427 0.536062 0.882631 0.013099 -0.027378 -377606.000000 0 0 1
-33.869645 -21.689609 33.242795 52.179262 0.569586 0.880082 0.016983 -0.016543 -289615.000000 0 0 1
-34.253270 -22.982409 33.582876 53.191044 0.590966 0.887486 0.009104 -0.012607 -686006.000000 0 0 1
-32.984725 -23.846409 33.569451 52.759372 0.625965 0.881137 0.007230 -0.004187 66932.100000 0 0 1
-32.086715 -23.741909 -34.211103 52.570288 0.637025 2.279393 0.005721 -0.014065 -126958.000000 0 0 1
-31.179985 -22.656009 -34.295245 51.591182 0.628369 2.297956 0.021155 -0.015984 -572550.000000 0 0 1
-29.925345 -22.829009 -33.406559 50.325820 0.651684 2.296692 0.027346 -0.012343 280860.000000 0 0 1
-28.946895 -23.819109 -33.822769 50.490122 0.688523 2.304855 0.027150 -0.009235 572932.000000 0 0 1
-27.651655 -23.545609 -33.348699 49.306648 0.705369 2.313596 0.043263 -0.006990 3847.800000 0 0 1
-27.327545 -23.979209 -31.886709 48.358654 0.720229 2.290790 0.051490 -0.000906 -709352.000000 0 0 1
-27.060555 -25.391549 -31.788189 48.861983 0.753589 2.279132 0.047069 -0.005242 44002.800000 0 0 1
-26.611415 -25.721069 -30.497899 47.956884 0.768387 2.260028 0.032049 -0.006741 -45941.700000 0 0 1
-26.335075 -27.225849 -30.264569 48.484299 0.802028 2.244921 0.031436 -0.008674 62572.400000 0 0 1
-27.531785 -27.971779 -30.182439 49.511608 0.793325 2.226356 0.016708 -0.002505 257546.000000 0 0 1
-27.272995 -29.224969 -29.589849 49.734035 0.819934 2.208014 0.020520 -0.006959 -118840.000000 0 0 1
-28.249285 -30.378459 -29.910329 51.141966 0.821699 2.195490 0.022297 0.002425 -290085.000000 0 0 1
-28.246215 -30.776549 -31.280499 52.187300 0.828242 2.213534 0.037270 -0.003512 325144.000000 0 0 1
-28.308545 -32.192409 -31.347429 53.107309 0.849505 2.202184 0.043336 0.004611 -327588.000000 0 0 1
-28.012265 -32.686159 -32.773389 54.103300 0.862248 2.221512 0.029227 -0.008084 531900.000000 0 0 1
-26.655195 -32.510779 -33.198009 53.568256 0.884046 2.239199 0.034582 -0.005019 575903.000000 0 0 1
-26.402275 -33.274909 -34.369269 54.640154 0.900057 2.251077 0.040567 -0.008856 -251579.000000 0 0 1
-24.927185 -33.545429 34.146976 53.969217 0.931734 0.885746 0.046789 -0.013385 -150426.000000 0 0 1
-24.737985 -34.185322 32.925655 53.522919 0.944378 0.908196 0.045466 -0.002913 392204.000000 0 0 1
-23.592185 33.795839 33.017737 52.810234 -0.961360 0.895390 0.038518 0.000199 611069.000000 0 0 1
-23.327385 32.965197 31.732893 51.359980 -0.954963 0.904788 0.050318 -0.006785 -227847.000000 0 0 1
-24.533785 32.314509 31.435233 51.325510 -0.921421 0.911617 0.040578 -0.025072 -104241.000000 0 0 1
-24.334285 31.422319 30.362213 50.013833 -0.911844 0.918420 0.039305 -0.018027 -717784.000000 0 0 1
-25.552785 30.670369 29.886383 49.867948 -0.876171 0.928157 0.041967 -0.015645 -763685.000000 0 0 1
-26.013095 29.774639 30.854463 50.151851 -0.852722 0.908130 0.041623 -0.021566 1201000.000000 0 0 1
-27.359815 29.321209 30.552023 50.415463 -0.819988 0.919768 0.039425 -0.024487 1091360.000000 0 0 1
-27.776345 28.291179 31.604033 50.702377 -0.794580 0.897809 0.036649 -0.036941 -131601.000000 0 0 1
-27.077335 27.018059 31.646663 49.645431 -0.784302 0.879607 0.043763 -0.034556 350542.000000 0 0 1
-27.860185 25.943889 32.143073 49.824215 -0.749797 0.869604 0.045585 -0.023321 182754.000000 0 0 1
-28.808115 25.357819 31.058903 49.371874 -0.721785 0.890426 0.037495 -0.023387 236679.000000 0 0 1
-28.160105 24.713459 29.961443 47.973270 -0.720304 0.896248 0.028135 -0.011785 -155269.000000 0 0 1
-29.113715 24.109359 29.132853 47.724131 -0.691648 0.914177 0.016033 -0.002010 -2976.550000 0 0 1
-28.588185 23.923949 27.702613 46.444315 -0.696809 0.931701 0.014689 -0.013721 -230294.000000 0 0 1
-27.574675 22.992229 27.471573 45.207219 -0.695024 0.917659 0.014264 -0.005352 -143461.000000 0 0 1
-27.024945 22.980629 26.174063 44.085582 -0.704697 0.935134 0.010318 -0.002737 -163561.000000 0 0 1
-25.687405 22.218429 26.047763 42.801721 -0.713112 0.916542 0.009691 -0.003330 -269155.000000 0 0 1
-25.767175 20.883329 26.526283 42.470041 -0.681088 0.896192 0.006968 -0.007593 271029.000000 0 0 1
-24.529085 20.361829 26.972163 41.758564 -0.692833 0.868585 0.006625 -0.000188 -164323.000000 0 0 1
-24.630785 19.142129 27.882993 41.839670 -0.660660 0.841393 0.013435 -0.007141 -181129.000000 0 0 1
-23.383385 18.677329 28.334903 41.212765 -0.673974 0.812718 0.001698 0.002332 40710.200000 0 0 1
-23.660185 17.814929 29.405673 41.735712 -0.645386 0.788981 0.003941 0.001917 -95664.900000 0 0 1
-22.569785 16.849529 29.876873 41.060070 -0.641291 0.755924 -0.000084 -0.002323 -370093.000000 0 0 1
-21.492185 17.322029 30.664083 41.258365 -0.678370 0.732924 0.014332 -0.009131 1083560.000000 0 0 1
-20.399485 16.359229 30.617503 40.264064 -0.675925 0.706840 0.008230 -0.001203 993252.000000 0 0 1
-19.155585 16.669329 31.477753 40.443193 -0.716109 0.678810 0.012071 -0.009470 -101040.000000 0 0 1
-19.211785 16.259529 32.823623 41.362485 -0.702360 0.654159 0.012302 -0.007032 406626.000000 0 0 1
-18.107885 16.674829 33.614284 41.663719 -0.744221 0.632081 0.018668 -0.009802 -219093.000000 0 0 1
-18.384085 16.267229 -33.710899 41.701583 -0.724384 2.512198 0.015335 -0.016200 690361.000000 0 0 1
-19.303985 17.100129 -32.992869 41.875860 -0.724933 2.478144 0.015412 -0.013345 74688.900000 0 0 1
-20.670985 16.975229 -33.261909 42.682580 -0.687541 2.464321 0.013039 -0.012310 -923521.000000 0 0 1
-21.504785 17.860829 -32.370039 42.770135 -0.693094 2.429257 0.021426 -0.017438 -366835.000000 0 0 1
-21.562385 17.408729 -31.030139 41.603724 -0.679216 2.412606 0.015576 -0.013182 -28435.000000 0 0 1
-22.408885 18.197929 -30.244929 41.810029 -0.682067 2.379495 0.012601 -0.013548 -751493.000000 0 0 1
-22.569885 17.796129 -28.752419 40.654687 -0.667683 2.356376 0.013930 -0.014506 -358859.000000 0 0 1
-23.203385 16.608629 -28.374889 40.241496 -0.621241 2.353382 -0.001324 -0.006081 92939.300000 0 0 1
-24.500085 16.395529 -28.909299 41.289407 -0.589756 2.346422 0.013912 -0.011027 -251899.000000 0 0 1
-25.239305 15.187529 -28.334219 40.871892 -0.541699 2.336778 0.019628 -0.004879 -287364.000000 0 0 1
-24.774285 13.950629 -28.811389 40.478160 -0.512852 2.362820 -0.000321 0.000335 193136.000000 0 0 1
-25.496185 12.957329 -28.110239 40.101538 -0.470191 2.347562 -0.008136 0.004573 151660.000000 0 0 1
-24.848485 11.554729 -28.282429 39.380894 -0.435264 2.371974 0.002135 0.003075 139046.000000 0 0 1
-23.863785 11.336329 -27.267039 37.966881 -0.443484 2.371979 0.010604 0.006796 -30615.600000 0 0 1
-23.125485 10.259329 -27.780919 37.574212 -0.417550 2.402918 0.002096 0.014302 -143333.000000 0 0 1
-22.201985 9.645729 -26.687579 36.030475 -0.409850 2.404900 0.021882 0.008527 238959.000000 0 0 1
-22.900585 8.799629 -25.793499 35.597400 -0.366859 2.381235 0.033864 0.003330 143567.000000 0 0 1
-21.949485 8.182529 -24.960909 34.231282 -0.356831 2.387925 0.052592 0.012681 -378813.000000 0 0 1
-22.490285 7.081629 -24.034709 33.669417 -0.305047 2.365768 0.051458 0.014639 -139508.000000 0 0 1
-22.903985 5.923429 -24.695009 34.198290 -0.253075 2.377647 0.048266 0.006657 258748.000000 0 0 1
-22.915185 4.897329 -23.803209 33.401831 -0.210548 2.364039 0.049218 0.010458 -294339.000000 0 0 1
34.570536 25.520791 -10.401809 44.211202 0.635922 1.808298 0.002243 0.004029 173986.000000 0 0 1
35.458478 24.827491 -9.508709 44.318433 0.610850 1.787032 0.009527 0.004086 215835.000000 0 0 1
-35.288702 23.755091 -10.173209 43.738896 -0.592487 1.805536 0.016893 -0.000731 185944.000000 0 0 1
-34.252788 22.951991 -9.295009 42.266353 -0.590360 1.792524 0.007505 -0.005273 315268.000000 0 0 1
-34.768526 22.142891 -8.277009 42.043631 -0.567087 1.768958 0.021763 -0.005924 -818594.000000 0 0 1
-33.728645 21.577291 -7.571709 40.749623 -0.569123 1.757693 0.005903 -0.001602 -717019.000000 0 0 1
-34.180030 20.684291 -6.367109 40.455586 -0.544203 1.728839 0.022534 0.006489 113153.000000 0 0 1
-34.892077 19.528291 -6.833509 40.564862 -0.510242 1.740062 0.028045 0.003181 465724.000000 0 0 1
-35.243577 18.710591 -5.707309 40.308427 -0.488056 1.712865 0.028467 -0.006358 -167421.000000 0 0 1
35.368939 17.412791 -6.112009 39.893907 0.457484 1.724609 0.027481 0.011906 838907.000000 0 0 1
34.068536 17.649491 -6.689509 38.947647 0.477990 1.743409 0.039153 0.003299 720364.000000 0 0 1
33.758686 16.730991 -7.658609 38.447747 0.460126 1.771333 0.050938 0.007824 -311575.000000 0 0 1
32.532046 16.981191 -8.532809 37.676302 0.481079 1.799255 0.031754 -0.002394 -203433.000000 0 0 1
32.120786 15.874291 -9.323109 37.022404 0.459002 1.825360 0.044780 -0.004214 -284489.000000 0 0 1
31.331206 16.305591 -10.364809 36.809592 0.479855 1.856236 0.053540 -0.007337 -652999.000000 0 0 1
30.778186 15.052791 -11.211509 36.049705 0.454868 1.887043 0.058585 -0.000773 749958.000000 0 0 1
29.565946 14.381891 -10.830509 34.616237 0.452736 1.889013 0.051306 0.002182 799100.000000 0 0 1
29.491736 13.921691 -9.493609 33.966227 0.441042 1.854071 0.047735 -0.000230 -598057.000000 0 0 1
28.533686 12.736191 -9.279409 32.595847 0.419820 1.859470 0.054972 0.003442 19278.600000 0 0 1
28.931696 11.531091 -9.896209 32.679413 0.379267 1.878454 0.060480 0.000682 584493.000000 0 0 1
27.860836 10.597291 -9.803709 31.378998 0.363466 1.888545 0.061414 -0.002722 153518.000000 0 0 1
28.367406 9.164791 -10.148309 31.491131 0.312490 1.898911 0.063421 -0.004779 -172385.000000 0 0 1
29.311006 8.673191 -9.218509 31.927108 0.287693 1.863703 0.055313 -0.007013 287759.000000 0 0 1
29.465876 7.274391 -9.320909 31.749551 0.242035 1.868762 0.048765 -0.007765 -690832.000000 0 0 1
30.632256 6.807991 -8.463509 32.500998 0.218695 1.834241 0.052368 -0.006094 -894339.000000 0 0 1
31.836336 7.319291 -8.916609 33.861929 0.225977 1.837261 0.042114 -0.007955 -372417.000000 0 0 1
32.950976 6.861291 -8.140909 34.628291 0.205294 1.808112 0.048126 -0.007455 85155.400000 0 0 1
34.308976 7.142791 -8.776709 36.126942 0.205258 1.816193 0.045966 -0.006087 -352103.000000 0 0 1
34.538346 6.294891 -9.869809 36.468290 0.180279 1.844855 0.037468 -0.007369 -54695.700000 0 0 1
-35.468973 6.345191 -10.329809 37.483523 -0.177022 1.849992 0.037982 -0.014781 -1317940.000000 0 0 1
-35.116908 5.385091 -11.473009 37.333984 -0.152162 1.883159 0.033195 -0.007283 159100.000000 0 0 1
-33.774145 5.281591 -11.935509 36.208348 -0.155123 1.906712 0.039179 -0.013615 900393.000000 0 0 1
-33.111565 6.453491 -12.431109 35.952132 -0.192488 1.923854 0.027909 -0.014287 -295263.000000 0 0 1
-32.287455 7.409991 -11.514109 35.070820 -0.225594 1.905310 0.030034 0.000721 -703713.000000 0 0 1
-33.035575 8.208791 -10.620309 35.658441 -0.243551 1.873220 0.033589 -0.005799 -4786.170000 0 0 1
-33.526165 9.381991 -11.253709 36.587860 -0.272861 1.883445 0.029186 -0.010519 194751.000000 0 0 1
-34.406298 10.177791 -10.222109 37.307805 -0.287610 1.848340 0.040169 -0.009479 589112.000000 0 0 1
-33.632035 10.907491 -9.260509 36.549202 -0.313615 1.826960 0.020643 0.000840 -10468.100000 0 0 1
-34.452459 11.506691 -8.309309 37.261515 -0.322339 1.795687 0.029399 0.005239 -21680.200000 0 0 1
-33.651615 12.456291 -7.353009 36.628638 -0.354516 1.772914 0.046075 0.003472 281761.000000 0 0 1
-33.015765 13.512891 -8.055109 36.572172 -0.388486 1.792870 0.024113 0.002759 -382903.000000 0 0 1
-32.429105 14.425591 -7.187009 36.213224 -0.418550 1.770586 0.029632 0.005611 -370514.000000 0 0 1
-31.743305 15.614691 -7.872409 36.241286 -0.457151 1.789764 0.011569 0.003280 -394222.000000 0 0 1
-32.435785 16.420291 -8.768109 37.397672 -0.468627 1.807455 -0.000655 0.003222 -587611.000000 0 0 1
-31.762605 17.617891 -8.989509 37.417435 -0.506425 1.813419 -0.002674 0.009230 -139392.000000 0 0 1
-32.546985 18.472891 -9.953409 38.724983 -0.516237 1.830742 -0.012200 0.008221 160989.000000 0 0 1
-31.987905 18.533291 -11.262309 38.646456 -0.525123 1.866506 -0.015680 0.014191 -389279.000000 0 0 1
-33.002975 18.921491 -12.121609 39.926840 -0.520576 1.879260 -0.018752 0.004626 -700053.000000 0 0 1
-32.552635 19.089091 -13.553709 40.097013 -0.530365 1.915612 -0.022364 0.017834 -189981.000000 0 0 1
-31.919755 20.350691 -13.728109 40.267634 -0.567579 1.918693 -0.023387 0.007612 3300.610000 0 0 1
-31.581885 20.546591 -15.075909 40.581534 -0.576784 1.951417 -0.035966 0.007340 -276948.000000 0 0 1
-30.738525 21.804391 -15.351509 40.693454 -0.616974 1.957619 -0.014045 0.001788 -107338.000000 0 0 1
-29.405285 21.715591 -14.882609 39.468085 -0.636096 1.957437 -0.009006 0.003265 431196.000000 0 0 1
-28.746715 22.952691 -14.638309 39.591410 -0.673792 1.949520 -0.012567 0.008368 -30236.500000 0 0 1
-27.992885 23.559491 -15.837809 39.868376 -0.699611 1.979317 -0.003823 0.000940 -751358.000000 0 0 1
-28.843225 24.005691 -16.891609 41.152537 -0.694117 1.993758 -0.003891 0.013582 67271.900000 0 0 1
-28.186055 24.575591 -17.993909 41.499327 -0.717075 2.019275 -0.004093 0.011052 -370879.000000 0 0 1
-27.425095 25.904591 -17.815509 41.720211 -0.756894 2.011995 0.001544 0.009699 86644.200000 0 0 1
-28.228035 26.981691 -17.447609 42.769763 -0.762827 1.990996 0.007901 0.009427 -403449.000000 0 0 1
-27.405275 28.115891 -17.396009 42.943842 -0.798196 1.987871 0.015169 0.001657 22531.700000 0 0 1
-27.977885 29.547391 -17.091809 44.135477 -0.812675 1.968452 0.006668 0.003943 -104841.000000 0 0 1
-28.465165 29.827491 -15.772209 44.144166 -0.808764 1.936160 0.006465 -0.001875 483471.000000 0 0 1
-27.448045 29.747491 -14.776909 43.089041 -0.825580 1.920840 0.009481 0.001938 93650.400000 0 0 1
-27.733005 30.549791 -13.500409 43.412790 -0.833690 1.887018 0.008239 0.001840 -211415.000000 0 0 1
-27.302865 31.884491 -13.754109 44.172873 -0.862653 1.887431 0.014337 0.003528 198489.000000 0 0 1
-27.403725 32.629891 -12.545909 44.419295 -0.872233 1.857136 0.011837 0.000298 -92571.800000 0 0 1
-26.786305 34.025691 -12.571809 45.092174 -0.903886 1.853343 0.000755 0.000559 40214.100000 0 0 1
-27.395785 -34.026448 -13.599909 45.752440 0.892934 1.872607 -0.014856 -0.006706 -49899.400000 0 0 1
-26.788245 -32.788548 -13.723909 44.508928 0.885775 1.884244 0.004754 -0.006865 -237851.000000 0 0 1
-27.081075 -32.103048 -15.047009 44.613931 0.870049 1.914813 -0.001091 -0.006516 14191.300000 0 0 1
-26.230385 -32.659748 -16.014709 44.845994 0.894143 1.935963 -0.007187 0.000209 -33848.200000 0 0 1
-26.615225 -32.139448 -17.270809 45.161878 0.879144 1.963210 -0.003775 0.004823 194104.000000 0 0 1
-25.838255 -32.701348 -18.516909 45.605587 0.902104 1.988894 -0.001632 0.003631 -282902.000000 0 0 1
-26.127225 -33.983248 -18.971609 46.876593 0.915355 1.987462 -0.000172 0.007935 -29734.500000 0 0 1
-25.428735 33.859591 -18.223209 46.099651 -0.926652 1.977191 -0.017186 -0.001567 -576995.000000 0 0 1
-25.566565 32.448291 -18.807709 45.390205 -0.903467 1.998032 -0.002838 -0.019995 -615743.000000 0 0 1
-26.906565 32.079991 -18.954809 45.960568 -0.872879 1.995899 0.012203 -0.015182 -507086.000000 0 0 1
-27.481065 32.440091 -20.220609 47.079098 -0.867969 2.014739 0.015191 -0.006340 -415476.000000 0 0 1
-29.004065 32.390691 -20.367409 48.012748 -0.840504 2.008884 0.016574 -0.006173 -123383.000000 0 0 1
-29.559755 31.101491 -20.233709 47.439275 -0.810808 2.011436 0.010095 -0.005114 -707237.000000 0 0 1
-30.911905 30.962591 -20.472209 48.304650 -0.786217 2.008449 0.015416 -0.004065 -895810.000000 0 0 1
-31.235405 29.530291 -20.948309 47.817573 -0.757345 2.024267 0.009871 -0.005657 -813038.000000 0 0 1
-32.576715 29.270891 -21.208909 48.660510 -0.731998 2.021784 0.011586 -0.005705 -560604.000000 0 0 1
-32.761475 27.980291 -21.691609 48.236260 -0.706847 2.037220 0.008617 0.005224 1028560.000000 0 0 1
-34.242702 27.398291 -21.702009 48.930626 -0.674814 2.030325 0.015367 0.012494 1648860.000000 0 0 1
-35.087026 28.030591 -22.682009 50.311897 -0.674062 2.038489 0.013096 0.017558 -9675.560000 0 0 1
35.225536 27.173091 -23.149209 50.150784 0.657059 2.050586 0.025458 0.012450 372079.000000 0 0 1
34.475896 27.774591 -24.406909 50.554056 0.678160 2.074632 0.036756 0.004365 333548.000000 0 0 1
35.258666 27.920691 -25.568129 51.734590 0.669771 2.087731 0.027399 0.000560 -423913.000000 0 0 1
34.377436 28.054291 -26.653859 51.761758 0.684461 2.111726 0.049073 -0.008430 89429.800000 0 0 1
35.150696 28.276791 -27.955829 53.072373 0.677445 2.125568 0.034741 -0.004995 64645.900000 0 0 1
35.660588 27.093491 -28.610019 53.143843 0.649718 2.139275 0.020212 0.008004 -207966.000000 0 0 1
-35.057203 27.377391 -29.804599 53.542910 -0.663007 2.161143 0.001668 0.008653 -1189740.000000 0 0 1
-34.675090 26.119891 -30.560699 53.090177 -0.645594 2.184180 -0.000655 0.008482 410223.000000 0 0 1
-33.636845 25.298491 -30.019239 51.697250 -0.644848 2.190352 0.002225 0.009641 207401.000000 0 0 1
-32.352835 25.856991 -30.194589 51.254299 -0.674264 2.200757 -0.003747 0.015719 -587260.000000 0 0 1
-31.255345 25.181791 -29.352999 49.725424 -0.678194 2.202229 -0.004910 0.014039 -351606.000000 0 0 1
-30.902105 23.901691 -29.761909 49.112139 -0.658350 2.221818 0.017233 0.001365 -77991.000000 0 0 1
-31.588905 22.843091 -29.109139 48.651903 -0.626086 2.212192 0.009124 0.005321 -36017.900000 0 0 1
-31.119295 21.468091 -29.621729 48.028495 -0.603891 2.235408 0.021117 -0.002348 1245580.000000 0 0 1
-29.718585 21.116391 -29.460319 46.872238 -0.617768 2.250450 0.023240 -0.000980 1231740.000000 0 0 1
-29.544365 19.742191 -29.662949 46.287300 -0.589079 2.266394 0.021087 -0.002632 693617.000000 0 0 1
-28.048545 19.274491 -29.837549 45.260427 -0.602072 2.290606 0.037000 -0.002960 628039.000000 0 0 1
-27.583035 19.659991 -31.125819 46.001692 -0.619236 2.313963 0.041094 -0.011796 -598673.000000 0 0 1
-26.457785 18.905591 -31.424799 45.221165 -0.620429 2.339096 0.045377 -0.018145 -798786.000000 0 0 1
-26.623225 17.567191 -32.185559 45.313492 -0.583265 2.360701 0.034701 -0.015057 -291991.000000 0 0 1
-27.009925 16.492091 -31.369509 44.559749 -0.548173 2.351793 0.011343 -0.006034 180331.000000 0 0 1
-27.312555 15.320091 -32.114019 44.855224 -0.511187 2.368778 -0.004545 0.000820 -101742.000000 0 0 1
-27.691255 14.047791 -31.288149 44.080544 -0.469471 2.360003 0.007354 0.001763 720321.000000 0 0 1
-29.101645 14.034191 -30.986599 44.766434 -0.449345 2.335307 0.009105 -0.003771 1153590.000000 0 0 1
-29.746615 12.744991 -30.925209 44.762311 -0.404791 2.333496 0.011370 0.001648 155181.000000 0 0 1
-29.272545 11.780291 -29.835849 43.426202 -0.382604 2.328214 0.002528 -0.011259 -422974.000000 0 0 1
-29.448135 12.451991 -28.606759 42.902114 -0.400044 2.300691 -0.007589 -0.004067 305115.000000 0 0 1
-29.494995 11.527391 -27.543249 41.969823 -0.372572 2.286652 0.001049 -0.002544 -163225.000000 0 0 1
-29.478175 12.247291 -26.209009 41.302192 -0.393771 2.258244 -0.012791 0.001911 -464379.000000 0 0 1
-28.235245 12.733091 -25.823109 40.326091 -0.423656 2.265760 -0.011975 0.001045 -558621.000000 0 0 1
-28.366945 13.479791 -24.573209 39.877700 -0.443606 2.234723 -0.011249 0.003074 -611099.000000 0 0 1
-27.077445 13.825991 -23.846209 38.639200 -0.472099 2.235913 -0.003941 0.008635 -967436.000000 0 0 1
-26.234575 14.744991 -24.529809 38.824982 -0.512043 2.254676 0.002438 0.007549 550287.000000 0 0 1
-24.905485 14.689191 -24.018309 37.589024 -0.532884 2.263957 0.006005 -0.001770 385865.000000 0 0 1
-24.590685 15.367591 -22.692409 36.821326 -0.558553 2.234812 0.012668 -0.000973 -1249330.000000 0 0 1
-24.771985 16.761891 -22.891909 37.664993 -0.594880 2.224054 0.029489 -0.007554 100544.000000 0 0 1
-24.863685 17.488991 -21.689309 37.342921 -0.613001 2.190525 0.028478 -0.005617 -212876.000000 0 0 1
-26.317715 17.607491 -21.186909 38.098963 -0.589641 2.160485 0.010574 -0.004462 -683244.000000 0 0 1
-26.929635 16.378291 -21.119309 37.940465 -0.546419 2.161136 0.010756 0.000794 -1082350.000000 0 0 1
-28.155765 16.648191 -20.514309 38.610183 -0.533990 2.130953 0.011537 0.003754 -1042830.000000 0 0 1
-29.215415 15.494891 -20.623609 38.973906 -0.487645 2.128412 -0.010093 0.000692 307113.000000 0 0 1
-29.731615 15.163391 -21.885009 39.910537 -0.471623 2.151188 -0.014910 0.007617 269541.000000 0 0 1
-30.516375 16.171891 -22.494009 41.216012 -0.487313 2.148091 -0.022903 0.002573 -557289.000000 0 0 1
-30.903855 15.977391 -23.958309 42.241281 -0.477157 2.173871 -0.018750 0.004235 -145133.000000 0 0 1
-32.129715 15.299391 -24.147009 43.005442 -0.444407 2.166978 -0.011540 0.005266 293153.000000 0 0 1
-32.597915 15.357991 -25.501049 44.145164 -0.440289 2.186660 0.004946 0.000720 314925.000000 0 0 1
-33.947965 14.634891 -25.785749 45.072710 -0.407024 2.179851 0.006865 0.002814 281023.000000 0 0 1
-34.005425 13.199991 -25.922489 44.750242 -0.370269 2.188630 0.002913 0.002490 -5363.080000 0 0 1
-33.878585 12.536591 -24.674409 43.746441 -0.354419 2.170057 -0.008255 0.004916 -226936.000000 0 0 1
-33.799245 11.033191 -25.110719 43.527790 -0.315527 2.185712 -0.004433 -0.002148 811471.000000 0 0 1
-35.064678 10.483691 -25.532949 44.624779 -0.290522 2.179945 0.003899 0.002852 662089.000000 0 0 1
-34.873102 9.169291 -26.068009 44.494384 -0.257113 2.196752 -0.001522 0.011688 -247501.000000 0 0 1
35.220186 8.388091 -26.556139 44.900447 0.233806 2.203646 0.012176 0.007523 -363833.000000 0 0 1
34.510066 7.995391 -25.424229 43.603468 0.227666 2.193309 0.004211 0.007677 -143504.000000 0 0 1
33.495486 7.062491 -25.786439 42.857518 0.207805 2.216397 0.020590 0.009551 140356.000000 0 0 1
32.957736 6.116891 -24.686109 41.629710 0.183510 2.205567 0.023498 0.001136 255588.000000 0 0 1
33.840606 5.048491 -24.365109 42.003958 0.148092 2.189607 0.020774 -0.001817 192278.000000 0 0 1
33.229346 4.135991 -23.442109 40.875767 0.123831 2.181564 0.032045 -0.001494 -222417.000000 0 0 1
34.199326 3.202291 -22.768809 41.210038 0.093364 2.156165 0.023392 -0.002685 -426150.000000 0 0 1
34.701296 2.208591 -23.591209 42.019079 0.063560 2.166922 0.027900 -0.003227 -648503.000000 0 0 1
-35.599495 1.517191 -23.009709 42.415476 -0.042593 2.144187 0.032946 0.000254 -628651.000000 0 0 1
-35.038004 0.259291 -23.778309 42.345448 -0.007400 2.167032 0.031692 0.005730 568183.000000 0 0 1
35.425033 -0.892209 -23.870209 42.726057 -0.025181 2.163590 0.032138 -0.009477 182663.000000 0 0 1
-35.195165 -1.836109 -24.554409 42.953346 0.052122 2.179315 0.031170 -0.002164 68743.700000 0 0 1
-22.750985 29.555991 27.084953 46.095103 -0.914769 0.942721 0.015019 -0.005160 34079.500000 0 0 1
-24.123985 29.786791 26.744353 46.738420 -0.890055 0.961594 0.001515 -0.008236 1034890.000000 0 0 1
-24.555085 29.124291 25.568703 45.879571 -0.870314 0.979665 -0.008064 0.003517 -280662.000000 0 0 1
-24.828085 27.603091 25.646533 45.123265 -0.838275 0.966278 -0.005035 -0.001163 -194228.000000 0 0 1
-25.993275 27.091591 26.298203 45.838849 -0.806085 0.959768 -0.000167 -0.007160 320604.000000 0 0 1
-25.896345 26.874891 27.707933 46.482362 -0.803939 0.932167 0.011206 -0.008288 -542530.000000 0 0 1
-24.957485 25.716991 28.239413 45.625695 -0.800385 0.903408 0.002712 -0.003137 -850749.000000 0 0 1
-23.636685 26.006991 28.367553 45.163863 -0.833108 0.891684 0.011889 -0.003900 -1559790.000000 0 0 1
-23.330585 26.672391 29.559023 46.146164 -0.852131 0.875579 0.014929 -0.006864 -388529.000000 0 0 1
-21.995385 26.363691 30.274493 45.775387 -0.875484 0.848152 0.035699 -0.000076 -206009.000000 0 0 1
-20.845785 26.759191 29.496813 44.951785 -0.908983 0.855041 0.042975 -0.005766 442533.000000 0 0 1
-19.676485 26.472691 30.242583 44.750209 -0.931613 0.828735 0.048625 -0.007259 -133087.000000 0 0 1
-19.211785 24.988891 30.187673 43.644392 -0.915363 0.806993 0.047832 -0.003378 -857032.000000 0 0 1
-18.633985 24.590191 28.922773 42.289829 -0.922334 0.817677 0.051745 -0.012806 333172.000000 0 0 1
-19.518685 23.998591 27.961813 41.698614 -0.887982 0.835820 0.055022 -0.010722 238109.000000 0 0 1
-19.759085 22.454491 28.039483 40.998026 -0.849163 0.817670 0.052389 -0.002633 288335.000000 0 0 1
-20.280285 22.083691 29.336633 41.947793 -0.827942 0.796294 0.023867 -0.002683 195693.000000 0 0 1
-20.397185 20.691991 29.431023 41.356846 -0.792573 0.778972 0.018898 0.006014 -99602.700000 0 0 1
-20.676385 20.288391 30.874273 42.336183 -0.775927 0.753550 0.016777 0.002932 638012.000000 0 0 1
-19.535585 20.345891 31.767413 42.482501 -0.805713 0.726090 0.020594 0.000100 808264.000000 0 0 1
-19.913485 20.153091 33.152632 43.609528 -0.791378 0.707152 0.018931 -0.001372 221556.000000 0 0 1
-18.948585 20.947291 34.070851 44.256759 -0.835454 0.692198 0.029997 -0.008050 -524898.000000 0 0 1
-19.088185 22.357091 34.133489 45.047679 -0.864108 0.710985 0.010413 -0.004881 203114.000000 0 0 1
-18.284685 23.163791 33.241238 44.450768 -0.902574 0.726022 0.017936 0.007138 812474.000000 0 0 1
-16.749185 23.203391 33.562464 44.106366 -0.945561 0.706030 0.014792 0.007185 418283.000000 0 0 1
-16.174385 21.952591 33.323170 43.057643 -0.935805 0.685788 0.028704 -0.012762 -620886.000000 0 0 1
-14.885285 21.883891 33.894268 43.003462 -0.973487 0.662958 0.023939 -0.011289 -141250.000000 0 0 1
-14.212785 20.465291 33.940742 42.104695 -0.963783 0.633258 0.041028 -0.010991 -1052760.000000 0 0 1
-12.886885 20.333491 34.236680 41.852991 -1.005911 0.612832 0.025127 -0.016296 -1127610.000000 0 0 1
-12.629485 20.404291 -33.176039 40.944945 -1.016551 2.515391 0.028015 -0.010464 -148963.000000 0 0 1
-11.113385 20.269691 -32.923189 40.228150 -1.069278 2.529438 0.031548 -0.014943 -37191.700000 0 0 1
-10.357685 21.404991 -33.233239 40.864452 -1.120119 2.520521 0.024614 -0.015051 188795.000000 0 0 1
-8.997085 21.172291 -32.862689 40.114458 -1.168971 2.530851 0.035144 -0.017033 405827.000000 0 0 1
-8.086485 22.415091 -32.990389 40.696355 -1.224567 2.516053 0.038056 -0.017081 12056.200000 0 0 1
-8.173285 23.405691 -31.946439 40.437655 -1.234834 2.481633 0.024144 -0.014054 -16760.800000 0 0 1
-7.630985 23.015391 -30.702819 39.122925 -1.250643 2.473135 0.017628 -0.012311 -77811.500000 0 0 1
-7.345585 24.199691 -29.737959 39.037531 -1.276095 2.436851 0.009513 -0.012096 460729.000000 0 0 1
-6.298585 25.031691 -30.254479 39.769225 -1.324289 2.435266 0.019296 -0.009994 267850.000000 0 0 1
-6.106985 26.124891 -29.381399 39.787835 -1.341159 2.401568 0.017682 -0.006309 12300.800000 0 0 1
-4.776485 26.822091 -29.735529 40.329159 -1.394563 2.399892 0.032425 -0.009257 357993.000000 0 0 1
-3.602485 26.258691 -29.114979 39.372309 -1.434455 2.403092 0.046969 -0.006834 1738100.000000 0 0 1
-2.371685 26.865591 -29.618609 40.058044 -1.482745 2.402964 0.047699 -0.009004 1226570.000000 0 0 1
-1.943285 28.278191 -29.144869 40.655330 -1.502184 2.370109 0.052409 -0.011694 -697427.000000 0 0 1
-1.208985 28.194791 -27.977759 39.738682 -1.527943 2.351872 0.067680 -0.021255 -29300.700000 0 0 1
-0.458885 29.340291 -27.694569 40.349131 -1.555157 2.327287 0.071733 -0.025135 -927040.000000 0 0 1
0.084515 29.433191 -26.253299 39.440532 1.567925 2.299151 0.070457 -0.034329 748084.000000 0 0 1
1.176615 28.612691 -25.780459 38.531838 1.529697 2.303752 0.083570 -0.039908 948680.000000 0 0 1
2.393115 28.820091 -26.487599 39.216292 1.487950 2.312335 0.077644 -0.039436 15631.800000 0 0 1
3.699815 28.846191 -25.641479 38.772114 1.443233 2.293398 0.070645 -0.038571 280282.000000 0 0 1
4.027615 27.571391 -25.218719 37.581738 1.425743 2.306402 0.070974 -0.031088 -324887.000000 0 0 1
5.086115 27.575691 -24.317009 37.116091 1.388404 2.285192 0.049368 -0.019612 -525884.000000 0 0 1
5.651115 26.325291 -23.705809 35.873687 1.359341 2.292698 0.051058 -0.018991 157954.000000 0 0 1
6.841515 26.605491 -22.990609 35.822152 1.319103 2.267638 0.041637 -0.019654 -233796.000000 0 0 1
7.667815 25.471691 -22.882209 35.088430 1.278392 2.281187 0.031462 -0.005709 226563.000000 0 0 1
9.139015 25.780391 -22.505009 35.420694 1.230123 2.259275 0.022064 0.011139 -367500.000000 0 0 1
9.204415 26.476491 -21.287409 35.197721 1.236221 2.220305 0.035641 0.008889 378235.000000 0 0 1
10.520215 26.752791 -20.816209 35.492271 1.196133 2.197527 0.045605 -0.000365 914177.000000 0 0 1
11.363115 25.525091 -20.216709 34.487185 1.151963 2.197168 0.029702 0.011552 277592.000000 0 0 1
11.583815 24.540291 -21.200209 34.436311 1.129772 2.233988 0.021252 0.006578 -352662.000000 0 0 1
11.983215 23.331191 -20.580509 33.339155 1.096317 2.236112 0.016789 0.012332 -70963.000000 0 0 1
12.198515 22.163391 -21.579209 33.251796 1.067654 2.277018 0.016162 0.002683 -349411.000000 0 0 1
11.079815 22.063491 -22.401209 33.337278 1.105407 2.307644 0.019003 -0.007616 -191503.000000 0 0 1
11.339115 21.200991 -23.487109 33.611037 1.079668 2.344503 0.005655 -0.014060 221662.000000 0 0 1
10.507115 21.625491 -24.726909 34.488858 1.118519 2.370219 0.016582 -0.014426 -461745.000000 0 0 1
9.158215 21.317891 -24.787809 33.952332 1.165034 2.389231 0.008281 -0.019072 -1089110.000000 0 0 1
8.682715 21.465991 -26.105999 34.895580 1.186428 2.416017 -0.004466 -0.021650 -690019.000000 0 0 1
7.336215 20.696891 -26.144219 34.142371 1.230154 2.442989 0.017180 -0.020510 534121.000000 0 0 1
6.204815 21.438891 -25.651249 34.001652 1.289075 2.425554 0.031115 -0.016716 369935.000000 0 0 1
6.191415 21.740591 -24.278209 33.172554 1.293355 2.391868 0.041232 -0.014554 -2012100.000000 0 0 1
4.866715 22.116091 -23.684909 32.768602 1.354195 2.378631 0.057441 -0.016700 -793900.000000 0 0 1
4.269515 23.278391 -24.271709 33.900267 1.389401 2.368815 0.055423 -0.014924 65529.900000 0 0 1
2.870815 23.328091 -24.044009 33.623738 1.448349 2.367550 0.073033 -0.018453 304919.000000 0 0 1
2.185115 24.414891 -24.887609 34.932144 1.481535 2.363788 0.062695 -0.008557 434749.000000 0 0 1
0.760415 24.393891 -24.944809 34.898190 1.539634 2.367117 0.075081 -0.030443 576890.000000 0 0 1
0.281215 25.265791 -25.983129 36.243099 1.559667 2.370160 0.064342 -0.022409 734099.000000 0 0 1
-1.215285 25.019591 -26.360429 36.363843 -1.522261 2.381697 0.075317 -0.020495 472345.000000 0 0 1
-1.370185 23.724191 -26.973479 35.948341 -1.513106 2.419373 0.088797 -0.026799 1392220.000000 0 0 1
-2.721585 23.770591 -27.543799 36.484365 -1.456799 2.426371 0.091093 -0.018082 1490320.000000 0 0 1
-3.263985 22.413691 -27.980529 35.999127 -1.426188 2.461089 0.076913 -0.021381 -564693.000000 0 0 1
-2.615585 22.042791 -29.166229 36.652351 -1.452689 2.491047 0.090172 -0.023977 281.447000 0 0 1
-2.879585 20.671491 -29.496659 36.133854 -1.432385 2.525801 0.074292 -0.014013 648639.000000 0 0 1
-4.057785 20.527691 -30.564719 37.041244 -1.375639 2.541271 0.061874 -0.012627 640124.000000 0 0 1
-3.779385 20.837291 -31.907739 38.295956 -1.391371 2.555645 0.061874 -0.011904 -42484.000000 0 0 1
-3.435585 22.220091 -32.130189 39.215873 -1.417395 2.531013 0.065616 -0.008981 -55732.500000 0 0 1
-3.157485 22.366991 -33.628309 40.510680 -1.430556 2.550101 0.056112 -0.004573 556540.000000 0 0 1
-2.026385 21.573091 -34.024789 40.338453 -1.477140 2.574531 0.064176 -0.000718 647491.000000 0 0 1
-1.572585 21.897891 33.499633 40.052666 -1.499105 0.580133 0.057678 0.004788 118408.000000 0 0 1
-0.386685 21.023891 33.057817 39.178728 -1.552406 0.566528 0.061690 0.006689 11511.500000 0 0 1
-0.805285 19.689791 32.820394 38.282040 -1.529920 0.540733 0.055403 0.018802 438133.000000 0 0 1
0.309815 18.825791 32.609403 37.654741 1.554341 0.523628 0.048381 0.015165 394105.000000 0 0 1
-0.174885 17.417491 32.209463 36.617606 -1.560756 0.495740 0.051156 0.015019 182845.000000 0 0 1
-0.643385 17.367791 30.878003 35.433108 -1.533769 0.512656 0.028537 0.011933 -107619.000000 0 0 1
-1.173885 16.101791 30.604543 34.601787 -1.498021 0.485421 0.040760 0.011380 -191613.000000 0 0 1
-2.296585 16.122291 29.567633 33.755702 -1.429300 0.503436 0.048721 0.006284 911667.000000 0 0 1
-3.595085 16.630591 29.932603 34.430537 -1.357899 0.516886 0.027719 0.000661 722139.000000 0 0 1
-3.724185 17.977491 29.385663 34.649342 -1.366527 0.558432 0.030487 -0.001589 304861.000000 0 0 1
-5.133585 18.581591 29.650323 35.366239 -1.301247 0.576493 0.020082 -0.016606 372152.000000 0 0 1
-6.121385 18.158691 28.749063 34.550224 -1.245655 0.587922 0.015479 -0.014356 -1043350.000000 0 0 1
-7.370185 18.615591 29.181063 35.389183 -1.193817 0.601344 0.033815 -0.022593 -545335.000000 0 0 1
-8.484185 18.044491 28.237333 34.567788 -1.131287 0.614835 0.032402 -0.027836 179880.000000 0 0 1
-8.892085 16.682291 28.424243 34.136572 -1.081079 0.586898 0.040612 -0.034458 338602.000000 0 0 1
-9.572985 16.489191 29.709153 35.301122 -1.044793 0.570572 0.040135 -0.035700 -136687.000000 0 0 1
-10.307185 15.125991 29.945393 35.096441 -0.972648 0.548646 0.037594 -0.041995 170210.000000 0 0 1
-9.492685 13.994491 30.206963 34.618166 -0.974772 0.510346 0.027389 -0.024793 307.634000 0 0 1
-8.803285 13.966091 31.451713 35.521258 -1.008371 0.483370 0.024200 -0.020010 -635297.000000 0 0 1
-9.538085 13.470291 32.686793 36.617621 -0.954666 0.467601 0.045670 -0.030385 -547433.000000 0 0 1
-9.755585 12.084291 32.659663 36.164279 -0.891623 0.443881 0.021543 -0.015209 500688.000000 0 0 1
-10.332085 11.720091 33.954406 37.376653 -0.848257 0.431262 0.030303 -0.008922 -2354.270000 0 0 1
-10.562985 10.181691 34.102340 37.124292 -0.767020 0.406276 0.018703 -0.012574 -125762.000000 0 0 1
-9.380485 9.392991 34.241566 36.724741 -0.786064 0.369843 0.017867 -0.007652 304818.000000 0 0 1
-9.448885 8.478491 -33.510409 35.834533 -0.731322 2.779459 0.041488 -0.013830 -513063.000000 0 0 1
-8.756985 9.026391 -32.238039 34.604215 -0.800546 2.769646 0.026732 -0.015444 -345097.000000 0 0 1
-9.369385 10.156991 -31.695059 34.576388 -0.825712 2.730457 0.035633 -0.019266 371984.000000 0 0 1
-8.456985 10.796991 -30.786949 33.703588 -0.906339 2.722509 0.049653 -0.018608 572932.000000 0 0 1
-7.498585 11.793991 -31.531729 34.490244 -1.004470 2.724379 0.040723 -0.013294 158825.000000 0 0 1
-8.131785 12.987391 -31.943509 35.428605 -1.011385 2.694321 0.046447 -0.018883 246997.000000 0 0 1
-7.185785 13.836591 -32.573999 36.113047 -1.091803 2.695178 0.035958 -0.013419 232866.000000 0 0 1
-7.703385 15.277991 -32.702399 36.908076 -1.103783 2.659550 0.040956 -0.015946 -200517.000000 0 0 1
-8.541385 15.579791 -33.771739 38.160392 -1.069309 2.657279 0.052373 -0.018253 -205270.000000 0 0 1
-8.851785 16.955591 -33.677989 38.730519 -1.089659 2.625080 0.054964 -0.026661 -940834.000000 0 0 1
-9.279485 17.493691 33.817748 39.189005 -1.083088 0.529738 0.050292 -0.030807 850068.000000 0 0 1
-10.374385 16.835291 33.137985 38.589907 -1.018530 0.538027 0.049150 -0.034703 707486.000000 0 0 1
-11.647585 17.053191 33.713782 39.536017 -0.971561 0.549595 0.052274 -0.035861 -214141.000000 0 0 1
-12.884485 16.711191 32.835690 39.031479 -0.913984 0.571184 0.051088 -0.035653 124861.000000 0 0 1
-12.986685 15.298691 32.632293 38.308882 -0.866955 0.551345 0.047893 -0.032981 265060.000000 0 0 1
-13.991885 14.677891 33.420009 39.091051 -0.809321 0.545386 0.042896 -0.025503 -78859.600000 0 0 1
-13.967785 13.101691 33.449801 38.544033 -0.753414 0.519971 0.032590 -0.019219 -77604.600000 0 0 1
-14.296085 12.516491 32.226903 37.411413 -0.719124 0.532739 0.023274 -0.021267 470494.000000 0 0 1
-13.120685 12.310491 31.434663 36.219312 -0.753551 0.519842 0.015209 -0.006127 319319.000000 0 0 1
-13.365785 11.767091 29.977783 34.867981 -0.721874 0.536014 0.012339 0.000302 -189460.000000 0 0 1
-13.680385 10.343491 29.949223 34.512268 -0.647382 0.520069 0.002802 0.005881 150020.000000 0 0 1
-13.299885 9.708591 28.740423 33.123339 -0.630562 0.520282 -0.023700 0.009825 -185151.000000 0 0 1
-14.018285 8.370491 28.476893 32.825460 -0.538293 0.520593 -0.005085 0.017763 -13613.300000 0 0 1
-13.557485 7.265191 29.243063 33.041566 -0.491938 0.484219 -0.036861 0.019542 -9409.940000 0 0 1
-14.325185 6.094391 28.981383 32.897919 -0.402236 0.492933 -0.020156 0.025564 -188667.000000 0 0 1
-13.568785 4.771091 28.936073 32.313643 -0.338120 0.461298 -0.013393 0.025979 219461.000000 0 0 1
-12.801285 4.530391 27.707493 30.856158 -0.340146 0.455692 -0.014078 0.031305 975002.000000 0 0 1
-13.658585 4.389691 26.569593 30.195523 -0.310961 0.495106 -0.006279 0.036620 197344.000000 0 0 1
-12.741585 4.232191 25.356313 28.691497 -0.320690 0.486965 -0.006953 0.040830 -161088.000000 0 0 1
-12.220885 2.886391 25.398733 28.333318 -0.231935 0.459157 -0.011236 0.036812 141540.000000 0 0 1
-11.496085 2.629891 24.214563 26.933647 -0.224894 0.453213 -0.015479 0.034962 -37049.700000 0 0 1
-10.486985 1.461691 24.218193 26.431690 -0.138489 0.412164 -0.015722 0.032477 -92755.700000 0 0 1
-9.289385 1.673091 24.918023 26.645821 -0.178197 0.362095 -0.007951 0.032822 380127.000000 0 0 1
-8.410085 0.532291 24.902193 26.289391 -0.063208 0.326304 -0.006239 0.018516 629793.000000 0 0 1
-6.932685 0.861991 24.579253 25.552785 -0.123702 0.276923 0.002103 0.008701 -197866.000000 0 0 1
-6.638885 1.095591 23.209173 24.164867 -0.163552 0.282179 0.011770 0.008971 467312.000000 0 1 0
-5.299785 1.531991 22.969173 23.622396 -0.281396 0.235716 0.019918 0.001596 440860.000000 0 1 0
-4.844985 2.945691 23.458973 24.134506 -0.546272 0.237158 0.041371 0.001588 -490090.000000 0 1 0
-4.289685 2.802891 24.745533 25.270516 -0.578763 0.204190 0.034462 -0.000074 -11296.100000 0 0 1
-4.006985 4.053491 25.253683 25.888901 -0.791168 0.221979 0.033751 0.000044 -94149.300000 0 0 1
4.072715 -24.026309 12.878391 27.562719 -1.402882 1.084630 0.039757 -0.001845 237704.000000 0 0 1
3.846015 -25.222929 13.560191 28.894061 -1.419481 1.082290 0.035531 -0.008939 44918.200000 0 0 1
2.473315 -25.584639 13.608791 29.084192 -1.474424 1.083872 0.017706 -0.005580 135431.000000 0 0 1
2.130315 -26.844329 14.393391 30.534013 -1.491604 1.079932 0.007178 0.003433 -283844.000000 0 0 1
2.192315 -26.586209 15.772691 30.990491 -1.488522 1.036829 0.018309 -0.004664 -160397.000000 0 0 1
2.069815 -27.798289 16.563491 32.424963 -1.496475 1.034652 0.008571 -0.001264 -266599.000000 0 0 1
1.447615 -27.565619 17.974791 32.940129 -1.518329 0.993595 -0.009241 0.007707 -219115.000000 0 0 1
2.274215 -26.796299 18.815091 32.821051 -1.486129 0.960314 0.021880 -0.005520 342512.000000 0 0 1
1.851115 -27.031999 20.136491 33.758464 -1.502424 0.931679 0.022782 -0.007308 170110.000000 0 0 1
2.865715 -26.344379 21.061291 33.849913 -1.462443 0.899251 0.025094 -0.001175 90568.200000 0 0 1
2.467515 -25.059689 21.348591 33.012710 -1.472647 0.867575 0.020877 0.000551 762962.000000 0 0 1
3.572415 -24.390309 21.958191 33.012293 -1.425362 0.843099 0.049973 -0.009571 603063.000000 0 0 1
3.056215 -23.067109 22.571591 32.417722 -1.439071 0.800604 0.048064 -0.010143 28197.600000 0 0 1
2.450115 -22.159909 21.645191 31.073766 -1.460678 0.800184 0.050906 -0.005271 631962.000000 0 0 1
3.345615 -21.491409 20.709991 30.032941 -1.416364 0.809893 0.054803 0.001680 189505.000000 0 0 1
2.689015 -20.355509 19.957491 28.633529 -1.439454 0.799595 0.031503 -0.004864 -98447.700000 0 0 1
2.525215 -19.262409 20.841991 28.492204 -1.440444 0.750280 0.022765 -0.000657 -902884.000000 0 0 1
1.482715 -18.557809 20.331591 27.567450 -1.491069 0.741403 0.012589 -0.000689 -971547.000000 0 0 1
1.161115 -17.222009 21.020591 27.199468 -1.503478 0.687506 0.013146 -0.005039 536619.000000 0 0 1
2.152115 -16.218509 20.691191 26.377965 -1.438872 0.669049 -0.003439 0.005530 610022.000000 0 0 1
1.784315 -14.940009 21.211591 26.006139 -1.451927 0.616966 0.002933 0.004108 44392.100000 0 0 1
2.843915 -13.860809 20.936391 25.269395 -1.368428 0.594323 -0.029115 0.008154 -594776.000000 0 0 1
3.020215 -13.370209 19.589391 23.908752 -1.348634 0.610538 -0.039652 0.008574 -690564.000000 0 1 0
1.968315 -12.968909 18.757491 22.889088 -1.420174 0.610267 -0.026183 0.012159 -493872.000000 0 1 0
1.133815 -11.791709 19.274191 22.623536 -1.474937 0.551092 -0.024829 0.009252 -505605.000000 0 1 0
1.787115 -10.543009 19.225891 21.999630 -1.402885 0.507589 -0.020512 0.013433 -539083.000000 0 1 0
1.368815 -9.596009 20.173791 22.381664 -1.429108 0.447912 -0.014791 0.000790 510665.000000 0 1 0
-0.073185 -8.996309 20.181091 22.095596 1.562661 0.419351 -0.007638 -0.008908 630492.000000 0 1 0
-0.335085 -8.162009 21.306091 22.818418 1.529765 0.366120 0.002127 -0.014290 331287.000000 0 1 0
-1.732285 -7.844909 21.293891 22.759025 1.353467 0.360774 0.008580 -0.011359 842380.000000 0 1 0
-2.224285 -7.151109 22.603891 23.812217 1.269242 0.319934 0.007179 -0.007641 -497844.000000 0 1 0
-2.103785 -8.134609 23.623691 25.073423 1.317720 0.341717 0.001531 -0.005772 114320.000000 0 0 1
-2.221285 -7.543009 24.924191 26.135156 1.284409 0.305604 0.004104 -0.003605 -114791.000000 0 0 1
-2.346185 -8.508509 26.154291 27.603374 1.301737 0.325461 0.002036 -0.008887 59241.900000 0 0 1
-1.186585 -9.279409 26.373891 27.983880 1.443614 0.340861 -0.003902 -0.006241 136458.000000 0 0 1
-1.494385 -10.323209 27.321891 29.245300 1.427035 0.364697 0.002418 -0.017308 -404712.000000 0 0 1
-0.318485 -11.226009 27.631591 29.826658 1.542434 0.386044 0.000448 -0.019368 -1196820.000000 0 0 1
0.832815 -10.632309 28.077991 30.035198 -1.492627 0.362999 -0.004122 -0.019467 -863910.000000 0 0 1
1.826015 -11.600209 28.383191 30.716522 -1.414665 0.392288 0.000009 -0.027134 -434612.000000 0 0 1
2.833715 -11.000709 29.304791 31.429545 -1.318683 0.369809 0.015909 -0.028050 -340058.000000 0 0 1
2.273615 -10.870409 30.663391 32.612554 -1.364612 0.347483 0.012011 -0.023279 306661.000000 0 0 1
3.156115 -10.141509 31.496991 33.239610 -1.269089 0.325240 0.036638 -0.016505 -164329.000000 0 0 1
2.730215 -9.874209 32.987091 34.541312 -1.301036 0.301123 0.029636 -0.013988 -388019.000000 0 0 1
2.541815 -11.072509 33.697491 35.560964 -1.345145 0.325166 0.022430 -0.011469 174531.000000 0 0 1
2.242315 -11.037409 -33.771391 35.599989 -1.370368 2.819689 0.012388 -0.008269 -219020.000000 0 0 1
3.254215 -10.236909 -32.877391 34.587672 -1.263008 2.825806 0.011831 -0.001612 154776.000000 0 0 1
3.166115 -8.839609 -32.971891 34.282774 -1.226859 2.864163 0.018884 -0.007551 127570.000000 0 0 1
3.739515 -8.193809 -31.842091 33.091407 -1.142647 2.865935 0.029744 -0.001936 -125703.000000 0 0 1
3.166815 -6.817309 -31.681391 32.560942 -1.135929 2.908634 0.016357 -0.007529 28307.000000 0 0 1
3.518115 -5.970909 -32.789291 33.513676 -1.038349 2.933300 0.041374 -0.006311 105782.000000 0 0 1
3.456915 -4.645409 -32.371791 32.885604 -0.931045 2.964589 0.036113 -0.002311 60830.400000 0 0 1
3.301815 -3.568509 -33.493391 33.844401 -0.824197 2.997445 0.036805 0.003332 580627.000000 0 0 1
1.910715 -3.360809 -33.766891 33.987480 -1.053839 3.027598 0.036611 0.000465 518144.000000 0 0 1
1.845815 -2.362909 34.052691 34.184443 -0.907648 0.087825 0.060944 0.002825 122789.000000 0 0 1
1.385615 -2.908009 32.674291 32.832693 -1.126139 0.098269 0.046475 -0.006617 630342.000000 0 0 1
-0.012385 -3.152309 32.527791 32.680183 1.566867 0.096610 0.041649 -0.012335 143285.000000 0 0 1
-0.182085 -3.547309 31.163091 31.364865 1.519511 0.113491 0.043963 -0.013158 -600800.000000 0 0 1
-1.623685 -3.884509 30.822991 31.109203 1.174878 0.135753 0.036286 -0.015921 -477541.000000 0 0 1
-2.443785 -2.736109 30.797991 31.015716 0.841773 0.118558 0.030552 -0.010631 126066.000000 0 0 1
-3.797685 -3.025109 30.470491 30.854894 0.672644 0.158015 0.016358 -0.009454 811405.000000 0 0 1
-4.618985 -1.789709 29.919991 30.327280 0.369657 0.164073 0.016681 -0.006656 31090.500000 0 0 1
-4.786885 -1.729409 28.522391 28.972951 0.346689 0.176587 0.007743 0.001218 427466.000000 0 0 1
-5.987385 -1.051009 28.130691 28.780013 0.173767 0.212824 -0.012092 0.003776 721781.000000 0 0 1
-6.171585 0.451891 28.529291 29.192689 -0.073091 0.213595 0.015395 0.007502 -118084.000000 0 0 1
-6.444385 0.796991 29.881791 30.579188 -0.123047 0.213979 0.017041 0.014921 -163268.000000 0 0 1
-6.806285 2.139491 30.139591 30.972534 -0.304561 0.232441 0.017827 0.009598 82024.300000 0 0 1
-8.263985 2.355691 30.651791 31.833552 -0.277690 0.273332 -0.009182 0.015676 -19933.100000 0 0 1
-9.076685 1.874091 29.623491 31.039485 -0.203612 0.303217 -0.018328 0.024646 -625127.000000 0 0 1
-10.369785 2.448091 29.720091 31.572288 -0.231834 0.344233 -0.015475 0.025472 -35642.900000 0 0 1
-11.307485 1.743491 28.698391 30.894929 -0.152984 0.379357 -0.010158 0.031273 -174855.000000 0 0 1
-11.544685 0.371891 28.982891 31.199776 -0.032202 0.379242 -0.014113 0.028462 66596.300000 0 0 1
-12.014685 -0.322909 27.835891 30.319857 0.026870 0.407601 -0.012271 0.031988 -662662.000000 0 0 1
-11.990885 -1.895209 27.912691 30.438322 0.156757 0.410241 -0.002468 0.021438 453180.000000 0 0 1
-10.715185 -2.501209 28.140591 30.215296 0.229320 0.372732 -0.002352 0.016799 594434.000000 0 0 1
-9.672085 -2.306709 27.211591 28.971379 0.234118 0.350335 -0.004171 0.012413 -465998.000000 0 0 1
-9.795885 -3.033209 25.886891 27.844045 0.300278 0.377171 -0.007323 0.011344 -861449.000000 0 0 1
-10.749485 -2.520409 25.004491 27.333651 0.230308 0.415814 0.000214 0.019457 -60542.100000 0 0 1
-10.721885 -3.087609 23.656191 26.155449 0.280386 0.440717 0.010417 0.011686 -210870.000000 0 0 1
-9.604085 -2.618909 22.696191 24.783345 0.266215 0.413341 0.005278 0.011703 -546156.000000 0 1 0
-8.322485 -2.726509 23.190191 24.788759 0.316589 0.361090 0.002319 0.005252 -614176.000000 0 1 0
-7.338785 -2.327809 22.217691 23.513873 0.307154 0.333581 0.000375 -0.001125 605580.000000 0 1 0
-5.853885 -2.436109 22.630891 23.502336 0.394353 0.273169 -0.000010 -0.004605 39561.800000 0 1 0
-5.246385 -3.705909 22.608591 23.503334 0.614991 0.276813 0.004904 -0.007886 -152292.000000 0 1 0
-5.691985 -4.647009 23.587691 24.705719 0.684669 0.301991 0.006757 -0.005505 -255703.000000 0 1 0
-5.432585 -6.150809 23.256391 24.661816 0.847324 0.339227 0.006224 -0.006174 -475239.000000 0 1 0
-6.251185 -6.799409 22.274191 24.113251 0.827381 0.393083 0.003939 -0.006950 139173.000000 0 1 0
-5.989085 -6.299609 20.954491 22.685786 0.810662 0.393211 0.011903 -0.012559 -886595.000000 0 1 0
-7.136985 -6.426109 20.001791 22.187904 0.733034 0.447636 0.019478 -0.008466 -710774.000000 0 1 0
-8.109885 -5.417309 20.198191 22.429543 0.588917 0.449839 0.020634 -0.009246 -249998.000000 0 1 0
-8.985085 -5.317209 19.095391 21.763235 0.534355 0.500349 0.023561 -0.009679 46457.600000 0 1 0
-9.687785 -3.950409 19.200791 21.866168 0.387189 0.498909 0.022245 -0.008547 -63443.800000 0 1 0
-8.897185 -2.897409 18.703591 20.913613 0.314824 0.463873 0.018616 -0.013776 -170533.000000 0 1 0
-9.503185 -1.626809 18.895491 21.213123 0.169542 0.471814 0.013948 -0.010333 374771.000000 0 1 0
-8.573285 -0.449909 18.415191 20.318043 0.052430 0.436240 0.009379 -0.002709 1347320.000000 0 1 0
-7.328685 -0.136209 19.066691 20.427111 0.018584 0.367019 0.010589 -0.001474 1046620.000000 0 1 0
-7.621985 0.643691 20.206591 21.605909 -0.084252 0.361876 0.013567 -0.001238 -39250.700000 0 1 0
-7.540385 2.175291 20.040491 21.522327 -0.280860 0.373245 0.010035 -0.003141 290599.000000 0 1 0
-8.498185 2.673791 19.071791 21.049976 -0.304825 0.437003 0.002150 -0.008107 500649.000000 0 1 0
-8.427385 4.089091 19.046791 21.225497 -0.451749 0.457059 -0.000466 0.005073 124694.000000 0 1 0
-9.274585 4.648991 17.871891 20.664838 -0.464656 0.525954 -0.004942 0.009348 -427508.000000 0 1 0
-10.666285 4.463091 18.057791 21.442309 -0.396292 0.569525 -0.005860 0.011720 265977.000000 0 1 0
-11.445385 4.982991 16.971791 21.068192 -0.410622 0.634168 -0.011507 0.013795 22019.000000 0 1 0
-11.626085 6.525391 17.027891 21.626272 -0.511456 0.664264 -0.008539 0.017137 -961710.000000 0 1 0
-10.406385 7.218291 16.895691 21.115419 -0.606445 0.643236 -0.010230 0.016952 95290.700000 0 1 0
-10.688485 8.575791 16.619691 21.540706 -0.676166 0.689525 -0.010492 0.011334 -479254.000000 0 1 0
-9.540585 9.547491 16.778491 21.533581 -0.785760 0.677443 -0.009479 0.014470 -536376.000000 0 1 0
-9.244985 9.798891 18.176691 22.624767 -0.814476 0.637816 0.014175 0.029894 235635.000000 0 1 0
-8.308285 10.870391 18.394691 22.925044 -0.918203 0.639517 0.021427 0.017804 356655.000000 0 1 0
-8.773185 12.279391 17.995291 23.485798 -0.950429 0.697858 0.018246 0.016427 -245.521000 0 1 0
-8.426585 12.560391 16.647991 22.492806 -0.979879 0.737507 0.004838 0.001055 -95505.100000 0 1 0
-9.082985 13.728891 16.255391 23.134839 -0.986312 0.791700 0.015668 -0.006310 -180146.000000 0 1 0
-8.674385 14.188291 14.812491 22.270214 -1.022054 0.843134 0.015968 -0.005689 919996.000000 0 1 0
-7.450485 14.935191 14.778691 22.293034 -1.108066 0.846073 0.016241 0.002284 348581.000000 0 1 0
-7.177485 15.513691 13.529791 21.800140 -1.137469 0.901252 0.016272 -0.006759 -219093.000000 0 1 0
-6.054385 16.547391 13.482191 22.186509 -1.220044 0.917666 -0.003224 -0.004576 449190.000000 0 1 0
-4.754785 15.995391 13.700591 21.590894 -1.281855 0.883365 -0.006200 -0.011305 81676.500000 0 1 0
-3.812485 17.054391 13.824691 22.282490 -1.350864 0.901507 -0.001800 -0.006734 1222190.000000 0 1 0
-2.335985 16.500391 13.978391 21.751210 -1.430159 0.872846 0.016315 -0.017984 983418.000000 0 1 0
-1.897385 16.066491 15.252691 22.234585 -1.453245 0.814834 0.020032 -0.012041 -14628.500000 0 1 0
-2.275985 14.732991 15.507491 21.511006 -1.417526 0.765682 0.033248 -0.013370 -203609.000000 0 1 0
-1.275585 14.276191 16.573791 21.911807 -1.481682 0.713025 0.029480 -0.002006 396117.000000 0 1 0
-0.045085 13.819191 15.964891 21.115156 -1.567534 0.713483 0.007260 -0.018041 98189.000000 0 1 0
0.921915 13.512091 16.920991 21.673635 1.502673 0.674983 0.017675 0.005228 -131337.000000 0 1 0
1.811115 14.695591 17.373491 22.827148 1.448173 0.705806 0.013563 -0.007736 -85447.200000 0 1 0
1.139415 15.520491 18.333891 24.048190 1.497514 0.703811 0.014243 -0.012651 512557.000000 0 1 0
2.052015 16.528391 18.749791 25.078938 1.447277 0.726309 0.037116 -0.016973 -180128.000000 0 0 1
1.159715 17.562291 19.428791 26.215585 1.504858 0.736065 0.035122 -0.018150 234346.000000 0 0 1
0.570715 18.451791 18.511691 26.143393 1.539876 0.784017 0.022027 -0.013956 -859440.000000 0 0 1
-0.566585 17.953891 17.896691 25.356552 -1.539249 0.787243 0.030339 -0.014626 -1549380.000000 0 0 1
-1.165585 19.026191 16.938791 25.500532 -1.509611 0.844303 0.012368 -0.002592 -517651.000000 0 0 1
-1.725685 20.054291 17.660291 26.777573 -1.484957 0.850619 0.009857 0.004636 -365044.000000 0 0 1
-2.401185 20.908691 16.752391 26.899473 -1.456456 0.898508 0.006599 0.004542 -279136.000000 0 0 1
-3.028285 22.158991 17.386891 28.328349 -1.434976 0.909978 0.005427 0.011362 -384572.000000 0 0 1
-4.196485 21.844991 18.117391 28.688917 -1.381006 0.887295 0.009178 0.010319 -98493.700000 0 0 1
-4.640785 23.003591 18.774091 30.052763 -1.371727 0.896044 0.010276 0.014850 -476064.000000 0 0 1
-5.744585 22.759791 19.798891 30.708377 -1.323560 0.870114 0.006710 0.016872 -984771.000000 0 0 1
-6.990185 22.496691 19.246591 30.420306 -1.269533 0.885776 -0.003969 0.019777 -560928.000000 0 0 1
-7.857285 21.973891 20.273591 30.912898 -1.227390 0.855515 -0.012321 0.015057 143832.000000 0 0 1
-9.322585 22.308491 19.953391 31.348320 -1.174960 0.880837 -0.005269 0.014239 -258183.000000 0 0 1
-9.673985 23.674291 20.105091 32.531103 -1.182874 0.904566 0.000010 0.017154 28655.200000 0 0 1
-10.797185 24.053091 19.339491 32.697802 -1.148866 0.937926 -0.001694 0.017071 247092.000000 0 0 1
-11.330285 25.521091 19.609391 34.120809 -1.152979 0.958553 0.009585 0.011290 297126.000000 0 0 1
-12.102585 25.632791 20.806691 35.162919 -1.129674 0.937602 0.007699 0.008408 473205.000000 0 0 1
-12.839385 26.863491 20.831591 36.338026 -1.124944 0.960302 0.037513 -0.006208 -344781.000000 0 0 1
-13.713385 27.045991 22.073491 37.507086 -1.101533 0.941575 0.051589 -0.007234 -634822.000000 0 0 1
-14.984485 26.479691 21.843191 37.454423 -1.055838 0.948141 0.042843 -0.007955 -473762.000000 0 0 1
-15.703385 26.668891 23.014691 38.568148 -1.038632 0.931379 0.038410 -0.003636 -1190280.000000 0 0 1
-17.146985 26.250791 23.023791 38.900103 -0.992176 0.937420 0.043448 0.001270 -799514.000000 0 0 1
-17.300185 24.864291 22.954491 38.005763 -0.962905 0.922318 0.052945 -0.002204 -440928.000000 0 0 1
-18.675585 24.604291 23.103391 38.573505 -0.921536 0.928614 0.050100 0.003328 -101192.000000 0 0 1
26.719515 24.703691 23.183973 43.147438 0.746218 1.003540 0.029683 -0.017824 -146204.000000 0 0 1
26.483815 24.064291 24.418003 43.321142 0.737569 0.971997 0.038203 -0.013475 357196.000000 0 0 1
25.955515 22.751091 24.230163 42.171100 0.719702 0.958720 0.039363 -0.011181 -149016.000000 0 0 1
25.877915 21.815891 25.482693 42.367053 0.700434 0.925451 0.042630 -0.010285 -505769.000000 0 0 1
24.780315 22.189091 26.238673 42.366115 0.730286 0.902905 0.033486 -0.003727 -412942.000000 0 0 1
24.643615 21.365991 27.395383 42.594839 0.714280 0.872176 0.038450 0.002199 -393325.000000 0 0 1
23.447115 21.526091 28.319483 42.604376 0.742709 0.843693 0.040181 0.002907 -523172.000000 0 0 1
23.241715 22.759291 28.981003 43.566743 0.774911 0.843022 0.049802 -0.008059 449517.000000 0 0 1
22.154115 22.749691 29.917173 43.627863 0.798661 0.815183 0.058164 -0.008341 183455.000000 0 0 1
21.751715 24.191091 30.412283 44.533728 0.838444 0.819065 0.054290 -0.016219 139451.000000 0 0 1
21.130515 24.950091 29.341243 43.930789 0.868098 0.839417 0.039459 -0.011394 226238.000000 0 0 1
20.961015 26.342691 29.675873 44.877153 0.898680 0.848287 0.041711 -0.017417 -354492.000000 0 0 1
19.742915 26.837991 30.479213 45.155762 0.936554 0.829859 0.048366 -0.015230 351264.000000 0 0 1
18.536415 26.630091 29.721703 44.001591 0.962713 0.829196 0.045508 -0.008270 849627.000000 0 0 1
17.367115 27.250691 30.233433 44.252427 1.003394 0.818655 0.050489 -0.006866 290080.000000 0 0 1
16.370515 26.345091 30.931993 43.804631 1.014799 0.786771 0.026447 0.005878 -613329.000000 0 0 1
16.730015 26.018191 32.270033 44.701170 0.999349 0.764244 0.038941 -0.004927 208763.000000 0 0 1
15.751015 25.209291 32.900020 44.339757 1.012334 0.734750 0.000085 -0.000055 189512.000000 0 0 1
16.306315 24.512791 34.200244 45.126815 0.983798 0.710755 0.025169 -0.012132 41422.300000 0 0 1
16.814515 25.478091 -33.727229 45.490515 0.987451 2.405969 0.033051 -0.009082 49849.500000 0 0 1
16.888815 24.926591 -32.431909 44.253765 0.975302 2.393316 0.026516 0.001896 -59966.400000 0 0 1
17.377615 26.090791 -31.471199 44.420122 0.983225 2.358152 0.021180 0.006947 329246.000000 0 0 1
16.471715 27.056291 -30.876279 44.234657 1.023936 2.343413 0.029018 -0.013573 265273.000000 0 0 1
17.147115 28.115191 -30.261829 44.724331 1.023138 2.313973 0.028812 -0.016993 -545988.000000 0 0 1
16.435215 28.539491 -28.975239 43.865514 1.048304 2.292344 0.034594 -0.010363 -179675.000000 0 0 1
16.640015 27.460491 -28.082169 42.656499 1.026005 2.289398 0.023887 -0.001722 288917.000000 0 0 1
16.337415 27.943691 -26.734219 41.981894 1.041736 2.261142 0.015869 0.004673 -245367.000000 0 0 1
16.927015 27.121191 -25.573799 40.940225 1.012826 2.245495 0.012236 -0.003470 315270.000000 0 0 1
18.346515 27.224691 -25.563939 41.608814 0.977808 2.232406 0.012046 -0.003858 -147124.000000 0 0 1
18.873915 26.806391 -24.330209 40.826049 0.957336 2.209242 0.015903 -0.001207 -487968.000000 0 0 1
20.403015 26.802691 -24.421609 41.606276 0.920147 2.198107 0.014191 -0.001059 -486451.000000 0 0 1
20.922515 26.409591 -23.203609 40.909969 0.900810 2.173883 0.012887 -0.004691 -382032.000000 0 0 1
22.328515 26.279191 -23.292009 41.613413 0.866497 2.164849 0.021109 -0.000243 235136.000000 0 0 1
23.008915 26.065291 -21.923109 41.102704 0.847599 2.133381 0.027602 -0.005404 145905.000000 0 0 1
22.672115 24.817891 -21.284209 39.786556 0.830551 2.135257 0.022164 -0.005940 282385.000000 0 0 1
23.327915 24.841091 -20.061709 39.544198 0.816802 2.102873 0.026672 -0.009910 -730004.000000 0 0 1
22.838915 23.624191 -19.255409 38.085288 0.802298 2.100858 0.023661 -0.014535 -233378.000000 0 0 1
23.672215 22.505091 -19.483909 38.032559 0.760129 2.108652 0.029009 -0.008252 364795.000000 0 0 1
23.237915 21.416991 -18.656609 36.698191 0.744643 2.104098 0.023796 -0.005910 -739423.000000 0 0 1
23.394315 20.068691 -19.353609 36.395171 0.709031 2.131477 0.041320 -0.015707 -116051.000000 0 0 1
22.517215 19.649091 -20.355709 36.158908 0.717483 2.168749 0.028268 -0.021811 -67651.400000 0 0 1
21.132815 19.722991 -20.076109 35.194352 0.750905 2.177832 0.030577 -0.015346 -335766.000000 0 0 1
20.290915 19.719591 -21.386009 35.467518 0.771120 2.218021 0.038623 -0.021991 -110034.000000 0 0 1
20.618515 20.697791 -22.367009 36.794086 0.787317 2.224205 0.031221 -0.018594 -155720.000000 0 0 1
20.479115 22.070091 -22.012309 37.296445 0.822772 2.202101 0.020753 -0.009146 -217478.000000 0 0 1
19.872315 22.869891 -23.125709 38.114816 0.855415 2.222747 0.021046 -0.012882 -144105.000000 0 0 1
18.505715 22.692491 -23.384809 37.473456 0.886676 2.244694 0.029751 -0.015297 -635041.000000 0 0 1
18.067515 23.306791 -24.554809 38.374213 0.911359 2.265136 0.024023 -0.017877 181971.000000 0 0 1
16.532515 23.304691 -24.797009 37.832847 0.953785 2.285556 0.027510 -0.018133 259497.000000 0 0 1
15.885015 24.189891 -23.929609 37.551441 0.989740 2.261719 0.018613 -0.017962 -450381.000000 0 0 1
14.491315 24.106291 -24.065909 37.017286 1.029537 2.278547 0.026020 -0.016238 -137329.000000 0 0 1
13.742315 25.324791 -23.493609 37.177223 1.073619 2.254844 0.017483 -0.005248 -13730.300000 0 0 1
13.914915 26.500791 -24.282509 38.542924 1.087290 2.252365 0.012236 -0.005452 -312423.000000 0 0 1
12.967315 27.442691 -23.910409 38.638843 1.129371 2.238033 0.013214 -0.000228 -211965.000000 0 0 1
13.110915 28.852791 -24.551309 40.089230 1.144283 2.229910 0.013996 -0.006719 77803.000000 0 0 1
12.972315 28.818091 -25.988399 40.916503 1.147822 2.259008 0.018917 -0.012381 -12549.400000 0 0 1
12.520115 30.046291 -26.565139 42.014753 1.175982 2.255291 0.028374 -0.012397 -63923.600000 0 0 1
13.439615 31.289891 -26.447999 43.118177 1.165104 2.231135 0.031423 -0.008511 -458110.000000 0 0 1
14.619515 31.124491 -27.163049 43.821175 1.131672 2.239362 0.020278 0.003078 -776057.000000 0 0 1
15.411715 32.294391 -27.123239 44.901211 1.125534 2.219388 0.020194 0.000561 113946.000000 0 0 1
16.807915 32.048591 -27.782689 45.623415 1.087780 2.225541 0.012853 0.010858 158454.000000 0 0 1
17.570615 31.330491 -26.840639 44.841343 1.059688 2.212510 -0.004264 0.013761 -447005.000000 0 0 1
18.881115 31.182391 -27.341629 45.567562 1.026338 2.214327 0.000235 0.016894 -487480.000000 0 0 1
19.772115 30.270091 -26.423369 44.781797 0.992182 2.201913 0.004652 0.023868 -763710.000000 0 0 1
20.240615 30.848791 -25.191159 44.675775 0.990128 2.169856 0.013648 0.024926 169842.000000 0 0 1
21.039315 32.017591 -25.264709 45.892095 0.989434 2.153788 0.017147 0.022997 118478.000000 0 0 1
22.448115 31.927591 -25.910279 46.846894 0.957997 2.156858 0.018335 0.022752 -127425.000000 0 0 1
22.194215 31.606691 -27.261699 47.273315 0.958595 2.185459 0.005785 0.024523 224658.000000 0 0 1
23.386415 31.181091 -27.923029 47.946641 0.927283 2.192446 0.018676 0.017917 330910.000000 0 0 1
23.012815 30.913691 -29.400119 48.472806 0.930875 2.222483 0.006144 0.022582 -29593.900000 0 0 1
22.397415 31.896891 -30.130429 49.263562 0.958608 2.228899 0.010613 0.021349 -747327.000000 0 0 1
21.089915 31.492891 -30.409999 48.593772 0.980716 2.246954 0.008128 0.021099 -674029.000000 0 0 1
20.239915 32.425491 -31.271229 49.385791 1.012774 2.256481 -0.008006 0.025308 -673467.000000 0 0 1
19.583315 33.397591 -30.517649 49.297385 1.040460 2.238331 -0.008881 0.023846 229317.000000 0 0 1
18.660615 34.214791 -31.255559 49.957786 1.071495 2.246747 -0.002806 0.018211 554771.000000 0 0 1
17.162115 33.825691 -31.190329 49.107557 1.101271 2.258990 0.016578 0.007836 -60125.600000 0 0 1
16.742615 32.476291 -31.571619 48.288630 1.094799 2.283406 0.020727 0.000665 183165.000000 0 0 1
17.077815 31.917391 -32.891279 48.910202 1.079493 2.308355 0.028679 -0.012558 -592065.000000 0 0 1
16.696315 32.530291 -34.260964 50.107888 1.096602 2.323677 0.037560 -0.015383 -627388.000000 0 0 1
17.381215 33.689691 34.294189 51.119402 1.094493 0.835422 0.032192 -0.001815 -41982.200000 0 0 1
17.068615 34.111291 32.918050 50.383685 1.106845 0.858799 0.046953 -0.018159 -267385.000000 0 0 1
15.679515 -34.111948 32.659333 49.760468 -1.139948 0.854851 0.058406 -0.018412 -1438760.000000 0 0 1
14.690615 33.765191 32.738713 49.271955 1.160418 0.844040 0.058485 -0.016343 -178043.000000 0 0 1
13.359415 34.292391 32.751753 49.265803 1.199310 0.843574 0.043265 -0.016440 490289.000000 0 0 1
12.823515 -33.766548 31.562393 47.966727 -1.207850 0.852629 0.049185 -0.015037 -1572110.000000 0 0 1
13.329715 -32.499848 31.391743 47.110115 -1.181573 0.841496 0.070670 -0.015450 -38349.600000 0 0 1
12.679415 -31.948148 30.308463 45.826353 -1.192987 0.848144 0.074789 -0.023581 -304130.000000 0 0 1
13.232115 -30.553248 30.011273 44.824840 -1.162099 0.837230 0.063564 -0.024393 -291324.000000 0 0 1
12.940715 -29.593248 30.989863 44.761524 -1.158565 0.806080 0.054954 -0.016062 301929.000000 0 0 1
13.354415 -28.307348 30.615703 43.783188 -1.129991 0.796439 0.067628 -0.018734 -374812.000000 0 0 1
12.933315 -27.300648 31.727153 43.808769 -1.128379 0.760895 0.053574 -0.014150 1205680.000000 0 0 1
11.544715 -26.868548 31.633883 43.080179 -1.164973 0.746158 0.035585 -0.011154 1371440.000000 0 0 1
11.219315 -25.875948 30.661093 41.659816 -1.161680 0.743673 0.022376 -0.009337 -303760.000000 0 0 1
11.523615 -24.539248 31.364663 41.457333 -1.131764 0.712771 0.025715 -0.009993 -104504.000000 0 0 1
10.609415 -24.127948 32.364313 41.739266 -1.156528 0.683460 0.028716 -0.011072 6934.420000 0 0 1
10.879315 -22.796648 32.696163 41.316894 -1.125528 0.657781 0.022751 -0.009953 293932.000000 0 0 1
9.918015 -22.145048 33.749763 41.567014 -1.149718 0.623335 0.020513 -0.007510 -417270.000000 0 0 1
9.786415 -22.727748 -33.787839 41.880097 -1.164198 2.509471 0.016289 -0.002062 -32363.000000 0 0 1
10.959415 -23.117148 -33.103009 41.836832 -1.128098 2.483632 0.030977 -0.006391 43966.600000 0 0 1
11.798815 -21.970348 -32.476409 40.946616 -1.077963 2.486744 0.034582 -0.014587 -170154.000000 0 0 1
12.299915 -21.130448 -33.455889 41.437667 -1.043647 2.510492 0.025945 -0.010430 180026.000000 0 0 1
13.211315 -20.164748 -32.907159 40.792610 -0.990796 2.509333 0.035405 -0.017311 221747.000000 0 0 1
13.470415 -18.984648 -33.829019 41.064236 -0.953695 2.538891 0.032648 -0.013948 -685019.000000 0 0 1
14.026015 -19.308048 33.778214 41.358162 -0.942549 0.615085 0.053078 -0.006974 265136.000000 0 0 1
14.017615 -18.241148 32.760913 40.031368 -0.915584 0.612208 0.027798 -0.008983 -489970.000000 0 0 1
15.028015 -17.120948 32.997306 40.097260 -0.850408 0.604244 0.048142 -0.014651 -1380230.000000 0 0 1
14.748015 -16.262948 34.103606 40.559134 -0.834211 0.571969 0.045660 -0.012958 726617.000000 0 0 1
15.616715 -15.116248 34.210841 40.531029 -0.769115 0.565976 0.053407 -0.015517 1632830.000000 0 0 1
17.193215 -15.316948 34.295162 41.308276 -0.727749 0.591285 0.059868 -0.016442 1224470.000000 0 0 1
17.868315 -15.760648 33.102199 40.785172 -0.722806 0.623871 0.060697 -0.020790 -337634.000000 0 0 1
19.231215 -15.868248 33.372368 41.657602 -0.689877 0.641647 0.074260 -0.021970 -307758.000000 0 0 1
20.101815 -16.547348 32.247243 41.446138 -0.688714 0.679238 0.080737 -0.030455 -160050.000000 0 0 1
20.373615 -15.703048 31.117783 40.373089 -0.656652 0.690770 0.069944 -0.024231 550802.000000 0 0 1
20.873915 -16.502748 30.027143 40.120946 -0.668978 0.725126 0.063494 -0.023243 -334826.000000 0 0 1
21.184915 -15.568648 28.848083 39.030697 -0.633762 0.739044 0.065455 -0.015082 -475330.000000 0 0 1
22.226615 -14.653548 28.978113 39.350729 -0.582871 0.743054 0.049593 -0.016189 19289.900000 0 0 1
22.387615 -13.808748 27.850753 38.308631 -0.552683 0.756839 0.057043 -0.017005 -196725.000000 0 0 1
23.126815 -12.534348 28.269943 38.615400 -0.496668 0.749412 0.043776 -0.008070 -493640.000000 0 0 1
22.350015 -11.596648 28.952723 38.370113 -0.478626 0.715806 0.056606 -0.015290 -2837.240000 0 0 1
23.019715 -10.370648 29.096183 38.523310 -0.423279 0.714703 0.041918 -0.013259 244379.000000 0 0 1
21.999615 -9.199848 28.934683 37.494481 -0.396082 0.689278 0.047314 -0.017245 724468.000000 0 0 1
20.985415 -9.231948 29.932203 37.703491 -0.414442 0.653626 0.046640 -0.028911 -261606.000000 0 0 1
20.026315 -8.235348 29.791123 36.829136 -0.390147 0.628516 0.044153 -0.020482 -595741.000000 0 0 1
18.769215 -8.404348 30.625123 36.889221 -0.421000 0.591345 0.029492 -0.013538 -777944.000000 0 0 1
18.854915 -8.084548 32.022883 38.030682 -0.405065 0.569765 0.026329 -0.017789 370028.000000 0 0 1
19.485415 -9.095148 32.831890 39.247116 -0.436710 0.579854 0.033376 -0.022081 -181592.000000 0 0 1
19.760015 -8.760248 34.293109 40.536618 -0.417295 0.562399 0.025665 -0.024609 -354534.000000 0 0 1
18.559615 -8.657448 -33.841479 39.555738 -0.436463 2.597387 0.014849 -0.022423 -148421.000000 0 0 1
18.778115 -7.768148 -32.764049 38.554437 -0.392244 2.586426 0.014532 -0.016558 -95514.800000 0 0 1
17.514015 -7.452648 -31.957149 37.195995 -0.402315 2.604414 0.020173 -0.012657 -99585.100000 0 0 1
17.712015 -6.400548 -31.048339 36.313659 -0.346766 2.596356 0.026113 -0.010187 14396.000000 0 0 1
16.493315 -6.160848 -30.395309 35.126348 -0.357487 2.616572 0.038582 -0.005488 -234083.000000 0 0 1
16.432415 -4.879248 -29.501949 34.120321 -0.288636 2.615239 0.039422 0.000875 -323218.000000 0 0 1
17.254215 -4.924548 -28.357909 33.557862 -0.278020 2.577446 0.036320 0.001974 -56997.000000 0 0 1
17.052215 -5.887248 -27.314029 32.733682 -0.332435 2.557898 0.037792 -0.006957 166226.000000 0 0 1
15.695415 -5.874448 -26.525779 31.376299 -0.358138 2.578125 0.042457 -0.013415 513556.000000 0 0 1
15.439415 -4.642948 -25.917979 30.523338 -0.292118 2.585114 0.038165 -0.012222 -216259.000000 0 0 1
14.287615 -4.645048 -25.095749 29.249086 -0.314331 2.602162 0.051458 -0.009769 147093.000000 0 0 1
14.181615 -3.438448 -24.086809 28.162306 -0.237868 2.596898 0.053425 -0.000130 -92511.400000 0 0 1
14.054115 -2.167448 -24.619809 28.431514 -0.153016 2.617811 0.040084 -0.003976 183717.000000 0 0 1
13.705415 -1.191448 -23.631509 27.344216 -0.086715 2.614401 0.042635 -0.010037 -18015.200000 0 0 1
13.786215 0.340552 -24.067509 27.738434 0.024697 2.621271 0.029153 -0.013344 -637444.000000 0 0 1
12.963515 0.710552 -25.090899 28.250855 0.054757 2.664093 0.029393 -0.016486 -325420.000000 0 0 1
13.374515 1.999552 -25.535579 28.895357 0.148405 2.654561 0.029496 -0.004485 158154.000000 0 0 1
12.517015 2.470552 -26.760169 29.646011 0.194871 2.696700 0.025631 -0.005576 -182604.000000 0 0 1
11.285515 3.021552 -26.396099 28.866013 0.261602 2.724907 0.036483 -0.015282 -366145.000000 0 0 1
10.696815 3.568552 -27.561449 29.779018 0.321998 2.753236 0.034452 -0.013616 77244.900000 0 0 1
9.501815 4.519552 -27.253069 29.213706 0.443980 2.773142 0.039051 -0.011957 114885.000000 0 0 1
9.850515 5.659552 -26.510219 28.841895 0.521491 2.736730 0.044001 -0.015326 -133121.000000 0 0 1
8.859915 6.628552 -26.682939 28.886243 0.642317 2.748489 0.042836 -0.016223 -115268.000000 0 0 1
8.072615 5.174391 -31.581669 33.005201 0.570009 2.846824 0.042568 -0.006929 -50341.600000 0 0 1
8.105515 4.183391 -30.589739 31.920719 0.476458 2.851802 0.030735 -0.000920 417062.000000 0 0 1
7.713115 2.943391 -31.112099 32.188793 0.364552 2.882218 0.030862 0.001821 -188623.000000 0 0 1
7.454515 1.934791 -29.943149 30.917720 0.253943 2.889845 0.032324 -0.001280 -54582.600000 0 0 1
8.630915 1.462091 -29.302719 30.582344 0.167808 2.851293 0.042968 -0.011593 570931.000000 0 0 1
8.307815 0.577891 -28.222279 29.425343 0.069448 2.854654 0.034490 -0.008218 149495.000000 0 0 1
9.575215 0.130691 -27.456349 29.078393 0.013648 2.806009 0.036971 -0.016670 -70419.900000 0 0 1
10.461715 -0.724509 -28.107119 29.999709 -0.069143 2.784489 0.044194 -0.007663 -13856.300000 0 0 1
11.413415 -1.256109 -27.197989 29.522440 -0.109614 2.742117 0.040556 -0.008880 271280.000000 0 0 1
12.296715 -2.396309 -27.747769 30.444871 -0.192462 2.717495 0.045802 -0.007027 84565.800000 0 0 1
11.475815 -3.500409 -28.007519 30.469137 -0.296060 2.736864 0.045966 -0.013574 -370916.000000 0 0 1
12.187115 -4.618609 -28.350319 31.202531 -0.362251 2.710693 0.061196 -0.008236 -433044.000000 0 0 1
11.509415 -5.934809 -27.885549 30.745609 -0.476088 2.706846 0.047039 -0.013551 13711.300000 0 0 1
11.401315 -6.003709 -26.508659 29.474455 -0.484685 2.689140 0.050462 -0.013579 -23627.800000 0 0 1
10.730015 -7.180909 -26.138899 29.153743 -0.589779 2.682801 0.052554 -0.017282 -225026.000000 0 0 1
10.408315 -7.219909 -24.628509 27.695191 -0.606463 2.666544 0.041624 -0.014795 -253735.000000 0 0 1
11.546615 -7.080109 -23.795809 27.380519 -0.550052 2.624132 0.038883 -0.009650 -138444.000000 0 0 1
11.216215 -6.870709 -22.470509 26.037164 -0.549610 2.612008 0.030488 -0.004113 -424559.000000 0 0 1
12.323415 -6.951209 -21.417709 25.669128 -0.513578 2.557796 0.034540 -0.005538 111986.000000 0 0 1
13.180015 -5.795509 -21.497709 25.873775 -0.414272 2.551463 0.039980 -0.001972 573692.000000 0 0 1
14.437215 -6.092009 -20.881109 26.106828 -0.399298 2.497814 0.047305 -0.002031 243144.000000 0 0 1
15.146315 -4.915309 -20.248309 25.759758 -0.313799 2.475180 0.055051 -0.005301 -458791.000000 0 0 1
15.638215 -3.898109 -21.144309 26.586290 -0.244290 2.490313 0.049623 -0.007733 111835.000000 0 0 1
16.130815 -2.798509 -20.405909 26.161727 -0.171779 2.465448 0.038483 0.003269 -178509.000000 0 0 1
17.075415 -1.907909 -21.220709 27.304366 -0.111273 2.460986 0.024614 -0.004143 -544395.000000 0 0 1
18.411215 -2.300809 -21.159609 28.142417 -0.124323 2.421699 0.033523 -0.011130 -619119.000000 0 0 1
19.240015 -1.556209 -22.019509 29.282397 -0.080708 2.421843 0.033055 -0.008047 480163.000000 0 0 1
20.710015 -2.048909 -22.116009 30.368085 -0.098612 2.386583 0.013450 -0.005943 -436023.000000 0 0 1
21.518815 -1.922409 -20.951209 30.094987 -0.089100 2.340844 0.013453 -0.005946 1544050.000000 0 0 1
22.900115 -2.318909 -21.130809 31.245859 -0.100918 2.313491 0.003989 -0.006791 1413380.000000 0 0 1
23.822815 -1.631709 -22.154809 32.573372 -0.068387 2.318765 0.003836 -0.004422 -1012870.000000 0 0 1
23.479515 -2.094709 -23.473109 33.266534 -0.088979 2.354076 0.005523 -0.006289 515254.000000 0 0 1
24.257615 -1.477809 -24.508009 34.514610 -0.060846 2.360403 0.007843 -0.000396 -262155.000000 0 0 1
25.606615 -2.069409 -24.874709 35.759367 -0.080640 2.340070 0.007641 -0.001713 -590417.000000 0 0 1
26.644715 -1.772809 -23.933509 35.859400 -0.066437 2.301544 0.008289 0.003597 898074.000000 0 0 1
27.893515 -2.349209 -24.345209 37.097927 -0.084022 2.286623 0.003594 0.014419 1152540.000000 0 0 1
28.884915 -1.487809 -25.221319 38.375341 -0.051463 2.287930 0.008362 0.002187 -202926.000000 0 0 1
28.344615 -1.332409 -26.523529 38.841860 -0.046973 2.322466 0.019899 -0.005530 544863.000000 0 0 1
28.840815 -0.140709 -27.143199 39.605122 -0.004879 2.325875 0.014921 -0.011695 -610421.000000 0 0 1
28.181015 0.041891 -28.507489 40.085512 0.001486 2.361953 0.008585 -0.017144 347879.000000 0 0 1
26.823815 0.468191 -28.562239 39.185938 0.017453 2.387496 0.020036 -0.020379 531867.000000 0 0 1
26.597915 1.783891 -28.038609 38.688434 0.066969 2.381437 0.018871 -0.013285 -50970.600000 0 0 1
25.086915 2.196191 -27.957549 37.627133 0.087321 2.408361 0.019872 -0.016515 186083.000000 0 0 1
24.292415 1.481791 -27.108029 36.430240 0.060923 2.409995 0.018269 -0.012533 1219960.000000 0 0 1
22.886915 1.814291 -27.360059 35.716598 0.079107 2.443442 0.028152 -0.018078 1427140.000000 0 0 1
21.921715 1.221291 -26.327379 34.280957 0.055654 2.446491 0.032143 -0.018840 -155368.000000 0 0 1
21.952515 1.978791 -25.150489 33.442124 0.089897 2.421979 0.034602 -0.018331 -175316.000000 0 0 1
20.864815 1.651291 -24.352409 32.110856 0.078978 2.431629 0.038272 -0.012133 -417005.000000 0 0 1
21.002915 2.236791 -22.949209 31.189612 0.106099 2.397639 0.024056 -0.003542 -261026.000000 0 0 1
20.959815 3.643691 -22.859209 31.227132 0.172122 2.392094 0.029115 -0.007319 367370.000000 0 0 1
21.133415 4.021791 -21.497809 30.413021 0.188056 2.355848 0.029115 -0.009431 -337526.000000 0 0 1
20.621815 5.428391 -21.154209 30.037098 0.257396 2.352190 0.024915 -0.001385 -306460.000000 0 0 1
21.384815 6.482991 -21.688309 31.140363 0.294352 2.341262 0.020309 0.001174 134246.000000 0 0 1
21.078515 7.712191 -21.143709 30.835663 0.350750 2.326348 0.017875 -0.004827 -312575.000000 0 0 1
21.676615 8.117091 -19.745709 30.424592 0.358300 2.277072 0.011965 0.000570 -984645.000000 0 0 1
23.028415 8.457991 -19.718909 31.475083 0.351990 2.247841 0.012194 0.002168 -380732.000000 0 0 1
23.461015 8.714491 -18.432309 31.082336 0.355651 2.205595 0.021312 -0.003386 -386596.000000 0 0 1
23.124515 10.029491 -17.716209 30.809056 0.409231 2.183440 0.027106 -0.012218 -290829.000000 0 0 1
21.766815 10.219791 -17.373309 29.665978 0.438961 2.196454 0.030281 -0.017190 -155503.000000 0 0 1
21.512515 11.618891 -17.051009 29.808117 0.495210 2.179770 0.016486 -0.010865 -590745.000000 0 0 1
19.996815 11.825291 -16.916509 28.738100 0.534041 2.200177 0.021440 -0.015410 -401837.000000 0 0 1
19.291415 11.653791 -18.084209 28.896507 0.543423 2.246987 0.012080 -0.016014 -208426.000000 0 0 1
18.954715 10.317391 -18.419509 28.372664 0.498470 2.277327 0.011814 -0.007492 -838555.000000 0 0 1
18.118515 10.133491 -19.712009 28.627461 0.509947 2.330312 0.025807 -0.012348 211736.000000 0 0 1
18.851015 10.448491 -20.916809 30.034058 0.506113 2.341216 0.027674 -0.014797 305399.000000 0 0 1
18.060615 10.313091 -22.083509 30.335244 0.518843 2.386170 0.022389 -0.012328 -485394.000000 0 0 1
18.767415 10.356391 -23.448909 31.769829 0.504246 2.401027 0.031130 -0.013811 -638169.000000 0 0 1
19.057615 11.666791 -23.707509 32.578408 0.549331 2.385768 0.026942 -0.009676 92746.800000 0 0 1
19.622615 11.976091 -24.965409 33.937375 0.547974 2.397395 0.037465 -0.012238 -55829.800000 0 0 1
20.104815 13.429991 -24.993809 34.774398 0.588924 2.372787 0.049481 -0.023375 -360622.000000 0 0 1
20.749415 13.868191 -26.145699 36.145021 0.589178 2.379446 0.041731 -0.026107 76707.000000 0 0 1
20.799615 15.286191 -26.221349 36.794711 0.633784 2.364049 0.047461 -0.023482 732556.000000 0 0 1
19.461915 15.863591 -26.822529 36.740546 0.683886 2.389195 0.038042 -0.018235 1556480.000000 0 0 1
18.252715 15.524691 -26.120189 35.446324 0.704808 2.399261 0.033552 -0.021394 -17987.800000 0 0 1
17.151115 15.839691 -26.897319 35.616321 0.745668 2.426750 0.024597 -0.017235 -360900.000000 0 0 1
15.741815 15.484591 -26.399679 34.416861 0.777161 2.445037 0.025302 -0.014803 -32344.500000 0 0 1
15.620415 14.096391 -26.361019 33.728459 0.734158 2.467969 0.015957 -0.002083 1201870.000000 0 0 1
14.252615 13.745191 -26.028939 32.704326 0.767276 2.491267 0.001944 -0.000506 950945.000000 0 0 1
14.127415 12.262891 -25.715649 31.800267 0.714864 2.512669 0.005941 0.002350 511801.000000 0 0 1
12.792215 11.769691 -25.555279 30.906936 0.743792 2.544273 0.008799 0.009769 564387.000000 0 0 1
12.774315 10.382791 -25.565139 30.406608 0.682489 2.569511 0.023416 0.000136 160527.000000 0 0 1
11.379715 9.702191 -25.381429 29.459249 0.705994 2.609166 0.033085 -0.008653 484018.000000 0 0 1
10.770315 9.990391 -24.113009 28.235524 0.747848 2.594413 0.043694 -0.015031 -309899.000000 0 0 1
9.606215 9.223991 -23.983909 27.433361 0.765102 2.634707 0.048152 -0.013460 -645043.000000 0 0 1
8.739815 9.777091 -22.868409 26.361715 0.841357 2.620922 0.038006 -0.015018 -275117.000000 0 0 1
8.117615 11.027291 -23.289009 27.016194 0.936226 2.610075 0.029077 -0.019971 188976.000000 0 0 1
7.569415 11.761291 -22.160109 26.204855 0.998943 2.578576 0.036662 -0.012848 334680.000000 0 0 1
8.587715 12.636891 -21.402709 26.296688 0.973910 2.521619 0.031892 -0.014631 362867.000000 0 0 1
9.454415 12.001091 -20.458009 25.533160 0.903541 2.500149 0.043143 -0.023688 -420723.000000 0 0 1
10.228815 12.836891 -19.692409 25.636018 0.897992 2.446749 0.042167 -0.020977 -1361430.000000 0 0 1
11.215815 11.985091 -18.934709 25.059132 0.818543 2.427368 0.050170 -0.025998 249738.000000 0 0 1
12.366715 11.416191 -19.642609 25.866912 0.745453 2.433144 0.050872 -0.024309 1058260.000000 0 0 1
12.168415 10.684391 -20.847309 26.397667 0.720551 2.481182 0.055115 -0.025272 -568342.000000 0 0 1
13.453615 9.954391 -21.349609 27.127393 0.637009 2.476748 0.058810 -0.024402 500422.000000 0 0 1
13.903715 8.825991 -20.621709 26.390648 0.565611 2.467706 0.065802 -0.031456 655483.000000 0 0 1
14.965815 8.176891 -21.353309 27.327659 0.500053 2.467672 0.053589 -0.029371 290383.000000 0 0 1
15.507015 6.941291 -20.657909 26.746930 0.420875 2.453324 0.083508 -0.027509 73546.200000 0 0 1
16.346015 7.213791 -19.547909 26.483046 0.415611 2.401089 0.050970 -0.019706 125829.000000 0 0 1
16.860315 6.027091 -19.012709 26.116645 0.343316 2.386185 0.038723 -0.025936 -318936.000000 0 0 1
17.711315 6.156291 -17.756909 25.824376 0.334527 2.328978 0.068784 -0.022892 -821728.000000 0 0 1
18.884915 6.880891 -18.010609 26.988307 0.349409 2.301439 0.044132 -0.022511 -53656.100000 0 0 1
19.789015 7.183891 -16.980809 27.047389 0.348230 2.249542 0.040306 -0.024944 312276.000000 0 0 1
20.439515 5.927691 -16.240309 26.770486 0.282268 2.222636 0.035266 -0.028143 -67133.900000 0 0 1
21.644415 5.401891 -16.804909 27.929663 0.244578 2.216408 0.026898 -0.021794 657427.000000 0 0 1
22.249815 4.470291 -15.981009 27.756628 0.198274 2.184323 0.055474 -0.028090 -383925.000000 0 0 1
23.503615 3.864091 -16.614109 29.041001 0.162946 2.179850 0.012278 0.009113 -214572.000000 0 0 1
24.238915 3.008291 -15.767609 29.072191 0.123479 2.144041 0.021845 0.003164 78762.900000 0 0 1
25.317015 2.405491 -16.435009 30.279484 0.094730 2.144536 0.018789 -0.004250 139084.000000 0 0 1
26.063215 1.254491 -15.661909 30.432882 0.048095 2.111381 0.027607 -0.018207 -315991.000000 0 0 1
25.419515 0.034691 -15.665709 29.859126 0.001365 2.123105 0.036085 -0.017288 36203.700000 0 0 1
26.384715 -1.001909 -15.794509 30.767248 -0.037955 2.109886 0.028205 -0.008080 -1870.150000 0 0 1
25.678215 -2.321809 -16.077309 30.384888 -0.090174 2.128362 0.016275 -0.004774 -399238.000000 0 0 1
25.018915 -2.849209 -14.941209 29.279751 -0.113394 2.106320 0.027001 -0.006693 324929.000000 0 0 1
24.864515 -4.245209 -15.083909 29.390308 -0.169103 2.109737 0.023116 -0.002139 -1088560.000000 0 0 1
24.210615 -5.012009 -13.896509 28.361719 -0.204134 2.082856 0.025163 -0.005068 265475.000000 0 0 1
22.827315 -4.840509 -13.669009 27.043643 -0.208954 2.100691 0.029333 0.001726 651038.000000 0 0 1
21.967715 -5.377709 -14.682009 26.964081 -0.240079 2.146592 0.038993 0.005379 -177534.000000 0 0 1
20.486815 -5.549309 -14.231609 25.554708 -0.264525 2.161454 0.044485 0.007465 143144.000000 0 0 1
20.277915 -6.508209 -13.225909 25.069410 -0.310565 2.126536 0.046902 0.009353 425821.000000 0 0 1
20.190615 -5.847309 -11.971109 24.190068 -0.281893 2.088490 0.045004 0.000120 -434302.000000 0 1 0
20.042015 -6.943009 -10.811809 23.807204 -0.333484 2.042203 0.045437 -0.000278 467200.000000 0 1 0
18.830615 -7.733809 -10.761209 23.026235 -0.389700 2.057082 0.042338 0.001947 1178160.000000 0 1 0
18.697115 -8.740909 -11.740009 23.744756 -0.437312 2.087970 0.042020 -0.000338 -1113500.000000 0 1 0
17.355915 -9.444709 -11.665809 22.946055 -0.498362 2.104124 0.056424 -0.007389 -382306.000000 0 1 0
16.317715 -8.517509 -11.945909 21.943576 -0.481076 2.146461 0.047690 -0.004589 -459354.000000 0 1 0
15.087715 -9.110809 -12.220609 21.447361 -0.543250 2.177053 0.041922 -0.006245 -471344.000000 0 1 0
13.992515 -8.105909 -12.598909 20.499482 -0.525062 2.232671 0.036637 -0.002309 -473354.000000 0 1 0
14.175715 -7.322809 -13.776609 21.080071 -0.476819 2.283045 0.035833 0.000397 220721.000000 0 1 0
15.260515 -6.420009 -13.721109 21.502760 -0.398218 2.262836 0.039758 0.001574 -202441.000000 0 1 0
15.064915 -5.301309 -14.699609 21.705623 -0.338364 2.314782 0.031219 -0.001611 -116616.000000 0 1 0
14.049915 -4.406709 -14.273209 20.507162 -0.303929 2.340623 0.037233 -0.008178 214733.000000 0 1 0
13.633715 -3.445209 -15.247609 20.742161 -0.247516 2.396614 0.032886 -0.011977 -195234.000000 0 1 0
14.647015 -2.282609 -15.503309 21.449894 -0.154598 2.378596 0.038397 -0.010192 -71734.000000 0 1 0
15.696715 -2.737709 -16.352609 22.831770 -0.172676 2.369169 0.029337 -0.004809 -291856.000000 0 1 0
16.829315 -1.943709 -16.299909 23.509379 -0.114986 2.336905 0.040692 0.001544 -297453.000000 0 1 0
17.930715 -2.326109 -15.302009 23.686975 -0.129007 2.273141 0.046804 0.000622 -397761.000000 0 1 0
17.557315 -1.972509 -13.968309 22.522517 -0.111878 2.239785 0.037075 0.001354 -395187.000000 0 1 0
18.593715 -2.356509 -13.162109 22.902412 -0.126065 2.183039 0.037273 0.003194 -426848.000000 0 1 0
18.112615 -2.548709 -11.654809 21.688645 -0.139797 2.138111 0.030689 0.000868 -80529.200000 0 1 0
18.051715 -1.386909 -10.850509 21.107380 -0.076679 2.110710 0.036555 -0.004295 274999.000000 0 1 0
17.480315 -1.734109 -9.662409 20.048209 -0.098880 2.073685 0.027760 -0.006139 -1316110.000000 0 1 0
17.383915 -0.637409 -8.575309 19.394399 -0.036650 2.028795 0.020297 -0.006299 367234.000000 0 1 0
18.602115 -0.267509 -7.890709 20.208254 -0.014380 1.971938 0.019199 -0.006121 1354410.000000 0 1 0
19.644215 0.381091 -8.607109 21.450472 0.019397 1.983683 0.024089 -0.006764 -72956.200000 0 1 0
19.291015 1.658291 -9.480009 21.558380 0.085751 2.026102 0.022046 -0.006330 -776052.000000 0 1 0
19.295415 2.890991 -8.779009 21.394903 0.148722 1.993614 0.019569 0.000815 512645.000000 0 1 0
18.482515 3.840091 -9.412309 21.093630 0.204854 2.033329 0.002184 -0.010247 -577527.000000 0 1 0
18.674515 5.236891 -8.789809 21.293738 0.273407 1.996310 0.018312 -0.004093 -59956.600000 0 1 0
17.904315 6.214891 -9.522209 21.209946 0.334104 2.036386 0.008805 -0.009834 854885.000000 0 1 0
18.252315 7.520491 -9.066609 21.723448 0.390833 2.001340 0.014713 -0.012957 -394391.000000 0 1 0
-25.848925 -29.822279 5.532291 39.851493 0.856649 1.431524 0.044687 -0.019151 11406.900000 0 0 1
-26.002955 -28.702599 6.397791 39.254613 0.834707 1.407084 0.043064 -0.017546 -543285.000000 0 0 1
-24.799185 -28.020269 6.590591 37.994354 0.846306 1.396452 0.048949 -0.010352 -715988.000000 0 0 1
-24.872885 -26.768369 7.599491 37.322356 0.822087 1.365745 0.047794 -0.001736 -722070.000000 0 0 1
-25.737935 -25.742679 7.219691 37.111330 0.785490 1.375006 0.046881 -0.006486 2086650.000000 0 0 1
-27.180235 -26.003069 7.452691 38.346674 0.763268 1.375201 0.037290 -0.007825 2206640.000000 0 0 1
-27.697765 -26.012289 8.931091 39.032932 0.754027 1.339942 0.025652 -0.003788 -379607.000000 0 0 1
-27.075265 -26.998549 9.746691 39.458708 0.783979 1.321203 0.030410 -0.007363 62822.400000 0 0 1
-27.605475 -26.998469 11.077191 40.170683 0.774282 1.291423 0.030476 -0.005999 -635398.000000 0 0 1
-26.813925 -27.902309 12.020391 40.521787 0.805287 1.269624 0.028103 -0.007618 667393.000000 0 0 1
-25.469175 -27.524619 12.336191 39.477401 0.824165 1.252986 0.027392 -0.001400 490403.000000 0 0 1
-25.393615 -26.404189 13.241091 38.953092 0.804906 1.223960 0.022770 0.005658 -399157.000000 0 0 1
-24.019685 -26.012399 13.841991 38.015667 0.825206 1.198116 0.040409 0.000869 191269.000000 0 0 1
-23.474885 -26.994759 14.716791 38.682958 0.855028 1.180517 0.050846 -0.005384 25749.000000 0 0 1
-22.232685 -26.607519 15.274691 37.888898 0.874734 1.155846 0.060118 -0.011955 71715.000000 0 0 1
-21.559385 -27.849749 15.927791 38.653721 0.912029 1.146079 0.048999 -0.015463 -285915.000000 0 0 1
-22.320885 -28.450559 16.962891 39.942407 0.905547 1.132184 0.044019 -0.014703 222324.000000 0 0 1
-21.679485 -29.620309 17.382191 40.614078 0.938972 1.128535 0.054973 -0.016513 -32970.600000 0 0 1
-22.626585 -30.550549 18.158691 42.131182 0.933320 1.125192 0.069937 -0.028631 -209625.000000 0 0 1
-23.602085 -31.262499 17.460491 42.886723 0.924125 1.151486 0.017919 -0.013603 673512.000000 0 0 1
-24.525185 -31.945329 18.349991 44.257326 0.916048 1.143271 0.019294 -0.010071 418569.000000 0 0 1
-25.499265 -32.932019 17.680591 45.247472 0.911924 1.169347 0.015389 -0.006997 -2960.180000 0 0 1
-24.855885 -34.104706 17.262391 45.595352 0.940995 1.182513 0.016577 -0.010445 77034.700000 0 0 1
-25.776975 33.768321 16.863191 45.706883 -0.918807 1.192926 0.015109 -0.004345 -468885.000000 0 0 1
-25.397885 33.355172 15.413591 44.667649 -0.920015 1.218480 0.009045 0.000041 42394.500000 0 0 1
-24.149885 32.730829 15.250991 43.440958 -0.935128 1.212078 -0.003748 -0.003610 -257910.000000 0 0 1
-23.114185 33.606700 14.879591 43.417486 -0.968315 1.220997 -0.002944 -0.003233 375827.000000 0 0 1
-21.759085 32.793289 14.769191 42.035540 -0.984974 1.211784 0.023273 -0.011180 744398.000000 0 0 1
-21.696485 32.005869 13.627891 40.997958 -0.975063 1.231945 0.024929 -0.009121 -548267.000000 0 0 1
-20.583685 31.188389 13.673591 39.791592 -0.987438 1.220017 0.026359 -0.010186 -434561.000000 0 0 1
-20.453585 30.195919 12.448191 38.536997 -0.975425 1.241878 0.025488 -0.007508 62935.600000 0 0 1
-19.941185 30.791229 11.286491 38.381448 -0.996092 1.272323 0.018492 -0.005768 -156436.000000 0 0 1
-19.942485 29.842159 10.198991 37.313223 -0.981688 1.293938 0.028112 -0.003447 153862.000000 0 0 1
-19.277285 30.477929 8.957291 37.158457 -1.006822 1.327342 0.013975 -0.011238 -305617.000000 0 0 1
-17.885085 30.665309 9.022591 36.628467 -1.042795 1.321907 0.005652 -0.014001 -401445.000000 0 0 1
-17.329485 31.160689 7.818991 36.502551 -1.063257 1.354920 0.013043 -0.018093 -185118.000000 0 0 1
-16.811385 30.111999 6.834391 35.157703 -1.061607 1.375158 0.022697 -0.020019 -1348630.000000 0 0 1
-17.661685 29.151579 6.302991 34.662334 -1.026081 1.387939 0.013798 -0.012148 -495987.000000 0 0 1
-17.777485 27.949749 7.093891 33.875518 -1.004289 1.359824 0.010047 -0.011943 422746.000000 0 0 1
-18.875085 27.032269 6.401591 33.585604 -0.961251 1.379018 0.014240 -0.009022 633555.000000 0 0 1
-18.388185 26.481949 5.237391 32.662658 -0.963861 1.409753 0.025272 -0.017186 864791.000000 0 0 1
-19.530885 25.960079 4.543591 32.802826 -0.925797 1.431837 0.027957 -0.017247 -81681.900000 0 0 1
-19.188285 25.186899 3.270491 31.831844 -0.919763 1.467872 0.039422 -0.023627 -1367330.000000 0 0 1
-18.791085 25.984069 2.190991 32.141518 -0.944684 1.502576 0.039198 -0.023251 638734.000000 0 0 1
-17.495385 26.591199 2.204391 31.906735 -0.988860 1.501653 0.040190 -0.019437 490274.000000 0 0 1
-16.290885 25.571019 2.264591 30.403920 -1.003555 1.496244 0.042211 -0.027021 -669119.000000 0 0 1
-16.156785 24.592939 1.259291 29.452337 -0.989538 1.528026 0.054795 -0.027087 74527.700000 0 0 1
-15.797785 25.075189 -0.023809 29.636729 -1.008598 1.571600 0.053435 -0.026315 -127094.000000 0 0 1
-15.499485 23.845469 -0.872009 28.453486 -0.994423 1.601448 0.055735 -0.024698 -363332.000000 0 0 1
-16.679285 23.168929 -1.154609 28.571506 -0.946840 1.611219 0.054602 -0.034409 -224960.000000 0 0 1
-16.378385 22.028929 -1.966809 27.520784 -0.931472 1.642324 0.058971 -0.023635 51277.700000 0 0 1
-15.466585 20.844729 -1.500809 25.999431 -0.932441 1.628553 0.059483 -0.028201 140467.000000 0 0 1
-16.042485 19.886229 -0.662509 25.558998 -0.891975 1.596720 0.060910 -0.029401 60729.900000 0 0 1
-15.035685 19.020229 -0.184809 24.246136 -0.901869 1.578419 0.070064 -0.026446 81974.200000 0 1 0
-15.654485 17.946029 0.692991 23.824422 -0.853492 1.541705 0.067675 -0.020518 219867.000000 0 1 0
-16.131485 16.755929 0.033991 23.259130 -0.804383 1.569335 0.054575 -0.023186 499292.000000 0 1 0
-16.834585 15.943729 0.997391 23.207769 -0.758227 1.527806 0.050155 -0.029580 120497.000000 0 1 0
-17.590185 14.759029 0.377091 22.964881 -0.698102 1.554375 0.054775 -0.028015 -65650.100000 0 1 0
-18.781385 15.111829 -0.320009 24.108302 -0.677550 1.584071 0.077325 -0.034039 628840.000000 0 1 0
-19.552485 13.948529 -0.588809 24.025150 -0.619656 1.595307 0.067859 -0.023755 -571914.000000 0 1 0
-20.450785 14.073729 -1.866209 24.895526 -0.602746 1.645828 0.063083 -0.024322 396381.000000 0 1 0
-21.406885 12.983429 -2.026909 25.118370 -0.545190 1.651578 0.058905 -0.025237 2003910.000000 0 0 1
-22.484885 12.898229 -1.046409 25.942809 -0.520812 1.611143 0.059136 -0.015637 10545.200000 0 0 1
-23.638485 13.899829 -1.218609 27.449376 -0.531562 1.615206 0.059203 -0.009751 -858813.000000 0 0 1
-23.311285 15.217329 -0.922509 27.853799 -0.578333 1.603922 0.052003 -0.008592 -596802.000000 0 0 1
-24.416685 15.947029 -0.562009 29.168444 -0.578566 1.590065 0.040053 -0.004573 -1031120.000000 0 0 1
-24.087485 17.071829 0.438391 29.527047 -0.616569 1.555949 0.031632 -0.007426 70482.300000 0 0 1
-23.781585 16.520229 1.714591 29.007268 -0.607136 1.511653 0.027283 -0.004277 46666.000000 0 0 1
-23.362985 17.508029 2.644591 29.314741 -0.643112 1.480460 0.023069 -0.013910 68572.100000 0 0 1
-24.460285 18.467429 3.163391 30.811662 -0.646691 1.467946 0.026683 -0.014801 -235152.000000 0 0 1
-25.392505 17.908929 4.095591 31.341393 -0.614264 1.439745 0.034112 -0.012246 2110150.000000 0 0 1
-26.703245 18.577829 4.084991 32.785457 -0.607844 1.445874 0.036835 -0.017969 1896150.000000 0 0 1
-27.636145 18.469729 2.838091 33.360788 -0.589145 1.485621 0.038495 -0.011291 -273230.000000 0 0 1
-28.842245 19.181829 3.043191 34.771809 -0.586890 1.483165 0.031128 -0.011028 320419.000000 0 0 1
-29.759255 19.134429 1.963491 35.434375 -0.571420 1.515356 0.011378 -0.011183 240617.000000 0 0 1
-31.002615 20.034929 2.160491 36.976050 -0.573723 1.512334 0.019674 -0.022257 -360830.000000 0 0 1
-31.970645 19.458829 2.962291 37.543886 -0.546753 1.491812 0.032422 -0.012641 400508.000000 0 0 1
-33.185535 20.224529 3.094791 38.985754 -0.547330 1.491330 0.037661 -0.014314 812817.000000 0 0 1
-33.367085 20.767529 4.516091 39.560684 -0.556724 1.456391 0.029758 -0.021213 -563348.000000 0 0 1
-32.491665 21.849229 4.771191 39.444409 -0.592000 1.449540 0.029273 -0.019650 254407.000000 0 0 1
-32.335625 22.142229 6.150391 39.669866 -0.600426 1.415129 0.045685 -0.027699 -667764.000000 0 0 1
-31.337475 23.275929 6.260891 39.534858 -0.638845 1.411763 0.042626 -0.030409 -432959.000000 0 0 1
-31.671855 24.456959 5.507291 40.392815 -0.657557 1.434027 0.031510 -0.020486 369162.000000 0 0 1
-30.652135 25.392229 5.809691 40.225256 -0.691820 1.425860 0.029447 -0.022230 -233693.000000 0 0 1
-31.039065 26.862359 5.604391 41.429689 -0.713388 1.435106 0.032863 -0.016626 -489909.000000 0 0 1
-32.069635 27.221279 6.505091 42.564959 -0.703807 1.417368 0.040144 -0.009720 -30634.400000 0 0 1
-32.365025 28.559749 6.319091 43.624363 -0.723021 1.425433 0.031453 -0.003225 -130968.000000 0 0 1
-33.551725 28.874609 7.233491 44.852923 -0.710616 1.408818 0.024392 0.005668 -435098.000000 0 0 1
-33.053495 28.893429 8.574791 44.731318 -0.718344 1.377907 0.031599 -0.001291 52871.400000 0 0 1
-33.843195 29.491679 9.557491 45.896259 -0.716799 1.361020 0.027580 0.007775 -144435.000000 0 0 1
-35.008875 28.587279 10.045491 46.300818 -0.684765 1.352096 0.023507 0.014740 194627.000000 0 0 1
-34.439591 27.474969 10.762291 45.351806 -0.673381 1.331204 0.036703 0.000891 145229.000000 0 0 1
-35.396538 26.635789 11.330291 45.724782 -0.645097 1.320395 0.039793 0.000878 -350217.000000 0 0 1
-34.710040 25.481159 12.040191 44.710654 -0.633257 1.298139 0.055837 -0.012811 -403127.000000 0 0 1
-34.017515 25.896659 13.177791 44.737931 -0.650678 1.271806 0.052501 -0.013560 -362921.000000 0 0 1
-33.411655 24.840789 13.853691 43.878563 -0.639313 1.249573 0.053430 -0.015648 117209.000000 0 0 1
-32.209905 25.350759 14.703691 43.546957 -0.666794 1.226376 0.048223 -0.020451 192870.000000 0 0 1
-32.618975 26.264409 15.732691 44.736275 -0.677896 1.211435 0.038798 -0.022549 -635597.000000 0 0 1
-31.536545 26.841979 16.374091 44.532644 -0.705155 1.194275 0.058206 -0.016524 -681310.000000 0 0 1
-31.870675 27.919449 17.412691 45.808704 -0.719409 1.180873 0.040889 -0.017690 -384244.000000 0 0 1
-32.114815 29.173849 16.815591 46.532128 -0.737449 1.201053 0.051179 -0.014903 100572.000000 0 0 1
-32.296275 30.204139 17.747091 47.647651 -0.751937 1.189132 0.034648 -0.009497 -97098.100000 0 0 1
-32.150395 31.583409 17.075191 48.194624 -0.776502 1.208635 0.020981 -0.010059 -795289.000000 0 0 1
-30.865045 31.744559 16.602391 47.286440 -0.799445 1.212048 0.013812 -0.003234 -1029360.000000 0 0 1
-30.692675 32.840291 15.773491 47.637465 -0.819188 1.233311 0.010240 0.008992 -418199.000000 0 0 1
-29.290515 32.943965 15.150791 46.613148 -0.844035 1.239750 0.023826 0.005233 -77003.200000 0 0 1
-28.814715 32.028209 14.119191 45.337022 -0.838165 1.254102 0.021337 0.004931 253912.000000 0 0 1
-28.543755 30.715009 14.545091 44.381498 -0.822022 1.236898 0.031770 0.001677 -474904.000000 0 0 1
-29.557545 29.635499 14.183791 44.193791 -0.786715 1.244069 0.043877 -0.002794 -216051.000000 0 0 1
-29.495695 29.306939 12.833691 43.515472 -0.782188 1.271422 0.058427 -0.009619 179311.000000 0 0 1
-30.577485 28.460719 12.460191 43.591874 -0.749559 1.280916 0.057560 -0.010935 333020.000000 0 0 1
-30.601805 28.084949 10.960691 42.957788 -0.742538 1.312793 0.051852 -0.002408 -220940.000000 0 0 1
-29.695735 27.131319 10.482691 41.567198 -0.740302 1.315857 0.044557 0.002949 -306381.000000 0 0 1
-29.501105 27.420729 9.076491 41.286732 -0.748866 1.349145 0.041358 -0.007615 -630370.000000 0 0 1
-28.437245 26.666149 8.346091 39.867501 -0.753268 1.359891 0.035704 -0.011869 -622945.000000 0 0 1
-28.182235 27.284049 7.053891 39.854926 -0.769206 1.392870 0.040542 -0.013438 -99702.200000 0 0 1
-27.100175 26.554459 6.481991 38.491233 -0.775228 1.401588 0.040747 -0.013210 94601.900000 0 0 1
-26.695695 26.968759 4.995091 38.274339 -0.790486 1.439915 0.028890 -0.015239 78452.700000 0 0 1
-25.830095 28.085359 4.820391 38.460595 -0.827203 1.445133 0.033829 -0.010176 423267.000000 0 0 1
-25.619525 28.210219 3.428191 38.261325 -0.833489 1.481077 0.030189 -0.010199 94305.400000 0 0 1
-24.586985 29.294909 2.929491 38.357443 -0.872552 1.494348 0.025276 -0.013397 344044.000000 0 0 1
-23.263385 28.878359 3.190691 37.219957 -0.892672 1.484966 0.026636 -0.010757 383646.000000 0 0 1
-22.336685 29.940129 2.816591 37.460273 -0.929831 1.495537 0.029205 -0.008238 618529.000000 0 0 1
-20.852985 29.573819 2.977591 36.308729 -0.956645 1.488697 0.012298 -0.012325 288061.000000 0 0 1
-19.964985 30.659919 2.752191 36.690678 -0.993595 1.495715 0.006237 -0.011706 -160411.000000 0 0 1
-18.616885 30.298889 2.948891 35.683428 -1.019826 1.488062 0.016674 -0.012073 634469.000000 0 0 1
-17.554785 31.371759 2.504091 36.036485 -1.060633 1.501253 0.022146 -0.011458 274753.000000 0 0 1
-17.544985 32.569269 3.213291 37.133664 -1.076672 1.484155 0.017302 -0.013357 -121788.000000 0 0 1
-16.422985 33.392374 2.979291 37.331505 -1.113715 1.490905 0.026071 -0.006072 -115949.000000 0 0 1
-16.264185 -34.191104 3.832491 38.055792 1.126789 1.469918 0.025691 -0.005654 -7497.970000 0 0 1
-17.262685 -33.217959 3.608991 37.609280 1.091530 1.474688 0.019913 -0.007725 -129936.000000 0 0 1
-17.175485 -32.249739 4.611491 36.828098 1.081428 1.445250 0.009000 -0.011233 -430120.000000 0 0 1
-18.350585 -31.308699 4.848291 36.612628 1.040647 1.437985 0.012466 -0.012459 -552278.000000 0 0 1
-18.476785 -30.341519 3.804491 35.727770 1.023814 1.464109 0.016402 -0.004552 188842.000000 0 0 1
-19.438285 -29.365509 4.157991 35.460809 0.986071 1.453270 0.021752 -0.011188 -246990.000000 0 0 1
-19.734985 -28.407989 2.989691 34.719184 0.963637 1.484579 0.020244 -0.012348 -214702.000000 0 0 1
-18.738185 -27.475469 2.702291 33.366501 0.972255 1.489719 0.018981 -0.008070 -356959.000000 0 0 1
-19.169985 -26.570739 1.696791 32.808103 0.945806 1.519055 0.014729 -0.003121 -235809.000000 0 0 1
-18.286285 -25.336379 1.677891 31.291144 0.945628 1.517149 0.017342 -0.005769 -224833.000000 0 0 1
-17.003485 -25.695969 1.225091 30.836702 0.986228 1.531058 0.028273 -0.006997 -217688.000000 0 0 1
-16.031685 -24.651209 1.461291 29.442018 0.994182 1.521143 0.025100 -0.008728 461358.000000 0 0 1
-14.690785 -24.979009 0.785791 28.989439 1.039154 1.543687 0.036792 -0.011822 -488569.000000 0 0 1
-14.677485 -25.057329 -0.639109 29.046631 1.040916 1.592801 0.035698 -0.004519 -73412.400000 0 0 1
-14.935785 -23.855909 -1.336509 28.177444 1.011418 1.618246 0.044174 -0.008084 -301626.000000 0 0 1
-15.232085 -23.992009 -2.802409 28.556723 1.005123 1.669089 0.017253 -0.002625 -561248.000000 0 0 1
-14.140785 -24.311209 -3.620509 28.356742 1.043974 1.698823 0.040038 -0.003878 -247307.000000 0 0 1
-14.546085 -24.376909 -4.941409 28.813883 1.032795 1.743142 0.019444 -0.005436 400690.000000 0 0 1
-13.406785 -24.886109 -5.880409 28.872817 1.076650 1.775897 0.053468 -0.009877 606269.000000 0 0 1
-13.131085 -26.236289 -5.875409 29.921376 1.106754 1.768442 0.031905 -0.013434 -189355.000000 0 0 1
-12.026585 -26.492069 -6.736009 29.863729 1.144646 1.798312 0.057651 -0.012793 390970.000000 0 0 1
23.051715 13.263391 28.632203 39.078154 0.522116 0.748529 0.009534 0.012949 -441293.000000 0 0 1
23.542815 11.917491 28.775543 39.042574 0.468599 0.742131 0.009996 0.003516 58062.000000 0 0 1
22.911115 11.054891 29.650903 39.067964 0.449560 0.709087 0.014019 -0.007460 -716019.000000 0 0 1
22.949415 11.307291 31.183073 40.335028 0.457795 0.687080 0.018696 -0.001634 -196990.000000 0 0 1
22.180315 12.418791 31.552113 40.518249 0.510413 0.678184 0.019462 0.003370 263495.000000 0 0 1
22.573415 12.882891 32.850577 41.889000 0.518605 0.669343 0.012433 0.003807 -20228.200000 0 0 1
21.444415 13.756291 33.472632 42.065610 0.570367 0.650594 0.004899 0.010094 -205018.000000 0 0 1
20.332115 13.100091 33.975572 41.705476 0.572362 0.618662 0.015998 0.012626 -186810.000000 0 0 1
19.399315 14.037191 -34.362835 41.882939 0.626385 2.532993 0.013254 0.016880 88217.300000 0 0 1
18.183815 13.428991 -33.608239 40.503119 0.636109 2.549490 0.010585 0.021560 525518.000000 0 0 1
17.184815 12.821391 34.403348 40.537590 0.640993 0.557316 0.002268 0.018712 349190.000000 0 0 1
16.108115 12.349591 -33.656789 39.303476 0.654084 2.598919 0.004364 0.021102 -325254.000000 0 0 1
14.860915 12.085591 34.342912 39.323579 0.682766 0.508776 0.008823 0.018954 -324822.000000 0 0 1
14.942515 10.920391 33.517881 38.288144 0.631117 0.504510 0.007212 0.019252 -22951.700000 0 0 1
13.693915 10.726991 32.886877 37.204009 0.664499 0.486530 0.007666 0.024059 30194.400000 0 0 1
13.644015 9.642391 31.828673 35.947173 0.615217 0.483380 0.010595 0.025828 -116719.000000 0 0 1
13.858915 8.340591 32.337003 36.156835 0.541758 0.463812 -0.001411 0.016757 143754.000000 0 0 1
14.730415 7.551891 31.545563 35.624973 0.473735 0.483249 -0.000565 -0.003873 144358.000000 0 0 1
15.146115 6.205391 32.177843 36.101596 0.388842 0.470562 0.021847 -0.010863 337507.000000 0 0 1
14.192115 5.139591 32.070783 35.445262 0.347452 0.439893 0.017439 -0.006716 479224.000000 0 0 1
14.737215 4.031891 32.760583 36.148270 0.267051 0.436390 0.020536 -0.011576 -6276.550000 0 0 1
13.718715 2.912091 32.698483 35.579125 0.209167 0.405170 0.014619 -0.006418 -322493.000000 0 0 1
14.245115 1.659991 33.087973 36.062346 0.116007 0.408994 0.024700 -0.011354 106851.000000 0 0 1
13.235815 0.711591 33.470673 35.999709 0.053711 0.377067 0.027222 -0.007135 121019.000000 0 0 1
13.705615 -0.668909 33.799495 36.478723 -0.048767 0.385651 0.026065 -0.006148 -267302.000000 0 0 1
14.146515 -1.372109 32.667333 35.625289 -0.096690 0.410377 0.028905 -0.003006 -67762.900000 0 0 1
14.232715 -2.730809 32.990887 36.033680 -0.189565 0.413906 0.031356 -0.007173 -377525.000000 0 0 1
14.620915 -3.664209 31.844973 35.232086 -0.245557 0.442082 0.030224 -0.006075 -804208.000000 0 0 1
14.909015 -5.012209 32.145843 35.787654 -0.324316 0.455052 0.035585 -0.001918 1009220.000000 0 0 1
16.029315 -5.312409 33.019352 37.086901 -0.320026 0.472740 0.017483 -0.004787 1010130.000000 0 0 1
17.460815 -4.852209 32.617763 37.314105 -0.271052 0.507133 0.022013 -0.005886 -377604.000000 0 0 1
17.679015 -3.430709 32.628883 37.268771 -0.191673 0.504323 0.026854 -0.006795 525221.000000 0 0 1
18.652815 -3.011209 31.659953 36.869330 -0.160054 0.538055 0.040466 -0.020551 63919.200000 0 0 1
18.545015 -1.466809 31.393313 36.491221 -0.078930 0.534943 0.045126 -0.024585 -293564.000000 0 0 1
18.761915 -0.776009 32.641603 37.657481 -0.041337 0.522042 0.035934 -0.021959 -123846.000000 0 0 1
18.710315 0.644791 32.636443 37.624846 0.034448 0.520808 0.036529 -0.020863 -31766.800000 0 0 1
19.814015 1.418991 31.877513 37.560412 0.071493 0.557274 0.045246 -0.025204 -339722.000000 0 0 1
19.928915 1.219391 30.489173 36.445002 0.061111 0.579785 0.046826 -0.021385 -4763.090000 0 0 1
20.805915 2.167591 29.873623 36.469410 0.103807 0.610883 0.039951 -0.012885 115444.000000 0 0 1
20.359415 3.638991 29.838883 36.305742 0.176870 0.606097 0.041142 -0.014928 -283075.000000 0 0 1
20.389515 4.201091 31.141223 37.458740 0.203198 0.589269 0.045394 -0.013716 379998.000000 0 0 1
19.787115 5.473391 31.236793 37.379475 0.269866 0.581450 0.047460 -0.016589 -446008.000000 0 0 1
19.560915 5.984291 32.689603 38.562303 0.296889 0.559145 0.044469 -0.012358 -91946.200000 0 0 1
18.494315 5.314691 33.348814 38.502324 0.279829 0.523348 0.028498 -0.009295 440848.000000 0 0 1
18.171215 5.972291 -34.278665 39.254149 0.317546 2.632628 0.022223 -0.003076 -65163.000000 0 0 1
17.008415 5.348791 -33.488859 37.939418 0.304687 2.652358 0.018863 -0.003136 -143029.000000 0 0 1
17.371215 4.130091 -32.928509 37.458023 0.233421 2.644720 0.013124 -0.007966 -440894.000000 0 0 1
16.171215 3.559991 -32.520439 36.493297 0.216687 2.670636 0.010516 -0.006851 -294841.000000 0 0 1
16.022715 2.093291 -32.900759 36.654730 0.129909 2.685058 0.021631 -0.018296 78557.000000 0 0 1
17.003315 1.266191 -32.258549 36.487394 0.074330 2.655363 0.024375 -0.015881 422568.000000 0 0 1
17.043115 -0.017809 -32.842209 37.001065 -0.001045 2.662908 0.025649 -0.015590 -251420.000000 0 0 1
18.119915 -0.807509 -32.068449 36.842487 -0.044535 2.626852 0.020937 -0.015178 -254200.000000 0 0 1
17.942315 -1.050409 -30.674839 35.552437 -0.058477 2.611590 0.025366 -0.012238 146746.000000 0 0 1
18.299415 0.013191 -29.855979 35.017828 0.000721 2.591725 0.029825 -0.006732 -610122.000000 0 0 1
18.126415 -0.255809 -28.366809 33.664643 -0.014112 2.572943 0.029833 -0.013009 486334.000000 0 0 1
16.754315 -0.446609 -27.987009 32.621760 -0.026650 2.602013 0.033932 -0.015556 619685.000000 0 0 1
16.505315 -0.951109 -26.690249 31.395851 -0.057561 2.587010 0.039776 -0.013962 -381238.000000 0 0 1
17.318415 -2.116309 -26.117009 31.408668 -0.121597 2.552639 0.043684 -0.011159 2047.510000 0 0 1
18.573315 -1.695809 -25.536249 31.621888 -0.091051 2.510782 0.035374 -0.016213 1144160.000000 0 0 1
19.609715 -2.700209 -25.585009 32.348489 -0.136837 2.483104 0.028329 -0.007714 957055.000000 0 0 1
20.383615 -2.754109 -26.931569 33.887849 -0.134301 2.489353 0.028478 -0.011307 -407241.000000 0 0 1
21.508215 -1.893309 -27.048589 34.609451 -0.087801 2.467923 0.019471 -0.008912 -5473.220000 0 0 1
21.939615 -1.938309 -28.376749 35.921354 -0.088119 2.481554 0.019272 -0.010801 -336221.000000 0 0 1
23.423515 -1.609109 -28.577799 36.985685 -0.068589 2.453836 0.024869 -0.013663 -367105.000000 0 0 1
24.245915 -2.709109 -28.290599 37.357217 -0.111273 2.429964 0.024293 -0.007715 -478589.000000 0 0 1
25.572015 -2.447409 -28.663709 38.490596 -0.095416 2.410872 0.017108 -0.005563 -578801.000000 0 0 1
26.523815 -3.612709 -28.372029 39.006877 -0.135373 2.385263 0.002086 0.002035 -339132.000000 0 0 1
26.524215 -4.730209 -29.258609 39.774050 -0.176480 2.397379 0.009980 -0.001399 229672.000000 0 0 1
27.437115 -5.754509 -28.919919 40.277430 -0.206738 2.371747 0.006158 0.001673 -86727.400000 0 0 1
26.919115 -6.711309 -27.803019 39.277071 -0.244333 2.357273 -0.009743 0.007614 -50978.400000 0 0 1
26.947515 -6.154009 -26.503509 38.294600 -0.224520 2.335184 -0.020581 0.014751 194851.000000 0 0 1
26.699215 -7.090709 -25.529209 37.614715 -0.259585 2.316791 -0.031539 0.016156 -227175.000000 0 0 1
26.869415 -6.594709 -24.050909 36.659267 -0.240678 2.286391 -0.040968 0.021762 -2248.090000 0 0 1
28.170815 -6.538309 -23.518709 37.275649 -0.228057 2.253561 -0.038911 0.022146 99063.200000 0 0 1
28.050915 -5.891109 -22.298209 36.314861 -0.207006 2.231946 -0.029105 0.012137 60877.700000 0 0 1
29.407615 -5.360309 -21.793209 36.993036 -0.180297 2.200761 -0.017136 0.010084 -287366.000000 0 0 1
29.947015 -4.313509 -22.560509 37.741312 -0.143054 2.211509 0.002228 0.006482 -633387.000000 0 0 1
31.100815 -3.866109 -21.927509 38.249486 -0.123675 2.181295 0.014570 0.005937 -280620.000000 0 0 1
31.736715 -2.632009 -22.670709 39.091017 -0.082743 2.189460 0.020923 0.001986 -172651.000000 0 0 1
30.998615 -1.488409 -22.455609 38.306447 -0.047979 2.197169 0.004054 0.005134 -66831.500000 0 0 1
31.661915 -0.294909 -22.830109 39.035595 -0.009314 2.195496 0.025501 0.001933 -168002.000000 0 0 1
30.792215 0.893991 -22.423309 38.102028 0.029025 2.200007 0.023960 0.002241 -423334.000000 0 0 1
29.649015 0.898791 -23.211909 37.665165 0.030305 2.234794 0.020795 0.005014 -691570.000000 0 0 1
28.571615 1.599991 -22.696809 36.524544 0.055941 2.241341 0.020473 0.006919 123932.000000 0 0 1
27.279615 1.680991 -23.572309 36.092338 0.061543 2.282482 0.011403 0.000526 -231766.000000 0 0 1
26.417915 2.702491 -23.245309 35.292408 0.101943 2.289818 0.012674 0.001459 -586298.000000 0 0 1
25.524515 2.761491 -24.343009 35.379497 0.107771 2.329600 0.019643 -0.005730 -721459.000000 0 0 1
24.487815 3.861391 -24.250409 34.679183 0.156398 2.345184 0.023415 -0.002194 -729641.000000 0 0 1
24.987415 5.155691 -24.081109 35.083499 0.203476 2.327315 0.026221 0.003693 -270248.000000 0 0 1
23.946015 6.084691 -23.890909 34.368745 0.248834 2.339404 0.021487 0.004156 -282035.000000 0 0 1
24.363115 7.463591 -23.323409 34.543421 0.297270 2.312020 0.023273 -0.002703 -29427.200000 0 0 1
25.186315 8.229291 -24.186609 35.875671 0.315802 2.310648 0.025600 -0.000613 265721.000000 0 0 1
25.450015 9.505691 -23.620609 35.999925 0.357459 2.286475 0.031925 -0.002373 -460826.000000 0 0 1
26.138815 10.448891 -24.624309 37.400181 0.380288 2.289488 0.042569 -0.001135 -171507.000000 0 0 1
25.459615 10.762491 -25.841049 37.838909 0.399945 2.322553 0.036889 -0.011499 925250.000000 0 0 1
24.142515 11.325291 -25.798559 37.103758 0.438625 2.339645 0.042737 -0.018828 635571.000000 0 0 1
23.679315 11.822991 -27.209169 37.958292 0.463084 2.370024 0.035982 -0.015356 -197519.000000 0 0 1
23.279815 10.728791 -28.059479 38.005146 0.431850 2.401354 0.035428 -0.008068 192312.000000 0 0 1
24.279015 9.926391 -28.653559 38.846239 0.388109 2.400327 0.033910 -0.011942 -313412.000000 0 0 1
25.068115 10.522491 -29.806529 40.343059 0.397421 2.402124 0.029908 -0.008460 -948685.000000 0 0 1
26.091615 11.462591 -29.483189 41.005144 0.413938 2.373176 0.021369 -0.005477 1014160.000000 0 0 1
26.981215 11.857991 -30.526039 42.431556 0.414080 2.373761 0.015783 -0.001419 706506.000000 0 0 1
27.899815 10.714591 -31.090849 43.125897 0.366671 2.375943 0.016706 -0.000610 -556680.000000 0 0 1
27.162615 9.814391 -31.884979 43.020714 0.346723 2.405584 0.016981 -0.003156 491739.000000 0 0 1
27.981915 8.663191 -32.199769 43.530031 0.300240 2.403441 0.019630 0.001666 79305.500000 0 0 1
27.358215 7.572391 -33.080019 43.590144 0.270027 2.432400 0.020289 -0.002610 43884.400000 0 0 1
26.283915 6.980391 -32.349459 42.261774 0.259584 2.442543 0.022831 -0.001615 -335653.000000 0 0 1
25.913115 5.799291 -33.035669 42.384864 0.220170 2.464538 0.012534 -0.003640 435106.000000 0 0 1
24.619515 5.206791 -32.338579 40.975784 0.208419 2.480321 0.023002 -0.004471 1484430.000000 0 0 1
23.412615 6.004891 -32.376399 40.403471 0.251069 2.500307 0.017642 -0.001532 751840.000000 0 0 1
23.401015 7.159391 -31.558079 39.934656 0.296901 2.482002 0.026895 -0.006502 -831005.000000 0 0 1
21.991515 7.776491 -31.404629 39.119704 0.339890 2.502744 0.022100 -0.006036 270725.000000 0 0 1
21.489615 8.276791 -32.642859 39.948280 0.367642 2.527207 0.017452 -0.000119 -697924.000000 0 0 1
20.215515 8.802891 -32.512269 39.283655 0.410690 2.545665 0.014176 0.004590 -829667.000000 0 0 1
19.792515 9.847291 -33.579849 40.203471 0.461666 2.559379 0.014745 0.010674 -134884.000000 0 0 1
19.400315 9.206391 34.023669 40.233566 0.443080 0.563007 0.028272 0.003302 201063.000000 0 0 1
19.095615 10.154591 32.996157 39.452561 0.488744 0.580205 0.026414 0.003077 -30585.900000 0 0 1
18.258915 9.565291 31.819483 37.912560 0.482560 0.574828 0.020144 0.000547 -53947.800000 0 0 1
18.840815 8.625391 30.894993 37.200460 0.429324 0.590791 0.028751 -0.009688 -14924.100000 0 0 1
19.713815 9.082891 29.884753 36.935509 0.431747 0.628167 0.042963 -0.009659 -918801.000000 0 0 1
19.177215 10.041091 28.809563 36.035815 0.482345 0.644383 0.039384 -0.011109 -1005090.000000 0 0 1
18.207915 9.480691 28.022243 34.736979 0.480063 0.632254 0.026269 -0.000500 -1079260.000000 0 0 1
16.934315 9.943991 28.353013 34.489814 0.530962 0.605761 0.011543 -0.001322 -789424.000000 0 0 1
15.854115 9.226591 27.512793 33.067154 0.527055 0.588043 0.026156 -0.003433 -682350.000000 0 0 1
15.916515 9.590191 26.182133 32.106250 0.542278 0.617231 0.026581 -0.002358 644824.000000 0 0 1
14.700715 9.273591 25.484913 30.847873 0.562778 0.598559 0.036037 -0.000556 659878.000000 0 0 1
14.435415 7.776991 25.219443 30.081274 0.494160 0.576498 0.048047 -0.007681 -271273.000000 0 0 1
14.116815 7.028791 26.419493 30.768132 0.461968 0.538139 0.041490 -0.012590 -28394.300000 0 0 1
13.715815 5.707991 26.161703 30.085535 0.394360 0.516450 0.045048 -0.015861 -219168.000000 0 0 1
13.821015 4.760791 27.383213 31.040714 0.331731 0.490344 0.054392 -0.018815 -960708.000000 0 0 1
15.136715 4.365591 27.553343 31.739017 0.280791 0.519390 0.031016 -0.014902 -567937.000000 0 0 1
15.289615 4.109091 28.902333 32.954541 0.262547 0.501138 0.015950 -0.015244 516308.000000 0 0 1
16.427115 3.063191 29.191923 33.636313 0.184354 0.519899 0.041727 -0.018569 306064.000000 0 0 1
16.057415 1.709691 28.936513 33.137371 0.106074 0.509007 0.034686 -0.016537 388497.000000 0 0 1
15.291715 1.072591 29.970513 33.663313 0.070027 0.472789 0.026605 -0.016695 264128.000000 0 0 1
15.226015 -0.469309 29.764343 33.436026 -0.030813 0.473039 0.034313 -0.014216 -127617.000000 0 0 1
14.420015 -0.821709 28.642863 32.078429 -0.056922 0.467049 0.033268 -0.019843 708687.000000 0 0 1
15.111315 -0.787809 27.374793 31.278615 -0.052087 0.504964 0.043852 -0.017111 -498117.000000 0 0 1
16.175815 -1.903409 27.063803 31.586854 -0.117131 0.541753 0.027596 -0.015037 1515070.000000 0 0 1
17.430515 -1.789009 27.794333 32.856481 -0.102278 0.562487 0.028883 -0.015068 994360.000000 0 0 1
18.271015 -0.727709 27.426473 32.963176 -0.039808 0.588033 0.038766 -0.014859 -708827.000000 0 0 1
19.699115 -0.897309 28.004173 34.250459 -0.045519 0.613515 0.036035 -0.003925 53444.700000 0 0 1
20.590815 -1.559609 27.183993 34.137714 -0.075599 0.649636 0.027960 -0.005573 1093950.000000 0 0 1
22.007615 -1.319409 27.416583 35.181600 -0.059881 0.677268 0.042053 -0.010732 1566830.000000 0 0 1
22.864515 -1.831309 26.227573 34.842866 -0.079923 0.718584 0.042069 -0.001285 -236535.000000 0 0 1
22.757415 -1.103109 25.016743 33.837172 -0.048435 0.738726 0.041869 0.008106 396428.000000 0 0 1
22.036515 -1.846109 24.028403 32.655478 -0.083580 0.743926 0.032292 0.022447 -48795.500000 0 0 1
22.003315 -1.097609 22.664373 31.607347 -0.049843 0.771221 0.030405 0.004615 -423536.000000 0 0 1
21.136115 -0.017809 22.576173 30.926028 -0.000843 0.752466 0.015049 0.010153 -225856.000000 0 0 1
21.224915 0.652691 21.338373 30.103972 0.030741 0.782969 0.019200 0.003946 -33129.700000 0 0 1
-30.135715 -27.522248 -10.339109 42.101457 0.740102 1.818910 -0.010667 0.009485 -10770.000000 0 0 1
-29.931975 -26.396748 -9.461509 41.015017 0.722720 1.803577 -0.004260 0.008442 -311896.000000 0 0 1
-30.464045 -26.695948 -8.200609 41.327735 0.719571 1.770551 0.012622 -0.004090 -716920.000000 0 0 1
-30.506265 -25.468348 -7.326409 40.409717 0.695636 1.753108 0.044134 -0.012403 -563583.000000 0 0 1
-29.331815 -24.919348 -6.838309 39.090814 0.704243 1.746635 0.026604 -0.015109 -1010890.000000 0 0 1
-28.700485 -25.631448 -5.765809 38.909299 0.728971 1.719530 0.007277 -0.009883 820662.000000 0 0 1
-27.396495 -24.946048 -5.213209 37.417253 0.738617 1.710577 -0.018667 0.005706 546312.000000 0 0 1
-27.614155 -23.813148 -4.456209 36.735070 0.711622 1.692403 -0.000361 -0.010227 -164324.000000 0 0 1
-28.172135 -22.665748 -5.105009 36.516660 0.677506 1.711055 0.016553 -0.014775 -94926.300000 0 0 1
-28.288365 -21.352248 -4.263009 35.697666 0.646570 1.690502 0.016363 -0.018227 -654563.000000 0 0 1
-27.051415 -20.726548 -4.183109 34.334636 0.653783 1.692933 0.012778 -0.014109 -456501.000000 0 0 1
-27.074825 -19.646648 -3.264709 33.610940 0.627729 1.668082 0.034603 -0.011457 -515571.000000 0 0 1
-26.065525 -18.556248 -3.460809 32.182653 0.618673 1.678541 0.033372 -0.013208 -499343.000000 0 0 1
-26.502335 -17.648148 -4.402709 32.143658 0.587478 1.708198 0.029686 -0.019012 133299.000000 0 0 1
-25.730675 -16.439048 -4.358409 30.843244 0.568525 1.712579 0.034992 -0.019781 182557.000000 0 0 1
-25.979125 -15.359548 -5.476209 30.672782 0.533943 1.750295 0.042226 -0.024583 315972.000000 0 0 1
-27.283765 -14.787048 -5.394009 31.498507 0.496659 1.742891 0.024886 -0.015825 399167.000000 0 0 1
-27.508515 -13.687848 -6.274809 31.359988 0.461714 1.772246 0.055559 -0.030284 576151.000000 0 0 1
-28.917075 -13.029448 -6.032809 32.285578 0.423336 1.758759 0.045515 -0.017189 -17707.500000 0 0 1
-29.925995 -13.691148 -6.677709 33.579823 0.429074 1.770992 0.052853 -0.014519 -448624.000000 0 0 1
-31.183055 -13.050148 -6.441209 34.411894 0.396353 1.759087 0.045242 -0.017449 166988.000000 0 0 1
-32.257555 -13.845948 -7.213509 35.837060 0.405449 1.773467 0.017957 -0.013781 -324508.000000 0 0 1
-32.697775 -15.028948 -6.504909 36.569490 0.430835 1.749626 0.022710 -0.018526 98355.200000 0 0 1
-32.912165 -16.122448 -7.396909 37.387942 0.455505 1.769952 0.033237 -0.014911 -791002.000000 0 0 1
-33.700125 -17.329948 -6.866009 38.511915 0.474975 1.750037 0.028586 -0.015214 802412.000000 0 0 1
-35.118051 -17.136648 -6.769409 39.658128 0.453980 1.742330 0.018800 -0.021395 693728.000000 0 0 1
-35.529936 -16.278148 -5.706109 39.495749 0.429613 1.715778 0.032895 -0.021487 -299973.000000 0 0 1
34.255716 -16.167448 -5.581209 38.288254 -0.440968 1.717086 0.041697 -0.024041 -357411.000000 0 0 1
33.701876 -15.360048 -6.608709 37.622102 -0.427636 1.747373 0.041890 -0.028760 -216562.000000 0 0 1
32.304476 -15.323448 -6.681709 36.373514 -0.442913 1.755543 0.049627 -0.029865 -484747.000000 0 0 1
31.566316 -14.580048 -5.579909 35.215700 -0.432694 1.729916 0.062323 -0.031145 -1156150.000000 0 0 1
31.531086 -15.204248 -4.308409 35.269547 -0.449305 1.693259 0.067914 -0.029381 327588.000000 0 0 1
30.987026 -14.388748 -3.284709 34.322313 -0.434721 1.666645 0.063235 -0.028590 -1104490.000000 0 0 1
31.186326 -15.111948 -1.897809 34.706766 -0.451227 1.625505 0.080318 -0.024165 822901.000000 0 0 1
32.544086 -15.242148 -1.416109 35.964510 -0.438012 1.610182 0.090914 -0.018713 1359230.000000 0 0 1
33.490816 -16.048548 -2.106709 37.197163 -0.446863 1.627463 0.075455 -0.018099 -308508.000000 0 0 1
33.068326 -17.499748 -2.390209 37.489578 -0.486734 1.634596 0.078290 -0.016503 -1061160.000000 0 0 1
33.374176 -18.332348 -1.276609 38.099086 -0.502304 1.604310 0.089285 -0.022858 48512.300000 0 0 1
33.197736 -19.704848 -1.517409 38.635130 -0.535671 1.610082 0.082534 -0.025388 -412536.000000 0 0 1
34.255096 -20.503548 -2.279909 39.987562 -0.539356 1.627843 0.075450 -0.032112 -318494.000000 0 0 1
34.395546 -19.951848 -3.566209 39.923022 -0.525637 1.660243 0.054218 -0.033785 -96449.900000 0 0 1
35.221796 -20.740548 -4.394109 41.110260 -0.532185 1.677887 0.076945 -0.037423 -104740.000000 0 0 1
35.237026 -20.296948 -5.884909 41.088274 -0.522594 1.714517 0.085220 -0.036148 -238474.000000 0 0 1
33.982316 -20.411648 -6.504709 40.171438 -0.540901 1.733436 0.070924 -0.041488 -26162.800000 0 0 1
33.761066 -19.454648 -7.502709 39.681023 -0.522769 1.761017 0.057140 -0.038442 -51296.500000 0 0 1
32.535956 -19.690248 -8.406609 38.948240 -0.544223 1.788349 0.055286 -0.043368 -122098.000000 0 0 1
32.766906 -20.860148 -9.179309 39.913352 -0.566913 1.802854 0.058277 -0.044888 -81868.800000 0 0 1
31.863546 -21.048248 -10.211509 39.529600 -0.583773 1.832085 0.048092 -0.044020 -671136.000000 0 0 1
32.011616 -22.402648 -10.934609 40.573241 -0.610611 1.843673 0.048386 -0.032275 -56238.800000 0 0 1
31.723536 -23.546348 -10.095109 40.776519 -0.638514 1.820969 0.041206 -0.035327 -1772.460000 0 0 1
31.452156 -24.820348 -10.654909 41.458593 -0.668088 1.830714 0.041558 -0.021704 -53049.600000 0 0 1
30.686056 -25.698748 -9.644609 41.171327 -0.697176 1.807249 0.042533 -0.020382 -596745.000000 0 0 1
29.399206 -25.302148 -9.330509 39.894491 -0.710639 1.806862 0.033844 -0.021691 -934889.000000 0 0 1
28.605686 -26.400548 -8.887709 39.928256 -0.745331 1.795269 0.021135 -0.012882 579761.000000 0 0 1
27.187906 -25.853848 -8.546809 38.479237 -0.760252 1.794779 0.029634 -0.026857 735433.000000 0 0 1
26.425866 -25.284348 -9.637409 37.822009 -0.763326 1.828447 0.032504 -0.016125 126206.000000 0 0 1
25.203756 -24.708748 -9.269309 36.492077 -0.775481 1.827619 0.042206 -0.021773 2372.060000 0 0 1
24.275056 -24.319248 -10.469309 35.920894 -0.786308 1.866543 0.069138 -0.026468 47088.900000 0 0 1
23.707456 -25.462448 -11.081409 36.512702 -0.821075 1.879154 0.056724 -0.019239 355881.000000 0 0 1
23.034756 -25.065148 -12.276709 36.188109 -0.827585 1.916913 0.058905 -0.007446 162533.000000 0 0 1
22.358256 -26.222448 -13.082709 36.860083 -0.864773 1.933634 0.067057 -0.011501 525640.000000 0 0 1
23.287356 -27.051748 -13.796709 38.268097 -0.860040 1.939630 0.049873 -0.006567 688142.000000 0 0 1
22.616456 -28.254048 -14.136209 38.853928 -0.895770 1.943172 0.056878 -0.007855 -381590.000000 0 0 1
23.427056 -29.245148 -14.928409 40.335630 -0.895411 1.949918 0.044460 -0.012727 -620472.000000 0 0 1
23.400456 -29.174248 -16.314009 40.802757 -0.894781 1.982123 0.042184 -0.006714 375900.000000 0 0 1
23.977956 -30.397848 -16.721709 42.173299 -0.902919 1.978497 0.038349 -0.006754 -229468.000000 0 0 1
23.908056 -30.453648 -18.270009 42.811366 -0.905229 2.011699 0.040215 -0.003019 516748.000000 0 0 1
22.541656 -30.559548 -18.693809 42.325769 -0.935259 2.028250 0.042363 -0.001394 749295.000000 0 0 1
22.322456 -30.648848 -20.092709 42.911081 -0.941309 2.058095 0.039664 0.003818 155836.000000 0 0 1
20.902456 -30.170748 -20.509909 42.045726 -0.964915 2.080364 0.036746 -0.002282 191477.000000 0 0 1
20.669556 -30.039248 -21.910509 42.540068 -0.968112 2.111869 0.035974 0.001174 368164.000000 0 0 1
19.367256 -29.533548 -22.155609 41.691631 -0.990375 2.131068 0.041138 -0.007495 -104590.000000 0 0 1
18.916356 -29.765748 -23.611409 42.442042 -1.004677 2.160748 0.040822 0.001185 -462164.000000 0 0 1
19.567856 -28.935748 -24.518509 42.677111 -0.976187 2.182804 0.046450 -0.000354 235085.000000 0 0 1
19.444656 -29.391348 -25.853309 43.707432 -0.986325 2.203725 0.042250 0.003819 -262357.000000 0 0 1
20.050156 -28.469848 -26.974989 44.047600 -0.957217 2.229896 0.034798 -0.003580 -68044.700000 0 0 1
19.482956 -27.199548 -27.078069 43.042105 -0.949216 2.251200 0.052471 -0.018028 -205710.000000 0 0 1
18.319956 -27.294548 -27.879029 43.102824 -0.979665 2.274181 0.054686 -0.016386 -51272.400000 0 0 1
17.663456 -25.953148 -28.248119 42.231740 -0.973216 2.303502 0.047149 -0.018906 -384665.000000 0 0 1
16.918956 -25.406448 -27.200559 40.885317 -0.983303 2.298677 0.047580 -0.004982 -125066.000000 0 0 1
16.321756 -24.179348 -27.595199 40.156390 -0.977027 2.328415 0.042125 -0.001576 -316249.000000 0 0 1
15.190956 -23.709548 -26.682629 38.792661 -1.000979 2.329287 0.050208 -0.008807 -177781.000000 0 0 1
13.945556 -24.353948 -26.859599 38.846253 -1.050753 2.334268 0.059475 -0.019201 -125486.000000 0 0 1
12.909656 -24.081748 -25.929279 37.668519 -1.078706 2.330014 0.054942 -0.020190 371648.000000 0 0 1
13.041456 -24.649648 -24.515409 37.130715 -1.084162 2.291943 0.051634 -0.007454 -66031.200000 0 0 1
14.022956 -23.998248 -23.707909 36.532509 -1.041977 2.277005 0.037051 -0.010964 45720.800000 0 0 1
13.940256 -24.476148 -22.387909 35.980982 -1.053072 2.242365 0.051938 -0.012458 471621.000000 0 0 1
15.143956 -24.064348 -21.485609 35.637953 -1.009103 2.217909 0.039170 -0.021460 333607.000000 0 0 1
15.204756 -22.712748 -21.055509 34.502000 -0.980878 2.227197 0.050747 -0.024530 -242524.000000 0 0 1
16.431556 -22.343948 -20.487909 34.481915 -0.936710 2.207022 0.046679 -0.021486 -418863.000000 0 0 1
16.363656 -20.867648 -20.008409 33.219940 -0.905786 2.217177 0.034567 -0.009852 507795.000000 0 0 1
15.472056 -20.739948 -18.877009 32.029228 -0.929858 2.201073 0.031683 -0.014311 -384987.000000 0 0 1
14.243656 -20.230748 -19.238709 31.341551 -0.957351 2.231712 0.032528 -0.013591 -961212.000000 0 0 1
13.259256 -20.142448 -18.044909 30.118845 -0.988626 2.213202 0.032743 -0.012394 -174528.000000 0 0 1
13.624556 -19.185148 -17.039409 29.052365 -0.953283 2.197535 0.034089 -0.017101 432013.000000 0 0 1
12.972256 -19.319848 -15.735309 28.091563 -0.979491 2.165355 0.020833 -0.006598 82213.400000 0 0 1
13.121456 -18.014648 -14.916709 26.818061 -0.941278 2.160625 0.025428 -0.004689 -926506.000000 0 0 1
12.163856 -17.060048 -15.228009 25.901678 -0.951397 2.199276 0.027144 -0.008411 -246823.000000 0 0 1
12.450556 -15.763748 -14.669009 24.873519 -0.902292 2.201538 0.027726 -0.004203 16406.200000 0 1 0
11.174156 -14.933048 -14.390009 23.556954 -0.928395 2.227943 0.023689 -0.003431 206046.000000 0 1 0
10.437156 -14.504848 -15.519809 23.668319 -0.947061 2.285933 0.024727 0.003339 -1025410.000000 0 1 0
9.267656 -13.884948 -15.234309 22.600120 -0.982244 2.310516 0.029772 -0.001601 -797456.000000 0 1 0
8.463756 -13.208648 -16.407009 22.700077 -1.000934 2.378603 0.029223 -0.000591 152459.000000 0 1 0
8.995956 -12.008548 -16.977509 22.657632 -0.927853 2.417810 0.028323 0.005798 144045.000000 0 1 0
10.163356 -12.155548 -17.765109 23.804417 -0.874423 2.413274 0.040126 0.004461 103819.000000 0 1 0
10.226556 -10.978948 -18.721909 23.992283 -0.820864 2.465990 0.039788 0.003593 -306211.000000 0 1 0
9.284456 -11.037748 -19.741309 24.448973 -0.871460 2.510612 0.033826 0.003191 -114127.000000 0 1 0
9.260156 -9.880148 -20.551509 24.611630 -0.817779 2.558988 0.026452 -0.000055 104171.000000 0 1 0
8.815256 -10.105548 -22.005809 25.769876 -0.853487 2.594298 0.028189 0.003990 -5579.960000 0 0 1
9.896156 -10.633848 -22.731809 26.976801 -0.821315 2.572969 0.033688 -0.001975 -401175.000000 0 0 1
9.708256 -10.694848 -24.133209 28.125465 -0.833716 2.602268 0.036522 -0.006032 303399.000000 0 0 1
10.875356 -11.351848 -24.945109 29.485527 -0.806832 2.579257 0.063931 -0.006656 392763.000000 0 0 1
10.868356 -12.759348 -24.654109 29.811864 -0.865261 2.544529 0.059683 -0.015974 -561947.000000 0 0 1
11.964356 -13.422348 -25.188789 30.948027 -0.842766 2.521640 0.048832 -0.021267 -524953.000000 0 0 1
11.967356 -14.925048 -24.873809 31.379628 -0.894940 2.485979 0.048097 -0.021836 -319932.000000 0 0 1
10.823556 -15.570348 -25.371629 31.674985 -0.963340 2.499758 0.058501 -0.027950 -349072.000000 0 0 1
10.629556 -16.839548 -24.787009 31.795498 -1.007733 2.464785 0.059201 -0.025498 1078240.000000 0 0 1
9.361656 -17.636248 -25.301029 32.230730 -1.082799 2.473488 0.067534 -0.028268 1109510.000000 0 0 1
9.723656 -18.305148 -26.476529 33.624910 -1.082503 2.477389 0.068416 -0.031638 -264389.000000 0 0 1
8.598456 -18.904048 -27.058279 34.109338 -1.143919 2.486975 0.069514 -0.030922 -239777.000000 0 0 1
8.904056 -19.873448 -28.221939 35.647076 -1.149575 2.484390 0.053177 -0.025986 -85760.600000 0 0 1
9.782156 -20.969748 -28.032759 36.349092 -1.134315 2.451535 0.053573 -0.024846 1109.080000 0 0 1
9.567356 -21.876148 -29.083309 37.628965 -1.158519 2.454190 0.053489 -0.020192 21446.500000 0 0 1
10.419456 -23.160948 -28.976639 38.531029 -1.148049 2.421939 0.038215 -0.014296 -90035.300000 0 0 1
10.206556 -24.002848 -30.110589 39.836643 -1.168737 2.427750 0.039189 -0.009981 -50684.400000 0 0 1
10.695256 -25.342648 -30.067979 40.751953 -1.171447 2.400645 0.043549 -0.003204 46520.900000 0 0 1
10.162456 -26.279948 -28.956159 40.402603 -1.201808 2.369841 0.038408 -0.006981 16457.000000 0 0 1
10.738456 -26.013248 -27.698769 39.487027 -1.179298 2.348247 0.042025 -0.007644 -339968.000000 0 0 1
10.119456 -26.731648 -26.614799 39.055498 -1.208911 2.320553 0.032468 -0.001922 372018.000000 0 0 1
8.972856 -25.890748 -26.024329 37.790325 -1.237184 2.330423 0.017290 -0.004136 -272679.000000 0 0 1
9.521756 -24.771048 -25.466879 36.780846 -1.203818 2.335600 0.035353 -0.003719 -557476.000000 0 0 1
8.607656 -23.873348 -24.878709 35.538411 -1.224749 2.346266 0.015078 -0.004468 -204602.000000 0 0 1
9.128556 -22.422948 -24.704009 34.589120 -1.184178 2.366296 0.040148 -0.010339 591540.000000 0 0 1
10.017856 -22.311748 -23.559209 33.958915 -1.148779 2.337488 0.038567 -0.006009 538426.000000 0 0 1
11.052356 -21.367348 -23.737009 33.795913 -1.093441 2.349509 0.051932 -0.013013 -364568.000000 0 0 1
11.792356 -20.991248 -22.511709 32.961633 -1.058958 2.322613 0.040448 -0.006558 -375085.000000 0 0 1
11.047456 -20.254748 -21.551909 31.571916 -1.071472 2.322151 0.031966 -0.008935 5471.880000 0 0 1
10.788056 -18.881248 -21.846609 30.824633 -1.051699 2.358505 0.059835 -0.027855 -121085.000000 0 0 1
11.938656 -17.984348 -21.384109 30.385003 -0.984756 2.351489 0.052783 -0.020841 169079.000000 0 0 1
13.189656 -18.242148 -22.001909 31.477405 -0.944779 2.344759 0.050424 -0.021204 -642825.000000 0 0 1
14.085956 -17.228748 -21.778109 31.137276 -0.885425 2.345385 0.047887 -0.020014 -597266.000000 0 0 1
15.339956 -17.431248 -22.639509 32.430079 -0.849127 2.343540 0.027403 -0.014801 -917885.000000 0 0 1
16.454256 -17.995048 -22.026809 32.859468 -0.830095 2.305455 0.038313 -0.007380 -528192.000000 0 0 1
17.532656 -17.612648 -22.845209 33.756525 -0.787674 2.314155 0.037866 -0.006145 -372601.000000 0 0 1
18.939656 -17.903248 -22.299109 34.299958 -0.757275 2.278539 0.026984 0.000661 -86339.500000 0 0 1
19.140256 -19.333648 -22.186409 35.105215 -0.790425 2.254924 0.025103 -0.012255 271979.000000 0 0 1
20.534256 -19.582848 -22.092309 35.961281 -0.761687 2.232340 0.018478 -0.006150 363194.000000 0 0 1
20.801656 -21.068948 -21.629709 36.666794 -0.791782 2.201730 0.010034 -0.004791 -11375.400000 0 0 1
20.501056 -21.223348 -20.263509 35.795721 -0.802707 2.172548 0.027406 -0.003532 185706.000000 0 0 1
20.991156 -22.457848 -19.810509 36.571025 -0.819142 2.143254 0.029229 -0.000837 86127.200000 0 0 1
-16.687085 13.341591 28.828053 35.881938 -0.674446 0.637789 0.029566 -0.014504 329766.000000 0 0 1
-17.942385 13.988691 28.640773 36.577404 -0.662206 0.671293 0.019220 -0.014368 183685.000000 0 0 1
-18.466585 13.695491 27.385823 35.757020 -0.638127 0.698377 0.023674 -0.017560 -273429.000000 0 0 1
-19.732085 14.451391 27.013733 36.440906 -0.632129 0.735787 0.035946 -0.017179 -277592.000000 0 0 1
-19.459085 15.875291 27.021263 36.889422 -0.684319 0.748819 0.023458 -0.016036 678439.000000 0 0 1
-20.535185 16.562091 26.346103 37.284230 -0.678705 0.786074 0.021568 -0.011953 67864.800000 0 0 1
-20.504185 18.040691 26.668673 38.172061 -0.721573 0.797296 0.010950 -0.001165 720038.000000 0 0 1
-19.459785 18.860791 26.054553 37.593249 -0.769768 0.805065 0.044455 -0.010684 945887.000000 0 0 1
-18.233185 18.829991 26.761443 37.459210 -0.801499 0.775008 0.046757 -0.013820 -93144.700000 0 0 1
-17.029585 19.584791 26.176453 36.861599 -0.855072 0.781116 0.044869 -0.015124 -174253.000000 0 0 1
-17.049085 20.997591 26.365703 37.771952 -0.888809 0.798163 0.048468 -0.010816 772578.000000 0 0 1
-15.936385 21.626191 25.679643 37.163215 -0.935731 0.807930 0.063419 -0.017438 925138.000000 0 0 1
-16.150785 23.118491 25.658063 38.126744 -0.961005 0.832583 0.063103 -0.012827 483358.000000 0 0 1
-15.390085 23.793691 26.685653 38.924523 -0.996664 0.815404 0.060415 -0.009490 338651.000000 0 0 1
-15.628085 25.179891 26.616753 39.833597 -1.015326 0.839012 0.055066 -0.009758 -119944.000000 0 0 1
-14.994085 25.954191 27.762443 40.855793 -1.046925 0.823684 0.042779 -0.006676 667089.000000 0 0 1
-13.596785 26.190991 27.538183 40.363251 -1.091954 0.819949 0.041725 -0.009306 473418.000000 0 0 1
-13.061985 26.908191 28.629233 41.404096 -1.118874 0.807290 0.056991 -0.007835 1407990.000000 0 0 1
-11.481585 27.026591 28.721153 41.075151 -1.169073 0.796471 0.068732 -0.006625 1454530.000000 0 0 1
-10.886685 27.748691 27.683073 40.679998 -1.196918 0.822340 0.072026 -0.009151 -504374.000000 0 0 1
-9.492285 27.760791 27.772893 40.399239 -1.241328 0.812810 0.049806 -0.009265 -504129.000000 0 0 1
-8.757885 28.152291 26.489513 39.635165 -1.269197 0.838830 0.056400 -0.011264 -798402.000000 0 0 1
-7.375785 28.234191 26.563533 39.461285 -1.315271 0.832330 0.034457 -0.011120 -315098.000000 0 0 1
-6.715985 28.729091 25.377913 38.916623 -1.341151 0.860432 0.049139 -0.018541 972119.000000 0 0 1
-5.206785 28.323891 25.301933 38.334595 -1.388996 0.849939 0.026997 -0.013555 -68472.700000 0 0 1
-4.355685 28.955491 26.246973 39.322970 -1.421489 0.839988 0.033863 -0.019182 43484.500000 0 0 1
-2.987985 28.869491 25.915223 38.909823 -1.467664 0.841919 0.019487 -0.016239 187468.000000 0 0 1
-2.503985 29.762191 24.726513 38.774455 -1.486861 0.879286 0.009897 -0.017530 -922704.000000 0 0 1
-2.932185 29.258991 23.501473 37.643133 -1.470915 0.896532 0.004049 -0.006817 -18238.800000 0 0 1
-2.397885 30.106891 22.501773 37.663039 -1.491318 0.930479 -0.001173 -0.008326 -242537.000000 0 0 1
-2.774685 29.644891 21.069073 36.474981 -1.477471 0.954973 -0.003547 -0.003274 840387.000000 0 0 1
-4.156585 29.724091 20.669473 36.442089 -1.431858 0.967710 -0.003765 0.001131 1071150.000000 0 0 1
-4.999585 28.686791 21.168573 36.000504 -1.398248 0.942203 0.010427 0.003880 -331918.000000 0 0 1
-6.483285 28.761791 20.804273 36.084503 -1.349089 0.956305 0.016230 -0.001914 -468443.000000 0 0 1
-6.818085 28.735291 19.461273 35.368691 -1.337832 0.988145 0.015218 0.001517 -319972.000000 0 0 1
-7.679685 27.725591 19.032673 34.495341 -1.300582 0.986340 0.002040 0.008963 -829416.000000 0 0 1
-7.031985 26.386491 18.585173 33.031869 -1.310350 0.973216 -0.014215 0.011001 -84978.500000 0 0 1
-6.166585 26.338491 17.498773 32.217230 -1.340811 0.996613 -0.012617 0.013904 588455.000000 0 0 1
-4.814285 26.766291 17.740273 32.470431 -1.392835 0.992794 -0.010723 0.014016 779031.000000 0 0 1
-3.993185 26.862991 16.396673 31.724071 -1.423227 1.027626 -0.015854 0.010889 78100.400000 0 0 1
-3.627385 25.666091 15.835573 30.375508 -1.430396 1.022391 0.003526 0.005538 -395066.000000 0 0 1
-3.021485 25.974291 14.622373 29.960089 -1.454991 1.060929 0.019810 -0.010439 -513071.000000 0 0 1
-2.326385 24.759791 14.058273 28.567365 -1.477113 1.056285 0.005125 -0.003108 993646.000000 0 0 1
-1.188385 24.294091 14.849873 28.497961 -1.521919 1.022674 0.007617 -0.002540 1146550.000000 0 0 1
-0.385985 23.314391 14.203173 27.302745 -1.554242 1.023699 0.009368 -0.014063 219288.000000 0 0 1
0.789715 22.736191 15.030773 27.266869 1.536076 0.986939 0.001194 -0.012229 542360.000000 0 0 1
1.820715 23.700391 15.266573 28.250518 1.494125 0.999884 0.012843 -0.021604 -394421.000000 0 0 1
2.864515 23.119291 15.981173 28.250751 1.447523 0.969526 0.017150 -0.018217 -674225.000000 0 0 1
3.979715 24.148791 16.169173 29.333332 1.407465 0.986968 0.019765 -0.018212 -658430.000000 0 0 1
5.252015 23.579291 16.091773 29.026053 1.351635 0.983166 0.035636 -0.020893 -318271.000000 0 0 1
6.250615 24.597191 16.107773 30.059147 1.321945 1.005259 0.049942 -0.025332 -167162.000000 0 0 1
7.700015 24.104991 16.165273 30.027601 1.261605 1.002322 0.059261 -0.024280 -290980.000000 0 0 1
8.172315 23.517691 14.986373 29.059592 1.236354 1.028958 0.039587 -0.005396 -53445.700000 0 0 1
8.946515 24.426491 14.218673 29.645644 1.219708 1.070574 0.044329 -0.009362 -626473.000000 0 0 1
9.382815 23.667591 12.920973 28.550720 1.193361 1.101160 0.038518 -0.005780 -309396.000000 0 0 1
10.381015 22.700691 13.149673 28.213484 1.141889 1.085944 0.039421 -0.004603 -295417.000000 0 0 1
10.787915 22.161791 11.914773 27.376740 1.117781 1.120519 0.024890 -0.001476 -478050.000000 0 0 1
12.101915 21.420391 12.120173 27.426047 1.056531 1.113056 0.053635 -0.001059 -378693.000000 0 0 1
12.075315 20.275091 12.976673 26.931145 1.033638 1.068036 0.044247 -0.005340 -1188130.000000 0 0 1
13.357215 19.775091 13.053773 27.200558 0.976733 1.070246 0.053120 -0.003510 -788869.000000 0 0 1
13.739315 18.888691 14.276473 27.374606 0.941928 1.022162 0.058013 -0.011299 522661.000000 0 0 1
15.014415 18.225291 14.184873 27.546406 0.881697 1.029853 0.054061 -0.012108 715400.000000 0 0 1
15.314815 17.593791 15.421573 27.962652 0.854539 0.986628 0.038764 -0.016179 852949.000000 0 0 1
16.762815 16.982791 15.555373 28.484676 0.791917 0.993099 0.029785 -0.012897 794611.000000 0 0 1
17.060615 16.429791 16.865773 29.076741 0.766564 0.952014 0.026494 -0.012600 -266001.000000 0 0 1
18.224315 15.660091 16.760073 29.296145 0.709866 0.961743 0.014016 -0.010875 -220631.000000 0 0 1
18.819115 15.210391 18.129573 30.235682 0.679746 0.927784 0.014196 -0.008440 -343752.000000 0 0 1
19.347615 16.295591 18.859173 31.552256 0.699979 0.930152 0.014636 -0.004715 207697.000000 0 0 1
18.454115 17.200791 19.574773 31.931071 0.750261 0.910904 0.008340 -0.001673 -74712.500000 0 0 1
19.058415 18.265391 20.504373 33.425693 0.764154 0.910398 -0.006151 0.009138 -502175.000000 0 0 1
18.110415 19.019391 21.215073 33.760978 0.809874 0.891314 0.004159 0.021316 52158.900000 0 0 1
18.724815 19.901991 22.154173 35.178335 0.815864 0.889542 -0.005242 0.017680 -283574.000000 0 0 1
17.852915 21.128291 22.419473 35.605673 0.869226 0.889681 0.006786 0.018512 354663.000000 0 0 1
16.819515 20.750191 23.353173 35.480095 0.889642 0.852364 0.009209 0.017854 613283.000000 0 0 1
16.239315 21.964891 23.891223 36.289975 0.934159 0.852182 0.009484 0.005061 -179587.000000 0 0 1
15.516115 21.963191 25.213743 36.862778 0.955748 0.817579 0.022025 0.007221 149425.000000 0 0 1
14.378715 21.119591 25.147173 35.849196 0.973057 0.793337 0.019207 0.001520 8572.900000 0 0 1
13.713015 20.934491 26.406003 36.380993 0.990883 0.758573 0.020374 -0.001999 -276364.000000 0 0 1
12.865215 19.676891 26.372303 35.329762 0.991738 0.728068 0.040851 -0.010517 -353574.000000 0 0 1
13.520315 18.407691 26.287353 34.823367 0.937294 0.715330 0.020857 -0.009629 457870.000000 0 0 1
14.352815 18.061391 25.158803 34.134769 0.899315 0.742111 0.024469 -0.011319 364598.000000 0 0 1
13.525115 17.607691 23.900043 32.621642 0.915788 0.748598 0.046656 -0.015081 -108554.000000 0 0 1
13.026115 18.640391 23.048873 32.378918 0.960869 0.778670 0.047204 -0.009312 467069.000000 0 0 1
13.999515 19.380591 22.263473 32.668883 0.945229 0.821001 0.034174 -0.002043 572817.000000 0 0 1
14.644415 18.555091 21.098973 31.684648 0.902651 0.842090 0.033168 -0.000876 77355.300000 0 0 1
13.652915 18.145491 20.175973 30.376484 0.925752 0.844377 0.043508 -0.010586 77141.500000 0 0 1
14.095815 17.018091 19.479273 29.457587 0.879045 0.848292 0.038593 -0.013237 -358058.000000 0 0 1
12.970115 16.315591 18.744273 28.031592 0.899141 0.838359 0.029807 -0.009165 -276316.000000 0 0 1
12.497015 17.004191 17.609873 27.485005 0.937005 0.875376 0.052290 -0.011226 593222.000000 0 0 1
11.286415 16.479891 17.028373 26.247579 0.970304 0.864843 0.037055 -0.009807 990281.000000 0 0 1
10.894515 17.142291 15.645673 25.638558 1.004658 0.914433 0.040960 -0.006435 28416.700000 0 0 1
10.070115 18.288391 15.687273 26.114421 1.067470 0.926404 0.038347 -0.011875 102615.000000 0 0 1
9.674615 18.787391 14.433273 25.590693 1.095258 0.971569 0.020337 0.000676 -65057.200000 0 0 1
8.622415 19.916491 14.579773 26.145409 1.162229 0.979254 0.024635 -0.000611 699993.000000 0 0 1
7.326415 19.483191 14.986073 25.648654 1.211116 0.946800 -0.004746 0.000026 -81291.000000 0 0 1
6.459815 20.517591 15.326173 26.411973 1.265779 0.951732 0.014009 -0.001568 94539.900000 0 0 1
5.121815 20.021591 15.907573 26.079646 1.320353 0.914785 0.008006 -0.010715 -103699.000000 0 0 1
4.288515 19.286591 15.041473 24.831630 1.351999 0.920103 0.005466 -0.015733 198378.000000 0 1 0
3.073015 19.007691 15.757673 24.880514 1.410511 0.884943 0.004674 -0.014497 269782.000000 0 1 0
1.905015 18.452791 14.969773 23.837547 1.467924 0.891827 0.005493 -0.013010 -702710.000000 0 1 0
1.300115 19.478391 14.236373 24.161380 1.504149 0.940703 0.002961 -0.016296 -143505.000000 0 1 0
0.465815 18.808291 13.264773 23.020056 1.546035 0.956692 0.004792 -0.021609 233089.000000 0 1 0
-0.573185 19.725991 12.606773 23.417386 -1.541747 1.002317 0.016910 -0.020260 542680.000000 0 1 0
-1.652585 20.258291 13.391573 24.340575 -1.489401 0.988223 0.011504 -0.014161 105299.000000 0 1 0
-2.621085 20.765691 12.523473 24.391010 -1.445238 1.031600 0.015408 -0.015756 -28630.700000 0 1 0
-3.893185 21.303691 13.210273 25.367606 -1.390044 1.023063 0.014488 -0.016964 2241.960000 0 0 1
-4.641885 20.403491 13.984073 25.167515 -1.347099 0.981664 0.022584 -0.017488 -889587.000000 0 0 1
-5.619285 21.144291 14.588373 26.295969 -1.311042 0.982703 0.007633 -0.003450 -966715.000000 0 0 1
-6.365685 20.319891 15.670773 26.438476 -1.267207 0.936357 0.009605 -0.000653 -443838.000000 0 0 1
-7.266785 19.382191 15.121473 25.634633 -1.212095 0.939881 0.017468 -0.002906 271186.000000 0 0 1
-8.157685 18.746891 16.033673 25.982155 -1.160361 0.905740 0.014621 0.004325 1229580.000000 0 0 1
-9.306385 19.562791 16.760373 27.390175 -1.126762 0.912321 0.009558 0.014100 1256970.000000 0 0 1
-10.377085 20.027091 15.894873 27.593753 -1.092732 0.956931 0.012173 0.007567 282995.000000 0 0 1
-11.622285 19.897891 16.499073 28.341188 -1.042153 0.949415 0.011123 0.018581 97658.200000 0 0 1
-12.890485 19.850891 15.592673 28.343498 -0.994867 0.988274 0.010566 0.005590 419559.000000 0 0 1
-13.485785 21.094891 15.296973 29.340385 -1.001986 1.022350 0.001214 0.007352 -105448.000000 0 0 1
-14.354285 21.029591 14.182173 29.144866 -0.971861 1.062592 0.009769 -0.001485 -99180.900000 0 0 1
-15.439885 22.124791 14.317673 30.543283 -0.961512 1.082902 0.013386 -0.001270 -594222.000000 0 0 1
-16.394185 21.904191 15.290273 31.342548 -0.928288 1.061178 0.025967 -0.011829 -1011710.000000 0 0 1
-17.294685 22.962891 15.231273 32.532939 -0.925277 1.083566 0.028344 -0.017226 -663351.000000 0 0 1
-18.601485 22.729191 15.975673 33.434316 -0.884938 1.072622 0.045790 -0.024722 -716718.000000 0 0 1
-19.398885 21.692791 15.417673 32.933244 -0.841164 1.083601 0.047388 -0.022469 1507460.000000 0 0 1
-20.632385 21.389791 16.163273 33.830014 -0.803420 1.072672 0.043887 -0.017456 2246560.000000 0 0 1
-21.832185 22.398491 15.969573 35.119282 -0.798201 1.098734 0.044965 -0.023645 -83451.500000 0 0 1
-22.324885 22.454691 14.641473 34.885331 -0.788297 1.137678 0.057488 -0.021706 287589.000000 0 0 1
-23.185585 23.589691 14.571073 36.143617 -0.794037 1.155847 0.067803 -0.028954 277913.000000 0 0 1
-22.460685 24.804291 13.889273 36.230472 -0.834942 1.177366 0.051180 -0.023950 1064220.000000 0 0 1
-21.266285 25.293091 14.536773 36.101428 -0.871671 1.156370 0.035367 -0.021165 626636.000000 0 0 1
-20.834085 26.491191 13.975873 36.485165 -0.904370 1.177694 0.023166 -0.011411 897493.000000 0 0 1
-19.300785 26.790091 14.173673 35.932190 -0.946480 1.165320 0.021625 -0.009161 1260700.000000 0 0 1
-18.361685 26.103691 13.338973 34.590206 -0.957783 1.174907 0.027341 -0.010691 134135.000000 0 0 1
-17.066585 26.632991 13.535573 34.406340 -1.000911 1.166466 0.016768 -0.008687 26824.300000 0 0 1
-15.977985 25.888591 12.739473 32.981954 -1.017838 1.174227 0.029062 -0.013828 585582.000000 0 0 1
-14.649785 26.367491 12.982573 32.839122 -1.063664 1.164360 0.025166 -0.008591 557938.000000 0 0 1
-13.744385 25.758491 12.079173 31.596113 -1.080642 1.178513 0.027336 -0.011629 357799.000000 0 0 1
-12.326585 26.376491 12.101873 31.529657 -1.133623 1.176861 0.016984 -0.007734 -257491.000000 0 0 1
-11.272685 25.727691 11.406073 30.316431 -1.157837 1.185068 0.008042 -0.006049 738501.000000 0 0 1
-9.996985 26.226891 11.804573 30.448932 -1.206625 1.172678 0.013895 -0.003184 360160.000000 0 0 1
-9.586385 27.629091 11.268473 31.340771 -1.236826 1.203014 0.023864 -0.014778 -961626.000000 0 0 1
-8.367985 28.105091 11.785973 31.604247 -1.281415 1.188638 0.030840 -0.023336 -71241.100000 0 0 1
-8.051985 29.295091 11.121473 32.353113 -1.302562 1.219886 0.040519 -0.025112 -255904.000000 0 0 1
-6.721685 29.916891 11.606173 32.785738 -1.349788 1.208951 0.027473 -0.022112 -636235.000000 0 0 1
-5.629585 29.250991 11.107673 31.791399 -1.380663 1.213874 0.032587 -0.025542 -1599610.000000 0 0 1
-4.481585 29.675891 11.751973 32.231226 -1.420911 1.197578 0.036637 -0.029886 -453811.000000 0 0 1
-3.149385 29.173091 11.147573 31.388791 -1.463258 1.207727 0.042510 -0.039598 -53453.000000 0 0 1
-2.820385 29.838591 9.929673 31.573635 -1.476555 1.250874 0.062586 -0.043877 57060.000000 0 0 1
-1.743785 29.191191 9.281073 30.680689 -1.511131 1.263476 0.047158 -0.039434 29126.900000 0 0 1
-1.383685 29.994391 8.031773 31.081947 -1.524698 1.309424 0.036279 -0.033519 130792.000000 0 0 1
-2.356385 29.921591 6.994073 30.818358 -1.492207 1.341857 0.053560 -0.039437 304875.000000 0 0 1
-2.001485 30.692691 5.905573 31.319690 -1.505678 1.381103 0.048623 -0.030478 -46773.200000 0 0 1
11.198915 34.303991 -27.279509 45.236612 1.255244 2.218104 0.042991 -0.010337 58884.900000 0 0 1
11.311715 -34.316648 -25.911659 44.463483 -1.252385 2.192921 0.037446 -0.013664 200790.000000 0 0 1
12.575515 -33.776648 -25.594659 44.205114 -1.214383 2.188295 0.041125 -0.011589 -125916.000000 0 0 1
12.927115 -33.767148 -24.111509 43.459124 -1.205178 2.158930 0.029201 0.003507 -577260.000000 0 0 1
12.404315 -32.798448 -23.230709 42.062704 -1.209225 2.155902 0.040091 -0.003983 212777.000000 0 0 1
12.894715 -32.817048 -21.866309 41.489370 -1.196402 2.125903 0.024809 -0.004922 -45065.800000 0 0 1
14.297815 -32.196048 -21.652309 41.350157 -1.152871 2.121906 0.006135 0.000882 428424.000000 0 0 1
15.326515 -33.014548 -22.189109 42.628852 -1.136168 2.118255 0.023929 0.007643 527932.000000 0 0 1
16.664115 -32.647248 -21.848309 42.671819 -1.098840 2.108317 0.025050 0.006993 855171.000000 0 0 1
17.680815 -33.733548 -22.346709 44.158112 -1.088030 2.101408 0.011526 0.015403 404372.000000 0 0 1
18.998115 -33.507748 -21.850209 44.284638 -1.055013 2.086795 0.026535 0.015716 443604.000000 0 0 1
19.766115 34.186391 -22.066109 45.236288 1.046570 2.080360 0.015551 0.020573 257001.000000 0 0 1
21.258415 34.329391 -21.637509 45.810578 1.016344 2.062724 0.027629 0.027459 385876.000000 0 0 1
22.070315 -33.795548 -22.522409 46.222254 -0.992277 2.079749 0.028565 0.027794 1934920.000000 0 0 1
23.467015 -33.653148 -22.074309 46.588736 -0.961871 2.064411 0.023340 0.026031 2388130.000000 0 0 1
24.482515 -33.132448 -23.154509 47.257634 -0.934419 2.082844 0.032460 0.018724 266778.000000 0 0 1
24.443615 -31.777048 -23.487309 46.464231 -0.915106 2.100749 0.031059 0.014933 -179377.000000 0 0 1
23.292515 -31.265848 -24.130009 45.851411 -0.930514 2.124999 0.023460 0.024011 28207.100000 0 0 1
23.236415 -29.716648 -24.084309 44.755604 -0.907170 2.139013 0.029121 -0.004815 236435.000000 0 0 1
24.214315 -29.014348 -24.848909 45.228683 -0.875333 2.152449 0.037424 -0.002436 73872.400000 0 0 1
24.099415 -27.632248 -24.720709 44.220317 -0.853584 2.164018 0.031979 -0.009676 49026.100000 0 0 1
24.697715 -26.823348 -25.872999 44.708849 -0.826632 2.187930 0.025241 -0.008827 435122.000000 0 0 1
23.808515 -26.647548 -27.005009 44.790710 -0.841606 2.217947 0.022622 -0.007742 -82249.000000 0 0 1
24.549415 -26.123548 -28.044989 45.515217 -0.816453 2.234664 0.018975 -0.010755 -377022.000000 0 0 1
23.621215 -25.688848 -29.244169 45.531309 -0.827305 2.268275 0.012036 -0.006908 665005.000000 0 0 1
22.854715 -24.501248 -28.936839 44.271772 -0.820153 2.283152 0.029618 -0.013346 -328667.000000 0 0 1
21.613615 -24.866848 -28.390719 43.491855 -0.855276 2.282048 0.020189 -0.016276 -951911.000000 0 0 1
20.775615 -23.655348 -27.989719 42.126311 -0.850121 2.297519 0.027709 -0.012675 -390136.000000 0 0 1
20.114315 -22.977348 -29.021189 42.128062 -0.851741 2.330739 0.031647 -0.016033 -80588.400000 0 0 1
19.683115 -21.751948 -28.517979 40.912680 -0.835286 2.342064 0.030846 -0.008785 -310144.000000 0 0 1
18.723115 -20.995648 -29.475859 40.745534 -0.842551 2.379530 0.039491 -0.009130 -391279.000000 0 0 1
17.429815 -21.494348 -29.372999 40.355651 -0.889443 2.385983 0.037409 -0.012979 -501917.000000 0 0 1
16.582015 -21.113148 -30.443139 40.589567 -0.905029 2.418894 0.024961 -0.019630 -53111.600000 0 0 1
15.335715 -21.992948 -30.520509 40.624813 -0.961884 2.420792 0.027149 -0.023039 -469448.000000 0 0 1
15.688015 -23.299848 -30.922519 41.775578 -0.978209 2.404172 0.020934 -0.015982 -2373.640000 0 0 1
14.724515 -24.261048 -30.576109 41.717002 -1.025304 2.393432 0.028144 -0.014858 -131256.000000 0 0 1
15.194415 -25.636348 -31.075739 43.055710 -1.035769 2.377133 0.035397 -0.009929 44493.500000 0 0 1
14.279315 -26.636048 -30.668589 43.057407 -1.078695 2.363526 0.045759 -0.011713 -117084.000000 0 0 1
14.653015 -27.948248 -30.887349 44.157035 -1.087905 2.345478 0.060764 -0.010980 -26192.400000 0 0 1
13.868415 -29.069348 -30.107709 44.088934 -1.125652 2.322502 0.057043 -0.012581 169291.000000 0 0 1
14.096015 -29.234748 -28.690729 43.318888 -1.121517 2.294700 0.075488 -0.019897 -170766.000000 0 0 1
13.582115 -28.231648 -27.847419 41.916328 -1.122386 2.297430 0.062374 -0.011408 -449233.000000 0 0 1
14.203515 -28.043948 -26.468929 41.095098 -1.101983 2.270629 0.060925 -0.008182 -163206.000000 0 0 1
14.220315 -29.266848 -25.697629 41.462440 -1.118505 2.239260 0.058897 -0.006522 441887.000000 0 0 1
15.046115 -29.241048 -24.516709 41.018209 -1.095573 2.211429 0.052945 -0.012344 -328031.000000 0 0 1
14.433215 -28.367848 -23.356609 39.478902 -1.100143 2.203866 0.025598 -0.009181 337849.000000 0 0 1
13.290915 -28.870848 -22.708309 39.062022 -1.139362 2.191171 0.039845 -0.008177 -132188.000000 0 0 1
12.094815 -28.813348 -23.448609 39.068284 -1.173369 2.214542 0.042740 -0.004636 -1364020.000000 0 0 1
10.888115 -28.703048 -22.547709 38.089568 -1.208229 2.204292 0.019648 0.004281 -736064.000000 0 0 1
10.887915 -27.371948 -21.960609 36.742871 -1.192208 2.211405 0.012498 0.000160 -588857.000000 0 0 1
9.641215 -26.918248 -21.564809 35.813211 -1.226865 2.216984 0.012167 -0.002698 -1478700.000000 0 0 1
9.513715 -25.394748 -21.441209 34.570644 -1.212347 2.239812 0.016506 0.000543 -163407.000000 0 0 1
10.079815 -24.844548 -20.272309 33.612806 -1.185373 2.218194 0.020101 0.002231 -38121.600000 0 0 1
9.912215 -23.457948 -20.166309 32.483955 -1.171001 2.240570 0.017362 0.002247 -258573.000000 0 0 1
10.422115 -22.717448 -18.890909 31.330008 -1.140672 2.218009 0.003387 0.001059 -96253.800000 0 0 1
9.761915 -23.110948 -17.705909 30.706842 -1.171135 2.185371 0.014624 -0.004828 161051.000000 0 0 1
10.110915 -22.344248 -16.559409 29.592399 -1.145860 2.164679 0.009626 -0.005079 -185532.000000 0 0 1
9.307515 -22.851548 -15.322209 29.044676 -1.184010 2.126498 0.008197 -0.004812 115173.000000 0 0 1
9.498515 -24.190848 -14.852409 29.933476 -1.196643 2.089990 0.011925 -0.008196 20889.000000 0 0 1
8.998615 -24.375648 -13.520509 29.290808 -1.217152 2.050589 0.016326 -0.005742 -85017.700000 0 0 1
9.018415 -25.888148 -13.142609 30.401582 -1.235583 2.017838 0.019600 -0.005846 167861.000000 0 0 1
10.290815 -26.390048 -12.780209 31.075219 -1.198983 1.994640 0.016081 -0.007946 -118931.000000 0 0 1
10.523915 -27.771748 -13.108709 32.463226 -1.208573 1.986465 0.017348 -0.010485 56342.500000 0 0 1
11.937515 -28.269848 -12.597009 33.171874 -1.171240 1.960322 0.022827 -0.011386 1129400.000000 0 0 1
13.125815 -27.770748 -13.182309 33.425660 -1.129268 1.976186 0.019368 -0.005916 220854.000000 0 0 1
13.208215 -28.052448 -14.549909 34.250498 -1.130748 2.009547 0.025892 -0.008587 -817483.000000 0 0 1
14.587715 -27.658648 -15.132109 34.738782 -1.085454 2.021498 0.012056 -0.001430 564740.000000 0 0 1
15.725215 -28.444148 -14.783409 35.705758 -1.065771 1.997678 0.022219 0.001121 516391.000000 0 0 1
16.856315 -27.929848 -15.482309 36.109745 -1.027790 2.013913 0.034417 -0.002848 734037.000000 0 0 1
18.142215 -28.793948 -15.359609 37.338305 -1.008559 1.994746 0.034874 -0.008181 556939.000000 0 0 1
18.030715 -29.863248 -16.268809 38.491485 -1.027605 2.007175 0.023209 -0.002154 7369.290000 0 0 1
19.331915 -30.371848 -16.447709 39.581552 -1.003965 1.999332 0.029490 -0.001979 181058.000000 0 0 1
19.502615 -31.494348 -17.510309 40.973856 -1.016349 2.012359 0.024905 -0.002170 -137881.000000 0 0 1
19.340615 -32.812448 -17.006009 41.712354 -1.038186 1.990727 0.011699 0.007648 81964.600000 0 0 1
19.628615 -33.816448 -17.970409 43.032201 -1.044879 2.001603 0.010788 0.011061 -157002.000000 0 0 1
19.452915 33.584491 -17.457309 42.556921 1.045794 1.993482 0.002562 0.007873 157713.000000 0 0 1
20.452715 33.123791 -16.522209 42.290453 1.017635 1.972171 0.023452 0.003829 586925.000000 0 0 1
20.190015 31.775191 -16.046309 40.924118 1.004752 1.973709 0.017858 0.003050 -1099960.000000 0 0 1
21.215115 31.328791 -15.090209 40.734367 0.975553 1.950294 0.033110 -0.003276 -533282.000000 0 0 1
22.534215 31.082091 -15.623809 41.448650 0.943494 1.957291 0.035539 -0.000122 1049880.000000 0 0 1
23.512415 30.863891 -14.615309 41.461074 0.919780 1.931045 0.038094 -0.005214 173020.000000 0 0 1
23.322615 29.718991 -13.601709 40.151828 0.905410 1.916392 0.034583 -0.003596 -1297460.000000 0 0 1
23.398115 28.429791 -14.202509 39.464364 0.882179 1.938938 0.037430 0.003428 160603.000000 0 0 1
23.003115 27.378891 -13.325709 38.161780 0.872033 1.927503 0.019455 0.003026 846056.000000 0 0 1
21.447115 27.290091 -13.163609 37.121535 0.904716 1.933292 0.026506 -0.002040 -241027.000000 0 0 1
20.698815 26.671091 -14.167509 36.612926 0.910814 1.968122 0.025001 -0.005645 209737.000000 0 0 1
19.300515 26.550991 -13.991709 35.682389 0.942229 1.973729 0.033103 -0.008718 340525.000000 0 0 1
18.401015 27.829591 -13.895209 36.140840 0.986586 1.965434 0.027126 -0.009458 -419446.000000 0 0 1
18.341515 28.682391 -15.020809 37.211764 1.001860 1.986307 0.013245 -0.005880 135169.000000 0 0 1
17.729515 28.116891 -16.177309 36.967561 1.008206 2.023733 0.000425 0.002268 -246209.000000 0 0 1
17.928915 28.985091 -17.385609 38.260173 1.016844 2.042500 -0.006987 0.008126 -109690.000000 0 0 1
17.292915 30.242891 -17.432609 38.956042 1.051370 2.034758 -0.003649 0.001841 -154284.000000 0 0 1
17.320215 30.834391 -18.739409 40.023930 1.059002 2.058055 -0.011417 0.011092 193963.000000 0 0 1
16.238215 31.916491 -19.104609 40.587290 1.100156 2.060885 -0.012244 0.011266 267584.000000 0 0 1
16.425215 33.137391 -18.383009 41.301445 1.110619 2.032075 -0.013455 0.008859 58113.900000 0 0 1
15.608315 34.206191 -18.842409 42.056145 1.142715 2.035357 -0.010582 0.007175 -136321.000000 0 0 1
15.845315 -33.340348 -18.134109 41.127834 -1.127136 2.027420 -0.003788 0.001605 -252413.000000 0 0 1
14.882515 -32.331848 -18.401709 40.068199 -1.139406 2.047958 0.000857 -0.001155 47529.300000 0 0 1
14.534915 -31.624748 -17.241009 38.841226 -1.139983 2.030725 0.018439 -0.006848 484406.000000 0 0 1
13.331315 -30.618748 -17.329009 37.623480 -1.160152 2.049456 0.033442 -0.006379 1098570.000000 0 0 1
12.099615 -31.247048 -17.693309 37.892372 -1.201352 2.056619 0.026459 -0.007604 60736.500000 0 0 1
11.039415 -30.343248 -17.740409 36.841600 -1.221865 2.073198 0.009895 -0.000337 -461734.000000 0 0 1
9.691315 -30.950248 -18.073009 37.127794 -1.267342 2.079194 0.027060 -0.007607 -101154.000000 0 0 1
8.863315 -31.582048 -17.047509 36.967576 -1.297190 2.050084 0.033943 -0.009164 1309250.000000 0 0 1
7.715215 -32.348248 -17.394009 37.529791 -1.336666 2.052706 0.044519 -0.005935 1176860.000000 0 0 1
6.469815 -31.599048 -18.017209 36.945611 -1.368840 2.080213 0.033262 0.005621 126219.000000 0 0 1
6.438015 -31.201348 -19.411909 37.306760 -1.367314 2.118036 0.022067 0.010106 -7840.590000 0 0 1
6.400615 -32.238548 -20.343209 38.654081 -1.374806 2.125026 0.026412 -0.000863 -1052350.000000 0 0 1
6.600615 -31.730248 -21.794409 39.056024 -1.365699 2.162805 0.017172 0.010172 1126160.000000 0 0 1
7.968615 -31.330548 -22.108209 39.164716 -1.321737 2.170615 0.018037 0.003698 2431740.000000 0 0 1
9.031115 -32.335248 -22.039109 40.160324 -1.298440 2.151698 0.019509 -0.003832 358538.000000 0 0 1
8.985315 -33.466848 -23.070209 41.629321 -1.308498 2.158176 0.027593 -0.003293 -435259.000000 0 0 1
7.898615 -34.337848 -22.816009 41.976734 -1.344703 2.145444 0.029013 -0.016846 96910.200000 0 0 1
7.611415 33.580691 -23.797909 41.856145 1.347902 2.175556 0.029703 -0.024380 -199833.000000 0 0 1
6.534515 32.464791 -23.460609 40.584020 1.372170 2.187164 0.049670 -0.032824 1596370.000000 0 0 1
5.159515 32.865291 -23.614509 40.796972 1.415078 2.188089 0.057502 -0.026672 942885.000000 0 0 1
4.664015 33.839591 -22.715009 41.022464 1.433832 2.157623 0.044953 -0.024387 -357588.000000 0 0 1
3.296815 34.396491 -23.209509 41.625339 1.475241 2.162266 0.029678 -0.018499 672190.000000 0 0 1
2.150015 33.572491 -23.040909 40.775215 1.506843 2.171316 0.025187 -0.025257 1205300.000000 0 0 1
0.942415 34.272991 -23.422909 41.522990 1.543306 2.170133 0.019143 -0.013835 569539.000000 0 0 1
-0.353785 33.601291 -22.959109 40.697575 -1.560268 2.170187 0.016084 -0.016046 -311824.000000 0 0 1
-0.667085 33.848491 -21.603709 40.160747 -1.551091 2.138777 0.007024 -0.011149 -664476.000000 0 0 1
-1.769185 33.198091 -21.096109 39.373710 -1.517555 2.136242 0.010189 -0.006229 -690798.000000 0 0 1
-1.917285 33.447691 -19.579309 38.804295 -1.513537 2.099675 0.016372 -0.003375 386433.000000 0 0 1
-0.862085 32.969991 -18.757609 37.942211 -1.544655 2.087910 0.017352 -0.017093 231668.000000 0 0 1
-1.410385 32.696191 -17.478509 37.101595 -1.527687 2.061332 0.008882 -0.017138 399905.000000 0 0 1
-0.513685 31.758591 -16.585309 35.832170 -1.554623 2.052016 0.000182 -0.019054 48766.000000 0 0 1
0.618215 32.368691 -16.040109 36.130312 1.551699 2.030800 0.009890 -0.017793 -917201.000000 0 0 1
1.394115 31.312791 -15.596809 35.009925 1.526303 2.032525 0.022706 -0.021011 -852096.000000 0 0 1
2.323415 31.645191 -14.480209 34.878257 1.497507 1.998920 0.028704 -0.025793 -1383080.000000 0 0 1
3.389015 32.427491 -14.831209 35.818882 1.466664 1.997708 0.028644 -0.028823 -1132440.000000 0 0 1
3.958115 33.064091 -13.727909 36.018832 1.451653 1.961816 0.027000 -0.033275 -298693.000000 0 0 1
5.342915 33.643691 -14.060909 36.853139 1.413303 1.962257 0.045873 -0.039588 -377187.000000 0 0 1
6.322115 32.671691 -14.196109 36.179248 1.379654 1.974017 0.040394 -0.034261 -404083.000000 0 0 1
7.437115 33.131191 -14.964709 37.106994 1.349982 1.985901 0.035290 -0.023348 388231.000000 0 0 1
8.444815 32.010191 -15.233809 36.442230 1.312857 2.002068 0.030658 -0.027896 -319226.000000 0 0 1
9.088415 31.528691 -14.082909 35.706945 1.290146 1.976214 0.021875 -0.032877 -559230.000000 0 0 1
9.947115 30.468691 -14.397609 35.136553 1.255235 1.992989 0.028577 -0.031550 -115420.000000 0 0 1
9.410615 29.033591 -14.129209 33.632478 1.257353 2.004359 0.030768 -0.023109 356445.000000 0 0 1
8.560815 28.480691 -15.181009 33.390123 1.278805 2.042782 0.026461 -0.029260 508980.000000 0 0 1
8.100015 27.232391 -14.760409 32.016918 1.281689 2.049940 0.029418 -0.016873 29621.000000 0 0 1
7.299215 26.350991 -15.805409 31.582657 1.300572 2.094910 0.033173 -0.009906 703902.000000 0 0 1
8.156215 25.642391 -16.685009 31.661421 1.262840 2.125842 0.039697 -0.002207 159678.000000 0 0 1
7.366115 24.812491 -17.487209 31.236546 1.282212 2.164979 0.028844 0.007376 450838.000000 0 0 1
8.259315 23.918291 -18.425509 31.301762 1.238302 2.200173 0.038097 0.015511 352858.000000 0 0 1
7.544515 22.979091 -19.194909 30.877222 1.253564 2.241647 0.041991 0.009430 160455.000000 0 0 1
8.468415 22.051991 -19.791109 30.817079 1.204141 2.268177 0.041749 0.007438 548748.000000 0 0 1
7.897015 21.027791 -20.917409 30.693140 1.211542 2.320608 0.026095 -0.002596 267456.000000 0 0 1
7.069015 19.985191 -20.433709 29.443425 1.230818 2.337825 0.027510 -0.003033 163743.000000 0 0 1
6.479515 19.286491 -21.533909 29.625362 1.246682 2.384556 0.026843 0.005315 181369.000000 0 0 1
24.829615 -12.789609 -9.041809 29.357081 -0.475651 1.883880 0.037511 0.006103 -153661.000000 0 0 1
25.041915 -11.637609 -8.193509 28.803907 -0.435032 1.859238 0.045906 -0.010246 681819.000000 0 0 1
24.224515 -11.753309 -7.020809 27.825513 -0.451723 1.825869 0.045951 -0.009155 -329717.000000 0 0 1
24.974015 -11.309709 -5.731009 28.008131 -0.425229 1.776871 0.034495 -0.013389 -433998.000000 0 0 1
25.187015 -9.901909 -5.481209 27.612989 -0.374575 1.770625 0.055840 -0.015011 624309.000000 0 0 1
25.962115 -9.214309 -6.467109 28.297675 -0.341046 1.801373 0.043457 -0.016296 -855259.000000 0 0 1
26.089515 -7.770909 -5.945009 27.863829 -0.289488 1.785809 0.072217 -0.021042 276681.000000 0 0 1
26.965815 -7.528109 -4.796309 28.404792 -0.272241 1.740465 0.096814 -0.025344 1304300.000000 0 0 1
28.359515 -7.755609 -4.989109 29.821180 -0.266948 1.738888 0.090705 -0.025517 281892.000000 0 0 1
29.114615 -7.821909 -3.617609 30.363303 -0.262462 1.690224 0.094203 -0.026961 -16984.400000 0 0 1
29.257915 -6.525609 -2.993809 30.125937 -0.219446 1.670337 0.094533 -0.017904 511353.000000 0 0 1
29.910515 -6.576809 -1.703609 30.672392 -0.216439 1.626367 0.075672 -0.011978 189153.000000 0 0 1
30.091615 -5.203409 -0.999609 30.554541 -0.171226 1.603518 0.071050 -0.013174 202908.000000 0 0 1
28.819515 -4.674709 -0.653409 29.203498 -0.160806 1.593173 0.080290 -0.012200 168831.000000 0 0 1
28.763415 -3.359009 -0.124109 28.959150 -0.116254 1.575082 0.068465 -0.011412 -244578.000000 0 0 1
29.339415 -3.065409 1.292891 29.527437 -0.104103 1.526996 0.068064 -0.014267 -137778.000000 0 0 1
28.597015 -3.612409 2.358791 28.920627 -0.125656 1.489145 0.068583 -0.021815 793123.000000 0 0 1
29.412415 -3.640709 3.578491 29.852144 -0.123155 1.450634 0.063402 -0.021418 422024.000000 0 0 1
28.847015 -4.564009 4.645291 29.572947 -0.156914 1.413064 0.060403 -0.023302 -770530.000000 0 0 1
29.172515 -5.899709 4.286391 30.070174 -0.199544 1.427763 0.064085 -0.027998 164420.000000 0 0 1
29.207115 -6.718609 5.420391 30.456131 -0.226100 1.391869 0.055351 -0.039699 -258248.000000 0 0 1
30.185815 -7.908009 5.369391 31.663076 -0.256220 1.400394 0.036893 -0.035303 -431169.000000 0 0 1
31.492215 -7.580309 5.750891 32.898228 -0.236211 1.395085 0.047724 -0.031868 -124615.000000 0 0 1
32.294915 -8.786209 5.744991 33.958267 -0.265632 1.400801 0.049359 -0.027543 115431.000000 0 0 1
33.814115 -8.608409 5.881491 35.384898 -0.249285 1.403807 0.054177 -0.029845 -364745.000000 0 0 1
34.358215 -7.934609 4.758891 35.582186 -0.226959 1.436651 0.065980 -0.030247 -66499.300000 0 0 1
-35.582827 -7.809909 4.970191 36.767309 0.216059 1.435202 0.066368 -0.025215 124224.000000 0 0 1
-34.801327 -7.334009 3.724791 35.760231 0.207700 1.466447 0.061226 -0.023985 -133665.000000 0 0 1
-34.862027 -8.394209 2.799091 35.967465 0.236286 1.492895 0.063600 -0.022674 397756.000000 0 0 1
-33.873027 -8.345409 1.782091 34.931413 0.241562 1.519757 0.074225 -0.020321 -21397.500000 0 0 1
-33.649827 -9.664109 0.965291 35.023387 0.279669 1.543232 0.064801 -0.014075 -331067.000000 0 0 1
-33.111027 -10.704809 1.716391 34.840767 0.312694 1.521513 0.053293 -0.012493 184094.000000 0 0 1
-32.803227 -11.851709 0.899391 34.890165 0.346703 1.545016 0.045528 -0.014362 -461392.000000 0 0 1
-32.619127 -13.129509 1.770991 35.206929 0.382668 1.520473 0.035838 -0.019764 641250.000000 0 0 1
-31.347127 -13.421409 2.344991 34.180046 0.404539 1.502135 0.032771 -0.019026 92972.600000 0 0 1
-30.378827 -13.926109 1.472391 33.451122 0.429830 1.526766 0.034503 -0.009447 -608843.000000 0 0 1
-29.092027 -14.250809 2.246591 32.472739 0.455497 1.501557 0.028293 -0.008670 -30918.000000 0 0 1
-28.336027 -13.105909 2.704791 31.337057 0.433215 1.484376 0.025135 -0.010891 -202407.000000 0 0 1
-27.114527 -13.510009 3.215491 30.464033 0.462252 1.465049 0.025578 -0.007780 -527151.000000 0 0 1
-26.158727 -12.301909 3.539691 29.122936 0.439590 1.448952 0.028748 -0.006500 -68615.900000 0 0 1
-24.944327 -12.775409 4.047791 28.316340 0.473326 1.427356 0.025512 -0.004982 -122897.000000 0 0 1
-24.220427 -11.820109 4.805491 27.375843 0.454020 1.394344 0.021567 -0.001843 71119.100000 0 0 1
-22.999027 -12.457009 5.511091 26.730216 0.496396 1.363132 0.033869 0.008431 -47757.200000 0 0 1
-23.203927 -13.182109 6.716191 27.519038 0.516632 1.324250 0.033712 -0.005497 -130977.000000 0 0 1
-21.981327 -13.664109 7.225191 26.871732 0.556168 1.298569 0.049127 -0.000732 209714.000000 0 0 1
-21.434127 -12.917209 8.468291 26.419463 0.542363 1.244505 0.053932 -0.005651 -308156.000000 0 0 1
-21.164527 -11.517409 8.335191 25.496339 0.498367 1.237757 0.053963 -0.013273 405106.000000 0 0 1
-22.259227 -10.676609 8.634291 26.153664 0.447234 1.234348 0.058522 -0.018030 -587102.000000 0 0 1
-22.752927 -10.573809 10.133891 27.059136 0.435030 1.186929 0.054726 -0.011555 -48737.300000 0 0 1
-23.475627 -11.693909 10.639491 28.302850 0.462150 1.185411 0.047501 -0.017818 947449.000000 0 0 1
-24.841127 -11.803109 10.205691 29.335151 0.443566 1.215466 0.039671 -0.015919 474992.000000 0 0 1
-25.874027 -11.329409 11.249591 30.403521 0.412719 1.191777 0.041226 -0.012695 -404555.000000 0 0 1
-25.851527 -12.099609 12.430891 31.132443 0.437756 1.160053 0.030449 -0.011772 997644.000000 0 0 1
-26.916427 -11.699209 13.346591 32.241232 0.410015 1.143996 0.015985 -0.008340 857000.000000 0 0 1
-26.790027 -12.489809 14.687091 33.006234 0.436253 1.109645 0.008473 0.001650 -133628.000000 0 0 1
-27.053727 -13.854809 14.519191 33.684815 0.473298 1.125162 -0.000137 0.000383 343434.000000 0 0 1
-26.791427 -14.471909 15.764391 34.288959 0.495264 1.093081 0.002146 0.007226 -726605.000000 0 0 1
-26.507327 -16.014109 15.646891 34.697482 0.543457 1.102965 -0.007695 0.014526 -330880.000000 0 0 1
-27.597927 -16.878709 15.400191 35.828791 0.548900 1.126495 -0.019132 0.013566 -14439.800000 0 0 1
-27.107427 -18.217509 15.545691 36.171242 0.591719 1.126547 -0.010324 0.013568 -46823.000000 0 0 1
-28.010627 -19.300509 16.189091 37.672159 0.603334 1.126596 -0.023941 0.013862 -211183.000000 0 0 1
-28.296327 -19.106209 17.576391 38.401287 0.593900 1.095386 -0.010729 0.013967 97956.900000 0 0 1
-28.994127 -20.111709 18.278891 39.739880 0.606450 1.092842 0.003810 0.005940 -220698.000000 0 0 1
-28.132927 -21.360409 18.621891 39.931234 0.649406 1.085637 -0.001195 0.007202 -746591.000000 0 0 1
-27.095927 -21.065409 19.470991 39.459602 0.660832 1.054755 0.017926 0.005403 -754338.000000 0 0 1
-26.398727 -22.218009 19.793291 39.778224 0.699616 1.049977 0.024416 0.005037 113431.000000 0 0 1
-24.948327 -22.031109 20.326991 38.999684 0.723382 1.022529 0.044301 0.009214 386452.000000 0 0 1
-23.924327 -21.743009 19.399691 37.702518 0.737669 1.030318 0.048582 0.004200 192298.000000 0 0 1
-22.697827 -21.622509 20.111591 37.245138 0.761141 1.000384 0.048273 0.008601 -205514.000000 0 0 1
-21.572127 -21.263509 19.159591 35.841085 0.778194 1.006797 0.045169 0.004780 -567554.000000 0 0 1
-21.256127 -22.254609 18.154791 35.730757 0.808342 1.037819 0.043517 0.002281 485987.000000 0 0 1
-19.978527 -22.101809 17.558591 34.582302 0.835813 1.038245 0.049292 0.000175 121244.000000 0 0 1
-19.749427 -23.052309 16.349991 34.478559 0.862413 1.076733 0.047532 0.005530 -511068.000000 0 0 1
-19.733327 -24.444509 16.671491 35.565107 0.891638 1.082910 0.049998 -0.005025 244511.000000 0 0 1
-18.564427 -25.003409 17.252291 35.601263 0.932128 1.064893 0.057824 -0.013221 695407.000000 0 0 1
-17.232127 -25.104329 16.418591 34.593983 0.969242 1.076277 0.054832 -0.016208 412494.000000 0 0 1
-16.568427 -23.903009 16.294991 33.337567 0.964681 1.060097 0.052037 -0.014515 361432.000000 0 0 1
-15.382727 -24.051209 15.483491 32.478107 1.001780 1.073858 0.053342 -0.013491 723962.000000 0 0 1
-14.567627 -22.777609 15.286891 31.060011 1.001796 1.056212 0.047655 -0.010401 63708.100000 0 0 1
-15.229827 -21.865609 14.383891 30.281163 0.962410 1.075820 0.050982 -0.007886 128061.000000 0 0 1
-16.090227 -20.904109 15.023291 30.357478 0.914796 1.053100 0.054228 -0.006511 -178121.000000 0 0 1
-15.569127 -19.837209 16.048091 29.890698 0.905365 1.004047 0.044754 -0.000891 -801601.000000 0 0 1
-15.044927 -18.719309 15.429191 28.545092 0.893796 0.999741 0.043769 -0.001522 -145945.000000 0 0 1
-14.845027 -17.594009 16.309191 28.211942 0.869939 0.954404 0.022666 -0.000081 -528555.000000 0 0 1
-14.173027 -16.354109 15.546391 26.646235 0.856724 0.947843 0.024132 0.001126 323827.000000 0 0 1
-14.946227 -15.710409 14.548291 26.112438 0.810320 0.979858 0.045044 -0.011253 65812.400000 0 0 1
-14.968727 -16.419209 13.357391 25.924373 0.831577 1.029503 0.042569 -0.012362 182913.000000 0 0 1
-15.853827 -15.673609 12.282191 25.453056 0.779682 1.067241 0.040247 -0.008237 284119.000000 0 0 1
-17.230627 -15.697009 12.592091 26.492477 0.738856 1.075482 0.039739 -0.015389 -63973.200000 0 0 1
-17.965927 -14.626009 12.036091 26.106745 0.683278 1.091637 0.044454 -0.012637 -610355.000000 0 0 1
-19.470027 -14.760009 12.280591 27.345068 0.648658 1.105042 0.046295 -0.016093 -66432.700000 0 0 1
-20.206827 -15.881809 11.756691 28.262475 0.666123 1.141774 0.056990 -0.018017 280349.000000 0 0 1
-20.316927 -15.910709 10.363991 27.809000 0.664367 1.188896 0.054262 -0.012319 -471505.000000 0 0 1
-21.342127 -16.894709 9.772891 28.921047 0.669606 1.226094 0.056691 -0.007507 86659.300000 0 0 1
-20.785927 -18.216609 9.817291 29.330510 0.719618 1.229496 0.066963 -0.001116 131747.000000 0 0 1
-21.442927 -19.132109 8.954291 30.100100 0.728508 1.268740 0.065627 -0.004453 72718.300000 0 0 1
-20.808627 -20.547809 8.944991 30.581437 0.779092 1.273959 0.064494 0.002555 782632.000000 0 0 1
-19.563627 -20.833709 8.291891 29.757930 0.816828 1.288414 0.072917 0.003079 427325.000000 0 0 1
-19.133227 -22.202209 8.361891 30.478512 0.859508 1.292879 0.066829 0.001783 125929.000000 0 0 1
-17.859627 -22.536109 7.552491 29.730163 0.900652 1.313947 0.055955 -0.006015 325056.000000 0 0 1
-16.747727 -21.919309 8.218391 28.783405 0.918356 1.281242 0.041678 -0.012052 566242.000000 0 0 1
-15.526127 -22.326409 7.577591 28.230286 0.963154 1.299043 0.046018 -0.008871 795337.000000 0 0 1
-14.256327 -21.770209 8.306791 27.316435 0.991016 1.261808 0.001815 -0.011698 376740.000000 0 0 1
-13.094027 -22.256209 7.657591 26.933828 1.039001 1.282508 0.012100 -0.005483 -295190.000000 0 0 1
-11.906227 -21.941209 8.353091 26.323925 1.073620 1.247895 0.014496 -0.006768 517090.000000 0 0 1
-10.647827 -22.465809 7.608291 25.999517 1.128199 1.273818 0.008096 -0.000154 310549.000000 0 0 1
-10.647827 -23.842409 7.554091 27.182733 1.150780 1.289189 0.009182 0.003247 288823.000000 0 0 1
-9.333627 -24.247609 7.158291 26.950033 1.203349 1.301956 0.022705 -0.002481 681452.000000 0 0 1
-9.275727 -25.768699 7.137291 28.302048 1.225275 1.315861 0.022871 -0.002921 362809.000000 0 0 1
-10.137627 -26.400999 6.131691 28.937551 1.204170 1.357284 0.026955 -0.004780 310478.000000 0 0 1
-10.119727 -27.822429 6.233491 30.254799 1.221947 1.363277 0.041790 0.002080 659352.000000 0 0 1
-8.920127 -28.572349 5.541691 30.441060 1.268190 1.387729 0.041440 -0.003879 837221.000000 0 0 1
-7.619227 -28.265089 6.057791 29.894226 1.307492 1.366742 0.045093 -0.010799 135116.000000 0 0 1
-6.544927 -29.055369 5.631191 30.311068 1.349237 1.383931 0.047227 -0.006440 195799.000000 0 0 1
-6.517427 -30.502089 6.221891 31.805129 1.360290 1.373901 0.050711 -0.014253 -547365.000000 0 0 1
-6.520027 -30.476099 7.684291 32.099092 1.360034 1.329056 0.045441 -0.011751 172907.000000 0 0 1
-6.700527 -31.741959 8.219691 33.466586 1.362757 1.322649 0.068487 -0.015440 -125504.000000 0 0 1
-6.762627 -31.743049 9.756491 33.890167 1.360892 1.278778 0.060435 -0.022534 155620.000000 0 0 1
-5.579127 -31.456369 10.487491 33.624653 1.395261 1.253605 0.042221 -0.009878 605466.000000 0 0 1
-5.824127 -31.932469 11.780791 34.531002 1.390390 1.222640 0.031085 -0.004885 -86712.000000 0 0 1
-5.036127 -31.053669 12.755991 33.947139 1.410021 1.185579 0.031155 -0.006102 157846.000000 0 0 1
-5.699127 -29.812579 13.025691 33.029359 1.381910 1.165417 0.026712 -0.003156 273364.000000 0 0 1
-4.918127 -28.970049 13.829791 32.476374 1.402634 1.130904 0.012178 -0.011825 -323330.000000 0 0 1
-5.733127 -28.279239 14.982791 32.512584 1.370775 1.091866 0.022657 -0.014238 -426668.000000 0 0 1
-6.282127 -29.179399 15.870491 33.804954 1.358740 1.082103 0.020297 -0.018931 103089.000000 0 0 1
-5.332127 -29.560329 16.851291 34.441409 1.392334 1.059539 -0.007277 -0.004949 139027.000000 0 0 1
-5.574127 -30.994309 17.303491 35.932282 1.392855 1.068364 0.012118 -0.011073 -7396.310000 0 0 1
-5.236127 -31.984919 16.336491 36.295083 1.408530 1.103917 0.012673 -0.006827 154264.000000 0 0 1
-5.696127 -33.300699 16.696391 37.684903 1.401385 1.111796 0.013976 -0.008397 -17984.700000 0 0 1
-5.125127 34.406141 15.838591 38.221858 -1.422924 1.143529 0.006569 -0.006876 -42005.100000 0 0 1
-5.683127 -34.347382 14.564291 37.738034 1.406822 1.174579 0.035546 -0.015233 238847.000000 0 0 1
-5.307127 33.316249 13.913391 36.492746 -1.412828 1.179633 0.018037 -0.010721 411617.000000 0 0 1
-4.115127 33.429957 12.903891 36.069470 -1.448316 1.204938 0.027823 -0.017204 546899.000000 0 0 1
-4.503127 33.902866 11.639391 36.126969 -1.438745 1.242765 0.032510 -0.019549 -138893.000000 0 0 1
-3.342127 34.229076 10.938791 36.089564 -1.473465 1.262851 0.043402 -0.025317 -747382.000000 0 0 1
-3.611127 -34.200978 9.411991 35.655753 1.465601 1.303662 0.038659 -0.029217 -508298.000000 0 0 1
-3.905127 33.661745 8.412991 34.916207 -1.455302 1.327454 0.048910 -0.035159 103902.000000 0 0 1
-4.720127 32.549839 8.681691 34.016810 -1.426788 1.312724 0.056855 -0.036620 1197620.000000 0 0 1
-6.223127 32.831427 9.138591 34.643091 -1.383471 1.303844 0.068631 -0.030860 702850.000000 0 0 1
-7.018027 33.320477 8.112991 35.004678 -1.363208 1.336901 0.080825 -0.033252 -527322.000000 0 0 1
-8.383027 33.408901 8.474491 35.471775 -1.324950 1.329555 0.080162 -0.025615 407773.000000 0 0 1
-9.321627 33.798494 7.301291 35.812564 -1.301686 1.365482 0.076224 -0.026138 -79210.300000 0 0 1
-9.302727 -33.672599 7.007391 35.629878 1.301250 1.372834 0.094350 -0.022721 -198879.000000 0 0 1
-9.935527 -33.465599 5.806091 35.388864 1.282197 1.405986 0.075108 -0.014512 -895385.000000 0 0 1
-10.105827 -32.013949 5.457391 34.011819 1.265027 1.409644 0.061305 -0.012611 -178198.000000 0 0 1
-11.154827 -31.363239 6.102991 33.842716 1.229083 1.389470 0.058482 -0.008172 -446661.000000 0 0 1
-12.435927 -31.583499 5.535891 34.392089 1.195692 1.409129 0.051853 -0.004632 157075.000000 0 0 1
-13.438827 -30.585789 6.256891 33.988840 1.156808 1.385654 0.040991 -0.003973 298186.000000 0 0 1
-13.842527 -30.895959 7.582691 34.693992 1.149576 1.350459 0.060438 -0.009605 -114904.000000 0 0 1
-14.704727 -29.949629 8.156991 34.347428 1.114389 1.331021 0.046823 -0.005194 -329365.000000 0 0 1
32.739816 -13.042209 -12.940009 37.542491 -0.379091 1.922690 0.011619 -0.016467 -858434.000000 0 0 1
31.806526 -12.962909 -11.952109 36.366813 -0.387002 1.905675 0.010787 -0.016177 -802702.000000 0 0 1
31.518166 -14.241009 -11.369109 36.406837 -0.424379 1.888388 0.013007 -0.016072 26463.400000 0 0 1
32.524716 -14.948709 -10.391709 37.273432 -0.430817 1.853337 0.006643 -0.017190 -344588.000000 0 0 1
33.785216 -15.155609 -10.946109 38.612830 -0.421678 1.858221 0.016461 -0.020702 -1793620.000000 0 0 1
34.601996 -15.553909 -9.920809 39.212813 -0.422446 1.826575 0.021302 -0.019651 -1220390.000000 0 0 1
-35.361213 -15.829209 -10.526009 40.146932 0.420892 1.836084 0.012333 -0.018985 -769567.000000 0 0 1
-34.799403 -14.678809 -11.132309 39.375046 0.399167 1.857430 0.009011 -0.017072 -1060010.000000 0 0 1
-33.422745 -14.827809 -11.120009 38.217776 0.417556 1.866031 0.017319 -0.009895 -1009290.000000 0 0 1
-32.696165 -13.564709 -11.462209 37.207833 0.393261 1.883949 0.029558 -0.015108 -415833.000000 0 0 1
-32.926375 -12.529909 -10.514209 36.765383 0.363622 1.860827 0.040958 -0.015302 -34257.100000 0 0 1
-32.372255 -11.341209 -10.937609 36.003017 0.336975 1.879472 0.040991 -0.016521 -10572.900000 0 0 1
-32.796395 -10.215709 -9.928209 35.756588 0.301963 1.852155 0.039790 -0.021678 645531.000000 0 0 1
-31.943035 -10.146009 -8.772309 34.644659 0.307550 1.826791 0.045855 -0.015152 588341.000000 0 0 1
-32.622055 -9.418809 -7.760809 34.830197 0.281081 1.795501 0.055637 -0.013061 111947.000000 0 0 1
-31.873005 -9.356009 -6.421109 33.832736 0.285520 1.761744 0.048250 0.000083 173827.000000 0 0 1
-30.806705 -8.380109 -6.254809 32.533090 0.265596 1.764261 0.056629 -0.013196 788424.000000 0 0 1
-30.387925 -8.158509 -4.934909 31.848714 0.262293 1.726372 0.057615 -0.005982 -365667.000000 0 0 1
-29.640565 -9.262109 -4.202109 31.336999 0.302867 1.705296 0.055167 -0.001879 -1080720.000000 0 0 1
-30.296085 -10.489809 -4.067309 32.317671 0.333324 1.696985 0.058490 -0.004556 -154166.000000 0 0 1
-31.102775 -10.476309 -2.917609 32.949175 0.324893 1.659461 0.043036 -0.006631 -284263.000000 0 0 1
-31.551025 -11.887209 -2.488509 33.807775 0.360314 1.644471 0.050776 -0.006798 -626377.000000 0 0 1
-32.674415 -12.271909 -3.227309 35.051857 0.359280 1.662999 0.046716 -0.016203 -211428.000000 0 0 1
-33.104255 -13.533309 -2.829409 35.875447 0.388077 1.649746 0.039761 -0.020095 -963110.000000 0 0 1
-34.597151 -13.612809 -2.584309 37.268621 0.374861 1.640195 0.019607 -0.016667 -841589.000000 0 0 1
-34.943388 -12.767909 -1.493109 37.232906 0.350318 1.610909 0.032190 -0.019877 -676930.000000 0 0 1
35.030976 -12.805709 -1.228809 37.318433 -0.350464 1.603730 0.064836 -0.017913 -830587.000000 0 0 1
34.600516 -11.726309 -0.222909 36.534255 -0.326757 1.576898 0.058703 -0.021119 -215890.000000 0 0 1
34.744606 -12.185309 1.118791 36.836410 -0.337308 1.540420 0.074972 -0.020209 142189.000000 0 0 1
34.523586 -11.193009 2.078091 36.352166 -0.313520 1.513600 0.069337 -0.022785 -437310.000000 0 0 1
34.844456 -11.541009 3.556891 36.877941 -0.319843 1.474196 0.070212 -0.034315 266402.000000 0 0 1
33.954536 -12.468209 4.169291 36.410847 -0.351918 1.456038 0.069587 -0.042254 303752.000000 0 0 1
34.558776 -12.952409 5.359991 37.293477 -0.358590 1.426572 0.060104 -0.032925 270811.000000 0 0 1
33.571766 -12.954609 6.552991 36.576319 -0.368273 1.390664 0.053549 -0.036124 327096.000000 0 0 1
33.070826 -11.690509 7.008191 35.769572 -0.339789 1.373595 0.048916 -0.034023 164335.000000 0 0 1
32.542816 -11.839609 8.320391 35.615167 -0.348930 1.334998 0.025731 -0.015010 -244544.000000 0 0 1
31.809696 -10.576109 8.861391 34.673262 -0.320983 1.312361 0.024202 -0.025696 -326794.000000 0 0 1
30.507156 -10.406709 8.347391 33.296623 -0.328745 1.317395 0.042460 -0.024632 -290129.000000 0 0 1
29.851046 -9.461009 9.162691 32.627451 -0.306925 1.286140 0.035796 -0.012201 131675.000000 0 0 1
28.315326 -9.586509 8.962291 31.208677 -0.326449 1.279522 0.047055 -0.020316 161618.000000 0 0 1
27.735576 -8.967709 7.847991 30.187298 -0.312720 1.307798 0.062401 -0.023096 -432456.000000 0 0 1
26.924256 -9.849409 7.157191 29.549143 -0.350698 1.326150 0.080816 -0.037130 -685945.000000 0 0 1
26.063656 -9.099909 6.111891 28.275038 -0.335910 1.352918 0.082973 -0.045572 -750206.000000 0 0 1
25.039556 -8.372209 6.707791 27.240920 -0.322674 1.321998 0.075202 -0.038315 261125.000000 0 0 1
24.123356 -7.690209 5.825091 25.980903 -0.308602 1.344667 0.080255 -0.047013 122858.000000 0 0 1
24.590156 -6.392609 5.119591 25.918168 -0.254336 1.371960 0.072365 -0.038372 -610782.000000 0 0 1
25.229056 -6.751409 3.884591 26.404107 -0.261478 1.423140 0.067796 -0.039757 464560.000000 0 0 1
25.788056 -5.586009 3.266291 26.587516 -0.213317 1.447635 0.074624 -0.031417 -437809.000000 0 0 1
26.288776 -5.718909 1.839291 26.966436 -0.214204 1.502537 0.089642 -0.033157 579461.000000 0 0 1
25.305056 -6.141009 0.859091 26.053712 -0.238077 1.537817 0.100841 -0.031914 618905.000000 0 0 1
25.998456 -6.040809 -0.336109 26.693147 -0.228302 1.583388 0.103200 -0.030900 28755.100000 0 0 1
25.142256 -6.200009 -1.626109 25.946433 -0.241773 1.633509 0.100441 -0.028310 67769.100000 0 0 1
24.130856 -5.251009 -1.839809 24.764011 -0.214265 1.645159 0.094286 -0.022977 -133222.000000 0 1 0
23.489756 -5.443909 -3.072309 24.307281 -0.227736 1.697530 0.071178 -0.021834 -130165.000000 0 1 0
22.211156 -4.587509 -3.230809 22.908925 -0.203677 1.712296 0.046938 -0.020700 -304887.000000 0 1 0
22.318856 -3.190709 -3.193609 22.770839 -0.141998 1.711510 0.047303 -0.021489 127257.000000 0 1 0
22.807956 -2.684909 -4.422009 23.387300 -0.117179 1.761019 0.060075 -0.024215 -741470.000000 0 1 0
21.924356 -1.699109 -5.095609 22.572763 -0.077344 1.798500 0.034304 -0.011607 -721964.000000 0 1 0
21.855756 -0.398809 -4.479709 22.313694 -0.018245 1.772931 0.038715 -0.003538 108767.000000 0 1 0
20.921656 0.444491 -5.057809 21.528927 0.021242 1.807944 0.030576 0.000142 -1002870.000000 0 1 0
20.834856 1.855091 -4.404109 21.375893 0.088804 1.778314 0.037916 0.009423 -324916.000000 0 1 0
21.948956 2.683091 -4.631409 22.592158 0.121639 1.777261 0.051734 0.007470 262127.000000 0 1 0
22.895056 2.649091 -3.587409 23.325325 0.115194 1.725208 0.081483 0.005327 702091.000000 0 1 0
24.077656 3.699691 -3.712609 24.641524 0.152464 1.722037 0.072023 0.001908 275944.000000 0 1 0
23.642456 5.021391 -3.539209 24.427569 0.209279 1.716194 0.057318 0.006050 68229.800000 0 1 0
24.617956 5.994391 -3.326209 25.554651 0.238849 1.701327 0.053246 0.000324 -257074.000000 0 0 1
23.948456 7.425491 -3.365709 25.298112 0.300662 1.704234 0.030926 -0.004118 310934.000000 0 0 1
23.029656 7.687391 -2.312409 24.388692 0.322174 1.665754 0.043081 -0.006262 931292.000000 0 1 0
22.180456 8.797291 -2.658309 24.008989 0.377592 1.681745 0.023647 -0.000484 -174476.000000 0 1 0
21.154156 9.199691 -1.593709 23.122987 0.410216 1.639774 0.009941 0.000406 -324857.000000 0 1 0
21.725356 9.763291 -0.362409 23.821089 0.422352 1.586011 0.000702 0.003548 409091.000000 0 1 0
20.737756 9.982391 0.589691 23.022823 0.448627 1.545180 -0.011652 0.002203 -5682.720000 0 1 0
21.354656 10.564591 1.966591 23.906054 0.459415 1.488440 0.007518 -0.001315 -355627.000000 0 1 0
22.002356 11.780891 1.907991 25.030651 0.491594 1.494496 0.007380 -0.004680 83964.700000 0 0 1
21.276456 12.967491 1.641091 24.970715 0.547358 1.505028 0.008888 -0.002373 -899655.000000 0 1 0
20.297456 13.533791 2.656591 24.539920 0.588076 1.462328 0.008895 -0.003371 -228537.000000 0 1 0
19.046256 12.850991 2.735891 23.138560 0.593561 1.452280 0.026643 -0.007098 400446.000000 0 1 0
18.130756 13.559691 3.521191 22.912624 0.642145 1.416506 0.024889 -0.012333 -747144.000000 0 1 0
18.309056 13.464191 5.035391 23.277911 0.634081 1.352757 0.026130 -0.013235 -868770.000000 0 1 0
17.815356 12.308491 5.660591 22.381424 0.604587 1.315105 0.009972 -0.010875 441619.000000 0 1 0
18.333656 12.104291 6.953791 23.043264 0.583528 1.264247 0.036440 -0.015698 -541394.000000 0 1 0
18.342956 10.607291 7.392791 22.441747 0.524293 1.235106 0.014394 -0.023936 196715.000000 0 1 0
19.277256 9.877091 6.568891 22.634484 0.473495 1.276344 -0.001342 -0.028522 824547.000000 0 1 0
19.599056 8.661891 7.245391 22.619616 0.416143 1.244735 0.029495 -0.025019 -137343.000000 0 1 0
20.549856 7.738891 6.464891 22.890650 0.360165 1.284475 0.036063 -0.023591 -348123.000000 0 1 0
20.080556 7.426291 5.185991 22.028914 0.354226 1.333148 0.020482 -0.020098 512802.000000 0 1 0
21.059456 6.718291 4.482091 22.554939 0.308810 1.370746 0.031201 -0.020934 -201220.000000 0 1 0
20.683856 6.683391 2.960391 21.937492 0.312532 1.435437 0.028337 -0.009496 -502540.000000 0 1 0
21.546156 5.855491 2.278491 22.443599 0.265356 1.469100 0.023585 -0.008695 -18384.600000 0 1 0
21.224256 5.744391 0.920191 22.007131 0.264320 1.528971 0.031506 0.001413 -442836.000000 0 1 0
22.155556 4.795091 0.189691 22.669309 0.213141 1.562428 0.047588 -0.003182 -239465.000000 0 1 0
22.069756 3.425391 0.537391 22.340462 0.153979 1.546739 0.045543 0.004216 73276.800000 0 1 0
23.277356 2.780891 0.263891 23.444366 0.118904 1.559540 0.063467 0.000196 -254446.000000 0 1 0
23.196056 1.202091 0.330091 23.229529 0.051777 1.556586 0.079010 -0.000377 7159.050000 0 1 0
22.266156 0.651891 -0.593209 22.283594 0.029269 1.597420 0.057938 -0.001870 826987.000000 0 1 0
22.662756 -0.611109 -1.124809 22.698881 -0.026959 1.620370 0.077784 -0.006315 -604262.000000 0 1 0
22.468756 -1.833809 -0.190609 22.544272 -0.081435 1.579251 0.090629 -0.003183 102919.000000 0 1 0
23.321056 -1.892609 0.951791 23.417078 -0.080977 1.530140 0.090262 -0.008633 156263.000000 0 1 0
24.570156 -2.474209 0.670491 24.703519 -0.100361 1.543651 0.102384 -0.016760 86465.400000 0 1 0
25.630556 -2.098309 1.792791 25.778720 -0.081685 1.501195 0.088382 -0.016482 123893.000000 0 0 1
25.834556 -0.700109 1.864191 25.911188 -0.027093 1.498789 0.080651 -0.009682 233950.000000 0 0 1
26.326996 -0.361309 3.131691 26.515067 -0.013723 1.452410 0.068378 -0.012355 -344815.000000 0 0 1
25.962956 1.056091 3.657591 26.240587 0.040654 1.430954 0.070702 -0.010388 -197909.000000 0 0 1
26.300836 2.285191 2.967791 26.566217 0.086669 1.458850 0.087330 -0.008486 648723.000000 0 0 1
27.698976 2.404091 2.700791 27.933980 0.086577 1.473960 0.076592 -0.013696 355059.000000 0 0 1
27.975806 3.458691 1.658591 28.237550 0.123007 1.512025 0.098989 -0.020380 -441647.000000 0 0 1
27.404766 3.067291 0.441791 27.579425 0.111462 1.554777 0.115199 -0.012288 112130.000000 0 0 1
27.630376 3.950591 -0.634809 27.918593 0.142017 1.593536 0.097483 -0.010917 785132.000000 0 0 1
29.036436 3.805691 -1.361509 29.316405 0.130323 1.617255 0.081621 -0.009905 467635.000000 0 0 1
30.052956 4.238091 -0.534209 30.355016 0.140097 1.588396 0.078978 -0.011626 -859010.000000 0 0 1
31.349776 3.935391 -0.975309 31.610869 0.124878 1.601655 0.045880 -0.009383 -249178.000000 0 0 1
32.435806 4.286791 0.047891 32.717891 0.131401 1.569333 0.016963 -0.007731 -465457.000000 0 0 1
32.471326 3.504791 1.200091 32.681965 0.107519 1.534068 0.023419 -0.006529 710719.000000 0 0 1
31.642766 3.924191 2.334391 31.970507 0.123385 1.497714 0.032006 0.000097 324408.000000 0 0 1
31.809466 2.978391 3.542791 32.144429 0.093360 1.460357 0.042246 -0.001499 33827.200000 0 0 1
31.034166 1.763991 3.400091 31.269662 0.056779 1.461846 0.050085 -0.005798 490503.000000 0 0 1
31.145896 0.772291 4.418891 31.467283 0.024791 1.429903 0.045295 -0.007131 211517.000000 0 0 1
32.360556 -0.173509 4.158491 32.627117 -0.005362 1.442994 0.053568 -0.007493 411965.000000 0 0 1
33.622646 0.388591 4.449191 33.917969 0.011557 1.439242 0.049185 -0.006823 878167.000000 0 0 1
34.686066 -0.421409 3.856191 34.902306 -0.012149 1.460085 0.059686 -0.010993 771505.000000 0 0 1
-35.211025 0.093291 4.124691 35.451912 -0.002649 1.454186 0.059425 -0.020382 244594.000000 0 0 1
-34.859640 1.364191 3.612591 35.072872 -0.039114 1.467611 0.048490 -0.016659 136125.000000 0 0 1
-34.575919 1.365991 2.229091 34.674616 -0.039486 1.506466 0.057241 -0.014339 -1003300.000000 0 0 1
-34.453052 2.816391 1.646691 34.607173 -0.081564 1.523196 0.043622 -0.007495 -16198.400000 0 0 1
-33.247455 3.513191 1.887991 33.485822 -0.105277 1.514385 0.063073 -0.017250 -200443.000000 0 0 1
-32.226625 3.057691 1.059991 32.388708 -0.094598 1.538063 0.078620 -0.012588 -857277.000000 0 0 1
-30.808545 3.537991 1.454591 31.045123 -0.114337 1.523925 0.076633 -0.016681 85711.800000 0 0 1
-30.532455 3.242691 2.849091 30.836069 -0.105808 1.478270 0.080875 -0.023697 21656.400000 0 0 1
-29.795895 4.316091 3.394491 30.297633 -0.143855 1.458522 0.079923 -0.019583 -668585.000000 0 0 1
-29.950785 4.545891 4.950791 30.695683 -0.150629 1.408803 0.077251 -0.020981 -230503.000000 0 0 1
-31.189635 5.039991 5.404491 32.053133 -0.160207 1.401377 0.065655 -0.015693 -41315.800000 0 0 1
-32.288255 4.162991 5.344491 32.991294 -0.128225 1.408082 0.064330 -0.015358 -728243.000000 0 0 1
-32.415425 3.154291 6.494991 33.209852 -0.097003 1.373953 0.051556 -0.008623 -986692.000000 0 0 1
-32.692425 3.746291 7.757391 33.808379 -0.114094 1.339282 0.042650 -0.013115 362503.000000 0 0 1
-32.768995 2.890391 8.900991 34.079158 -0.087977 1.306546 0.036084 -0.010023 -562190.000000 0 0 1
-33.976605 1.957391 8.932591 35.185683 -0.057546 1.314117 0.033268 -0.009033 -742221.000000 0 0 1
-33.815105 0.917691 8.039691 34.769816 -0.027132 1.337459 0.046766 -0.021939 74165.100000 0 0 1
-34.730872 -0.149609 8.195891 35.685130 0.004308 1.339055 0.047302 -0.018219 -19861.600000 0 0 1
-34.712356 -0.997509 9.527491 36.009940 0.028729 1.303029 0.046175 -0.003518 -171914.000000 0 0 1
-33.494675 -1.698809 9.661791 34.901711 0.050675 1.290304 0.045982 -0.018608 170272.000000 0 0 1
-33.557375 -2.716009 10.673391 35.318485 0.080760 1.263792 0.039933 -0.009249 502577.000000 0 0 1
-32.234865 -3.557609 10.619791 34.125109 0.109920 1.254339 0.032557 -0.010319 401602.000000 0 0 1
-32.157155 -4.441509 9.558091 33.840312 0.137250 1.284452 0.037153 -0.019996 -66064.700000 0 0 1
-31.070505 -5.328709 9.691891 32.980361 0.169851 1.272525 0.049737 -0.024588 -66876.500000 0 0 1
-31.154095 -6.517109 8.719091 33.001105 0.206216 1.303416 0.039911 -0.020041 -601895.000000 0 0 1
-32.216115 -7.360709 8.915591 34.227852 0.224623 1.307279 0.047250 -0.020049 -783818.000000 0 0 1
-32.239475 -8.264509 7.866391 34.198918 0.250944 1.338699 0.032839 -0.020328 350541.000000 0 0 1
-33.311145 -9.364809 8.042591 35.524855 0.274058 1.342423 0.027821 -0.019922 317269.000000 0 0 1
-34.667323 -8.997809 8.156691 36.733030 0.253944 1.346876 0.029117 -0.027460 200968.000000 0 0 1
-35.451082 -10.196109 8.214991 37.791877 0.280052 1.351672 0.024560 -0.025464 -232576.000000 0 0 1
7.889015 -23.856109 10.559191 27.255220 -1.251425 1.172966 0.072719 -0.025314 -268726.000000 0 0 1
7.407815 -24.764809 9.596091 27.572749 -1.280141 1.215329 0.069248 -0.022173 1011230.000000 0 0 1
6.093815 -25.303879 9.951191 27.864800 -1.334471 1.205609 0.059364 -0.020371 1636460.000000 0 0 1
5.548815 -26.242019 8.829691 28.238208 -1.362418 1.252777 0.039281 -0.008255 -112708.000000 0 0 1
5.189215 -25.568419 7.614391 27.178134 -1.370562 1.286829 0.045538 -0.009595 -200601.000000 0 0 1
4.869515 -26.530879 6.634191 27.777909 -1.389275 1.329636 0.043456 -0.001103 -633518.000000 0 0 1
4.199315 -25.910759 5.359191 26.790346 -1.410125 1.369396 0.035982 -0.002754 338476.000000 0 0 1
2.793015 -25.803339 5.477891 26.525847 -1.462974 1.362788 0.025001 -0.012299 -301374.000000 0 0 1
2.094515 -26.966929 5.163891 27.536667 -1.493282 1.382152 0.016361 -0.008013 -567495.000000 0 0 1
0.554115 -26.819979 5.081591 27.302764 -1.550139 1.383585 0.008825 -0.010246 -36532.500000 0 0 1
0.053015 -26.412239 6.364691 27.168336 -1.568789 1.334330 0.012524 -0.014580 708290.000000 0 0 1
-1.356885 -26.642279 6.611591 27.483910 1.519911 1.327851 0.011326 -0.017936 1300280.000000 0 0 1
-1.806185 -28.114609 6.704691 28.959393 1.506641 1.337156 0.011309 -0.010663 -750662.000000 0 0 1
-1.415685 -28.898939 7.801091 29.966813 1.521848 1.307438 -0.003303 -0.013095 199665.000000 0 0 1
-2.177485 -30.101089 7.806691 31.173089 1.498583 1.317671 0.015800 -0.012117 -29203.200000 0 0 1
-2.155285 -30.786669 9.184391 32.199648 1.500903 1.281547 0.010257 -0.010412 -144806.000000 0 0 1
-0.893285 -31.277089 9.555791 32.716470 1.542244 1.274397 0.003815 -0.007037 -197852.000000 0 0 1
-0.836485 -31.608639 10.885791 33.441086 1.544339 1.239233 -0.005233 -0.002495 615028.000000 0 0 1
0.660715 -31.905179 11.197391 33.819500 -1.550091 1.233335 0.005292 -0.010236 469511.000000 0 0 1
1.245615 -33.185949 10.946791 34.966999 -1.533280 1.252382 0.001479 -0.007281 -83829.900000 0 0 1
2.636015 -33.189689 11.135891 35.107152 -1.491540 1.248024 0.008589 -0.000788 6829.410000 0 0 1
3.272515 -33.858959 12.400591 36.206534 -1.474444 1.221224 0.010948 -0.001390 -384719.000000 0 0 1
2.827515 -33.167299 13.535491 35.934303 -1.485752 1.184594 -0.008809 0.001259 -83043.700000 0 0 1
3.599815 -33.519389 14.630391 36.749918 -1.463811 1.161344 -0.006027 0.007402 -770411.000000 0 0 1
3.128215 -32.800219 15.889391 36.580225 -1.475712 1.121456 -0.011176 0.010051 -218013.000000 0 0 1
3.347715 -31.393909 15.891891 35.345961 -1.464562 1.104468 0.002531 0.003794 860421.000000 0 0 1
4.698315 -30.913229 16.025091 35.135530 -1.419967 1.097196 0.007971 0.012502 574798.000000 0 0 1
5.074815 -29.555619 15.388991 33.706222 -1.400751 1.096669 0.025214 0.007999 -259661.000000 0 0 1
5.241215 -29.462879 13.930991 33.009152 -1.394746 1.135108 0.025586 0.004302 381810.000000 0 0 1
4.065315 -29.708539 13.139091 32.737743 -1.434801 1.157813 0.013681 0.010529 16061.200000 0 0 1
4.218615 -29.862489 11.617791 32.319314 -1.430457 1.203098 0.008788 -0.000063 115.913000 0 0 1
4.887415 -31.007449 11.102091 33.295723 -1.414462 1.230847 0.016962 0.001907 -848663.000000 0 0 1
6.272215 -31.005619 11.191091 33.554875 -1.371197 1.230766 0.019566 0.000988 -880328.000000 0 0 1
6.959715 -32.235599 10.593991 34.638189 -1.358159 1.259968 0.009951 0.001119 -376512.000000 0 0 1
6.688615 -33.299099 11.473291 35.849742 -1.372569 1.245026 -0.004662 0.004164 172026.000000 0 0 1
6.994815 34.295070 10.878391 36.652676 1.369596 1.269460 0.007868 0.003634 -177822.000000 0 0 1
6.764715 33.064117 11.797491 35.751615 1.368988 1.234509 0.016676 -0.001557 -275481.000000 0 0 1
5.448215 32.953534 12.278991 35.586403 1.406948 1.218507 -0.000468 -0.001124 -506119.000000 0 0 1
5.121515 31.589149 12.521591 34.364145 1.410066 1.197830 0.013330 -0.008676 -332933.000000 0 0 1
3.912615 31.285699 13.381591 34.251577 1.446381 1.169420 0.006414 -0.009630 -372841.000000 0 0 1
4.034015 31.780259 14.720391 35.255468 1.444537 1.140066 0.021023 -0.005687 225291.000000 0 0 1
3.010915 31.284949 15.593091 35.085013 1.474850 1.110250 0.021694 -0.006067 224878.000000 0 0 1
3.288515 31.551409 17.056591 36.017121 1.466944 1.077458 0.013223 -0.008024 -88910.700000 0 0 1
3.312415 32.927476 17.498491 37.435117 1.470536 1.084409 -0.000125 -0.001347 312556.000000 0 0 1
3.950215 32.903297 18.775891 38.088912 1.451313 1.055320 0.002620 0.000101 265977.000000 0 0 1
4.450115 34.283130 19.315391 39.600768 1.441713 1.061282 0.002890 0.003965 218945.000000 0 0 1
3.363115 -33.754919 19.708191 39.231593 -1.471491 1.044476 -0.015354 0.008596 -54597.000000 0 0 1
3.697315 -32.839149 20.786991 39.040733 -1.458680 1.009311 0.001254 -0.003309 540694.000000 0 0 1
2.505715 -31.885899 21.207191 38.376218 -1.492374 0.985300 -0.013424 -0.001522 747030.000000 0 0 1
1.491415 -32.705629 21.781191 39.323057 -1.525227 0.983751 -0.006109 0.001403 -283607.000000 0 0 1
0.608115 -31.935009 22.557891 39.103364 -1.551756 0.955894 -0.017168 0.009186 -868173.000000 0 0 1
-0.426485 -32.766259 23.255991 40.182717 1.557781 0.953594 -0.020127 0.008429 -683822.000000 0 0 1
-1.275985 -33.371139 22.236591 40.121404 1.532579 0.983356 -0.023180 -0.000368 490083.000000 0 0 1
-2.108485 34.417364 22.713591 41.290530 -1.509611 0.988322 -0.005528 -0.003458 235437.000000 0 0 1
-3.458785 -33.956399 23.320891 41.338411 1.469287 0.971398 0.022287 -0.002840 -647871.000000 0 0 1
-4.368785 -33.605419 22.364291 40.602611 1.441519 0.987463 0.019075 -0.009202 -644144.000000 0 0 1
-5.552985 -33.056199 22.920091 40.606385 1.404364 0.971035 0.030887 -0.007412 560636.000000 0 0 1
-6.722385 -32.678739 21.968291 39.946167 1.367915 0.988495 0.023916 -0.010148 207238.000000 0 0 1
-7.502885 -33.745279 21.537491 40.729604 1.352016 1.013620 0.009282 0.000896 -378868.000000 0 0 1
-8.767485 -33.278119 21.123691 40.379603 1.313189 1.020280 0.026728 -0.015642 -359318.000000 0 0 1
-9.714285 34.415379 20.827691 41.383310 -1.295688 1.043398 0.056530 -0.021752 -230031.000000 0 0 1
-10.297585 33.961343 22.043291 41.777024 -1.276393 1.014975 0.072573 -0.028980 -678017.000000 0 0 1
-11.679485 33.774785 21.918491 41.923343 -1.237864 1.020637 0.070160 -0.025283 -242624.000000 0 0 1
-12.398285 33.530227 23.295391 42.669296 -1.216624 0.993271 0.071376 -0.026067 166117.000000 0 0 1
-12.496185 -34.174711 24.134491 43.663935 1.220243 0.985156 0.061600 -0.023537 328085.000000 0 0 1
-11.273585 -33.968009 24.832791 43.561300 1.250347 0.964211 0.046501 -0.024013 176540.000000 0 0 1
-11.189685 -32.590739 25.487291 42.859857 1.240067 0.933946 0.037066 -0.018520 -657341.000000 0 0 1
-11.977185 -32.446389 26.597991 43.631116 1.217175 0.915227 0.041629 -0.017501 -342060.000000 0 0 1
-12.710685 -31.248679 26.491091 42.893116 1.184477 0.905100 0.045392 -0.014229 -181908.000000 0 0 1
-13.444585 -30.871039 27.814291 43.673936 1.160059 0.880374 0.049521 -0.012021 -625745.000000 0 0 1
-12.690885 -30.323009 28.852591 43.738032 1.174424 0.850419 0.037627 -0.003809 -33808.900000 0 0 1
-13.486985 -29.889939 29.939991 44.403945 1.146927 0.830828 0.045347 -0.008309 41196.300000 0 0 1
-12.626685 -29.556569 31.208791 44.799694 1.167060 0.800108 0.034426 -0.002011 -397444.000000 0 0 1
-13.388085 -29.025739 32.253691 45.409635 1.138627 0.780896 0.034767 0.001091 -229544.000000 0 0 1
-12.817385 -28.709709 33.487191 45.933917 1.150900 0.753893 0.021069 0.005531 -833263.000000 0 0 1
-12.393285 -29.842249 -34.416691 47.208707 1.177176 2.387704 0.021524 0.011607 -627813.000000 0 0 1
-11.138785 -30.319219 34.065891 46.944782 1.218720 0.758805 0.021134 0.009333 -702836.000000 0 0 1
-10.864285 -31.525009 -34.049591 47.657461 1.238919 2.366656 0.021467 0.013023 599375.000000 0 0 1
-9.347685 -31.883709 -34.186691 47.672634 1.285608 2.370448 0.022675 0.003390 919818.000000 0 0 1
-8.522485 -30.992049 -33.417091 46.366387 1.302440 2.375634 0.029292 -0.003317 -329194.000000 0 0 1
-7.173385 -31.346979 -33.426891 46.383700 1.345832 2.375551 0.038013 -0.012570 -257783.000000 0 0 1
-6.282685 -30.527619 -32.466791 45.005558 1.367827 2.376611 0.040104 -0.009703 23844.000000 0 0 1
-6.524285 -30.880289 -31.130991 44.331672 1.362582 2.349320 0.034622 -0.010138 70328.500000 0 0 1
-5.803285 -30.014079 -30.283891 43.030654 1.379801 2.351493 0.029069 -0.002855 42109.200000 0 0 1
-6.275785 -30.158189 -28.806091 42.174551 1.365629 2.322687 0.030460 -0.004097 -126964.000000 0 0 1
-5.979285 -31.451309 -28.168391 42.642643 1.382926 2.292372 0.021690 0.002930 -40522.100000 0 0 1
-6.976785 -31.899719 -27.260791 42.537259 1.355477 2.266425 0.025060 0.004040 136146.000000 0 0 1
-6.570785 -33.101419 -26.341291 42.810545 1.374839 2.233562 0.020584 0.002486 273589.000000 0 0 1
-5.589885 -32.804149 -25.354491 41.835502 1.402016 2.221884 -0.000205 0.003005 -37841.000000 0 0 1
-5.194085 -33.976299 -24.695791 42.323156 1.419097 2.193835 0.013028 -0.005480 86532.800000 0 0 1
-4.294085 -33.828589 -23.414291 41.364739 1.444535 2.172496 0.016729 -0.009266 328767.000000 0 0 1
-4.875085 -33.099799 -22.335291 40.227210 1.424563 2.159434 0.024820 0.000371 -21245.300000 0 0 1
-4.910085 -31.690959 -22.465691 39.155244 1.417082 2.181885 0.003280 0.013357 -324883.000000 0 0 1
-5.277585 -30.945149 -21.167191 37.861658 1.401875 2.164056 0.027554 0.008563 -371233.000000 0 0 1
-6.673885 -30.885079 -20.953191 37.913917 1.357981 2.156339 0.036349 0.003665 -184212.000000 0 0 1
-7.049185 -29.705339 -20.308491 36.667874 1.337802 2.157777 0.043601 0.002045 -12151.800000 0 0 1
-7.566385 -28.665159 -21.302891 36.506913 1.312725 2.193865 0.058216 -0.012489 -700943.000000 0 0 1
-6.569585 -28.241289 -22.174091 36.502331 1.342238 2.223669 0.053694 -0.002859 -880730.000000 0 0 1
-7.011385 -27.523339 -23.288591 36.729446 1.321358 2.257586 0.059979 -0.020619 -804824.000000 0 0 1
-5.913885 -27.588539 -24.353991 37.272221 1.359632 2.282875 0.053237 -0.014547 677899.000000 0 0 1
-4.670085 -26.945489 -24.058891 36.423884 1.399185 2.292314 0.053840 -0.014005 924119.000000 0 0 1
-3.799385 -27.702969 -23.144491 36.298172 1.434499 2.262203 0.037178 -0.008535 -800432.000000 0 0 1
-2.356685 -27.221709 -23.337491 35.933465 1.484438 2.277676 0.032354 -0.012594 -508716.000000 0 0 1
-1.985285 -25.842229 -23.168291 34.763945 1.494124 2.300228 0.032156 -0.014488 -54052.400000 0 0 1
-2.218985 -25.187689 -21.963191 33.492169 1.482925 2.286000 0.054512 -0.024315 -1014400.000000 0 0 1
-2.235885 -23.648509 -22.156991 32.483587 1.476530 2.321424 0.060169 -0.021194 918201.000000 0 0 1
-3.098585 -23.144609 -23.229791 32.937780 1.437708 2.353590 0.053019 -0.029221 1211140.000000 0 0 1
-4.476185 -23.546409 -23.187991 33.348951 1.382937 2.339653 0.069519 -0.032839 38545.300000 0 0 1
-5.093085 -23.632409 -24.569091 34.468399 1.358530 2.364279 0.065314 -0.023973 -282955.000000 0 0 1
-5.125285 -22.437209 -25.234291 34.153570 1.346222 2.402155 0.068506 -0.024850 31769.400000 0 0 1
-5.421685 -22.674809 -26.593891 35.366322 1.336097 2.421819 0.060231 -0.020750 120149.000000 0 0 1
-5.570285 -21.293209 -27.335391 35.094906 1.314931 2.463705 0.060478 -0.015071 153094.000000 0 0 1
-6.018185 -21.311209 -28.695991 36.247015 1.295568 2.484348 0.065348 -0.017054 943094.000000 0 0 1
-5.040185 -21.825609 -29.679691 37.183931 1.343845 2.495074 0.053558 -0.019882 918655.000000 0 0 1
-5.651985 -22.102509 -31.088291 38.560961 1.320444 2.508517 0.058083 -0.025369 -564871.000000 0 0 1
-5.867885 -21.029509 -31.940491 38.689370 1.298686 2.541995 0.052309 -0.028511 56007.800000 0 0 1
-6.798185 -21.445009 -32.939891 39.889098 1.263812 2.542392 0.052115 -0.025512 117330.000000 0 0 1
-6.733185 -20.676109 -34.271691 40.588004 1.255976 2.576203 0.048511 -0.023020 -1194800.000000 0 0 1
-5.535885 -20.880309 33.976891 40.262420 1.311634 0.566311 0.045769 -0.021334 -1794280.000000 0 0 1
-5.480385 -20.079509 32.847491 38.886745 1.304352 0.564799 0.052994 -0.013894 214260.000000 0 0 1
-4.305185 -20.439009 31.922191 38.148578 1.363195 0.579410 0.025879 -0.018615 -1706180.000000 0 0 1
-4.299685 -21.796309 31.521491 38.563853 1.376030 0.613940 0.024476 -0.016862 353943.000000 0 0 1
-3.147585 -22.257509 30.811091 38.139577 1.430311 0.630300 0.028854 -0.003700 787944.000000 0 0 1
-1.750885 -22.033309 31.456691 38.445490 1.491498 0.612496 0.025233 -0.010553 -857511.000000 0 0 1
-1.356585 -20.690709 31.255191 37.507769 1.505325 0.585747 0.013467 -0.012094 -293196.000000 0 0 1
-0.291985 -20.272609 32.092491 37.960399 1.556394 0.563445 0.019824 -0.013346 61193.700000 0 0 1
-0.796985 -19.964909 33.560191 39.057895 1.530898 0.537010 0.015621 -0.021519 20048.200000 0 0 1
-1.636085 -18.835809 33.618791 38.570553 1.484153 0.512303 0.009706 -0.020223 -165399.000000 0 0 1
-2.107985 -18.590409 -33.923091 38.740457 1.457888 2.637577 0.017661 -0.026432 468550.000000 0 0 1
-3.217985 -17.499609 -33.753791 38.156391 1.388939 2.656468 0.018011 -0.026630 352932.000000 0 0 1
-2.758985 -16.225709 -34.159391 37.917669 1.402369 2.692596 0.013765 -0.020786 -416666.000000 0 0 1
-3.651085 -15.176809 -33.927191 37.345954 1.334712 2.710374 0.018045 -0.026175 -380784.000000 0 0 1
-3.170385 -13.722109 -34.249491 37.032084 1.343738 2.751463 0.004114 -0.025676 -184727.000000 0 0 1
-2.086285 -13.345609 -33.409391 36.036721 1.415724 2.757378 0.005472 -0.018634 -49537.000000 0 0 1
-1.862485 -11.941409 -33.388391 35.508461 1.416074 2.794289 0.001563 -0.014585 -27500.100000 0 0 1
-1.230685 -11.288709 34.136091 35.975300 1.462206 0.321141 0.005289 -0.017028 -8276.780000 0 0 1
-2.151385 -11.242209 33.020591 34.948178 1.381716 0.333677 0.002480 -0.019581 368906.000000 0 0 1
-1.593185 -10.819609 31.782091 33.611062 1.424597 0.331411 0.006701 -0.018694 -526504.000000 0 0 1
-0.789485 -11.859609 31.053291 33.250271 1.504325 0.365554 -0.002411 -0.020790 -376535.000000 0 0 1
-1.498185 -13.103709 30.738391 33.448474 1.456958 0.405317 0.008458 -0.022270 305175.000000 0 0 1
-0.696985 -14.110709 30.081991 33.234381 1.521442 0.439072 0.002016 -0.019827 -57078.200000 0 0 1
-0.883685 -15.511209 30.568091 34.289746 1.513887 0.470229 0.003369 -0.021415 -139900.000000 0 0 1
-2.110185 -16.071709 30.162091 34.241852 1.440245 0.493132 0.016451 -0.022689 69605.600000 0 0 1
-2.194585 -17.402609 30.628891 35.295835 1.445352 0.520086 0.018656 -0.016490 -244923.000000 0 0 1
-2.520185 -18.416809 29.467991 34.840963 1.434799 0.562760 0.021781 -0.009068 -752096.000000 0 0 1
-3.837185 -18.198509 29.062891 34.504512 1.362989 0.569274 0.021994 -0.011646 -426675.000000 0 0 1
-4.386685 -19.101009 28.122791 34.278024 1.345053 0.608630 0.023334 -0.007707 659670.000000 0 0 1
-3.656485 -19.003609 26.660991 32.944127 1.380709 0.627873 0.029159 -0.007613 313434.000000 0 0 1
-4.260185 -19.826209 25.636991 32.687659 1.359138 0.669226 0.051183 -0.009623 -57430.600000 0 0 1
-4.148385 -21.224809 25.835291 33.692193 1.377780 0.696950 0.033948 -0.009174 -491777.000000 0 0 1
-28.784845 -34.401148 -0.438409 44.857536 0.874050 1.580570 0.012203 -0.013986 -166639.000000 0 0 1
-28.102525 -33.208048 -0.110209 43.503316 0.868480 1.573330 0.020434 -0.007821 159207.000000 0 0 1
-28.532535 -32.699548 1.186391 43.413978 0.853346 1.543466 0.019424 -0.009340 -90487.900000 0 0 1
-27.877035 -31.371548 1.580391 41.997628 0.844310 1.533157 0.030101 -0.011335 -184733.000000 0 0 1
-26.514255 -31.624948 1.840391 41.310170 0.873077 1.526231 0.024183 -0.012602 -538794.000000 0 0 1
-25.822345 -30.397248 2.009091 39.935231 0.866595 1.520466 0.034467 -0.015239 113757.000000 0 0 1
-24.299485 -30.623248 2.096791 39.149008 0.900033 1.517211 0.014722 -0.009432 -165726.000000 0 0 1
-24.036085 -31.118148 3.412991 39.467975 0.913104 1.484213 0.022417 -0.016206 160520.000000 0 0 1
-22.629785 -31.287348 3.591791 38.780231 0.944611 1.478044 0.025135 -0.013496 472946.000000 0 0 1
-22.228285 -31.818248 4.965891 39.130009 0.961009 1.443546 0.037241 -0.017800 -178901.000000 0 0 1
-22.541085 -31.010348 6.074191 38.815435 0.942251 1.413661 0.039171 -0.012755 64692.300000 0 0 1
-22.116885 -31.596448 7.310891 39.254825 0.960084 1.383461 0.031445 -0.010983 -321850.000000 0 0 1
-22.644285 -30.893448 8.515891 39.238873 0.938277 1.352029 0.036458 -0.005673 -419881.000000 0 0 1
-22.266785 -29.505048 8.702991 37.974987 0.924309 1.339564 0.049800 -0.007205 244796.000000 0 0 1
-22.796385 -29.107848 9.971791 38.293323 0.906402 1.307354 0.047899 -0.004952 109548.000000 0 0 1
-22.083885 -27.871148 10.555391 37.093330 0.900733 1.282246 0.053965 -0.002716 1136640.000000 0 0 1
-20.764585 -28.185348 11.055391 36.712443 0.935852 1.264914 0.041116 -0.004531 585121.000000 0 0 1
-20.212985 -27.172448 11.851391 35.879829 0.931225 1.234167 0.051931 -0.006341 -11462.800000 0 0 1
-18.914885 -27.564548 12.568291 35.714691 0.969390 1.211187 0.049712 -0.009579 57783.500000 0 0 1
-19.188085 -28.321548 13.711891 36.855239 0.975325 1.189583 0.054127 -0.015712 -269247.000000 0 0 1
-17.988385 -28.459148 14.412591 36.622778 1.007124 1.166315 0.058936 -0.020968 -194645.000000 0 0 1
-18.006285 -29.637048 15.356291 37.926199 1.024837 1.153928 0.093118 -0.027510 2775.390000 0 0 1
-18.097985 -30.868848 14.647791 38.664979 1.040521 1.182255 0.093200 -0.028491 -68113.600000 0 0 1
-18.216185 -31.888648 15.611791 39.905429 1.051790 1.168840 0.098321 -0.031854 73237.200000 0 0 1
-17.769885 -33.339748 15.312991 40.765124 1.081103 1.185710 0.104468 -0.031643 42205.600000 0 0 1
-17.812585 -34.254448 16.396491 41.946398 1.091271 1.169196 0.110543 -0.033099 118766.000000 0 0 1
-17.348985 33.343991 15.894291 40.809772 -1.091038 1.170737 0.103938 -0.027155 -333862.000000 0 0 1
-17.386285 32.239591 16.968791 40.368477 -1.076218 1.136968 0.100004 -0.024085 48518.300000 0 0 1
-18.665785 31.764691 17.349191 40.723476 -1.039524 1.130703 0.106199 -0.026136 140866.000000 0 0 1
-18.628485 30.817191 18.410591 40.443412 -1.027087 1.098179 0.077004 -0.014887 114619.000000 0 0 1
-19.277385 31.236391 19.768091 41.690611 -1.017865 1.076785 0.062218 -0.023435 474742.000000 0 0 1
-18.518685 32.281691 20.392191 42.436902 -1.049970 1.069538 0.069977 -0.020061 659633.000000 0 0 1
-19.309285 32.694091 21.496491 43.633143 -1.037314 1.055648 0.060654 -0.021109 631499.000000 0 0 1
-18.547585 33.832291 22.261591 44.544531 -1.069320 1.047474 0.046835 0.004979 580587.000000 0 0 1
-17.283385 33.568891 22.842491 44.128961 -1.095329 1.026717 0.043213 -0.013557 114999.000000 0 0 1
-17.066085 34.143191 24.136091 45.161484 -1.107278 1.006952 0.042856 -0.012229 68182.200000 0 0 1
-17.806485 33.462791 25.332091 45.591053 -1.081778 0.981667 0.026963 -0.015225 1033930.000000 0 0 1
-19.226985 33.719391 25.362091 46.367121 -1.052573 0.992039 0.008799 -0.017215 799449.000000 0 0 1
-19.856585 32.680891 26.069991 46.281411 -1.024815 0.972431 0.004416 -0.008141 -311479.000000 0 0 1
-21.386385 32.834291 26.040491 47.048648 -0.993478 0.984259 0.043279 -0.015823 -126008.000000 0 0 1
-21.986585 32.237891 24.901391 46.290072 -0.972246 1.002802 0.023130 -0.017485 -666843.000000 0 0 1
-23.333985 32.481991 24.738691 47.027198 -0.947850 1.016846 0.004590 -0.015389 -1097160.000000 0 0 1
-23.833885 32.073191 23.361191 46.287027 -0.931720 1.041759 -0.005825 -0.014570 -167496.000000 0 0 1
-23.338185 32.830391 22.232191 46.008431 -0.952811 1.066468 -0.003550 -0.011673 281913.000000 0 0 1
-23.434785 32.145491 20.993691 44.980627 -0.940857 1.085210 -0.013208 -0.009219 -184755.000000 0 0 1
-23.126185 33.005891 19.777191 44.892611 -0.959622 1.114591 0.007606 -0.005421 -72161.100000 0 0 1
-21.793685 33.451091 19.663991 44.504075 -0.993361 1.113140 0.047977 -0.012153 -289514.000000 0 0 1
-21.628085 34.121591 18.434391 44.405898 -1.005856 1.142706 0.065488 -0.012234 -956071.000000 0 0 1
-20.408285 -33.890748 18.388391 43.625839 1.028776 1.135695 0.079036 -0.020042 -937640.000000 0 0 1
-20.541385 -32.807248 19.275291 43.241194 1.011390 1.108771 0.077279 -0.032620 -389986.000000 0 0 1
-19.258185 -32.305448 19.477791 42.354504 1.033229 1.092942 0.085255 -0.031103 -519401.000000 0 0 1
-19.119385 -31.205248 20.541991 41.967747 1.021093 1.059313 0.074782 -0.030027 -295863.000000 0 0 1
-19.681085 -29.978948 20.180191 41.150000 0.989867 1.058241 0.096471 -0.033527 109174.000000 0 0 1
-20.130085 -29.323148 21.330791 41.473726 0.969194 1.030581 0.099172 -0.029102 -539993.000000 0 0 1
-20.822685 -28.011548 20.966691 40.716497 0.931558 1.029855 0.078212 -0.019940 -995851.000000 0 0 1
-20.028185 -27.055548 20.341591 39.330792 0.933557 1.027229 0.071565 -0.013721 -61978.600000 0 0 1
-20.593885 -25.758648 20.060491 38.601028 0.896364 1.024311 0.059321 -0.000169 90500.300000 0 0 1
-21.824985 -25.580248 19.123091 38.682964 0.864449 1.053704 0.045609 -0.005671 527159.000000 0 0 1
-23.088985 -26.053948 19.573491 39.937839 0.845659 1.058593 0.040974 -0.004965 385825.000000 0 0 1
-24.003085 -26.081848 18.513891 39.989687 0.826879 1.089457 0.041519 -0.007649 -419474.000000 0 0 1
-25.510495 -25.952448 18.888291 41.001005 0.793986 1.092037 0.025355 -0.004354 559334.000000 0 0 1
-26.164295 -27.135448 19.339391 42.366436 0.803617 1.096762 0.013058 -0.007283 105823.000000 0 0 1
-26.198215 -28.194748 18.408991 42.663582 0.822087 1.124650 0.010712 -0.010297 -1243960.000000 0 0 1
-27.046925 -29.368748 18.853691 44.153382 0.826531 1.129619 0.008593 -0.008392 -107581.000000 0 0 1
-28.425775 -29.119648 19.013691 44.916579 0.797455 1.133699 0.000030 -0.006528 537393.000000 0 0 1
-29.251805 -29.441148 17.868191 45.185413 0.788624 1.164248 0.001082 -0.006248 324903.000000 0 0 1
-30.739125 -29.045548 18.007991 45.965481 0.757078 1.168240 0.003866 -0.002251 193117.000000 0 0 1
-30.883295 -27.649548 17.891491 45.148432 0.730208 1.163333 0.011096 0.000738 -324830.000000 0 0 1
-32.249355 -27.405348 18.064391 46.015174 0.704375 1.167367 0.011619 0.011516 -666229.000000 0 0 1
-32.769245 -26.192248 17.400791 45.416350 0.674310 1.177604 0.009629 0.003223 -461512.000000 0 0 1
-33.031515 -26.348748 16.001591 45.181727 0.673328 1.208780 0.025906 -0.012418 -20613.600000 0 0 1
-33.529175 -25.203848 15.446291 44.699300 0.644588 1.217961 0.032678 -0.013156 76664.700000 0 0 1
-32.513275 -24.058048 14.986491 43.133486 0.637035 1.215952 0.016204 -0.006619 447173.000000 0 0 1
-31.808505 -23.503948 16.085891 42.696282 0.636372 1.184509 0.001964 -0.007831 407772.000000 0 0 1
-31.099565 -22.288248 15.755391 41.378512 0.621829 1.180175 0.008131 -0.005972 238287.000000 0 0 1
-31.922225 -20.972548 16.001591 41.411679 0.581273 1.174068 0.015390 -0.008989 -48211.900000 0 0 1
-32.256535 -20.844448 17.333891 42.135957 0.573705 1.146829 0.013394 -0.008715 147603.000000 0 0 1
-33.026555 -19.677048 17.515191 42.245964 0.537322 1.143293 0.012909 -0.012418 -111086.000000 0 0 1
-33.433315 -19.386048 18.980291 43.056438 0.525466 1.114280 0.008162 -0.003918 234628.000000 0 0 1
-34.700678 -19.862648 19.428091 44.453488 0.519878 1.118488 0.015043 -0.003079 425102.000000 0 0 1
-34.822914 -19.657948 20.824891 45.085988 0.513916 1.090668 0.015497 0.004390 -523581.000000 0 0 1
35.102556 -19.696348 21.451091 45.610140 -0.511332 1.081150 0.027775 -0.000210 26547.300000 0 0 1
34.542256 -21.044648 21.566391 45.838345 -0.547189 1.080953 0.025333 -0.000538 230757.000000 0 0 1
35.071396 -21.837948 22.609391 47.096532 -0.556923 1.070068 0.023181 0.006585 -298441.000000 0 0 1
34.243946 -23.100248 23.000291 47.278776 -0.593460 1.062737 0.032502 0.009014 -129383.000000 0 0 1
33.406566 -22.900648 24.109091 47.134771 -0.600937 1.033875 0.040245 -0.002616 269250.000000 0 0 1
32.740636 -24.107348 24.483291 47.460984 -0.634684 1.028783 0.031537 -0.011417 -667513.000000 0 0 1
31.919296 -24.047448 25.739591 47.535753 -0.645663 0.998602 0.045461 -0.012933 -672399.000000 0 0 1
30.724736 -23.324748 25.595391 46.294463 -0.649333 0.984977 0.044688 -0.012648 290643.000000 0 0 1
29.905556 -23.466848 26.779191 46.499036 -0.665341 0.957081 0.033452 -0.008691 83061.100000 0 0 1
28.631026 -24.303948 26.678791 46.067075 -0.703836 0.953136 0.021252 -0.006023 -1142950.000000 0 0 1
27.585166 -23.654448 26.065591 44.720122 -0.708836 0.948552 0.025291 -0.001193 -841232.000000 0 0 1
26.604866 -24.595048 25.685691 44.412724 -0.746164 0.954103 0.011500 0.007647 262588.000000 0 0 1
25.332756 -23.995648 25.006691 42.928711 -0.758299 0.948975 0.015161 0.006424 -76847.800000 0 0 1
25.485556 -23.329648 23.781591 41.944608 -0.741262 0.967966 0.018904 0.002528 92722.600000 0 0 1
26.231356 -22.105048 23.734391 41.713769 -0.700238 0.965529 0.015588 0.004805 135480.000000 0 0 1
26.294086 -21.543348 22.280291 40.643649 -0.686413 0.990602 0.025822 0.003441 227424.000000 0 0 1
25.599556 -20.289648 22.147891 39.465633 -0.670199 0.974968 0.037795 0.000619 208131.000000 0 0 1
25.595156 -19.762148 20.790891 38.443669 -0.657499 0.999391 0.025642 -0.005654 -544096.000000 0 0 1
24.902756 -18.467648 20.599691 37.222957 -0.638097 0.984339 0.026937 0.000829 -481189.000000 0 0 1
25.375356 -17.313748 21.303491 37.383329 -0.598752 0.964453 0.033069 -0.014807 18965.400000 0 0 1
25.133756 -17.313348 22.721691 38.049086 -0.603202 0.930831 0.032369 -0.000702 -182439.000000 0 0 1
25.374456 -15.976148 23.443991 38.062068 -0.561911 0.907216 0.054316 0.003094 -86655.300000 0 0 1
24.292456 -15.114848 23.172491 36.817746 -0.556586 0.890036 0.036786 -0.000125 -303277.000000 0 0 1
24.309456 -13.872648 23.793091 36.735694 -0.518573 0.866257 0.035035 0.002114 -284707.000000 0 0 1
23.041156 -12.999648 23.646991 35.483319 -0.513674 0.841392 0.035597 0.003469 -1302610.000000 0 0 1
22.044156 -13.617348 24.313891 35.532271 -0.553355 0.817186 0.049137 -0.003215 -1954510.000000 0 0 1
20.880856 -12.899448 24.069691 34.376677 -0.553379 0.795154 0.044121 -0.002072 -781659.000000 0 0 1
19.590156 -13.591048 24.530791 34.208924 -0.606532 0.771182 0.045833 -0.002660 -202762.000000 0 0 1
19.213556 -14.796448 23.881591 34.035658 -0.656244 0.793066 0.042499 -0.009336 -132789.000000 0 0 1
18.058656 -15.359248 24.447291 34.054245 -0.704796 0.770026 0.046999 -0.010995 -95630.400000 0 0 1
17.426256 -16.485548 23.581891 33.638568 -0.757665 0.793945 0.041018 -0.011542 -118244.000000 0 0 1
18.048156 -17.744848 23.597591 34.604362 -0.776924 0.820405 0.030431 -0.014022 -118555.000000 0 0 1
17.405756 -18.653348 22.733591 34.171975 -0.819983 0.842941 0.024605 -0.006092 -14965.100000 0 0 1
17.521956 -20.211948 23.062991 35.319164 -0.856566 0.859273 0.007274 -0.000514 77735.800000 0 0 1
16.794156 -20.567848 24.253291 35.962511 -0.886060 0.830638 0.002438 -0.002851 390100.000000 0 0 1
17.061056 -21.920448 24.655691 37.141470 -0.909417 0.844866 0.022508 0.000560 -353238.000000 0 0 1
16.664256 -23.075548 23.716391 37.049231 -0.945352 0.876127 0.007347 0.002666 291078.000000 0 0 1
17.595356 -23.195948 22.633791 36.877324 -0.921844 0.909983 0.006934 0.000241 174473.000000 0 0 1
18.662356 -24.070648 22.934991 38.127332 -0.911289 0.925373 0.018166 -0.004374 -253592.000000 0 0 1
19.642356 -24.185248 21.747191 37.995904 -0.888683 0.961420 0.019829 0.007848 -160699.000000 0 0 1
19.076856 -24.888848 20.701291 37.575586 -0.916830 0.987325 0.022638 -0.005075 620534.000000 0 0 1
20.137156 -25.312048 19.845191 37.947812 -0.898771 1.020476 0.017374 -0.010385 443315.000000 0 0 1
19.595056 -25.899548 18.544491 37.398542 -0.923098 1.051970 0.017022 -0.016944 -87923.900000 0 0 1
19.045456 -27.159348 18.739891 38.099122 -0.959233 1.056558 0.033369 -0.025423 -106850.000000 0 0 1
18.304656 -27.569548 17.599791 37.481903 -0.984681 1.082010 0.038982 -0.029852 -527566.000000 0 0 1
17.407356 -28.764348 17.849891 38.066027 -1.026583 1.082730 0.044681 -0.028756 -951613.000000 0 0 1
16.393956 -28.604948 18.763291 37.935023 -1.050379 1.053403 0.041851 -0.028317 -517690.000000 0 0 1
15.722756 -29.850248 18.945591 38.693382 -1.086001 1.059127 0.056539 -0.029657 700633.000000 0 0 1
14.383756 -29.758248 19.782991 38.520287 -1.120554 1.031452 0.045907 -0.020794 564233.000000 0 0 1
13.454856 -29.001648 19.056091 37.219126 -1.136415 1.033288 0.042581 -0.018705 -428879.000000 0 0 1
12.190056 -28.848148 19.673191 36.984423 -1.170995 1.009916 0.028433 -0.013924 128359.000000 0 0 1
11.259156 -28.152048 18.669891 35.607180 -1.190341 1.018869 0.042471 -0.016539 -477748.000000 0 0 1
10.857756 -29.000048 17.627591 35.631806 -1.212548 1.053289 0.038632 -0.019258 -97610.800000 0 0 1
10.100156 -28.293248 16.690091 34.366847 -1.227916 1.063695 0.064629 -0.012929 -339445.000000 0 0 1
9.851456 -29.159048 15.469791 34.447289 -1.244984 1.105054 0.043226 -0.009484 120433.000000 0 0 1
8.959656 -30.236848 15.738491 35.245461 -1.282723 1.107902 0.032003 -0.000924 224301.000000 0 0 1
8.807056 -30.928748 14.524091 35.285987 -1.293386 1.146576 0.025385 0.003986 -67443.500000 0 0 1
7.826156 -32.123048 14.519891 36.110472 -1.331821 1.156991 0.010891 0.001082 -234348.000000 0 0 1
8.136256 -33.211348 15.354991 37.482903 -1.330544 1.148722 0.014858 -0.002741 89043.400000 0 0 1
7.128456 -34.191148 15.158491 38.073998 -1.365252 1.161316 -0.002620 0.002147 -63378.800000 0 0 1
7.105656 33.634691 16.353491 38.068615 1.362598 1.126769 0.017213 -0.001530 1151060.000000 0 0 1
8.228956 32.690591 16.453491 37.511435 1.324197 1.116727 0.035614 -0.005326 1126940.000000 0 0 1
8.035156 31.727191 17.466891 37.098122 1.322754 1.080566 0.041340 -0.013692 -402898.000000 0 0 1
9.306056 30.892591 17.550591 36.728437 1.278203 1.072594 0.057802 -0.014066 -347738.000000 0 0 1
9.610956 30.092091 16.391291 35.589027 1.261652 1.092157 0.062717 -0.010598 -171284.000000 0 0 1
10.939756 29.646691 16.543591 35.669243 1.217292 1.088510 0.078477 -0.023778 5012.070000 0 0 1
11.497256 28.714891 15.392091 34.549216 1.189951 1.109050 0.077303 -0.016471 85537.400000 0 0 1
10.898956 27.460091 15.144091 33.199206 1.192964 1.097123 0.073931 -0.016646 -556999.000000 0 0 1
11.753156 26.743991 14.370491 32.555932 1.156734 1.113628 0.068713 -0.008980 -543187.000000 0 0 1
-9.316985 -9.387109 19.109673 23.240130 0.789147 0.605407 0.034658 -0.018502 30502.900000 0 1 0
-9.438985 -9.542209 17.735873 22.242063 0.790836 0.647818 0.035854 -0.023753 46222.300000 0 1 0
-9.352785 -10.869709 17.331673 22.494712 0.860270 0.691206 0.034193 -0.024686 11520.200000 0 1 0
-9.682385 -11.087009 15.882873 21.654930 0.852925 0.747408 0.034581 -0.021110 1068400.000000 0 1 0
-11.099485 -10.925009 15.634373 22.067805 0.777476 0.783469 0.048770 -0.018144 1221660.000000 0 1 0
-11.640085 -11.566509 14.455873 21.868881 0.782228 0.848613 0.051089 -0.012821 327780.000000 0 1 0
-11.666085 -13.094409 14.337873 22.652499 0.843020 0.885440 0.036437 -0.010949 525234.000000 0 1 0
-10.347885 -13.614009 14.053673 22.134265 0.920868 0.882881 0.026375 -0.008557 803262.000000 0 1 0
-10.107285 -14.988809 14.424173 23.127438 0.977513 0.897352 0.023333 -0.007247 130247.000000 0 1 0
-9.793485 -15.345809 15.903973 24.173179 1.002771 0.852745 0.035997 -0.008026 -248274.000000 0 1 0
-10.856685 -15.111909 16.783573 25.058446 0.947815 0.836888 0.046632 -0.006380 -699832.000000 0 0 1
-10.447785 -15.125509 18.121473 25.813272 0.966313 0.792564 0.049246 -0.002480 -419791.000000 0 0 1
-11.528085 -14.585809 19.059873 26.625577 0.901959 0.772958 0.037563 -0.002529 -382460.000000 0 0 1
-12.064685 -13.300909 18.744273 25.958016 0.834096 0.763964 0.046578 -0.000741 539757.000000 0 0 1
-13.136285 -13.301709 17.790073 25.806669 0.791655 0.810192 0.050766 -0.015922 -25476.900000 0 0 1
-14.555285 -13.621409 18.271173 27.041355 0.752267 0.828916 0.030604 -0.010621 -558754.000000 0 0 1
-14.714685 -14.954409 18.667673 28.082705 0.793478 0.843652 0.027296 -0.001138 -68426.100000 0 0 1
-15.566885 -15.038309 19.808473 29.340318 0.768129 0.829658 0.025435 0.004774 104830.000000 0 0 1
-15.945885 -16.497309 20.140673 30.529972 0.802393 0.850375 0.019510 0.005730 -41755.700000 0 0 1
-16.905385 -17.057909 19.263973 30.787416 0.789889 0.894756 0.030122 0.013121 -125032.000000 0 0 1
-17.302085 -18.343109 19.686573 31.990514 0.814595 0.907918 0.009739 0.009071 -250810.000000 0 0 1
-18.612685 -18.717409 18.978573 32.510916 0.788204 0.947444 0.029585 0.009733 -420421.000000 0 0 1
-18.589785 -18.783909 17.533573 31.715005 0.790592 0.985018 0.037760 0.004655 63179.200000 0 0 1
-18.588385 -17.586209 16.759473 30.588932 0.757701 0.990952 0.043776 0.001195 -526407.000000 0 0 1
-18.434785 -17.833609 15.294073 29.862813 0.768824 1.033117 0.046031 -0.011623 -900087.000000 0 0 1
-19.456685 -18.541709 14.663273 30.616485 0.761323 1.071356 0.049823 -0.008809 -428089.000000 0 0 1
-19.392485 -18.709609 13.256073 30.030675 0.767478 1.113618 0.062836 -0.015026 23590.600000 0 0 1
-19.614985 -20.197309 12.825673 30.938275 0.800024 1.143341 0.055441 -0.009688 245997.000000 0 0 1
-18.488585 -21.062409 13.106073 30.939005 0.850383 1.133369 0.056391 -0.003818 419779.000000 0 0 1
-18.551385 -22.287409 12.395173 31.536056 0.876626 1.166853 0.050911 -0.000140 327444.000000 0 0 1
-17.140885 -22.959609 12.190473 31.137778 0.929496 1.168534 0.050511 -0.007218 626595.000000 0 0 1
-17.324285 -24.241609 11.628473 31.984494 0.950305 1.198703 0.050791 -0.010069 157289.000000 0 0 1
-16.183085 -24.628309 10.909773 31.424020 0.989451 1.216235 0.048983 -0.010621 -101348.000000 0 0 1
-16.567185 -25.837679 10.027773 32.289527 1.000631 1.255016 0.036530 -0.008978 252371.000000 0 0 1
-17.579285 -25.491549 9.075273 32.267800 0.967076 1.285701 0.036333 -0.005740 -53772.700000 0 0 1
-17.934485 -26.737559 8.532473 33.306845 0.979965 1.311730 0.043280 -0.002371 491622.000000 0 0 1
-19.207585 -26.576789 7.625973 33.666193 0.944984 1.342296 0.040652 -0.004805 521099.000000 0 0 1
-19.038885 -25.595359 6.587273 32.572899 0.931248 1.367160 0.043426 -0.011713 -399104.000000 0 0 1
-20.080285 -25.597189 5.661673 33.022545 0.905595 1.398496 0.047078 -0.011240 -220272.000000 0 0 1
-20.031985 -24.387409 4.713973 31.909994 0.883138 1.422527 0.050382 -0.013770 -877927.000000 0 0 1
-21.143885 -24.415809 3.926573 32.536343 0.857091 1.449819 0.037716 -0.017004 -952515.000000 0 0 1
-21.255985 -23.216709 3.229373 31.642714 0.829458 1.468561 0.045491 -0.018162 -28550.600000 0 0 1
-21.983885 -23.313109 1.871873 32.098227 0.814734 1.512446 0.021509 -0.008418 -6598.260000 0 0 1
-21.238985 -23.949909 0.831373 32.021615 0.845317 1.544831 0.004543 -0.016360 115343.000000 0 0 1
-21.696885 -23.532109 -0.421027 32.010815 0.825952 1.583949 -0.008950 -0.011604 -305597.000000 0 0 1
-20.931885 -24.237809 -1.587427 32.064547 0.858457 1.620324 -0.010401 -0.003275 689083.000000 0 0 1
-19.507085 -24.022009 -1.562527 30.984267 0.888751 1.621247 0.005633 -0.006955 804336.000000 0 0 1
-18.823285 -24.355309 -2.745127 30.903606 0.912824 1.659742 0.005836 -0.000969 -204408.000000 0 0 1
-18.764285 -25.873699 -3.196927 32.121131 0.943340 1.670489 -0.000654 0.007164 -559066.000000 0 0 1
-19.973885 -26.385819 -3.708027 33.300406 0.922835 1.682379 0.011709 0.006446 -360782.000000 0 0 1
-19.740785 -27.671029 -4.130627 34.241007 0.951127 1.691725 0.022278 -0.005333 -4426.050000 0 0 1
-21.039685 -28.408119 -4.548227 35.642334 0.933324 1.698753 0.021872 -0.009425 317074.000000 0 0 1
-21.387585 -27.958799 -5.881527 35.689153 0.917784 1.736350 0.014236 -0.003422 -397888.000000 0 0 1
-22.225285 -28.897909 -6.474827 37.026691 0.915185 1.746569 0.018719 -0.015073 -524163.000000 0 0 1
-22.665785 -28.457199 -7.884027 37.225098 0.898201 1.784206 0.013740 0.000546 -118384.000000 0 0 1
-21.701385 -28.517729 -8.921827 36.929799 0.920306 1.814799 0.037500 -0.001819 -43081.100000 0 0 1
-22.302485 -28.395909 -10.196427 37.519270 0.905014 1.846023 0.039602 0.000016 176483.000000 0 0 1
-22.965485 -27.039049 -10.659227 37.042446 0.866683 1.862680 0.019791 0.011015 -41126.200000 0 0 1
-22.088785 -25.940319 -10.874327 35.764027 0.865419 1.879745 0.016382 0.017782 67497.300000 0 0 1
-22.025785 -25.079869 -9.723327 34.766049 0.850142 1.854256 -0.001227 0.021701 -21138.100000 0 0 1
-21.702385 -23.606209 -10.082927 33.614165 0.827393 1.875448 0.006361 0.018739 -101124.000000 0 0 1
-22.779385 -22.976209 -10.705527 34.079538 0.789700 1.890340 0.004775 0.022297 -59174.400000 0 0 1
-22.453485 -21.549709 -10.796927 32.941199 0.764862 1.904732 0.015450 0.023691 326302.000000 0 0 1
-23.672785 -20.610109 -10.982527 33.253470 0.716347 1.907383 0.028551 0.019997 -589354.000000 0 0 1
-24.328085 -20.781109 -12.196727 34.241355 0.706929 1.934993 0.024642 0.016121 -776936.000000 0 0 1
-25.563365 -20.183609 -12.290927 34.812794 0.668338 1.931634 0.031084 0.006753 -937421.000000 0 0 1
-25.639005 -18.630309 -12.238027 33.973759 0.628382 1.939300 0.035039 0.000843 -955043.000000 0 0 1
-24.991185 -18.068609 -13.372327 33.613288 0.625996 1.979945 0.042417 0.003344 591188.000000 0 0 1
-24.436585 -16.753309 -13.336627 32.491317 0.600985 1.993763 0.046787 -0.010826 702551.000000 0 0 1
-23.277085 -16.397909 -12.349027 31.035667 0.613717 1.980021 0.030820 -0.009530 66343.700000 0 0 1
-23.828085 -16.427109 -11.039227 30.975670 0.603577 1.935191 0.053032 -0.009591 950627.000000 0 0 1
-22.795085 -16.626209 -10.053827 29.952065 0.630171 1.913106 0.044801 -0.007441 408994.000000 0 0 1
-23.390285 -16.973609 -8.698527 30.180677 0.627747 1.863159 0.021402 -0.006796 -80127.400000 0 0 1
-23.870585 -18.269809 -8.758127 31.309672 0.653265 1.854305 0.011808 0.006798 -107661.000000 0 0 1
-24.633885 -18.521209 -7.593127 31.741441 0.644690 1.812357 0.010683 0.007442 -1211.440000 0 0 1
-24.661585 -20.004409 -7.129027 32.545249 0.681507 1.791637 0.004913 0.013277 -1009.940000 0 0 1
-25.284595 -20.840809 -8.074527 33.746823 0.689353 1.812408 0.005413 0.002004 111015.000000 0 0 1
-25.421755 -22.188409 -7.544927 34.576250 0.717589 1.790778 -0.001304 0.011288 74373.000000 0 0 1
-25.526355 -23.239709 -8.699027 35.599887 0.738542 1.817651 -0.013771 0.020168 49902.800000 0 0 1
-25.536735 -24.578909 -8.237927 36.388337 0.766288 1.799165 -0.020521 0.012316 -219656.000000 0 0 1
-25.860155 -25.521139 -9.269727 37.496720 0.778800 1.820601 -0.023027 0.018152 -26192.700000 0 0 1
-26.624935 -26.721279 -8.591127 38.687484 0.787204 1.794728 -0.027384 0.007749 450318.000000 0 0 1
-25.832165 -27.515879 -7.681827 38.515385 0.816949 1.771591 -0.011733 -0.006132 8155.690000 0 0 1
-26.680045 -28.405889 -7.045427 39.602493 0.816718 1.749652 0.000994 -0.015284 -171460.000000 0 0 1
-26.185425 -29.003689 -5.685527 39.486906 0.836419 1.715284 0.005516 -0.018480 -124195.000000 0 0 1
-26.150585 -28.074629 -4.587327 38.640413 0.820866 1.689795 -0.003857 -0.016269 37754.900000 0 0 1
-25.275805 -28.432169 -3.542827 38.207410 0.844100 1.663656 0.003594 -0.013463 -55554.800000 0 0 1
-25.745505 -29.641499 -2.650627 39.350672 0.855624 1.638207 0.005279 -0.011254 -195046.000000 0 0 1
-25.605405 -30.862019 -3.346827 40.240555 0.878222 1.654063 0.013619 -0.016118 129259.000000 0 0 1
-25.970505 -32.097939 -2.688927 41.376022 0.890530 1.635830 0.016144 -0.016504 464283.000000 0 0 1
-25.005485 -32.439389 -1.481327 40.985151 0.914092 1.606947 0.022792 -0.015418 575018.000000 0 0 1
-23.719285 -32.875989 -1.907527 40.584157 0.945801 1.617815 0.028182 -0.014580 411096.000000 0 0 1
-22.805785 -32.801109 -0.803527 39.958257 0.963249 1.590907 0.039642 -0.011468 326474.000000 0 0 1
-21.758885 -31.672429 -0.665227 38.432205 0.968850 1.588106 0.039631 -0.012905 -416983.000000 0 0 1
-22.221385 -30.432269 -0.234127 37.682460 0.940094 1.577010 0.021619 -0.013259 -455871.000000 0 0 1
-21.801085 -29.303769 -0.986027 36.537248 0.931166 1.597787 0.003270 -0.010464 -79591.800000 0 0 1
-22.406485 -27.981379 -0.488727 35.850342 0.895590 1.584429 0.010527 -0.011455 495806.000000 0 0 1
-23.822785 -28.046959 -0.294327 36.800050 0.866657 1.578794 0.005585 -0.013641 699673.000000 0 0 1
-24.545485 -26.853079 -0.018327 36.380889 0.830264 1.571300 0.014543 -0.016935 453982.000000 0 0 1
-24.126785 -26.164749 1.335773 35.615729 0.825899 1.533282 0.015226 -0.010413 -403833.000000 0 0 1
-24.297785 -26.874719 2.573673 36.321573 0.835713 1.499879 0.016094 -0.006822 -35683.300000 0 0 1
-23.826985 -26.094489 3.692173 35.528576 0.830788 1.466687 0.029479 -0.014595 405603.000000 0 0 1
-24.759385 -24.893909 4.184573 35.358797 0.788107 1.452172 0.044744 -0.016456 176818.000000 0 0 1
-24.992785 -23.826509 3.269173 34.684714 0.761513 1.476402 0.040153 -0.019910 83830.300000 0 0 1
-25.890385 -22.867009 3.801473 34.751451 0.723469 1.461187 0.038258 -0.013747 -357671.000000 0 0 1
-26.044545 -21.737309 2.785973 34.038076 0.695497 1.488856 0.028940 -0.011645 280991.000000 0 0 1
-24.887785 -20.916009 2.580673 32.611979 0.698902 1.491581 0.026423 -0.008494 440180.000000 0 0 1
-25.047785 -20.002309 1.486173 32.088824 0.673866 1.524465 0.020817 -0.007029 -514348.000000 0 0 1
-23.872585 -19.061109 1.458273 30.583538 0.673796 1.523097 0.034364 -0.007022 -726139.000000 0 0 1
-22.675185 -19.687809 1.091873 30.049394 0.714996 1.534452 0.032118 -0.012127 -153388.000000 0 0 1
-21.568485 -18.933409 1.577773 28.743050 0.720429 1.515876 0.044230 -0.009109 542745.000000 0 0 1
-20.200785 -19.675109 1.526373 28.240246 0.772216 1.516720 0.041451 -0.015680 334942.000000 0 0 1
-19.787485 -19.825309 0.165773 28.010979 0.786353 1.564878 0.021114 -0.012323 -646328.000000 0 0 1
-18.684185 -20.638909 -0.009227 27.839961 0.835067 1.571128 0.040764 -0.011569 -500979.000000 0 0 1
-18.464185 -20.866009 -1.529427 27.904402 0.846391 1.625633 0.043668 -0.012507 212222.000000 0 0 1
-17.814285 -19.853209 -2.338327 26.776229 0.839475 1.658236 0.035681 -0.012192 167677.000000 0 0 1
-17.646685 -20.357509 -3.578427 27.177911 0.856607 1.702847 0.032813 -0.000709 -62079.500000 0 0 1
-16.823385 -19.382709 -4.448327 26.048097 0.855968 1.742411 0.037292 0.006254 1202480.000000 0 0 1
-15.439385 -19.239709 -4.034727 24.996401 0.894548 1.732918 0.051983 -0.004936 1005880.000000 0 1 0
-14.772185 -18.291909 -4.845527 24.006052 0.891450 1.774039 0.050862 -0.007306 -64893.400000 0 1 0
-13.242685 -18.420209 -4.709227 23.170016 0.947484 1.775469 0.057986 -0.009819 -295527.000000 0 1 0
-12.637585 -19.560909 -5.243527 23.871161 0.997194 1.792262 0.043142 -0.011988 -308127.000000 0 1 0
-11.347485 -19.151609 -5.649927 22.966742 1.035904 1.819352 0.042693 -0.018430 28535.800000 0 1 0
-10.381885 -20.334009 -5.898527 23.580672 1.098730 1.823624 0.039341 -0.016506 139446.000000 0 1 0
-10.751785 -21.214509 -6.950927 24.778452 1.101713 1.855135 0.046367 -0.013183 -250366.000000 0 1 0
-9.718385 -22.164009 -7.077427 25.214684 1.157567 1.855306 0.049613 -0.011588 177135.000000 0 0 1
-10.119685 -23.293609 -8.083027 26.652122 1.160957 1.878928 0.054282 -0.009239 51155.800000 0 0 1
-10.310485 -22.904409 -9.435927 26.831974 1.147815 1.930148 0.043136 -0.006259 -108173.000000 0 0 1
-10.520785 -24.089409 -10.237727 28.209885 1.159025 1.942188 0.048578 -0.001604 -22767.200000 0 0 1
-11.399785 -23.844209 -11.483427 28.816151 1.124826 1.980684 0.052564 -0.000257 -238658.000000 0 0 1
-10.825785 -22.976609 -12.451227 28.287016 1.130481 2.026590 0.033121 0.009168 -392895.000000 0 0 1
-11.741185 -22.277409 -13.258127 28.459029 1.085748 2.055411 0.042014 0.001262 -395848.000000 0 0 1
-11.093385 -21.215609 -14.240727 27.856123 1.089007 2.107405 0.038732 0.004422 102121.000000 0 0 1
-10.813285 -19.975109 -13.505427 26.425910 1.074628 2.107223 0.034301 0.003784 -145888.000000 0 0 1
-10.712585 -18.866709 -14.370027 26.023257 1.054387 2.155796 0.023113 0.021167 -148748.000000 0 0 1
-10.332685 -17.628009 -13.593027 24.541424 1.040622 2.157815 0.038293 0.017391 -529428.000000 0 1 0
-11.337185 -17.081309 -12.771927 24.154193 0.984837 2.127943 0.038908 0.008974 -199422.000000 0 1 0
-10.850085 -16.143409 -11.838727 22.770364 0.979037 2.117552 0.041411 0.003873 68519.900000 0 1 0
-10.535085 -14.773609 -12.504427 22.036521 0.951331 2.174191 0.046923 0.009397 -160219.000000 0 1 0
-11.672285 -14.089109 -12.942227 22.410857 0.878940 2.186457 0.045350 0.011832 -427313.000000 0 1 0
-11.672985 -13.934709 -14.359127 23.165044 0.873492 2.239363 0.053121 0.009351 -442554.000000 0 1 0
-12.944985 -13.332809 -14.942127 23.845411 0.800156 2.248011 0.058431 0.009492 -476653.000000 0 1 0
-13.027985 -11.966909 -14.535427 22.895719 0.742972 2.258615 0.047945 0.010119 -39644.800000 0 1 0
-14.106585 -11.323909 -15.198527 23.626720 0.676409 2.269567 0.052625 -0.003430 -68356.300000 0 1 0
-14.373985 -9.855509 -14.654427 22.770480 0.601029 2.269952 0.045795 -0.006979 109610.000000 0 1 0
-13.256985 -8.992109 -14.655627 21.711589 0.596008 2.311780 0.033826 -0.002535 108205.000000 0 1 0
-13.211985 -8.298209 -15.862127 22.249133 0.560812 2.364467 0.033124 -0.008264 542346.000000 0 1 0
-12.104485 -7.154409 -15.885627 21.214554 0.533816 2.417058 0.025549 -0.000987 670280.000000 0 1 0
-10.830385 -7.675809 -16.199027 20.943347 0.616560 2.455092 0.022132 0.004113 335778.000000 0 1 0
-9.804585 -6.699009 -15.973827 19.904014 0.599398 2.502342 0.011265 0.008555 493548.000000 0 1 0
11.277715 22.590991 16.144973 29.969982 1.107779 1.001897 0.080431 -0.015961 -154271.000000 0 0 1
12.095415 22.310091 17.279873 30.702332 1.074000 0.973003 0.087286 -0.024599 -35953.800000 0 0 1
12.414215 20.963091 17.277573 29.867682 1.036136 0.953944 0.072747 -0.017480 -378743.000000 0 0 1
13.602715 20.626791 18.171573 30.670905 0.987794 0.936676 0.067446 -0.015862 333317.000000 0 0 1
14.849115 21.228691 17.809973 31.438013 0.960417 0.968531 0.054135 -0.010067 717040.000000 0 0 1
15.927015 20.816991 18.653573 32.170991 0.917703 0.952281 0.041380 -0.009457 -425120.000000 0 0 1
17.265215 21.214691 18.109773 32.804186 0.887677 0.985967 0.020164 0.001409 -1675070.000000 0 0 1
17.505115 22.656391 18.190573 33.921056 0.912966 1.004794 0.022997 0.001203 -623821.000000 0 0 1
18.661915 23.097891 17.563073 34.499871 0.891227 1.036685 0.013556 0.003850 512428.000000 0 0 1
20.011515 22.754091 18.315173 35.406990 0.849441 1.027132 -0.010701 0.004938 240635.000000 0 0 1
20.426215 21.378391 18.246473 34.744778 0.808171 1.017896 0.003641 0.007837 -446087.000000 0 0 1
21.690115 21.180991 18.784473 35.664434 0.773523 1.016082 0.005030 0.002915 -967440.000000 0 0 1
22.152715 19.709991 18.686173 35.048531 0.727113 1.008475 0.001739 -0.001882 -239063.000000 0 0 1
22.229715 19.203191 17.332973 34.107986 0.712481 1.037727 -0.007587 -0.000073 50892.100000 0 0 1
21.754515 17.899691 17.133673 32.973028 0.688492 1.024382 -0.007015 -0.002232 160092.000000 0 0 1
22.715715 16.722491 17.564373 33.228791 0.634587 1.013859 -0.011619 0.002532 -489480.000000 0 0 1
23.906015 16.657991 16.874673 33.671067 0.608583 1.045855 -0.006754 -0.002020 -966528.000000 0 0 1
24.641115 15.591191 17.424373 33.968787 0.564139 1.032176 -0.015574 -0.000930 -744136.000000 0 0 1
26.030115 15.398591 16.834773 34.613481 0.534197 1.062872 0.033500 -0.021706 -1958570.000000 0 0 1
26.876615 16.495791 17.030873 35.840119 0.550476 1.075616 0.018309 -0.011063 583414.000000 0 0 1
28.219415 16.233391 17.453073 36.938707 0.522027 1.078685 0.029805 -0.020227 778556.000000 0 0 1
29.047115 15.295891 16.578673 36.777052 0.484692 1.103148 0.036010 -0.025723 -1677640.000000 0 0 1
29.434115 15.823391 15.332773 36.767387 0.493263 1.140631 0.061687 -0.026977 -23514.500000 0 0 1
29.709515 14.773891 14.373773 36.159763 0.461468 1.161998 0.076688 -0.034109 -221560.000000 0 0 1
29.042215 14.974091 12.992673 35.163663 0.476048 1.192335 0.054886 -0.019436 -637081.000000 0 0 1
29.435015 15.993991 12.099873 35.617899 0.497736 1.224184 0.056171 -0.018797 4953.260000 0 0 1
28.594715 15.921991 10.960673 34.515270 0.508061 1.247641 0.039801 -0.011145 720018.000000 0 0 1
27.104715 16.358091 11.111273 33.551648 0.543000 1.233254 0.027149 -0.009236 -187451.000000 0 0 1
26.636415 17.706591 11.063673 33.844154 0.586675 1.237774 0.000480 0.004782 474623.000000 0 0 1
27.227015 18.627591 12.028273 35.113769 0.600015 1.221165 -0.012673 -0.005229 -439086.000000 0 0 1
26.888715 18.414591 13.554673 35.296307 0.600482 1.176644 -0.009846 -0.010003 -149118.000000 0 0 1
25.590515 18.856891 13.866773 34.680602 0.635045 1.159452 -0.023356 0.011323 -224244.000000 0 0 1
25.266015 18.782791 15.249973 34.981801 0.639265 1.119714 -0.019045 0.008988 -159699.000000 0 0 1
25.986815 19.685191 16.296673 36.447261 0.648288 1.107242 -0.003028 0.003904 -88662.100000 0 0 1
25.827415 21.081591 16.174873 37.055571 0.684570 1.119088 -0.011793 0.007320 200328.000000 0 0 1
24.604715 21.597891 16.689573 36.747826 0.720411 1.099362 -0.004459 0.011723 -106914.000000 0 0 1
24.571115 23.152191 16.488573 37.571753 0.755675 1.116472 -0.002795 0.014553 -56341.600000 0 0 1
24.443115 23.605391 15.174373 37.214808 0.767965 1.150807 0.007299 0.007579 119591.000000 0 0 1
24.805315 24.928991 15.072173 38.261320 0.787885 1.165896 0.002784 0.012189 -296310.000000 0 0 1
24.728215 25.378791 13.592373 37.951551 0.798381 1.204510 0.000920 0.005384 1018980.000000 0 0 1
23.361715 25.592391 13.156973 37.065430 0.830933 1.207918 0.020215 0.000717 998468.000000 0 0 1
23.208715 25.815391 11.779773 36.658449 0.838519 1.243654 0.020641 -0.009904 190690.000000 0 0 1
22.569115 24.631791 10.922473 35.148122 0.829070 1.254809 0.028510 -0.012092 40166.300000 0 0 1
21.216915 24.264091 11.106973 34.092058 0.852297 1.238945 0.041377 -0.015459 183876.000000 0 0 1
20.917715 22.998491 10.450073 32.797643 0.832743 1.246520 0.030437 -0.004893 9560.240000 0 0 1
20.714515 22.969791 8.929273 32.193700 0.836979 1.289750 0.044429 -0.002160 -979612.000000 0 0 1
19.515315 23.449391 8.451873 31.656841 0.876709 1.300534 0.066112 -0.011126 -662291.000000 0 0 1
19.662915 23.684691 7.045373 31.578981 0.877913 1.345800 0.053672 -0.023003 245556.000000 0 0 1
18.352915 24.075991 6.298273 30.921692 0.919475 1.365676 0.051848 -0.020216 -243501.000000 0 0 1
17.522315 22.987891 5.908473 29.502283 0.919507 1.369161 0.053727 -0.006997 745719.000000 0 0 1
16.566615 23.256691 4.885073 28.968782 0.951838 1.401354 0.071286 -0.014875 -73424.500000 0 0 1
15.366515 24.162191 5.146173 29.093372 1.004345 1.392976 0.042821 -0.011348 -851893.000000 0 0 1
15.613115 25.566191 5.066373 30.382027 1.022551 1.403258 0.057347 -0.026303 523833.000000 0 0 1
14.542415 26.282991 5.690873 30.572266 1.065422 1.383559 0.041508 -0.028977 271703.000000 0 0 1
14.316415 27.703391 5.183973 31.611883 1.093819 1.406064 0.050555 -0.037118 -122683.000000 0 0 1
13.780815 27.758891 3.867473 31.231782 1.109995 1.446646 0.039147 -0.018801 392992.000000 0 0 1
13.515515 29.038991 3.389473 32.209015 1.135188 1.465367 0.043402 -0.017963 -162457.000000 0 0 1
13.022415 28.939791 1.932573 31.793547 1.147957 1.509974 0.046077 -0.020581 -671269.000000 0 0 1
14.015715 28.480391 1.089273 31.760973 1.113474 1.536494 0.062479 -0.024324 -223094.000000 0 0 1
13.443615 27.564491 0.133573 30.668384 1.117025 1.566441 0.042824 -0.017087 187329.000000 0 0 1
14.536615 26.828791 -0.686327 30.521602 1.074248 1.593285 0.048462 -0.024258 297049.000000 0 0 1
14.909315 27.560791 -1.828427 31.388342 1.074919 1.629081 0.051569 -0.016886 -206713.000000 0 0 1
15.920015 27.040991 -2.644427 31.490555 1.038700 1.654871 0.049888 -0.019956 -131132.000000 0 0 1
15.689515 27.657691 -4.023627 32.051494 1.054787 1.696665 0.053657 -0.020179 264884.000000 0 0 1
14.567115 27.023491 -4.659827 31.051310 1.076396 1.721434 0.070859 -0.022551 78175.800000 0 0 1
14.357315 27.560791 -5.941927 31.639156 1.090543 1.759721 0.072195 -0.014738 1168210.000000 0 0 1
13.089615 27.005191 -6.740827 30.758041 1.119457 1.791746 0.071832 -0.023928 1213450.000000 0 0 1
13.111315 25.643091 -7.137827 29.671927 1.098150 1.813737 0.070125 -0.021949 -93807.500000 0 0 1
11.909015 25.437191 -7.852727 29.164030 1.132933 1.843422 0.054011 -0.017356 128580.000000 0 0 1
11.784715 23.937091 -8.300827 27.942218 1.113311 1.872420 0.053320 -0.011914 -8059.610000 0 0 1
12.515215 23.636291 -9.471027 28.372613 1.083835 1.911138 0.054567 -0.014145 166312.000000 0 0 1
12.262015 22.337391 -9.942827 27.352803 1.068763 1.942822 0.055328 -0.011825 -66905.500000 0 0 1
12.527215 22.001491 -11.420627 27.774582 1.053196 1.994555 0.057237 -0.012345 24555.500000 0 0 1
11.964315 20.742591 -11.688127 26.646054 1.047611 2.024885 0.065141 -0.014933 -65285.400000 0 0 1
11.969815 20.255291 -13.043827 26.901574 1.037060 2.077013 0.058955 -0.016324 -445683.000000 0 0 1
13.237215 19.466891 -13.407827 27.091577 0.973629 2.088525 0.046594 -0.014838 -644216.000000 0 0 1
14.278615 20.377191 -13.544527 28.329542 0.959590 2.069293 0.037661 -0.013939 -1073470.000000 0 0 1
15.479415 19.698791 -13.843027 28.623138 0.904771 2.075594 0.036183 -0.009962 -7933.890000 0 0 1
16.740015 20.577391 -13.729627 29.869044 0.887869 2.048410 0.028702 -0.002345 -192217.000000 0 0 1
16.919515 21.809891 -14.493227 31.176834 0.911004 2.054286 0.028698 -0.004283 -77477.400000 0 0 1
15.968415 22.842091 -14.272227 31.312104 0.960689 2.044073 0.033940 -0.007428 97797.800000 0 0 1
16.557515 24.240591 -14.597827 32.784967 0.971538 2.032261 0.027070 -0.008423 -173583.000000 0 0 1
16.805415 24.461191 -15.987927 33.710319 0.968833 2.064936 0.009903 0.002458 -73348.900000 0 0 1
15.657915 24.765991 -16.775527 33.763041 1.007012 2.090774 0.033356 0.006184 330289.000000 0 0 1
15.887115 24.756591 -18.311927 34.649904 1.000255 2.127610 0.001281 0.012697 40790.400000 0 0 1
16.122815 23.484091 -18.841227 34.153177 0.969160 2.155160 0.009618 0.012461 -37592.100000 0 0 1
16.142315 23.544491 -20.298727 35.027927 0.969794 2.188913 0.008484 0.009490 -124896.000000 0 0 1
16.491315 22.219291 -20.996027 34.734615 0.932301 2.219897 0.019303 0.004354 -758483.000000 0 0 1
15.469015 21.314891 -20.893627 33.617832 0.943005 2.241458 0.038237 0.006861 -543609.000000 0 0 1
15.868115 20.175391 -21.558727 33.520474 0.904336 2.269403 0.030431 -0.004892 -391677.000000 0 0 1
14.743615 19.180091 -21.774427 32.548053 0.915438 2.303650 0.026187 -0.001307 -796920.000000 0 0 1
14.246915 18.613391 -20.551627 31.173743 0.917504 2.290632 0.028633 -0.002700 285641.000000 0 0 1
13.482215 17.422791 -20.782027 30.285581 0.912220 2.327051 0.019264 -0.002674 500068.000000 0 0 1
11.971515 17.677791 -21.073727 29.998724 0.975532 2.349683 0.017772 0.004375 -301247.000000 0 0 1
11.169015 17.352291 -19.975527 28.720560 0.998889 2.339930 0.024191 0.005755 -201682.000000 0 0 1
9.823315 17.243591 -20.404427 28.463654 1.052970 2.370083 0.019299 0.010609 232680.000000 0 0 1
8.834715 16.891391 -19.268327 27.104238 1.088894 2.361569 0.027705 -0.006132 -155836.000000 0 0 1
8.901415 15.523091 -18.852127 25.992388 1.050142 2.382258 0.029635 -0.017911 405991.000000 0 0 1
7.578515 15.092891 -18.536427 25.076451 1.105450 2.402673 0.027734 -0.016452 456045.000000 0 0 1
7.107815 15.328791 -17.115527 24.050658 1.136616 2.362633 0.024863 -0.024878 -151760.000000 0 1 0
6.981015 16.691791 -16.791127 24.683849 1.174674 2.318897 0.036431 -0.018700 -482033.000000 0 1 0
6.368715 16.859291 -15.553427 23.805573 1.209611 2.282801 0.030990 -0.026021 -302215.000000 0 1 0
5.996915 18.344291 -15.151027 24.536292 1.254839 2.236350 0.034540 -0.020289 -670268.000000 0 1 0
7.056115 19.182891 -14.842227 25.259924 1.218323 2.198861 0.032706 -0.019200 -631876.000000 0 0 1
7.598315 19.890691 -15.956727 26.608102 1.205900 2.213915 0.038797 -0.008582 -38743.300000 0 0 1
8.796715 20.833091 -15.725527 27.544365 1.171260 2.178418 0.040201 0.002575 -141388.000000 0 0 1
8.636915 22.057391 -15.086427 28.084249 1.197582 2.137892 0.041440 -0.002857 -160021.000000 0 0 1
8.287715 21.915991 -13.703527 27.143757 1.209260 2.100005 0.029931 -0.012839 -107858.000000 0 0 1
7.978615 23.243891 -12.949127 27.777988 1.240142 2.055747 0.029628 -0.015081 64031.900000 0 0 1
6.654315 23.720291 -13.164527 27.932720 1.297294 2.061554 0.024226 -0.012725 242413.000000 0 0 1
6.122115 24.687191 -12.292027 28.249453 1.327713 2.020973 0.016300 -0.013760 218704.000000 0 0 1
5.529215 24.100991 -10.971027 27.051680 1.345280 1.988386 0.012199 -0.010455 -854545.000000 0 0 1
6.523515 23.884091 -10.026327 26.712044 1.304167 1.955569 -0.002212 -0.007249 -217158.000000 0 0 1
5.986215 23.293391 -8.835927 25.622069 1.319248 1.922882 0.013773 -0.012787 308413.000000 0 0 1
7.023215 23.165091 -7.657927 25.388793 1.276424 1.877194 0.012127 -0.015310 421859.000000 0 0 1
7.321315 24.445691 -7.085727 26.483976 1.279805 1.841643 0.006960 -0.009457 542498.000000 0 0 1
8.332815 24.330891 -6.077927 26.426677 1.240838 1.802866 0.017336 -0.006314 335844.000000 0 0 1
8.569215 25.746391 -5.448627 27.676626 1.249497 1.768958 0.012591 -0.006401 4334.070000 0 0 1
9.060215 26.740491 -6.314627 28.931226 1.244116 1.790831 0.021139 -0.016391 47648.300000 0 0 1
8.937715 28.025991 -5.747227 29.972813 1.262084 1.763739 0.023211 -0.017238 115052.000000 0 0 1
9.180615 29.277191 -6.695027 31.404792 1.266932 1.785630 0.019827 -0.012401 976427.000000 0 0 1
10.544415 29.302091 -7.158627 31.953766 1.225372 1.796745 0.035463 -0.015392 719111.000000 0 0 1
10.668315 30.469991 -7.968527 33.252529 1.234010 1.812788 0.029300 -0.019265 111892.000000 0 0 1
12.091215 30.629791 -8.522227 34.014848 1.194821 1.824039 0.055224 -0.031548 -143381.000000 0 0 1
13.134915 30.814891 -7.645927 34.359041 1.167866 1.795205 0.057321 -0.022445 -120968.000000 0 0 1
14.387215 31.161991 -8.238327 35.297757 1.138263 1.806364 0.055773 -0.024511 1199570.000000 0 0 1
15.603015 31.273991 -7.259927 35.696262 1.108018 1.775606 0.052936 -0.027056 -868.002000 0 0 1
16.270315 30.085191 -7.049627 34.921900 1.075038 1.774062 0.059373 -0.025837 130832.000000 0 0 1
17.518615 30.461091 -6.435927 35.723956 1.048876 1.751943 0.050135 -0.013080 529096.000000 0 0 1
18.547415 29.308291 -6.361027 35.262518 1.006580 1.752180 0.047368 -0.006768 -396989.000000 0 0 1
18.319015 28.341391 -5.323727 34.163764 0.996977 1.727264 0.065738 -0.013551 -691377.000000 0 0 1
19.359215 27.465291 -5.039727 33.978232 0.956815 1.719668 0.051572 -0.010063 -614667.000000 0 0 1
19.644315 26.348091 -6.061927 33.419574 0.930137 1.753195 0.047132 -0.000550 -228390.000000 0 0 1
19.961815 26.730591 -7.387627 34.169805 0.929361 1.788721 0.044646 0.005848 316279.000000 0 0 1
19.585715 25.712891 -8.275627 33.365236 0.919844 1.821444 0.033418 -0.002267 -624935.000000 0 0 1
20.127415 26.038691 -9.712627 34.314157 0.912749 1.857769 0.032035 -0.003619 398845.000000 0 0 1
21.527915 26.087491 -9.939327 35.253347 0.880865 1.856612 0.033050 -0.001664 233569.000000 0 0 1
22.138915 24.814591 -9.944327 34.710014 0.842322 1.861365 0.024905 -0.002150 -805465.000000 0 0 1
23.651215 24.926091 -9.761527 35.720825 0.811636 1.847590 0.015215 0.008220 -546595.000000 0 0 1
24.438615 25.380691 -10.832027 36.861337 0.804306 1.869058 0.015795 0.001370 236316.000000 0 0 1
25.791815 25.519891 -10.394527 37.742929 0.780099 1.849806 0.010874 0.008853 528280.000000 0 0 1
26.753215 25.635191 -11.592827 38.823848 0.764060 1.874022 0.022552 0.007488 -353781.000000 0 0 1
26.796415 26.843391 -12.311327 39.877114 0.786274 1.884656 0.023992 0.006393 81887.900000 0 0 1
27.643215 26.777091 -13.473027 40.776002 0.769484 1.907540 0.032798 -0.000665 353665.000000 0 0 1
27.312615 27.841991 -14.507627 41.612818 0.794996 1.926909 0.040103 -0.003804 59320.200000 0 0 1
27.623015 29.188291 -14.194627 42.620121 0.812943 1.910333 0.028042 -0.004262 27976.500000 0 0 1
27.534615 30.015091 -15.344727 43.526099 0.828473 1.931081 0.034498 0.004033 -177212.000000 0 0 1
27.816715 31.507691 -15.153727 44.678179 0.847535 1.916836 0.024093 0.000184 1176380.000000 0 0 1
29.197715 31.801591 -14.823227 45.646202 0.828059 1.901535 0.026577 -0.003218 1173140.000000 0 0 1
29.427615 33.192891 -14.834327 46.774029 0.845454 1.893518 0.022084 -0.008864 26939.500000 0 0 1
15.169315 -32.561048 -29.334389 46.377110 -1.134821 2.255597 0.023324 0.003993 236195.000000 0 0 1
16.179915 -33.029948 -28.426579 46.484810 -1.115297 2.228782 0.020733 0.009729 473903.000000 0 0 1
16.187215 -32.248848 -27.271399 45.229894 -1.105592 2.217991 0.041850 0.002646 -886145.000000 0 0 1
17.133015 -32.652648 -26.108849 45.181939 -1.087580 2.186901 0.028666 0.012821 132516.000000 0 0 1
18.472615 -32.242748 -26.248359 45.495150 -1.050524 2.185784 0.030446 0.009546 -95135.100000 0 0 1
19.215015 -33.026548 -27.128969 46.860971 -1.043863 2.188206 0.015581 0.009710 -1539670.000000 0 0 1
20.710415 -32.746148 -27.178209 47.327440 -1.006855 2.182495 0.028810 0.016368 -616570.000000 0 0 1
21.091915 -31.645548 -27.910599 47.173204 -0.982906 2.203915 0.029131 0.009191 -737620.000000 0 0 1
22.476115 -31.544448 -27.922059 47.747977 -0.951716 2.195405 0.018094 0.018790 -678228.000000 0 0 1
23.041015 -30.321448 -28.718259 47.697138 -0.920995 2.216920 0.010467 0.021179 -36827.300000 0 0 1
23.108415 -30.333348 -30.134019 48.602160 -0.919776 2.239557 0.010966 0.017446 -30904.100000 0 0 1
23.637615 -29.166348 -30.684529 48.486627 -0.889721 2.256019 0.013791 0.006577 -29096.400000 0 0 1
24.022315 -29.371748 -32.134909 49.723471 -0.885253 2.273486 0.014477 0.007634 312576.000000 0 0 1
25.133315 -30.241148 -32.316829 50.897819 -0.877380 2.258721 0.017165 0.000906 -91296.000000 0 0 1
25.294915 -30.549448 -33.686869 52.037550 -0.879214 2.274908 0.013158 -0.001232 169357.000000 0 0 1
26.544715 -31.378148 -34.100575 53.404675 -0.868651 2.263385 0.011754 -0.004411 581016.000000 0 0 1
27.703115 -30.549148 -34.139647 53.537170 -0.834216 2.262281 0.013107 -0.005847 321955.000000 0 0 1
28.838415 -31.280748 34.215925 54.597334 -0.826001 0.893490 0.026194 -0.002146 1524650.000000 0 0 1
30.078315 -30.352348 33.828801 54.500989 -0.789933 0.901160 0.037854 -0.010315 1061330.000000 0 0 1
29.937415 -29.502048 32.671773 53.235931 -0.778074 0.910037 0.031190 -0.001066 360444.000000 0 0 1
31.195415 -28.840848 32.571993 53.533944 -0.746199 0.916708 0.033304 -0.010303 352280.000000 0 0 1
31.320715 -27.862448 31.415343 52.385369 -0.727031 0.927674 0.028717 -0.008989 -213480.000000 0 0 1
32.538315 -27.137048 31.464143 52.774554 -0.695133 0.932038 0.022463 -0.013956 294826.000000 0 0 1
32.692715 -26.320648 30.316903 51.775522 -0.677838 0.945244 0.029521 -0.013130 -232000.000000 0 0 1
33.535415 -26.812448 29.111833 51.875141 -0.674452 0.974973 0.026687 -0.007803 -138239.000000 0 0 1
32.916415 -27.833348 28.325703 51.580336 -0.701920 0.989441 0.029307 -0.015380 -103062.000000 0 0 1
31.689115 -27.484148 27.777003 50.310439 -0.714455 0.985901 0.024991 -0.015919 -872855.000000 0 0 1
31.011215 -28.556848 26.906573 50.011525 -0.744219 1.002725 0.012881 -0.001931 -345785.000000 0 0 1
29.802915 -28.025448 26.426993 48.703443 -0.754671 0.997255 0.003427 0.004276 -565522.000000 0 0 1
29.157915 -29.003248 25.686043 48.488609 -0.782739 1.012510 -0.011325 0.015588 -777924.000000 0 0 1
27.893515 -28.461448 25.045453 47.067790 -0.795476 1.009700 -0.009849 0.024585 -1658230.000000 0 0 1
26.830615 -28.374148 25.881173 46.848791 -0.813351 0.985507 -0.012902 0.017989 -1470270.000000 0 0 1
25.664715 -28.267348 25.100423 45.691922 -0.833618 0.989222 -0.017356 0.030324 -372378.000000 0 0 1
24.415015 -28.178348 25.980573 45.443398 -0.856832 0.962204 -0.004799 0.022640 -453416.000000 0 0 1
24.453015 -27.021048 26.805603 45.239665 -0.835247 0.936607 -0.023888 0.019102 -431679.000000 0 0 1
23.233615 -26.846148 27.437853 44.870394 -0.857409 0.912852 -0.018710 0.009364 -687768.000000 0 0 1
23.320715 -25.653948 28.434753 44.838777 -0.833004 0.883881 -0.018342 0.017623 -469785.000000 0 0 1
22.173215 -25.598548 29.244963 44.746005 -0.856978 0.858495 0.007121 0.013106 -82918.100000 0 0 1
22.169915 -24.589748 30.241493 44.840927 -0.837102 0.830621 0.012817 0.003610 -359177.000000 0 0 1
21.498315 -23.267848 29.776553 43.476584 -0.824906 0.816348 0.021183 -0.007366 -490425.000000 0 0 1
22.194615 -22.592948 28.747133 42.771952 -0.794292 0.833752 0.026758 -0.010984 286790.000000 0 0 1
21.755215 -21.275348 28.554653 41.728863 -0.774247 0.817166 0.030176 -0.008531 -288395.000000 0 0 1
22.683115 -20.247248 29.190503 42.149261 -0.728719 0.805777 0.040968 -0.014700 -276658.000000 0 0 1
22.357715 -20.121748 30.552643 42.874423 -0.732810 0.777588 0.044815 -0.011776 918673.000000 0 0 1
23.325915 -19.260648 31.197063 43.454891 -0.690228 0.769989 0.053264 -0.017455 394416.000000 0 0 1
22.842915 -18.866948 32.576973 44.034301 -0.690361 0.738010 0.076863 -0.025135 -317419.000000 0 0 1
22.808715 -19.981548 33.403680 45.114361 -0.719424 0.737098 0.050897 -0.017246 356073.000000 0 0 1
22.223615 -19.598848 -34.207577 45.256627 -0.722721 2.427760 0.053863 -0.017603 -29200.500000 0 0 1
22.047215 -20.770248 -33.225519 44.960183 -0.755583 2.402379 0.040490 -0.013172 442576.000000 0 0 1
23.254715 -21.113748 -32.534759 45.222590 -0.737181 2.373786 0.035950 -0.004532 800828.000000 0 0 1
22.922715 -22.090448 -31.562399 44.828828 -0.766911 2.351902 0.031398 -0.005666 654137.000000 0 0 1
24.191315 -22.425748 -30.708359 45.068140 -0.747542 2.320438 0.021298 -0.005506 445437.000000 0 0 1
25.231715 -23.119248 -31.334249 46.400153 -0.741736 2.312174 0.021792 -0.001112 -84060.100000 0 0 1
26.192715 -23.492648 -30.343529 46.461733 -0.731108 2.282449 0.019024 -0.006000 165554.000000 0 0 1
27.410215 -24.354548 -30.734859 47.844492 -0.726437 2.268410 0.010968 0.006316 373421.000000 0 0 1
28.412315 -23.744548 -31.576349 48.663426 -0.696141 2.276898 0.009422 0.002693 500103.000000 0 0 1
28.127515 -23.667548 -32.949369 49.365685 -0.699502 2.301582 0.009312 0.002377 -227247.000000 0 0 1
28.476015 -24.932748 -33.742039 50.705528 -0.719153 2.298894 0.009417 -0.006546 301721.000000 0 0 1
27.465715 -25.958248 -33.605469 50.571966 -0.757189 2.297631 0.028454 -0.005940 302994.000000 0 0 1
27.625215 -27.186848 -34.308026 51.762128 -0.777401 2.295351 0.026624 -0.004054 3601.540000 0 0 1
27.187615 -27.137148 33.026084 50.658794 -0.784469 0.860667 0.023887 -0.007827 374990.000000 0 0 1
28.040515 -26.315548 32.220833 50.169319 -0.753674 0.873377 0.011551 -0.013919 250462.000000 0 0 1
27.519615 -26.339248 30.928193 49.067691 -0.763486 0.888835 0.008334 -0.009941 563.891000 0 0 1
28.526415 -25.765348 29.858803 48.673993 -0.734586 0.910381 0.014240 -0.014176 266108.000000 0 0 1
28.693615 -24.329748 29.832123 48.012662 -0.703282 0.900346 0.009779 -0.022348 58616.500000 0 0 1
29.220115 -23.765448 31.012873 48.789445 -0.682813 0.881950 0.011047 -0.012962 -1371500.000000 0 0 1
29.777715 -22.333748 30.771993 48.295177 -0.643511 0.879982 0.013051 -0.010308 905672.000000 0 0 1
31.131615 -22.295048 30.320923 48.842655 -0.621486 0.901049 0.015542 -0.011180 504865.000000 0 0 1
32.114815 -22.621948 31.269993 50.208827 -0.613679 0.898482 0.014713 -0.015659 -1092580.000000 0 0 1
33.532315 -22.130948 30.986663 50.738233 -0.583365 0.913832 0.009191 -0.020079 -279149.000000 0 0 1
33.983915 -22.564448 29.699823 50.459293 -0.586136 0.941483 0.020397 -0.027346 118883.000000 0 0 1
35.316715 -22.185648 29.442303 51.052155 -0.560891 0.956100 -0.002571 -0.026253 -38817.800000 0 0 1
-35.563127 -22.392248 28.007183 50.502980 0.561935 0.982956 0.013302 -0.020237 -382937.000000 0 0 1
-35.499127 -23.754748 27.640253 50.876907 0.589730 0.996461 0.007821 -0.015482 243403.000000 0 0 1
-35.435127 -23.954248 26.213223 50.165598 0.594438 1.020976 0.009047 -0.004906 -389837.000000 0 0 1
-35.221927 -25.456448 25.823233 50.551501 0.625828 1.034646 0.005259 -0.013711 -479479.000000 0 0 1
34.964415 -26.260448 25.913753 50.829558 -0.644181 1.035825 0.014546 -0.014852 -50228.900000 0 0 1
35.171915 -27.560748 25.499083 51.447659 -0.664661 1.052235 0.010662 -0.003479 -108945.000000 0 0 1
-35.216127 -28.471948 26.306793 52.372462 0.679897 1.044537 0.002808 -0.008361 -928790.000000 0 0 1
-35.007727 -29.840948 25.895883 52.788444 0.705892 1.058064 0.004907 -0.008927 352602.000000 0 0 1
-34.003827 -30.529848 26.643273 52.897976 0.731618 1.042951 -0.000664 -0.014914 233701.000000 0 0 1
-32.571727 -29.979248 26.572423 51.631060 0.743976 1.030186 0.004834 -0.011909 -1225770.000000 0 0 1
-32.005527 -30.126548 25.296763 50.713793 0.755166 1.048566 -0.001236 -0.012022 -119568.000000 0 0 1
-30.793327 -29.455648 25.108033 49.459857 0.763199 1.038348 -0.005651 -0.005767 -407514.000000 0 0 1
-30.239527 -29.550948 23.679073 48.460148 0.773882 1.060278 -0.003384 -0.005205 -429157.000000 0 0 1
-29.870327 -30.819648 23.258773 48.816571 0.801039 1.074181 -0.002566 -0.006983 512778.000000 0 0 1
-29.536327 -30.707048 21.871073 47.892183 0.804829 1.096544 -0.001872 -0.004622 -710222.000000 0 0 1
-29.663027 -32.015848 20.987473 48.429162 0.823526 1.122574 -0.001125 -0.000877 345450.000000 0 0 1
-28.793527 -33.135248 21.282273 48.784700 0.855392 1.119371 -0.000566 -0.011321 929061.000000 0 0 1
-27.391127 -32.895748 21.183373 47.761274 0.876453 1.111267 0.007559 -0.004713 376226.000000 0 0 1
-26.610027 -34.253148 21.310973 48.327313 0.910323 1.114115 -0.004685 -0.002278 -232299.000000 0 0 1
-26.787727 33.666891 20.243373 47.548249 -0.898701 1.131013 -0.011123 -0.002712 -15835.900000 0 0 1
-27.944827 32.861291 20.147373 47.609814 -0.866077 1.133848 -0.007018 -0.004143 -81871.300000 0 0 1
-28.077627 31.804591 21.241173 47.445469 -0.847556 1.106609 -0.001725 -0.007296 -215607.000000 0 0 1
-27.164127 30.735791 21.128073 46.140807 -0.847007 1.095160 -0.004812 -0.011230 -6022.760000 0 0 1
-27.086527 29.959191 22.296673 46.134311 -0.835713 1.066377 0.004516 -0.013454 -229185.000000 0 0 1
-26.180727 28.732291 22.143173 44.735836 -0.831830 1.052989 0.002062 -0.018749 -42346.000000 0 0 1
-24.818027 29.049091 21.990373 44.083564 -0.863784 1.048544 0.002740 -0.011489 149595.000000 0 0 1
-24.003327 28.141391 21.216373 42.640732 -0.864589 1.050011 0.000110 -0.010926 302252.000000 0 0 1
-22.526627 28.574591 21.233873 42.128773 -0.903203 1.042546 -0.003234 0.000993 -374438.000000 0 0 1
-22.047127 28.478091 22.559273 42.497038 -0.912000 1.011201 0.001705 -0.002700 -781298.000000 0 0 1
-20.784527 29.021991 22.620373 42.260546 -0.949304 1.005981 0.020339 -0.002801 -1078880.000000 0 0 1
-20.293327 29.021891 24.088983 42.829526 -0.960579 0.973464 0.016548 0.003481 -688308.000000 0 0 1
-19.997127 27.711791 24.582213 42.096480 -0.945713 0.947211 0.023013 -0.008878 377411.000000 0 0 1
-19.902727 27.621591 25.993943 42.834050 -0.946411 0.918702 0.024578 -0.005965 -870543.000000 0 0 1
-18.599527 28.131491 26.570493 42.933835 -0.986613 0.903492 0.046677 -0.004217 -1176140.000000 0 0 1
-18.375927 29.489591 26.318693 43.588808 -1.013541 0.922543 0.015012 -0.003507 -731370.000000 0 0 1
-17.105927 29.934891 26.651793 43.577844 -1.051643 0.912727 0.030177 -0.003745 -879417.000000 0 0 1
-16.933927 30.242691 28.197363 44.681869 -1.060358 0.887865 0.012484 -0.000130 -452231.000000 0 0 1
-16.919727 29.092191 28.999313 44.425137 -1.044024 0.859564 0.016649 0.006911 164961.000000 0 0 1
-16.860627 29.333691 30.369863 45.465093 -1.049122 0.839303 0.006077 0.002118 -328226.000000 0 0 1
-16.515227 28.022091 31.219763 45.085073 -1.038234 0.805898 0.008529 0.001370 94046.500000 0 0 1
-15.118427 27.712591 31.207523 44.389908 -1.071381 0.791144 0.018781 -0.000027 841267.000000 0 0 1
-14.675027 26.586291 31.971453 44.094909 -1.066436 0.759675 0.023815 0.000846 -301598.000000 0 0 1
-14.840327 26.779491 33.528222 45.403943 -1.064759 0.740038 0.031246 0.004875 774976.000000 0 0 1
-16.193727 26.572391 34.010594 46.098256 -1.023480 0.741013 0.032096 0.005919 857576.000000 0 0 1
-16.443427 27.095191 -33.563989 46.163590 -1.025336 2.384836 0.021309 0.000704 233531.000000 0 0 1
-17.810327 26.676591 -32.946429 45.981686 -0.982121 2.369586 0.007482 0.005119 763768.000000 0 0 1
-18.920027 26.906791 -33.803709 47.166021 -0.957947 2.369850 -0.003039 0.004606 -195981.000000 0 0 1
-20.129827 26.415691 -33.260909 47.003050 -0.919634 2.356939 0.000328 -0.003432 46544.900000 0 0 1
-21.248227 26.581491 -34.317205 48.329425 -0.896445 2.360392 0.039996 -0.020108 -161303.000000 0 0 1
-21.548527 25.573791 33.530543 47.356679 -0.870613 0.784074 0.040275 -0.014047 141755.000000 0 0 1
-21.949327 24.260591 33.874820 47.094082 -0.835373 0.768001 0.038606 -0.013661 -158569.000000 0 0 1
-22.263727 23.233191 32.710903 45.885268 -0.806703 0.777193 0.043304 -0.013419 -326689.000000 0 0 1
-23.563127 23.269191 32.197173 46.188030 -0.779122 0.799467 0.049486 -0.023643 -596550.000000 0 0 1
-23.654127 22.819391 30.842533 45.072210 -0.767439 0.817165 0.039168 -0.017726 484368.000000 0 0 1
-25.157927 22.603091 30.508203 45.547463 -0.731957 0.836842 0.030406 -0.011996 569362.000000 0 0 1
-25.634327 21.366591 31.000933 45.548960 -0.694845 0.822206 0.036038 -0.018560 331003.000000 0 0 1
-26.894527 21.011491 30.427913 45.723694 -0.663206 0.842668 0.027509 -0.013103 541836.000000 0 0 1
-27.481827 19.609491 30.842363 45.727828 -0.619758 0.830540 0.039885 -0.013828 -160776.000000 0 0 1
-28.094427 19.635591 32.115483 46.970815 -0.609997 0.817931 0.037931 -0.012194 -179100.000000 0 0 1
-28.239527 18.401491 32.774061 47.013028 -0.577514 0.799414 0.025494 -0.008244 59500.600000 0 0 1
-29.172827 17.290491 32.180023 46.750067 -0.535028 0.811596 0.012559 -0.004832 -713222.000000 0 0 1
-30.508827 17.624591 32.054013 47.632703 -0.523852 0.832618 0.016711 -0.006806 -619718.000000 0 0 1
-31.241027 16.558191 31.450563 47.321383 -0.487370 0.843816 0.022075 0.004369 746069.000000 0 0 1
-32.804927 16.642491 31.468793 48.408890 -0.469484 0.863130 0.017986 0.005140 418527.000000 0 0 1
-33.203127 16.799191 32.808618 49.609130 -0.468398 0.848189 0.025528 -0.000790 1356030.000000 0 0 1
-34.647027 16.740791 32.907556 50.631786 -0.450102 0.863293 0.034105 -0.002582 895005.000000 0 0 1
-35.083127 17.230591 34.253713 51.971491 -0.456531 0.851193 0.029322 -0.000838 1086300.000000 0 0 1
34.814815 17.335491 -34.397091 51.920617 0.461994 2.294940 0.023663 -0.004157 1047710.000000 0 0 1
34.485415 18.068991 -33.218179 51.177922 0.482632 2.277161 0.020102 -0.006842 -578337.000000 0 0 1
32.983615 18.152891 -33.026289 50.081754 0.503120 2.290880 0.016197 -0.004513 -1027730.000000 0 0 1
32.356115 16.928991 -32.966329 49.196420 0.482041 2.305135 0.013649 0.004052 -843476.000000 0 0 1
31.145615 17.155291 -32.311129 48.045420 0.503464 2.308394 0.013116 0.001836 -977140.000000 0 0 1
30.273815 15.913591 -32.262679 47.017302 0.483961 2.327031 0.014714 -0.000094 -335656.000000 0 0 1
29.673015 15.682591 -33.567459 47.467945 0.486197 2.356271 0.013599 -0.004912 58231.400000 0 0 1
28.938515 14.492591 -33.726169 46.743206 0.464292 2.376792 0.003767 -0.003430 -619458.000000 0 0 1
29.736915 13.228391 -34.099796 47.138843 0.418561 2.379497 0.005955 -0.000378 -137957.000000 0 0 1
30.638015 12.835491 -33.091329 46.887886 0.396727 2.354284 0.014325 0.008139 -669232.000000 0 0 1
31.558115 11.986291 -33.611819 47.637592 0.362987 2.354028 0.021718 0.006899 -1227210.000000 0 0 1
17.399115 -21.187209 10.467891 29.346274 -0.883257 1.206060 0.022487 -0.017688 114280.000000 0 0 1
16.967015 -22.478309 10.865491 30.186303 -0.924219 1.202584 0.028361 -0.019909 251152.000000 0 0 1
18.093015 -23.258509 11.230191 31.534626 -0.909671 1.206681 0.015487 -0.014971 -58345.900000 0 0 1
17.722515 -24.559309 11.974391 32.567365 -0.945706 1.194283 0.020483 -0.014014 -161676.000000 0 0 1
17.136615 -25.568159 11.145791 32.735653 -0.980329 1.223370 0.012595 -0.006688 592160.000000 0 0 1
15.719315 -25.588819 11.376191 32.113895 -1.019925 1.208690 0.026490 -0.007412 417383.000000 0 0 1
15.044815 -26.549869 10.358891 32.226521 -1.055250 1.243547 0.028763 -0.008817 -122258.000000 0 0 1
14.972115 -25.928019 9.105591 31.294380 -1.047123 1.275560 0.023925 -0.009490 473585.000000 0 0 1
14.165815 -26.693969 8.165991 31.303701 -1.082911 1.306880 0.033940 -0.003814 393418.000000 0 0 1
13.965915 -25.923479 6.856191 30.233771 -1.076642 1.342034 0.043764 -0.005148 -300755.000000 0 0 1
13.218815 -24.766109 7.107391 28.958803 -1.080518 1.322832 0.051601 -0.018805 -71947.300000 0 0 1
12.923615 -24.174009 5.843891 28.027729 -1.079847 1.360751 0.050910 -0.002262 -277064.000000 0 0 1
12.147615 -22.871609 6.020691 26.588038 -1.082562 1.342371 0.053181 -0.008637 -370563.000000 0 0 1
11.632015 -22.446509 4.820691 25.736912 -1.092687 1.382377 0.067364 -0.008610 -405993.000000 0 0 1
10.818315 -21.345309 5.066791 24.460796 -1.101704 1.362146 0.068093 -0.010214 -527433.000000 0 1 0
10.146115 -20.759809 3.849991 23.425110 -1.116199 1.405694 0.062554 -0.013919 -579400.000000 0 1 0
10.968815 -20.136009 2.888891 23.111025 -1.072003 1.445468 0.050292 -0.005116 -282930.000000 0 1 0
10.233215 -19.635409 1.766091 22.212318 -1.090363 1.491203 0.040754 0.002314 -109259.000000 0 1 0
11.069415 -19.242509 0.532691 22.205627 -1.048768 1.546805 0.031502 0.011592 253970.000000 0 1 0
11.886915 -18.090609 0.765191 21.659973 -0.989462 1.535462 0.026149 0.011532 -340347.000000 0 1 0
12.580515 -17.773709 -0.388909 21.779012 -0.954844 1.588654 0.035657 0.008699 -693496.000000 0 1 0
13.821315 -16.927909 -0.104709 21.853920 -0.886087 1.575588 0.033154 0.014026 -127906.000000 0 1 0
14.799215 -17.684509 0.608391 23.067917 -0.873988 1.544419 0.031172 0.012258 224313.000000 0 1 0
16.033315 -16.980009 0.652191 23.362647 -0.814066 1.542877 0.020168 0.004310 -268546.000000 0 1 0
17.177415 -17.716309 1.292591 24.710362 -0.800841 1.518463 0.012021 0.010715 -626898.000000 0 1 0
17.653015 -18.834509 0.573891 25.820477 -0.817768 1.548568 0.005219 0.005817 1036080.000000 0 0 1
18.833615 -19.352309 1.255591 27.033191 -0.798981 1.524333 -0.002614 0.011116 1298800.000000 0 0 1
19.248715 -20.807809 0.914591 28.360438 -0.824301 1.538542 -0.011256 0.010764 82784.800000 0 0 1
18.264015 -21.681609 1.424091 28.384758 -0.870746 1.520604 -0.010216 0.017188 146280.000000 0 0 1
18.352015 -22.879409 0.600891 29.336409 -0.894764 1.550312 -0.010437 0.010585 -790239.000000 0 0 1
17.228715 -23.873709 0.692691 29.449320 -0.945681 1.547273 -0.004809 0.010618 -965460.000000 0 0 1
17.229515 -24.711409 1.826991 30.180256 -0.961932 1.510223 -0.014818 0.014487 -60335.900000 0 0 1
16.202315 -25.682889 1.808091 30.420306 -1.007994 1.511324 0.000389 0.016888 -555068.000000 0 0 1
16.091115 -26.476709 3.074891 31.135110 -1.024701 1.471875 0.005220 0.012647 -563836.000000 0 0 1
17.096015 -27.380169 3.307991 32.448270 -1.012633 1.468672 -0.012434 0.012401 -1001550.000000 0 0 1
18.239515 -26.823289 3.898991 32.670643 -0.973628 1.451169 -0.020545 0.015929 -1064760.000000 0 0 1
19.370015 -27.834589 3.992491 34.145305 -0.962829 1.453602 -0.003683 0.010673 -567687.000000 0 0 1
19.912715 -28.145569 2.717391 34.584296 -0.955061 1.492142 -0.007380 0.016555 -322112.000000 0 0 1
20.731015 -29.303249 2.647791 35.992585 -0.955078 1.497165 0.027286 0.018808 -282036.000000 0 0 1
20.218615 -30.724269 2.894691 36.893798 -0.988771 1.492256 0.032965 0.012551 -569147.000000 0 0 1
20.226615 -31.079709 4.244791 37.324021 -0.993860 1.456822 0.039153 0.001554 825942.000000 0 0 1
19.409415 -32.319239 4.411991 37.956874 -1.029970 1.454296 0.035603 -0.008846 485225.000000 0 0 1
19.031715 -32.743279 5.864891 38.323954 -1.044285 1.417158 0.046917 -0.014616 45725.300000 0 0 1
20.123615 -33.344409 6.551791 39.493487 -1.027801 1.404130 0.041809 -0.025916 394134.000000 0 0 1
19.723815 -33.784639 7.799191 39.890577 -1.042366 1.374014 0.044731 -0.019576 363800.000000 0 0 1
20.843115 34.202852 8.470591 40.939241 1.023496 1.362384 0.038271 -0.029728 497448.000000 0 0 1
21.920615 -33.868909 8.943191 41.323081 -0.996378 1.352649 0.044796 -0.033063 -65417.500000 0 0 1
23.021315 34.171682 9.321891 42.244318 0.977943 1.348299 0.044127 -0.034995 -134636.000000 0 0 1
23.893615 -33.839819 10.257291 42.676108 -0.956002 1.328068 0.038798 -0.029213 -1049720.000000 0 0 1
24.609915 -32.859789 9.605091 42.162441 -0.927976 1.340967 0.029403 -0.028981 -45627.700000 0 0 1
25.442415 -32.077429 10.454591 42.256081 -0.900242 1.320790 0.021455 -0.025165 330261.000000 0 0 1
26.298915 -30.993019 9.724791 41.794398 -0.867149 1.335962 0.023968 -0.028358 -582048.000000 0 0 1
25.524315 -29.952639 9.288491 40.434234 -0.865052 1.339008 0.018535 -0.025734 -235362.000000 0 0 1
26.106515 -29.198139 8.221391 40.020904 -0.841242 1.363896 0.032903 -0.029489 -266401.000000 0 0 1
25.668515 -27.734769 8.220191 38.673785 -0.824070 1.356610 0.020619 -0.025878 -491811.000000 0 0 1
26.244715 -27.036539 9.283491 38.806478 -0.800258 1.329228 0.001015 -0.021644 -178456.000000 0 0 1
25.924115 -25.657339 9.285991 37.637593 -0.780226 1.321501 0.017808 -0.020737 -805819.000000 0 0 1
26.679015 -24.883009 10.320291 37.913618 -0.750580 1.295112 0.029122 -0.023859 -319012.000000 0 0 1
28.051015 -24.858109 10.017791 38.796149 -0.725124 1.309621 0.010992 -0.012113 -500030.000000 0 0 1
28.809615 -24.018409 10.868991 39.051413 -0.694951 1.288746 0.015447 -0.011477 -175830.000000 0 0 1
30.014615 -23.375109 10.200691 39.386888 -0.661674 1.308823 0.025237 -0.011235 -221665.000000 0 0 1
29.717715 -22.669009 9.013291 38.448225 -0.651650 1.334168 0.019826 -0.011047 -173511.000000 0 0 1
30.862315 -22.610809 8.177391 39.122895 -0.632295 1.360226 0.031262 -0.012192 36252.300000 0 0 1
30.736515 -21.729009 6.873491 38.263926 -0.615371 1.390182 0.030571 -0.001654 -132187.000000 0 0 1
30.580515 -20.332709 7.058991 37.395405 -0.586772 1.380891 0.029167 0.000989 -90366.400000 0 0 1
30.760115 -19.549309 5.890391 36.919600 -0.566143 1.410565 0.026625 0.002855 -116468.000000 0 0 1
30.563815 -18.039209 6.091591 36.009267 -0.533193 1.400812 0.044844 0.001846 -155993.000000 0 0 1
31.415715 -17.573309 7.105591 36.691385 -0.510016 1.375907 0.050318 -0.001027 -72231.600000 0 0 1
31.152515 -16.285509 7.479391 35.939370 -0.481695 1.361153 0.053473 -0.005389 -40587.300000 0 0 1
31.849015 -15.839809 8.777291 36.637415 -0.461518 1.328872 0.047536 -0.017297 -258725.000000 0 0 1
33.174715 -15.392609 8.674091 37.586354 -0.434424 1.337919 0.024188 -0.011878 -456104.000000 0 0 1
33.806915 -15.224109 9.914191 38.379320 -0.423124 1.309512 0.018010 -0.019809 598399.000000 0 0 1
35.355515 -15.299509 9.730991 39.733860 -0.408403 1.323375 0.019933 -0.027210 338917.000000 0 0 1
-35.397027 -14.244809 9.016491 39.206647 0.382599 1.338746 0.016294 -0.017241 -977770.000000 0 0 1
-34.056227 -14.484409 8.784191 38.036650 0.402132 1.337752 0.016811 -0.016885 -498703.000000 0 0 1
-33.282827 -13.392109 8.032991 36.764441 0.382550 1.350520 0.022846 -0.020240 -141728.000000 0 0 1
-33.748927 -13.405409 6.692291 36.925355 0.378099 1.388551 0.035834 -0.026720 900648.000000 0 0 1
-32.679527 -13.067009 5.774491 35.665711 0.380380 1.408175 0.022556 -0.023983 243919.000000 0 0 1
-31.771127 -14.210409 5.356691 35.214122 0.420585 1.418086 -0.001692 -0.013822 -360038.000000 0 0 1
-30.970627 -14.580609 6.478691 34.838877 0.440006 1.383746 0.018704 -0.017145 407232.000000 0 0 1
-29.911527 -15.476709 6.061391 34.219416 0.477483 1.392724 0.018413 -0.008301 579213.000000 0 0 1
-29.448027 -16.265909 7.290491 34.422628 0.504653 1.357387 0.005019 -0.018756 -24879.500000 0 0 1
-30.533727 -17.017009 7.853791 35.826933 0.508445 1.349787 0.016467 -0.020487 526408.000000 0 0 1
-30.285127 -17.182309 9.218691 36.019507 0.516067 1.311980 -0.002975 -0.019719 -114473.000000 0 0 1
-31.407427 -18.004909 9.870091 37.523618 0.520533 1.304628 -0.021008 -0.017469 -432511.000000 0 0 1
-32.681427 -17.352609 9.779191 38.272984 0.488110 1.312420 -0.004044 -0.010661 510577.000000 0 0 1
-33.738927 -18.047709 10.399891 39.650886 0.491194 1.305405 0.022691 -0.023699 -207756.000000 0 0 1
-34.090327 -19.483309 9.963491 40.509516 0.519215 1.322292 0.032453 -0.019435 -1418830.000000 0 0 1
-33.295927 -20.634509 10.329191 40.510417 0.554801 1.312973 0.031657 -0.011133 81828.900000 0 0 1
-32.906827 -20.718209 11.691691 40.605407 0.561902 1.278727 0.025478 -0.020095 370972.000000 0 0 1
-34.096327 -21.280309 12.580491 42.115078 0.557969 1.267448 0.033856 -0.025512 787870.000000 0 0 1
-34.386327 -22.677009 12.467891 43.036200 0.583009 1.276876 0.040781 -0.026688 -227559.000000 0 0 1
-35.433127 -22.873509 11.566091 43.731892 0.573234 1.303134 0.038874 -0.014700 -598568.000000 0 0 1
35.518415 -24.347909 11.484391 44.567586 -0.600929 1.310171 0.032663 -0.007644 -153875.000000 0 0 1
35.025115 -24.742109 12.758891 44.740585 -0.615015 1.281607 0.071675 -0.009988 31561.900000 0 0 1
34.627515 -26.066829 12.855491 45.208495 -0.645277 1.282457 0.036762 -0.003393 -283098.000000 0 0 1
33.690815 -26.223059 14.067591 44.951273 -0.661396 1.252497 0.048499 -0.009115 3840.090000 0 0 1
32.489415 -25.480739 13.879591 43.559995 -0.665081 1.246511 0.040607 -0.005857 -84605.000000 0 0 1
31.782715 -25.358839 15.089991 43.369569 -0.673448 1.215424 0.029959 0.000949 -630079.000000 0 0 1
31.640715 -23.920809 15.716691 42.665611 -0.647339 1.193542 0.047729 -0.009358 261328.000000 0 0 1
32.829215 -23.258509 16.183191 43.366015 -0.616388 1.188365 0.058147 -0.019289 219059.000000 0 0 1
33.572515 -22.761109 15.113791 43.285200 -0.595786 1.214114 0.056519 -0.018484 -361493.000000 0 0 1
34.800515 -21.918509 15.535991 43.964348 -0.562067 1.209618 0.051915 -0.025883 -1589.200000 0 0 1
34.537615 -20.634609 16.114991 43.339669 -0.538545 1.189817 0.054166 -0.019090 46265.200000 0 0 1
33.878715 -20.589909 17.365491 43.281312 -0.546101 1.157944 0.046498 -0.017154 -52707.400000 0 0 1
33.944615 -19.178209 18.026891 42.953572 -0.514275 1.137700 0.039700 -0.013067 -389719.000000 0 0 1
33.254315 -18.162009 17.295591 41.651477 -0.499886 1.142584 0.057558 -0.021885 172505.000000 0 0 1
33.323015 -16.845709 17.807291 41.367872 -0.468060 1.125792 0.042147 -0.018806 512853.000000 0 0 1
34.708315 -16.131509 18.078491 42.328767 -0.435072 1.129517 0.036448 -0.019053 580971.000000 0 0 1
35.256315 -16.638909 19.281091 43.492775 -0.440950 1.111500 0.032802 -0.004636 437328.000000 0 0 1
-35.011227 -15.760009 19.687491 43.148131 0.422972 1.096990 0.007192 -0.000052 188486.000000 0 0 1
-34.684427 -15.786609 21.116791 43.567710 0.427128 1.064789 -0.000153 0.004238 -466582.000000 0 0 1
-33.751427 -16.751309 21.492391 43.378428 0.460695 1.052429 0.000005 0.008094 -19335.900000 0 0 1
-33.603227 -16.606509 22.906891 43.928108 0.458992 1.022231 0.001670 0.006042 161365.000000 0 0 1
-32.769127 -17.693509 23.649391 44.115413 0.495090 1.005010 -0.003802 0.011938 -73882.300000 0 0 1
-33.381227 -19.014409 23.568291 45.070150 0.517777 1.020518 -0.003044 0.008548 901936.000000 0 0 1
-32.520427 -20.077209 24.003291 45.131258 0.553095 1.010007 -0.016049 0.009602 -33275.700000 0 0 1
-31.650827 -20.794209 22.938191 44.275666 0.581272 1.026196 -0.000470 0.006211 135237.000000 0 0 1
-30.550827 -19.954809 22.588891 42.916261 0.578599 1.016497 -0.009725 0.011487 143156.000000 0 0 1
-29.450627 -20.779609 22.223591 42.344062 0.614457 1.018277 0.009281 0.006539 -153908.000000 0 0 1
-28.186827 -19.905709 22.267491 41.067939 0.614879 0.997730 0.018548 0.007431 -181310.000000 0 0 1
-27.619827 -19.523809 23.554791 41.217255 0.615326 0.962489 0.006152 0.009791 1477230.000000 0 0 1
-26.382427 -18.776209 23.441891 39.976252 0.618531 0.944195 0.027033 0.004177 1027020.000000 0 0 1
-25.767127 -18.250009 24.796491 40.148146 0.616253 0.905077 0.009285 -0.000851 -140563.000000 0 0 1
-24.794227 -17.203709 24.751991 39.030531 0.606593 0.883862 0.015725 -0.003090 328259.000000 0 0 1
-24.641627 -16.523809 25.974991 39.432806 0.590697 0.851686 0.007101 -0.005421 -194466.000000 0 0 1
-23.763027 -17.188109 27.040891 39.891382 0.626202 0.825944 0.013552 0.006733 -533572.000000 0 0 1
-24.176527 -18.458909 27.539591 41.032485 0.652089 0.835016 0.016737 0.010715 466024.000000 0 0 1
-23.199927 -19.009909 28.469191 41.353453 0.686456 0.811466 0.022463 0.003444 93486.400000 0 0 1
-23.602627 -20.357109 29.109091 42.647803 0.711703 0.819556 0.019505 0.013097 -1099510.000000 0 0 1
-24.616127 -20.292109 30.020491 43.805859 0.689408 0.815770 0.016576 0.005582 -775451.000000 0 0 1
-24.999227 -21.531209 30.457991 44.902600 0.711003 0.825333 0.016750 0.004937 -689620.000000 0 0 1
-26.171227 -21.316609 31.404091 46.103664 0.683523 0.821447 0.015502 0.003847 -1140110.000000 0 0 1
-25.837227 -20.618909 32.573491 46.408340 0.673539 0.792751 0.030667 -0.005503 97785.900000 0 0 1
-26.813427 -20.766709 33.569891 47.719531 0.658991 0.790510 0.051067 -0.015949 102689.000000 0 0 1
-28.114427 -19.948609 33.379691 47.985120 0.617107 0.801506 0.031626 -0.023040 384579.000000 0 0 1
-29.045627 -20.408709 32.353491 48.030326 0.612498 0.831720 0.032501 -0.019761 -255650.000000 0 0 1
-30.237527 -19.732609 32.472091 48.560484 0.578192 0.838346 0.031757 -0.027768 -1098430.000000 0 0 1
-31.285527 -20.320209 31.519091 48.837979 0.576029 0.869275 0.020043 -0.000999 -814235.000000 0 0 1
-31.148527 -19.894209 30.168891 47.709247 0.568382 0.886215 0.012667 -0.011420 -84350.100000 0 0 1
-32.036327 -20.491809 29.276091 47.993020 0.569060 0.914727 0.010232 -0.011445 -347554.000000 0 0 1
-32.642127 -19.450709 28.323991 47.392900 0.537383 0.930239 0.014876 -0.011663 -580854.000000 0 0 1
-33.770327 -19.853709 27.630991 47.938256 0.531478 0.956496 -0.009628 -0.007409 -289886.000000 0 0 1
-34.472727 -18.789909 27.013191 47.656501 0.499047 0.968142 0.006623 0.001376 -614649.000000 0 0 1
35.664715 -19.265009 26.221191 48.276944 -0.495265 0.996623 -0.003040 0.006887 -861085.000000 0 0 1
34.560215 -19.577009 27.029491 48.044366 -0.515393 0.973276 0.018650 -0.000479 -34593.100000 0 0 1
33.511515 -20.108309 26.226091 47.065630 -0.540450 0.979758 0.063411 -0.005658 -443370.000000 0 0 1
32.275915 -20.485909 27.016191 46.811128 -0.565553 0.955584 0.061202 -0.010447 -639867.000000 0 0 1
31.503815 -19.405609 27.476491 46.087152 -0.552084 0.932055 0.050966 -0.012638 558013.000000 0 0 1
30.319715 -19.826909 28.150991 45.878859 -0.579132 0.910192 0.045464 -0.010240 404141.000000 0 0 1
-29.281585 -6.102109 34.238370 45.463314 0.205454 0.718037 0.009673 -0.005189 -4204.220000 0 0 1
-30.183465 -5.643609 33.230690 45.245670 0.184843 0.745940 0.001313 -0.005257 396769.000000 0 0 1
-29.747395 -4.530509 32.444233 44.249986 0.151138 0.747776 0.001797 -0.002128 -10562.500000 0 0 1
-30.624605 -4.289709 31.170053 43.907177 0.139168 0.781429 -0.002514 -0.006443 103217.000000 0 0 1
-30.478765 -5.186909 30.076703 43.133133 0.168566 0.799174 -0.000485 -0.004252 -174104.000000 0 0 1
-29.169415 -5.196709 29.552593 41.847536 0.176306 0.786684 0.009456 -0.006924 -108335.000000 0 0 1
-28.822205 -6.214109 28.466203 40.983647 0.212351 0.802968 0.012266 -0.013628 -74241.700000 0 0 1
-29.343615 -5.797209 27.178793 40.414628 0.195051 0.833216 0.018521 -0.010457 172186.000000 0 0 1
-28.803795 -6.655709 26.155103 39.472097 0.227085 0.846481 0.036127 -0.011579 354479.000000 0 0 1
-29.581105 -6.434709 24.801383 39.135097 0.214191 0.884421 0.017952 -0.005363 283476.000000 0 0 1
-29.307495 -5.138509 24.216883 38.363928 0.173567 0.887644 0.033804 -0.014478 -13533.700000 0 0 1
-30.031755 -4.883009 23.034873 38.162225 0.161184 0.922783 0.035300 -0.011332 -14888.600000 0 0 1
-29.528035 -3.532609 22.442973 37.256828 0.119070 0.924310 0.039860 -0.011954 445376.000000 0 0 1
-28.185555 -3.705009 22.034073 35.967388 0.130701 0.911435 0.039694 -0.010996 -157003.000000 0 0 1
-27.623925 -2.608309 21.402773 35.042306 0.094143 0.913764 0.046870 -0.014873 932042.000000 0 0 1
-26.174215 -2.833209 20.810373 33.558728 0.107824 0.901903 0.034346 -0.006155 881846.000000 0 0 1
-26.065175 -3.654109 19.643673 32.842347 0.139284 0.929643 0.044012 -0.009867 509848.000000 0 0 1
-24.791185 -3.391509 19.032173 31.437697 0.135959 0.920536 0.020115 -0.003920 375768.000000 0 0 1
-24.479585 -4.091809 17.702273 30.485463 0.165621 0.951234 0.036943 -0.010719 -358075.000000 0 0 1
-25.202895 -3.522009 16.642473 30.406617 0.138847 0.991625 0.053259 -0.007105 403383.000000 0 0 1
-24.897085 -4.284909 15.447573 29.611700 0.170435 1.021988 0.053839 -0.013733 612011.000000 0 0 1
-26.201345 -4.498109 14.600773 30.330283 0.170017 1.068554 0.052702 -0.017264 491984.000000 0 0 1
-26.729325 -3.347409 14.008773 30.362933 0.124585 1.091249 0.052519 -0.017131 -222766.000000 0 0 1
-27.955955 -3.656309 13.385873 31.210345 0.130050 1.127530 0.051536 -0.018278 184916.000000 0 0 1
-28.532865 -2.401609 12.639973 31.299537 0.083972 1.155087 0.042218 -0.004417 125696.000000 0 0 1
-27.742325 -2.118009 11.493273 30.103453 0.076198 1.179061 0.057724 -0.016957 160852.000000 0 0 1
-28.138665 -0.935909 10.794673 30.152701 0.033248 1.204671 0.058755 -0.012061 38575.700000 0 0 1
-29.336185 -0.891109 9.797873 30.941948 0.030366 1.248597 0.038132 -0.008245 314933.000000 0 0 1
-29.230695 -1.747309 8.662073 30.537160 0.059705 1.283191 0.040866 -0.017029 -171135.000000 0 0 1
-30.524865 -1.802409 8.112173 31.635793 0.058979 1.311476 0.037561 -0.015851 -211302.000000 0 0 1
-30.692535 -2.628209 6.794773 31.545335 0.085422 1.353698 0.050422 -0.015908 -385687.000000 0 0 1
-30.347935 -1.940909 5.595273 30.920404 0.063868 1.388837 0.059141 -0.020890 299999.000000 0 0 1
-31.041055 -0.735209 5.263373 31.492709 0.023681 1.402878 0.072894 -0.023468 -239197.000000 0 0 1
-30.653575 -0.186309 3.852073 30.895224 0.006078 1.445789 0.065254 -0.020148 -88252.000000 0 0 1
-31.100425 -1.009409 2.804873 31.242962 0.032445 1.480899 0.066656 -0.024291 227277.000000 0 0 1
-30.821415 -0.441809 1.512773 30.861680 0.014334 1.521759 0.068797 -0.026951 -308766.000000 0 0 1
-31.467205 -1.127809 0.300073 31.488839 0.035825 1.561267 0.078577 -0.022284 -334897.000000 0 0 1
-32.852225 -0.898509 0.290773 32.865796 0.027343 1.561949 0.067218 -0.020166 -29977.200000 0 0 1
-33.467325 -1.376409 -0.922327 33.508313 0.041104 1.598325 0.055008 -0.018528 112986.000000 0 0 1
-35.005471 -1.264809 -0.892427 35.039680 0.036116 1.596268 0.037262 -0.011033 71723.100000 0 0 1
-35.634993 -2.179509 0.001173 35.701583 0.061086 1.570763 0.047960 -0.011474 -637917.000000 0 0 1
34.323076 -2.062809 0.077073 34.385094 -0.060028 1.568555 0.042265 -0.008260 -471592.000000 0 0 1
33.561246 -3.259509 0.829873 33.729369 -0.096818 1.546190 0.044486 -0.017519 151411.000000 0 0 1
33.660636 -3.271609 2.218373 33.891932 -0.096890 1.505295 0.050211 -0.016653 208314.000000 0 0 1
33.183056 -4.465009 2.762473 33.595875 -0.133754 1.488477 0.051322 -0.009036 -71980.600000 0 0 1
33.395406 -4.565109 4.289573 33.977843 -0.135857 1.444212 0.058106 -0.005253 204452.000000 0 0 1
32.645966 -3.523909 4.917773 33.201830 -0.107527 1.422132 0.056112 -0.014925 437084.000000 0 0 1
32.518606 -3.773909 6.264473 33.330853 -0.115537 1.381724 0.051787 -0.020905 -269556.000000 0 0 1
31.970496 -2.606409 7.051173 32.842428 -0.081346 1.354415 0.062384 -0.013325 1293080.000000 0 0 1
30.514776 -2.626109 7.031673 31.424393 -0.085849 1.345121 0.046936 -0.011287 1304190.000000 0 0 1
30.039666 -1.386209 7.556173 31.006433 -0.046113 1.324620 0.067177 -0.009588 -177928.000000 0 0 1
28.522786 -1.291009 7.746273 29.584131 -0.045232 1.305869 0.043548 -0.000067 -450674.000000 0 0 1
27.779496 -1.194809 6.542573 28.564545 -0.042984 1.339700 0.036463 -0.011587 570220.000000 0 0 1
26.451656 -1.716809 6.615773 27.320432 -0.064813 1.326210 0.046412 -0.002760 529611.000000 0 0 1
26.242156 -3.252309 6.669373 27.271025 -0.123306 1.323732 0.058293 -0.013224 -938580.000000 0 0 1
26.663076 -3.801409 7.908773 28.069896 -0.141618 1.285176 0.044484 -0.009448 354961.000000 0 0 1
26.680786 -5.213909 7.829273 28.290400 -0.192986 1.290389 0.066742 -0.020532 -258345.000000 0 0 1
26.854486 -5.956909 9.172273 28.996186 -0.218287 1.248941 0.044257 -0.022495 -236041.000000 0 0 1
25.679556 -5.972509 9.953273 28.181166 -0.228516 1.209819 0.055713 -0.003895 620170.000000 0 0 1
25.979956 -6.711309 11.162273 29.061936 -0.252800 1.176579 0.056611 -0.006392 640955.000000 0 0 1
24.813256 -6.729309 12.224673 28.467945 -0.264828 1.126947 0.045900 -0.014043 326516.000000 0 0 1
23.719256 -7.525009 11.879073 27.574286 -0.307209 1.125414 0.052277 -0.024812 -145972.000000 0 0 1
22.547856 -7.084909 12.567973 26.768558 -0.304448 1.082066 0.059320 -0.021832 169838.000000 0 0 1
21.527156 -8.203509 12.611773 26.263527 -0.364088 1.069912 0.065266 -0.021679 -745964.000000 0 0 1
22.030856 -9.249709 13.442073 27.415417 -0.397503 1.058350 0.055723 -0.026475 609057.000000 0 0 1
21.121456 -10.357509 13.480273 27.112943 -0.455921 1.050440 0.072910 -0.035699 -100759.000000 0 0 1
21.693856 -11.440809 14.391573 28.436471 -0.485307 1.040145 0.048608 -0.030858 -241359.000000 0 0 1
21.505956 -10.976209 15.728673 28.816219 -0.471917 0.993420 0.058149 -0.026907 267726.000000 0 0 1
21.960956 -11.924609 16.653973 30.030563 -0.497446 0.982953 0.050355 -0.030197 -368932.000000 0 0 1
21.623756 -11.502809 18.117973 30.465758 -0.488882 0.933904 0.057241 -0.025808 -59968.500000 0 0 1
20.233856 -11.467009 18.412773 29.663638 -0.515592 0.901137 0.060275 -0.031675 143167.000000 0 0 1
19.941956 -11.864209 19.712173 30.446853 -0.536688 0.866590 0.071927 -0.025123 156036.000000 0 0 1
20.377356 -10.948209 20.919173 31.188327 -0.493020 0.835594 0.070361 -0.017544 -344615.000000 0 0 1
19.628456 -9.779209 21.143973 30.462712 -0.462219 0.803636 0.062379 -0.010035 -233104.000000 0 0 1
19.935856 -8.579009 20.421073 29.800302 -0.406377 0.815830 0.067162 -0.004034 -1770240.000000 0 0 1
20.971256 -7.619109 21.127273 30.727936 -0.348485 0.812674 0.058798 0.008035 752873.000000 0 0 1
22.322956 -8.032609 21.069973 31.729812 -0.345411 0.844583 0.066653 -0.001042 182134.000000 0 0 1
22.806156 -8.235009 19.749673 31.272763 -0.346518 0.887272 0.064035 -0.009702 -1655100.000000 0 0 1
24.128756 -9.044709 19.761573 32.473426 -0.358641 0.916569 0.062058 -0.017134 204884.000000 0 0 1
23.953956 -10.348209 20.275873 33.045249 -0.407788 0.910211 0.045379 -0.020641 320804.000000 0 0 1
25.140956 -11.114409 20.065373 34.032587 -0.416251 0.940242 0.049496 -0.026247 450889.000000 0 0 1
24.886356 -12.628209 20.190473 34.444994 -0.469578 0.944478 0.048020 -0.031049 -744790.000000 0 0 1
24.082456 -13.113709 19.187473 33.467793 -0.498637 0.960254 0.053597 -0.033320 -455795.000000 0 0 1
24.034756 -14.497809 19.223273 34.020438 -0.542770 0.970302 0.046913 -0.030178 -52513.100000 0 0 1
22.845956 -15.130709 18.476073 33.049075 -0.584968 0.977557 0.033201 -0.023340 -215049.000000 0 0 1
23.102256 -14.871409 17.073173 32.347586 -0.571949 1.014784 0.034056 -0.029458 382444.000000 0 0 1
22.123356 -15.396909 16.189173 31.441963 -0.608008 1.029916 0.033764 -0.026883 -107446.000000 0 0 1
22.006656 -16.955909 16.184673 32.151818 -0.656486 1.043287 0.016518 -0.029721 -1163370.000000 0 0 1
23.209756 -17.599009 16.083573 33.273101 -0.648766 1.066284 0.048535 -0.027992 -795446.000000 0 0 1
22.959056 -18.946109 16.455973 34.012827 -0.689927 1.065786 0.030377 -0.010036 -408404.000000 0 0 1
24.210456 -19.805209 16.390673 35.313548 -0.685647 1.088125 0.025597 -0.009111 -502226.000000 0 0 1
24.528056 -20.106609 15.033073 35.098356 -0.686662 1.128172 0.031596 -0.021800 152514.000000 0 0 1
25.435756 -21.200709 14.988773 36.347092 -0.694837 1.145733 0.024783 -0.018614 -25647.200000 0 0 1
26.140656 -21.274809 13.593073 36.341754 -0.683135 1.187441 0.018368 -0.026724 -66102.600000 0 0 1
25.295156 -21.603809 12.521173 35.543625 -0.706852 1.210794 0.020049 -0.023163 -86063.100000 0 0 1
25.994556 -21.417409 11.311873 35.529999 -0.689157 1.246781 0.007826 -0.023792 -662951.000000 0 0 1
25.147256 -21.354509 10.034873 34.483304 -0.704017 1.275517 0.006327 -0.017217 -45351.900000 0 0 1
24.446856 -22.544009 9.683173 34.635892 -0.744926 1.287450 0.003407 -0.019455 46457.500000 0 0 1
23.164956 -22.597109 10.284573 33.956104 -0.772990 1.263085 -0.007262 -0.004017 -275540.000000 0 0 1
22.198856 -23.508409 9.476273 33.693238 -0.814041 1.285698 -0.006240 -0.004564 -179141.000000 0 0 1
22.535656 -24.905509 9.556873 34.920968 -0.835310 1.293588 -0.008724 -0.001843 -10495.300000 0 0 1
22.328956 -25.593129 8.350973 34.976125 -0.853407 1.329705 0.001043 0.003757 -269086.000000 0 0 1
20.875856 -26.060719 8.147973 34.370801 -0.895417 1.331457 -0.000556 0.028056 582368.000000 0 0 1
19.875756 -25.035569 7.952173 32.940287 -0.899786 1.326976 -0.011151 0.022071 -224210.000000 0 0 1
18.607856 -25.599389 7.839073 32.604173 -0.942253 1.327986 0.005376 0.004910 -567533.000000 0 0 1
17.467356 -24.595209 7.734273 31.142444 -0.953262 1.319818 0.009094 -0.003668 -554416.000000 0 0 1
17.408856 -24.038909 6.462773 30.376058 -0.944016 1.356399 0.020425 0.005800 113085.000000 0 0 1
16.627856 -22.852509 6.452073 28.988826 -0.941775 1.346345 0.048988 -0.004272 -57798.900000 0 0 1
16.398856 -22.213009 5.069773 28.072101 -0.934855 1.389202 0.049638 0.001072 -506343.000000 0 0 1
15.686656 -20.978809 5.182873 26.702880 -0.928744 1.375462 0.081132 -0.004264 281401.000000 0 0 1
15.166556 -20.580909 3.898473 25.861097 -0.935717 1.419473 0.056083 0.003451 852535.000000 0 0 1
14.194456 -19.354409 4.029973 24.337552 -0.938006 1.404444 0.057101 0.009665 1021000.000000 0 1 0
15.065556 -18.196309 4.160673 23.987244 -0.879246 1.396461 0.036675 0.005005 1109490.000000 0 1 0
14.360956 -16.955509 4.274573 22.627380 -0.868059 1.380743 0.021947 0.008740 561609.000000 0 1 0
15.403856 -15.790809 4.441473 22.502336 -0.797802 1.372113 0.011066 0.007173 -514347.000000 0 1 0
15.823256 -15.880109 5.820073 23.160884 -0.787191 1.316785 0.022017 0.001185 352104.000000 0 1 0
16.984456 -15.097009 6.054073 23.516872 -0.726633 1.310429 0.031133 0.003360 690236.000000 0 1 0
18.322356 -15.485409 5.350773 24.579207 -0.701680 1.351344 0.037357 -0.016844 -765163.000000 0 1 0
19.229256 -14.409909 5.418473 24.632694 -0.643101 1.349012 0.048827 -0.020350 -912243.000000 0 1 0
20.513856 -14.879309 5.169173 25.863729 -0.627524 1.369579 0.056348 -0.020743 -361367.000000 0 0 1
21.484656 -13.671409 4.866573 25.926462 -0.566708 1.381969 0.054533 -0.028098 181864.000000 0 0 1
21.803256 -12.993709 6.057273 26.094234 -0.537438 1.336529 0.081994 -0.037316 304834.000000 0 0 1
22.835456 -12.045509 5.882573 26.479370 -0.485398 1.346770 0.090921 -0.044160 105455.000000 0 0 1
23.157956 -11.157909 7.106773 26.670135 -0.448996 1.301068 0.097586 -0.047668 -146775.000000 0 0 1
23.547356 -11.882209 8.280973 27.644880 -0.467328 1.266577 0.092948 -0.025665 390994.000000 0 0 1
23.335956 -11.151809 9.528073 27.562908 -0.445796 1.217828 0.101929 -0.038093 -135947.000000 0 0 1
23.591356 -11.989809 10.820573 28.590076 -0.470209 1.182650 0.077874 -0.036910 103419.000000 0 0 1
22.574356 -12.954509 11.084873 28.289491 -0.520977 1.168169 0.081169 -0.044837 538362.000000 0 0 1
22.913956 -13.889809 12.084073 29.393894 -0.544946 1.147127 0.081474 -0.044967 1003290.000000 0 0 1
21.704956 -14.908609 12.382673 29.098150 -0.601863 1.131228 0.071222 -0.041625 2762500.000000 0 0 1
20.501356 -14.355709 13.065173 28.232796 -0.610882 1.089684 0.052861 -0.036000 1592840.000000 0 0 1
19.660356 -15.470409 13.300773 28.333262 -0.666692 1.082140 0.019071 -0.031878 -657266.000000 0 0 1
18.432356 -15.227609 14.157273 27.785972 -0.690475 1.036179 0.030096 -0.034570 -842801.000000 0 0 1
18.613456 -14.696709 15.452173 28.305895 -0.668351 0.993334 0.028908 -0.037595 70171.500000 0 0 1
18.518156 -13.282209 15.634273 27.636383 -0.622212 0.969498 0.043645 -0.048773 -486774.000000 0 0 1
17.074756 -12.797309 15.764873 26.530165 -0.643173 0.934495 0.045393 -0.043485 439016.000000 0 0 1
16.229056 -12.963709 14.528073 25.347681 -0.674007 0.960449 0.045641 -0.048415 1264190.000000 0 0 1
14.852856 -12.677209 14.741473 24.466916 -0.706534 0.924159 0.078475 -0.043526 504581.000000 0 1 0
14.473356 -11.193209 14.547573 23.375155 -0.658289 0.899052 0.065101 -0.039195 -329101.000000 0 1 0
14.948556 -10.439109 15.651873 24.029471 -0.609608 0.861419 0.047635 -0.025180 138948.000000 0 1 0
14.731956 -9.027609 15.525673 23.228749 -0.549772 0.838765 0.048838 -0.018071 -853643.000000 0 1 0
15.283356 -8.156009 16.645273 24.024291 -0.490206 0.805360 0.057370 -0.005901 69568.900000 0 1 0
16.683156 -7.977509 16.444373 24.746429 -0.446038 0.843952 0.059328 -0.022813 64674.900000 0 1 0
17.420156 -8.882409 17.265573 26.085610 -0.471530 0.847471 0.069918 -0.018369 307100.000000 0 0 1
18.907556 -8.782109 16.748373 26.741898 -0.434827 0.894002 0.053513 -0.015396 524687.000000 0 0 1
19.527456 -7.557109 17.050473 27.002779 -0.369249 0.887395 0.064446 -0.018375 -716238.000000 0 0 1
20.632556 -7.364309 16.253773 27.278573 -0.342832 0.932480 0.055535 -0.010006 -763227.000000 0 0 1
21.338956 -6.038009 16.582173 27.690740 -0.275749 0.928751 0.055465 -0.006647 -126298.000000 0 0 1
21.876956 -5.878509 17.887273 28.863690 -0.262507 0.902416 0.057834 0.000578 233068.000000 0 0 1
22.250256 -4.554209 18.153773 29.075319 -0.201893 0.896471 0.058268 -0.005916 -93364.100000 0 0 1
-5.519185 -33.236848 -6.643709 34.340768 1.406242 1.765488 0.017626 -0.000450 -393301.000000 0 0 1
-6.182785 -32.013048 -6.561509 33.258314 1.380012 1.769388 0.028418 -0.009259 -213339.000000 0 0 1
-5.871385 -31.325848 -5.392809 32.324361 1.385517 1.738414 0.034063 -0.011651 -1106440.000000 0 0 1
-6.428585 -29.914648 -5.215709 31.038951 1.359118 1.739635 0.048119 -0.013502 488910.000000 0 0 1
-7.808885 -29.748548 -4.938009 31.150261 1.314091 1.729990 0.049568 -0.012560 427495.000000 0 0 1
-8.696285 -30.204248 -5.955109 31.990394 1.290462 1.758042 0.042144 -0.013375 -402772.000000 0 0 1
-10.199285 -29.957648 -5.727409 32.160369 1.242648 1.749840 0.042158 -0.001099 164279.000000 0 0 1
-11.134185 -30.529148 -6.584309 33.156479 1.221080 1.770708 0.033813 -0.003762 -842831.000000 0 0 1
-12.437385 -30.306848 -6.137009 33.329514 1.181372 1.755984 0.031482 -0.001767 -318342.000000 0 0 1
-13.540485 -30.909348 -7.012709 34.466079 1.157907 1.775694 0.036118 -0.006013 -86918.400000 0 0 1
-13.739885 -30.149048 -8.180409 34.127242 1.143186 1.812856 0.053092 -0.011158 -1030870.000000 0 0 1
-14.923685 -30.423448 -8.814809 35.014332 1.114751 1.825283 0.072762 -0.012710 -795942.000000 0 0 1
-15.090285 -29.602848 -10.074009 34.720757 1.099373 1.865173 0.075539 -0.012234 36485.600000 0 0 1
-15.471685 -28.222748 -9.958909 33.690895 1.069337 1.870876 0.079482 -0.015353 -91044.300000 0 0 1
-14.361285 -27.424948 -9.669609 32.432632 1.088402 1.873544 0.067215 -0.011224 -498967.000000 0 0 1
-14.561885 -25.905848 -9.622109 31.236940 1.058705 1.883925 0.067197 -0.009020 64934.900000 0 0 1
-15.070585 -25.339648 -10.854309 31.417134 1.034251 1.923557 0.077836 -0.009556 322891.000000 0 0 1
-15.318485 -23.936348 -10.614909 30.336134 1.001506 1.928271 0.061200 0.005641 -155558.000000 0 0 1
-15.872385 -23.212948 -11.829709 30.507632 0.971044 1.968999 0.060623 0.015119 130210.000000 0 0 1
-17.129285 -23.707648 -12.284509 31.723401 0.945115 1.968430 0.062286 0.002373 -62417.200000 0 0 1
-17.465585 -23.217848 -13.587809 32.074035 0.925858 2.008255 0.068591 -0.006613 -133528.000000 0 0 1
-18.966385 -23.499448 -13.870709 33.231678 0.891742 2.001372 0.055689 0.016681 255031.000000 0 0 1
-19.330585 -24.909248 -13.945309 34.476279 0.910837 1.987217 0.079441 0.007261 75686.600000 0 0 1
-19.301485 -25.609348 -12.694709 34.489733 0.924938 1.947731 0.088779 -0.001673 -1343060.000000 0 0 1
-19.606185 -27.143848 -12.831609 35.858628 0.945256 1.936749 0.086507 -0.011675 38070.600000 0 0 1
-18.718285 -27.911948 -13.602109 36.255598 0.980062 1.955379 0.087951 -0.010175 1118770.000000 0 0 1
-17.293785 -27.799448 -13.346809 35.355645 1.014292 1.957893 0.095052 -0.012452 825444.000000 0 0 1
-16.570985 -29.010348 -13.942409 36.202053 1.051815 1.966142 0.079029 -0.014718 -285409.000000 0 0 1
-16.457885 -29.043948 -15.341909 36.739449 1.055256 2.001584 0.068751 -0.008671 -93497.400000 0 0 1
-15.666085 -30.121948 -15.841009 37.465925 1.091207 2.007341 0.087099 -0.013242 104337.000000 0 0 1
-16.218885 -31.551948 -15.802209 38.836677 1.095982 1.989842 0.075160 -0.016399 -209451.000000 0 0 1
-16.244185 -31.920448 -14.469709 38.628500 1.100057 1.954747 0.077358 -0.015355 -90178.300000 0 0 1
-16.298485 -33.336248 -14.148009 39.712872 1.116059 1.935056 0.051087 -0.007417 -995347.000000 0 0 1
-16.873785 -33.502048 -12.735709 39.614519 1.104222 1.898100 0.062623 -0.016651 367381.000000 0 0 1
-18.277885 -33.403048 -12.534209 40.086795 1.070111 1.888806 0.068060 -0.011828 468873.000000 0 0 1
-18.940585 -32.142948 -12.660809 39.398109 1.038311 1.897957 0.075495 -0.016039 -240062.000000 0 0 1
-18.623585 -30.998948 -11.732809 38.018831 1.029803 1.884523 0.091893 -0.017064 -508588.000000 0 0 1
-18.951385 -31.238748 -10.385509 37.985171 1.025492 1.847732 0.080785 -0.022383 95337.100000 0 0 1
-18.970485 -30.068748 -9.641809 36.837120 1.007963 1.835623 0.096052 -0.020724 -275746.000000 0 0 1
-19.010185 -30.266348 -8.121409 36.652370 1.009973 1.794230 0.059180 -0.018192 156454.000000 0 0 1
-17.937085 -31.031248 -7.583109 36.635788 1.046686 1.779290 0.073688 -0.017867 72990.700000 0 0 1
-18.149985 -31.293248 -6.185109 36.700748 1.045215 1.740133 0.066402 -0.017967 874340.000000 0 0 1
-17.131785 -32.368248 -5.543709 37.039631 1.084002 1.721030 0.069524 -0.011149 1048090.000000 0 0 1
-15.897785 -31.897848 -5.044609 35.995283 1.108432 1.711406 0.058480 -0.009750 86033.400000 0 0 1
-15.851885 -32.218848 -3.688009 36.096230 1.113564 1.673147 0.044477 -0.004296 55295.700000 0 0 1
-14.693685 -31.526548 -2.919209 34.904862 1.134656 1.654527 0.036780 -0.000983 -1067010.000000 0 0 1
-13.489185 -32.144348 -3.146209 35.001655 1.173471 1.660805 0.023804 0.000670 -1655140.000000 0 0 1
-12.571685 -31.412048 -2.391909 33.918804 1.190102 1.641374 0.031171 0.000346 -916944.000000 0 0 1
-11.148585 -31.922548 -2.339509 33.894149 1.234800 1.639875 0.028845 0.001080 -1091850.000000 0 0 1
-11.054385 -33.213548 -1.726309 35.047387 1.249501 1.620073 0.029563 0.003255 357280.000000 0 0 1
-9.724385 -33.733848 -1.690309 35.148162 1.290137 1.618906 0.041201 0.000580 693741.000000 0 0 1
-8.754985 -33.098748 -0.653709 34.243309 1.312208 1.589888 0.045931 -0.003348 -540870.000000 0 0 1
-9.056685 -33.173348 0.723791 34.395035 1.304280 1.549751 0.053459 -0.006883 -446951.000000 0 0 1
-8.069785 -32.551248 1.512591 33.570718 1.327786 1.525724 0.052961 -0.012593 452522.000000 0 0 1
-7.034985 -33.595548 2.004691 34.382709 1.364377 1.512458 0.056440 -0.014167 65211.500000 0 0 1
-7.760685 34.343891 2.852691 35.325188 -1.348559 1.489953 0.070130 -0.019870 461645.000000 0 0 1
-7.035885 33.261491 3.445591 34.171663 -1.362337 1.469793 0.062199 -0.017513 367482.000000 0 0 1
-6.162985 33.609791 4.732491 34.496331 -1.389442 1.433174 0.068048 -0.024410 438543.000000 0 0 1
-5.077985 -34.356248 4.536791 35.024565 1.424055 1.440900 0.067286 -0.022857 -193871.000000 0 0 1
-4.623485 -33.953648 5.805291 34.755262 1.435458 1.402976 0.059313 -0.024654 424777.000000 0 0 1
-3.345385 -33.034548 5.678691 33.685613 1.469871 1.401408 0.048795 -0.016785 564850.000000 0 0 1
-3.522685 -31.814048 4.972591 32.392432 1.460518 1.416676 0.037754 -0.013705 69815.000000 0 0 1
-3.371685 -32.028648 3.604591 32.406722 1.465912 1.459336 0.044487 -0.019827 -426627.000000 0 0 1
-3.725085 -30.795548 2.736791 31.140521 1.450419 1.482798 0.026803 -0.016053 63699.400000 0 0 1
-2.942585 -29.647948 3.036491 29.947953 1.471869 1.469230 0.012546 -0.008525 -66111.500000 0 0 1
-3.254685 -28.566148 2.215591 28.836203 1.457350 1.493887 0.019574 -0.013868 143783.000000 0 0 1
-2.870685 -27.214948 2.844591 27.513377 1.465703 1.467222 0.019423 -0.016817 70551.000000 0 0 1
-3.087785 -26.120248 1.996191 26.377766 1.453128 1.495047 0.020898 -0.011410 -401013.000000 0 0 1
-2.880985 -24.817548 2.582591 25.117335 1.455227 1.467793 0.010538 -0.008625 291611.000000 0 0 1
-3.980285 -24.228748 3.527291 24.805578 1.407971 1.428115 0.008337 -0.009471 264539.000000 0 1 0
-4.012685 -24.956048 4.734491 25.716170 1.411371 1.385635 0.020685 -0.012002 86265.700000 0 0 1
-4.957385 -24.398348 5.642591 25.528296 1.370340 1.347923 0.009761 -0.007305 199027.000000 0 0 1
-5.687785 -25.351048 6.585191 26.802822 1.350090 1.322565 0.021109 -0.013036 -274022.000000 0 0 1
-4.813285 -25.885548 7.562691 27.393861 1.386951 1.291091 0.022538 -0.017066 196449.000000 0 0 1
-5.528285 -26.856848 8.264691 28.638389 1.367789 1.278045 0.022826 -0.018886 620925.000000 0 0 1
-4.665985 -27.492548 9.452891 29.444333 1.402680 1.243966 0.010356 -0.013009 693194.000000 0 0 1
-4.203085 -26.670648 10.531591 28.981094 1.414490 1.198887 0.010849 -0.009459 -112099.000000 0 0 1
-5.234285 -25.943448 11.135391 28.713362 1.371711 1.172540 0.011938 -0.011058 -68174.800000 0 0 1
-4.744785 -25.040148 12.305391 28.300965 1.383529 1.120975 -0.005504 -0.004316 183606.000000 0 0 1
-4.161885 -25.649248 13.404091 29.238243 1.409937 1.094553 -0.004303 -0.007109 7793.740000 0 0 1
-3.277085 -24.758748 14.129791 28.694701 1.439201 1.055930 -0.009390 -0.003303 171709.000000 0 0 1
-2.346485 -25.513548 15.105991 29.742866 1.479084 1.038067 -0.007092 -0.006547 12429.800000 0 0 1
-2.984485 -26.001348 16.266091 30.814979 1.456515 1.014714 -0.017475 -0.004671 -207313.000000 0 0 1
-2.128385 -26.882248 16.947491 31.849690 1.491787 1.009707 -0.020181 0.014399 -144915.000000 0 0 1
-2.461085 -27.152948 18.442691 32.916141 1.480405 0.976057 -0.014217 -0.003621 -169469.000000 0 0 1
-2.481385 -25.911748 19.103091 32.287831 1.475325 0.937693 -0.008748 -0.006792 -39928.900000 0 0 1
-2.488385 -26.079448 20.493891 33.261528 1.475669 0.906959 0.001176 -0.008920 82582.000000 0 0 1
-2.593785 -24.793248 21.298991 32.788411 1.466559 0.863753 0.007235 -0.013484 12526.400000 0 0 1
-2.570085 -25.067448 22.713191 33.924494 1.468627 0.837231 0.005404 -0.012120 -97690.300000 0 0 1
-2.884485 -23.971348 23.549591 33.727274 1.451042 0.797866 0.023197 -0.008953 334784.000000 0 0 1
-1.966485 -22.698048 23.439091 32.687298 1.484375 0.771206 0.018788 -0.017209 204311.000000 0 0 1
-2.199885 -21.997248 22.246291 31.362651 1.471120 0.782257 0.035048 -0.006417 -88016.300000 0 0 1
-1.278485 -20.939548 22.039191 30.427375 1.509816 0.760747 0.028362 -0.003573 19667.300000 0 0 1
-1.943485 -19.759248 21.225791 29.064398 1.472753 0.752032 0.035575 0.012546 -21406.400000 0 0 1
-2.830485 -18.934348 22.015691 29.175535 1.422406 0.715761 0.042610 -0.007802 1266230.000000 0 0 1
-4.159785 -19.422248 22.265191 29.837330 1.359808 0.728432 0.055143 -0.014730 731958.000000 0 0 1
-5.165785 -19.512348 21.073191 29.180412 1.311989 0.763863 0.033704 -0.015879 -511058.000000 0 0 1
-4.821885 -20.477948 20.170291 29.145112 1.339542 0.806451 0.040905 -0.008870 -506061.000000 0 0 1
-5.302485 -21.751748 20.416491 30.299967 1.331687 0.831440 0.038821 -0.006342 -103106.000000 0 0 1
-4.845285 -22.732548 19.317291 30.222562 1.360796 0.877381 0.025274 0.003875 -394484.000000 0 0 1
-5.551385 -23.894348 19.337991 31.236447 1.342516 0.903220 0.019173 -0.010825 -696388.000000 0 0 1
-5.514185 -24.587248 18.087891 31.017911 1.350177 0.948204 0.010756 -0.012424 -18064.000000 0 0 1
-6.285485 -25.932048 18.097591 32.241297 1.332999 0.974820 0.016267 -0.024826 316236.000000 0 0 1
-7.664585 -25.773548 17.806791 32.250635 1.281743 0.985870 0.044637 -0.029086 -333091.000000 0 0 1
-8.258185 -27.072048 17.821291 33.446851 1.274718 1.008862 0.060364 -0.032529 -86075.800000 0 0 1
-9.788485 -26.959748 17.932991 33.826537 1.222519 1.012024 0.062962 -0.035020 -499583.000000 0 0 1
-10.378385 -26.190248 16.872391 32.837746 1.193510 1.031175 0.074028 -0.036951 1327470.000000 0 0 1
-11.832485 -26.189948 16.848591 33.313602 1.146451 1.040537 0.061669 -0.032274 1683580.000000 0 0 1
-12.468285 -25.271148 17.913891 33.391564 1.112459 1.004536 0.068476 -0.027129 -677638.000000 0 0 1
-12.285085 -23.917348 17.604691 32.138575 1.096290 0.991095 0.055633 -0.025487 96942.700000 0 0 1
-12.685385 -23.060048 18.658191 32.261632 1.067875 0.954104 0.051462 -0.009858 -134927.000000 0 0 1
-11.474585 -22.503448 19.423891 31.864695 1.099257 0.915273 0.041823 -0.015213 -179275.000000 0 0 1
-10.823785 -23.481548 20.165891 32.790251 1.138875 0.908415 0.049716 -0.013736 60408.200000 0 0 1
-9.420885 -23.314948 20.006691 32.134212 1.186786 0.898738 0.049832 -0.022762 509580.000000 0 0 1
-8.505485 -24.312048 20.768091 33.086743 1.234258 0.892219 0.042283 -0.024506 104324.000000 0 0 1
-8.262185 -23.863548 22.081091 33.545599 1.237487 0.852316 0.047030 -0.016268 394622.000000 0 0 1
-7.297885 -24.704448 22.738491 34.359974 1.283558 0.847616 0.038449 -0.013475 424610.000000 0 0 1
-7.239585 -24.259748 24.234891 35.046782 1.280790 0.807231 0.044021 -0.014744 -52399.300000 0 0 1
-6.337585 -24.949148 25.065991 35.929499 1.322038 0.798693 0.038605 -0.013931 -83009.300000 0 0 1
-6.369185 -24.388748 26.366791 36.477187 1.315349 0.762908 0.035219 -0.010129 1521.180000 0 0 1
-5.172985 -24.818548 27.248291 37.218133 1.365306 0.749361 0.031428 -0.011172 1188750.000000 0 0 1
-3.908685 -24.235348 26.799391 36.343325 1.410893 0.741591 0.020313 -0.004485 882332.000000 0 0 1
-2.961585 -24.493748 27.822591 37.186170 1.450469 0.725456 0.017901 -0.004946 489152.000000 0 0 1
-1.597085 -23.757848 27.602791 36.454082 1.503674 0.711791 0.023708 -0.007980 -284490.000000 0 0 1
-1.679385 -22.355148 27.506591 35.485004 1.495814 0.683826 0.032522 -0.007520 169184.000000 0 0 1
-0.507685 -21.559748 27.256391 34.756169 1.547253 0.669363 0.040276 -0.009547 1347830.000000 0 0 1
0.484415 -21.415948 28.533091 35.679332 -1.548181 0.643986 0.037140 -0.009997 745552.000000 0 0 1
0.984615 -22.651448 29.019991 36.826857 -1.527356 0.663224 0.040643 -0.007174 -115112.000000 0 0 1
1.811115 -22.503248 30.140191 37.657767 -1.490487 0.642882 0.029560 -0.005271 -310370.000000 0 0 1
2.500415 -23.841648 30.484691 38.781344 -1.466302 0.666378 0.036348 -0.013063 -493457.000000 0 0 1
3.476715 -24.204448 29.541591 38.349034 -1.428133 0.691430 0.035094 -0.017760 133832.000000 0 0 1
4.019915 -25.513048 29.841291 39.466162 -1.414518 0.713427 0.018033 -0.010217 -601694.000000 0 0 1
5.362315 -25.497148 30.617591 40.203182 -1.363507 0.705062 0.009077 -0.005154 636525.000000 0 0 1
6.517715 -25.030748 29.892891 39.529785 -1.316065 0.713292 0.010802 -0.011642 740911.000000 0 0 1
6.986315 -25.920648 28.933491 39.469425 -1.307525 0.747985 0.016813 -0.010649 -633650.000000 0 0 1
8.229615 -25.409848 28.147191 38.802723 -1.257582 0.759192 0.019539 -0.014538 295596.000000 0 0 1
7.857615 -24.310948 27.321891 37.406550 -1.258182 0.751883 0.020309 -0.006631 641728.000000 0 0 1
9.036315 -23.837548 26.670591 36.894499 -1.208454 0.762823 0.011060 -0.001084 245573.000000 0 0 1
8.846815 -22.654748 25.653391 35.349685 -1.198501 0.758740 0.016751 0.007400 130411.000000 0 0 1
8.088215 -23.083748 24.515091 34.630454 -1.233778 0.784268 0.027500 0.004251 229916.000000 0 0 1
7.728315 -22.054148 23.661991 33.256610 -1.233743 0.779169 0.017491 0.012460 328170.000000 0 0 1
6.864415 -22.491148 22.415091 32.487047 -1.274571 0.809349 0.046303 0.000011 -26423.800000 0 0 1
7.594715 -23.246048 21.492591 32.557486 -1.255019 0.849787 0.040046 0.006740 39696.100000 0 0 1
7.045515 -23.066348 20.191091 31.454345 -1.274351 0.873800 0.049665 0.005766 -319196.000000 0 0 1
7.715115 -23.792848 19.066091 31.450571 -1.257232 0.919492 0.049140 -0.003366 -688704.000000 0 0 1
9.049815 -23.481348 18.848191 31.440852 -1.202935 0.927944 0.042129 -0.012156 -814318.000000 0 0 1
9.697315 -24.394548 17.997391 31.828257 -1.192430 0.969814 0.054620 -0.018792 584331.000000 0 0 1
11.102115 -23.884548 17.536491 31.642647 -1.135683 0.983390 0.039837 -0.020210 338777.000000 0 0 1
11.067515 -22.811448 16.598091 30.304268 -1.119080 0.991166 0.043687 -0.016684 529666.000000 0 0 1
12.377215 -22.422548 16.157291 30.282407 -1.066420 1.008000 0.049023 -0.027194 379614.000000 0 0 1
-11.956485 22.467191 11.716391 28.017959 -1.081741 1.139362 0.011540 -0.007425 -275881.000000 0 0 1
-12.887085 21.598491 11.102691 27.492572 -1.032832 1.155082 0.006349 -0.011742 -208660.000000 0 0 1
-12.298685 20.483691 10.530091 26.109807 -1.030073 1.155676 0.014213 -0.017059 -595563.000000 0 0 1
-13.151185 19.788291 9.459191 25.573549 -0.984230 1.191915 0.019347 -0.013348 -778306.000000 0 0 1
-13.329585 20.660391 8.346491 25.965236 -0.997820 1.243537 0.021621 -0.015560 358319.000000 0 0 1
-14.131785 20.050391 7.275391 25.586262 -0.956847 1.282471 0.023319 -0.014298 1540310.000000 0 0 1
-15.690685 20.022591 7.517891 26.525844 -0.906105 1.283440 0.025266 -0.012072 554716.000000 0 0 1
-16.011285 19.196391 8.622191 26.442482 -0.875619 1.238649 0.015109 -0.008114 -872470.000000 0 0 1
-17.391385 19.247991 8.804491 27.394607 -0.836027 1.243594 0.016093 -0.007374 -617449.000000 0 0 1
-17.921885 18.149891 9.733291 27.301089 -0.791719 1.206260 0.005771 -0.004571 -91941.700000 0 0 1
-17.894385 16.877491 9.096691 26.226103 -0.756162 1.216579 -0.005892 -0.006659 144067.000000 0 0 1
-18.593885 15.945391 9.953191 26.439630 -0.708867 1.184835 0.006714 -0.007278 264488.000000 0 0 1
-17.758885 15.064291 10.968191 25.741252 -0.703488 1.130626 0.011220 -0.001859 -59987.500000 0 0 1
-16.941485 14.170691 10.285091 24.364020 -0.696574 1.134989 -0.004699 0.006070 -526261.000000 0 1 0
-16.388085 13.145691 11.118391 23.769668 -0.676050 1.084047 -0.001624 0.000909 30800.800000 0 1 0
-17.273585 12.107591 11.871591 24.205478 -0.611350 1.058190 0.007675 -0.001941 136354.000000 0 1 0
-18.067085 11.245591 11.042991 23.975623 -0.556753 1.092134 0.007505 -0.004657 -14755.400000 0 1 0
-18.851585 10.397891 11.830891 24.565593 -0.504045 1.068312 0.023802 -0.003677 -233924.000000 0 1 0
-19.979585 9.717191 10.996091 24.789547 -0.452673 1.111210 0.033746 -0.003405 -390111.000000 0 1 0
-19.625185 8.739491 10.048891 23.717226 -0.418955 1.133275 0.027833 -0.000952 255301.000000 0 1 0
-19.000885 9.237291 8.878891 22.917152 -0.452507 1.172949 0.019936 0.002995 256084.000000 0 1 0
-19.992385 9.537391 7.682691 23.445277 -0.445121 1.236943 0.023684 -0.002318 448158.000000 0 1 0
-20.329885 8.370891 6.969191 23.063947 -0.390597 1.263830 0.003486 -0.008150 278886.000000 0 1 0
-21.332985 8.537991 6.004091 23.749582 -0.380700 1.315215 0.014252 -0.002375 -125505.000000 0 1 0
-21.630285 7.194691 5.294591 23.402254 -0.321109 1.342578 0.027852 -0.000663 -423332.000000 0 1 0
-22.171085 6.181891 6.142791 23.822398 -0.271920 1.309992 0.022639 0.001291 430100.000000 0 1 0
-21.886785 4.972891 5.629991 23.139961 -0.223417 1.325028 0.032569 -0.008395 -615728.000000 0 1 0
-22.950785 3.927091 5.963891 24.035985 -0.169468 1.320054 0.049747 -0.006258 66144.700000 0 1 0
-24.027685 3.940891 5.017491 24.860320 -0.162567 1.367573 0.059424 -0.012231 361570.000000 0 1 0
-24.819785 2.782791 5.194291 25.509730 -0.111654 1.365742 0.069015 -0.018517 -136539.000000 0 0 1
-25.910055 2.656191 4.110291 26.368178 -0.102159 1.414277 0.072311 -0.019238 -60828.800000 0 0 1
-25.350305 2.514091 2.816491 25.629890 -0.098851 1.460683 0.071671 -0.017878 264765.000000 0 0 1
-26.358745 2.411291 1.843791 26.532948 -0.091226 1.501250 0.078163 -0.011680 -89602.400000 0 0 1
-25.831245 2.554491 0.383191 25.960075 -0.098571 1.556035 0.087507 -0.008997 30481.300000 0 0 1
-25.339165 3.878091 0.047591 25.634257 -0.151869 1.568940 0.081152 -0.016793 394737.000000 0 0 1
-25.154695 4.092491 -1.334009 25.520320 -0.161280 1.623093 0.081600 -0.009474 -255532.000000 0 0 1
-26.348215 4.728291 -2.073109 26.849264 -0.177564 1.648086 0.100702 -0.014151 -128441.000000 0 0 1
-27.503585 3.948291 -2.132209 27.867230 -0.142581 1.647384 0.100476 -0.010428 -307519.000000 0 0 1
-28.660605 4.687591 -2.434809 29.143303 -0.162120 1.654440 0.088704 -0.004722 110478.000000 0 0 1
-29.904735 3.769591 -2.563809 30.250225 -0.125392 1.655652 0.083357 -0.003817 -113200.000000 0 0 1
-29.860885 2.889691 -3.669309 30.223941 -0.096471 1.692501 0.082437 0.002193 905730.000000 0 0 1
-31.002815 2.003891 -3.715709 31.288922 -0.064546 1.689832 0.079504 -0.000824 867685.000000 0 0 1
-31.311455 1.492091 -5.164909 31.769637 -0.047617 1.734095 0.073156 -0.005852 434479.000000 0 0 1
-30.181965 0.707191 -5.584909 30.702481 -0.023427 1.753719 0.093587 -0.004607 816422.000000 0 0 1
-30.393485 -0.193409 -6.671209 31.117622 0.006363 1.786860 0.095605 0.001475 -297300.000000 0 0 1
-30.883225 0.344491 -8.039409 31.914329 -0.011154 1.825446 0.087501 0.001213 -337076.000000 0 0 1
-32.203765 0.814291 -8.027809 33.199266 -0.025280 1.815024 0.089120 -0.002278 -245963.000000 0 0 1
-32.607255 1.375391 -9.258809 33.924185 -0.042156 1.847230 0.072390 -0.006907 -417618.000000 0 0 1
-34.116554 1.619791 -9.228409 35.379747 -0.047443 1.834687 0.050444 -0.003697 -415877.000000 0 0 1
-34.499595 2.583891 -8.312909 35.580936 -0.074757 1.806610 0.041672 0.002814 -463736.000000 0 0 1
35.461024 2.775391 -8.179609 36.497850 0.078107 1.796828 0.038500 0.005685 -531787.000000 0 0 1
35.116776 3.772991 -6.938509 35.993977 0.107031 1.764779 0.046281 0.003654 -350521.000000 0 0 1
33.735476 3.954691 -6.795009 34.639488 0.116694 1.768240 0.044863 -0.011530 -105466.000000 0 0 1
33.385636 4.592091 -5.595609 34.161365 0.136689 1.735337 0.042061 -0.009338 -166967.000000 0 0 1
32.072276 4.032291 -5.054309 32.717523 0.125069 1.725901 0.048971 -0.017333 -228571.000000 0 0 1
32.296036 2.850291 -4.333109 32.709845 0.088027 1.703658 0.040422 -0.015515 475677.000000 0 0 1
31.079996 2.109991 -4.224709 31.436705 0.067785 1.705592 0.068613 -0.012389 382288.000000 0 0 1
31.296326 0.760991 -3.499509 31.500567 0.024311 1.682120 0.085057 -0.004559 -538790.000000 0 0 1
32.162296 -0.142709 -4.093009 32.422005 -0.004437 1.697376 0.047064 -0.005810 -256830.000000 0 0 1
32.088526 -1.348909 -3.342209 32.290300 -0.042012 1.674487 0.053415 -0.002294 -89379.300000 0 0 1
33.094066 -2.391009 -3.825509 33.400130 -0.072124 1.685584 0.033793 -0.001624 -97653.600000 0 0 1
32.884446 -3.611209 -3.154809 33.232220 -0.109377 1.665872 0.027825 -0.001128 -215106.000000 0 0 1
34.084146 -4.337509 -3.165809 34.504570 -0.126578 1.662676 0.040758 -0.003009 -321068.000000 0 0 1
33.948116 -5.781209 -2.642109 34.538062 -0.168677 1.647370 0.039926 -0.002392 -36252.600000 0 0 1
33.913696 -5.870309 -1.237409 34.440246 -0.171397 1.606733 0.052646 -0.004629 -83694.900000 0 0 1
33.844516 -7.240109 -0.915809 34.622380 -0.210746 1.597251 0.060236 -0.008029 69305.500000 0 0 1
33.389556 -7.548009 0.584091 34.237057 -0.222322 1.553735 0.061438 -0.003680 1555980.000000 0 0 1
31.932756 -7.528509 0.704691 32.815789 -0.231533 1.549321 0.057111 -0.001901 1488350.000000 0 0 1
31.574776 -7.889709 2.055891 32.610439 -0.244860 1.507711 0.054729 -0.021681 -374984.000000 0 0 1
31.389206 -9.409409 2.248691 32.846246 -0.291242 1.502282 0.067599 -0.024202 449464.000000 0 0 1
30.196536 -10.073609 1.760691 31.881161 -0.321992 1.515542 0.072022 -0.031555 1342830.000000 0 0 1
28.992016 -9.823309 2.495491 30.712569 -0.326688 1.489454 0.071287 -0.037316 -550245.000000 0 0 1
27.851596 -10.704609 1.997591 29.904690 -0.366938 1.503948 0.088034 -0.039234 -651564.000000 0 0 1
26.621346 -10.554209 2.691791 28.763400 -0.377448 1.477075 0.108362 -0.043537 870798.000000 0 0 1
25.760056 -9.521309 2.188591 27.550422 -0.354041 1.491273 0.108791 -0.042893 687504.000000 0 0 1
24.911756 -9.773109 0.831491 26.773133 -0.373859 1.539734 0.094010 -0.037906 446732.000000 0 0 1
25.889056 -9.936009 -0.204609 27.731019 -0.366456 1.578175 0.087443 -0.035139 666268.000000 0 0 1
25.449856 -10.016009 -1.559009 27.394272 -0.374941 1.627737 0.083506 -0.016084 -300968.000000 0 0 1
24.523956 -11.150209 -2.063609 27.018699 -0.426727 1.647248 0.059961 -0.011575 -347860.000000 0 0 1
23.193256 -11.097609 -1.640509 25.763838 -0.446287 1.634514 0.063117 -0.012264 -361113.000000 0 0 1
22.765156 -12.453209 -1.471509 25.990385 -0.500560 1.627444 0.052479 -0.009946 345624.000000 0 0 1
21.250356 -12.688409 -1.187709 24.778701 -0.538278 1.618747 0.034655 -0.004983 453525.000000 0 1 0
20.446356 -12.417009 -2.331009 24.034750 -0.545768 1.667934 0.028546 0.001374 277402.000000 0 1 0
19.077256 -12.691609 -2.085009 23.007954 -0.587038 1.661542 0.019370 0.003707 246920.000000 0 1 0
18.183856 -12.006209 -3.145309 22.015782 -0.583559 1.714153 0.017162 0.003700 -177493.000000 0 1 0
18.269656 -12.720809 -4.371709 22.687247 -0.608225 1.764704 0.025377 -0.003063 354970.000000 0 1 0
17.702056 -12.006009 -5.473409 22.078616 -0.595963 1.821314 0.032721 -0.007269 -249149.000000 0 1 0
17.755256 -12.860309 -6.723509 22.931251 -0.626856 1.868372 0.035408 -0.008399 -249781.000000 0 1 0
16.814056 -13.906109 -6.839709 22.866438 -0.691020 1.874562 0.034652 -0.011949 110974.000000 0 1 0
16.785656 -14.499309 -8.131809 23.624448 -0.712447 1.922195 0.040428 -0.015905 -284177.000000 0 1 0
15.762056 -15.646009 -8.286209 23.704457 -0.781703 1.927901 0.033510 -0.014754 372839.000000 0 1 0
14.399356 -15.207909 -8.373409 22.555176 -0.812701 1.951142 0.032138 -0.010016 957510.000000 0 1 0
13.619356 -16.117409 -9.170609 23.007778 -0.869207 1.980772 0.029714 -0.010396 -8732.690000 0 1 0
13.693356 -15.913109 -10.715909 23.570443 -0.860233 2.042757 0.039736 -0.016358 -438327.000000 0 1 0
12.870356 -14.881809 -11.258409 22.668615 -0.857751 2.090533 0.017336 -0.011380 267962.000000 0 1 0
13.313156 -13.570209 -10.992109 21.959444 -0.794960 2.095047 0.023266 -0.005431 -204074.000000 0 1 0
13.306556 -12.666109 -12.274209 22.094139 -0.760745 2.159810 0.037212 0.001386 -529678.000000 0 1 0
14.377756 -12.890509 -13.150809 23.362981 -0.730911 2.168676 0.040981 0.003809 -167135.000000 0 1 0
14.124856 -12.473109 -14.468909 23.757933 -0.723377 2.225613 0.056062 0.008214 -434230.000000 0 1 0
15.392056 -12.153209 -15.275209 24.858558 -0.668353 2.232529 0.054921 -0.002583 -12613.000000 0 1 0
16.322956 -13.220509 -15.413209 26.053556 -0.680769 2.203835 0.051268 -0.003736 -335341.000000 0 0 1
17.364156 -12.729809 -16.194209 26.940943 -0.632603 2.215674 0.052396 -0.004054 -582438.000000 0 0 1
18.515156 -13.749109 -16.358009 28.274255 -0.638740 2.187744 0.057315 -0.005105 -400750.000000 0 0 1
19.384456 -13.855009 -15.251409 28.289997 -0.620556 2.140176 0.043486 -0.008215 -131737.000000 0 0 1
20.370456 -14.839009 -15.397509 29.533625 -0.629571 2.119235 0.025276 -0.005286 -488602.000000 0 0 1
21.276656 -14.874709 -14.187909 29.584622 -0.610128 2.070961 0.019192 -0.009877 -771781.000000 0 0 1
22.053056 -13.724709 -14.110409 29.560254 -0.556691 2.068426 0.027235 0.003924 -353224.000000 0 0 1
22.644556 -13.705109 -12.839309 29.418597 -0.544254 2.022429 0.017647 0.008547 135506.000000 0 0 1
23.438656 -12.424609 -12.497309 29.324465 -0.487429 2.011055 0.022115 0.017034 184809.000000 0 0 1
22.511356 -11.330809 -12.398109 28.086679 -0.466314 2.027980 0.016854 0.015378 571718.000000 0 0 1
22.942056 -10.081509 -12.901809 28.185661 -0.414032 2.046252 0.022270 0.010297 461897.000000 0 0 1
24.139956 -9.330109 -12.204009 28.613393 -0.368815 2.011431 0.023313 0.004804 799286.000000 0 0 1
25.367556 -10.020209 -12.150809 29.858997 -0.376189 1.989898 0.022202 0.007743 221240.000000 0 0 1
26.313866 -9.424809 -11.286509 30.143522 -0.343934 1.954574 0.027388 0.002297 -299617.000000 0 0 1
27.689456 -10.090709 -11.255409 31.546991 -0.349467 1.935618 0.025049 0.004833 -273969.000000 0 0 1
28.211326 -10.055509 -12.581309 32.485097 -0.342396 1.968492 0.017980 0.001461 -354867.000000 0 0 1
29.519946 -10.525109 -12.712909 33.820456 -0.342491 1.956158 0.005668 0.000914 -315639.000000 0 0 1
30.236376 -10.149009 -14.019109 34.839292 -0.323839 1.984926 -0.003223 0.005838 -107318.000000 0 0 1
29.687626 -10.801309 -15.162609 35.041806 -0.348944 2.018282 -0.012901 0.016458 173660.000000 0 0 1
30.413126 -10.475309 -16.333709 36.076037 -0.331708 2.040652 -0.021810 0.010834 -402099.000000 0 0 1
29.920696 -11.116809 -17.641809 36.470056 -0.355736 2.075713 -0.037973 0.024155 457482.000000 0 0 1
28.744996 -10.567109 -18.271309 35.662016 -0.352281 2.108711 -0.027781 0.014973 548377.000000 0 0 1
28.865276 -9.377009 -18.966209 35.788959 -0.314100 2.129333 -0.030998 0.018798 -201243.000000 0 0 1
27.522626 -8.854809 -19.514409 34.881439 -0.311270 2.164518 -0.061959 0.020441 268100.000000 0 0 1
26.976016 -9.501009 -20.671809 35.288785 -0.338635 2.196651 -0.054034 0.023595 426170.000000 0 0 1
25.624456 -9.159809 -20.916709 34.322348 -0.343308 2.226125 -0.023211 0.023752 207951.000000 0 0 1
25.182756 -9.687609 -22.330309 35.023759 -0.367241 2.262144 -0.013800 0.009159 -42856.500000 0 0 1
25.081056 -11.096609 -22.471909 35.456746 -0.416541 2.257231 -0.026536 0.012186 -86398.200000 0 0 1
24.312456 -11.511909 -23.536809 35.743545 -0.442222 2.289608 -0.008453 0.004565 -1208410.000000 0 0 1
24.457556 -13.046109 -23.766209 36.513090 -0.490024 2.279560 -0.019568 0.018190 598048.000000 0 0 1
25.612956 -13.574409 -24.389009 37.882871 -0.487345 2.270251 -0.016109 0.017702 631976.000000 0 0 1
26.915876 -13.298409 -23.885009 38.364121 -0.458895 2.242841 -0.033456 0.025303 567687.000000 0 0 1
28.106796 -13.871909 -24.722709 39.920349 -0.458469 2.238648 -0.021628 0.022205 426537.000000 0 0 1
28.347766 -13.206909 -25.907279 40.610410 -0.435988 2.262625 -0.020015 0.013914 996898.000000 0 0 1
29.713356 -13.437909 -26.317499 41.905510 -0.424725 2.249803 -0.029193 0.013857 1037030.000000 0 0 1
30.191096 -12.848609 -27.679299 42.927062 -0.402359 2.271556 -0.012984 0.004023 36779.900000 0 0 1
29.874656 -13.577209 -28.847629 43.692350 -0.426567 2.291940 0.006214 -0.007026 716346.000000 0 0 1
30.883586 -13.277209 -29.829619 44.943146 -0.406023 2.296576 0.005352 -0.010843 480653.000000 0 0 1
30.890816 -14.127009 -31.097159 46.052668 -0.428925 2.312103 0.007388 -0.012389 -140427.000000 0 0 1
31.254986 -15.472409 -30.818539 46.540864 -0.459670 2.294524 0.011106 -0.016119 -193658.000000 0 0 1
31.286476 -16.357209 -31.959889 47.621806 -0.481737 2.306513 0.011095 -0.015689 -354009.000000 0 0 1
30.007846 -16.705609 -32.727799 47.441091 -0.507979 2.332095 -0.003589 -0.012972 -402379.000000 0 0 1
29.526466 -15.659909 -33.535249 47.346150 -0.487646 2.357883 -0.011388 -0.014355 424441.000000 0 0 1
28.369596 -16.158909 -34.232530 47.305502 -0.517756 2.379870 -0.012200 -0.011552 398763.000000 0 0 1
27.773476 -15.192909 33.584416 46.153044 -0.500560 0.755870 0.004258 -0.007806 -1089910.000000 0 0 1
27.143676 -14.122209 34.140783 45.845491 -0.479737 0.730723 0.009620 -0.020095 -455347.000000 0 0 1
27.960646 -13.082109 -34.241537 46.102302 -0.437620 2.407934 0.013739 -0.029804 -755328.000000 0 0 1
27.075026 -11.931009 -33.804499 44.923827 -0.415064 2.422623 0.019232 -0.029238 -77566.700000 0 0 1
26.452866 -11.300109 33.950033 44.497768 -0.403715 0.702916 0.033923 -0.029407 -292543.000000 0 0 1
25.631756 -10.317409 -34.297490 44.042635 -0.382681 2.463441 0.017302 -0.027547 -231328.000000 0 0 1
19.724515 -29.330048 9.444291 36.585555 -0.978765 1.309697 0.008207 -0.005470 -312008.000000 0 0 1
20.321015 -29.491148 8.145191 36.728948 -0.967454 1.347172 -0.002300 -0.010760 1278850.000000 0 0 1
21.600515 -30.175148 8.214391 38.007868 -0.949520 1.352954 0.016665 -0.011561 966256.000000 0 0 1
22.342615 -30.078948 6.892191 38.097741 -0.931920 1.388887 0.014699 -0.012814 -250212.000000 0 0 1
22.645215 -28.755548 6.560791 37.185095 -0.903719 1.393432 0.015852 -0.011250 363412.000000 0 0 1
23.529215 -28.753848 5.436291 37.549447 -0.884997 1.425509 0.015392 -0.001031 98437.900000 0 0 1
23.633315 -27.353448 4.770691 36.462367 -0.858232 1.439581 0.010971 -0.005611 -106427.000000 0 0 1
24.166415 -26.350948 5.583091 36.187829 -0.828614 1.415897 0.019332 -0.007854 64860.500000 0 0 1
24.003915 -25.031248 5.000591 35.039367 -0.806346 1.427594 0.015607 0.001039 -174695.000000 0 0 1
24.782815 -23.915048 5.761891 34.918717 -0.767581 1.405030 -0.000657 0.000712 402845.000000 0 0 1
26.176215 -23.841748 5.494891 35.830392 -0.738759 1.416830 -0.003027 0.004335 399762.000000 0 0 1
26.986915 -23.029348 6.312491 36.034594 -0.706437 1.394709 0.017609 0.000619 68048.700000 0 0 1
26.704615 -21.504948 6.346191 34.869376 -0.677958 1.387777 0.004227 0.002917 -436153.000000 0 0 1
27.032415 -20.741648 5.169191 34.462849 -0.654474 1.420235 0.007736 0.017224 152655.000000 0 0 1
26.737815 -19.425848 5.426891 33.492170 -0.628311 1.408044 0.014492 0.009751 8830.090000 0 0 1
26.633315 -18.458748 4.190091 32.674389 -0.606060 1.442204 0.017680 0.015668 -1405080.000000 0 0 1
27.900815 -18.317648 3.722091 33.583413 -0.580950 1.459737 0.053493 0.013327 -1024820.000000 0 0 1
27.904415 -17.547448 2.521091 33.059419 -0.561357 1.494463 0.051459 0.012505 -49683.700000 0 0 1
29.189015 -16.707448 2.477191 33.723492 -0.519869 1.497274 0.056491 -0.005782 -144401.000000 0 0 1
28.994815 -15.373648 2.977691 32.953224 -0.487531 1.480312 0.059837 -0.019014 -480772.000000 0 0 1
30.141015 -14.607048 3.139991 33.640841 -0.451271 1.477322 0.073797 -0.023967 -376472.000000 0 0 1
29.892615 -13.367748 4.031691 32.992721 -0.420517 1.448291 0.076603 -0.032649 152234.000000 0 0 1
29.468315 -13.701648 5.327691 32.931763 -0.435226 1.408302 0.068606 -0.019499 -8024.850000 0 0 1
29.258915 -12.531248 6.148291 32.417862 -0.404652 1.379983 0.063085 -0.027749 -8336.260000 0 0 1
28.863815 -12.911948 7.598691 32.520429 -0.420640 1.334957 0.076628 -0.018456 -1341550.000000 0 0 1
27.549115 -13.239048 7.815891 31.548602 -0.447976 1.320448 0.074387 -0.016287 -1376670.000000 0 0 1
27.140015 -13.261148 9.153191 31.562943 -0.454502 1.276572 0.075784 -0.009273 98606.800000 0 0 1
27.615115 -14.438048 10.052791 32.743097 -0.481745 1.258736 0.075337 -0.011467 -92112.300000 0 0 1
28.891715 -14.337848 10.646891 33.965591 -0.460652 1.251961 0.057595 -0.001157 -36690.400000 0 0 1
29.192315 -15.596548 11.232391 34.951540 -0.490685 1.243620 0.069786 -0.014824 -159515.000000 0 0 1
29.820415 -15.534748 12.634891 35.919716 -0.480262 1.211353 0.065149 -0.010720 73365.000000 0 0 1
31.231515 -15.478948 12.654691 37.082968 -0.460137 1.222546 0.035634 -0.001977 60035.300000 0 0 1
31.702015 -15.518748 14.017391 37.978106 -0.455228 1.192765 0.035983 -0.003997 24397.500000 0 0 1
33.228215 -15.399148 14.137191 39.256951 -0.433971 1.202400 0.032956 -0.008476 -239725.000000 0 0 1
33.828615 -14.165748 13.879891 39.213454 -0.396565 1.208997 0.026650 -0.004407 -406363.000000 0 0 1
35.139915 -14.072148 14.341791 40.478710 -0.380903 1.208626 0.017827 -0.002324 -522368.000000 0 0 1
-35.550327 -12.686048 14.036891 40.271527 0.342762 1.214766 0.006320 -0.001115 -395566.000000 0 0 1
-34.876527 -12.730948 12.792891 39.269673 0.350001 1.238970 0.009554 -0.005822 310348.000000 0 0 1
-34.219727 -11.456348 12.583991 38.217724 0.323059 1.235265 0.014240 -0.009725 -4338.130000 0 0 1
-33.036527 -11.477048 11.584291 36.841967 0.334361 1.250938 0.011242 -0.009570 -22103.700000 0 0 1
-31.826927 -12.112548 11.905691 36.075096 0.363650 1.234466 -0.007648 -0.000426 -130477.000000 0 0 1
-31.887227 -13.526848 11.858191 36.611303 0.401200 1.240954 -0.010578 -0.002869 -103072.000000 0 0 1
-30.547127 -14.241748 12.237291 35.856738 0.436262 1.222515 -0.017650 0.004849 353254.000000 0 0 1
-29.548527 -14.093548 11.266591 34.621953 0.445049 1.239343 -0.010748 -0.000541 -395074.000000 0 0 1
-28.448327 -14.902548 11.641991 34.160345 0.482542 1.223024 -0.010187 -0.000890 96002.800000 0 0 1
-27.188827 -14.674248 10.766791 32.718338 0.494913 1.235472 0.003790 -0.011454 -191192.000000 0 0 1
-27.287027 -15.017048 9.414091 32.537957 0.503102 1.277273 0.001467 -0.010273 521650.000000 0 0 1
-26.030327 -14.824048 8.742691 31.205207 0.517685 1.286828 0.017074 -0.012895 467835.000000 0 0 1
-26.067927 -14.897448 7.157591 30.865869 0.519189 1.336773 0.031716 -0.009585 -466292.000000 0 0 1
-26.348727 -16.131948 6.581691 31.588191 0.549377 1.360899 0.037967 -0.003237 124759.000000 0 0 1
-25.907527 -16.152948 5.222491 30.974055 0.557509 1.401378 0.033850 -0.001130 -662398.000000 0 0 1
-26.388927 -17.393848 4.460291 31.918891 0.582770 1.430599 0.033450 0.003468 168874.000000 0 0 1
-27.791627 -17.296348 4.261691 33.010607 0.556697 1.441334 0.004774 -0.008832 186073.000000 0 0 1
-28.366227 -18.413448 3.636491 34.013555 0.575765 1.463679 0.000311 -0.004481 217955.000000 0 0 1
-29.899027 -18.517748 3.856991 35.379870 0.554521 1.461563 0.012533 -0.009063 250039.000000 0 0 1
-30.639727 -17.544248 3.136891 35.446207 0.520027 1.482183 0.023355 -0.014287 -323767.000000 0 0 1
-32.012127 -17.688948 3.368591 36.729042 0.504814 1.478953 0.039999 -0.014389 -362807.000000 0 0 1
-32.958627 -16.867348 2.492391 37.107823 0.473022 1.503580 0.034186 -0.020053 -47398.100000 0 0 1
-33.208427 -17.354148 1.164191 37.487617 0.481550 1.539736 0.036015 -0.011941 -210.036000 0 0 1
-33.771827 -16.333348 0.373491 37.516050 0.450473 1.560841 0.051906 -0.017377 -253275.000000 0 0 1
-34.107927 -16.798648 -1.045109 38.034688 0.457641 1.598278 0.049320 -0.021553 775340.000000 0 0 1
-32.949927 -17.174648 -1.832409 37.202472 0.480491 1.620071 0.042429 -0.016903 946137.000000 0 0 1
-33.393227 -18.064348 -2.825609 38.071148 0.495875 1.645084 0.048935 -0.013278 589801.000000 0 0 1
-32.219427 -18.726848 -3.620609 37.441890 0.526503 1.667647 0.038446 -0.004800 176192.000000 0 0 1
-32.689627 -19.800048 -4.361109 38.466516 0.544599 1.684415 0.056910 -0.025326 -375350.000000 0 0 1
-31.749727 -20.479248 -5.125509 38.127622 0.572867 1.705635 0.040785 -0.019259 -771400.000000 0 0 1
-32.417227 -21.609548 -5.966909 39.413870 0.587961 1.722772 0.058146 -0.024957 97855.700000 0 0 1
-32.841627 -22.736548 -5.177309 40.278128 0.605545 1.699692 0.079755 -0.040652 -4205.160000 0 0 1
-33.550627 -23.621648 -6.016909 41.470833 0.613445 1.716398 0.073847 -0.034648 92357.600000 0 0 1
-34.041127 -24.884748 -5.327709 42.502159 0.631243 1.696478 0.077840 -0.030958 121854.000000 0 0 1
-32.932427 -25.577948 -4.821809 41.976493 0.660359 1.685920 0.073953 -0.029318 -161162.000000 0 0 1
-33.375727 -26.813848 -4.283109 43.026348 0.676807 1.670508 0.058946 -0.027223 211714.000000 0 0 1
-32.211027 -27.638548 -3.685809 42.603108 0.709147 1.657420 0.049194 -0.023910 -1061800.000000 0 0 1
-31.306127 -27.885248 -4.781709 42.196272 0.727669 1.684361 0.049288 -0.020376 640533.000000 0 0 1
-30.283227 -28.845148 -4.473509 42.061011 0.761082 1.677355 0.044832 -0.019941 789272.000000 0 0 1
-29.322127 -28.589948 -3.267409 41.083430 0.772756 1.650411 0.044571 -0.022894 -805471.000000 0 0 1
-29.989327 -28.521548 -1.992209 41.434374 0.760318 1.618896 0.055259 -0.021462 201733.000000 0 0 1
-29.042327 -28.560748 -0.934709 40.743671 0.777038 1.593740 0.044724 -0.021351 84861.300000 0 0 1
-29.792527 -28.434148 0.378391 41.185417 0.762073 1.561609 0.049860 -0.018593 -177054.000000 0 0 1
-30.461227 -29.639748 0.645691 42.506681 0.771731 1.555605 0.042114 -0.012434 -344709.000000 0 0 1
-31.202327 -29.373448 1.813291 42.891406 0.755216 1.528507 0.046723 -0.012406 -447161.000000 0 0 1
-32.012527 -30.579148 2.273691 44.328950 0.762502 1.519482 0.027141 -0.006888 -868291.000000 0 0 1
-33.044027 -30.322548 3.193291 44.961781 0.742476 1.499714 0.025436 -0.006798 152439.000000 0 0 1
-33.542727 -31.436348 3.903791 46.136732 0.752993 1.486082 0.017825 -0.001204 -17061.600000 0 0 1
-34.446627 -32.388648 3.081391 47.382376 0.754616 1.505718 0.019752 -0.006860 -540128.000000 0 0 1
-35.198327 -33.290548 3.843491 48.599951 0.757550 1.491629 0.008372 -0.005748 -513221.000000 0 0 1
35.266015 -33.976048 2.991491 49.061315 -0.766771 1.509784 0.021503 -0.008937 -1085150.000000 0 0 1
34.210515 33.993891 3.744091 48.373155 0.782222 1.493319 0.009218 -0.008127 230400.000000 0 0 1
33.225215 -34.162848 4.531191 47.870103 -0.799311 1.475998 -0.000603 -0.000415 781190.000000 0 0 1
32.524415 -33.067548 3.953291 46.550283 -0.793678 1.485769 0.004303 -0.004158 -729771.000000 0 0 1
31.408415 -33.410148 2.929691 45.948989 -0.816270 1.506993 0.013687 -0.005064 -430001.000000 0 0 1
31.843315 -34.000648 1.686391 46.614211 -0.818151 1.534611 0.019115 -0.003869 -523134.000000 0 0 1
31.095515 -33.508448 0.622891 45.717996 -0.822730 1.557171 0.028709 -0.000288 -1537130.000000 0 0 1
31.539015 -33.917248 -0.793909 46.321911 -0.821715 1.587936 0.035437 -0.005498 -183693.000000 0 0 1
32.671415 -33.422048 -1.436109 46.760208 -0.796755 1.601513 0.027394 -0.000624 -329421.000000 0 0 1
33.842115 -33.435248 -0.613809 47.577109 -0.779351 1.583698 0.028016 -0.000640 -349816.000000 0 0 1
35.160115 -33.302748 -1.449009 48.450040 -0.758275 1.600708 0.023271 0.002681 143361.000000 0 0 1
-35.666727 -34.353648 -2.171009 49.568153 0.766648 1.614609 0.018463 -0.003949 124563.000000 0 0 1
-34.805727 -33.909348 -3.202609 48.698452 0.772354 1.636608 0.020270 -0.004129 -438547.000000 0 0 1
-34.212127 33.807191 -4.087309 48.271128 -0.779445 1.655572 0.022907 -0.005912 -198648.000000 0 0 1
-33.071527 33.215291 -3.524809 47.004316 -0.787567 1.645856 0.033985 -0.005986 -279547.000000 0 0 1
-32.438427 32.441691 -4.539609 46.101224 -0.785448 1.669427 0.037422 -0.017226 -223090.000000 0 0 1
-31.247427 31.609391 -4.024009 44.629003 -0.791157 1.661085 0.037896 -0.021380 -103386.000000 0 0 1
-30.147427 32.456891 -3.693609 44.451770 -0.822271 1.653985 0.014277 -0.023778 -72984.700000 0 0 1
-28.912927 31.772691 -3.766109 43.123599 -0.832488 1.658241 0.020393 -0.025478 420948.000000 0 0 1
-28.433127 31.089791 -2.417609 42.200268 -0.830001 1.628117 0.023740 -0.026310 -356346.000000 0 0 1
-29.329827 30.109391 -1.962909 42.079296 -0.798513 1.617461 0.030581 -0.023295 -286745.000000 0 0 1
-29.500127 30.132591 -0.581309 42.173077 -0.796004 1.584581 0.022865 -0.013179 -180577.000000 0 0 1
-30.946527 29.749591 -0.230009 42.927597 -0.765681 1.576154 0.014681 -0.005495 -266594.000000 0 0 1
-31.199427 28.408991 -0.532209 42.199031 -0.738620 1.583409 0.015626 -0.016052 -983334.000000 0 0 1
-32.568227 28.230391 -0.624009 43.104915 -0.714171 1.585273 0.005466 -0.017865 -689552.000000 0 0 1
-33.023127 26.823991 -1.127109 42.559649 -0.682183 1.597282 0.007491 -0.017217 -308974.000000 0 0 1
-32.982327 25.887891 -0.113509 41.928864 -0.665467 1.573504 0.006262 -0.012857 -159317.000000 0 0 1
-33.458027 24.647891 -0.532309 41.560094 -0.634922 1.583605 0.023067 -0.010042 -522428.000000 0 0 1
-33.374927 23.423991 0.492791 40.777591 -0.611962 1.558711 0.021132 -0.015031 114767.000000 0 0 1
-32.097127 23.053391 0.991891 39.530598 -0.622862 1.545702 0.018853 -0.018536 56268.300000 0 0 1
-31.750827 23.908491 2.021291 39.797193 -0.645421 1.519985 0.021566 -0.021757 75897.700000 0 0 1
-30.229027 23.858791 2.424891 38.586475 -0.668162 1.507912 0.016105 -0.025024 980577.000000 0 0 1
-29.280327 24.628391 1.715491 38.299322 -0.699319 1.525990 0.037419 -0.030849 163576.000000 0 0 1
-29.288027 26.011391 2.050291 39.224796 -0.726215 1.518502 0.020666 -0.024381 -702094.000000 0 0 1
-28.633227 26.877791 1.047191 39.285798 -0.753785 1.544137 0.020402 -0.025056 -753642.000000 0 0 1
-27.267327 26.655391 0.871291 38.141527 -0.774050 1.547951 0.025244 -0.025194 -618803.000000 0 0 1
-26.796927 27.547591 -0.083609 38.431133 -0.799210 1.572972 0.028030 -0.025907 342310.000000 0 0 1
-25.553627 27.087291 -0.905809 37.249559 -0.814524 1.595116 0.025374 -0.023607 367409.000000 0 0 1
-25.943727 26.124191 -1.918609 36.867755 -0.788864 1.622860 0.028073 -0.027474 495280.000000 0 0 1
-24.840227 25.565091 -2.650409 35.744026 -0.799778 1.645014 0.019182 -0.016412 550315.000000 0 0 1
-23.979927 24.485691 -1.953009 34.327834 -0.795833 1.627720 0.024763 -0.012796 -31570.100000 0 0 1
-24.477627 23.170591 -1.840109 33.755244 -0.757974 1.625337 0.021702 -0.010892 -387550.000000 0 0 1
-23.518627 22.290791 -1.303509 32.429990 -0.758601 1.611002 0.024426 -0.021941 -272997.000000 0 0 1
-24.175327 20.960091 -0.757509 32.005400 -0.714283 1.594467 0.030198 -0.018559 -54031.700000 0 0 1
-25.099727 20.989991 0.336791 32.721391 -0.696465 1.560503 0.013722 -0.014110 390050.000000 0 0 1
-26.409227 21.441991 0.087391 34.017846 -0.681963 1.568227 0.008680 -0.020219 2787.650000 0 0 1
-27.268027 20.641191 -0.912209 34.211638 -0.647950 1.597463 0.001972 -0.017935 -989197.000000 0 0 1
-27.439427 19.285991 -0.502009 33.542862 -0.612641 1.585763 0.003197 -0.012310 164475.000000 0 0 1
-28.272727 18.677691 -1.459609 33.916569 -0.583809 1.613845 0.021618 -0.009854 -103505.000000 0 0 1
-28.314827 17.116191 -1.301809 33.111752 -0.543719 1.610122 0.020261 -0.002553 170466.000000 0 0 1
-29.170627 16.657091 -0.233409 33.592240 -0.518840 1.577745 0.036589 -0.012038 578796.000000 0 0 1
-29.114827 15.247791 -0.010609 32.865915 -0.482437 1.571119 0.043877 -0.014224 31721.400000 0 0 1
-27.787027 14.624891 0.512191 31.404914 -0.484482 1.554486 0.060149 -0.014732 -276879.000000 0 0 1
-27.628927 14.561291 1.926591 31.290582 -0.485038 1.509186 0.081494 -0.015214 476349.000000 0 0 1
-26.333727 14.086791 2.298891 29.953092 -0.491202 1.493971 0.069767 -0.008584 468654.000000 0 0 1
-26.207327 12.575991 2.245191 29.155109 -0.447411 1.493712 0.070468 -0.008119 -334211.000000 0 0 1
-26.130827 12.048791 0.917791 28.789509 -0.432042 1.538912 0.069378 -0.013834 437185.000000 0 0 1
-25.650927 10.693391 0.808691 27.802385 -0.394974 1.541705 0.073476 -0.008429 31219.900000 0 0 1
-25.687027 10.163491 -0.648709 27.632240 -0.376765 1.594275 0.082394 -0.012484 72134.400000 0 0 1
-27.002627 9.855491 -1.064009 28.764643 -0.349960 1.607795 0.094552 -0.022228 217632.000000 0 0 1
-26.991627 9.035291 -2.209209 28.549343 -0.323020 1.648256 0.100350 -0.019247 -36533.300000 0 0 1
-28.358827 8.768291 -2.876309 29.822460 -0.299867 1.667394 0.108573 -0.025406 -40844.900000 0 0 1
-28.296527 8.237391 -4.171009 29.764834 -0.283281 1.711391 0.111459 -0.020234 -1104780.000000 0 0 1
-29.525927 7.967091 -4.692509 30.939853 -0.263557 1.723049 0.099098 -0.019505 -1234580.000000 0 0 1
-10.878085 18.198491 -19.603909 28.876133 -1.032035 2.317055 0.063835 -0.007704 66010.900000 0 0 1
-11.219485 17.322391 -20.708709 29.236838 -0.996049 2.357896 0.066541 -0.008076 -91478.100000 0 0 1
-10.220385 17.143591 -21.701309 29.483992 -1.033202 2.397994 0.063287 -0.005586 -297651.000000 0 0 1
-10.395885 15.994391 -22.662509 29.622361 -0.994442 2.441911 0.065016 -0.004805 -166214.000000 0 0 1
-9.829385 14.747191 -22.296809 28.482348 -0.982891 2.469996 0.073214 -0.010057 -83656.700000 0 0 1
-9.958685 13.772791 -23.305509 28.844617 -0.944755 2.511491 0.065482 -0.011716 66021.400000 0 0 1
-9.163285 12.458291 -23.048709 27.756401 -0.936629 2.550608 0.054263 -0.004728 -535153.000000 0 0 1
-7.779585 12.561191 -23.055209 27.383355 -1.016281 2.571670 0.045569 -0.006304 -971591.000000 0 0 1
-7.235385 11.546091 -22.273609 26.110854 -1.011010 2.592580 0.027490 -0.007886 719708.000000 0 0 1
-5.666785 11.590891 -22.261209 25.729801 -1.116068 2.616329 0.024103 -0.003059 1011950.000000 0 0 1
-5.049385 11.290191 -23.534409 26.586333 -1.150243 2.657735 0.014227 -0.006982 -1187320.000000 0 0 1
-3.677885 11.394191 -23.385009 26.271907 -1.258568 2.668393 0.010022 -0.004190 -817565.000000 0 0 1
-3.019085 11.073091 -24.755109 27.286327 -1.304616 2.707459 0.020558 -0.009622 -431288.000000 0 0 1
-3.208785 9.703191 -25.081679 27.083922 -1.251423 2.754665 0.016462 -0.003126 143564.000000 0 0 1
-2.721985 9.317891 -26.400929 28.129013 -1.286580 2.789247 0.018294 -0.002540 -171665.000000 0 0 1
-2.548485 7.814391 -26.620459 27.860516 -1.255545 2.842114 0.019717 0.009780 -362607.000000 0 0 1
-1.321885 7.421391 -26.061109 27.129427 -1.394527 2.860026 0.017557 0.003620 160953.000000 0 0 1
-1.518885 6.193391 -25.414379 26.202209 -1.330300 2.895750 0.016645 0.002348 658400.000000 0 0 1
-0.113985 5.810691 -24.844409 25.515129 -1.551182 2.911797 -0.013196 0.004907 564223.000000 0 0 1
0.277715 6.523991 -23.672009 24.556132 1.528254 2.872437 -0.001055 -0.005827 473614.000000 0 1 0
1.255415 5.721991 -22.975009 23.710088 1.354817 2.891936 0.005272 -0.007796 398060.000000 0 1 0
1.580615 6.392991 -21.568109 22.551098 1.328415 2.845249 0.018348 -0.011951 -159142.000000 0 1 0
2.319415 7.552491 -21.672609 23.067765 1.272833 2.792020 0.007341 -0.013659 -311744.000000 0 1 0
2.217315 8.280691 -20.499109 22.219356 1.309165 2.745509 0.017227 -0.015746 -191404.000000 0 1 0
2.893715 9.648591 -20.646909 22.973109 1.279422 2.687689 0.011649 -0.019115 -322025.000000 0 1 0
2.724715 10.249591 -19.358009 22.072850 1.310969 2.640390 0.014615 -0.028422 160936.000000 0 1 0
3.145915 11.599391 -19.267609 22.708664 1.305954 2.583883 0.009339 -0.018760 288890.000000 0 1 0
4.452515 11.735091 -18.420909 22.290517 1.208157 2.543482 0.018021 -0.028415 355063.000000 0 1 0
5.575515 11.127691 -18.987609 22.703329 1.106310 2.561361 0.026208 -0.021291 -712606.000000 0 1 0
6.632515 10.959491 -18.066109 22.146896 1.026573 2.524804 0.027824 -0.018496 479890.000000 0 1 0
7.735815 10.032091 -18.675109 22.566466 0.913923 2.545544 0.059898 -0.022534 92292.000000 0 1 0
7.331015 8.690691 -18.905309 22.060884 0.870060 2.600139 0.056833 -0.020514 10563.800000 0 1 0
6.726815 8.457391 -20.157009 22.870997 0.898881 2.649476 0.042703 -0.010513 -50044.000000 0 1 0
6.382515 6.976591 -20.451609 22.531703 0.829839 2.708522 0.052435 -0.014443 1398550.000000 0 1 0
7.578815 6.106391 -20.445009 22.643428 0.678218 2.697292 0.055478 -0.016030 1500180.000000 0 1 0
7.300315 4.754191 -20.804209 22.554646 0.577240 2.745023 0.043168 -0.006166 -129113.000000 0 1 0
7.327015 4.429291 -22.317509 23.903451 0.543733 2.775274 0.049141 -0.011465 -30288.600000 0 1 0
6.129615 4.779391 -22.994009 24.272190 0.662253 2.815620 0.049642 -0.018582 77545.200000 0 1 0
6.237415 4.623691 -24.407309 25.612509 0.637899 2.833603 0.052093 -0.016845 -419578.000000 0 0 1
5.135515 5.404691 -25.104079 26.187764 0.810931 2.852906 0.040741 -0.013124 -320607.000000 0 0 1
5.172715 6.849291 -25.158559 26.582379 0.923963 2.812814 0.044530 -0.011278 122122.000000 0 0 1
4.698815 7.403191 -23.945809 25.500743 1.005251 2.790577 0.047227 -0.023758 -790516.000000 0 0 1
4.580715 8.940391 -23.962909 25.983351 1.097308 2.744633 0.044163 -0.018379 775114.000000 0 0 1
3.566215 9.527591 -24.807309 26.812226 1.212636 2.752421 0.049028 -0.017067 406537.000000 0 0 1
2.224215 9.382891 -24.403709 26.239794 1.338042 2.765282 0.027916 -0.010961 -350075.000000 0 0 1
1.258715 9.889391 -25.484369 27.364895 1.444198 2.768706 0.018717 -0.001135 -171239.000000 0 0 1
1.120615 11.285991 -25.430899 27.845287 1.471828 2.722093 0.028949 -0.010011 -157217.000000 0 0 1
0.116715 11.643591 -26.331999 28.791683 1.560773 2.725239 0.030994 -0.011741 -595531.000000 0 0 1
0.136515 13.134891 -26.652519 29.713646 1.560403 2.683684 0.029129 -0.009003 -181235.000000 0 0 1
-0.037485 13.974791 -25.553299 29.125028 -1.568114 2.641140 0.023332 -0.009228 168618.000000 0 0 1
-0.332885 15.315391 -25.920889 30.109210 -1.549064 2.607824 0.035596 -0.020347 -169073.000000 0 0 1
-0.675785 16.122691 -24.677009 29.484786 -1.528906 2.562465 0.042587 -0.016747 -417419.000000 0 0 1
-1.907585 15.715191 -24.165409 28.888979 -1.450002 2.561647 0.043864 -0.009464 -933981.000000 0 0 1
-2.146985 16.015291 -22.749809 27.904353 -1.437532 2.524006 0.041359 -0.016392 -86784.800000 0 0 1
-3.468185 15.394791 -22.244309 27.273379 -1.349213 2.524571 0.034955 -0.009357 305790.000000 0 0 1
-4.721385 15.656691 -22.825309 28.078785 -1.277912 2.519915 0.032469 -0.009130 -137693.000000 0 0 1
-4.872085 15.306191 -24.185909 29.034030 -1.262629 2.555339 0.034430 -0.010953 -1273250.000000 0 0 1
-6.337685 15.320091 -24.606409 29.670639 -1.178549 2.548683 0.021054 -0.007829 -199784.000000 0 0 1
-6.850485 16.584291 -25.058009 30.819988 -1.179073 2.520158 0.030749 -0.006310 768720.000000 0 0 1
-8.220385 16.420191 -25.457749 31.389399 -1.106648 2.516707 0.060422 -0.009372 908341.000000 0 0 1
-9.004885 17.687191 -25.952929 32.672300 -1.099880 2.488717 0.061883 -0.013511 295542.000000 0 0 1
-9.371085 18.587491 -24.939509 32.485245 -1.103826 2.446069 0.059258 -0.015561 158091.000000 0 0 1
-10.386285 19.463391 -25.419439 33.657783 -1.080607 2.426805 0.060197 -0.014743 186619.000000 0 0 1
-10.799285 20.486291 -24.331309 33.590553 -1.085668 2.380887 0.033180 -0.006153 -334005.000000 0 0 1
-9.906985 21.549091 -24.206109 33.888750 -1.139872 2.366393 0.042083 -0.004909 -275588.000000 0 0 1
-10.339785 22.788891 -24.674309 35.143509 -1.144853 2.349141 0.034221 -0.009940 -374997.000000 0 0 1
-10.156185 23.121191 -26.202149 36.390798 -1.156911 2.374629 0.022156 -0.011192 335739.000000 0 0 1
-11.007885 22.354491 -27.102949 36.816663 -1.113228 2.398175 0.030056 -0.013486 531384.000000 0 0 1
-11.033485 22.905791 -28.353239 38.083057 -1.121904 2.410598 0.050461 -0.014132 -480532.000000 0 0 1
-11.734285 22.037791 -29.364389 38.543806 -1.081518 2.436952 0.045531 -0.010694 -372887.000000 0 0 1
-11.015785 20.952791 -29.913829 38.147138 -1.086767 2.472153 0.049110 -0.017727 -163970.000000 0 0 1
-10.771085 19.853791 -29.046489 36.795215 -1.073714 2.480643 0.054935 -0.016636 -442928.000000 0 0 1
-9.764085 18.920891 -29.679479 36.526825 -1.094393 2.519292 0.043969 -0.017814 -349029.000000 0 0 1
-8.431785 19.435191 -29.623419 36.419344 -1.161461 2.520766 0.036189 -0.014680 1163010.000000 0 0 1
-7.341585 18.622791 -30.133399 36.176359 -1.195278 2.555229 0.039475 -0.012093 1063920.000000 0 0 1
-7.068385 17.318891 -29.365979 34.817622 -1.183300 2.574419 0.051669 -0.022034 -103384.000000 0 0 1
-8.146985 16.356591 -29.504609 34.704948 -1.108681 2.587077 0.037418 -0.019031 628131.000000 0 0 1
-7.865985 15.119391 -28.875669 33.530195 -1.091074 2.608391 0.034332 -0.012548 -722737.000000 0 0 1
-9.053585 14.185491 -28.710149 33.278645 -1.002741 2.611420 0.044906 -0.015699 -791993.000000 0 0 1
-9.983485 14.692791 -27.775989 32.970497 -0.973974 2.572611 0.065789 -0.020916 -736748.000000 0 0 1
-11.013185 13.734191 -27.808419 32.912405 -0.894910 2.577216 0.087400 -0.026153 -745093.000000 0 0 1
-12.054685 14.051891 -26.745009 32.527935 -0.861751 2.536091 0.075639 -0.018283 -704744.000000 0 0 1
-12.784285 15.179391 -27.076759 33.570861 -0.870840 2.509098 0.072202 -0.018944 -568916.000000 0 0 1
-13.460185 15.666591 -25.925619 33.147494 -0.861006 2.468872 0.062974 -0.021945 409836.000000 0 0 1
-14.376885 16.892091 -26.220759 34.344807 -0.865663 2.439444 0.043070 -0.022203 116128.000000 0 0 1
-13.722385 18.105791 -26.417449 34.842576 -0.922258 2.431336 0.038392 -0.014482 209810.000000 0 0 1
-14.679985 19.184491 -26.577349 35.915208 -0.917638 2.403871 0.021398 -0.010287 565020.000000 0 0 1
-14.058285 20.579491 -26.846339 36.631636 -0.971489 2.393332 0.017622 -0.014956 598740.000000 0 0 1
-15.131185 21.514491 -27.065809 37.741013 -0.957858 2.370495 -0.010204 -0.000673 747453.000000 0 0 1
-14.650985 22.808191 -27.155309 38.370246 -0.999813 2.357059 -0.008514 -0.003080 -93209.200000 0 0 1
-14.168185 23.493191 -25.839909 37.687775 -1.028118 2.326267 -0.014457 -0.013180 536528.000000 0 0 1
-13.423385 24.693991 -26.151949 38.391469 -1.072888 2.320185 0.004774 -0.014425 254398.000000 0 0 1
-13.347785 25.466591 -24.941909 38.063230 -1.088032 2.285344 0.017230 -0.012797 63022.100000 0 0 1
-13.066685 26.970291 -25.113039 39.099867 -1.119638 2.268265 0.024811 -0.010673 515324.000000 0 0 1
-14.239185 27.669291 -25.516559 40.242252 -1.095521 2.257607 0.027112 -0.016026 200444.000000 0 0 1
-14.496685 28.656491 -24.529609 40.411014 -1.102457 2.223080 0.028983 -0.014949 -230390.000000 0 0 1
-15.689285 29.541091 -24.939509 41.723001 -1.082579 2.211475 0.023465 -0.016044 546712.000000 0 0 1
-16.889085 28.768691 -25.105439 41.751190 -1.039942 2.215937 0.016890 -0.012613 -430973.000000 0 0 1
-17.925285 29.616191 -25.499249 42.995887 -1.026523 2.205654 0.012664 -0.013496 47573.700000 0 0 1
-19.248385 28.777191 -25.611129 43.064567 -0.981265 2.207707 0.042441 0.001252 484615.000000 0 0 1
-19.738685 28.315991 -24.361909 42.248238 -0.962029 2.185403 0.045930 -0.007646 -72972.000000 0 0 1
-20.754785 27.336491 -24.310909 42.060256 -0.921412 2.187074 0.053437 -0.026853 -71483.700000 0 0 1
-21.228985 26.902891 -22.938509 41.238459 -0.902739 2.160652 0.062516 -0.028930 165105.000000 0 0 1
-22.015985 27.947791 -22.346209 42.013518 -0.903567 2.131617 0.052899 -0.018642 125419.000000 0 0 1
-22.588285 27.575491 -21.114709 41.430294 -0.884491 2.105568 0.029264 -0.013987 -687830.000000 0 0 1
-23.828585 28.373591 -20.740209 42.461964 -0.872245 2.081100 0.010431 -0.004461 -234474.000000 0 0 1
-25.019885 27.832691 -21.282109 43.053240 -0.838568 2.087850 0.008648 -0.008164 25690.100000 0 0 1
-26.118995 28.693891 -21.086209 44.160723 -0.832340 2.068590 0.013086 -0.007406 274918.000000 0 0 1
-27.526795 28.098791 -21.326209 44.744538 -0.795681 2.067604 0.003600 -0.005662 186581.000000 0 0 1
-27.760445 27.817991 -22.676209 45.372826 -0.786434 2.094135 -0.000458 -0.005045 -244583.000000 0 0 1
-29.068795 27.330991 -22.869209 45.988897 -0.754596 2.091253 -0.009424 0.003073 -65607.400000 0 0 1
-29.325335 27.035491 -24.350909 46.731786 -0.744792 2.118910 -0.012599 0.009140 -35674.000000 0 0 1
-28.764425 25.830391 -24.751009 45.904397 -0.731708 2.140267 0.000528 0.015258 -372774.000000 0 0 1
-28.885075 25.625591 -26.130679 46.624359 -0.725674 2.165727 0.008082 0.012939 -188815.000000 0 0 1
-28.989065 24.109091 -26.607469 46.147281 -0.693751 2.185330 0.007127 0.004281 -361394.000000 0 0 1
-27.866045 23.324391 -26.299829 44.857827 -0.696909 2.197272 0.026331 -0.009795 -176018.000000 0 0 1
-28.126655 22.090591 -26.818139 44.702522 -0.665773 2.214203 0.026325 -0.011929 -685499.000000 0 0 1
-27.038085 21.056791 -26.699909 43.443430 -0.661669 2.232663 0.027205 -0.009716 -656246.000000 0 0 1
-26.817805 20.473391 -25.398399 42.230713 -0.652038 2.216074 0.024703 -0.006280 212800.000000 0 0 1
-26.011745 19.319991 -25.555789 41.267073 -0.638839 2.238619 0.011900 -0.006012 -95252.900000 0 0 1
-26.850275 18.031491 -25.613029 41.256505 -0.591381 2.240590 0.013027 0.003909 573865.000000 0 0 1
-27.742685 17.939091 -26.770169 42.521871 -0.573998 2.251786 0.014565 0.000387 752242.000000 0 0 1
-28.254475 16.632591 -26.770609 42.327579 -0.532048 2.255525 0.007292 -0.000390 -197430.000000 0 0 1
-29.083715 16.105491 -27.996119 43.462996 -0.505728 2.270691 0.004631 -0.003000 787831.000000 0 0 1
-30.307825 16.825091 -28.184169 44.676564 -0.506781 2.253443 -0.000584 -0.004074 554654.000000 0 0 1
-31.124925 16.189291 -29.141629 45.607989 -0.479629 2.263940 0.008890 -0.001038 -102960.000000 0 0 1
-32.346285 16.956291 -29.628089 47.027881 -0.482829 2.252364 0.016514 -0.002192 -170088.000000 0 0 1
-33.434085 17.025091 -28.731719 47.256782 -0.470991 2.224325 0.011316 0.000657 -166.022000 0 0 1
-34.660254 17.197291 -29.416759 48.604791 -0.460577 2.220843 0.021645 0.001036 -148875.000000 0 0 1
35.510213 16.654391 -28.589359 48.535507 0.438544 2.200667 0.006931 0.003136 -372691.000000 0 0 1
35.066076 17.600791 -27.631899 47.988951 0.465192 2.184375 0.014913 -0.001196 50540.700000 0 0 1
34.069496 17.123691 -26.743549 46.574336 0.465734 2.182438 0.009784 0.003117 200895.000000 0 0 1
33.650026 18.199291 -25.669419 46.070137 0.495784 2.161784 0.021192 0.005698 1521.590000 0 0 1
32.935956 19.281591 -26.213139 46.299953 0.529635 2.172635 0.021910 0.000879 -44145.500000 0 0 1
32.497856 20.140891 -25.225719 45.805055 0.554823 2.154022 0.036028 -0.000303 -267568.000000 0 0 1
31.834066 21.400091 -25.848399 46.254853 0.591850 2.163765 0.033254 -0.005084 -2146.630000 0 0 1
30.510436 21.198891 -26.269949 45.501538 0.607233 2.186266 0.030231 -0.010299 -201868.000000 0 0 1
29.523486 21.809091 -25.439899 44.659390 0.636232 2.176867 0.035824 -0.009217 336569.000000 0 0 1
28.111116 21.589891 -26.033759 43.978573 0.654934 2.204291 0.015546 -0.010590 184428.000000 0 0 1
27.673656 20.237891 -26.091239 43.083132 0.631429 2.221319 0.024191 -0.024391 -393481.000000 0 0 1
26.519386 20.062691 -26.865309 42.749670 0.647667 2.250334 0.025948 -0.026807 -327632.000000 0 0 1
26.048656 18.573691 -26.834149 41.756270 0.619423 2.268732 0.039708 -0.025207 -185449.000000 0 0 1
26.872376 17.642391 -27.514269 42.313279 0.580949 2.278712 0.028329 -0.019089 -222842.000000 0 0 1
27.777096 17.029291 -26.635129 42.083179 0.549974 2.256111 0.024098 -0.009739 -170882.000000 0 0 1
28.817696 16.114991 -27.362849 42.882142 0.509883 2.262817 0.018149 0.000566 -45358.700000 0 0 1
28.421766 15.003091 -28.184689 42.746535 0.485697 2.290743 0.025234 -0.001190 -17061.700000 0 0 1
27.616276 14.019191 -27.557839 41.456374 0.469743 2.297946 0.027323 -0.004378 142331.000000 0 0 1
28.419316 13.098491 -26.578969 41.056907 0.431882 2.274924 0.021395 -0.004294 210515.000000 0 0 1
28.889556 13.698791 -25.381409 40.822534 0.442777 2.241771 0.022375 -0.003267 84559.400000 0 0 1
29.598386 12.857991 -24.520709 40.529712 0.409818 2.220569 0.018718 -0.004013 -452116.000000 0 0 1
-14.251685 -31.682448 -23.986409 42.216536 1.148085 2.175084 0.048231 0.002931 -203061.000000 0 0 1
-13.530885 -30.730348 -24.667509 41.664435 1.156030 2.204399 0.048881 -0.012931 -197577.000000 0 0 1
-13.981485 -30.552548 -26.016179 42.494490 1.141623 2.229668 0.030369 -0.002754 56801.700000 0 0 1
-13.350685 -29.332348 -26.741499 41.877622 1.143666 2.263426 0.034820 -0.001979 -306686.000000 0 0 1
-13.685685 -28.045448 -26.259879 40.785125 1.116809 2.270328 0.039415 0.004437 -13095.700000 0 0 1
-12.955885 -27.031848 -26.910179 40.283167 1.123860 2.302348 0.032938 0.002196 -326185.000000 0 0 1
-13.372185 -25.586948 -26.570069 39.236155 1.089219 2.314724 0.023524 0.005956 -220769.000000 0 0 1
-13.008785 -25.206948 -25.279089 37.995409 1.094368 2.298718 0.026194 -0.014478 163223.000000 0 0 1
-13.546985 -23.910548 -25.019309 37.164512 1.055321 2.309330 0.028333 -0.013556 -34892.100000 0 0 1
-13.240685 -23.307148 -23.596509 35.711821 1.054166 2.292611 0.034107 -0.013511 301678.000000 0 0 1
-11.873085 -22.999948 -23.357809 34.864811 1.094255 2.304943 0.036089 -0.022857 131958.000000 0 0 1
-11.638585 -22.300548 -22.168209 33.529101 1.089785 2.293165 0.024194 -0.011436 -228028.000000 0 0 1
-10.133685 -22.264048 -21.890109 32.826153 1.143660 2.300770 0.022966 -0.019555 -213364.000000 0 0 1
-9.524885 -21.288648 -22.726609 32.564225 1.150093 2.343259 0.030755 -0.015061 388018.000000 0 0 1
-8.096085 -21.314548 -22.645909 32.135553 1.207790 2.352796 0.039335 -0.010130 786377.000000 0 0 1
-7.504185 -20.166348 -23.508009 31.868807 1.214558 2.400379 0.039887 -0.001391 -62689.600000 0 0 1
-7.919285 -18.876448 -23.057609 30.833240 1.173566 2.415564 0.027159 -0.006139 -139018.000000 0 0 1
-8.059685 -17.815248 -23.981909 30.943070 1.145945 2.457564 0.019602 -0.015643 -65626.500000 0 0 1
-6.791085 -17.249248 -24.681709 30.868142 1.195730 2.497401 0.028116 -0.015234 168114.000000 0 0 1
-6.615685 -17.842848 -25.915329 32.151809 1.215735 2.508210 0.036801 -0.020191 159276.000000 0 0 1
-5.725485 -17.043348 -26.709619 32.197215 1.246705 2.549121 0.016536 -0.016720 231222.000000 0 0 1
-5.374285 -17.621148 -28.058059 33.565496 1.274767 2.560603 0.025146 -0.008267 213579.000000 0 0 1
-6.286685 -17.213548 -29.087019 34.378530 1.220630 2.579386 0.053307 -0.011364 277666.000000 0 0 1
-6.043685 -17.981948 -30.227579 35.687297 1.246560 2.581136 0.048902 -0.021919 -280077.000000 0 0 1
-7.012585 -17.660648 -31.365099 36.672119 1.192815 2.596896 0.052710 -0.015876 -128930.000000 0 0 1
-6.867485 -16.453648 -32.120129 36.736734 1.175394 2.634856 0.042627 -0.018784 -223980.000000 0 0 1
-6.893685 -15.249148 -31.352909 35.539616 1.146222 2.651302 0.026748 -0.016978 -59650.900000 0 0 1
-7.450885 -14.099148 -32.223109 35.953170 1.084638 2.682043 0.020706 -0.016893 -826415.000000 0 0 1
-6.520885 -13.643248 -33.123649 36.412035 1.124938 2.713332 0.029313 -0.021296 -610695.000000 0 0 1
-7.119185 -12.925748 -34.190899 37.239433 1.067358 2.734149 0.033734 -0.025163 -222300.000000 0 0 1
-7.418785 -11.404548 -34.004949 36.625656 0.994062 2.761004 0.017142 -0.024296 337716.000000 0 0 1
-6.335885 -10.474348 -34.046179 36.180074 1.026785 2.796429 0.011067 -0.022628 -61659.900000 0 0 1
-5.840785 -10.253648 33.477030 35.495966 1.053007 0.338896 0.007894 -0.029778 -224099.000000 0 0 1
-4.840785 -9.124248 33.327497 34.891362 1.083016 0.300532 0.003954 -0.024461 -235591.000000 0 0 1
-4.760685 -8.697948 32.017363 33.517606 1.070002 0.300326 0.002071 -0.019906 206109.000000 0 0 1
-3.729185 -7.711348 31.907593 33.037345 1.120357 0.262271 0.000190 -0.018228 -256853.000000 0 0 1
-3.926785 -6.819648 30.617293 31.612432 1.048358 0.251579 0.003092 -0.013375 522300.000000 0 0 1
-5.038985 -5.922448 30.705483 31.674807 0.865822 0.248031 -0.001012 -0.013697 539110.000000 0 0 1
-6.270185 -6.545648 30.354853 31.679296 0.806889 0.290181 0.004453 -0.011841 -1249080.000000 0 0 1
-7.497585 -5.732348 30.510043 31.936441 0.652754 0.300001 -0.001770 -0.010228 -482695.000000 0 0 1
-8.650085 -6.452148 30.064593 31.942666 0.640876 0.344617 -0.003720 -0.004443 -428787.000000 0 0 1
-9.806485 -5.675248 30.097763 32.159771 0.524628 0.360041 -0.000028 -0.002942 108568.000000 0 0 1
-10.922085 -6.247648 29.149423 31.749234 0.519592 0.407501 0.015126 -0.002838 196329.000000 0 0 1
-10.558285 -6.066348 27.806593 30.355964 0.521502 0.412759 0.010333 0.000726 -64245.100000 0 0 1
-11.387885 -6.794248 26.974843 30.058075 0.537931 0.456901 0.018900 -0.010051 -492855.000000 0 0 1
-11.087085 -6.714548 25.478633 28.586174 0.544541 0.470609 0.016171 -0.008412 -503293.000000 0 0 1
-9.953685 -7.395148 25.033013 27.935923 0.638978 0.459923 0.007988 -0.003999 76317.000000 0 0 1
-9.394085 -6.843848 23.779833 26.468236 0.629616 0.454617 0.005396 -0.007883 -34919.700000 0 0 1
-10.228385 -7.071748 22.519873 25.724971 0.604920 0.504515 0.024684 -0.008309 153590.000000 0 0 1
-11.368585 -6.224348 22.409873 25.888021 0.500925 0.524356 0.023870 -0.007447 300804.000000 0 0 1
-12.043985 -6.355848 21.158673 25.162349 0.485577 0.571878 0.030141 -0.013580 474229.000000 0 0 1
-13.207685 -5.316048 21.017973 25.386187 0.382657 0.595391 0.032813 -0.006544 332520.000000 0 0 1
-12.763185 -4.005648 20.864073 24.784141 0.304109 0.570129 0.021100 0.003599 123045.000000 0 1 0
-13.838885 -3.102448 21.077473 25.404720 0.220537 0.592284 0.014938 0.007287 302479.000000 0 0 1
-13.540185 -1.734448 20.554973 24.674923 0.127403 0.586232 0.009746 0.010824 482982.000000 0 1 0
-12.452785 -1.038448 21.180873 24.592267 0.083198 0.533009 0.011150 0.008829 430905.000000 0 1 0
-12.603585 0.396552 21.023773 24.515436 -0.031453 0.540264 0.004835 0.005563 -138618.000000 0 1 0
-12.272885 1.015552 19.617673 23.162645 -0.082560 0.560568 0.010362 -0.007249 122348.000000 0 1 0
-13.139285 0.657552 18.543373 22.736091 -0.050003 0.617045 0.021709 -0.003319 -388341.000000 0 1 0
-14.333385 1.407552 18.515773 23.457642 -0.097887 0.661083 0.014722 0.003538 -113289.000000 0 1 0
-15.247885 0.781552 17.424573 23.167317 -0.051212 0.719525 0.023952 -0.000188 -50643.500000 0 1 0
-15.569885 -0.573448 17.922573 23.748027 0.036814 0.715604 0.008562 0.001844 -303933.000000 0 1 0
-16.666185 -1.150448 17.288073 24.040855 0.068920 0.768272 0.009911 0.010257 -470242.000000 0 1 0
-16.837785 -2.692448 17.595573 24.502336 0.158563 0.769702 0.018299 0.008709 -16955.000000 0 1 0
-17.268685 -3.078448 18.930473 25.807889 0.176414 0.747317 0.008589 0.009459 -107120.000000 0 0 1
-17.039785 -4.453548 19.160973 26.025588 0.255643 0.743305 0.016092 0.005627 -66176.900000 0 0 1
-17.974685 -5.047848 20.240373 27.536208 0.273779 0.745062 0.006693 0.010558 -185084.000000 0 0 1
-17.787185 -4.429348 21.524973 28.272381 0.244055 0.705415 0.010961 0.004839 293324.000000 0 0 1
-18.761985 -4.824048 22.507673 29.696445 0.251667 0.710670 0.013078 0.001689 -199947.000000 0 0 1
-18.704485 -6.250748 23.107773 30.379249 0.322516 0.706493 0.019693 -0.005683 -711455.000000 0 0 1
-17.573985 -6.605948 23.825823 30.334029 0.359554 0.667376 0.030085 -0.009575 -691739.000000 0 0 1
-16.541385 -7.095348 23.017273 29.219107 0.405208 0.663653 0.020565 -0.010874 -146797.000000 0 0 1
-15.351585 -7.646748 23.877473 29.398599 0.462133 0.622887 0.021875 -0.010560 489289.000000 0 0 1
-15.695785 -8.864748 24.573523 30.476211 0.514124 0.632896 0.021862 -0.012498 188776.000000 0 0 1
-14.837385 -8.918148 25.685153 30.974319 0.541198 0.593049 0.024955 -0.015358 122931.000000 0 0 1
-15.137485 -9.978948 26.723203 32.293226 0.582830 0.596125 0.029825 -0.017603 -390418.000000 0 0 1
-15.032285 -11.333348 26.325733 32.364465 0.646014 0.620798 0.024044 -0.019582 -129610.000000 0 0 1
-14.673185 -12.127048 27.386663 33.352615 0.690678 0.607417 0.021153 -0.022148 -367604.000000 0 0 1
-14.473585 -13.597448 27.038223 33.547589 0.754197 0.633490 0.017483 -0.013330 -885820.000000 0 0 1
-15.704285 -14.238948 27.049893 34.366683 0.736500 0.664709 0.022609 -0.006476 -619955.000000 0 0 1
-15.686285 -15.640448 26.774533 34.749946 0.783935 0.691185 0.028621 -0.006799 -145326.000000 0 0 1
-14.848885 -16.514148 27.754503 35.546011 0.838445 0.674843 0.037870 -0.004132 -682580.000000 0 0 1
-13.536585 -16.606348 27.323713 34.721682 0.886888 0.664970 0.041023 -0.017173 -721774.000000 0 0 1
-12.769485 -17.493548 28.122473 35.495879 0.940249 0.656269 0.053961 -0.011650 177229.000000 0 0 1
-11.253685 -17.441848 27.824923 34.714403 0.997795 0.640933 0.055955 -0.014567 118684.000000 0 0 1
-10.457585 -18.348548 28.563273 35.523103 1.052773 0.636677 0.063907 -0.025348 118391.000000 0 0 1
-9.317085 -18.718948 27.798873 34.784830 1.108962 0.644889 0.049515 -0.013828 333888.000000 0 0 1
-8.251785 -19.493248 28.651563 35.622896 1.170354 0.636297 0.055837 -0.018420 -59379.300000 0 0 1
-8.540285 -20.805448 29.097033 36.775541 1.181286 0.658018 0.058558 -0.008804 -316453.000000 0 0 1
-7.517485 -21.397848 29.852493 37.490689 1.232946 0.649702 0.049877 -0.009199 -122740.000000 0 0 1
-7.904085 -22.802248 30.389583 38.806492 1.237121 0.671152 0.053657 -0.011135 220656.000000 0 0 1
-7.961785 -23.741848 29.374853 38.599836 1.247234 0.705928 0.049535 -0.011501 192599.000000 0 0 1
-8.523385 -24.895948 30.008013 39.911617 1.240944 0.719915 0.043442 -0.011424 -147474.000000 0 0 1
-8.579385 -26.164448 29.121343 40.077884 1.253942 0.757409 0.046722 -0.007637 -181932.000000 0 0 1
-9.584685 -26.144748 28.128963 39.580962 1.219410 0.780348 0.055503 -0.009949 50905.200000 0 0 1
-9.589885 -27.328548 27.365743 39.845945 1.233310 0.813735 0.057995 -0.006863 108601.000000 0 0 1
-10.877185 -27.532948 26.506223 39.736082 1.194555 0.840545 0.054463 -0.012680 199643.000000 0 0 1
-11.039285 -26.792548 25.306073 38.472117 1.179964 0.852933 0.066110 -0.011277 136233.000000 0 0 1
-11.186285 -25.385148 25.398753 37.611638 1.155734 0.829439 0.063973 -0.001824 -309772.000000 0 0 1
-11.550185 -24.730348 24.068393 36.390719 1.133859 0.848128 0.069006 -0.014966 -308599.000000 0 0 1
-12.862985 -24.977848 23.643573 36.720128 1.095240 0.871230 0.055864 -0.010953 -160378.000000 0 0 1
-13.036585 -24.593448 22.319173 35.678224 1.083372 0.894936 0.056854 -0.017308 -411784.000000 0 0 1
-14.426385 -24.762948 21.711373 35.954247 1.043285 0.922460 0.052058 -0.015076 -468275.000000 0 0 1
-14.843985 -26.142148 21.427973 36.917663 1.054376 0.951545 0.067695 -0.015785 -82245.000000 0 0 1
-15.992485 -26.119448 20.637473 36.930887 1.021394 0.977842 0.065857 -0.019405 -66410.800000 0 0 1
-16.520585 -27.440548 19.966573 37.743575 1.028871 1.013368 0.073391 -0.026501 725833.000000 0 0 1
-15.513885 -27.872648 19.040173 37.149607 1.062901 1.032671 0.076417 -0.029521 503647.000000 0 0 1
-15.410185 -29.288548 18.886073 38.104811 1.086448 1.052231 0.099643 -0.022684 -442601.000000 0 0 1
-14.432885 -29.725348 17.842273 37.553311 1.118782 1.075698 0.100681 -0.032179 -557195.000000 0 0 1
-14.847685 -29.486148 16.540473 36.925248 1.104315 1.106331 0.090966 -0.040010 -164272.000000 0 0 1
-13.803385 -29.753348 15.642373 36.338395 1.136421 1.125790 0.095274 -0.038118 2047.780000 0 0 1
-14.168185 -29.101948 14.301673 35.386420 1.117727 1.154739 0.055083 -0.032167 -194405.000000 0 0 1
-14.013285 -27.687548 14.326973 34.179447 1.102263 1.138266 0.060582 -0.028895 -41090.600000 0 0 1
-14.127685 -27.008148 13.071673 33.164743 1.088848 1.165660 0.052793 -0.022818 126661.000000 0 0 1
-13.071685 -27.374048 11.998973 32.621815 1.125293 1.194132 0.037928 -0.012706 98839.300000 0 0 1
-13.266385 -26.499348 10.927173 31.585052 1.106644 1.217534 0.033650 -0.007478 10755.400000 0 0 1
-12.450585 -26.833748 9.833773 31.173229 1.136370 1.249859 0.027482 -0.005729 -167232.000000 0 0 1
-12.900385 -26.057048 8.567873 30.311683 1.111091 1.284231 0.022395 -0.003796 -53144.500000 0 0 1
-14.043085 -26.568048 7.918473 31.076866 1.084554 1.313153 0.032563 -0.005705 -159284.000000 0 0 1
-14.215185 -25.866548 6.731573 30.273154 1.068292 1.346561 0.022887 -0.007352 478328.000000 0 0 1
-15.289685 -26.429048 5.731673 31.066399 1.046322 1.385236 0.016912 -0.003677 437819.000000 0 0 1
-14.880985 -27.552648 4.928573 31.699889 1.075591 1.414687 0.026901 -0.008622 425961.000000 0 0 1
-15.798985 -27.811948 3.846573 32.216587 1.054190 1.451114 0.033881 -0.002017 321726.000000 0 0 1
-15.357385 -29.118048 3.106073 33.065960 1.085456 1.476722 0.026546 0.004727 -92645.100000 0 0 1
-14.278985 -28.966848 2.218973 32.371153 1.112811 1.502195 0.040549 0.005116 -470151.000000 0 0 1
-13.872485 -30.167548 1.648873 33.245234 1.139783 1.521179 0.033265 0.004062 -40745.000000 0 0 1
-12.431385 -30.028648 1.076773 32.517972 1.178293 1.537677 0.022318 -0.000452 328742.000000 0 0 1
-12.205585 -29.287348 -0.110027 31.729122 1.175932 1.574264 0.034455 -0.001664 -173359.000000 0 0 1
-12.324285 -27.924548 0.048973 30.523283 1.155165 1.569192 0.028183 -0.005541 -398710.000000 0 0 1
-12.192285 -27.141348 -1.261727 29.780808 1.148596 1.613176 0.038488 -0.002201 598627.000000 0 0 1
-10.890985 -27.187048 -1.859227 29.346309 1.189777 1.634194 0.044939 -0.006714 131785.000000 0 0 1
-10.672185 -26.267748 -2.926727 28.503611 1.184884 1.673657 0.066040 -0.014629 -404501.000000 0 0 1
-9.318585 -26.460448 -3.560727 28.278439 1.232189 1.697048 0.059816 -0.015346 -346395.000000 0 0 1
-8.915285 -25.547048 -4.613027 27.448388 1.235035 1.739660 0.055305 -0.021262 -502262.000000 0 0 1
-7.528685 -25.677448 -4.796927 27.184977 1.285588 1.748180 0.058316 -0.011695 432475.000000 0 0 1
-6.806185 -24.557248 -5.634227 26.098412 1.300427 1.788393 0.038643 -0.015556 405283.000000 0 0 1
-7.075985 -24.812548 -7.008727 26.736761 1.292993 1.836034 0.050737 -0.010190 -108318.000000 0 0 1
-6.245485 -23.918648 -7.721927 25.898571 1.315385 1.873561 0.034548 -0.001539 -181289.000000 0 0 1
-6.409485 -23.700048 -9.262727 26.240654 1.306673 1.931563 0.040069 -0.009543 -757863.000000 0 0 1
-5.652785 -24.649648 -9.879827 27.150877 1.345369 1.943233 0.023981 -0.013261 -562521.000000 0 0 1
-5.794885 -24.684748 -11.279727 27.751572 1.340216 1.989366 0.020577 -0.006976 30417.500000 0 0 1
-7.122185 -25.306848 -11.767827 28.803539 1.296459 1.991667 0.023797 -0.012485 143777.000000 0 0 1
-7.202185 -25.463548 -13.128527 29.540176 1.295153 2.031334 0.037218 -0.000380 -426605.000000 0 0 1
-8.443985 -26.017148 -13.476827 30.492913 1.256967 2.028585 0.047665 -0.000036 -543247.000000 0 0 1
-8.816385 -25.935448 -15.033827 31.247273 1.243115 2.072733 0.056606 -0.000574 264048.000000 0 0 1
-7.924485 -26.656448 -15.900327 32.034108 1.281835 2.090193 0.043382 -0.001680 -82334.800000 0 0 1
-6.676385 -26.020548 -15.998927 31.266735 1.319633 2.107949 0.051629 -0.008623 -672275.000000 0 0 1
-5.661185 -26.895348 -16.745527 32.184180 1.363335 2.118002 0.034567 0.002551 -361384.000000 0 0 1
-5.720485 -26.771148 -18.138827 32.839540 1.360281 2.155974 0.058737 -0.001896 56397.700000 0 0 1
-4.524685 -27.102848 -18.827227 33.309183 1.405377 2.171504 0.047862 -0.002780 -50541.800000 0 0 1
-24.540085 14.686991 -5.757909 29.173224 -0.539308 1.769470 0.047123 -0.018724 82565.300000 0 0 1
-24.633385 13.457091 -5.074409 28.524491 -0.499994 1.749645 0.043080 -0.014344 15754.100000 0 0 1
-23.403485 12.802191 -5.193709 27.177083 -0.500553 1.763085 0.049858 -0.019161 -972393.000000 0 0 1
-23.534585 11.424491 -4.639409 26.569151 -0.451927 1.746312 0.052753 -0.023026 113678.000000 0 0 1
-24.089185 10.454791 -5.543709 26.838856 -0.409472 1.778849 0.054686 -0.016893 223665.000000 0 0 1
-25.481465 10.578391 -5.752109 28.183225 -0.393490 1.776337 0.068093 -0.017823 -505422.000000 0 0 1
-25.840065 9.808991 -7.042009 28.522187 -0.362801 1.820272 0.071439 -0.015086 -164623.000000 0 0 1
-25.557805 10.624291 -8.198509 28.866806 -0.393964 1.858772 0.086446 -0.007564 -229038.000000 0 0 1
-25.620115 9.879291 -9.421809 29.030349 -0.368037 1.901333 0.079998 -0.017271 -505186.000000 0 0 1
-26.115425 10.739991 -10.555809 30.146110 -0.390168 1.928533 0.070128 -0.021812 -281323.000000 0 0 1
-25.246765 11.763591 -10.931409 29.921178 -0.436034 1.944795 0.067981 -0.018085 10993.300000 0 0 1
-25.835825 12.497091 -11.989009 31.103110 -0.450532 1.966503 0.059057 -0.018838 -148775.000000 0 0 1
-24.903985 13.524391 -12.656009 31.036949 -0.497500 1.990809 0.049133 -0.011672 -196984.000000 0 0 1
-24.716985 14.687891 -11.841309 31.094696 -0.536176 1.961473 0.049136 -0.011909 515449.000000 0 0 1
-23.785585 15.663891 -12.331509 31.035104 -0.582359 1.979413 0.040229 -0.012020 322351.000000 0 0 1
-24.051985 16.990891 -11.679109 31.679488 -0.615024 1.948368 0.050680 -0.014711 -230117.000000 0 0 1
-23.355085 17.201691 -10.491909 30.845394 -0.634824 1.917868 0.054282 -0.007828 -168197.000000 0 0 1
-23.372985 18.602291 -10.187109 31.561350 -0.672229 1.899453 0.039774 0.001330 -56011.900000 0 0 1
-22.227185 18.888691 -9.196209 30.584320 -0.704379 1.876206 0.033939 -0.003522 -183739.000000 0 0 1
-22.237285 18.248391 -7.944309 29.843134 -0.687189 1.840247 0.044938 -0.011053 127993.000000 0 0 1
-23.230685 18.757591 -7.067009 30.683131 -0.679266 1.803205 0.034576 -0.009047 -314666.000000 0 0 1
-23.371085 17.935491 -5.767709 30.019259 -0.654558 1.764132 0.027000 -0.005771 241715.000000 0 0 1
-22.262685 17.934891 -4.861709 28.998684 -0.678148 1.739245 0.040913 -0.017775 431997.000000 0 0 1
-22.582685 17.428591 -3.585109 28.750416 -0.657288 1.695819 0.023046 -0.011253 -360364.000000 0 0 1
-21.369885 17.532291 -2.662909 27.769485 -0.687069 1.666837 0.028101 -0.019364 -346422.000000 0 0 1
-20.977685 18.840191 -2.366709 28.295183 -0.731768 1.654538 0.036069 -0.022175 437771.000000 0 0 1
-19.851085 18.836891 -1.490809 27.406505 -0.759189 1.625219 0.069802 -0.026878 364141.000000 0 0 1
-19.460985 20.172391 -0.819109 28.041509 -0.803346 1.600011 0.062997 -0.033345 -324316.000000 0 0 1
-20.436085 20.588191 0.093591 29.008894 -0.789106 1.567570 0.054142 -0.016284 -66516.400000 0 0 1
-20.162985 21.830891 0.689591 29.725566 -0.825095 1.547596 0.064535 -0.020018 -399758.000000 0 0 1
-21.177285 22.215091 1.747691 30.741537 -0.809310 1.513915 0.040505 -0.022953 -470580.000000 0 0 1
-20.876085 21.818091 3.053791 30.350711 -0.807459 1.470009 0.066750 -0.018914 446428.000000 0 0 1
-21.954485 22.008491 3.968291 31.338800 -0.786627 1.443830 0.050568 -0.011659 249320.000000 0 0 1
-21.482885 21.606991 5.408791 30.945620 -0.788278 1.395110 0.051063 -0.013693 -140900.000000 0 0 1
-20.527985 22.490691 5.937491 31.023912 -0.830991 1.378224 0.058662 -0.010706 3955.920000 0 0 1
-19.915385 22.137591 7.166691 30.627715 -0.838192 1.334613 0.054265 -0.008973 365495.000000 0 0 1
-20.842985 22.149791 8.455291 31.567946 -0.815785 1.299642 0.040325 -0.016086 -372440.000000 0 0 1
-21.765385 21.092291 8.410191 31.453903 -0.769694 1.300122 0.046829 -0.017794 203783.000000 0 0 1
-22.214985 20.527891 9.644691 31.747754 -0.745948 1.262127 0.052342 -0.017657 20104.500000 0 0 1
-22.935585 21.486591 10.617391 33.172935 -0.752791 1.245002 0.063417 -0.021914 -1132440.000000 0 0 1
-24.222785 21.868391 10.238391 34.202258 -0.734361 1.266787 0.070261 -0.025502 -111262.000000 0 0 1
-24.897685 22.489291 11.294991 35.401126 -0.734618 1.246062 0.065709 -0.025985 147392.000000 0 0 1
-25.972585 23.538791 10.867091 36.698004 -0.736281 1.270166 0.052102 -0.027726 89024.900000 0 0 1
-26.546325 24.098191 12.038091 37.819913 -0.737096 1.246860 0.043451 -0.023008 -15917.900000 0 0 1
-26.774905 25.471391 11.957791 38.841679 -0.760454 1.257854 0.042198 -0.019328 -10045.400000 0 0 1
-27.447495 25.910491 13.246891 40.002483 -0.756601 1.233272 0.047942 -0.018856 -307506.000000 0 0 1
-26.488695 25.931991 14.258291 39.716721 -0.774779 1.203600 0.036527 -0.019793 -126367.000000 0 0 1
-26.944855 26.440091 15.493091 40.806120 -0.775943 1.181351 0.032936 -0.018226 801489.000000 0 0 1
-25.803425 26.577791 16.608391 40.595989 -0.800180 1.149313 0.028897 -0.023342 1009730.000000 0 0 1
-25.181025 25.347591 16.974991 39.556727 -0.788695 1.127267 0.039987 -0.024098 -398331.000000 0 0 1
-24.143085 25.543491 17.854991 39.422825 -0.813575 1.100770 0.031833 -0.019726 -859635.000000 0 0 1
-23.860685 24.288891 18.754891 38.871949 -0.794291 1.067314 0.037946 -0.017761 -523255.000000 0 0 1
-22.716685 24.210691 19.553591 38.529836 -0.817224 1.038524 0.038678 -0.023963 10973.500000 0 0 1
-22.344585 22.861691 19.795691 37.600622 -0.796836 1.016350 0.046172 -0.028208 18705.300000 0 0 1
-20.942985 22.673591 20.440191 37.020288 -0.825055 0.985874 0.038544 -0.023310 480099.000000 0 0 1
-19.887585 23.012491 19.483391 36.120538 -0.858111 1.001073 0.042180 -0.028769 905369.000000 0 0 1
-18.563685 22.800291 19.918391 35.513461 -0.887465 0.975362 0.043507 -0.031024 118591.000000 0 0 1
-18.076685 21.323791 20.034391 34.392549 -0.867625 0.948969 0.040506 -0.019979 -846316.000000 0 0 1
-18.731585 20.576091 21.029691 34.878298 -0.832289 0.923609 0.044112 -0.016471 526312.000000 0 0 1
-17.987485 20.641391 22.259391 35.285933 -0.853993 0.888175 0.044847 -0.014434 525952.000000 0 0 1
-19.019085 20.291591 23.371591 36.327751 -0.817757 0.871926 0.031139 -0.015133 -472604.000000 0 0 1
-20.079285 21.174391 23.345991 37.370681 -0.811938 0.896031 0.041658 -0.014697 -624148.000000 0 0 1
-20.649285 21.262291 24.642791 38.545364 -0.800023 0.877184 0.022007 -0.009176 -360526.000000 0 0 1
-21.825885 22.223591 24.680291 39.741339 -0.794427 0.900749 0.025696 -0.005846 -258897.000000 0 0 1
-21.356385 23.588491 24.666091 40.260751 -0.835021 0.911376 0.044257 -0.018044 501025.000000 0 0 1
-22.415685 24.426991 25.076991 41.569175 -0.828309 0.923215 0.030143 -0.018105 -87497.800000 0 0 1
-23.278485 25.006091 23.953291 41.724724 -0.821163 0.959317 0.024602 -0.020089 -42592.400000 0 0 1
-24.305385 24.097291 23.562391 41.552586 -0.781099 0.967876 0.013741 -0.018479 -88344.500000 0 0 1
-24.871385 24.521991 22.365491 41.474438 -0.778325 1.001239 0.014346 -0.025403 398.778000 0 0 1
-25.980625 23.498991 21.968991 41.350115 -0.735285 1.010671 0.019607 -0.016748 -558688.000000 0 0 1
-27.096195 23.545691 22.786391 42.518501 -0.715403 1.005203 0.005880 -0.016081 -910337.000000 0 0 1
-28.000055 22.581891 22.293791 42.319711 -0.678688 1.015971 0.017684 -0.011844 -390140.000000 0 0 1
-29.410915 22.759691 22.873791 43.660231 -0.658592 1.019368 0.023441 -0.004031 -356307.000000 0 0 1
-30.089845 23.791491 22.161091 44.300652 -0.669033 1.046917 0.017216 -0.008846 766723.000000 0 0 1
-31.520285 23.841691 22.194591 45.327193 -0.647579 1.059105 0.019933 -0.012006 746196.000000 0 0 1
-32.227105 23.053991 21.102691 44.893166 -0.620961 1.081432 0.036052 -0.019861 -1211990.000000 0 0 1
-32.093905 21.657291 21.371491 44.224400 -0.593619 1.066432 0.026811 -0.017033 734132.000000 0 0 1
-32.782375 20.834391 20.370691 43.860244 -0.566140 1.087788 0.032124 -0.013104 625669.000000 0 0 1
-34.324882 20.986191 20.266891 45.048469 -0.548759 1.104153 0.036662 -0.010212 -403257.000000 0 0 1
-34.840398 19.967891 19.472091 44.628828 -0.520424 1.119301 0.039310 -0.012825 -244786.000000 0 0 1
35.126376 20.256191 19.237691 44.880556 0.523085 1.127807 0.057381 -0.020865 141682.000000 0 0 1
34.557546 19.308091 18.148191 43.547482 0.509516 1.140935 0.065568 -0.011127 -202557.000000 0 0 1
34.514706 17.960091 18.558191 43.107265 0.479803 1.125736 0.069650 -0.022292 -69022.200000 0 0 1
33.796866 17.223991 17.635691 41.831945 0.471324 1.135605 0.073481 -0.027931 -262569.000000 0 0 1
34.108926 15.731891 17.719491 41.531814 0.432149 1.130012 0.065317 -0.034547 -120282.000000 0 0 1
33.346786 14.927191 16.842191 40.230443 0.420885 1.138846 0.059856 -0.032004 13526.700000 0 0 1
33.787126 13.600291 16.749591 40.088485 0.382684 1.139757 0.052626 -0.032659 88.432500 0 0 1
32.986136 12.815291 15.676291 38.704818 0.370558 1.153794 0.059035 -0.038157 138548.000000 0 0 1
33.289436 13.066991 14.313591 38.520276 0.374047 1.190080 0.063033 -0.039129 -220053.000000 0 0 1
32.389746 12.386891 13.522791 37.220916 0.365271 1.198976 0.069594 -0.034210 -573791.000000 0 0 1
32.593946 12.758891 12.020291 37.008675 0.373114 1.240000 0.078960 -0.030554 -454100.000000 0 0 1
33.784016 12.342991 11.424591 37.738978 0.350284 1.263244 0.071585 -0.026451 -141206.000000 0 0 1
33.741556 12.596991 10.005791 37.380378 0.357312 1.299817 0.066728 -0.022178 -451388.000000 0 0 1
35.091986 12.297691 9.343891 38.340436 0.337068 1.324608 0.061387 -0.017558 -449524.000000 0 0 1
35.382196 10.909091 9.288391 38.173057 0.299074 1.325006 0.052376 -0.012596 -61790.500000 0 0 1
-34.738653 10.559591 8.664291 37.327589 -0.295097 1.336545 0.047985 -0.017814 9792.780000 0 0 1
-34.712048 10.658591 7.180191 37.014686 -0.297919 1.375576 0.020682 -0.013742 -155449.000000 0 0 1
-34.351225 11.975791 6.790691 37.007293 -0.335452 1.386255 0.055786 -0.016667 -127126.000000 0 0 1
-33.808225 11.924691 5.536291 36.274576 -0.339092 1.417576 0.070443 -0.027777 -519657.000000 0 0 1
-34.571539 12.874591 4.602591 37.177012 -0.356493 1.446676 0.086535 -0.027980 -745038.000000 0 0 1
35.515255 12.264591 4.333891 37.822429 0.332511 1.455959 0.084939 -0.027039 -20949.700000 0 0 1
34.448186 13.179491 4.110591 37.111635 0.365407 1.459806 0.052749 -0.025163 375732.000000 0 0 1
33.860576 13.743791 5.419891 36.943276 0.385577 1.423556 0.066070 -0.013306 -1075510.000000 0 0 1
33.043946 14.940591 5.292091 36.648736 0.424635 1.425889 0.059188 -0.006399 583068.000000 0 0 1
32.454396 15.397291 6.511491 36.507039 0.442982 1.391474 0.056148 -0.003239 311849.000000 0 0 1
31.312976 14.546391 7.135691 35.256461 0.434886 1.366995 0.062064 -0.013359 -438864.000000 0 0 1
31.726066 13.310091 7.647291 35.244615 0.397230 1.352079 0.075668 -0.008888 685761.000000 0 0 1
30.599546 12.453191 7.993291 33.989806 0.386503 1.333406 0.083744 -0.006247 714367.000000 0 0 1
30.284986 11.374591 6.934591 33.085499 0.359284 1.359634 0.089893 -0.014294 -135402.000000 0 0 1
29.980686 11.922391 5.659691 32.756939 0.378495 1.397147 0.077726 -0.017998 251946.000000 0 0 1
30.131936 10.906491 4.667291 32.383155 0.347288 1.426166 0.087633 -0.024745 -176657.000000 0 0 1
29.341676 11.261291 3.403791 31.612283 0.366462 1.462914 0.062504 -0.035753 606476.000000 0 0 1
27.947866 10.922291 3.489191 30.208511 0.372558 1.455034 0.057516 -0.029001 770392.000000 0 0 1
27.303146 11.539991 2.403691 29.739047 0.399888 1.489882 0.070289 -0.031769 -298831.000000 0 0 1
25.930856 10.949991 2.055791 28.223003 0.399562 1.497891 0.103215 -0.016198 -140159.000000 0 0 1
26.042156 9.643491 1.518491 27.811807 0.354646 1.516170 0.052123 -0.018887 -675290.000000 0 0 1
24.819256 9.013391 1.450991 26.445077 0.348351 1.515901 0.046870 -0.021609 -1365560.000000 0 0 1
24.945456 7.531091 1.166391 26.083588 0.293201 1.526064 0.056842 -0.016135 257130.000000 0 0 1
25.530256 6.692691 2.201991 26.484616 0.256378 1.487558 0.066303 -0.011060 1421300.000000 0 0 1
26.940326 6.885791 2.417991 27.911323 0.250237 1.484056 0.092751 -0.024263 342937.000000 0 0 1
27.416756 6.354791 3.789291 28.397546 0.227763 1.436960 0.105804 -0.025478 61783.900000 0 0 1
28.753756 6.634491 4.174891 29.803099 0.226766 1.430252 0.106288 -0.017231 497614.000000 0 0 1
29.126436 5.856391 5.289691 30.176604 0.198422 1.394595 0.098811 -0.019319 589982.000000 0 0 1
30.652446 5.988691 5.620091 31.733615 0.192944 1.392755 0.104959 -0.023030 349687.000000 0 0 1
31.013946 7.193791 6.234491 32.442015 0.227923 1.377420 0.100350 -0.032549 508368.000000 0 0 1
32.395886 7.127491 6.623391 33.825492 0.216562 1.373712 0.063102 -0.022728 796956.000000 0 0 1
32.689296 8.295591 7.563991 34.563288 0.248525 1.350166 0.073418 -0.032656 -291423.000000 0 0 1
31.942786 8.239591 8.727991 34.123456 0.252445 1.312145 0.062810 -0.028249 -144325.000000 0 0 1
32.334626 9.217091 9.610391 34.969164 0.277688 1.292389 0.066913 -0.019088 -353705.000000 0 0 1
31.735276 8.951491 11.000691 34.760209 0.274925 1.248787 0.047679 -0.018192 -241001.000000 0 0 1
30.406446 9.443291 11.086791 33.714161 0.301124 1.235714 0.052264 -0.016125 41661.300000 0 0 1
29.941706 9.126591 12.356991 33.652573 0.295866 1.194807 0.047520 -0.021663 -1061580.000000 0 0 1
28.564226 9.705591 12.617691 32.700453 0.327542 1.174660 0.043046 -0.027355 -1049650.000000 0 0 1
28.394496 11.161991 12.690591 33.043737 0.374547 1.176613 0.043557 -0.031207 110794.000000 0 0 1
28.593106 11.860991 11.481491 33.016261 0.393217 1.215623 0.052148 -0.028661 -458523.000000 0 0 1
27.387296 11.875991 10.512191 31.648212 0.409159 1.232206 0.042939 -0.026947 -181679.000000 0 0 1
27.445186 12.911791 9.574991 31.806179 0.439735 1.265011 0.035508 -0.015738 -178153.000000 0 0 1
26.400806 12.835291 8.653691 30.604471 0.452523 1.284127 0.022235 -0.013991 -308207.000000 0 0 1
26.463956 13.987991 7.646991 30.894681 0.486240 1.320679 0.021079 -0.013164 59659.600000 0 0 1
26.009756 15.223791 8.153391 31.220971 0.529549 1.306582 0.015455 -0.005688 300637.000000 0 0 1
26.149656 16.271891 7.230191 31.636286 0.556627 1.340217 0.011655 0.000259 -876758.000000 0 0 1
25.821656 17.646991 7.754491 32.222761 0.599510 1.327758 0.017854 -0.005229 151923.000000 0 0 1
24.492256 18.132191 7.780491 31.451280 0.637279 1.320819 0.017918 -0.010706 112161.000000 0 0 1
23.613756 17.436491 8.651691 30.602164 0.636038 1.284173 0.020425 -0.014948 396344.000000 0 0 1
22.256056 18.262591 8.762691 30.093837 0.687157 1.275337 0.023255 -0.012171 600822.000000 0 0 1
21.549456 18.258391 7.520591 29.228534 0.702912 1.310566 0.030974 -0.017140 -296930.000000 0 0 1
20.510556 19.183291 7.707191 29.121853 0.751973 1.302952 0.063610 -0.023209 -508725.000000 0 0 1
19.857656 19.485991 6.345891 28.535954 0.775952 1.346539 0.059760 -0.019296 -153547.000000 0 0 1
20.510656 20.360691 5.468791 29.413473 0.781729 1.383780 0.043551 -0.014911 333408.000000 0 0 1
19.526956 20.755391 4.517591 28.853022 0.815884 1.413577 0.044134 -0.017506 232532.000000 0 0 1
18.222615 17.386291 33.173995 41.651659 0.761916 0.649374 0.014672 0.006729 -249257.000000 0 0 1
17.376615 18.062891 32.295343 40.880361 0.804760 0.659993 0.012335 0.006842 110223.000000 0 0 1
16.800415 17.152191 31.362383 39.497476 0.795759 0.653378 0.012476 0.003580 -174258.000000 0 0 1
16.275615 17.869091 30.068433 38.578630 0.832033 0.677078 0.004720 0.007771 -119355.000000 0 0 1
17.186615 18.244791 29.039343 38.360599 0.815255 0.712072 -0.000902 0.015346 127881.000000 0 0 1
16.506515 18.839791 27.938173 37.522583 0.851314 0.730907 0.013881 0.000643 -258410.000000 0 0 1
17.543115 19.133591 26.851183 37.347572 0.828736 0.768500 0.013128 0.008594 -143960.000000 0 0 1
18.175715 20.382591 27.188463 38.535946 0.842571 0.787618 0.012991 0.005878 -212568.000000 0 0 1
19.149215 20.687691 26.249383 38.518866 0.823998 0.821029 0.006431 0.017802 -463640.000000 0 0 1
19.835815 22.041491 26.505093 39.771935 0.838019 0.841390 0.009609 0.013417 -82900.800000 0 0 1
19.015015 23.086991 26.063093 39.671964 0.881815 0.854010 -0.007552 0.010245 437193.000000 0 0 1
19.586915 24.289391 26.571543 40.983760 0.892166 0.865390 0.006728 0.010328 161187.000000 0 0 1
18.771515 25.584391 26.298303 41.213245 0.937803 0.878764 0.016691 0.015082 53596.300000 0 0 1
18.953815 26.132191 25.012293 40.838135 0.943288 0.911610 0.017320 0.016975 -353046.000000 0 0 1
17.946615 26.991191 24.669713 40.733280 0.984013 0.920226 0.028370 0.005990 -864302.000000 0 0 1
18.244115 27.569491 23.304873 40.448011 0.986205 0.956763 0.019380 -0.000713 -70104.000000 0 0 1
19.404915 28.363291 23.264873 41.500377 0.970783 0.975693 0.023477 -0.001775 -64337.500000 0 0 1
19.466815 29.140591 22.100873 41.431624 0.981850 1.008146 0.017203 -0.006746 87229.600000 0 0 1
20.640015 30.172691 22.063873 42.699133 0.970847 1.027771 0.026771 -0.006515 778619.000000 0 0 1
21.832815 29.615091 21.497473 42.612988 0.935525 1.042015 0.028464 -0.005290 -207756.000000 0 0 1
22.846015 30.516891 21.250173 43.643909 0.928169 1.062260 0.033547 -0.013638 -543547.000000 0 0 1
23.101215 30.818091 19.775373 43.295337 0.927552 1.096452 0.020944 -0.012012 -633653.000000 0 0 1
22.218515 31.654491 19.111773 43.138487 0.958792 1.111817 0.010861 -0.006041 -376205.000000 0 0 1
22.588615 31.737891 17.776073 42.819715 0.952245 1.142702 0.016317 0.002907 64503.500000 0 0 1
21.902915 32.817391 16.860873 42.906967 0.982274 1.166944 0.018497 -0.001034 -307455.000000 0 0 1
22.534515 34.070291 17.038273 44.259369 0.986440 1.175627 0.028265 -0.005858 276531.000000 0 0 1
22.681915 -33.972648 15.863073 43.820625 -0.982112 1.200384 0.029887 -0.008408 135978.000000 0 0 1
23.758015 34.382291 14.829273 44.345152 0.966139 1.229822 0.019164 -0.007295 -472863.000000 0 0 1
23.440015 33.265491 13.978773 43.028284 0.956967 1.239918 0.022437 -0.000620 520555.000000 0 0 1
22.392915 33.414691 12.983973 42.267810 0.980385 1.258564 0.014608 -0.004055 514142.000000 0 0 1
22.067215 32.118391 12.214873 40.838170 0.968809 1.267042 0.021078 -0.007902 -387557.000000 0 0 1
23.083515 31.710991 11.346773 40.831175 0.941568 1.289194 0.023132 -0.028951 -469282.000000 0 0 1
22.693915 30.591291 10.586273 39.533656 0.932537 1.299709 0.024673 -0.029697 -490442.000000 0 0 1
23.845015 29.778591 9.898973 39.412420 0.895602 1.316914 0.018079 -0.026372 850263.000000 0 0 1
24.830315 29.048291 10.654273 39.671920 0.863525 1.298899 0.007866 -0.015573 357234.000000 0 0 1
25.609315 29.936591 11.399073 41.011892 0.863146 1.289142 0.009007 -0.018804 -436270.000000 0 0 1
27.066715 29.438091 11.744573 41.679050 0.827341 1.285141 0.014156 -0.009118 845602.000000 0 0 1
27.098515 28.417691 12.709973 41.272728 0.809156 1.257758 0.015265 0.000385 -207029.000000 0 0 1
28.298015 28.372091 13.460073 42.272056 0.786705 1.246739 0.018912 0.010423 25229.500000 0 0 1
28.417315 27.084191 14.287773 41.776041 0.761383 1.221743 0.007001 0.000023 -14615.800000 0 0 1
29.216515 27.226191 15.451373 42.820732 0.750150 1.201629 0.004216 -0.010157 -132770.000000 0 0 1
29.605715 25.959991 15.893173 42.461893 0.719881 1.187163 0.019188 -0.014875 315021.000000 0 0 1
30.898815 25.967691 16.771273 43.707360 0.698900 1.176978 0.031025 -0.013220 1345520.000000 0 0 1
32.134315 26.090091 16.020573 44.384296 0.681960 1.201508 0.043779 -0.011373 1250450.000000 0 0 1
33.240815 26.442891 16.860973 45.699788 0.671988 1.192916 0.036814 -0.015200 1235090.000000 0 0 1
34.616415 26.730591 16.185773 46.634750 0.657555 1.216346 0.037468 -0.015757 595897.000000 0 0 1
34.585415 27.973191 15.448173 47.088176 0.680093 1.236538 0.036103 -0.004948 -436210.000000 0 0 1
-35.466327 28.543391 15.338873 48.040259 -0.677662 1.245814 0.043143 -0.008923 94448.600000 0 0 1
-35.404327 29.794191 14.421873 48.468036 -0.699563 1.268666 0.029432 0.000297 186497.000000 0 0 1
35.200515 30.874391 14.997573 49.165348 0.720018 1.260812 0.030118 0.000629 54921.900000 0 0 1
35.124715 31.996391 14.110073 49.564188 0.738825 1.282121 0.017759 0.010756 501312.000000 0 0 1
34.259115 33.211191 14.675773 49.920421 0.769868 1.272405 0.008599 0.013681 -473471.000000 0 0 1
34.242415 34.229791 13.707773 50.320220 0.785214 1.294899 -0.012913 0.007806 645689.000000 0 0 1
33.095815 -33.763848 13.763673 49.241944 -0.795389 1.287511 -0.014093 0.015066 1006050.000000 0 0 1
31.693415 -34.331948 13.392173 48.605612 -0.825339 1.291658 -0.001955 0.010556 68602.800000 0 0 1
31.247415 33.512291 14.297873 47.998997 0.820357 1.268327 -0.001793 0.007506 -136988.000000 0 0 1
30.213915 32.750891 13.698073 46.616935 0.825668 1.272551 0.000025 0.008461 4732.290000 0 0 1
29.617815 31.509991 14.490373 45.607733 0.816343 1.247475 0.007891 -0.002484 162747.000000 0 0 1
28.826315 31.910091 15.603773 45.745907 0.836128 1.222713 0.005328 -0.004054 191389.000000 0 0 1
28.618415 30.824391 16.486273 45.176918 0.822492 1.197242 0.007490 -0.004701 -75613.600000 0 0 1
27.599215 31.192991 17.593373 45.213340 0.846449 1.171121 0.007575 -0.002921 66388.300000 0 0 1
27.338615 30.106291 18.520573 44.685570 0.833541 1.143442 0.003548 -0.001027 334753.000000 0 0 1
28.270315 30.070591 19.606673 45.693246 0.816246 1.127307 0.011952 -0.012572 257042.000000 0 0 1
27.888915 28.989791 20.634173 45.210271 0.804751 1.096846 0.023961 -0.026509 -95900.400000 0 0 1
26.695415 29.110391 21.363973 44.905226 0.828646 1.074972 0.020711 -0.024085 -215968.000000 0 0 1
26.711615 28.199791 22.446473 44.861818 0.812493 1.046797 0.010898 -0.021909 -366840.000000 0 0 1
25.393815 28.094891 23.221573 44.423081 0.835853 1.020738 0.013840 -0.016261 -431892.000000 0 0 1
24.519615 27.150391 22.607773 43.005425 0.836269 1.017263 0.009579 -0.012560 481863.000000 0 0 1
23.206115 27.196191 23.170873 42.603355 0.864398 0.995749 0.005003 -0.012604 380636.000000 0 0 1
23.003415 26.181591 24.361243 42.521793 0.849925 0.960742 0.019570 -0.010351 -611319.000000 0 0 1
23.660515 26.652791 25.478613 43.810397 0.844801 0.950145 0.019333 -0.014404 -15616.200000 0 0 1
23.491315 25.701991 26.516083 43.766846 0.830306 0.919964 0.024355 -0.014548 -91843.800000 0 0 1
24.797115 25.426791 27.299063 44.795730 0.797935 0.915477 0.036790 -0.017984 99113.200000 0 0 1
25.204615 26.407391 28.229733 46.146947 0.808698 0.912544 0.044342 -0.014821 1010570.000000 0 0 1
26.312315 27.177591 27.689343 46.879196 0.801573 0.938928 0.025353 -0.005617 364025.000000 0 0 1
26.589515 28.528491 28.421753 48.256327 0.820562 0.941007 0.005926 0.001061 -536530.000000 0 0 1
27.284515 28.363491 29.609713 49.251065 0.804785 0.925795 0.030959 0.008165 -171212.000000 0 0 1
27.660215 29.615791 30.088563 50.472806 0.819528 0.932119 0.029656 0.002419 -127677.000000 0 0 1
29.168715 29.847091 30.253743 51.545627 0.796892 0.943533 0.012785 0.009833 -213916.000000 0 0 1
29.909115 29.628591 29.085253 51.169917 0.780686 0.966230 -0.003879 0.008438 -354461.000000 0 0 1
31.274515 29.916791 29.280463 52.253757 0.763214 0.975986 0.011272 -0.001376 -39888.600000 0 0 1
31.979615 30.371691 28.001363 52.241857 0.759616 1.005111 0.007933 -0.003535 -206498.000000 0 0 1
31.672915 31.707891 27.618553 52.643597 0.785950 1.018513 -0.002838 -0.003824 474584.000000 0 0 1
32.350315 31.927091 26.387293 52.556362 0.778814 1.044799 0.005606 -0.008528 20964.400000 0 0 1
32.125615 33.408091 26.015953 53.150592 0.804965 1.059307 -0.004650 -0.004846 -291437.000000 0 0 1
32.790815 34.355391 26.813213 54.538782 0.808695 1.056829 0.001422 -0.007147 -12910.300000 0 0 1
32.541415 -33.180748 26.309233 53.404882 -0.795126 1.055679 -0.000827 -0.004244 -333366.000000 0 0 1
33.347215 -32.055548 27.025393 53.572071 -0.765651 1.042031 0.002693 -0.005891 -117116.000000 0 0 1
33.122115 -31.921048 28.427223 54.075270 -0.766935 1.017262 0.004218 -0.008992 176140.000000 0 0 1
34.028615 -31.047948 29.021233 54.444041 -0.739628 1.008599 0.008973 -0.012429 -376082.000000 0 0 1
33.532515 -30.620448 30.428273 54.661880 -0.740037 0.980432 0.021864 -0.012894 -349131.000000 0 0 1
33.660615 -31.455848 31.574393 55.852033 -0.751552 0.969973 0.022992 -0.010577 58736.200000 0 0 1
32.808015 -32.563248 31.670233 56.033335 -0.781654 0.970117 0.018045 -0.009939 -478455.000000 0 0 1
32.915815 -33.452148 32.935152 57.334294 -0.793479 0.958876 0.028640 -0.008566 -713317.000000 0 0 1
32.633615 -32.766548 34.130255 57.475854 -0.787431 0.934999 0.022145 -0.014255 239454.000000 0 0 1
32.906315 -33.430448 -33.481559 57.631894 -0.793299 2.190698 0.019456 -0.016563 -125490.000000 0 0 1
32.088615 34.142891 -33.143799 57.392749 0.816405 2.186448 0.020509 -0.016189 -75258.100000 0 0 1
32.543215 33.138091 -33.985039 57.551514 0.794455 2.202493 0.019947 -0.013176 469275.000000 0 0 1
31.601515 32.061891 -34.059179 56.450405 0.792629 2.218488 0.032214 -0.008424 200905.000000 0 0 1
31.811715 31.130591 33.585402 55.759107 0.774577 0.924379 0.007950 0.002145 1400700.000000 0 0 1
33.149715 30.540291 33.579614 56.206791 0.744450 0.930504 0.008913 -0.003175 1440670.000000 0 0 1
33.375815 29.798291 32.352593 55.213888 0.728829 0.944744 0.004071 -0.002707 256129.000000 0 0 1
34.691215 28.975691 32.502323 55.672902 0.695866 0.947384 0.011108 -0.002096 292223.000000 0 0 1
34.597815 27.798891 33.278367 55.472847 0.676863 0.927416 0.013118 0.004099 -617865.000000 0 0 1
-35.492027 27.281491 33.592460 55.968000 -0.655340 0.927035 -0.002431 0.002373 -638724.000000 0 0 1
-35.598027 25.898891 34.306667 55.811463 -0.628969 0.908805 -0.006010 0.007418 47208.300000 0 0 1
35.389515 24.811691 33.518688 54.694974 0.611466 0.911160 -0.003571 0.010142 2167.600000 0 0 1
35.112215 23.645091 34.308022 54.488515 0.592660 0.889710 -0.000013 -0.002554 -278278.000000 0 0 1
34.766515 22.460791 33.428664 53.204071 0.573591 0.891417 -0.004808 -0.003783 103959.000000 0 0 1
-35.483227 21.997991 32.626593 52.985522 -0.554963 0.907441 0.007969 -0.001846 664031.000000 0 0 1
35.501315 20.741791 32.149343 52.193347 0.528761 0.907184 0.009934 -0.000565 -416329.000000 0 0 1
-34.590427 20.238691 31.462243 50.950711 -0.529388 0.905231 0.013469 -0.009382 -486323.000000 0 0 1
-34.231727 20.917191 30.267303 50.253851 -0.548503 0.924432 0.007007 -0.008819 -108219.000000 0 0 1
-33.116827 20.370291 29.614343 48.874147 -0.551451 0.919861 0.016321 -0.007774 -70056.000000 0 0 1
-33.572227 19.391891 28.510563 48.124755 -0.523799 0.936724 0.023686 -0.003940 5552.700000 0 0 1
-34.260327 18.258891 28.981493 48.446713 -0.489655 0.929526 0.027122 -0.002369 487139.000000 0 0 1
-34.851927 17.432691 27.938913 47.949331 -0.463802 0.948779 0.040548 -0.011483 292209.000000 0 0 1
-35.434227 16.114391 28.484813 48.235283 -0.426813 0.939070 0.047051 -0.002852 68537.800000 0 0 1
-34.431927 15.210591 28.904003 47.459046 -0.415979 0.915959 0.030260 -0.002514 458555.000000 0 0 1
-35.091527 14.084691 29.466793 47.938352 -0.381687 0.908815 0.034383 -0.005296 -256938.000000 0 0 1
-34.176727 12.914091 29.756343 47.119659 -0.361278 0.887302 0.029947 -0.002050 -41355.500000 0 0 1
-33.095227 13.280391 30.626463 47.006840 -0.381608 0.861194 0.024696 -0.000371 400350.000000 0 0 1
-32.407927 12.130091 30.982903 46.447315 -0.358152 0.840548 0.027514 -0.001582 -1002810.000000 0 0 1
-30.896327 12.223991 31.091933 45.505134 -0.376747 0.818575 0.027667 0.001018 -2335480.000000 0 0 1
-30.302127 12.533591 29.836683 44.334382 -0.392193 0.832550 0.015152 0.004504 181053.000000 0 0 1
-28.917327 12.797191 29.849923 43.485604 -0.416636 0.814225 0.008122 0.002330 -3005.660000 0 0 1
-28.014627 11.724291 30.448053 43.004211 -0.396357 0.784099 0.015403 -0.000186 -1759700.000000 0 0 1
-27.935927 10.570991 29.588963 42.043651 -0.361749 0.790109 0.013143 0.000406 1235800.000000 0 0 1
-26.806927 9.756391 30.063453 41.444055 -0.349048 0.759183 0.012818 -0.001027 848514.000000 0 0 1
-26.226627 8.752391 29.043773 40.099639 -0.322100 0.760792 0.018126 -0.006626 38675.800000 0 0 1
-27.029427 7.633291 28.741763 40.186390 -0.275239 0.773870 0.021901 -0.007087 -884134.000000 0 0 1
-28.251927 7.774391 28.147093 40.630916 -0.268534 0.805500 0.025867 -0.003912 -1321800.000000 0 0 1
-29.057627 6.503391 27.990933 40.867249 -0.220182 0.816298 0.029729 -0.004163 -338691.000000 0 0 1
-29.336527 5.891791 29.289363 41.871372 -0.198198 0.796087 0.028329 -0.000836 245955.000000 0 0 1
-30.066427 4.676691 29.295303 42.238326 -0.154309 0.804361 0.032264 -0.011930 249722.000000 0 0 1
-30.838227 4.487591 30.659323 43.716459 -0.144506 0.793546 0.030528 -0.005030 402189.000000 0 0 1
-32.016027 5.235491 30.925483 44.819882 -0.162092 0.809315 0.022635 -0.007294 258097.000000 0 0 1
-32.588627 4.754091 32.149353 46.023916 -0.144860 0.797447 0.030676 -0.011618 -6487.530000 0 0 1
-34.093627 4.986291 32.348363 47.261560 -0.145223 0.816942 0.021230 -0.008216 -102928.000000 0 0 1
-34.412627 6.371891 32.502693 47.762484 -0.183088 0.822342 0.024822 -0.001862 -1177240.000000 0 0 1
35.553415 6.463091 32.639523 48.694510 0.179822 0.836195 0.029558 0.008142 -892855.000000 0 0 1
35.070115 7.952191 32.711373 48.612593 0.222981 0.832675 0.035009 -0.003632 -76031.400000 0 0 1
35.343615 8.523091 33.998579 49.776677 0.236631 0.818904 0.028901 -0.003883 250648.000000 0 0 1
34.967315 9.904691 34.160352 49.877306 0.276025 0.816347 0.034542 -0.009385 -207046.000000 0 0 1
34.855015 10.322091 -33.231569 49.251952 0.287915 2.311390 0.023255 -0.005093 -843984.000000 0 0 1
33.874015 9.613191 -32.563789 47.961054 0.276522 2.317146 0.038233 0.004771 -377492.000000 0 0 1
33.995815 9.859791 -31.208389 47.189983 0.282285 2.293394 0.027424 0.013999 -321008.000000 0 0 1
32.813315 9.454791 -30.323429 45.668557 0.280540 2.296938 0.028086 0.018473 -247598.000000 0 0 1
32.605515 8.052691 -30.143459 45.128633 0.242128 2.302241 0.032480 0.012774 -1093750.000000 0 0 1
31.565715 7.808291 -29.335509 43.794245 0.242498 2.304801 0.031098 0.004238 -1306280.000000 0 0 1
34.250726 6.136291 -20.372609 40.321328 0.177277 2.100475 0.015742 -0.009313 -667661.000000 0 0 1
33.665966 6.918391 -19.333709 39.434170 0.202679 2.083205 0.012073 -0.014040 728197.000000 0 0 1
34.346256 8.223191 -19.133709 40.166964 0.234997 2.067300 0.002307 -0.006241 1351700.000000 0 0 1
-35.494870 8.202691 -18.546109 40.879434 -0.227108 2.041685 0.005137 -0.016827 1421870.000000 0 0 1
-34.498180 7.696891 -19.402109 40.321315 -0.219515 2.072805 0.001318 -0.021460 -149536.000000 0 0 1
-34.068995 8.528291 -20.402809 40.616534 -0.245284 2.097085 0.002509 -0.010473 -233865.000000 0 0 1
-32.942385 7.838091 -21.265909 39.985939 -0.233590 2.131562 -0.001132 0.000074 141379.000000 0 0 1
-33.373565 6.742691 -22.028409 40.552553 -0.199353 2.145048 0.001861 0.003219 412039.000000 0 0 1
-34.191283 7.047291 -23.161609 41.894729 -0.203267 2.156580 0.002751 0.005963 164284.000000 0 0 1
-34.310471 5.921991 -24.215409 42.410664 -0.170916 2.178489 0.007385 0.004087 -900671.000000 0 0 1
-33.130265 5.698191 -24.890209 41.828296 -0.170327 2.208133 -0.000514 0.004835 -647689.000000 0 0 1
-32.992295 4.412191 -25.466209 41.910461 -0.132945 2.223874 -0.005090 0.006246 22937.900000 0 0 1
-31.754705 4.260891 -26.393459 41.510615 -0.133385 2.259872 0.002116 0.003834 1148260.000000 0 0 1
-30.526325 4.152091 -25.637879 40.079886 -0.135187 2.264865 0.009289 -0.001519 1480820.000000 0 0 1
-29.352685 4.033291 -26.468769 39.729628 -0.136553 2.299928 0.011186 -0.004114 1554820.000000 0 0 1
-27.997055 4.452791 -25.782159 38.319475 -0.157724 2.308812 0.006327 -0.006786 572434.000000 0 0 1
-27.751195 5.829991 -25.833389 38.359896 -0.207069 2.309659 0.008675 -0.002747 -300898.000000 0 0 1
-26.545235 6.089891 -25.185859 37.095334 -0.225513 2.317127 0.025788 0.005083 -352946.000000 0 0 1
-26.101205 7.562591 -25.417729 37.209228 -0.282019 2.322799 0.018037 0.001751 -448957.000000 0 0 1
-26.913695 8.439791 -24.718109 37.504159 -0.303875 2.290386 0.009661 -0.001885 -213295.000000 0 0 1
-26.615735 9.836391 -24.942409 37.779303 -0.354002 2.291899 0.005051 -0.000744 -92595.700000 0 0 1
-25.366055 10.375691 -24.211409 36.568895 -0.388274 2.294383 0.030774 0.003408 -43292.300000 0 0 1
-25.482145 10.583191 -22.817609 35.804845 -0.393641 2.261756 0.019075 0.002830 408580.000000 0 0 1
-24.186485 10.726691 -22.255209 34.573723 -0.417435 2.270124 0.053109 -0.005095 101015.000000 0 0 1
-24.309985 11.180991 -20.777809 33.877829 -0.431084 2.231048 0.076945 -0.020641 -967610.000000 0 0 1
-24.733485 12.525691 -20.544709 34.506859 -0.468776 2.208535 0.049803 -0.025297 310320.000000 0 0 1
-26.089175 12.903191 -20.602009 35.659223 -0.459302 2.186762 0.051801 -0.007579 -391119.000000 0 0 1
-27.003675 12.128591 -19.621309 35.514743 -0.422143 2.156137 0.034814 -0.005569 -1077140.000000 0 0 1
-26.695015 12.296291 -18.271209 34.607220 -0.431651 2.126992 0.050751 -0.016536 366939.000000 0 0 1
-27.597265 11.563091 -17.455609 34.641195 -0.396773 2.098901 0.036076 -0.016541 -328133.000000 0 0 1
-26.981245 11.199491 -16.041609 33.327907 -0.393442 2.072964 0.053764 -0.022159 30391.800000 0 0 1
-26.095035 10.118891 -16.151209 32.314151 -0.369920 2.094185 0.072097 -0.022328 530485.000000 0 0 1
-24.736085 10.528191 -16.246209 31.411081 -0.402396 2.114387 0.069254 -0.018238 -114012.000000 0 0 1
-23.719085 9.382191 -16.110809 30.169168 -0.376668 2.134139 0.065677 -0.016747 -42087.200000 0 0 1
-22.339985 9.689691 -16.056109 29.167854 -0.409248 2.153727 0.069153 -0.011892 431556.000000 0 0 1
-21.621185 8.504791 -15.778609 28.085078 -0.374764 2.167374 0.065232 -0.013722 286177.000000 0 0 1
-20.075185 8.612491 -15.765709 26.939667 -0.405264 2.195951 0.080304 -0.016506 564161.000000 0 0 1
-19.381985 9.039991 -16.943909 27.285140 -0.436418 2.240807 0.083745 -0.022839 1471180.000000 0 0 1
-17.949485 8.854391 -16.899709 26.195122 -0.458269 2.272012 0.075050 -0.019589 781274.000000 0 0 1
-17.213885 9.410091 -18.116609 26.703542 -0.500273 2.316426 0.060811 -0.010827 -340493.000000 0 0 1
-17.058585 8.531091 -19.193409 27.058488 -0.463732 2.359344 0.081197 -0.018265 330871.000000 0 0 1
-15.955685 7.638191 -19.123009 26.050246 -0.446473 2.395110 0.063868 -0.016762 -429189.000000 0 0 1
-15.576185 7.042791 -20.495309 26.688502 -0.424641 2.446423 0.047190 -0.015864 322397.000000 0 0 1
-16.529485 6.115991 -21.050109 27.454259 -0.354384 2.444534 0.036024 -0.010004 1545040.000000 0 0 1
-17.785585 6.690091 -21.500009 28.693810 -0.359781 2.417787 0.047719 -0.007601 649160.000000 0 0 1
-18.788785 5.786291 -22.217309 29.666622 -0.298748 2.417196 0.040976 0.003748 -258731.000000 0 0 1
-19.369185 4.888891 -21.279509 29.187054 -0.247241 2.387764 0.070325 -0.002770 161807.000000 0 0 1
-19.988385 3.794391 -21.889609 29.884577 -0.187598 2.392742 0.046451 0.009048 -714171.000000 0 0 1
-20.932485 3.108791 -20.911409 29.750976 -0.147437 2.350237 0.049747 0.004132 -549822.000000 0 0 1
-21.622985 1.968491 -21.338709 30.442880 -0.090787 2.347514 0.052931 0.012791 356013.000000 0 0 1
-22.249785 1.340491 -20.232609 30.103294 -0.060175 2.307846 0.053303 0.007417 -457985.000000 0 0 1
-22.995085 0.049591 -20.568009 30.851571 -0.002157 2.300537 0.051363 0.012189 -238277.000000 0 0 1
-22.159185 -1.060709 -20.860309 30.451717 0.047831 2.325440 0.036900 0.002793 233218.000000 0 0 1
-22.907385 -2.261009 -20.996209 31.156079 0.098384 2.310277 0.044126 -0.002414 148392.000000 0 0 1
-23.639885 -2.446009 -22.411909 32.666815 0.103103 2.326878 0.044620 -0.003065 1654930.000000 0 0 1
-22.649585 -2.592209 -23.500209 32.741153 0.113953 2.371373 0.033952 -0.003616 1198030.000000 0 0 1
-21.722885 -3.666109 -23.441209 32.168531 0.167192 2.387218 0.028406 -0.012374 571391.000000 0 0 1
-20.709785 -3.584309 -24.660009 32.401521 0.171376 2.435766 0.023165 -0.007859 731243.000000 0 0 1
-21.359385 -3.839809 -25.892349 33.784334 0.177872 2.444016 0.027672 -0.011419 457519.000000 0 0 1
-20.357985 -3.776009 -26.902529 33.947782 0.183396 2.485641 0.027209 -0.017872 312919.000000 0 0 1
-20.984885 -3.853309 -28.334079 35.468767 0.181600 2.496171 0.030111 -0.025045 140628.000000 0 0 1
-21.624485 -5.115809 -28.553149 36.181103 0.232304 2.480258 0.034251 -0.018906 219355.000000 0 0 1
-22.131885 -5.317609 -29.850109 37.538332 0.235799 2.490117 0.004910 -0.014468 -341956.000000 0 0 1
-21.531785 -6.503409 -30.635499 38.005867 0.293325 2.508282 0.015896 -0.013258 -396142.000000 0 0 1
-20.312985 -6.278209 -31.280569 37.822048 0.299760 2.544628 0.024478 -0.011823 -350324.000000 0 0 1
-19.761585 -7.501109 -31.719839 38.117386 0.362780 2.553791 0.028075 -0.012937 208140.000000 0 0 1
-18.453785 -7.345409 -32.559859 38.139765 0.378819 2.593843 0.033433 -0.013494 -103731.000000 0 0 1
-18.554185 -6.800109 -33.859649 39.204274 0.351298 2.613307 0.026975 -0.018975 239579.000000 0 0 1
-19.079885 -7.646609 33.972855 39.707273 0.381168 0.544121 0.027750 -0.014823 -369431.000000 0 0 1
-19.017685 -6.948709 32.592643 38.369744 0.350311 0.555881 0.029779 -0.017026 -109971.000000 0 0 1
-17.779385 -6.747609 31.939013 37.171727 0.362726 0.537036 0.035123 -0.020932 129569.000000 0 0 1
-17.099385 -5.542509 32.309083 36.972763 0.313449 0.507707 0.032436 -0.022375 451303.000000 0 0 1
-15.712385 -5.427509 31.595823 35.702001 0.332597 0.484329 0.033374 -0.018736 307501.000000 0 0 1
-15.863685 -5.417409 30.196653 34.537554 0.329080 0.506777 0.031938 -0.024560 -175194.000000 0 0 1
-14.665485 -5.334409 29.483263 33.358584 0.348862 0.486813 0.023699 -0.013895 -303842.000000 0 0 1
-14.995185 -5.203809 27.994063 32.180782 0.334028 0.515797 0.032557 -0.011117 220223.000000 0 0 1
-15.745585 -4.050109 27.635823 32.063461 0.251764 0.531772 0.019292 -0.005998 24203.700000 0 0 1
-16.269385 -4.242109 26.324813 31.235943 0.255063 0.568382 0.024799 -0.006688 138947.000000 0 0 1
-15.374285 -3.710909 25.181123 29.735979 0.236841 0.560812 0.031173 0.001441 252115.000000 0 0 1
-15.269285 -2.346809 25.268603 29.616902 0.152501 0.548741 0.028786 0.006844 273942.000000 0 0 1
-14.253185 -1.856809 24.386903 28.307632 0.129544 0.532588 0.027903 0.008480 358473.000000 0 0 1
-14.277285 -0.318509 24.444153 28.310050 0.022305 0.528738 0.021161 0.019483 292112.000000 0 0 1
-15.407185 0.281291 23.819373 28.369402 -0.018255 0.574222 0.014478 0.014775 229887.000000 0 0 1
-15.687885 1.606991 24.158623 28.850151 -0.102079 0.578319 0.000778 0.021934 -184093.000000 0 0 1
-16.324085 2.434791 23.069673 28.365714 -0.148062 0.621005 0.011030 0.019423 -255696.000000 0 0 1
-15.349985 2.997491 22.215273 27.168462 -0.192850 0.613416 0.008114 0.026419 489141.000000 0 0 1
-15.898485 3.998991 21.344473 26.913570 -0.246421 0.654956 0.013102 0.019894 275083.000000 0 0 1
-14.776085 4.578691 20.437173 25.631526 -0.300489 0.647913 0.007721 0.015849 149446.000000 0 0 1
-14.025285 5.566091 21.096873 25.937772 -0.377798 0.620883 -0.013599 0.029009 -303408.000000 0 0 1
-12.950385 5.894891 20.275073 24.769755 -0.427162 0.611929 -0.014131 0.027074 -207052.000000 0 1 0
-11.919785 6.960491 20.767573 24.936355 -0.528530 0.586608 -0.013408 0.028715 264213.000000 0 1 0
-12.356285 8.287491 20.701973 25.493763 -0.590797 0.623156 -0.012478 0.028389 -3885.310000 0 0 1
-11.266685 9.172291 20.742273 25.324119 -0.683284 0.611005 -0.019511 0.029613 -116691.000000 0 0 1
-11.724785 10.639591 20.706273 26.065709 -0.736913 0.652798 -0.021801 0.023800 122585.000000 0 0 1
-12.309885 11.185091 19.511073 25.638281 -0.737561 0.705923 -0.020044 0.025207 482442.000000 0 0 1
-12.807185 12.483791 19.810673 26.689544 -0.772612 0.734355 -0.025840 0.021988 -267805.000000 0 0 1
-13.231485 13.353991 18.643473 26.476033 -0.790006 0.789551 -0.015861 0.021781 516302.000000 0 0 1
-12.125185 13.923091 17.909673 25.722149 -0.854311 0.800603 -0.014995 0.016380 792860.000000 0 0 1
-11.712085 15.263191 18.209773 26.490257 -0.916288 0.812874 -0.007866 0.015429 -503378.000000 0 0 1
-12.656785 16.337491 17.682973 27.199179 -0.911669 0.863042 -0.011546 0.017495 -218285.000000 0 0 1
-12.763585 16.485791 16.267673 26.444802 -0.911975 0.908213 0.001928 0.004838 -22452.300000 0 0 1
-13.426285 15.480591 15.549173 25.723347 -0.856345 0.921687 0.004052 0.008052 -538279.000000 0 0 1
-13.888785 15.939891 14.160773 25.446138 -0.854053 0.980629 0.006395 0.004474 -742511.000000 0 0 1
-14.850985 16.900391 14.248773 26.630856 -0.849854 1.006232 0.001808 0.004119 -967309.000000 0 0 1
-15.366485 17.290891 13.013873 26.541753 -0.844257 1.058343 -0.004268 0.000289 -428376.000000 0 0 1
-16.571985 18.210991 13.186373 27.931188 -0.832484 1.079123 0.017163 -0.003886 -121408.000000 0 0 1
-17.781185 17.530491 13.513373 28.391898 -0.778299 1.074742 0.027217 -0.004641 -218629.000000 0 0 1
-18.758585 18.505091 13.783473 29.737300 -0.778596 1.088846 0.040651 -0.007010 275537.000000 0 0 1
-20.223685 17.986991 13.712573 30.340796 -0.726929 1.101844 0.040734 -0.007718 453788.000000 0 0 1
-20.565585 17.458291 12.474273 29.721081 -0.703860 1.137669 0.035778 -0.016183 -228917.000000 0 0 1
-21.935285 17.115191 12.483973 30.494853 -0.662587 1.149022 0.074094 -0.024359 273528.000000 0 0 1
-22.445585 16.349991 11.217673 29.949335 -0.629551 1.186880 0.053693 -0.022372 252941.000000 0 0 1
-21.833385 15.065891 11.104373 28.757344 -0.604009 1.174353 0.043004 -0.015879 210924.000000 0 0 1
-22.343185 14.498491 9.912073 28.419594 -0.575601 1.214532 0.046652 -0.009005 64490.800000 0 0 1
-21.710485 13.120091 9.562773 27.109566 -0.543590 1.210293 0.041342 -0.007888 -411457.000000 0 0 1
-22.046785 11.974491 10.398373 27.158338 -0.497561 1.177885 0.044430 -0.012460 107697.000000 0 0 1
-23.374885 11.471891 10.388873 28.034233 -0.456243 1.191165 0.058245 -0.009112 172874.000000 0 0 1
-23.938285 10.894291 9.073973 27.822006 -0.427086 1.238575 0.045287 0.007889 -474736.000000 0 0 1
-24.264585 12.029291 8.274773 28.318647 -0.460246 1.274268 0.046387 -0.000266 -119702.000000 0 0 1
-25.285955 11.636291 7.378573 28.796287 -0.431294 1.311673 0.058202 0.000320 -394229.000000 0 0 1
-25.624855 12.873291 6.516973 29.407920 -0.465546 1.347335 0.058794 0.005026 -39565.500000 0 0 1
-24.750285 13.139191 5.360373 28.529783 -0.488038 1.381786 0.060092 0.001877 622847.000000 0 0 1
-23.570985 13.779491 5.805973 27.913707 -0.529016 1.361269 0.061734 0.001813 -601993.000000 0 0 1
-23.634385 15.252891 6.375373 28.842334 -0.573113 1.347913 0.055531 -0.004286 -1690970.000000 0 0 1
-22.377285 15.779791 6.611373 28.168332 -0.614187 1.333877 0.025599 0.002129 -484899.000000 0 0 1
-22.312585 17.178791 6.895773 28.991619 -0.656125 1.330640 0.031613 -0.008075 946217.000000 0 0 1
-20.792585 17.604891 6.801073 28.080569 -0.702570 1.326165 0.018732 -0.005534 1030350.000000 0 0 1
-20.460685 18.003291 5.472973 27.797689 -0.721597 1.372616 0.027283 -0.009510 -66691.800000 0 0 1
-19.099985 18.305091 5.343173 26.989540 -0.764150 1.371508 0.022618 -0.009794 -495939.000000 0 0 1
-18.823885 19.274991 4.116773 27.254573 -0.797238 1.419167 0.047080 -0.013162 292168.000000 0 0 1
-17.435885 19.497791 3.837373 26.436705 -0.841168 1.425129 0.039734 -0.019451 699475.000000 0 0 1
-17.167585 20.737191 3.127273 27.102341 -0.879294 1.455151 0.039960 -0.002456 -107704.000000 0 0 1
-17.376485 22.049691 3.918473 28.345820 -0.903378 1.432114 0.040657 -0.019409 46276.900000 0 0 1
-16.541985 22.290491 5.074873 28.218036 -0.932364 1.389967 0.043711 -0.020140 269440.000000 0 0 1
-16.619985 23.612791 5.545073 29.402986 -0.957488 1.381071 0.035774 -0.018422 -97255.700000 0 0 1
-15.815285 23.809591 6.856473 29.394405 -0.984476 1.335370 0.036341 -0.014200 87680.500000 0 0 1
-16.340085 23.130891 7.996373 29.427512 -0.955776 1.295605 0.034986 -0.012199 143594.000000 0 0 1
-15.539585 23.248291 9.155573 29.424246 -0.981582 1.254386 0.035200 -0.013275 257467.000000 0 0 1
-16.220085 22.453691 10.329073 29.562630 -0.945208 1.213870 0.023609 -0.010976 -158538.000000 0 0 1
-17.326585 23.093891 10.818373 30.831405 -0.927124 1.212277 0.033488 -0.009770 -612480.000000 0 0 1
-18.352685 22.274891 11.372573 31.021399 -0.881640 1.195440 0.027062 -0.012691 595714.000000 0 0 1
-19.529785 23.059191 11.999873 32.513624 -0.868081 1.192786 0.038201 -0.020170 100245.000000 0 0 1
-20.438485 23.738791 11.158773 33.253271 -0.859966 1.228587 0.047284 -0.017706 19634.700000 0 0 1
-19.952785 24.918491 10.625373 33.644366 -0.895615 1.249482 0.026708 -0.015419 -621984.000000 0 0 1
-21.038385 25.709291 9.879273 34.658063 -0.884985 1.281738 0.032859 -0.011749 -286571.000000 0 0 1
-21.908285 26.277891 10.806573 35.878719 -0.875833 1.264848 0.043129 -0.023095 -474712.000000 0 0 1
-22.821485 27.134891 10.181973 36.888955 -0.871528 1.291149 0.040400 -0.015404 -25696.100000 0 0 1
-23.891885 27.688091 11.193973 38.246014 -0.858864 1.273764 0.028782 -0.012600 62891.300000 0 0 1
-23.496985 28.792291 11.967573 39.042632 -0.886324 1.259255 0.037110 -0.013147 379111.000000 0 0 1
-24.501485 29.054191 12.930373 40.145526 -0.870203 1.242863 0.034581 -0.014045 206409.000000 0 0 1
8.470515 -32.613448 28.030093 43.830043 -1.316686 0.876925 0.023703 -0.014019 -259961.000000 0 0 1
9.858015 -32.753648 27.874203 44.124291 -1.278446 0.887026 0.029108 -0.020492 89755.600000 0 0 1
10.257315 -32.623448 26.511473 43.270776 -1.266167 0.911339 0.032867 -0.018233 -106412.000000 0 0 1
11.757315 -32.779848 26.185983 43.571304 -1.226414 0.926055 0.015305 -0.009069 -224371.000000 0 0 1
12.205715 -34.122948 26.103533 44.662618 -1.227280 0.946581 0.026993 -0.025075 229905.000000 0 0 1
13.587215 -33.982248 25.806583 44.781528 -1.190434 0.956630 0.040137 -0.016108 125149.000000 0 0 1
14.295115 33.533491 25.512913 44.494427 1.167830 0.960152 0.063152 -0.009833 -98345.300000 0 0 1
14.279615 33.135091 24.151203 43.417994 1.163896 0.980932 0.048974 -0.020138 712246.000000 0 0 1
15.370515 32.249991 23.864563 42.963147 1.126039 0.981873 0.056999 -0.012070 46478.300000 0 0 1
15.352015 31.793891 22.336773 41.778789 1.120954 1.006710 0.059756 -0.030507 -308219.000000 0 0 1
14.407015 30.818491 21.969273 40.496795 1.133502 0.997393 0.059132 -0.016799 -326761.000000 0 0 1
14.652715 29.451691 22.298073 39.740510 1.109137 0.975092 0.054609 -0.013699 -394640.000000 0 0 1
14.226215 29.002891 23.712873 40.073098 1.114769 0.937580 0.052159 -0.004371 -500695.000000 0 0 1
15.155015 29.280591 24.726283 41.211849 1.093185 0.927320 0.051733 -0.007434 -22963.400000 0 0 1
14.824515 28.807591 26.045913 41.569617 1.095534 0.893663 0.046058 0.002631 -336634.000000 0 0 1
15.842515 29.304091 27.081153 42.931385 1.075180 0.888211 0.050413 -0.001326 20268.700000 0 0 1
15.645815 30.633691 27.493953 44.035576 1.098595 0.896487 0.063463 -0.010702 -20698.700000 0 0 1
16.233715 30.790891 28.752383 45.147668 1.085607 0.880388 0.069800 -0.012290 -27327.500000 0 0 1
16.095515 32.275991 29.201353 46.406079 1.108202 0.890199 0.075959 -0.011092 38449.000000 0 0 1
16.885715 33.230391 28.542463 46.947400 1.100657 0.917299 0.075286 -0.014521 -36448.500000 0 0 1
16.331515 -34.335848 28.727623 47.654435 -1.126826 0.923750 0.084131 -0.010110 -111426.000000 0 0 1
17.085915 -33.227248 28.020443 46.702502 -1.095842 0.927324 0.079534 -0.014651 -671920.000000 0 0 1
17.081115 -33.291448 26.565263 45.888977 -1.096741 0.953414 0.084208 -0.017279 19022.600000 0 0 1
17.450715 -32.150648 25.853033 44.794764 -1.073514 0.955569 0.084170 -0.017590 496523.000000 0 0 1
18.997815 -31.879648 25.789573 45.192156 -1.033380 0.963481 0.063476 -0.005345 541178.000000 0 0 1
19.437615 -31.388548 27.048943 45.767970 -1.016337 0.938496 0.052921 -0.004536 -72127.800000 0 0 1
20.460815 -30.438048 26.850443 45.453998 -0.978965 0.938849 0.045506 -0.001270 -291479.000000 0 0 1
20.749815 -29.709348 28.095733 45.853793 -0.961127 0.911293 0.049852 0.003150 -358740.000000 0 0 1
19.703615 -28.842948 28.468433 45.062176 -0.971479 0.886976 0.050073 0.000495 15667.400000 0 0 1
20.056615 -27.942348 29.496823 45.311203 -0.948233 0.861918 0.061071 0.001706 91983.200000 0 0 1
18.852915 -27.295448 30.271453 44.909183 -0.966341 0.831106 0.032254 -0.004953 385461.000000 0 0 1
18.082515 -26.441148 29.454123 43.516169 -0.970973 0.827315 0.057470 -0.006471 194244.000000 0 0 1
16.842315 -26.194348 30.107163 43.315686 -0.999375 0.802288 0.042440 -0.007937 65341.300000 0 0 1
15.866515 -25.443248 29.173873 41.835631 -1.013201 0.799110 0.033020 0.006069 -701843.000000 0 0 1
15.460015 -26.152148 28.016633 41.326488 -1.036905 0.825848 0.029766 0.005963 561832.000000 0 0 1
14.616215 -25.438848 27.118303 39.952110 -1.049291 0.824710 0.027524 -0.010236 -517839.000000 0 0 1
13.173415 -25.062248 27.470233 39.449573 -1.086857 0.800514 0.019210 -0.000437 -340403.000000 0 0 1
12.202815 -26.094548 27.423673 39.773005 -1.133371 0.809991 0.012674 0.004526 363926.000000 0 0 1
11.864515 -26.635448 26.168243 39.178958 -1.151740 0.839392 0.019840 0.002709 -713529.000000 0 0 1
10.983915 -27.910048 26.240253 39.851826 -1.195865 0.852045 0.024287 -0.002081 -1005410.000000 0 0 1
9.673715 -27.710148 26.607483 39.615542 -1.234920 0.834373 0.024129 -0.014412 -667750.000000 0 0 1
8.990815 -28.935848 26.898163 40.517024 -1.269538 0.844810 0.024436 -0.014523 1468080.000000 0 0 1
7.418015 -28.850448 27.137813 40.296851 -1.319128 0.831934 0.022732 -0.017459 1845820.000000 0 0 1
6.463415 -28.728748 26.062253 39.323755 -1.349500 0.846296 0.037605 -0.022355 655072.000000 0 0 1
6.712715 -27.684448 25.069413 37.946866 -1.332915 0.849119 0.050473 -0.016900 -563549.000000 0 0 1
5.491915 -27.254848 24.183303 36.848609 -1.371957 0.854908 0.049609 -0.019340 -371620.000000 0 0 1
5.057315 -28.207948 23.241173 36.897383 -1.393394 0.889389 0.039629 -0.016485 272389.000000 0 0 1
4.272215 -29.322148 23.693973 37.940012 -1.426115 0.896290 0.041328 -0.014226 -248943.000000 0 0 1
2.881315 -28.919348 24.228173 37.836953 -1.471491 0.875867 0.012877 -0.015492 -1757470.000000 0 0 1
1.939015 -28.639448 23.279073 36.957989 -1.503195 0.889399 0.008692 -0.002918 -775096.000000 0 0 1
0.668515 -28.332748 23.771603 36.990277 -1.547206 0.872851 0.001795 -0.008328 -162586.000000 0 0 1
0.449015 -26.838848 24.160043 36.114167 -1.554068 0.837946 0.014318 -0.008036 -316164.000000 0 0 1
1.160415 -26.540248 25.370253 36.733922 -1.527101 0.808410 0.018711 -0.012711 193573.000000 0 0 1
1.164715 -25.184848 25.750163 36.037536 -1.524583 0.774834 0.026145 -0.012446 -534931.000000 0 0 1
2.372015 -24.751748 26.606473 36.416753 -1.475256 0.751580 0.035213 -0.010810 58635.700000 0 0 1
3.565015 -24.783548 25.775423 35.934746 -1.427930 0.770900 0.035549 -0.009932 1690110.000000 0 0 1
4.744415 -24.112948 26.280523 35.980684 -1.376520 0.751880 0.041485 -0.002782 995126.000000 0 0 1
4.504615 -22.624748 26.430743 35.082117 -1.374265 0.717584 0.041192 -0.004394 -910841.000000 0 0 1
4.379115 -21.888748 25.173903 33.645495 -1.373341 0.725436 0.040992 -0.007376 160247.000000 0 0 1
3.897315 -20.568248 25.439353 32.945448 -1.383534 0.688554 0.037752 -0.014358 -101933.000000 0 0 1
4.012315 -19.479548 24.270053 31.378128 -1.367661 0.686498 0.038199 -0.012875 -288882.000000 0 0 1
5.269415 -18.916348 24.033903 31.035841 -1.299120 0.685043 0.031801 -0.001861 -419853.000000 0 0 1
5.178015 -17.978348 23.000473 29.648855 -1.290372 0.682874 0.032243 0.002940 16053.900000 0 0 1
6.528115 -17.395848 22.535073 29.207213 -1.211790 0.689509 0.029828 0.000132 -520179.000000 0 0 1
7.211815 -18.335748 21.762173 29.356466 -1.196062 0.735780 0.025516 0.001978 -226378.000000 0 0 1
8.573815 -18.094848 21.494073 29.375653 -1.128306 0.749988 0.015034 0.003757 599558.000000 0 0 1
9.640015 -18.369348 22.591173 30.671223 -1.087515 0.742827 0.006493 0.009691 -237738.000000 0 0 1
9.528615 -17.440948 23.715873 30.942265 -1.070771 0.697492 0.010891 0.012918 -156507.000000 0 0 1
10.535315 -17.570848 24.688053 32.081576 -1.030678 0.692676 0.013088 0.015531 -365821.000000 0 0 1
10.470515 -16.496148 25.828093 32.385876 -1.005234 0.647638 0.028247 0.002270 -142821.000000 0 0 1
10.587115 -15.149748 25.514103 31.505100 -0.960855 0.626916 0.044526 -0.003317 191553.000000 0 0 1
10.387515 -14.364048 26.711323 32.058089 -0.944695 0.585897 0.040824 -0.014491 -125775.000000 0 0 1
10.707115 -12.889548 26.438933 31.301756 -0.877625 0.564891 0.050424 -0.010848 -655537.000000 0 0 1
9.627115 -12.199848 25.940173 30.239216 -0.902726 0.539760 0.045714 -0.004181 -585688.000000 0 0 1
9.993515 -10.863348 25.732663 29.665680 -0.827079 0.520799 0.056067 -0.002427 -497388.000000 0 0 1
8.940615 -10.075048 24.995633 28.394063 -0.844985 0.494277 0.054459 -0.000908 -735215.000000 0 0 1
7.743015 -9.916348 25.694693 28.609534 -0.907852 0.455329 0.038243 -0.006196 -317721.000000 0 0 1
6.764715 -9.273948 24.882563 27.402726 -0.940589 0.432234 0.035572 -0.002621 697340.000000 0 0 1
5.295515 -9.381148 25.387993 27.578952 -1.056900 0.401293 0.018463 -0.010308 -691136.000000 0 0 1
4.880715 -8.312548 26.240673 27.955191 -1.039879 0.352046 0.022126 -0.010790 -620679.000000 0 0 1
3.628115 -8.490848 26.836633 28.380672 -1.166982 0.331377 0.015372 -0.017633 241323.000000 0 0 1
2.442915 -8.420448 25.811753 27.260197 -1.288431 0.327449 0.005455 -0.012932 -815486.000000 0 0 1
2.365015 -7.080548 25.376863 26.452081 -1.248432 0.286099 0.017556 -0.013529 -142200.000000 0 0 1
1.601215 -6.952948 24.194063 25.224195 -1.344450 0.286776 0.011193 -0.014805 107786.000000 0 0 1
1.812215 -5.575448 23.471273 24.192362 -1.256533 0.244768 0.014351 -0.016979 -101308.000000 0 1 0
1.334615 -4.497548 24.259083 24.708546 -1.282330 0.191029 0.016518 -0.013259 -4095.000000 0 1 0
1.791515 -3.236448 23.770173 24.056293 -1.065237 0.154385 0.017029 -0.007569 -723398.000000 0 1 0
1.093015 -2.693448 22.442373 22.629835 -1.185296 0.128805 0.019241 -0.015717 777907.000000 0 1 0
-0.115785 -1.965448 22.651073 22.736479 1.511954 0.086703 0.020795 -0.021822 -115038.000000 0 1 0
-1.200885 -2.718448 23.088173 23.278655 1.154821 0.128015 0.019108 -0.020397 -1246500.000000 0 1 0
-2.272385 -1.796448 23.680473 23.856985 0.668956 0.121720 0.018210 -0.032508 -436996.000000 0 1 0
-1.869685 -1.251448 24.881963 24.983473 0.589848 0.090176 0.025284 -0.023835 352901.000000 0 1 0
-2.839185 -0.348448 25.387253 25.547896 0.122118 0.112201 0.023841 -0.016229 269106.000000 0 0 1
-2.139085 0.656552 26.402423 26.497069 -0.297803 0.084547 0.048705 -0.014617 292134.000000 0 0 1
-2.078585 0.323552 27.791993 27.871492 -0.154420 0.075547 0.048120 -0.008280 -89589.300000 0 0 1
-1.159585 -0.644448 28.219883 28.251048 0.507253 0.046976 0.046013 -0.012261 788440.000000 0 0 1
0.255615 -0.107448 28.738643 28.739980 -0.397927 0.009648 0.060420 -0.014981 1204190.000000 0 0 1
1.237915 0.290552 27.786223 27.815302 0.230538 0.045730 0.053372 -0.012188 424590.000000 0 0 1
1.790915 -0.674448 26.871283 26.939341 -0.360168 0.071097 0.042359 -0.012145 134371.000000 0 0 1
2.790015 -1.670448 27.575503 27.766579 -0.539481 0.117383 0.043926 -0.014701 -480703.000000 0 0 1
2.199115 -2.430448 28.596163 28.783393 -0.835325 0.114122 0.046066 -0.016403 464348.000000 0 0 1
3.113115 -3.450448 29.188043 29.555692 -0.836748 0.157893 0.052191 -0.010335 1072510.000000 0 0 1
3.597415 -4.611648 28.246603 28.845784 -0.908326 0.204177 0.044182 -0.009258 -103597.000000 0 0 1
4.394515 -4.127648 27.201693 27.861825 -0.754094 0.218116 0.056448 -0.009537 -355435.000000 0 0 1
5.029815 -5.174748 26.489183 27.454578 -0.799600 0.265975 0.040572 -0.014026 -614248.000000 0 0 1
5.797715 -4.707148 25.262413 26.343125 -0.681953 0.287430 0.040308 -0.009897 719742.000000 0 0 1
7.074815 -4.072148 25.462303 26.738815 -0.522273 0.310241 0.032972 -0.000593 157121.000000 0 0 1
8.141915 -4.893248 25.784683 27.478801 -0.541151 0.352976 0.049030 -0.001394 -1280610.000000 0 0 1
9.082815 -4.986348 24.618783 26.710403 -0.502065 0.398375 0.031677 0.005984 -930339.000000 0 0 1
8.518215 -5.765748 23.575573 25.721809 -0.595035 0.411406 0.029838 -0.002401 -34198.000000 0 0 1
9.141315 -5.662248 22.295973 24.753486 -0.554572 0.449371 0.035244 -0.003700 -7594.350000 0 1 0
9.243715 -4.292448 21.612373 23.894895 -0.434735 0.440645 0.033183 -0.004863 664571.000000 0 1 0
7.949015 -3.764448 21.326073 23.068578 -0.442284 0.391169 0.026242 -0.006414 -5244.770000 0 1 0
8.013915 -2.699448 20.357173 22.043691 -0.324908 0.393711 0.026884 -0.012098 -72313.100000 0 1 0
6.747415 -1.881448 20.054973 21.243102 -0.271933 0.336034 0.027148 -0.014141 -74572.900000 0 1 0
6.353515 -1.127448 21.187273 22.148111 -0.175624 0.295634 0.034010 -0.018638 331575.000000 0 1 0
5.051815 -0.574448 21.003473 21.610106 -0.113225 0.237504 0.015138 -0.010420 425094.000000 0 1 0
4.475215 -0.051448 22.352573 22.796221 -0.011496 0.197610 0.020827 -0.017266 986669.000000 0 1 0
3.147215 0.495552 22.251273 22.478204 0.156175 0.142216 0.010652 -0.016699 659395.000000 0 1 0
2.409615 0.529552 23.438773 23.568257 0.216327 0.104872 0.022807 -0.016169 765442.000000 0 1 0
0.887815 0.881552 23.312173 23.345722 0.781859 0.053617 0.024329 -0.019503 622361.000000 0 1 0
0.698615 2.250552 22.952273 23.072925 1.269808 0.102311 0.029358 -0.017343 -86637.300000 0 1 0
-0.611985 2.692552 23.202173 23.365898 -1.347305 0.118450 0.029597 -0.006986 -92857.800000 0 1 0
-0.894385 4.110552 22.658773 23.045966 -1.356553 0.183566 0.029725 -0.010008 -162313.000000 0 1 0
-0.703885 5.163552 23.622373 24.190374 -1.435313 0.217131 0.037969 -0.006627 -128470.000000 0 1 0
-1.591985 6.206552 23.314973 24.179405 -1.319709 0.268201 0.038572 -0.007062 -295321.000000 0 1 0
-1.350785 7.595552 24.099103 25.303829 -1.394797 0.309816 0.053114 -0.007178 86590.900000 0 0 1
-0.301785 8.464552 23.725173 25.191735 -1.535159 0.342899 0.044208 -0.008123 40102.500000 0 0 1
-0.212985 9.652552 24.460713 26.297216 -1.548735 0.375938 0.062536 -0.006895 -982748.000000 0 0 1
0.657815 10.686552 23.814873 26.110980 1.509319 0.422508 0.077576 -0.015136 1128280.000000 0 0 1
2.096615 10.524552 23.717873 26.032662 1.374159 0.424897 0.064338 -0.013542 1735730.000000 0 0 1
2.782715 10.582552 25.030053 27.317347 1.313664 0.412130 0.089319 -0.015228 25252.700000 0 0 1
4.130115 11.343552 24.991393 27.754346 1.221622 0.449994 0.072664 -0.013734 214577.000000 0 0 1
5.260815 10.782552 24.373913 27.166656 1.116875 0.457409 0.040814 -0.014641 144483.000000 0 0 1
5.234015 10.819552 22.933073 25.891764 1.120229 0.482735 0.055110 -0.015920 18128.200000 0 0 1
6.510815 10.186552 22.251773 25.323861 1.002081 0.497689 0.041461 -0.017440 1027920.000000 0 0 1
7.414515 11.249552 21.870073 25.687108 0.988055 0.552143 0.040656 -0.019241 843450.000000 0 0 1
8.562815 10.719552 21.193673 25.246828 0.896785 0.574510 0.042929 -0.016718 572332.000000 0 0 1
9.435915 11.802552 20.501573 25.468632 0.896372 0.635166 0.032295 -0.027361 -449039.000000 0 0 1
9.017015 12.135552 19.158473 24.405435 0.931774 0.668087 0.029929 -0.034672 -27982.900000 0 1 0
9.709015 13.160552 18.515173 24.703779 0.935190 0.723509 0.045251 -0.030390 -519670.000000 0 1 0
11.163115 12.888552 18.121973 24.882439 0.857014 0.754953 0.049132 -0.026174 -529702.000000 0 1 0
12.065215 12.903552 19.202373 26.092186 0.818961 0.743737 0.049663 -0.025064 461701.000000 0 0 1
13.383915 12.586552 18.714773 26.225811 0.754705 0.776171 0.054831 -0.020208 1221740.000000 0 0 1
14.449515 12.324552 19.840073 27.464733 0.706198 0.763553 0.036771 -0.007168 544539.000000 0 0 1
15.098315 13.501552 20.338273 28.703595 0.729625 0.783338 0.027507 -0.012487 -1908.200000 0 0 1
16.080415 13.151552 21.279673 29.738317 0.685538 0.773365 0.019371 -0.005718 79470.200000 0 0 1
16.912215 14.351552 21.793773 31.095958 0.703675 0.794200 0.022241 -0.001584 -253045.000000 0 0 1
16.191315 15.215552 22.678073 31.748491 0.754340 0.775167 0.016078 0.002728 95861.500000 0 0 1
16.967415 16.168552 23.341673 33.077922 0.761294 0.787446 0.007706 0.009691 -650528.000000 0 0 1
-21.264785 12.796091 -24.523709 34.890448 -0.541705 2.350231 0.021097 0.010464 130160.000000 0 0 1
-20.759285 12.910391 -25.851099 35.579565 -0.556374 2.384115 0.016377 -0.006726 -309855.000000 0 0 1
-21.516785 13.798191 -26.570499 36.869412 -0.570218 2.375558 0.009074 -0.007268 -485563.000000 0 0 1
-21.393985 13.874491 -28.113419 37.954821 -0.575336 2.404919 0.011819 -0.000140 318505.000000 0 0 1
-20.058385 14.268691 -28.404559 37.586611 -0.618308 2.427533 0.021639 -0.009374 210071.000000 0 0 1
-20.108985 14.700891 -29.753839 38.804361 -0.631269 2.444583 0.025052 -0.012137 614222.000000 0 0 1
-18.708485 15.244491 -30.185709 38.646849 -0.683727 2.467166 0.026261 -0.017200 529360.000000 0 0 1
-17.843685 14.194991 -30.634689 38.188729 -0.672003 2.501754 0.029897 -0.016631 -507261.000000 0 0 1
-16.491485 14.466491 -30.464089 37.540767 -0.720080 2.517500 0.029964 -0.016598 -335913.000000 0 0 1
-15.780985 14.075891 -29.169479 36.028165 -0.728351 2.514318 0.057161 -0.010663 -524812.000000 0 0 1
-16.399485 14.614491 -28.060849 35.636185 -0.727907 2.477418 0.061782 -0.020003 -321546.000000 0 0 1
-16.953085 13.599291 -27.209619 34.824003 -0.676064 2.467617 0.054464 -0.010461 14197.200000 0 0 1
-17.674785 14.198191 -25.947729 34.456803 -0.676751 2.423483 0.049654 -0.008506 43099.200000 0 0 1
-16.819785 14.895791 -25.050209 33.649706 -0.724808 2.410493 0.113547 -0.020990 65778.600000 0 0 1
-17.533485 15.286791 -23.912909 33.360700 -0.717050 2.369997 0.082753 -0.018137 -246061.000000 0 0 1
-16.625385 15.752091 -22.774609 32.298833 -0.758432 2.353391 0.083306 -0.006165 -151331.000000 0 0 1
-16.026985 16.959491 -23.051409 32.800245 -0.813660 2.350096 0.064748 -0.013375 -522657.000000 0 0 1
-15.068885 17.462391 -22.174109 31.995273 -0.858841 2.336498 0.059175 -0.005665 -359057.000000 0 0 1
-14.611985 18.883591 -22.644009 32.906705 -0.912241 2.329702 0.058158 -0.012004 374492.000000 0 0 1
-15.589385 19.935091 -22.579609 33.915712 -0.907123 2.299304 0.032890 -0.012256 407382.000000 0 0 1
-16.585085 19.856291 -23.592409 35.013413 -0.874924 2.310150 0.022046 -0.009704 -109635.000000 0 0 1
-17.800685 20.749791 -23.301609 35.921904 -0.861749 2.276637 0.010856 -0.011125 -301151.000000 0 0 1
-17.607885 22.079891 -23.689109 36.860997 -0.897605 2.268762 0.005960 -0.016828 242130.000000 0 0 1
-18.884885 22.693491 -23.793709 37.917990 -0.876744 2.249140 0.019407 -0.020211 301870.000000 0 0 1
-18.774585 24.176991 -24.201009 39.021799 -0.910520 2.239784 0.020167 -0.024125 24513.700000 0 0 1
-18.134685 24.789591 -23.104109 38.434236 -0.939212 2.215715 0.018236 -0.011645 -122826.000000 0 0 1
-17.170385 25.748391 -23.474509 38.843974 -0.982665 2.219719 0.012680 -0.002029 -9929.540000 0 0 1
-16.065785 25.923691 -22.382209 37.830021 -1.015993 2.203903 0.002476 -0.006238 554446.000000 0 0 1
-15.016285 24.976091 -22.148409 36.603906 -1.029476 2.220667 0.006091 -0.014724 301041.000000 0 0 1
-15.497585 23.689591 -21.877909 35.777294 -0.991479 2.228755 0.010876 -0.004406 -731075.000000 0 0 1
-14.425385 22.578891 -21.691509 34.473462 -1.002272 2.251350 0.040673 -0.012290 347903.000000 0 0 1
-13.621685 22.738491 -20.519909 33.520978 -1.031069 2.229575 0.043248 -0.020296 89195.800000 0 0 1
-12.549185 21.806691 -20.507009 32.458454 -1.048606 2.254660 0.042598 -0.016331 100114.000000 0 0 1
-11.708385 22.057291 -19.220509 31.512511 -1.082800 2.226772 0.034387 -0.016237 -281230.000000 0 0 1
-12.257385 21.824991 -17.945309 30.799478 -1.059074 2.192782 0.042332 -0.010620 41458.400000 0 0 1
-12.972485 22.952891 -17.414709 31.597352 -1.056374 2.154532 0.037553 -0.015994 374865.000000 0 0 1
-13.829685 22.851091 -16.111109 31.192954 -1.026555 2.113553 0.037877 -0.013996 632818.000000 0 0 1
-13.119085 23.400291 -15.001209 30.736302 -1.059823 2.080664 0.039321 -0.029925 136117.000000 0 0 1
-14.001985 23.618591 -13.947709 30.796623 -1.035660 2.040809 0.046750 -0.031703 5491.200000 0 0 1
-13.143285 23.950891 -12.719409 30.135933 -1.068906 2.006521 0.061444 -0.031254 62353.000000 0 0 1
-12.521385 25.215591 -12.759709 30.909890 -1.109894 1.996326 0.053791 -0.030725 57884.000000 0 0 1
-11.706785 25.401291 -11.639609 30.294470 -1.138937 1.965154 0.033588 -0.025576 -219319.000000 0 0 1
-11.337585 26.843391 -11.348909 31.271492 -1.171164 1.942191 0.041422 -0.023001 52622.200000 0 0 1
-10.646985 27.445591 -12.443109 31.960127 -1.200738 1.970703 0.033935 -0.022667 139117.000000 0 0 1
-10.627585 28.896991 -12.482509 33.223405 -1.218375 1.955964 0.020068 -0.022480 -412391.000000 0 0 1
-10.114785 29.285991 -13.893709 33.956049 -1.238244 1.992338 0.039894 -0.025996 1859730.000000 0 0 1
-8.683485 29.207591 -14.199109 33.616974 -1.281816 2.006865 0.039083 -0.023282 1520790.000000 0 0 1
-8.230385 27.874491 -14.450209 32.458204 -1.283688 2.032188 0.037245 -0.027303 74161.700000 0 0 1
-6.839285 27.900091 -15.148909 32.475842 -1.330402 2.056089 0.053204 -0.029281 758344.000000 0 0 1
-5.839285 28.371991 -14.247809 32.281065 -1.367819 2.027918 0.048409 -0.031164 -290056.000000 0 0 1
-4.609085 28.548591 -14.916609 32.538760 -1.410730 2.047019 0.057718 -0.034983 496554.000000 0 0 1
-3.550085 29.474791 -14.243209 32.927730 -1.450929 2.018126 0.038052 -0.030370 185330.000000 0 0 1
-3.634085 30.889491 -14.345709 34.251519 -1.453687 2.002957 0.025271 -0.023273 -145445.000000 0 0 1
-4.692085 31.538691 -13.651309 34.685197 -1.423107 1.975316 0.025998 -0.020777 156709.000000 0 0 1
-4.686885 33.051991 -13.937409 36.175300 -1.429932 1.966301 0.021850 -0.025453 -280171.000000 0 0 1
-3.563385 33.706791 -13.439009 36.461657 -1.465470 1.948277 0.002854 -0.023973 -486067.000000 0 0 1
-3.637685 -33.713348 -13.732109 36.584060 1.463312 1.955579 0.007546 -0.019429 181651.000000 0 0 1
-2.692685 -32.871948 -12.861909 35.401190 1.489064 1.942624 0.014334 -0.024116 -257753.000000 0 0 1
-3.079285 -32.831048 -11.480609 34.916531 1.477278 1.905831 0.015876 -0.028314 -278782.000000 0 0 1
-2.321485 -31.976648 -10.708609 33.801917 1.498324 1.893155 0.013791 -0.026225 -289354.000000 0 0 1
-2.795385 -32.010948 -9.212209 33.427231 1.483691 1.850000 0.008119 -0.019274 -93073.400000 0 0 1
-1.859285 -31.319248 -8.414309 32.483116 1.511500 1.832821 0.012395 -0.022865 -194462.000000 0 0 1
-2.134885 -31.420248 -7.048609 32.271855 1.502954 1.790985 0.010312 -0.025426 -457342.000000 0 0 1
-0.971585 -31.029248 -6.150709 31.647898 1.539495 1.766389 0.016201 -0.021809 -263114.000000 0 0 1
-1.235085 -31.088448 -4.783709 31.478579 1.531089 1.723355 0.015614 -0.015126 -235149.000000 0 0 1
-0.090185 -30.629748 -4.086609 30.901294 1.567852 1.703432 0.015798 -0.009471 141198.000000 0 0 1
-0.262385 -30.479448 -2.510809 30.583815 1.562188 1.652985 0.007405 -0.007923 -504553.000000 0 0 1
-0.399685 -31.686348 -1.744309 31.736840 1.558183 1.625786 0.009186 -0.005291 126420.000000 0 0 1
0.542815 -32.738048 -1.963309 32.801357 -1.554217 1.630687 0.001646 -0.005597 2034950.000000 0 0 1
2.081715 -32.422748 -1.624309 32.530086 -1.506679 1.620750 0.022437 -0.006300 694970.000000 0 0 1
2.396015 -32.591248 -0.267809 32.680301 -1.497411 1.578991 0.005327 -0.003627 -1373810.000000 0 0 1
3.715515 -32.436448 0.032791 32.648573 -1.456746 1.569792 0.016010 -0.000233 -1330090.000000 0 0 1
4.181115 -30.977548 0.178491 31.258952 -1.436635 1.565086 0.007008 -0.005095 -970407.000000 0 0 1
4.173915 -30.286748 -1.015409 30.589863 -1.433846 1.603997 0.026938 -0.018979 66099.900000 0 0 1
4.099215 -28.902048 -0.718009 29.200128 -1.429905 1.595388 0.026106 -0.012476 -495276.000000 0 0 1
3.639315 -28.042848 -1.900409 28.341798 -1.441741 1.637900 0.030596 -0.017415 -49905.100000 0 0 1
2.355115 -28.383148 -2.399009 28.581548 -1.488010 1.654831 0.016515 -0.014043 188957.000000 0 0 1
1.792015 -27.390448 -3.231009 27.638513 -1.505465 1.687967 0.013430 -0.006986 -9175.450000 0 0 1
2.440915 -27.309448 -4.645809 27.809127 -1.481653 1.738644 0.014070 -0.014553 -119111.000000 0 0 1
1.991115 -28.330848 -5.473709 28.923399 -1.500631 1.761193 0.010218 -0.018564 -463159.000000 0 0 1
2.599115 -28.312348 -6.698709 29.209881 -1.479251 1.802186 0.015679 -0.021256 -616395.000000 0 0 1
2.118615 -29.285448 -7.836709 30.389801 -1.498579 1.831616 0.012767 -0.019136 155998.000000 0 0 1
0.805415 -28.829448 -8.152209 29.970724 -1.542866 1.846273 0.012311 -0.014719 -63660.500000 0 0 1
0.435015 -29.045348 -9.530509 30.572080 -1.555820 1.887819 0.010367 -0.011078 425622.000000 0 0 1
-0.926485 -28.447448 -9.962409 30.155684 1.538240 1.907488 0.006127 -0.015023 -423009.000000 0 0 1
-0.842885 -27.014348 -10.028009 28.827876 1.539605 1.926082 0.004727 -0.007685 49666.600000 0 0 1
-2.097785 -26.351548 -9.944009 28.243373 1.491356 1.930592 0.018926 -0.008719 791567.000000 0 0 1
-3.061185 -26.635648 -8.744709 28.201038 1.456370 1.886078 0.020994 -0.013829 -174919.000000 0 0 1
-2.602285 -26.300448 -7.426509 27.452477 1.472173 1.844732 0.024006 -0.015032 -359560.000000 0 0 1
-2.012485 -27.413848 -6.750409 28.304367 1.497517 1.811611 0.012437 -0.011197 421892.000000 0 0 1
-1.473085 -27.143348 -5.363609 27.707393 1.516579 1.765607 0.024723 -0.003441 151589.000000 0 0 1
-2.532685 -27.192148 -4.425009 27.666010 1.477924 1.731430 0.029701 -0.011427 -140641.000000 0 0 1
-2.105185 -27.065648 -3.097109 27.323492 1.493172 1.684390 0.026710 -0.001946 126380.000000 0 0 1
-3.177085 -27.301648 -1.969109 27.556329 1.454948 1.642315 0.017158 -0.002223 390221.000000 0 0 1
-4.267785 -26.401648 -2.003909 26.819334 1.410534 1.645585 0.024281 0.005578 -297153.000000 0 0 1
-4.837385 -26.409548 -0.734109 26.858955 1.389636 1.598132 0.025803 -0.003514 -618510.000000 0 0 1
-5.981285 -25.454148 -0.550809 26.153256 1.340001 1.591859 0.040070 0.002949 -421153.000000 0 0 1
-5.488685 -24.103348 -0.385009 24.723375 1.346900 1.586370 0.009403 0.007982 -246179.000000 0 1 0
-6.368185 -23.364848 0.392391 24.220320 1.304705 1.554595 0.026116 0.005835 -461645.000000 0 1 0
-5.811085 -21.972248 0.597491 22.735553 1.312242 1.544513 0.005598 0.003992 -302941.000000 0 1 0
-4.807085 -21.919748 1.547491 22.493958 1.354910 1.501946 0.002101 0.000138 -731410.000000 0 1 0
-4.319385 -20.634448 1.743991 21.153700 1.364447 1.488259 -0.008704 0.005750 147829.000000 0 1 0
-3.275385 -20.423948 2.853991 20.880878 1.411780 1.433688 -0.002052 0.003540 305958.000000 0 1 0
-3.881185 -20.749348 4.120791 21.507672 1.385882 1.378008 -0.002765 0.022997 549262.000000 0 1 0
-2.998485 -20.519148 5.246391 21.390441 1.425692 1.323000 0.014904 0.013554 495003.000000 0 1 0
-1.927385 -21.562248 5.591491 22.358670 1.481646 1.318032 0.004114 -0.004329 -30100.600000 0 1 0
-0.949785 -21.692148 4.593391 22.193481 1.527040 1.362319 0.020920 -0.010962 -433257.000000 0 1 0
-0.176885 -22.858548 4.893091 23.377058 1.563058 1.359925 0.022154 -0.014399 -1079160.000000 0 1 0
0.687315 -23.350748 3.730691 23.656878 -1.541370 1.412435 0.018472 -0.021884 -24596.800000 0 1 0
1.814915 -22.548148 3.519291 22.893193 -1.490479 1.416458 -0.004733 -0.024509 59776.400000 0 1 0
2.879715 -22.753148 4.445891 23.361602 -1.444902 1.379321 0.019544 -0.028179 -575518.000000 0 1 0
4.025515 -21.728048 4.374191 22.526571 -1.387605 1.375376 0.032463 -0.028981 228482.000000 0 1 0
4.986815 -21.909848 3.347791 22.718219 -1.347003 1.422896 0.014738 -0.015011 -372102.000000 0 1 0
6.007615 -20.960848 3.554591 22.092616 -1.291668 1.409199 0.038437 -0.016862 403080.000000 0 1 0
6.803415 -20.722248 2.203491 21.921528 -1.253569 1.470109 0.050781 -0.008912 -61918.300000 0 1 0
7.455315 -21.792048 1.575591 23.085874 -1.241166 1.502494 0.052741 -0.007023 31074.300000 0 1 0
6.925515 -22.037148 0.269491 23.101326 -1.266304 1.559130 0.049425 -0.009893 338394.000000 0 1 0
7.929815 -22.866248 -0.579509 24.209153 -1.236983 1.594736 0.056248 -0.002447 591350.000000 0 1 0
9.083215 -22.126848 -0.946309 23.937370 -1.181266 1.610339 0.056224 0.002562 -791097.000000 0 1 0
10.096115 -22.920748 -1.426709 25.086405 -1.155888 1.627699 0.050465 0.002600 -961131.000000 0 0 1
11.349915 -22.178748 -1.818809 24.980502 -1.097795 1.643670 0.042065 0.005641 -626083.000000 0 1 0
11.285015 -21.345848 -2.983309 24.328932 -1.084473 1.693730 0.036829 0.018008 -818672.000000 0 1 0
12.545215 -21.061848 -3.488209 24.761895 -1.033591 1.712136 0.032778 0.014728 -575639.000000 0 1 0
12.523515 -19.854148 -4.363509 23.876051 -1.008054 1.754586 0.028275 -0.000249 -129555.000000 0 1 0
12.526915 -18.595148 -3.622209 22.711749 -0.977964 1.730966 0.037182 0.001313 103087.000000 0 1 0
12.479315 -17.531648 -4.521709 21.989494 -0.952184 1.777904 0.031109 -0.004461 -1037810.000000 0 1 0
12.868115 -16.197748 -3.837609 21.040025 -0.899456 1.754219 0.030414 -0.007807 2563460.000000 0 1 0
14.289315 -16.014248 -3.429009 21.734736 -0.842259 1.729225 0.029780 -0.005782 2751960.000000 0 1 0
15.261915 -16.111048 -4.448609 22.633648 -0.812457 1.768633 0.027066 -0.002743 701160.000000 0 1 0
16.778315 -15.733048 -4.198809 23.380989 -0.753258 1.751358 0.028150 -0.000807 1333890.000000 0 1 0
17.387015 -16.708448 -3.350609 24.345577 -0.765499 1.708862 0.024724 0.000383 89251.700000 0 1 0
18.787515 -16.615448 -3.464309 25.318872 -0.724122 1.708054 0.015285 0.009329 146288.000000 0 0 1
19.606215 -17.523648 -2.438509 26.408866 -0.729368 1.663265 0.018034 -0.001824 -428282.000000 0 0 1
20.976315 -17.391048 -2.605309 27.372285 -0.692223 1.666121 0.013222 -0.003033 -672445.000000 0 0 1
21.644815 -18.111548 -1.577709 28.266860 -0.696758 1.626640 0.005448 0.002352 -1180280.000000 0 0 1
23.136915 -18.139348 -1.580309 29.442319 -0.664909 1.624497 0.012209 -0.006318 -1556180.000000 0 0 1
23.807215 -16.938248 -1.514509 29.257161 -0.618386 1.622585 0.031223 -0.004050 -118952.000000 0 0 1
25.038615 -17.089948 -0.845109 30.326766 -0.598914 1.598667 0.043841 -0.005821 142076.000000 0 0 1
25.729215 -15.772348 -0.334909 30.180650 -0.549933 1.581893 0.052650 -0.014895 394699.000000 0 0 1
24.984815 -15.123248 0.710191 29.214003 -0.544306 1.546484 0.049047 -0.014962 474469.000000 0 0 1
25.692515 -14.048848 1.276891 29.310508 -0.500388 1.527218 0.043992 -0.021013 31591.100000 0 0 1
24.885815 -13.434148 2.445291 28.385904 -0.495003 1.484545 0.062929 -0.028096 -134636.000000 0 0 1
24.605515 -14.252648 3.545291 28.655513 -0.525019 1.446757 0.064539 -0.020547 223245.000000 0 0 1
25.666415 -14.643248 4.424291 29.879155 -0.518462 1.422177 0.075174 -0.019282 357190.000000 0 0 1
25.131515 -15.308848 5.733791 29.980497 -0.547120 1.378360 0.056816 -0.011247 87071.400000 0 0 1
24.528615 -16.561048 5.555691 30.112903 -0.593868 1.385238 0.051758 -0.009873 441713.000000 0 0 1
23.611315 -16.664048 6.693491 29.664583 -0.614585 1.343197 0.038708 -0.000940 540599.000000 0 0 1
22.890315 -18.038148 6.850391 29.937755 -0.667397 1.339930 0.027566 0.002292 -109632.000000 0 0 1
23.770815 -19.104048 7.115591 31.315299 -0.676979 1.341570 0.031857 0.004624 -117734.000000 0 0 1
23.117415 -20.360748 7.125891 31.618875 -0.722079 1.343475 0.005475 0.011532 -83734.200000 0 0 1
1.930015 23.399991 -3.263209 23.705127 1.488503 1.708893 0.014991 -0.008583 557720.000000 0 1 0
2.827515 24.485791 -2.957209 24.825267 1.455830 1.690201 0.016556 -0.010451 102132.000000 0 1 0
3.427715 25.110791 -4.035509 25.662938 1.435131 1.728702 0.025553 -0.007619 -151403.000000 0 0 1
4.405515 26.197091 -3.565309 26.803126 1.404187 1.704210 0.016567 0.001202 226851.000000 0 0 1
5.442015 25.645891 -2.757909 26.361587 1.361700 1.675607 0.016217 -0.007763 258028.000000 0 0 1
6.144215 26.589891 -1.936909 27.359190 1.343709 1.641651 0.008293 -0.006184 484884.000000 0 0 1
7.263615 25.997891 -1.014409 27.012579 1.298351 1.608358 0.001748 -0.018307 929652.000000 0 0 1
8.289115 25.499791 -1.900609 26.880496 1.256505 1.641561 0.007627 -0.021170 345466.000000 0 0 1
9.171315 24.520191 -1.340109 26.213520 1.212875 1.621941 0.001888 -0.016827 -371600.000000 0 0 1
10.294915 24.173991 -2.271709 26.372860 1.168191 1.657041 0.010551 -0.011911 -1545090.000000 0 0 1
11.194015 25.248391 -2.469709 27.728806 1.153482 1.659981 0.018006 -0.013437 -214043.000000 0 0 1
12.090315 25.056591 -3.526809 28.043659 1.121230 1.696892 0.034906 -0.017035 1236640.000000 0 0 1
13.260615 23.968791 -3.296109 27.590055 1.065465 1.690550 0.040483 -0.013941 272770.000000 0 0 1
12.784515 22.649591 -3.448209 26.236195 1.056928 1.702607 0.038332 -0.018554 -59975.600000 0 0 1
12.494115 22.269791 -4.771909 25.977251 1.059521 1.755541 0.046059 -0.021202 -67602.400000 0 0 1
11.500915 21.084491 -4.809909 24.494122 1.071439 1.768451 0.044257 -0.022771 -33084.400000 0 1 0
10.171415 21.454891 -4.533209 24.172712 1.128096 1.759447 0.035225 -0.015978 -246165.000000 0 1 0
9.321815 20.313491 -4.578809 22.814461 1.140568 1.772866 0.013674 -0.010448 97130.000000 0 1 0
7.833015 20.727391 -4.630809 22.636811 1.209480 1.776821 0.008282 -0.008953 -52651.600000 0 1 0
7.456415 21.162191 -3.345809 22.685477 1.232033 1.718823 0.005486 -0.011404 -689828.000000 0 1 0
6.300815 21.920991 -3.431809 23.065286 1.290908 1.720138 0.015386 0.007386 -430697.000000 0 1 0
5.850915 22.539291 -2.086909 23.379650 1.316815 1.660177 0.020810 -0.002980 -26171.700000 0 1 0
5.362615 21.584791 -1.171209 22.271788 1.327283 1.623408 0.015931 -0.005922 -160761.000000 0 1 0
4.707615 22.280991 -0.138109 22.773301 1.362575 1.576861 0.024041 0.000387 20897.600000 0 1 0
4.207115 21.282191 0.917191 21.713422 1.375630 1.528543 0.019923 -0.007189 -154820.000000 0 1 0
3.470415 21.956391 1.926391 22.312280 1.414034 1.484351 0.019923 -0.003037 78268.200000 0 1 0
3.095715 21.079391 2.924691 21.505301 1.424979 1.434375 0.017059 -0.003773 -329323.000000 0 1 0
2.173715 21.630191 4.010791 22.106031 1.470638 1.388352 0.023981 -0.009070 -80575.500000 0 1 0
0.881115 21.928591 3.526891 22.227874 1.530637 1.411453 0.021762 -0.000551 -770626.000000 0 1 0
0.021115 22.179791 4.567391 22.645190 1.569844 1.367710 0.020713 -0.014184 24259.400000 0 1 0
-1.456485 22.340491 4.113291 22.762645 -1.505694 1.389095 0.016088 -0.011040 403534.000000 0 1 0
-2.379685 22.798191 5.076191 23.477396 -1.466793 1.352859 0.022408 -0.016687 -646734.000000 0 1 0
-3.666485 22.700291 4.532091 23.436855 -1.410662 1.376196 0.019737 -0.019896 487587.000000 0 1 0
-4.794185 23.080691 5.591891 24.227499 -1.365994 1.337889 0.023663 -0.025996 474396.000000 0 1 0
-4.923485 24.440691 5.874291 25.614358 -1.372011 1.339401 0.034818 -0.020812 -610432.000000 0 0 1
-6.004785 24.538791 6.731591 26.144292 -1.330807 1.310385 0.048624 -0.029852 -556488.000000 0 0 1
-6.318885 25.970591 7.160791 27.670866 -1.332125 1.309033 0.053658 -0.031931 50850.900000 0 0 1
-5.298285 26.585991 7.967891 28.255513 -1.374085 1.284924 0.047588 -0.027090 216407.000000 0 0 1
-5.550285 27.905691 8.384791 29.662062 -1.374464 1.284212 0.059411 -0.039123 -189061.000000 0 0 1
-5.884985 29.000891 7.319791 30.483832 -1.370591 1.328306 0.067072 -0.041432 -67773.700000 0 0 1
-7.226985 28.979891 6.916491 30.657808 -1.326402 1.343234 0.064274 -0.036916 -714719.000000 0 0 1
-7.375085 30.120891 6.055691 31.596381 -1.330671 1.377945 0.080291 -0.034479 62871.400000 0 0 1
-8.848585 30.387891 5.628291 32.146524 -1.287444 1.394807 0.072039 -0.031407 627376.000000 0 0 1
-9.659385 30.838891 6.710191 33.005568 -1.267255 1.366064 0.073516 -0.028978 -170104.000000 0 0 1
-10.351485 29.798291 7.338391 32.387395 -1.236453 1.342230 0.057654 -0.025876 -483443.000000 0 0 1
-11.314385 30.287691 8.453391 33.418847 -1.213285 1.315065 0.050182 -0.018770 -152746.000000 0 0 1
-10.636385 30.888291 9.570091 34.041237 -1.239164 1.285823 0.064147 -0.018410 -330081.000000 0 0 1
-11.427385 31.380091 10.601991 35.038513 -1.221563 1.263397 0.056173 -0.011060 -527229.000000 0 0 1
-10.595985 31.885791 11.781091 35.605795 -1.249967 1.233565 0.053786 -0.012320 -128844.000000 0 0 1
-9.951485 33.127791 11.643891 36.497435 -1.278975 1.246087 0.058812 -0.014169 234399.000000 0 0 1
-9.195585 33.419591 12.814291 36.954484 -1.302286 1.216683 0.057907 -0.015670 122312.000000 0 0 1
-8.865385 -33.984148 12.801191 37.381651 1.315615 1.221277 0.060801 -0.018446 -90513.300000 0 0 1
-9.853085 -33.259448 13.491091 37.219400 1.282784 1.199875 0.052498 -0.011923 -10329.700000 0 0 1
-9.613685 -31.886148 13.345791 35.878399 1.277964 1.189663 0.041945 -0.008271 82368.000000 0 0 1
-10.647085 -30.967348 14.033691 35.626978 1.239641 1.165919 0.054021 -0.014378 -217305.000000 0 0 1
-10.634185 -31.077748 15.422491 36.287264 1.241105 1.131822 0.055184 -0.024073 745380.000000 0 0 1
-9.617385 -30.336948 16.166191 35.695521 1.263800 1.100791 0.063464 -0.020050 814197.000000 0 0 1
-9.517585 -30.683948 17.664691 36.662384 1.270025 1.068065 0.053538 -0.030658 142558.000000 0 0 1
-10.558285 -30.031648 18.367191 36.752292 1.232722 1.047479 0.086505 -0.030647 282873.000000 0 0 1
-11.121785 -30.737648 19.432891 38.028073 1.223622 1.034432 0.081220 -0.029310 -101025.000000 0 0 1
-11.344085 -29.791748 20.617291 37.964578 1.206968 0.996712 0.074708 -0.031993 866440.000000 0 0 1
-10.083885 -29.444048 21.234191 37.676618 1.240840 0.972070 0.055775 -0.030970 1174780.000000 0 0 1
-10.322785 -28.800148 22.459491 37.953091 1.226633 0.937544 0.043588 -0.021454 -116178.000000 0 0 1
-9.119285 -28.944548 23.391791 38.316108 1.265580 0.914111 0.058607 -0.022192 -228263.000000 0 0 1
-8.941285 -30.125348 24.248491 39.692222 1.282275 0.913583 0.055173 -0.014986 -420910.000000 0 0 1
-7.762285 -30.037748 24.980791 39.831637 1.317911 0.892895 0.060969 -0.013800 -397238.000000 0 0 1
-7.686085 -31.169648 26.046891 41.340820 1.329031 0.889175 0.062706 -0.015980 -218296.000000 0 0 1
-7.464385 -32.417448 25.410591 41.860555 1.344483 0.918479 0.088217 -0.018532 282557.000000 0 0 1
-7.548785 -33.502848 26.250491 43.226303 1.349179 0.918163 0.088657 -0.020279 -489527.000000 0 0 1
-7.321185 33.967191 25.596591 43.157331 -1.358507 0.935893 0.075635 -0.020639 -480833.000000 0 0 1
-6.027985 33.622391 25.173491 42.432374 -1.393396 0.935692 0.073835 -0.013805 -343163.000000 0 0 1
-5.833885 32.356391 24.508791 41.007939 -1.392412 0.930217 0.067848 -0.015381 -163254.000000 0 0 1
-6.653485 31.963791 23.226491 40.067726 -1.365570 0.952459 0.064513 -0.018696 613503.000000 0 0 1
-7.946085 31.474191 23.607291 40.138125 -1.323500 0.942025 0.062389 -0.024909 59243.400000 0 0 1
-8.744285 31.416491 22.485991 39.611591 -1.299333 0.967133 0.042077 -0.015013 -346743.000000 0 0 1
-9.841685 30.308391 22.527491 39.024930 -1.256819 0.955428 0.043015 -0.022173 98647.200000 0 0 1
-9.254585 29.044591 22.449391 37.857770 -1.262333 0.936026 0.042916 -0.014354 -194101.000000 0 0 1
-9.936585 27.944391 23.004391 37.534340 -1.229155 0.911084 0.034317 -0.011321 -610699.000000 0 0 1
-9.327285 26.618491 22.599891 36.142736 -1.233760 0.895286 0.021660 -0.011288 94193.700000 0 0 1
-8.107885 26.338491 23.283591 36.077410 -1.272168 0.869277 0.013080 -0.010529 324044.000000 0 0 1
-7.645885 25.044391 22.918491 34.798538 -1.274490 0.851833 0.018965 -0.003814 541205.000000 0 0 1
-6.275185 24.697091 23.601391 34.732548 -1.321976 0.823691 0.013344 -0.008173 520245.000000 0 0 1
-5.241285 25.500991 23.084191 34.794417 -1.368087 0.845382 -0.001662 -0.003016 -617623.000000 0 0 1
-4.030285 25.184791 23.726991 34.835140 -1.412113 0.821502 0.028315 -0.013487 23328.100000 0 0 1
-2.798085 25.657091 22.902091 34.505381 -1.462169 0.845008 0.020334 0.003921 79593.100000 0 0 1
-2.504685 24.655391 21.924191 33.088244 -1.469556 0.846515 0.022465 0.003418 -183755.000000 0 0 1
-1.759485 25.209991 20.889891 32.787604 -1.501116 0.880030 0.024346 0.005976 -167499.000000 0 0 1
-1.356485 24.186091 19.794891 31.283298 -1.514770 0.885681 0.012329 0.001774 -570672.000000 0 0 1
-0.276985 23.362791 20.160491 30.860040 -1.558941 0.858877 0.028799 -0.001421 -293859.000000 0 0 1
0.034015 22.531291 19.058891 29.511041 1.569287 0.868696 0.018760 -0.000371 33770.000000 0 0 1
1.225115 21.549991 19.375591 29.005457 1.514008 0.839281 0.025914 0.002018 1115880.000000 0 0 1
2.527215 22.133691 19.400991 29.541251 1.457109 0.854306 0.020681 -0.005709 -70323.600000 0 0 1
3.497715 21.129191 19.522591 28.979445 1.406745 0.831632 0.022074 -0.002656 -862522.000000 0 0 1
4.887915 21.685391 19.410691 29.511401 1.349100 0.852988 0.021179 -0.013472 -675963.000000 0 0 1
5.943115 20.746391 19.292691 28.947215 1.291803 0.841321 0.030236 -0.013768 527334.000000 0 0 1
7.184315 21.379491 18.979491 29.477416 1.246614 0.871257 0.056315 -0.017335 1063440.000000 0 0 1
8.413615 20.418491 18.794391 28.998841 1.179938 0.865698 0.044878 -0.002706 409212.000000 0 0 1
8.757115 19.619691 19.927791 29.304200 1.150988 0.822990 0.049765 -0.011667 75791.400000 0 0 1
9.929315 18.888091 19.584091 28.963561 1.086807 0.828254 0.043227 -0.010734 420740.000000 0 0 1
10.466815 17.963391 20.708791 29.344363 1.043213 0.787363 0.044346 -0.015520 -190452.000000 0 0 1
9.583415 16.888991 20.966191 28.577281 1.054665 0.747094 0.047708 -0.014135 -40436.300000 0 0 1
10.088615 16.137391 22.050991 29.128023 1.012075 0.712030 0.047905 -0.016689 -185461.000000 0 0 1
9.157115 15.070691 22.640691 28.698072 1.024799 0.661735 0.037275 -0.010361 -220496.000000 0 0 1
8.061915 15.696591 23.294291 29.223302 1.096321 0.648297 0.037204 0.000358 520469.000000 0 0 1
6.967115 14.850791 23.691891 28.816529 1.132139 0.605596 0.036085 -0.000486 769575.000000 0 0 1
7.273015 13.701491 24.764891 29.222036 1.082798 0.559589 0.043549 -0.000067 -523000.000000 0 0 1
7.603615 14.382391 25.916691 30.599722 1.084472 0.560558 0.044193 -0.004525 -15791.000000 0 0 1
8.093515 13.515491 26.919991 31.190694 1.031236 0.529465 0.050503 -0.008188 235885.000000 0 0 1
9.051415 14.366991 27.887291 32.650261 1.008599 0.546937 0.032763 0.004441 363273.000000 0 0 1
10.413315 14.467891 27.559391 32.821898 0.946936 0.574131 0.040407 0.006140 50083.400000 0 0 1
10.729615 15.351891 26.485291 32.438801 0.960801 0.615527 0.037444 0.000828 -738497.000000 0 0 1
11.960715 15.005491 25.664891 32.045437 0.897833 0.642015 0.035410 0.000933 -425266.000000 0 0 1
11.724115 13.916291 24.749991 30.719376 0.870688 0.633974 0.040414 -0.009023 -68612.700000 0 0 1
12.896215 13.618591 24.059391 30.506272 0.812636 0.662153 0.029686 0.000469 -505488.000000 0 0 1
12.556715 12.432691 23.097091 29.081239 0.780435 0.653063 0.027944 -0.009225 97140.200000 0 0 1
12.292715 11.233091 23.787491 29.036837 0.740388 0.610751 0.034120 -0.003599 -57350.200000 0 0 1
10.933015 11.080391 24.109391 28.697885 0.792093 0.573310 0.049011 -0.006756 -605277.000000 0 0 1
10.572815 9.826491 24.849391 28.737372 0.748829 0.526231 0.038972 -0.007861 -143558.000000 0 0 1
10.738215 8.639691 24.085391 27.749947 0.677524 0.519749 0.038996 -0.002245 204675.000000 0 0 1
10.398415 7.489391 24.788491 27.904969 0.624183 0.477127 0.041325 -0.001576 -167401.000000 0 0 1
10.463815 6.152791 23.986191 26.882812 0.531554 0.468492 0.064373 -0.016452 -69179.100000 0 0 1
11.767015 5.731491 23.636791 27.018706 0.453259 0.505710 0.064122 -0.007391 85392.900000 0 0 1
11.731815 4.498391 22.855191 26.081233 0.366145 0.502652 0.070537 -0.012008 80305.400000 0 0 1
11.683515 3.182791 23.550891 26.481675 0.265963 0.474923 0.067985 -0.016121 -255366.000000 0 0 1
12.964215 3.030891 24.123791 27.553846 0.229664 0.504297 0.061375 -0.018658 144480.000000 0 0 1
13.100715 1.925491 24.973991 28.267233 0.145931 0.487523 0.056058 -0.015906 -231762.000000 0 0 1
14.605015 1.791791 25.265091 29.237677 0.122073 0.527382 0.055999 -0.014975 -232437.000000 0 0 1
15.373615 1.120191 24.321791 28.795006 0.072736 0.564880 0.034051 -0.010499 216706.000000 0 0 1
16.763215 1.199291 24.590891 29.785157 0.071421 0.599516 0.049973 -0.016481 153948.000000 0 0 1
17.553315 0.127391 23.801391 29.574335 0.007257 0.635460 0.049716 -0.013719 25196.900000 0 0 1
17.114015 -1.189309 24.004391 29.504487 -0.069382 0.620506 0.038250 -0.005468 340985.000000 0 0 1
18.084315 -2.077309 23.483791 29.712726 -0.114367 0.659398 0.027317 0.004059 71584.200000 0 0 1
17.789115 -3.518109 23.878391 29.983450 -0.195248 0.649501 0.030549 0.014822 -175720.000000 0 0 1
16.708015 -4.164509 23.265991 28.944900 -0.244275 0.637136 0.025823 0.015113 -29878.800000 0 0 1
16.786815 -5.573009 23.482291 29.398530 -0.320539 0.645569 0.048900 0.014386 87677.500000 0 0 1
15.894415 -6.546709 22.677591 28.456369 -0.390712 0.648609 0.048604 0.007969 -25302.300000 0 0 1
16.389915 -6.696909 21.357491 27.742032 -0.387898 0.692174 0.038424 0.006994 190329.000000 0 0 1
15.827515 -7.800709 20.699291 27.199668 -0.457917 0.705924 0.045672 -0.000660 -314089.000000 0 0 1
16.247115 -9.200009 21.193591 28.244950 -0.515237 0.722205 0.057061 -0.010365 -330730.000000 0 0 1
15.793815 -9.677609 22.404291 29.069795 -0.549739 0.690847 0.046769 -0.000138 -38057.900000 0 0 1
16.563315 -10.783009 22.886791 30.239409 -0.577090 0.712312 0.048317 -0.005951 195793.000000 0 0 1
15.922815 -11.501409 24.121391 31.107233 -0.625551 0.683405 0.066637 -0.023094 -216783.000000 0 0 1
14.858215 -12.324209 23.767491 30.619378 -0.692445 0.682142 0.058437 -0.017049 -330493.000000 0 0 1
14.462015 -13.188509 24.805191 31.597217 -0.739374 0.668030 0.069904 -0.006783 -288629.000000 0 0 1
13.558015 -14.305409 24.253791 31.252374 -0.812215 0.682398 0.059757 -0.004580 -390475.000000 0 0 1
14.125015 -15.240609 23.417491 31.307684 -0.823370 0.725784 0.044483 -0.006300 -214147.000000 0 0 1
13.078615 -16.066409 23.002691 30.956477 -0.887556 0.733157 0.037958 -0.001911 -538299.000000 0 0 1
13.241815 -16.700309 21.580791 30.331115 -0.900395 0.779156 0.033546 -0.010688 490024.000000 0 0 1
14.324915 -17.658209 21.588791 31.354289 -0.889244 0.811318 0.029987 -0.008671 735854.000000 0 0 1
14.455915 -18.154109 20.314991 30.842244 -0.898322 0.851741 0.021071 -0.009277 -43926.200000 0 0 1
-23.378785 -32.221848 26.758293 47.966877 0.943123 0.979004 0.043391 -0.022351 -416349.000000 0 0 1
-23.923785 -33.336748 27.368573 49.322662 0.948329 0.982568 0.047155 -0.020836 -698307.000000 0 0 1
-25.168655 -33.662248 26.861313 49.881242 0.928780 1.002134 0.028694 -0.017828 -611068.000000 0 0 1
-25.997365 34.209891 27.702623 51.123526 -0.920966 0.998128 0.010850 -0.016432 -521495.000000 0 0 1
-26.806105 -34.090748 28.708463 52.008867 0.904455 0.986045 0.020004 -0.015086 190280.000000 0 0 1
-26.166995 -33.753548 29.918373 52.145207 0.911338 0.959718 0.022067 -0.016519 712871.000000 0 0 1
-27.298335 -33.122048 30.852343 52.859590 0.881488 0.947560 0.011123 -0.016542 1150840.000000 0 0 1
-27.686895 -31.794048 30.458033 52.010743 0.854339 0.945163 -0.004400 -0.007403 445484.000000 0 0 1
-28.674425 -31.150448 31.261213 52.629236 0.826762 0.934787 0.005526 0.005212 -27047.700000 0 0 1
-28.932295 -29.656048 30.877553 51.671870 0.797751 0.930329 -0.003614 0.005261 -133772.000000 0 0 1
-29.710345 -29.389548 29.729733 51.286520 0.779970 0.952461 -0.005721 0.006801 288748.000000 0 0 1
-29.769565 -27.985748 29.652253 50.484504 0.754522 0.943011 -0.008433 0.012513 -354746.000000 0 0 1
-30.492465 -27.395648 28.458223 49.901727 0.731953 0.963943 -0.020817 0.006865 -403580.000000 0 0 1
-29.727975 -27.379448 27.260563 48.749615 0.744297 0.977381 0.001000 0.008068 341618.000000 0 0 1
-28.776965 -26.324548 27.262253 47.584934 0.740920 0.960735 -0.005727 0.008914 -374767.000000 0 0 1
-27.878885 -26.265548 26.023633 46.307027 0.755610 0.974018 0.004302 0.012320 -464342.000000 0 0 1
-28.496955 -26.217548 24.803613 45.985383 0.743762 1.001095 -0.004358 0.009455 55858.200000 0 0 1
-27.469745 -26.349348 23.824623 44.905319 0.764583 1.011544 0.014174 0.016876 260685.000000 0 0 1
-28.002325 -26.536148 22.392473 44.606280 0.758521 1.044883 -0.002513 0.017827 38268.300000 0 0 1
-28.703065 -25.373548 21.930373 44.143223 0.723905 1.050888 -0.005333 0.013354 441136.000000 0 0 1
-29.112325 -25.708348 20.588273 43.958203 0.723385 1.083362 -0.006215 0.011744 16886.900000 0 0 1
-29.780655 -24.583948 19.761973 43.379644 0.690098 1.097797 -0.005199 0.006585 1126160.000000 0 0 1
-31.066295 -24.118448 20.248073 44.235717 0.660156 1.095355 0.001207 0.003762 1207540.000000 0 0 1
-31.674995 -23.151048 19.410973 43.772848 0.631160 1.111355 0.011653 -0.002857 -387943.000000 0 0 1
-33.131815 -22.912148 19.820373 44.894664 0.605029 1.113542 0.016280 0.004452 -73495.900000 0 0 1
-34.024365 -23.949048 19.401373 45.908905 0.613325 1.134478 0.012625 0.001558 958595.000000 0 0 1
-35.383794 -23.493148 19.324373 46.662322 0.586121 1.143807 0.024429 -0.003201 836820.000000 0 0 1
34.979376 -24.502548 18.676973 46.612884 -0.611052 1.158535 0.033541 -0.007875 -91395.700000 0 0 1
34.717946 -25.643348 19.462173 47.346523 -0.636178 1.147182 0.031269 -0.006471 -84255.300000 0 0 1
34.046566 -26.590148 18.680973 47.065735 -0.663044 1.162646 0.026468 0.000821 3740.380000 0 0 1
33.468386 -27.872748 19.300473 47.639597 -0.694428 1.153670 0.015628 0.006701 432323.000000 0 0 1
32.341736 -27.793048 20.183873 47.178704 -0.709900 1.128720 0.008538 0.009995 416805.000000 0 0 1
32.593246 -27.318248 21.514973 47.660261 -0.697578 1.102436 0.010091 0.002104 131315.000000 0 0 1
31.263426 -27.112748 22.336873 47.025938 -0.714415 1.075843 0.013607 0.000924 339177.000000 0 0 1
30.475846 -26.274248 21.539673 45.640671 -0.711496 1.079306 0.015559 0.008735 -324973.000000 0 0 1
29.293066 -25.946848 22.267073 45.023829 -0.724896 1.053466 0.021242 0.001797 -51324.500000 0 0 1
28.505696 -24.838148 21.542173 43.515210 -0.716753 1.052905 0.023098 0.010192 -266186.000000 0 0 1
29.215926 -23.654448 21.165873 43.140438 -0.680593 1.057987 0.032854 0.006785 53937.800000 0 0 1
29.914906 -22.927448 22.150773 43.717573 -0.653929 1.039468 0.047984 -0.003806 -311628.000000 0 0 1
30.818526 -21.836048 21.509773 43.465675 -0.616432 1.053113 0.048028 -0.003304 63844.000000 0 0 1
30.156106 -20.748548 20.902573 42.152231 -0.602653 1.051945 0.056713 -0.009351 -617745.000000 0 0 1
31.094936 -19.785848 20.636373 42.240203 -0.566687 1.060371 0.052117 -0.014625 -1100480.000000 0 0 1
30.589576 -18.376648 20.264573 41.037498 -0.540970 1.054335 0.053653 -0.006891 -92045.300000 0 0 1
30.086686 -17.550348 21.312373 40.834307 -0.528069 1.021692 0.052081 -0.002423 113884.000000 0 0 1
28.894726 -17.942948 21.946473 40.478417 -0.555701 0.997770 0.066188 -0.013408 -618735.000000 0 0 1
29.003306 -17.830748 23.532873 41.387479 -0.551219 0.965995 0.053805 -0.008757 -67295.700000 0 0 1
28.924036 -16.496448 23.961193 41.022816 -0.518323 0.947033 0.047936 -0.005438 207367.000000 0 0 1
29.326546 -16.399748 25.303543 42.062660 -0.509888 0.925334 0.045241 -0.008765 -56897.300000 0 0 1
29.207876 -14.934248 25.769813 41.715885 -0.472654 0.904923 0.051221 -0.015233 450630.000000 0 0 1
27.829146 -14.560248 25.895533 40.706766 -0.482036 0.881301 0.051370 -0.018376 717214.000000 0 0 1
27.615296 -13.251848 26.375713 40.421458 -0.447417 0.859894 0.045309 -0.022945 -25227.400000 0 0 1
28.039876 -12.015548 25.527013 39.777336 -0.404845 0.874021 0.049876 -0.031680 -1980.090000 0 0 1
27.236256 -11.857848 24.343243 38.405933 -0.410621 0.884288 0.052720 -0.020353 425744.000000 0 0 1
27.692966 -10.831748 23.474673 37.885187 -0.372843 0.902529 0.051125 -0.014994 -469771.000000 0 0 1
28.793796 -11.286748 22.538673 38.268331 -0.373578 0.941020 0.052783 -0.035661 -757753.000000 0 0 1
28.382396 -12.185148 21.533073 37.652510 -0.405525 0.961989 0.056908 -0.038099 166114.000000 0 0 1
28.418926 -13.546548 21.988673 38.401121 -0.444813 0.961117 0.064437 -0.033405 -555111.000000 0 0 1
27.707566 -14.491748 21.037473 37.686805 -0.481897 0.978559 0.072220 -0.037631 -705051.000000 0 0 1
28.308806 -14.604148 19.773073 37.491920 -0.476276 1.015264 0.056826 -0.035984 -237428.000000 0 0 1
27.809876 -15.663848 19.048873 37.169946 -0.512957 1.032725 0.061645 -0.039840 -286297.000000 0 0 1
28.378806 -15.650448 17.611773 36.884519 -0.503982 1.073007 0.073481 -0.038743 -68193.600000 0 0 1
27.966996 -16.722848 16.750473 36.638571 -0.538910 1.095973 0.070893 -0.042321 423529.000000 0 0 1
26.595306 -16.845548 16.379373 35.487556 -0.564619 1.091052 0.069217 -0.037924 215599.000000 0 0 1
26.119956 -15.851148 15.225473 34.136872 -0.545448 1.108491 0.064350 -0.033010 -129874.000000 0 0 1
26.384136 -16.284248 13.924373 33.988050 -0.552970 1.148688 0.073343 -0.037331 186399.000000 0 0 1
25.540856 -17.350948 13.529373 33.711047 -0.596726 1.157824 0.065629 -0.039906 -227383.000000 0 0 1
25.888556 -17.764648 12.170573 33.673772 -0.601402 1.201000 0.050140 -0.021549 -332525.000000 0 0 1
25.395656 -16.909248 11.138773 32.479752 -0.587425 1.220746 0.057938 -0.022930 -22480.200000 0 0 1
25.442656 -17.443348 9.849673 32.382329 -0.600992 1.261731 0.038353 -0.022651 648839.000000 0 0 1
26.846466 -17.815548 9.245673 33.520277 -0.585883 1.291350 0.041734 -0.010390 933033.000000 0 0 1
27.516826 -18.963848 9.798373 34.825441 -0.603422 1.285589 0.039621 -0.000510 -491203.000000 0 0 1
28.851386 -19.036048 9.383173 35.816442 -0.583231 1.305724 0.036234 0.005352 107937.000000 0 0 1
29.766816 -19.767848 10.448673 37.229101 -0.586217 1.286316 0.035784 -0.007241 59223.600000 0 0 1
29.686336 -19.207648 11.749373 37.259362 -0.574277 1.249981 0.051216 -0.020523 347804.000000 0 0 1
30.113106 -20.163548 12.759373 38.420950 -0.590026 1.232273 0.013813 -0.014964 24431.400000 0 0 1
29.687556 -19.540348 14.116873 38.242153 -0.582118 1.192708 0.046235 -0.019476 125024.000000 0 0 1
29.548376 -20.436548 15.207973 39.013350 -0.605087 1.170366 0.045280 -0.018788 74993.600000 0 0 1
29.238646 -19.722548 16.391773 38.891741 -0.593432 1.135729 0.069163 -0.025876 -41768.800000 0 0 1
28.826606 -20.561448 17.577173 39.531043 -0.619583 1.110021 0.047856 -0.022728 -781970.000000 0 0 1
27.604656 -21.186148 17.465173 38.934588 -0.654598 1.105623 0.020603 -0.010209 -854509.000000 0 0 1
27.266576 -22.035048 18.570573 39.672102 -0.679681 1.083655 0.020535 -0.006384 347260.000000 0 0 1
25.965156 -22.850448 18.310273 39.135641 -0.721679 1.083921 0.013928 0.005304 675499.000000 0 0 1
24.789756 -22.112448 18.647873 38.095085 -0.728377 1.059270 0.022491 -0.003723 1296130.000000 0 0 1
23.607356 -22.983248 18.587173 37.828824 -0.772003 1.057158 0.022306 0.000181 1031260.000000 0 0 1
22.443956 -22.397648 19.412373 37.178300 -0.784365 1.021435 0.006736 -0.002393 -213459.000000 0 0 1
21.938256 -21.169848 18.848373 35.842861 -0.767575 1.017069 0.012367 -0.008168 991764.000000 0 0 1
20.860056 -20.534648 19.608273 35.232060 -0.777537 0.980573 0.014158 -0.004508 988723.000000 0 0 1
21.263456 -20.022148 21.001573 35.973421 -0.755341 0.947385 0.001526 0.004019 -200652.000000 0 0 1
21.364756 -21.142548 21.874273 37.174507 -0.780171 0.941691 0.007924 0.005129 -68603.800000 0 0 1
21.865656 -20.691348 23.131673 37.964629 -0.757811 0.915625 0.007834 0.002886 144290.000000 0 0 1
22.298956 -21.696148 24.199313 39.415391 -0.771697 0.909734 0.008930 0.000072 305102.000000 0 0 1
21.235556 -22.588848 24.572233 39.560075 -0.816268 0.900603 0.003480 0.006493 614713.000000 0 0 1
21.645056 -23.471048 25.611693 40.931129 -0.825849 0.894734 0.003395 0.006710 513039.000000 0 0 1
20.430256 -24.268148 26.243553 41.171136 -0.871050 0.879643 0.015301 -0.002956 587186.000000 0 0 1
19.892756 -25.348848 25.506583 41.095883 -0.905418 0.901212 0.020296 -0.002149 279137.000000 0 0 1
19.012356 -26.116348 26.300013 41.656020 -0.941533 0.887489 0.032965 -0.005296 249059.000000 0 0 1
18.227256 -27.267448 25.531743 41.564606 -0.981552 0.909340 0.046156 -0.005335 317643.000000 0 0 1
17.489656 -26.695548 24.446873 40.201865 -0.990807 0.917128 0.039569 -0.011324 361329.000000 0 0 1
16.765556 -27.754848 23.839273 40.245824 -1.027398 0.936834 0.046935 -0.014406 -598912.000000 0 0 1
15.956856 -27.202048 22.667073 38.837725 -1.040284 0.947598 0.034611 -0.021220 -49843.400000 0 0 1
14.743256 -26.620548 23.136873 38.227373 -1.065017 0.920724 0.023694 -0.013615 56513.000000 0 0 1
14.140356 -25.953248 22.063873 36.882723 -1.071924 0.929522 0.006256 -0.010080 207973.000000 0 0 1
12.732056 -25.326348 22.309873 36.072976 -1.104975 0.904009 0.001251 -0.002703 458240.000000 0 0 1
11.681856 -26.264348 22.236373 36.341959 -1.152292 0.912380 0.010092 -0.007745 -454208.000000 0 0 1
10.451756 -25.597548 22.388773 35.577111 -1.183146 0.890141 0.019793 -0.003655 -117375.000000 0 0 1
9.254356 -26.556848 22.410773 35.960423 -1.235482 0.897960 0.029084 -0.006011 -268354.000000 0 0 1
8.966356 -27.320948 21.238873 35.747999 -1.253685 0.934616 0.042423 -0.007247 1390660.000000 0 0 1
7.590756 -27.787248 21.190873 35.760367 -1.304128 0.936539 0.038879 -0.003072 1229200.000000 0 0 1
7.229956 -28.652048 19.981573 35.671773 -1.323620 0.976228 0.044395 -0.001913 -24079.800000 0 0 1
7.978256 -29.851448 19.976073 36.794089 -1.309635 0.996892 0.051456 -0.006325 217540.000000 0 0 1
7.463056 -30.764048 19.051373 36.946971 -1.332804 1.029041 0.038956 -0.001400 204671.000000 0 0 1
8.240356 -32.126748 18.986673 38.216818 -1.319714 1.050872 0.037544 -0.002884 14588.700000 0 0 1
7.840256 -33.059348 20.004073 39.427821 -1.337941 1.038679 0.037094 -0.006384 315813.000000 0 0 1
8.754656 -34.132948 20.072773 40.553894 -1.319722 1.053001 0.026088 -0.012303 -212538.000000 0 0 1
8.421556 33.589991 21.053673 40.527364 1.325144 1.024539 0.040447 -0.022025 899323.000000 0 0 1
7.245756 32.801091 20.686473 39.450509 1.353388 1.018827 0.038186 -0.016862 1065330.000000 0 0 1
7.246156 31.561591 21.339673 38.781728 1.345119 0.988132 0.044205 -0.029612 -377086.000000 0 0 1
6.262856 30.492791 20.906373 37.498134 1.368225 0.979388 0.051465 -0.030044 -45141.600000 0 0 1
4.907856 30.679291 21.270673 37.652987 1.412167 0.970468 0.050109 -0.030416 34101.500000 0 0 1
4.126656 29.558191 20.884273 36.426210 1.432082 0.960231 0.046673 -0.026140 822579.000000 0 0 1
2.702656 29.566691 21.548873 36.685794 1.479641 0.942966 0.031097 -0.021086 473083.000000 0 0 1
2.608956 29.076191 22.850373 37.072511 1.481308 0.906672 0.028281 -0.027438 -320820.000000 0 0 1
1.272056 28.812491 23.190373 37.007717 1.526676 0.893567 0.018518 -0.014203 -254042.000000 0 0 1
1.104456 28.259891 24.571863 37.464886 1.531734 0.855470 0.030610 -0.021626 -291049.000000 0 0 1
1.180556 29.175291 25.654023 38.867984 1.530354 0.849938 0.029389 -0.024214 105825.000000 0 0 1
1.082256 28.663191 26.937943 39.349746 1.533057 0.816773 0.032264 -0.022949 -432332.000000 0 0 1
2.351056 28.042591 27.523943 39.363457 1.487153 0.796482 0.023433 -0.025266 -459601.000000 0 0 1
2.850156 26.827791 26.944183 38.129289 1.464954 0.786039 0.028497 -0.022986 232682.000000 0 0 1
3.893556 26.329891 27.755933 38.455360 1.423984 0.764440 0.013050 -0.012940 -41196.500000 0 0 1
4.566456 25.080291 27.178403 37.263106 1.390696 0.753403 0.009363 0.003286 -423527.000000 0 0 1
3.603756 24.035791 27.035583 36.354216 1.421972 0.732251 0.026562 0.001841 80284.700000 0 0 1
4.164356 22.774691 26.813343 35.425750 1.389944 0.712257 0.031802 0.013396 40599.100000 0 0 1
3.112456 21.641591 26.769303 34.563585 1.427957 0.684881 0.027018 0.011775 -49496.100000 0 0 1
3.684356 20.390991 26.846353 33.913030 1.392039 0.657335 0.046403 0.012296 -72684.400000 0 0 1
4.036556 19.777491 25.631723 32.625575 1.369463 0.667078 0.050353 0.009797 -453509.000000 0 0 1
4.287256 18.261591 25.845933 31.935536 1.340203 0.627810 0.039804 0.003764 507128.000000 0 0 1
5.435856 17.941691 26.658533 32.590338 1.276614 0.612890 0.023917 0.008589 451397.000000 0 0 1
6.611156 17.909791 25.873883 32.154716 1.217176 0.635680 0.026916 0.004475 -766167.000000 0 0 1
7.870956 17.818891 26.790773 33.124165 1.154850 0.628690 0.018061 -0.000224 156549.000000 0 0 1
8.269256 19.069091 27.406113 34.396305 1.161624 0.648857 0.010040 -0.004072 182716.000000 0 0 1
8.608156 20.157491 26.553773 34.431492 1.167195 0.690063 0.003860 -0.005598 -499455.000000 0 0 1
9.236156 21.370491 27.275983 35.860615 1.162850 0.706542 -0.005330 -0.001831 35543.700000 0 0 1
10.421756 21.025991 27.957563 36.501104 1.110626 0.698298 0.007690 -0.025959 -285203.000000 0 0 1
10.534256 21.733991 29.146463 37.853047 1.119471 0.691971 0.002274 -0.016768 791386.000000 0 0 1
11.795056 21.209391 29.974203 38.567012 1.063263 0.680596 0.011572 -0.020146 423605.000000 0 0 1
12.998056 21.640591 29.435613 38.777828 1.029911 0.708892 0.012581 -0.010345 -1515780.000000 0 0 1
13.999556 21.485691 30.369623 39.748414 0.993314 0.701235 0.010950 0.004097 -88356.000000 0 0 1
15.448256 21.630991 29.818903 39.946406 0.950622 0.728051 0.003838 0.000717 311625.000000 0 0 1
15.893756 22.933291 29.867143 40.872895 0.964755 0.751402 0.015527 -0.013279 -24830.000000 0 0 1
17.162256 23.105691 29.260833 41.044029 0.931937 0.777152 0.021828 0.010097 213782.000000 0 0 1
-8.501485 16.801191 4.564891 19.375074 -1.102356 1.332954 0.023861 -0.019249 -70129.300000 0 1 0
-8.310085 18.129391 4.865091 20.528064 -1.140998 1.331523 0.025490 -0.020581 322258.000000 0 1 0
-6.995285 18.440591 5.308191 20.424649 -1.208225 1.307887 0.016688 -0.012030 53785.600000 0 1 0
-6.819585 19.893991 5.847891 21.828317 -1.240553 1.299580 0.016112 -0.010529 -173900.000000 0 1 0
-6.959185 20.999791 4.986291 22.677843 -1.250793 1.349110 0.013533 -0.013999 77286.400000 0 1 0
-8.276485 21.237291 4.497791 23.232581 -1.199188 1.375968 0.008744 -0.016768 133304.000000 0 1 0
-8.540385 22.376291 3.478091 24.201935 -1.206190 1.426586 0.033547 -0.019518 -126632.000000 0 1 0
-7.995485 22.128891 2.163791 23.628321 -1.224078 1.479092 0.018260 -0.018169 -141437.000000 0 1 0
-8.595685 21.084891 1.404991 22.812988 -1.183695 1.509170 0.036675 -0.017512 -843798.000000 0 1 0
-8.021485 21.053491 -0.051409 22.529899 -1.206771 1.573078 0.015910 -0.004977 158638.000000 0 1 0
-6.711185 20.581691 -0.233709 21.649494 -1.255592 1.581592 0.018902 -0.004716 -251936.000000 0 1 0
-5.728285 21.483491 0.259891 22.235583 -1.310222 1.559108 0.020681 -0.008479 -1427250.000000 0 1 0
-4.336085 21.125491 -0.217409 21.566994 -1.368354 1.580877 0.023120 -0.007119 -782298.000000 0 1 0
-4.208085 21.565391 -1.518509 22.024530 -1.378086 1.639797 0.016650 -0.007051 -475445.000000 0 1 0
-2.898585 21.776591 -1.962309 22.056118 -1.438469 1.659883 0.018282 0.003174 -483462.000000 0 1 0
-2.798085 22.022591 -3.474809 22.469937 -1.444418 1.726062 0.015722 0.007129 33022.800000 0 1 0
-1.527085 22.408691 -3.953209 22.805904 -1.502755 1.745018 0.028180 0.008140 41381.100000 0 1 0
-1.651685 22.738691 -5.348209 23.417503 -1.498286 1.801215 0.029803 -0.004909 631284.000000 0 1 0
-0.347285 23.281291 -6.024509 24.050651 -1.555881 1.823985 0.028703 -0.009647 121390.000000 0 1 0
0.695615 22.365891 -6.152609 23.207144 1.539705 1.839122 0.028722 0.001026 309003.000000 0 1 0
1.818315 22.990891 -6.842609 24.056363 1.491872 1.859219 0.025179 -0.002397 360543.000000 0 1 0
3.025315 22.059891 -6.850009 23.296221 1.434506 1.869247 0.016130 0.005749 -720542.000000 0 1 0
2.895815 20.926791 -7.670909 22.475746 1.433291 1.919093 0.017812 -0.008537 -249574.000000 0 1 0
3.994315 20.044691 -7.568809 21.795207 1.374102 1.925454 0.020951 -0.006423 132889.000000 0 1 0
4.001215 18.824391 -8.554609 21.060597 1.361358 1.989077 0.009647 -0.012813 34467.900000 0 1 0
4.256515 19.014391 -9.958409 21.882296 1.350570 2.043269 0.016448 -0.024818 531936.000000 0 1 0
3.018515 19.102091 -10.683009 22.093619 1.414072 2.075484 0.016680 -0.022034 -92347.500000 0 1 0
3.081815 19.235291 -12.185209 22.977670 1.411930 2.129758 0.026125 -0.032941 -62114.400000 0 1 0
3.475415 20.540291 -12.505409 24.297475 1.403184 2.111430 0.044186 -0.030319 -51909.700000 0 1 0
3.489215 20.767591 -13.908209 25.236991 1.404338 2.154483 0.049292 -0.019058 -32542.800000 0 0 1
3.998315 22.192491 -14.245409 26.672548 1.392543 2.134221 0.042531 -0.015368 213560.000000 0 0 1
2.976915 23.129291 -14.624709 27.526500 1.442792 2.130925 0.055555 -0.020980 -434226.000000 0 0 1
3.467715 24.384791 -15.015409 28.846240 1.429535 2.118271 0.044003 -0.024946 -383347.000000 0 0 1
2.394115 25.373091 -15.516009 29.837427 1.476718 2.117669 0.048959 -0.020165 271562.000000 0 0 1
1.556415 25.840291 -14.440009 29.642148 1.510637 2.079613 0.055930 -0.031244 228781.000000 0 0 1
1.587315 27.240691 -14.408109 30.857226 1.512592 2.056610 0.033856 -0.026644 -395662.000000 0 0 1
0.582515 27.771691 -13.337009 30.813665 1.549824 2.018424 0.036346 -0.024515 1535400.000000 0 0 1
-0.840585 27.662491 -13.584809 30.829645 -1.540418 2.027109 0.042088 -0.032680 1176170.000000 0 0 1
-1.479685 26.389891 -13.560009 29.706727 -1.514785 2.044812 0.042312 -0.034716 -216310.000000 0 0 1
-1.410985 25.450391 -12.295209 28.299919 -1.515412 2.020236 0.056480 -0.032551 -542554.000000 0 0 1
-2.141885 25.872991 -11.155409 28.256724 -1.488200 1.976633 0.041783 -0.026602 116371.000000 0 0 1
-2.559485 24.664691 -10.486109 26.923158 -1.467395 1.970866 0.067763 -0.017090 174955.000000 0 0 1
-3.385285 24.633091 -9.165309 26.500041 -1.434223 1.923952 0.036286 -0.014366 -54238.300000 0 0 1
-2.766785 25.038291 -7.965009 26.419926 -1.460741 1.877038 0.041284 -0.014095 -118003.000000 0 0 1
-2.276385 26.377891 -7.894109 27.627740 -1.484711 1.860566 0.036490 -0.017097 110068.000000 0 0 1
-2.100685 26.872991 -6.391809 27.702450 -1.492784 1.803625 0.032654 -0.009344 579727.000000 0 0 1
-1.013185 26.298691 -5.645209 26.916836 -1.532289 1.782093 0.032309 -0.010842 322897.000000 0 0 1
-0.952385 26.719991 -4.308109 27.081816 -1.535168 1.730553 0.032941 -0.015386 -932818.000000 0 0 1
-1.840485 25.888691 -3.435409 26.180407 -1.499823 1.702396 0.036656 -0.009235 -279845.000000 0 0 1
-3.220685 26.119691 -3.626109 26.566139 -1.448111 1.707717 0.019826 -0.007322 -106308.000000 0 0 1
-4.006785 25.555091 -2.581109 25.995752 -1.415272 1.670250 0.020550 -0.000794 1230360.000000 0 0 1
-5.301885 24.826991 -3.188809 25.586284 -1.360403 1.695751 0.015963 -0.002648 443816.000000 0 0 1
-6.324185 25.703491 -3.544309 26.706308 -1.329545 1.703903 0.001740 -0.000444 -1199810.000000 0 0 1
-7.355385 24.892591 -4.024009 26.266622 -1.283487 1.724601 0.000484 0.000574 -1450110.000000 0 0 1
-8.631385 25.655091 -4.068009 27.372124 -1.246253 1.719968 0.003576 0.002264 -1390620.000000 0 0 1
-9.248685 25.836791 -2.831909 27.587998 -1.227043 1.673628 0.007836 -0.001798 -1078310.000000 0 0 1
-10.498985 26.430291 -2.978509 28.594763 -1.192678 1.675148 0.024008 -0.004264 -512387.000000 0 0 1
-11.282185 26.497991 -1.668309 28.848128 -1.168269 1.628659 0.029004 -0.004433 -38101.900000 0 0 1
-11.889185 25.319191 -1.119709 27.994069 -1.131786 1.610805 0.036829 -0.006812 -88090.400000 0 0 1
-10.983585 24.288891 -0.863009 26.670848 -1.146109 1.603160 0.035809 -0.007814 -463664.000000 0 0 1
-11.625685 22.988591 -0.428509 25.764617 -1.102587 1.587429 0.044403 -0.013535 -202610.000000 0 0 1
-12.165185 22.987691 0.871191 26.022771 -1.084059 1.537312 0.055140 -0.017354 -245397.000000 0 0 1
-12.791385 21.804591 1.205991 25.308380 -1.040260 1.523126 0.060887 -0.023982 -176303.000000 0 0 1
-13.689885 21.936791 2.472191 25.975902 -1.012873 1.475480 0.063660 -0.029920 -50769.200000 0 0 1
-12.993585 21.919791 3.700291 25.748837 -1.035704 1.426590 0.060680 -0.026404 117402.000000 0 0 1
-12.224485 23.085291 3.977191 26.423223 -1.083800 1.419703 0.058320 -0.024343 19022.500000 0 0 1
-11.885185 23.212391 5.492891 26.650414 -1.097580 1.363199 0.046913 -0.023331 -616237.000000 0 0 1
-10.734785 22.569091 5.924491 25.684607 -1.126825 1.338037 0.036075 -0.020336 -537850.000000 0 0 1
-10.928785 22.213591 7.288391 25.807026 -1.113580 1.284482 0.029816 -0.025196 -157209.000000 0 0 1
-9.584485 21.845991 7.948591 25.145372 -1.157354 1.249175 0.025838 -0.025983 -108657.000000 0 0 1
-8.838685 22.952591 8.359091 25.977262 -1.203214 1.243182 0.026403 -0.027873 181303.000000 0 0 1
-7.719685 22.645991 9.196991 25.632383 -1.242264 1.203811 0.024724 -0.025432 117890.000000 0 0 1
-7.963685 22.457391 10.703491 26.121244 -1.230018 1.148603 0.032860 -0.027933 -143367.000000 0 0 1
-8.804185 21.329591 10.931591 25.533601 -1.179331 1.128379 0.035783 -0.023219 130563.000000 0 0 1
-8.517985 20.817491 12.236991 25.606013 -1.182406 1.072539 0.028765 -0.010869 383911.000000 0 0 1
-9.645685 19.823291 12.714791 25.449322 -1.117939 1.047645 0.029827 -0.006198 156817.000000 0 0 1
-9.861385 18.748991 11.832191 24.264631 -1.086590 1.061422 0.040630 -0.019747 -211647.000000 0 1 0
-10.405585 17.633891 12.539691 24.009876 -1.037695 1.021283 0.029832 -0.013392 77925.600000 0 1 0
-10.880485 16.492991 11.571191 22.897514 -0.987630 1.041012 0.030344 -0.022338 87448.100000 0 1 0
-11.235385 15.258591 12.234491 22.555293 -0.936100 0.997479 0.016575 -0.013438 48790.000000 0 1 0
-11.671485 14.334391 11.264691 21.646976 -0.887439 1.023498 0.013516 -0.011965 87083.300000 0 1 0
-11.898785 12.938491 11.864291 21.207240 -0.827234 0.977080 0.009786 -0.010828 282579.000000 0 1 0
-12.841285 12.961191 12.925791 22.359945 -0.790045 0.954425 0.010793 -0.002586 174033.000000 0 1 0
-13.122485 11.647091 13.423691 22.091849 -0.725904 0.917722 0.003506 0.003841 -19783.500000 0 1 0
-13.854085 11.789691 14.779791 23.438743 -0.705069 0.888508 -0.004463 0.010161 840391.000000 0 1 0
-15.198185 12.240091 14.593891 24.367731 -0.678004 0.928667 0.009211 0.001303 988119.000000 0 1 0
-16.019685 12.389691 15.803491 25.688228 -0.658312 0.908152 0.013858 0.000110 388118.000000 0 0 1
-16.977185 13.571491 15.573791 26.738607 -0.674372 0.949062 0.026671 -0.003806 -153460.000000 0 0 1
-18.020585 13.281091 14.639891 26.747995 -0.635126 0.991630 0.029604 -0.007068 -117754.000000 0 0 1
-18.930585 14.330991 14.566491 27.855466 -0.647984 1.020510 0.056875 -0.010940 -752576.000000 0 0 1
-20.171185 14.032391 13.768991 28.166821 -0.607811 1.060040 0.053493 -0.012547 50221.600000 0 0 1
-21.218685 13.304891 14.459691 28.919463 -0.560062 1.047199 0.059519 -0.011264 1093780.000000 0 0 1
-22.262385 12.907391 13.566391 29.090574 -0.525423 1.085636 0.049413 -0.012811 45070.200000 0 0 1
-23.315285 11.968891 14.127191 29.773048 -0.474270 1.076405 0.054151 -0.019109 -527300.000000 0 0 1
-24.102685 12.602491 15.066491 31.092786 -0.481773 1.064930 0.043209 -0.016035 -248202.000000 0 0 1
-24.993885 11.680091 15.667091 31.726590 -0.437162 1.054324 0.047472 -0.018495 -365462.000000 0 0 1
-25.749835 12.223291 16.850191 33.111807 -0.443199 1.036904 0.038784 -0.014530 -168734.000000 0 0 1
-26.921535 13.003791 16.623991 34.208547 -0.449976 1.063335 0.043138 -0.011050 392958.000000 0 0 1
-27.290365 13.513391 17.875491 35.311598 -0.459777 1.039999 0.023846 0.003934 86234.100000 0 0 1
-28.375975 14.619191 17.780891 36.538702 -0.475730 1.062566 0.015069 -0.004205 453302.000000 0 0 1
-27.850115 15.877591 17.302691 36.429520 -0.518151 1.075874 0.018351 -0.002418 587856.000000 0 0 1
-28.956185 16.780891 17.275291 37.662908 -0.525230 1.094285 0.027032 -0.005492 92997.800000 0 0 1
-28.517595 18.241491 17.074091 37.914770 -0.569070 1.103663 0.031886 -0.008646 -413034.000000 0 0 1
-27.758565 18.862091 18.064491 38.113544 -0.596838 1.077008 0.022715 -0.009218 -197657.000000 0 0 1
-28.332765 18.937491 19.351991 39.190224 -0.589198 1.054346 0.023965 -0.010337 173617.000000 0 0 1
-27.243035 19.064691 20.514991 39.070580 -0.610592 1.017993 0.006728 -0.011801 981503.000000 0 0 1
-26.797985 17.898991 21.239491 38.595619 -0.588872 0.988063 0.008512 -0.003518 294506.000000 0 0 1
-25.929635 17.096391 20.409691 37.164338 -0.582912 0.989421 0.022062 -0.002100 -13736.800000 0 0 1
-25.546965 15.824191 21.176291 36.762586 -0.554574 0.956935 0.004133 0.001585 380043.000000 0 0 1
-26.733075 15.104091 21.492091 37.479339 -0.514284 0.960100 -0.002765 0.006109 787055.000000 0 0 1
-26.363075 13.776791 21.911691 36.945012 -0.481547 0.935906 0.000942 0.010768 184141.000000 0 0 1
-27.661155 12.969291 22.098791 37.705418 -0.438429 0.944571 -0.001410 0.006379 732364.000000 0 0 1
-28.506265 12.801591 20.926191 37.608421 -0.422089 0.980722 0.001024 -0.005818 601805.000000 0 0 1
-29.533445 11.841991 21.094991 38.176639 -0.381341 0.985360 0.020845 -0.004376 -190642.000000 0 0 1
-30.305635 11.650591 19.780391 38.018833 -0.367018 1.023619 0.036080 -0.002555 -392924.000000 0 0 1
-29.623535 11.199991 18.601691 36.728960 -0.361466 1.039724 0.047861 -0.012669 166705.000000 0 0 1
-29.163885 9.864591 18.606291 35.972717 -0.326166 1.027181 0.052041 -0.007469 -59994.100000 0 0 1
-28.367545 9.432091 17.326991 34.552953 -0.320997 1.045509 0.060608 -0.010936 116870.000000 0 0 1
-29.100055 9.258291 16.106491 34.524603 -0.308027 1.085442 0.059282 -0.010717 279466.000000 0 0 1
-29.631405 10.402491 15.463591 35.005066 -0.337622 1.113245 0.061343 -0.011605 -205748.000000 0 0 1
-28.648695 11.354991 14.726091 34.154667 -0.377358 1.125019 0.047950 -0.006748 -514422.000000 0 0 1
-28.464265 10.902691 13.402191 33.297174 -0.365793 1.156548 0.045682 -0.017957 -212963.000000 0 0 1
-27.559515 11.784291 12.838591 32.607143 -0.404066 1.166104 0.045860 -0.025074 -502324.000000 0 0 1
-27.285655 11.518091 11.300891 31.699898 -0.399437 1.206281 0.058678 -0.016193 -455159.000000 0 0 1
-26.607675 10.373091 10.920291 30.574861 -0.371729 1.205565 0.069760 -0.008652 384764.000000 0 0 1
-27.419975 9.201991 10.908291 30.911527 -0.323784 1.210141 0.067197 -0.005835 -34974.400000 0 0 1
-26.693065 7.986491 10.277191 29.697212 -0.290720 1.217422 0.063869 -0.013715 -246608.000000 0 0 1
-26.337515 8.233791 8.952091 29.010342 -0.303000 1.257094 0.068631 -0.008271 493963.000000 0 0 1
-25.800045 7.056791 8.305691 28.007590 -0.266988 1.269717 0.077480 -0.018320 -152894.000000 0 0 1
-25.183915 7.396391 6.963991 27.155724 -0.285662 1.311452 0.067695 -0.004092 104760.000000 0 0 1
-26.136275 7.815091 5.974491 27.926243 -0.290551 1.355192 0.069857 -0.009734 200231.000000 0 0 1
-25.436645 8.233191 4.857191 27.173528 -0.313032 1.391083 0.062295 -0.001465 -154751.000000 0 0 1
-26.272565 8.557391 3.583691 27.862510 -0.314879 1.441818 0.060105 -0.000280 -324154.000000 0 0 1
-26.930815 7.447991 2.943891 28.096403 -0.269816 1.465825 0.083666 -0.012453 131834.000000 0 0 1
-26.224045 6.319691 2.420891 27.083200 -0.236479 1.481290 0.078224 -0.009425 -148443.000000 0 0 1
-25.138095 6.676291 1.361691 26.045170 -0.259592 1.518491 0.076354 -0.009567 527888.000000 0 0 1
-23.918785 7.207391 1.889291 25.052429 -0.292674 1.495311 0.047638 -0.002086 826993.000000 0 0 1
-22.945685 7.253191 0.840791 24.079455 -0.306164 1.535872 0.051204 0.000289 1021080.000000 0 1 0
-21.711885 8.159391 1.288091 23.230170 -0.359474 1.515319 0.019705 0.000116 749865.000000 0 1 0
-22.135185 9.520991 1.191591 24.125413 -0.406207 1.521385 0.022314 0.001441 818016.000000 0 1 0
-21.152485 10.459991 1.641091 23.654433 -0.459241 1.501363 0.033949 0.001067 -240350.000000 0 1 0
-21.608085 11.791491 2.216091 24.715575 -0.499534 1.481012 0.032876 -0.002911 -163091.000000 0 1 0
-20.569085 12.747591 2.209891 24.299629 -0.554812 1.479727 0.031787 -0.002942 296719.000000 0 1 0
-21.144485 13.911991 2.811091 25.466350 -0.581943 1.460186 0.034260 -0.005285 119219.000000 0 0 1
-20.233585 14.650091 3.802791 25.268248 -0.626684 1.419726 0.030931 0.004278 -173453.000000 0 0 1
-20.042585 13.875991 4.963691 24.877431 -0.605557 1.369922 0.034721 0.002254 298397.000000 0 1 0
-19.139585 14.552291 5.822991 24.738636 -0.650076 1.333186 0.021712 -0.001482 -33619.100000 0 1 0
-18.610285 13.627091 6.984291 24.100220 -0.632034 1.276776 0.017725 -0.002117 437030.000000 0 1 0
-17.478085 12.911891 6.499291 22.681295 -0.636260 1.280174 0.006237 0.000997 4319.700000 0 1 0
-16.806185 12.162591 7.410391 22.029307 -0.626454 1.227718 0.001224 0.000404 -702036.000000 0 1 0
10.572115 -33.101248 -14.458009 37.636369 -1.261649 1.965083 0.038914 -0.015655 -533775.000000 0 0 1
11.551815 -32.971948 -13.467809 37.442966 -1.233807 1.938731 0.029686 -0.013207 -763976.000000 0 0 1
12.349915 -31.877748 -13.709109 36.832742 -1.201186 1.952173 0.023720 -0.017111 -146458.000000 0 0 1
13.725115 -31.944048 -12.982809 37.112724 -1.164984 1.928176 0.033187 -0.011244 22310.800000 0 0 1
14.623915 -32.857548 -13.564009 38.437738 -1.152050 1.931446 0.022191 -0.011170 214463.000000 0 0 1
15.917815 -32.247748 -13.515709 38.418335 -1.112274 1.930294 0.027115 -0.008063 253596.000000 0 0 1
17.065115 -33.067248 -14.113409 39.797605 -1.094373 1.933314 0.026945 -0.010951 -145942.000000 0 0 1
17.373515 -34.096348 -13.251809 40.497042 -1.099544 1.904166 0.028809 -0.016510 -655000.000000 0 0 1
18.010415 33.744391 -13.932209 40.708296 1.080530 1.920101 0.019946 -0.005945 -448739.000000 0 0 1
17.923815 32.409791 -13.179309 39.310964 1.065624 1.912675 0.018208 -0.013448 -143576.000000 0 0 1
18.762215 32.306691 -12.038509 39.251352 1.044649 1.882524 0.025963 -0.017051 -78275.600000 0 0 1
18.561215 31.122291 -11.319909 37.963878 1.033031 1.873577 0.025174 -0.017206 -114566.000000 0 0 1
19.560715 30.914891 -10.172809 37.971543 1.006659 1.842015 0.034818 -0.015737 -449846.000000 0 0 1
20.865915 30.643391 -10.560409 38.547711 0.972986 1.848301 0.036501 -0.015939 -273955.000000 0 0 1
21.684015 30.247591 -9.452209 38.398665 0.948828 1.819512 0.027550 -0.006304 -242508.000000 0 0 1
22.876315 29.370591 -9.772109 38.489628 0.909064 1.827496 0.013418 0.005360 -9614.830000 0 0 1
23.978715 30.144091 -10.251609 39.859007 0.898824 1.830917 0.019114 -0.004209 380575.000000 0 0 1
25.205215 29.428891 -10.177809 40.061830 0.862553 1.827664 0.015233 0.006938 352440.000000 0 0 1
26.309615 30.032391 -11.069009 41.432635 0.851377 1.841238 0.026804 0.003181 -201067.000000 0 0 1
26.779315 31.272691 -10.586409 42.510998 0.862647 1.822472 0.017264 -0.009535 252151.000000 0 0 1
27.846815 31.659191 -11.446709 43.689548 0.849378 1.835891 0.015323 -0.003536 187165.000000 0 0 1
28.270515 33.137091 -11.321509 45.005170 0.864483 1.825088 0.007340 -0.006462 -499836.000000 0 0 1
27.527615 34.040091 -12.118509 45.424174 0.890784 1.840852 0.029927 -0.009799 9260.290000 0 0 1
27.718315 -33.434048 -11.724109 44.984389 -0.878594 1.834467 0.042943 -0.011980 -94810.200000 0 0 1
26.594815 -32.484348 -12.225209 43.726111 -0.884759 1.854159 0.044447 -0.015949 -661538.000000 0 0 1
25.400315 -32.742748 -11.557009 43.021251 -0.911015 1.842772 0.041112 -0.019889 -802160.000000 0 0 1
24.356815 -31.853248 -11.908009 41.829231 -0.917980 1.859471 0.037211 -0.023281 138918.000000 0 0 1
24.456215 -30.360448 -11.409809 40.620771 -0.892693 1.855514 0.053007 -0.017007 -394905.000000 0 0 1
25.326315 -29.579448 -12.233509 40.816966 -0.862706 1.875192 0.037885 -0.012957 4463.220000 0 0 1
25.561115 -28.327048 -11.620609 39.885220 -0.836680 1.866435 0.032392 -0.001976 -508392.000000 0 0 1
26.487115 -27.429248 -12.469909 40.117696 -0.802870 1.886866 0.017383 0.009674 498146.000000 0 0 1
27.789815 -27.977148 -12.683609 41.423044 -0.788757 1.881992 0.009341 0.010840 238147.000000 0 0 1
27.899615 -28.963248 -13.720709 42.491365 -0.804101 1.899595 0.013432 -0.002968 -315937.000000 0 0 1
29.258215 -29.663848 -14.026709 43.962889 -0.792282 1.895532 0.009053 0.002642 285971.000000 0 0 1
29.576215 -30.747448 -13.185409 44.654373 -0.804812 1.870542 0.008184 -0.000626 382110.000000 0 0 1
30.742415 -31.395548 -13.696409 46.025733 -0.795909 1.872955 0.014991 -0.007314 166251.000000 0 0 1
31.312715 -32.469648 -12.767009 46.880280 -0.803535 1.846612 0.016646 0.002384 26048.500000 0 0 1
32.294515 -33.265148 -13.425809 48.267568 -0.800202 1.852668 0.010206 0.002278 -178911.000000 0 0 1
33.096915 -34.050648 -12.595609 49.127404 -0.799601 1.830078 0.014563 0.005777 -313920.000000 0 0 1
32.482315 33.662591 -11.756709 48.233712 0.803240 1.817021 0.010632 -0.002702 -357391.000000 0 0 1
31.993315 34.142291 -10.534609 47.960882 0.817880 1.792252 0.014419 -0.006602 -246461.000000 0 0 1
31.488915 33.051191 -9.810209 46.692324 0.809600 1.782477 0.018901 -0.002564 -748957.000000 0 0 1
30.736715 33.442791 -8.523609 46.214909 0.827537 1.756292 0.008831 0.000024 -213015.000000 0 0 1
29.573415 34.209791 -8.753509 46.059967 0.857960 1.762005 0.009694 -0.009199 -342107.000000 0 0 1
28.939815 -34.261548 -7.543409 45.478232 -0.869403 1.737435 0.005519 -0.005050 262715.000000 0 0 1
27.891215 -33.176748 -7.840609 44.046471 -0.871735 1.749758 0.008620 -0.011414 -404395.000000 0 0 1
28.504615 -31.924948 -8.066209 43.552028 -0.841938 1.757080 0.003171 -0.013409 -227466.000000 0 0 1
27.652715 -30.939748 -8.579309 42.373874 -0.841439 1.774673 0.013597 -0.013011 -205412.000000 0 0 1
26.672915 -30.332648 -7.576109 41.096367 -0.849510 1.756207 0.031490 -0.014464 -119589.000000 0 0 1
25.637815 -29.668948 -8.259809 40.072041 -0.858156 1.778409 0.033750 -0.020875 320035.000000 0 0 1
24.650715 -29.164848 -7.326909 38.883540 -0.869084 1.760362 0.039051 -0.027131 613467.000000 0 0 1
23.599015 -28.273248 -8.028809 37.692862 -0.875266 1.785447 0.056048 -0.031598 87470.800000 0 0 1
22.748915 -28.971048 -8.936409 37.903749 -0.905127 1.808803 0.066723 -0.029683 1339560.000000 0 0 1
21.658115 -28.141348 -9.447509 36.745950 -0.914857 1.830820 0.076462 -0.030598 740088.000000 0 0 1
20.514915 -28.846648 -10.184509 36.833613 -0.952612 1.850947 0.060516 -0.021979 -378844.000000 0 0 1
20.764515 -29.393648 -11.485609 37.776591 -0.955769 1.879727 0.057839 -0.021376 -81006.500000 0 0 1
19.790515 -30.309548 -11.990709 38.132798 -0.992353 1.890669 0.050608 -0.022125 293238.000000 0 0 1
19.585115 -31.626948 -11.190309 38.846668 -1.016340 1.863000 0.051291 -0.025189 348372.000000 0 0 1
20.669915 -32.556348 -11.265109 40.175414 -1.005112 1.855005 0.051108 -0.023336 116967.000000 0 0 1
20.353815 -33.827748 -10.719909 40.908566 -1.029135 1.835938 0.044753 -0.022068 252559.000000 0 0 1
21.557015 34.042291 -10.719409 41.695182 1.006292 1.830806 0.030767 -0.013997 919672.000000 0 0 1
22.568115 34.320191 -9.714109 42.208521 0.989114 1.803024 0.030426 -0.013870 881192.000000 0 0 1
23.805615 33.686091 -10.067209 42.459495 0.955595 1.810177 0.030770 -0.016398 179374.000000 0 0 1
24.912115 34.203191 -9.118909 43.285404 0.941292 1.783056 0.030984 -0.012743 -640714.000000 0 0 1
24.968315 33.729191 -7.775809 42.679483 0.933559 1.754010 0.019841 -0.015455 12146.000000 0 0 1
25.395415 32.360491 -7.800409 41.868542 0.905414 1.758198 0.013390 0.009466 -235471.000000 0 0 1
25.003415 31.604791 -6.485509 40.817831 0.901489 1.730362 0.003530 0.003112 -240304.000000 0 0 1
25.625715 32.147991 -5.297209 41.451550 0.897816 1.698940 0.006406 0.006445 -185762.000000 0 0 1
26.678015 31.407791 -4.755709 41.482316 0.866646 1.685693 0.005389 0.000180 -397745.000000 0 0 1
26.359915 30.339191 -3.762209 40.366642 0.855466 1.664133 0.008102 0.007997 -387282.000000 0 0 1
26.011015 30.892091 -2.502009 40.461762 0.870967 1.632672 0.019343 0.005878 35720.300000 0 0 1
26.011215 29.988491 -1.388209 39.721782 0.856302 1.605752 0.014878 0.010739 -180727.000000 0 0 1
24.781415 29.069891 -1.233409 38.219084 0.864866 1.603074 0.011509 0.013885 339647.000000 0 0 1
23.650815 29.715791 -0.651609 37.984389 0.898560 1.587952 0.008291 0.009259 -317317.000000 0 0 1
22.452115 29.323491 -1.266609 36.953604 0.917342 1.605079 0.018959 0.013025 -241205.000000 0 0 1
21.251815 29.870591 -0.478109 36.662248 0.952419 1.583838 0.022933 0.003182 -177437.000000 0 0 1
20.975215 29.124191 0.675291 35.897550 0.946642 1.551984 0.034864 -0.009105 -407566.000000 0 0 1
19.973815 29.729091 1.431591 35.844408 0.979206 1.530847 0.044619 -0.011231 -682498.000000 0 0 1
19.380215 28.727591 2.457191 34.740538 0.977308 1.500007 0.048229 -0.029306 -374645.000000 0 0 1
18.454715 27.945691 1.726791 33.533862 0.987160 1.519280 0.059074 -0.023538 -273963.000000 0 0 1
17.824115 27.063191 2.588791 32.508725 0.988391 1.491078 0.062481 -0.029969 -357344.000000 0 0 1
17.490915 25.691991 1.976591 31.143497 0.973078 1.507286 0.057032 -0.022269 179361.000000 0 0 1
18.629715 24.925091 1.617991 31.159979 0.928943 1.518848 0.052466 -0.023494 532735.000000 0 0 1
19.467615 24.429991 2.678391 31.352611 0.897965 1.485264 0.052933 -0.017849 4181.210000 0 0 1
20.742215 23.708291 2.215091 31.578935 0.852027 1.500594 0.049410 -0.010959 -264990.000000 0 0 1
20.396815 22.644191 1.353091 30.506069 0.837566 1.526427 0.045399 -0.010284 61217.100000 0 0 1
21.507715 21.847991 1.012091 30.674759 0.793246 1.537796 0.028470 -0.011310 -160231.000000 0 0 1
21.260715 20.936291 -0.218909 29.839473 0.777710 1.578133 0.045949 -0.008238 -392447.000000 0 0 1
21.188715 21.649591 -1.420009 30.326273 0.796156 1.617638 0.032378 -0.005072 319461.000000 0 0 1
21.309815 20.685691 -2.401609 29.795532 0.770538 1.651487 0.055262 -0.008508 -34065.100000 0 0 1
21.183315 21.342791 -3.819109 30.312260 0.789148 1.697124 0.037295 -0.007059 126998.000000 0 0 1
22.092015 22.449391 -3.915009 31.738928 0.793421 1.694462 0.032272 -0.007472 629876.000000 0 0 1
21.906415 23.179991 -5.117709 32.301609 0.813638 1.729902 0.020687 -0.003250 -31213.800000 0 0 1
22.963115 24.323191 -5.225509 33.855992 0.814153 1.725761 0.022034 0.007325 -129359.000000 0 0 1
22.839115 25.473691 -4.448809 34.501101 0.839876 1.700103 0.005294 0.012152 29756.300000 0 0 1
23.155815 25.392891 -3.055609 34.501122 0.831445 1.659478 0.020714 0.009472 299914.000000 0 0 1
21.946115 24.892791 -2.177009 33.256914 0.848226 1.636304 0.022284 -0.000332 -596502.000000 0 0 1
20.960615 25.905991 -2.147409 33.392800 0.890529 1.635148 0.034448 -0.002852 702997.000000 0 0 1
19.786215 25.597491 -1.382109 32.382650 0.912753 1.613490 0.049128 -0.007252 437820.000000 0 0 1
18.880015 24.476791 -1.893709 30.970217 0.913775 1.631981 0.061160 -0.016332 -1448550.000000 0 0 1
18.228315 24.871391 -3.063309 30.987762 0.938327 1.669814 0.056794 -0.017807 5640.730000 0 0 1
17.645515 23.745591 -3.703709 29.815008 0.931721 1.695341 0.049404 -0.023044 176565.000000 0 0 1
17.005815 24.003191 -5.098709 29.855447 0.954401 1.742417 0.054433 -0.017156 83062.900000 0 0 1
16.336815 22.902091 -5.702909 28.704014 0.951178 1.770807 0.047614 -0.020721 352123.000000 0 0 1
15.919615 23.275191 -7.041309 29.064560 0.970908 1.815495 0.044716 -0.010306 -63376.800000 0 0 1
15.198215 22.072491 -7.633209 27.864789 0.967790 1.848281 0.050596 -0.016824 -500603.000000 0 0 1
16.099915 21.029091 -7.925909 27.645071 0.917384 1.861579 0.028503 -0.008494 482501.000000 0 0 1
15.524715 20.080591 -8.843009 26.878350 0.912662 1.906042 0.044982 -0.009803 -361188.000000 0 0 1
16.398015 18.852991 -9.006109 26.560123 0.854929 1.916739 0.037582 -0.004030 248833.000000 0 0 1
17.497415 19.153491 -9.892409 27.764645 0.830553 1.935096 0.020052 -0.006126 598967.000000 0 0 1
18.270815 17.996991 -10.182309 27.593365 0.777848 1.948743 0.022881 -0.002223 103891.000000 0 0 1
19.577515 18.431191 -10.894209 29.011578 0.755248 1.955746 0.015385 -0.005132 -65067.200000 0 0 1
19.390415 18.665891 -12.275109 29.581784 0.766362 1.998690 0.012787 0.000237 1316920.000000 0 0 1
20.611315 19.221091 -12.845209 30.972181 0.750510 1.998447 0.017375 -0.000964 857978.000000 0 0 1
20.647015 19.349591 -14.410009 31.754594 0.752971 2.041813 0.026048 -0.005231 -265483.000000 0 0 1
20.929715 18.164991 -15.092209 31.556214 0.714797 2.069474 0.027770 -0.000800 300302.000000 0 0 1
21.049815 18.406791 -16.461009 32.447950 0.718512 2.102851 0.036330 -0.007120 -19263.700000 0 0 1
20.892215 17.071991 -17.288809 32.044351 0.685109 2.140672 0.034970 -0.015175 665787.000000 0 0 1
22.053815 16.197291 -17.192909 32.315926 0.633471 2.131788 0.047117 -0.005978 957346.000000 0 0 1
22.371015 15.434491 -18.314809 32.773740 0.603937 2.163765 0.045581 -0.014857 -580334.000000 0 0 1
23.241415 16.120091 -19.415409 34.307125 0.606413 2.172356 0.046811 -0.015866 44754.200000 0 0 1
24.596715 16.181291 -19.023809 35.053357 0.581884 2.144457 0.053098 -0.012648 442394.000000 0 0 1
25.509115 16.708291 -19.955409 36.443110 0.579877 2.150262 0.058208 -0.018301 689076.000000 0 0 1
26.933015 17.155091 -19.499909 37.415650 0.567149 2.119017 0.044984 -0.016397 708209.000000 0 0 1
26.796315 18.320791 -18.671309 37.447452 0.599706 2.092780 0.041797 -0.017652 809676.000000 0 0 1
28.081015 18.834391 -18.299709 38.446808 0.590801 2.066868 0.043392 -0.022619 395425.000000 0 0 1
28.046915 19.997491 -17.264909 38.530587 0.619399 2.035416 0.039645 -0.014753 -69215.000000 0 0 1
27.368815 19.776291 -16.053409 37.388041 0.625723 2.014595 0.033353 -0.017401 417993.000000 0 0 1
26.007615 20.192991 -16.134009 36.666867 0.660200 2.026413 0.025557 -0.014559 153302.000000 0 0 1
25.043215 19.670991 -15.051409 35.222939 0.665826 2.012321 0.024566 -0.007615 -309391.000000 0 0 1
25.280715 20.106391 -13.727509 35.097379 0.671884 1.972651 0.023990 -0.005321 120410.000000 0 0 1
24.468215 19.519691 -12.734809 33.791822 0.673372 1.957201 0.031423 -0.006665 -205345.000000 0 0 1
25.005415 19.918691 -11.326009 33.916124 0.672649 1.911279 0.030058 -0.006422 -16975.200000 0 0 1
25.030115 21.285891 -11.076709 34.674043 0.704733 1.895948 0.022463 -0.010415 77958.700000 0 0 1
25.579115 21.693691 -9.835109 34.951920 0.703391 1.856038 0.023088 -0.004203 -57981.000000 0 0 1
24.764015 21.373491 -8.566209 33.815122 0.712043 1.826912 0.022575 -0.001614 -649673.000000 0 0 1
24.807815 19.989291 -8.238509 32.907027 0.678247 1.823845 0.031515 -0.005763 31850.800000 0 0 1
24.045615 19.663491 -7.085509 31.859832 0.685476 1.795068 0.033291 -0.006605 -314844.000000 0 0 1
22.530315 19.460791 -7.268909 30.645954 0.712429 1.810268 0.037738 -0.009397 -362122.000000 0 0 1
21.852115 20.632291 -7.640309 31.009364 0.756694 1.819747 0.031747 -0.005951 1211060.000000 0 0 1
20.442015 20.352991 -7.884209 29.904531 0.783216 1.837596 0.028388 -0.010203 1331720.000000 0 0 1
19.671815 21.671691 -8.194409 30.393927 0.833733 1.843781 0.028600 -0.006792 -614649.000000 0 0 1
19.980015 22.437991 -9.358209 31.468087 0.843280 1.872751 0.028407 -0.006082 -79786.800000 0 0 1
19.203915 22.182491 -10.501909 31.163173 0.857244 1.914522 0.023578 -0.005154 273860.000000 0 0 1
17.714815 22.642391 -10.444509 30.587257 0.906896 1.919273 0.035612 -0.007924 -122088.000000 0 0 1
17.551315 24.042291 -10.169609 31.456340 0.940207 1.900003 0.049951 -0.017374 -122279.000000 0 0 1
16.229915 24.447691 -10.439909 31.146291 0.984737 1.912603 0.043869 -0.014967 78343.600000 0 0 1
15.847415 25.865691 -9.836509 31.889362 1.021105 1.884367 0.059954 -0.014525 220038.000000 0 0 1
16.530915 26.926191 -10.516609 33.299999 1.020194 1.892111 0.063181 -0.005106 300005.000000 0 0 1
16.447315 28.121491 -9.790409 34.017415 1.041579 1.862731 0.073526 -0.027586 48603.900000 0 0 1
19.867415 29.030491 34.365602 49.178025 0.970642 0.797078 0.023577 -0.006471 1068200.000000 0 0 1
18.505115 29.352091 34.051691 48.615863 1.008285 0.794806 0.035423 -0.009264 609571.000000 0 0 1
17.536915 28.353991 34.231738 47.783931 1.016886 0.772188 0.031671 -0.005748 467142.000000 0 0 1
16.070315 28.863591 34.247490 47.584161 1.062772 0.767391 0.034349 -0.007662 448691.000000 0 0 1
15.521915 29.050091 32.964834 46.599548 1.080075 0.784974 0.041450 -0.005252 853087.000000 0 0 1
14.125815 29.425891 32.963252 46.389628 1.123238 0.780483 0.036229 -0.014369 851684.000000 0 0 1
13.527315 29.723391 31.567093 45.419704 1.143704 0.802364 0.045586 -0.012617 148204.000000 0 0 1
13.085715 28.513591 30.910643 44.042350 1.140542 0.792820 0.032250 -0.006081 370448.000000 0 0 1
11.766415 28.076091 31.198763 43.589886 1.173942 0.773122 0.016799 -0.002841 -143074.000000 0 0 1
11.491415 26.582391 31.098533 42.494645 1.162764 0.749804 0.005538 0.006730 -20354.400000 0 0 1
11.562215 26.032291 29.777833 41.207818 1.152819 0.763203 0.005840 0.006314 690992.000000 0 0 1
12.872315 25.515991 29.512143 41.081977 1.103571 0.769337 0.008938 0.012602 513356.000000 0 0 1
12.902015 24.766791 28.197153 39.685455 1.090537 0.780565 0.024946 0.005257 -144647.000000 0 0 1
12.723715 25.597391 27.079203 39.375151 1.109495 0.812448 0.013756 0.006654 170120.000000 0 0 1
12.854515 24.949791 25.806563 38.127540 1.095051 0.827324 0.029364 0.004862 246059.000000 0 0 1
11.709015 23.966391 25.379503 36.818583 1.116343 0.810257 0.025272 0.002940 -278982.000000 0 0 1
11.974915 23.335391 24.171703 35.668056 1.096672 0.826187 0.038525 -0.007597 -170213.000000 0 0 1
11.052115 22.336291 23.814443 34.470085 1.111313 0.808101 0.041544 -0.013497 -115821.000000 0 0 1
11.010515 22.084591 22.320673 33.274209 1.108301 0.835496 0.053502 -0.018417 4940.120000 0 0 1
10.487415 23.137291 21.541673 33.307112 1.145227 0.867469 0.069693 -0.023900 90179.400000 0 0 1
10.645815 22.891891 20.152773 32.303348 1.135500 0.897124 0.075601 -0.021012 -276467.000000 0 0 1
10.255015 24.153491 19.259473 32.549711 1.169284 0.937638 0.073874 -0.026857 -30957.700000 0 0 1
8.910315 24.512691 19.084673 32.318577 1.222148 0.939097 0.077485 -0.029235 -359373.000000 0 0 1
8.378415 25.371691 20.072173 33.418747 1.251844 0.926512 0.072887 -0.036604 258576.000000 0 0 1
6.920215 25.874791 19.840973 33.332542 1.309463 0.933228 0.072355 -0.033807 462585.000000 0 0 1
6.865115 26.867391 18.838273 33.524125 1.320631 0.974077 0.075657 -0.036223 34966.600000 0 0 1
5.509715 27.201391 18.621273 33.421915 1.370947 0.979837 0.058421 -0.031877 2577.100000 0 0 1
5.282415 28.260091 17.552473 33.684209 1.386007 1.022670 0.048913 -0.024253 -151147.000000 0 0 1
5.792415 27.856691 16.330573 32.806019 1.365782 1.049745 0.043341 -0.016578 19811.900000 0 0 1
6.762315 28.767391 15.822473 33.520774 1.339919 1.079216 0.035274 -0.010165 -285.812000 0 0 1
7.505015 28.259091 14.584273 32.674186 1.311210 1.108109 0.040656 -0.012242 22868.500000 0 0 1
6.717515 28.240691 13.396073 31.970555 1.337270 1.138438 0.017607 -0.010187 9141.210000 0 0 1
6.999815 26.989091 12.679573 30.629724 1.317030 1.143993 0.003815 -0.010774 129.895000 0 0 1
6.262315 26.936191 11.315773 29.880121 1.342367 1.182399 -0.015123 -0.009051 -402331.000000 0 0 1
6.837715 27.529491 10.180373 30.137471 1.327345 1.226220 -0.012404 -0.004473 -107166.000000 0 0 1
6.857315 28.954391 10.203673 31.456230 1.338249 1.240443 -0.013847 0.002885 -378554.000000 0 0 1
6.971115 29.626391 8.827573 31.689833 1.339699 1.288500 -0.012240 0.011329 -67127.300000 0 0 1
5.841615 29.538591 7.957273 31.144357 1.375553 1.312435 -0.009338 -0.003872 239294.000000 0 0 1
5.841215 28.410091 7.072673 29.854241 1.368019 1.331616 -0.013130 0.010805 1070000.000000 0 0 1
4.374715 28.130691 6.527573 29.207586 1.416518 1.345404 -0.014991 0.011301 1146960.000000 0 0 1
3.846115 29.203691 5.832073 30.027674 1.439850 1.375331 -0.016563 0.007412 -1081230.000000 0 0 1
2.480215 29.053391 5.642073 29.699898 1.485635 1.379665 0.000560 -0.003910 -691984.000000 0 0 1
1.849215 30.105691 4.764473 30.536411 1.509449 1.414130 0.015135 -0.004900 -710310.000000 0 0 1
2.250115 30.073691 3.429773 30.352153 1.496115 1.457555 -0.008030 -0.000535 212273.000000 0 0 1
1.428915 30.835491 2.525973 30.971758 1.524490 1.489148 -0.012113 -0.005154 507227.000000 0 0 1
0.058115 30.227991 2.141173 30.303785 1.568874 1.500080 0.029570 -0.009038 -141606.000000 0 0 1
0.225715 29.113791 1.253873 29.141653 1.563044 1.527756 0.033100 -0.008191 -581673.000000 0 0 1
-0.778085 28.162391 1.388373 28.207326 -1.543175 1.521556 0.036600 -0.011289 -151328.000000 0 0 1
-1.633085 27.872091 0.136073 27.920224 -1.512271 1.565923 0.038213 -0.014943 450535.000000 0 0 1
-2.497485 28.848391 -0.413627 28.959250 -1.484439 1.585080 0.038889 -0.009051 363570.000000 0 0 1
-1.774085 29.593091 -1.367327 29.677735 -1.510919 1.616885 0.028210 -0.008880 -380782.000000 0 0 1
-2.529085 30.793291 -1.994827 30.961304 -1.488849 1.635271 0.028825 -0.003813 324755.000000 0 0 1
-3.676385 30.370991 -2.758827 30.716836 -1.450333 1.660732 0.016433 -0.000964 431875.000000 0 0 1
-3.503385 29.628691 -4.008727 30.103204 -1.453100 1.704359 0.015686 -0.002900 94891.300000 0 0 1
-4.849685 29.153591 -4.674427 29.921590 -1.405956 1.727661 0.007241 0.001265 928271.000000 0 0 1
-5.573285 30.291091 -5.191827 31.234064 -1.388840 1.737795 0.009422 0.004868 146271.000000 0 0 1
-6.449085 29.920991 -6.229027 31.235511 -1.358507 1.771564 0.006950 -0.002081 -80555.000000 0 0 1
-7.060885 31.081291 -7.042027 32.641888 -1.347413 1.788242 0.012667 -0.006714 -669613.000000 0 0 1
-8.027285 31.765791 -6.351527 33.374311 -1.323276 1.762276 0.016128 0.005530 -537360.000000 0 0 1
-8.238185 33.005891 -7.002927 34.731794 -1.326197 1.773817 0.015126 -0.002846 -24734.600000 0 0 1
-9.235985 33.901491 -6.228527 35.684857 -1.304815 1.746238 0.022596 -0.003826 -225992.000000 0 0 1
-10.552185 33.474291 -6.281727 35.655811 -1.265424 1.747897 0.023083 -0.002772 -951266.000000 0 0 1
-11.525585 34.360691 -5.769027 36.698472 -1.247161 1.728652 0.029280 -0.001004 378918.000000 0 0 1
-12.934785 33.798591 -6.078927 36.696141 -1.205290 1.737219 0.047327 -0.002672 -37864.800000 0 0 1
-13.405785 34.152491 -7.350427 37.418397 -1.196748 1.768521 0.042362 -0.005523 -105429.000000 0 0 1
-14.715085 33.694791 -7.608827 37.546863 -1.159043 1.774858 0.044672 -0.010310 -296161.000000 0 0 1
-15.226985 34.074791 -9.022027 38.397258 -1.150549 1.807979 0.061749 -0.015974 1199310.000000 0 0 1
-16.613385 33.662991 -9.190327 38.647945 -1.112346 1.810892 0.079291 -0.022177 760990.000000 0 0 1
-17.468985 -34.111048 -9.176127 39.407237 1.097499 1.805808 0.077438 -0.027064 -898833.000000 0 0 1
-18.942285 34.343991 -9.464527 40.347207 -1.066767 1.807580 0.075744 -0.029301 251596.000000 0 0 1
-19.699785 33.620691 -8.521627 39.887974 -1.040777 1.786095 0.070433 -0.023647 203500.000000 0 0 1
-19.828085 34.175891 -7.247627 40.170543 -1.045080 1.752211 0.061571 -0.010425 -699061.000000 0 0 1
-20.160685 33.189391 -6.125927 39.313049 -1.024922 1.727258 0.052210 -0.016653 -461363.000000 0 0 1
-19.914985 33.598991 -4.789327 39.350177 -1.035743 1.692809 0.045854 -0.015098 698902.000000 0 0 1
-21.094885 33.786291 -3.980327 40.029372 -1.012656 1.670396 0.038604 -0.014303 597083.000000 0 0 1
-21.846985 -33.736648 -4.242827 40.416009 0.996128 1.675969 0.043264 -0.019891 -594606.000000 0 0 1
-22.551485 -33.729448 -5.429927 40.935672 0.981457 1.703834 0.052080 -0.017475 -364447.000000 0 0 1
-23.416585 -32.625848 -5.454427 40.528178 0.948269 1.705790 0.043290 -0.020546 -358852.000000 0 0 1
-24.126585 -32.509848 -6.792727 41.050256 0.932350 1.737034 0.048292 -0.017096 -364711.000000 0 0 1
-23.244485 -32.200748 -7.868927 40.485976 0.945548 1.766403 0.076305 -0.017718 74675.100000 0 0 1
-23.612385 -32.541048 -9.193927 41.243094 0.943083 1.795606 0.042523 -0.013193 -100540.000000 0 0 1
-24.751285 -31.777448 -9.904127 41.479200 0.909058 1.811899 0.032549 -0.009961 382945.000000 0 0 1
-26.016125 -31.893548 -9.230027 42.180927 0.886545 1.791401 0.027796 -0.011422 1014790.000000 0 0 1
-27.175085 -31.555548 -10.003627 42.828850 0.859846 1.806546 -0.013185 0.000210 771827.000000 0 0 1
-27.431395 -30.036148 -10.102727 41.913205 0.830693 1.814233 -0.021142 0.003032 -581783.000000 0 0 1
-26.426135 -29.379048 -10.857827 40.980013 0.838264 1.838953 -0.017295 0.007355 15592.200000 0 0 1
-26.670005 -29.353348 -12.262827 41.512470 0.833258 1.870672 -0.011567 0.009256 -311689.000000 0 0 1
-25.575985 -28.580448 -13.004727 40.498098 0.840819 1.897708 -0.000039 0.012234 -449891.000000 0 0 1
-24.364785 -29.297748 -12.998027 40.261017 0.877066 1.899529 0.010542 0.002944 -300422.000000 0 0 1
-23.438685 -28.669048 -13.875027 39.544945 0.885439 1.929293 0.023654 0.000755 424758.000000 0 0 1
-22.188885 -29.565048 -14.174227 39.589739 0.926968 1.936951 0.046266 -0.012642 233493.000000 0 0 1
-22.446185 -30.853448 -14.746927 40.905236 0.941845 1.939616 0.043690 -0.005742 -159021.000000 0 0 1
-23.093885 -31.870848 -14.020427 41.780987 0.943745 1.913006 0.027166 -0.005278 -189754.000000 0 0 1
-23.007185 -33.257748 -14.708527 43.031955 0.965606 1.919633 0.024347 -0.003694 71865.700000 0 0 1
-23.540485 -34.372248 -13.969927 43.940468 0.970298 1.894340 0.020522 -0.009703 98670.200000 0 0 1
-23.351685 33.288091 -14.707527 43.240138 -0.959063 1.917858 0.023243 -0.013305 -102991.000000 0 0 1
-23.741685 32.027691 -13.865027 42.209946 -0.932895 1.905488 0.011461 -0.010138 155456.000000 0 0 1
-22.921685 31.635391 -12.728427 41.087887 -0.943778 1.885764 0.010750 -0.011565 548555.000000 0 0 1
-22.918385 32.587891 -11.614027 41.498297 -0.957873 1.854452 0.045365 -0.009977 39679.000000 0 0 1
-22.155085 32.070391 -10.350827 40.329857 -0.966253 1.830355 0.046393 -0.012374 262035.000000 0 0 1
-22.887885 31.181491 -9.512127 39.832414 -0.937600 1.811930 0.046134 -0.005551 605001.000000 0 0 1
-22.133885 30.939991 -8.334127 38.944185 -0.949822 1.786466 0.047180 -0.008120 132166.000000 0 0 1
-22.873285 29.911091 -7.436627 38.381818 -0.917948 1.765783 0.035638 -0.010875 115967.000000 0 0 1
-23.149985 28.714791 -8.126227 37.768990 -0.892284 1.787648 0.036584 -0.001812 -4163.430000 0 0 1
-23.808685 27.707491 -7.396727 37.272914 -0.860935 1.770570 0.026918 -0.003108 169997.000000 0 0 1
-22.934785 26.893691 -6.332527 35.907880 -0.864682 1.748078 0.031975 -0.005073 50270.300000 0 0 1
-22.533785 27.676391 -5.275127 36.077431 -0.887464 1.717539 0.038271 -0.003510 -396812.000000 0 0 1
-21.503685 26.925791 -4.676127 34.774600 -0.896893 1.705675 0.036870 -0.004141 -207193.000000 0 0 1
-20.239985 27.826191 -4.579727 34.712070 -0.941935 1.703117 0.030776 -0.011195 -450445.000000 0 0 1
-19.653085 28.049691 -5.843127 34.744367 -0.959633 1.739774 0.035002 -0.013646 -1251980.000000 0 0 1
-18.458785 28.692391 -5.665227 34.584315 -0.999122 1.735347 0.043548 -0.011713 -852425.000000 0 0 1
-17.444685 28.407091 -6.816927 34.025730 -1.020076 1.772508 0.055120 -0.012818 -290482.000000 0 0 1
-17.681385 28.924491 -8.145427 34.865535 -1.022113 1.806600 0.054758 -0.020001 30695.500000 0 0 1
-17.834885 30.332891 -8.274927 36.147501 -1.039268 1.801766 0.062635 -0.017750 -104778.000000 0 0 1
-17.751285 30.696191 -9.838327 36.798871 -1.046493 1.841442 0.058878 -0.021876 -132684.000000 0 0 1
-16.474185 30.539391 -10.420827 36.230468 -1.076096 1.862544 0.053604 -0.025234 -69987.200000 0 0 1
-16.417685 31.320591 -11.580027 37.210440 -1.087991 1.887256 0.058207 -0.025284 -552816.000000 0 0 1
-15.073885 31.240091 -12.277627 36.795454 -1.121232 1.910993 0.054652 -0.021518 -485896.000000 0 0 1
-15.040185 32.054191 -13.418627 37.864731 -1.132082 1.933051 0.055071 -0.020435 -60698.400000 0 0 1
-15.532985 31.360391 -14.569027 37.907839 -1.110911 1.965276 0.051067 -0.021893 23198.400000 0 0 1
-15.207085 32.108091 -15.908727 38.926502 -1.128473 1.991811 0.073048 -0.026769 707885.000000 0 0 1
-13.803885 32.276491 -16.091027 38.616580 -1.166661 2.000594 0.066346 -0.023563 82993.600000 0 0 1
-13.412285 32.607491 -17.403627 39.319513 -1.180565 2.029315 0.043061 -0.028646 674013.000000 0 0 1
-11.855285 32.581491 -17.571227 38.869646 -1.221823 2.039864 0.067827 -0.026252 823738.000000 0 0 1
-11.297685 31.224691 -17.502427 37.536035 -1.223631 2.055881 0.066752 -0.031604 1298210.000000 0 0 1
-9.960885 31.079691 -18.056827 37.299000 -1.260644 2.076142 0.069677 -0.020622 1318060.000000 0 0 1
-9.853785 31.093491 -19.609627 38.058373 -1.263900 2.112097 0.080801 -0.024071 -410466.000000 0 0 1
-10.524985 30.049691 -20.286427 37.753124 -1.233896 2.138081 0.057546 -0.028741 106567.000000 0 0 1
-10.231085 30.018791 -21.668527 38.409998 -1.242321 2.170185 0.069011 -0.030325 -744530.000000 0 0 1
-11.517085 29.908691 -22.500827 39.159421 -1.203222 2.182906 0.066298 -0.029024 -125369.000000 0 0 1
-12.270985 31.078391 -22.494927 40.279836 -1.194746 2.163332 0.053383 -0.025027 -904742.000000 0 0 1
-13.269885 31.141591 -21.543727 40.125063 -1.167982 2.137572 0.044248 -0.016510 -1335910.000000 0 0 1
-14.185785 32.348091 -21.753427 41.483094 -1.157517 2.122798 0.056481 -0.026273 -519810.000000 0 0 1
-14.965185 32.074291 -22.890027 42.150566 -1.134241 2.144866 0.047123 -0.028769 -478826.000000 0 0 1
-15.397185 33.325991 -23.356327 43.511067 -1.137994 2.137425 0.039126 -0.030902 303126.000000 0 0 1
-15.996385 33.300791 -24.802827 44.497272 -1.122983 2.162049 0.037980 -0.027526 212429.000000 0 0 1
-14.956985 33.071591 -25.737127 44.495407 -1.146064 2.187589 0.035990 -0.024933 122133.000000 0 0 1
-15.264785 33.217091 -27.126527 45.521833 -1.140032 2.209184 0.037496 -0.006282 -28571.300000 0 0 1
-15.598485 -34.237648 -27.713527 46.728673 1.143300 2.205667 0.029406 0.001377 66050.900000 0 0 1
-16.765685 -33.634548 -27.193227 46.387958 1.108377 2.197173 0.022181 0.003433 104533.000000 0 0 1
-17.315485 -32.690248 -28.135027 46.476425 1.083685 2.221016 0.018047 0.010693 -103475.000000 0 0 1
-18.705385 -32.214848 -27.705027 46.424739 1.044730 2.210270 0.016410 -0.002718 -377497.000000 0 0 1
-19.709885 -33.153248 -27.833427 47.563821 1.034425 2.195899 0.009646 -0.001240 -388420.000000 0 0 1
-21.041185 -32.732948 -27.545927 47.675523 0.999490 2.186802 0.018894 -0.000576 1178040.000000 0 0 1
-22.089485 -33.852348 -27.889327 49.109484 0.992648 2.174750 0.016216 0.006894 54119.200000 0 0 1
-21.992185 33.785491 -27.125227 48.589027 -0.993764 2.163081 0.030384 -0.002874 -486752.000000 0 0 1
-23.106285 32.962391 -27.349427 48.666321 -0.959407 2.167572 0.026222 -0.003869 -313764.000000 0 0 1
-23.028785 31.509591 -26.775927 47.330007 -0.939664 2.172113 0.031193 -0.004297 90783.700000 0 0 1
-22.912485 31.414591 -25.395027 46.440994 -0.940637 2.149362 0.036363 -0.007216 -306364.000000 0 0 1
-22.931685 30.045791 -25.003127 45.318518 -0.918885 2.155221 0.027729 -0.009478 -218725.000000 0 0 1
31.153696 9.834891 -26.170539 41.858989 0.305788 2.246193 0.008919 0.008816 -449614.000000 0 0 1
30.552826 8.567891 -26.255579 41.185427 0.273406 2.262041 0.016969 0.005260 362459.000000 0 0 1
29.132396 8.677291 -26.302019 40.196867 0.289490 2.284093 0.023865 0.001043 634238.000000 0 0 1
28.459106 7.284891 -25.958469 39.202455 0.250597 2.294500 0.027259 0.002313 93537.400000 0 0 1
28.664136 6.949291 -24.607909 38.411906 0.237849 2.266118 0.018092 0.000006 19687.300000 0 0 1
28.155696 5.688791 -24.315309 37.634291 0.199364 2.273253 0.013214 0.001137 -279012.000000 0 0 1
28.407266 5.291291 -22.819409 36.819777 0.184155 2.239233 0.014654 -0.003732 82781.200000 0 0 1
29.742016 5.031191 -22.420109 37.584062 0.167575 2.209970 0.020901 -0.002335 275079.000000 0 0 1
29.777876 4.976191 -20.984909 36.767524 0.165580 2.178210 0.012361 -0.003117 76941.700000 0 0 1
31.093886 4.682291 -20.207709 37.377870 0.149463 2.141986 0.016481 -0.006014 -421019.000000 0 0 1
31.431196 3.303091 -20.109509 37.459617 0.104705 2.137474 0.026504 -0.002184 430983.000000 0 0 1
32.483396 3.133791 -19.157909 37.842003 0.096176 2.101639 0.029476 -0.007369 -3980.280000 0 0 1
32.977246 1.626491 -19.230909 38.209582 0.049282 2.098211 0.033976 -0.013659 -252853.000000 0 0 1
32.166416 0.618691 -18.663609 37.193970 0.019232 2.096465 0.040791 -0.005871 -415352.000000 0 0 1
32.546086 -0.675209 -19.013009 37.698782 -0.020743 2.099414 0.039158 0.000657 163023.000000 0 0 1
31.598306 -1.847909 -18.529809 36.677262 -0.058415 2.100424 0.025481 0.000827 447165.000000 0 0 1
31.609906 -2.025309 -17.123409 36.006933 -0.063985 2.066395 0.030351 -0.002946 340026.000000 0 0 1
30.492346 -1.387709 -16.485609 34.691270 -0.045479 2.065998 0.008734 -0.006635 290986.000000 0 0 1
30.135916 -1.941409 -15.103909 33.764932 -0.064333 2.034569 0.016558 -0.012210 -306675.000000 0 0 1
29.678466 -3.258609 -15.031909 33.427357 -0.109359 2.037213 0.022170 -0.009141 -176495.000000 0 0 1
28.870536 -3.356209 -13.919609 32.226193 -0.115731 2.017433 0.031674 -0.013009 -724925.000000 0 0 1
28.524776 -4.802009 -13.515709 31.927990 -0.166781 2.007901 0.026325 -0.013371 -232349.000000 0 0 1
27.844246 -5.537009 -14.514109 31.884477 -0.196296 2.043404 0.020217 -0.012736 413057.000000 0 0 1
27.721356 -6.868509 -14.039109 31.823680 -0.242878 2.027679 0.021337 -0.006900 -398935.000000 0 0 1
27.186206 -7.785409 -15.102709 32.059230 -0.278909 2.061320 0.009324 0.003690 127593.000000 0 0 1
25.906056 -7.436109 -15.619309 31.150960 -0.279526 2.096021 0.021564 0.000890 774816.000000 0 0 1
25.244056 -8.497309 -16.348909 31.253056 -0.324693 2.121297 0.003166 0.006803 505561.000000 0 0 1
23.840056 -8.133409 -16.908109 30.337844 -0.328783 2.161960 0.003007 0.005732 175996.000000 0 0 1
23.775156 -7.115409 -17.859109 30.575070 -0.290795 2.194576 -0.003579 0.006799 580473.000000 0 0 1
22.424256 -6.919309 -18.305009 29.762350 -0.299295 2.233232 0.024996 0.000177 596407.000000 0 0 1
22.221356 -7.326609 -19.757309 30.623833 -0.318486 2.272031 0.006888 0.002486 -100464.000000 0 0 1
22.895956 -6.537909 -20.730709 31.571053 -0.278147 2.287147 0.002313 -0.003838 195809.000000 0 0 1
22.521156 -6.874709 -22.010009 32.232043 -0.296271 2.322468 0.014497 -0.006335 -212085.000000 0 0 1
22.797956 -5.709109 -22.935109 32.838392 -0.245376 2.343989 0.007390 -0.000720 -138862.000000 0 0 1
23.198856 -6.128709 -24.206509 34.083766 -0.258281 2.360588 0.015978 -0.003058 246032.000000 0 0 1
23.236156 -4.989809 -25.069809 34.544356 -0.211531 2.382888 0.017820 -0.005756 -311305.000000 0 0 1
23.265956 -5.280909 -26.550959 35.695184 -0.223198 2.409571 0.028962 -0.003942 -522310.000000 0 0 1
22.158456 -5.998309 -27.011439 35.448480 -0.264365 2.437179 0.040595 -0.006568 -444675.000000 0 0 1
22.172856 -6.279309 -28.413149 36.583772 -0.275972 2.460142 0.028095 -0.007806 -428692.000000 0 0 1
20.910856 -6.970609 -28.894159 36.341791 -0.321764 2.489914 0.022230 -0.011263 -433241.000000 0 0 1
20.821156 -8.342009 -28.590469 36.339023 -0.381067 2.476356 0.018333 -0.007035 -151629.000000 0 0 1
19.695656 -8.993509 -29.115649 36.283924 -0.428349 2.502168 0.019871 -0.008823 -356114.000000 0 0 1
19.598356 -10.454909 -28.780469 36.355414 -0.490055 2.484288 0.029278 -0.000714 -910916.000000 0 0 1
18.644056 -10.749309 -27.835579 35.184769 -0.523002 2.483444 0.033864 -0.005856 -314383.000000 0 0 1
18.652456 -12.089809 -27.224109 35.145835 -0.575082 2.456885 0.038613 -0.009275 -345324.000000 0 0 1
18.584756 -13.380309 -28.121209 36.266076 -0.623998 2.458166 0.031862 -0.005621 -125757.000000 0 0 1
17.398956 -13.542009 -28.867819 36.324382 -0.661383 2.489347 0.036816 -0.010043 252001.000000 0 0 1
17.526856 -14.547309 -29.793339 37.502773 -0.692768 2.488865 0.034132 -0.014242 -488849.000000 0 0 1
16.304756 -14.697809 -30.704159 37.744087 -0.733612 2.520912 0.032035 -0.016893 -219827.000000 0 0 1
15.185356 -15.205309 -29.984799 36.890170 -0.786055 2.519761 0.041796 -0.018928 785894.000000 0 0 1
14.163156 -15.616409 -30.927359 37.429518 -0.834160 2.543272 0.043544 -0.024945 670165.000000 0 0 1
12.975756 -16.305009 -30.187149 36.680888 -0.898613 2.537410 0.058107 -0.026311 229243.000000 0 0 1
13.374456 -17.539709 -29.661489 36.963785 -0.919328 2.502182 0.048877 -0.030587 458118.000000 0 0 1
12.340056 -18.056609 -28.818979 36.178056 -0.971292 2.492425 0.056037 -0.030074 222131.000000 0 0 1
12.647256 -19.360909 -28.096759 36.389913 -0.992149 2.452940 0.058048 -0.028582 -417937.000000 0 0 1
13.647756 -19.227109 -27.131039 35.944906 -0.953511 2.426138 0.053273 -0.024278 -441454.000000 0 0 1
13.715456 -20.428009 -26.368849 36.065684 -0.979521 2.390779 0.048701 -0.018673 -99880.000000 0 0 1
14.819256 -20.583909 -25.314019 35.834442 -0.946810 2.355218 0.045145 -0.014661 304314.000000 0 0 1
16.161556 -20.668409 -25.781449 36.783994 -0.907162 2.347438 0.041299 -0.015367 249327.000000 0 0 1
17.062456 -20.535509 -24.738209 36.397988 -0.877510 2.318094 0.042969 -0.021756 803086.000000 0 0 1
18.577556 -20.878109 -25.124319 37.579948 -0.843640 2.303062 0.028659 -0.018613 1369010.000000 0 0 1
18.901956 -22.214809 -25.517249 38.754506 -0.865796 2.289531 0.025952 -0.015790 234347.000000 0 0 1
18.623556 -23.145009 -24.471009 38.488422 -0.893228 2.259843 0.032189 -0.016702 -738029.000000 0 0 1
19.066856 -24.557609 -24.696309 39.705527 -0.910604 2.242074 0.041032 -0.015660 -255212.000000 0 0 1
20.458756 -24.638609 -24.453609 40.293930 -0.877819 2.222926 0.050078 -0.009340 18964.800000 0 0 1
20.844456 -25.856009 -23.828509 40.875695 -0.892302 2.193152 0.057560 -0.019498 -229840.000000 0 0 1
20.615756 -25.982939 -22.284709 39.959114 -0.900072 2.162394 0.064704 -0.021813 64702.000000 0 0 1
19.297056 -25.870829 -21.747309 38.918141 -0.929924 2.163730 0.067882 -0.017398 384550.000000 0 0 1
19.313756 -25.973969 -20.343109 38.229705 -0.931416 2.131909 0.057984 -0.013401 118313.000000 0 0 1
18.049456 -26.508559 -19.616709 37.593908 -0.973010 2.119762 0.049403 -0.012216 -188235.000000 0 0 1
17.952356 -27.950129 -19.705709 38.623980 -0.999853 2.106206 0.044259 -0.009161 718144.000000 0 0 1
16.894556 -28.699709 -19.052409 38.367873 -1.038752 2.090441 0.028972 -0.005061 401837.000000 0 0 1
15.480056 -28.590639 -19.634909 37.981396 -1.074550 2.114094 0.017425 -0.000855 -470278.000000 0 0 1
14.866156 -27.410549 -19.189909 36.614115 -1.073844 2.122469 0.027042 0.002844 -460701.000000 0 0 1
13.572656 -27.396629 -19.765809 36.407136 -1.110825 2.144695 0.020607 0.012592 400768.000000 0 0 1
12.480856 -26.611639 -18.985309 34.991329 -1.132255 2.144292 0.010196 0.003447 -262202.000000 0 0 1
12.087356 -27.176209 -17.764409 34.644260 -1.152294 2.109200 0.014933 0.003917 -11513.100000 0 0 1
11.198656 -26.381539 -16.992709 33.318879 -1.169359 2.105984 0.018323 -0.007717 403064.000000 0 0 1
9.692056 -26.469369 -17.328409 33.088325 -1.219797 2.121987 0.018581 0.000258 -499724.000000 0 0 1
8.991956 -27.494629 -16.655709 33.379973 -1.254717 2.093210 0.018718 0.001420 599317.000000 0 0 1
7.588356 -27.197769 -16.729309 32.820293 -1.298709 2.105661 0.013615 0.009421 1097010.000000 0 0 1
6.729256 -27.903159 -17.814709 33.782141 -1.334150 2.126264 0.009951 0.013706 -279196.000000 0 0 1
6.801756 -27.325519 -19.076709 34.012773 -1.326838 2.166231 0.007845 0.012359 -315243.000000 0 0 1
6.086756 -27.995319 -20.065309 34.977180 -1.356708 2.181774 0.011725 0.012830 -600099.000000 0 0 1
6.293456 -27.482619 -21.507309 35.460772 -1.345680 2.222460 0.003660 0.003518 -883891.000000 0 0 1
5.597756 -26.260209 -21.592109 34.455082 -1.360775 2.248074 0.003058 -0.000100 167550.000000 0 0 1
5.645756 -25.784989 -22.908309 34.950406 -1.355243 2.285577 0.004985 -0.000723 -1178820.000000 0 0 1
4.388756 -25.071159 -23.293809 34.502547 -1.397500 2.311941 -0.005796 0.001036 -473377.000000 0 0 1
3.308856 -26.004819 -23.486409 35.196741 -1.444236 2.301360 -0.001817 -0.000027 74482.600000 0 0 1
2.181256 -25.383059 -24.030109 35.021475 -1.485073 2.326985 0.003330 -0.003802 -23812.000000 0 0 1
1.245856 -26.447989 -24.679709 36.195806 -1.523725 2.321070 0.005850 -0.006932 6681.220000 0 0 1
1.885256 -27.170819 -25.697319 37.445425 -1.501522 2.327132 0.007115 -0.000683 406400.000000 0 0 1
0.902656 -27.809169 -26.519809 38.437807 -1.538349 2.332204 0.011047 -0.011460 354624.000000 0 0 1
1.507756 -28.641309 -27.652069 39.840116 -1.518202 2.337932 0.007903 -0.005291 -313221.000000 0 0 1
2.052356 -27.975799 -28.806349 40.207752 -1.497566 2.369479 0.005038 -0.009704 334302.000000 0 0 1
2.555456 -28.918029 -29.759499 41.574158 -1.482656 2.368590 0.011660 -0.009252 405796.000000 0 0 1
4.039656 -29.363239 -29.601019 41.889605 -1.434079 2.355540 0.005856 -0.009099 -111767.000000 0 0 1
4.268256 -30.182149 -28.499189 41.729893 -1.430311 2.322582 0.007179 -0.015271 -451038.000000 0 0 1
5.512456 -30.799779 -28.670099 42.438051 -1.393694 2.312541 0.022708 -0.014572 -169418.000000 0 0 1
5.837756 -31.933339 -27.679159 42.660912 -1.389982 2.276826 0.033845 -0.024685 -181276.000000 0 0 1
5.002756 -33.043289 -27.853409 43.505160 -1.420537 2.265597 0.034959 -0.032706 -59915.000000 0 0 1
5.373656 -34.112292 -27.014909 43.844384 -1.414552 2.234647 0.037681 -0.034346 141402.000000 0 0 1
4.113256 33.906333 -26.689739 43.346286 1.450074 2.234112 0.048307 -0.037425 -58758.500000 0 0 1
3.487656 33.306575 -27.797409 43.522266 1.466463 2.263596 0.046041 -0.040846 -69200.400000 0 0 1
2.215856 32.829565 -27.415679 42.828843 1.503403 2.265453 0.036272 -0.042088 376918.000000 0 0 1
1.183256 32.767749 -28.615909 43.520061 1.534702 2.288337 0.038489 -0.031159 201067.000000 0 0 1
1.397656 31.774969 -29.592299 43.443138 1.526839 2.320160 0.055982 -0.031244 -353284.000000 0 0 1
0.397556 31.952229 -30.545529 44.205569 1.558355 2.333652 0.052035 -0.028841 -307895.000000 0 0 1
0.237956 30.852459 -31.556359 44.133147 1.563084 2.367458 0.054851 -0.024566 -117168.000000 0 0 1
1.285056 30.678819 -32.515269 44.722299 1.528933 2.384809 0.062747 -0.025776 113889.000000 0 0 1
1.074456 29.587709 -33.413829 44.643823 1.534498 2.416524 0.067953 -0.019360 -636573.000000 0 0 1
2.171956 29.272849 34.415394 45.233134 1.496735 0.706182 0.067491 -0.015424 -282341.000000 0 0 1
2.479256 30.336909 33.536023 45.289508 1.489253 0.737010 0.065004 -0.027053 249061.000000 0 0 1
3.374756 30.095009 32.434013 44.374134 1.459126 0.751125 0.034951 -0.022033 195452.000000 0 0 1
2.881156 29.205839 31.248053 42.868670 1.472464 0.754046 0.043622 -0.024888 -151087.000000 0 0 1
2.664556 27.797129 31.444833 42.054224 1.475231 0.726173 0.046814 -0.027346 -515291.000000 0 0 1
3.861356 27.089249 31.595073 41.796963 1.429208 0.713741 0.043055 -0.016075 -458334.000000 0 0 1
3.758356 25.612199 31.987353 41.149735 1.425095 0.680369 0.059489 -0.020556 -177133.000000 0 0 1
3.099256 24.939219 30.928913 39.851821 1.447158 0.682342 0.060230 -0.009294 182683.000000 0 0 1
3.182256 23.530029 30.900643 38.969716 1.436370 0.655177 0.043892 -0.005101 -592119.000000 0 0 1
2.158756 22.869529 29.987183 37.774419 1.476681 0.653684 0.033363 0.008748 120865.000000 0 0 1
0.847456 22.673629 30.502353 38.015854 1.533437 0.639560 0.024809 0.011839 229799.000000 0 0 1
-0.007244 22.451529 29.383153 36.978925 -1.570474 0.652461 0.039665 0.013165 740258.000000 0 0 1
-1.404844 21.813029 29.705323 36.880727 -1.506481 0.634374 0.049400 0.008633 586825.000000 0 0 1
-2.363044 22.783129 30.073983 37.803431 -1.467447 0.650905 0.054750 0.000579 162875.000000 0 0 1
-3.630344 22.177529 30.338453 37.755051 -1.408541 0.637544 0.046503 -0.003355 990720.000000 0 0 1
-4.735744 23.262929 30.660233 38.776810 -1.369966 0.658870 0.015542 -0.011083 231414.000000 0 0 1
-4.786344 23.755629 32.022283 40.158008 -1.371976 0.647810 0.019891 -0.007233 4940.130000 0 0 1
-4.474244 25.108379 32.151133 41.038334 -1.394450 0.670612 0.026016 -0.008094 -114845.000000 0 0 1
-4.690644 25.692269 33.571812 42.534238 -1.390215 0.661146 0.029602 -0.003902 289280.000000 0 0 1
-6.054344 25.630719 33.980356 42.991318 -1.338834 0.659334 0.014432 0.000880 274575.000000 0 0 1
-6.242344 26.145289 -33.558029 42.996329 -1.336428 2.466239 0.023631 -0.001873 369897.000000 0 0 1
-7.682144 26.513959 -33.090599 43.092843 -1.288779 2.446338 0.028111 0.003007 304469.000000 0 0 1
-8.136144 27.773999 -33.671459 44.399989 -1.285828 2.431600 0.022253 -0.001746 968140.000000 0 0 1
-9.451344 28.194319 -33.233149 44.594728 -1.247347 2.411670 0.018840 -0.006424 1112610.000000 0 0 1
-9.548144 28.633429 -31.703039 43.773542 -1.248931 2.380744 0.020105 -0.005357 -375896.000000 0 0 1
-8.805744 29.799589 -31.435229 44.201021 -1.283474 2.361983 0.029724 -0.005563 83068.000000 0 0 1
-8.816544 30.055949 -30.086519 43.431442 -1.285463 2.336072 0.033735 -0.008767 -167374.000000 0 0 1
-8.351744 31.443359 -29.643129 44.013084 -1.311179 2.309740 0.030370 -0.017123 -575362.000000 0 0 1
-6.973444 31.607739 -29.761669 43.970843 -1.353650 2.314271 0.018724 -0.020016 -846352.000000 0 0 1
-6.621344 32.867425 -29.263059 44.502095 -1.372001 2.288380 0.028678 -0.011868 -880911.000000 0 0 1
-5.106344 32.908977 -29.209789 44.297712 -1.416858 2.290813 0.031860 -0.015445 -1147810.000000 0 0 1
-4.521244 34.138503 -28.861079 44.931514 -1.439124 2.268337 0.030865 -0.016041 -133217.000000 0 0 1
-4.483144 -33.623029 -29.798829 45.150603 1.438243 2.291598 0.042435 -0.017107 -922205.000000 0 0 1
-3.425844 -33.828079 -30.839379 45.903624 1.469868 2.307471 0.050823 -0.030737 -900860.000000 0 0 1
-3.731244 34.064886 -31.779499 46.736230 -1.461698 2.318526 0.053803 -0.027247 144248.000000 0 0 1
-4.582544 -34.341280 -32.855709 47.747470 1.438139 2.329683 0.066353 -0.027242 364899.000000 0 0 1
-3.947344 -33.460189 -34.025639 47.884339 1.453368 2.361118 0.037555 -0.025084 -170194.000000 0 0 1
-3.545044 -32.219279 -33.436999 46.569112 1.461208 2.371733 0.037601 -0.021840 13559.400000 0 0 1
-2.781544 -31.510899 -34.371204 46.712455 1.482752 2.397649 0.018326 -0.020404 -42258.700000 0 0 1
30.717386 19.328291 12.855573 38.502031 0.561635 1.230365 0.096764 -0.019315 -367148.000000 0 0 1
31.966306 18.949091 13.379973 39.496031 0.535096 1.225190 0.077317 -0.019421 86257.500000 0 0 1
31.967566 17.537591 13.467873 38.869988 0.501772 1.216975 0.073624 -0.016331 44160.600000 0 0 1
33.277626 17.052191 14.129673 39.972807 0.473536 1.209505 0.084079 -0.031560 3182.190000 0 0 1
34.383246 16.893991 13.300173 40.552548 0.456699 1.236638 0.078630 -0.006950 -144772.000000 0 0 1
35.339898 15.951491 13.781373 41.149541 0.423995 1.229287 0.068420 -0.016174 354018.000000 0 0 1
-34.884645 15.629791 12.748173 40.295716 -0.421225 1.248901 0.070610 -0.029441 299902.000000 0 0 1
-34.069975 14.498391 13.118873 39.281947 -0.402334 1.230287 0.065022 -0.032307 424821.000000 0 0 1
-34.743703 13.198591 13.052173 39.391457 -0.363046 1.233067 0.060956 -0.031137 272617.000000 0 0 1
-34.006345 12.064791 13.834073 38.644175 -0.340927 1.204686 0.055096 -0.029601 203474.000000 0 0 1
-34.027955 12.463291 15.201973 39.298032 -0.351092 1.173596 0.054530 -0.032553 95181.700000 0 0 1
-33.501875 11.434691 16.025473 38.857992 -0.328917 1.145697 0.049318 -0.035076 -107467.000000 0 0 1
-33.258675 11.850091 17.460373 39.388180 -0.342277 1.111531 0.049991 -0.023605 -176396.000000 0 0 1
-34.425186 12.202991 18.184073 40.800330 -0.340659 1.108858 0.049379 -0.019349 144912.000000 0 0 1
-34.163155 13.036491 19.296073 41.345008 -0.364540 1.085231 0.045876 -0.025385 -326715.000000 0 0 1
-35.392249 13.151291 20.201773 42.821482 -0.355775 1.079502 0.051310 -0.019592 73780.200000 0 0 1
35.466847 11.955091 20.840473 42.838613 0.325117 1.062731 0.051915 0.000528 613389.000000 0 0 1
34.382286 12.128091 21.770973 42.464190 0.339116 1.032481 0.053770 -0.010235 707970.000000 0 0 1
34.296676 10.954991 22.683773 42.553817 0.309175 1.008582 0.047212 -0.009027 -381718.000000 0 0 1
35.337169 10.893191 23.609073 43.872149 0.299021 1.002575 0.049168 0.001118 -473982.000000 0 0 1
34.932426 11.273591 24.927353 44.370499 0.312173 0.974236 0.050029 -0.001365 -739710.000000 0 0 1
-35.244695 11.411391 25.935443 45.222290 -0.313125 0.960012 0.039583 0.000288 461519.000000 0 0 1
-34.328617 12.502591 25.772553 44.710102 -0.349272 0.956435 0.027078 -0.004951 676833.000000 0 0 1
-33.364955 12.223991 24.709963 43.280809 -0.351185 0.963168 0.025961 -0.006609 -483498.000000 0 0 1
-32.362115 13.377591 24.582393 42.785049 -0.391981 0.958735 0.025325 -0.013568 215540.000000 0 0 1
-31.474865 13.578191 25.672493 42.826525 -0.407277 0.927979 0.009416 -0.011120 -1204.680000 0 0 1
-32.148685 14.285791 26.643063 44.130200 -0.418159 0.922615 0.008862 -0.006549 -936631.000000 0 0 1
-31.303525 14.955091 27.737473 44.417708 -0.445685 0.896345 -0.003504 0.006622 -572783.000000 0 0 1
-30.474365 15.947091 27.222443 43.864086 -0.482110 0.901277 -0.001291 -0.003500 -452034.000000 0 0 1
-30.108815 16.894491 28.212293 44.585850 -0.511336 0.885680 -0.003949 -0.003285 -75006.400000 0 0 1
-29.405855 18.139491 27.659113 44.258016 -0.552729 0.895727 0.004285 0.003295 228686.000000 0 0 1
-30.251615 18.988291 26.893073 44.709649 -0.560523 0.925413 0.008937 -0.010132 569847.000000 0 0 1
-29.550405 20.216191 26.693223 44.659254 -0.599992 0.930156 0.009803 -0.010258 47924.900000 0 0 1
-30.432545 21.271791 26.028513 45.344375 -0.610042 0.959391 0.008024 -0.003071 62803.100000 0 0 1
-31.567025 21.592691 26.828363 46.717046 -0.599925 0.959080 0.011577 -0.010011 287816.000000 0 0 1
-32.575315 22.369191 26.236113 47.432747 -0.601738 0.984689 0.022376 -0.010104 -355984.000000 0 0 1
-32.461505 23.923591 26.266943 48.125251 -0.635118 0.993448 0.013369 -0.006875 -647988.000000 0 0 1
-33.595195 24.334391 25.576713 48.733643 -0.626876 1.018285 0.020157 -0.007210 -213043.000000 0 0 1
-33.525275 25.686791 25.532733 49.352565 -0.653784 1.027041 0.026201 -0.011792 1970.910000 0 0 1
-34.448300 26.348591 24.525943 49.824246 -0.652952 1.056125 0.044203 -0.010499 -240087.000000 0 0 1
-33.999075 26.049591 23.215073 48.718147 -0.653779 1.074106 0.048893 -0.018452 199455.000000 0 0 1
-34.923270 26.587591 22.309273 49.236556 -0.650703 1.100552 0.055319 -0.022411 1915.600000 0 0 1
-34.369923 26.538691 20.836973 48.164023 -0.657526 1.123394 0.052026 -0.029115 155354.000000 0 0 1
-34.683516 25.372791 20.133373 47.456058 -0.631589 1.132660 0.057021 -0.032665 55768.500000 0 0 1
-34.197092 25.377091 18.783073 46.542901 -0.638415 1.155387 0.050467 -0.030880 -88149.900000 0 0 1
-34.376338 24.065491 17.945173 45.638905 -0.610766 1.166688 0.050865 -0.019527 189716.000000 0 0 1
35.625885 23.912691 17.489773 46.334788 0.591146 1.183739 0.047930 -0.030168 -134608.000000 0 0 1
35.625757 22.987091 16.428273 45.469650 0.573020 1.201133 0.043215 -0.028074 -464146.000000 0 0 1
34.288476 22.804091 15.741673 44.085444 0.586893 1.205665 0.045440 -0.026709 -854881.000000 0 0 1
33.337666 22.093291 16.423573 43.234792 0.585260 1.181141 0.048634 -0.027667 -148721.000000 0 0 1
32.202086 21.730891 15.626773 41.873643 0.593632 1.188353 0.052885 -0.023749 269008.000000 0 0 1
31.278706 20.709291 16.391673 40.937991 0.584827 1.158840 0.044138 -0.019819 229070.000000 0 0 1
30.480956 21.238891 17.405573 41.026006 0.608570 1.132655 0.034724 -0.012377 -273996.000000 0 0 1
29.297526 21.885891 17.024173 40.338068 0.641592 1.135105 0.019762 -0.006495 -412568.000000 0 0 1
28.626426 22.687391 18.173073 40.797678 0.670171 1.109126 0.013285 -0.006855 -213428.000000 0 0 1
29.289676 23.814291 18.646073 42.103226 0.682654 1.112004 0.008514 -0.009405 -510291.000000 0 0 1
28.490086 24.653891 19.437773 42.394886 0.713338 1.094497 0.005123 -0.013859 183581.000000 0 0 1
29.376866 25.320991 20.548073 43.890502 0.711383 1.083581 0.027599 -0.029208 615561.000000 0 0 1
30.275066 26.279691 19.970573 44.788677 0.714869 1.108634 0.038604 -0.030877 379566.000000 0 0 1
31.233456 26.614491 20.967973 46.081621 0.705721 1.098404 0.047003 -0.028466 -182796.000000 0 0 1
32.108886 27.820091 20.623973 47.225907 0.713955 1.118859 0.056117 -0.029093 181957.000000 0 0 1
33.149626 28.120891 21.555973 48.521564 0.703507 1.110453 0.052890 -0.021391 657284.000000 0 0 1
32.726916 28.839991 22.699973 49.174026 0.722348 1.090970 0.024911 -0.004718 316059.000000 0 0 1
33.797306 28.635491 23.851743 50.310584 0.702908 1.076866 0.028578 -0.008643 501507.000000 0 0 1
34.958156 29.400191 23.684073 51.452689 0.699252 1.092454 0.048433 -0.010649 -257072.000000 0 0 1
35.481736 29.913791 24.888373 52.661367 0.700460 1.078544 0.048269 -0.008258 -535359.000000 0 0 1
-34.719465 30.912091 24.739913 52.659870 -0.727452 1.081726 0.036903 -0.010587 107719.000000 0 0 1
-33.511185 30.269991 24.319393 51.290396 -0.734624 1.076797 0.029237 -0.017280 -61977.100000 0 0 1
-32.406175 31.090091 24.508583 51.160771 -0.764674 1.071224 0.024584 -0.012671 -645467.000000 0 0 1
-31.054135 30.427991 24.268433 49.791352 -0.775214 1.061684 0.026814 -0.016852 -608549.000000 0 0 1
-30.533175 30.270091 22.963673 48.743035 -0.781071 1.080240 0.014628 -0.013925 19664.200000 0 0 1
-31.070595 29.259091 22.177773 48.097088 -0.755380 1.091557 0.026475 -0.013951 -499091.000000 0 0 1
-30.707085 27.796491 22.560773 47.165225 -0.735688 1.072039 0.015666 -0.009211 -1074730.000000 0 0 1
-29.348705 27.558391 22.389173 46.066109 -0.753948 1.063263 -0.008925 -0.013310 -583470.000000 0 0 1
-28.897905 26.436991 23.167073 45.505128 -0.740954 1.036647 -0.003518 -0.008829 -187067.000000 0 0 1
-28.670355 26.715691 24.689693 46.317365 -0.750121 1.008589 0.008181 -0.007006 544200.000000 0 0 1
-29.867675 27.030391 25.462723 47.655748 -0.735573 1.007111 0.001202 -0.008717 859987.000000 0 0 1
-29.432935 27.372491 26.702293 48.255190 -0.749142 0.984409 0.011972 -0.021658 -793845.000000 0 0 1
-30.428485 27.896191 27.720833 49.724589 -0.742008 0.979440 0.016244 -0.018252 -569202.000000 0 0 1
-31.073345 26.814291 28.345593 49.880172 -0.711956 0.966390 0.012739 -0.012283 177407.000000 0 0 1
-32.107245 27.230291 29.222523 51.247632 -0.703392 0.964020 0.020324 -0.004744 -136612.000000 0 0 1
-32.924295 26.156791 29.923333 51.610006 -0.671349 0.952317 0.013885 -0.003489 -413514.000000 0 0 1
-32.382425 25.491991 31.048353 51.599062 -0.666898 0.925139 0.013420 -0.001695 -207804.000000 0 0 1
-32.972485 24.201591 31.311393 51.510242 -0.633178 0.917424 0.004312 -0.006263 100699.000000 0 0 1
-32.162295 23.288991 32.269773 51.167651 -0.626724 0.888383 0.022375 -0.021833 -310497.000000 0 0 1
-30.985335 22.712991 31.779483 49.858865 -0.632548 0.879692 0.025396 -0.012857 -336109.000000 0 0 1
-30.409395 21.703991 32.620103 49.597032 -0.619879 0.853031 0.027529 -0.018104 439870.000000 0 0 1
-29.332795 22.165091 33.649788 49.839867 -0.647102 0.829617 0.036667 -0.023534 57758.400000 0 0 1
-29.892565 23.145691 -34.299739 51.046651 -0.658870 2.307607 0.045602 -0.029043 346928.000000 0 0 1
-29.897735 22.711191 -32.947879 49.952332 -0.649635 2.291065 0.034014 -0.019876 -255854.000000 0 0 1
-28.610205 23.008691 -32.142069 48.796068 -0.677304 2.289889 0.042690 -0.018523 -145987.000000 0 0 1
-28.468045 24.360591 -31.710139 49.085649 -0.707804 2.273151 0.035243 -0.016672 133155.000000 0 0 1
-27.281845 24.543691 -30.959869 48.012554 -0.732613 2.271595 0.059321 -0.013332 -128375.000000 0 0 1
-27.329065 25.828091 -30.052719 48.136618 -0.757169 2.245059 0.031650 -0.005817 -99470.200000 0 0 1
-27.374835 27.146791 -30.648149 49.250776 -0.781216 2.242458 0.026911 -0.008897 853336.000000 0 0 1
-28.619365 27.523491 -31.280609 50.547869 -0.765881 2.238050 0.019531 -0.008962 580899.000000 0 0 1
-28.576895 28.950791 -31.921489 51.708497 -0.791897 2.236148 0.028530 -0.012666 -30541.200000 0 0 1
-28.767465 30.072391 -31.070069 51.935199 -0.807572 2.212108 0.017688 -0.015843 75473.500000 0 0 1
-28.562465 31.330191 -31.705209 52.939735 -0.831577 2.212914 0.031267 -0.024885 -287956.000000 0 0 1
-28.591765 32.484291 -30.661029 53.035996 -0.849045 2.187216 0.023644 -0.007747 -69666.600000 0 0 1
-27.536955 32.523191 -29.741679 51.967387 -0.868229 2.180122 0.005089 -0.002626 91495.000000 0 0 1
-27.891545 33.576691 -28.821669 52.306989 -0.877625 2.154370 -0.007019 0.001544 65728.800000 0 0 1
-26.902505 33.750391 -27.644559 51.254808 -0.897825 2.140468 0.003398 -0.004522 838784.000000 0 0 1
-25.674005 -34.387848 -27.948919 51.213482 0.929474 2.148061 -0.003997 -0.006462 576940.000000 0 0 1
-25.689525 -32.977048 -27.996499 50.311444 0.908984 2.160920 0.010691 0.010324 -791311.000000 0 0 1
-26.140155 -32.188248 -26.770249 49.356228 0.888719 2.144074 0.001254 0.014621 191259.000000 0 0 1
-27.523865 -31.859648 -26.799719 49.908168 0.858282 2.137650 0.001194 0.004217 116632.000000 0 0 1
-27.890825 -31.121448 -25.661579 49.040384 0.840089 2.121485 -0.004057 0.010148 -603302.000000 0 0 1
-29.390485 -30.874548 -25.591809 49.719001 0.810019 2.111488 -0.004878 0.000924 -575912.000000 0 0 1
-29.880845 -30.142348 -26.693469 50.139479 0.789755 2.132211 0.005806 -0.002033 30524.900000 0 0 1
-31.285255 -30.032348 -26.570469 50.859600 0.764968 2.120492 -0.000504 -0.004961 -279592.000000 0 0 1
-31.847335 -29.135448 -27.674499 51.273824 0.740958 2.140924 0.006163 -0.006393 453592.000000 0 0 1
-33.257095 -29.371848 -27.781349 52.350198 0.723442 2.130202 0.016075 -0.007201 403637.000000 0 0 1
-33.771175 -28.575548 -28.852879 52.816123 0.702256 2.148724 0.017352 -0.009753 899976.000000 0 0 1
-35.344056 -28.675948 -28.915779 53.922487 0.681616 2.136781 0.014751 -0.010945 941158.000000 0 0 1
35.312376 -28.322248 -27.758209 53.100206 -0.675989 2.120872 0.011983 -0.013322 -1144720.000000 0 0 1
33.958536 -28.199248 -28.049159 52.298519 -0.693006 2.136877 0.015864 -0.016851 -696725.000000 0 0 1
33.167226 -27.473148 -26.957359 50.808838 -0.691774 2.130063 0.005352 -0.010016 -257581.000000 0 0 1
32.900436 -28.278748 -25.858919 50.505544 -0.709998 2.108310 0.018364 -0.007040 200981.000000 0 0 1
32.050276 -27.588748 -24.957509 49.104343 -0.710728 2.103953 0.017756 -0.005776 205258.000000 0 0 1
31.657566 -28.390748 -23.702209 48.682962 -0.731049 2.079298 0.025179 -0.005290 -91910.700000 0 0 1
30.910356 -29.562248 -23.827409 48.960413 -0.763109 2.079067 0.030176 -0.012897 65339.500000 0 0 1
30.399176 -30.132648 -22.618809 48.411744 -0.780995 2.056937 0.038242 -0.017376 130048.000000 0 0 1
31.490266 -30.479348 -21.550309 48.836906 -0.769086 2.027811 0.037161 -0.012872 722698.000000 0 0 1
32.651866 -31.200348 -22.054409 50.259358 -0.762670 2.025072 0.026741 -0.016320 1020220.000000 0 0 1
33.786706 -31.057948 -21.234509 50.567203 -0.743342 2.004161 0.018298 -0.018355 486996.000000 0 0 1
34.655696 -29.779948 -21.449809 50.477291 -0.709874 2.009692 0.005279 -0.008491 -317917.000000 0 0 1
34.046846 -28.689348 -20.802409 49.142717 -0.700208 2.007888 0.001960 -0.004026 -25693.200000 0 0 1
34.707296 -27.507848 -21.168509 49.085476 -0.670192 2.016683 -0.004496 -0.001011 -367903.000000 0 0 1
33.904246 -26.260548 -20.818009 47.670786 -0.659029 2.022728 -0.007918 0.001743 -491495.000000 0 0 1
32.686046 -26.181848 -21.461209 47.057946 -0.675356 2.044358 0.009457 -0.007882 -618628.000000 0 0 1
31.725116 -25.342648 -20.847909 45.643928 -0.674021 2.045136 0.016591 -0.008806 305852.000000 0 0 1
30.393776 -25.256648 -21.616709 45.044001 -0.693348 2.071339 0.015743 -0.013912 -143435.000000 0 0 1
29.680796 -26.440548 -21.813809 45.341973 -0.727726 2.072700 0.026560 -0.016268 -189546.000000 0 0 1
28.428366 -26.219648 -22.409709 44.697170 -0.745003 2.095975 0.023915 -0.019757 -270115.000000 0 0 1
27.705266 -27.465648 -22.804409 45.188325 -0.781055 2.099776 0.025932 -0.018344 -452356.000000 0 0 1
27.462096 -28.285848 -21.692309 44.997914 -0.800173 2.073816 0.028422 -0.013940 -229707.000000 0 0 1
26.825806 -29.436248 -22.162009 45.577091 -0.831763 2.078593 0.029314 -0.007529 -472332.000000 0 0 1
26.171756 -30.253548 -20.974809 45.168359 -0.857612 2.053719 0.037621 -0.001411 -271420.000000 0 0 1
26.984446 -30.655548 -19.881809 45.422564 -0.849002 2.023844 0.042336 -0.009128 255175.000000 0 0 1
27.931316 -31.693348 -20.197909 46.825018 -0.848410 2.016783 0.041925 -0.007919 740136.000000 0 0 1
28.816666 -32.123548 -18.945109 47.130030 -0.839609 1.984469 0.035703 -0.002598 -17513.100000 0 0 1
28.143466 -32.851548 -17.934109 46.828530 -0.862433 1.963810 0.033284 -0.005351 -8814.950000 0 0 1
27.591706 -31.951748 -16.984709 45.504910 -0.858492 1.953306 0.025500 -0.009578 -148145.000000 0 0 1
26.989196 -32.720848 -15.796609 45.261501 -0.881096 1.927308 0.026638 -0.002977 72803.500000 0 0 1
25.823656 -33.438348 -16.142209 45.227815 -0.913190 1.935753 0.036451 -0.004200 67809.700000 0 0 1
25.177956 -34.222048 -15.174709 45.114852 -0.936495 1.913842 0.033379 0.000806 1691520.000000 0 0 1
23.582656 -34.209748 -15.170509 44.233391 -0.967251 1.920868 0.037136 0.000496 1624850.000000 0 0 1
22.985856 -32.980048 -14.772209 42.828160 -0.962112 1.922948 0.038393 -0.002024 234623.000000 0 0 1
21.617156 -33.287248 -14.536109 42.268674 -0.994834 1.921861 0.033709 -0.008978 131271.000000 0 0 1
-0.369185 -6.965809 -28.787219 29.620310 1.517846 2.903860 0.046663 -0.005403 227911.000000 0 0 1
0.074115 -8.264209 -29.035389 30.188681 -1.561828 2.864289 0.041361 0.000531 -78001.600000 0 0 1
-0.625385 -8.784409 -30.150879 31.410706 1.499724 2.857412 0.018631 0.001424 -82718.500000 0 0 1
-0.495385 -10.335009 -30.184209 31.908374 1.522900 2.811354 0.013437 -0.001801 129794.000000 0 0 1
0.825215 -10.844509 -30.162809 32.063678 -1.494848 2.795531 0.014689 -0.000849 -13431.500000 0 0 1
0.917715 -12.112009 -29.607949 32.002713 -1.495172 2.752280 0.014442 -0.001119 -262121.000000 0 0 1
2.334815 -12.504609 -29.199099 31.849710 -1.386206 2.730732 0.015717 0.001164 -700591.000000 0 0 1
3.280215 -12.617109 -30.258939 32.947757 -1.316446 2.734792 0.015540 -0.003890 44595.300000 0 0 1
4.613215 -12.741509 -29.832189 32.765643 -1.223417 2.715219 0.041433 -0.010334 209733.000000 0 0 1
5.107415 -14.001009 -29.008579 32.613059 -1.221008 2.666997 0.047128 -0.023524 -953102.000000 0 0 1
4.580715 -14.284609 -27.715889 31.515132 -1.260481 2.645496 0.039673 -0.015874 169141.000000 0 0 1
5.388615 -15.259109 -27.042299 31.514497 -1.231326 2.602336 0.060263 -0.023809 163485.000000 0 0 1
5.139715 -16.805309 -27.296769 32.464576 -1.273992 2.569587 0.030364 -0.020127 -72980.000000 0 0 1
5.552415 -17.147909 -28.621889 33.824439 -1.257654 2.579590 0.032637 -0.021580 225458.000000 0 0 1
5.243615 -18.510509 -28.834009 34.663158 -1.294751 2.553201 0.024156 -0.020416 -312126.000000 0 0 1
5.330215 -18.959909 -30.282599 36.123748 -1.296739 2.564957 0.024969 -0.017444 -1248120.000000 0 0 1
6.615215 -18.920209 -30.756049 36.710625 -1.234444 2.564032 0.026033 -0.020033 -1081110.000000 0 0 1
6.717915 -19.564009 -32.004929 38.107694 -1.240030 2.567812 0.021996 -0.023677 -160747.000000 0 0 1
8.122415 -19.593009 -32.624619 38.913050 -1.177804 2.565134 0.028522 -0.018992 -88289.700000 0 0 1
8.570615 -18.330309 -33.091549 38.787966 -1.133432 2.592771 0.029085 -0.016922 -271191.000000 0 0 1
9.696215 -18.377309 -33.907099 39.767241 -1.085299 2.591812 0.020286 -0.011940 -465710.000000 0 0 1
10.058215 -17.003109 34.191917 39.488740 -1.036612 0.523920 0.020110 -0.006988 150600.000000 0 0 1
9.111915 -16.701209 33.181072 38.248410 -1.071350 0.520612 0.017754 -0.005531 181381.000000 0 0 1
9.127915 -15.357609 32.738793 37.296160 -1.034536 0.499534 0.020738 -0.004274 -495754.000000 0 0 1
8.120615 -15.142909 31.656793 36.019503 -1.078559 0.497289 0.024488 -0.016642 -526791.000000 0 0 1
8.537815 -15.749509 30.482933 35.357467 -1.074038 0.531327 0.024549 -0.016871 -451745.000000 0 0 1
7.619215 -15.490209 29.481743 34.163902 -1.113671 0.529717 0.021420 -0.016725 -785576.000000 0 0 1
7.672115 -16.439809 28.299453 33.615290 -1.134159 0.570071 0.010731 -0.008879 -651454.000000 0 0 1
7.421715 -17.786809 28.608313 34.494753 -1.175500 0.592848 0.008330 -0.010568 266684.000000 0 0 1
7.491715 -18.556009 27.440803 33.962463 -1.187074 0.630090 0.002151 -0.003180 -263362.000000 0 0 1
6.868115 -19.922809 27.704983 34.808841 -1.238818 0.650274 0.009761 -0.000237 -702852.000000 0 0 1
7.638715 -20.738209 28.536663 36.093828 -1.217877 0.658968 0.010441 0.001828 520994.000000 0 0 1
6.887515 -21.805309 29.108813 37.016650 -1.264850 0.665884 0.001447 0.004121 -103917.000000 0 0 1
7.479915 -21.956309 30.521903 38.335560 -1.242455 0.649846 -0.003703 -0.000689 -5429.560000 0 0 1
7.020115 -21.135709 31.622373 38.677832 -1.250116 0.613594 0.008863 -0.005747 226368.000000 0 0 1
7.262015 -19.721209 31.481953 37.852032 -1.217971 0.588614 0.003484 -0.011748 -574888.000000 0 0 1
6.644415 -18.918809 32.625253 38.294604 -1.233047 0.551090 0.009301 -0.014219 -426186.000000 0 0 1
5.244815 -18.865409 32.715653 38.127755 -1.299632 0.539329 0.022949 -0.020262 -338721.000000 0 0 1
5.031215 -17.868209 33.641739 38.423334 -1.296329 0.504213 0.032955 -0.013556 678403.000000 0 0 1
3.618015 -17.852009 34.320087 38.854248 -1.370838 0.487934 0.024283 -0.018769 540871.000000 0 0 1
3.499615 -18.877009 -33.511449 38.621316 -1.387487 2.621339 0.016498 -0.014490 -38560.000000 0 0 1
2.230515 -18.734409 -32.922239 37.945054 -1.452294 2.621211 0.011762 -0.028770 -171506.000000 0 0 1
1.833715 -19.735809 -31.833219 37.499580 -1.478149 2.584688 0.011959 -0.014775 -449766.000000 0 0 1
1.009915 -20.770109 -32.368619 38.472651 -1.522211 2.570556 0.011518 -0.016618 354464.000000 0 0 1
0.426015 -21.661409 -31.441629 38.183428 -1.551132 2.538238 0.007666 -0.014508 608675.000000 0 0 1
-0.575785 -21.098609 -30.355409 36.972067 1.543513 2.534020 0.013500 -0.017363 176923.000000 0 0 1
-1.645885 -20.300309 -30.848219 36.965175 1.489896 2.558059 0.021267 -0.028815 207861.000000 0 0 1
-2.221885 -19.483609 -29.868219 35.730356 1.457248 2.560629 0.030785 -0.012241 -83536.200000 0 0 1
-1.815585 -18.070609 -30.179679 35.222952 1.470661 2.599864 0.009977 -0.003278 -422075.000000 0 0 1
-2.462585 -17.097409 -29.440749 34.134198 1.427747 2.610986 0.020930 -0.007794 -584356.000000 0 0 1
-2.102185 -15.772709 -29.851569 33.827707 1.438297 2.651861 0.024046 -0.011743 -879503.000000 0 0 1
-3.098885 -14.729409 -29.419819 33.046700 1.363433 2.668690 0.014755 0.001240 -153613.000000 0 0 1
-2.906185 -14.348709 -28.061649 31.651027 1.370960 2.660728 0.008604 -0.002437 871857.000000 0 0 1
-3.936885 -13.357509 -27.758609 31.055797 1.284180 2.676612 0.005809 -0.006293 980273.000000 0 0 1
-4.225585 -13.258909 -26.251719 29.712069 1.262275 2.654158 0.006627 -0.005185 -553770.000000 0 0 1
-4.517085 -14.464709 -25.562279 29.716359 1.268109 2.606476 0.001077 0.002870 262383.000000 0 0 1
-4.724785 -14.318509 -24.178409 28.494540 1.252069 2.583993 0.002013 0.006617 -160261.000000 0 0 1
-5.530085 -13.111309 -23.578709 27.539859 1.171656 2.598601 0.015487 -0.007374 172994.000000 0 0 1
-6.854385 -13.040509 -24.121709 28.264719 1.086861 2.593310 0.006851 -0.010544 412164.000000 0 0 1
-7.594785 -12.154109 -23.297909 27.353166 1.012288 2.590102 -0.013057 -0.010301 540536.000000 0 0 1
-9.139785 -12.055209 -23.510509 27.957249 0.922093 2.569824 0.016065 -0.016691 606672.000000 0 0 1
-9.939585 -13.127709 -23.078009 28.350073 0.922738 2.521866 0.010844 -0.012997 -80064.200000 0 0 1
-10.069185 -14.170209 -23.978809 29.616999 0.952999 2.514318 0.016231 -0.013820 -326817.000000 0 0 1
-11.003285 -15.293509 -23.397509 30.040092 0.947120 2.463668 0.022653 -0.018714 -165171.000000 0 0 1
-10.529785 -16.194109 -22.417809 29.591954 0.994264 2.430370 0.020234 -0.010937 -485279.000000 0 0 1
-11.402785 -17.250309 -22.060609 30.236851 0.986714 2.388524 0.027093 -0.008902 -132471.000000 0 0 1
-11.896685 -18.251709 -23.083109 31.740919 0.993148 2.385081 0.021709 -0.001845 -475648.000000 0 0 1
-13.054485 -17.694509 -23.617409 32.269138 0.935168 2.391885 0.019112 -0.005018 -768013.000000 0 0 1
-13.596685 -18.523209 -24.654109 33.701695 0.937591 2.391373 0.014335 -0.005094 830965.000000 0 0 1
-14.830385 -17.791709 -25.303919 34.304134 0.875927 2.400357 0.018875 -0.006474 1163470.000000 0 0 1
-16.049385 -17.652009 -24.574109 34.250008 0.832916 2.370992 0.032924 -0.006013 457550.000000 0 0 1
-17.147985 -17.326809 -25.415919 35.217051 0.790585 2.377042 0.030223 -0.011625 396294.000000 0 0 1
-17.828085 -16.005409 -24.975309 34.608956 0.731578 2.376969 0.045769 -0.013413 -463621.000000 0 0 1
-18.534285 -16.053609 -23.787309 34.162468 0.713800 2.341025 0.037731 -0.010579 -241422.000000 0 0 1
-19.120485 -14.826309 -23.428509 33.679481 0.659569 2.340095 0.043337 -0.014458 183635.000000 0 0 1
-19.976285 -14.824509 -22.165809 33.318781 0.638429 2.298645 0.026467 -0.020307 257998.000000 0 0 1
-19.117885 -15.030609 -21.039509 32.157016 0.666274 2.284019 0.036742 -0.013051 521033.000000 0 0 1
-19.775785 -14.931409 -19.771509 31.700808 0.646716 2.244252 0.024643 -0.017253 31595.000000 0 0 1
-20.260685 -13.522809 -19.292909 31.073752 0.588538 2.240654 0.028390 -0.013866 -354527.000000 0 0 1
-21.411285 -13.028009 -19.916509 32.013115 0.546620 2.242264 0.027871 -0.021958 -378668.000000 0 0 1
-21.878385 -12.009809 -19.112909 31.435689 0.502025 2.224336 0.026390 -0.014115 163914.000000 0 0 1
-23.324285 -11.528909 -19.430509 32.472800 0.459067 2.212252 0.029625 -0.015084 375182.000000 0 0 1
-23.555385 -10.769109 -20.616209 33.103746 0.428811 2.243082 0.024258 -0.016910 1072780.000000 0 0 1
-24.982185 -10.518809 -20.714809 34.115367 0.398522 2.223327 0.030301 -0.018893 1181230.000000 0 0 1
-25.348285 -9.798509 -22.043309 34.992197 0.368863 2.252284 0.028826 -0.020877 -269914.000000 0 0 1
-25.264645 -10.489309 -23.262309 35.909093 0.393521 2.275504 0.023111 -0.025329 390419.000000 0 0 1
-26.002375 -9.702409 -24.184809 36.812569 0.357135 2.287591 0.014872 -0.021625 -254021.000000 0 0 1
-25.817845 -10.201709 -25.644259 37.792381 0.376311 2.316592 0.011932 -0.018699 595841.000000 0 0 1
-24.579985 -9.972509 -26.332559 37.376868 0.385425 2.352536 0.001814 -0.019981 230856.000000 0 0 1
-23.780585 -11.114509 -26.399009 37.228433 0.437211 2.359030 0.008095 -0.015984 346087.000000 0 0 1
-22.616085 -11.089009 -27.422669 37.235148 0.455870 2.398637 0.021226 -0.014523 297942.000000 0 0 1
-23.255785 -11.165709 -28.672479 38.569621 0.447622 2.408929 0.024346 -0.008239 -211473.000000 0 0 1
-22.369785 -11.181809 -29.736859 38.855128 0.463537 2.442345 0.029835 -0.007611 -311781.000000 0 0 1
-22.937185 -11.554109 -31.136399 40.361953 0.466626 2.451881 0.026470 -0.008017 103018.000000 0 0 1
-23.815385 -10.630509 -31.803279 41.129416 0.419832 2.454745 0.019150 -0.004633 141527.000000 0 0 1
-23.237785 -9.510209 -32.420719 41.006607 0.388460 2.482620 0.013061 -0.005576 -321125.000000 0 0 1
-24.237285 -8.335109 -32.728779 41.570338 0.331227 2.477232 0.005103 -0.001300 -542196.000000 0 0 1
-25.099155 -8.472309 -33.869859 42.999011 0.325544 2.477846 0.025323 0.001800 1410200.000000 0 0 1
-26.357735 -9.110809 -33.594649 43.661625 0.332803 2.448748 0.030254 -0.005388 851929.000000 0 0 1
-27.335755 -8.400109 -32.597089 43.363298 0.298135 2.421464 0.031004 0.000740 308932.000000 0 0 1
-28.748035 -8.677509 -32.702899 44.398517 0.293150 2.398791 0.031537 0.000162 834791.000000 0 0 1
-29.467345 -8.309609 -31.597409 43.997390 0.274857 2.371959 0.040113 0.001653 498972.000000 0 0 1
-31.001715 -8.609509 -31.627139 45.116582 0.270885 2.347608 0.032155 -0.008982 625091.000000 0 0 1
-31.195275 -9.971309 -31.846669 45.681315 0.309378 2.342209 0.029157 -0.004758 469493.000000 0 0 1
-32.483145 -10.460909 -31.486669 46.432701 0.311553 2.315990 0.018533 -0.002225 268978.000000 0 0 1
-32.450915 -11.950609 -31.685439 46.902516 0.352855 2.312520 0.009864 -0.001146 -81991.200000 0 0 1
-33.718735 -12.580609 -31.536789 47.851791 0.357108 2.290353 0.021162 -0.001918 297293.000000 0 0 1
-33.596745 -14.005409 -31.777359 48.318665 0.394963 2.288508 0.025343 -0.006866 158677.000000 0 0 1
-34.843558 -14.861609 -31.459289 49.240510 0.403161 2.263851 0.010332 -0.016293 141984.000000 0 0 1
-35.134713 -14.876809 -30.089699 48.591743 0.400533 2.238564 0.024188 -0.018686 -235921.000000 0 0 1
35.594001 -16.037609 -29.609089 48.998327 -0.423328 2.219668 0.014777 -0.022294 -87121.000000 0 0 1
35.552542 -15.977309 -28.090289 48.045000 -0.422355 2.195265 0.028553 -0.017450 -171379.000000 0 0 1
-34.533940 -16.180709 -27.481129 47.006604 0.438169 2.195211 0.025421 -0.027135 -198578.000000 0 0 1
-34.630528 -16.271509 -26.100829 46.317262 0.439246 2.169440 0.034561 -0.024085 570010.000000 0 0 1
-33.277355 -15.865009 -25.434569 44.788371 0.444876 2.174728 0.039327 -0.019246 1805340.000000 0 0 1
-32.046975 -16.535009 -25.806879 44.344224 0.476335 2.191942 0.038575 -0.018722 929575.000000 0 0 1
-30.956665 -16.243309 -24.969209 42.960699 0.483221 2.191012 0.043037 -0.000534 -313325.000000 0 0 1
-29.716675 -17.076609 -25.208449 42.545943 0.521569 2.204954 0.030233 -0.000358 -575601.000000 0 0 1
-29.652725 -18.357809 -24.657309 42.711546 0.554341 2.186213 0.037038 -0.013409 394494.000000 0 0 1
-30.482135 -19.384609 -25.293939 44.098832 0.566423 2.181658 0.037384 -0.019173 292671.000000 0 0 1
-30.234065 -20.817109 -24.708009 44.248576 0.602988 2.163241 0.036907 -0.024851 -134105.000000 0 0 1
-28.881635 -21.176009 -24.565109 43.428295 0.632662 2.172015 0.035395 -0.007859 -165803.000000 0 0 1
-28.871755 -22.299709 -23.762709 43.537589 0.657666 2.148137 0.028657 -0.003901 81016.700000 0 0 1
-27.509435 -23.054009 -23.614809 42.964120 0.697510 2.152730 0.020640 -0.004752 1022060.000000 0 0 1
-26.388885 -22.374209 -23.018709 41.555258 0.703253 2.157874 0.016402 -0.006637 573015.000000 0 0 1
-26.420435 -22.183509 -21.611009 40.708515 0.698446 2.130425 0.036587 -0.023062 -266284.000000 0 0 1
-26.619315 -23.319309 -20.542109 40.918900 0.719413 2.096729 0.044035 -0.010176 -76886.700000 0 0 1
-26.426945 -22.790209 -19.241909 39.850071 0.711641 2.074711 0.042411 -0.016560 120283.000000 0 0 1
-26.479495 -23.829309 -18.229909 40.016612 0.732768 2.043796 0.036456 0.019757 -52068.400000 0 0 1
-26.454205 -23.282409 -16.793809 39.037515 0.721713 2.015507 0.033095 0.016264 -331777.000000 0 0 1
-27.553355 -22.441709 -16.609409 39.226142 0.683509 2.008021 0.033240 0.003070 -319712.000000 0 0 1
-27.519665 -21.657709 -15.426909 38.267191 0.666758 1.985738 0.031450 0.002376 -886247.000000 0 0 1
-28.895805 -21.153809 -15.083309 38.858171 0.631928 1.969434 0.019452 0.005932 -921921.000000 0 0 1
-29.546875 -20.371809 -16.027909 39.305500 0.603627 1.990815 0.013951 0.012379 -854498.000000 0 0 1
-30.857805 -20.205409 -15.602509 40.048733 0.579736 1.970981 0.023846 0.014252 -849627.000000 0 0 1
-31.823255 -19.568709 -16.606709 40.883209 0.551317 1.989087 0.015389 0.002064 -63259.700000 0 0 1
-32.551865 -20.634109 -17.269209 42.232878 0.564962 1.992049 0.003325 0.012284 255550.000000 0 0 1
-33.317425 -20.095209 -18.352609 43.019606 0.542728 2.011538 0.010772 0.014045 93174.200000 0 0 1
-34.051835 -21.186409 -19.151709 44.442990 0.556570 2.016317 -0.004283 0.010252 131559.000000 0 0 1
-35.231511 -21.795309 -18.633009 45.425587 0.554006 1.993456 -0.012869 0.019525 41791.400000 0 0 1
-35.038360 -22.626009 -17.493809 45.228933 0.573381 1.967937 0.004167 0.020003 -337361.000000 0 0 1
35.265735 -23.752909 -17.504609 45.981346 -0.592746 1.961338 -0.003004 0.029733 248527.000000 0 0 1
33.905556 -23.379109 -17.334009 44.683749 -0.603669 1.969177 0.006356 0.015800 89747.400000 0 0 1
33.127986 -24.548709 -17.322409 44.723243 -0.637733 1.968524 -0.003424 0.010072 266718.000000 0 0 1
31.682976 -24.383809 -16.762709 43.351696 -0.655939 1.967812 0.000510 0.007080 465801.000000 0 0 1
30.733566 -24.007409 -17.737709 42.843134 -0.663139 1.997657 -0.008461 -0.005532 -366648.000000 0 0 1
29.428666 -24.209109 -17.248409 41.828639 -0.688392 1.995838 0.010739 -0.010178 -77707.900000 0 0 1
28.333656 -23.941509 -18.290509 41.358611 -0.701575 2.028893 0.022925 -0.003581 -288343.000000 0 0 1
28.085346 -22.595909 -18.510009 40.521380 -0.677506 2.045187 0.034641 -0.004921 -1071750.000000 0 0 1
26.787596 -22.213609 -18.736009 39.522877 -0.692323 2.064687 0.023455 -0.019481 -1202850.000000 0 0 1
33.898326 29.477891 -18.281809 48.500176 0.715762 1.957290 0.035028 -0.000156 -533830.000000 0 0 1
33.034746 29.707191 -19.337909 48.453755 0.732412 1.981332 0.030606 -0.009811 -209980.000000 0 0 1
33.777956 29.876491 -20.522809 49.545340 0.724183 1.997885 0.038368 0.002588 -189253.000000 0 0 1
32.851416 30.123591 -21.709409 49.577663 0.742109 2.024043 0.039955 0.006437 -901618.000000 0 0 1
32.066816 28.999291 -21.996409 48.508572 0.735207 2.041433 0.037229 -0.010698 164682.000000 0 0 1
31.104566 29.129791 -23.034709 48.442095 0.752625 2.066340 0.047184 -0.003109 902140.000000 0 0 1
29.881526 30.082691 -22.791209 48.138478 0.788753 2.064001 0.046872 -0.004614 -321492.000000 0 0 1
30.164646 31.436691 -22.866509 49.204153 0.806045 2.054123 0.053353 -0.012282 -669829.000000 0 0 1
29.011386 32.198691 -22.757509 48.952226 0.837423 2.054309 0.055009 -0.003114 -1069240.000000 0 0 1
29.247256 33.749391 -22.707809 50.100579 0.856743 2.041198 0.051069 -0.005969 21276.900000 0 0 1
29.903336 34.253091 -21.564409 50.324025 0.853094 2.013641 0.044306 -0.005991 281413.000000 0 0 1
31.285916 33.961691 -21.452509 50.915765 0.826385 2.005711 0.036849 -0.011073 -232408.000000 0 0 1
31.720146 33.953091 -19.946009 50.565041 0.819386 1.976279 0.035606 -0.013243 -172985.000000 0 0 1
31.680686 -33.668548 -19.288909 50.092904 -0.815808 1.966072 0.039729 -0.009873 83054.500000 0 0 1
31.907036 -33.864648 -17.913409 49.857433 -0.815153 1.938306 0.025545 -0.012648 -351081.000000 0 0 1
31.957266 -32.539248 -17.097909 48.707372 -0.794421 1.929471 0.027638 0.005864 -532613.000000 0 0 1
33.093526 -31.794448 -17.384009 49.074150 -0.765381 1.932897 0.028545 0.000209 -780932.000000 0 0 1
34.107286 -31.974248 -16.427609 49.553263 -0.753130 1.908704 0.030112 0.005527 -562752.000000 0 0 1
35.371053 -31.183648 -16.787209 50.053389 -0.722564 1.912811 0.018662 0.010703 -176986.000000 0 0 1
-35.131021 -31.950948 -17.641109 50.658272 0.738028 1.926487 0.019147 0.003116 -721899.000000 0 0 1
-34.132612 -31.178448 -18.217409 49.689082 0.740197 1.946178 0.012259 0.004954 -559793.000000 0 0 1
-33.139215 -31.930748 -19.074209 49.815718 0.766828 1.963725 0.009614 -0.005764 -689593.000000 0 0 1
-32.309015 -32.849448 -18.361709 49.599507 0.793692 1.950020 0.018786 -0.004408 -84397.200000 0 0 1
-31.403945 -33.562748 -19.139109 49.789269 0.818615 1.965357 0.009381 -0.001570 -704108.000000 0 0 1
-30.136505 -32.880948 -19.601809 48.719571 0.828921 1.984867 0.003755 -0.000506 -2235430.000000 0 0 1
-30.277395 -31.896448 -20.609509 48.568055 0.811433 2.009032 -0.004695 0.005397 -23695.400000 0 0 1
-29.067615 -31.435248 -21.179009 47.766636 0.824511 2.030168 0.002454 0.000705 150245.000000 0 0 1
-28.176165 -32.522748 -21.791309 48.233667 0.856885 2.039563 0.001043 0.009698 -1063380.000000 0 0 1
-28.849765 -33.115848 -22.853609 49.510159 0.854136 2.050588 -0.001690 0.012851 -193084.000000 0 0 1
-28.149275 -34.181448 -23.489809 50.125086 0.881875 2.058529 -0.003845 0.000075 -457995.000000 0 0 1
-28.969045 33.981691 -24.586309 50.974969 -0.864859 2.074099 -0.013456 -0.007277 -1334160.000000 0 0 1
-29.951545 33.136691 -24.138509 50.772069 -0.835842 2.066248 -0.009483 -0.014027 -740464.000000 0 0 1
-30.578155 32.401891 -25.163059 51.167232 -0.814347 2.084930 -0.009516 -0.010477 363146.000000 0 0 1
-31.549385 33.095691 -26.146319 52.671799 -0.809314 2.090244 -0.009457 -0.019938 -754211.000000 0 0 1
-30.840355 34.010291 -26.964339 53.243807 -0.834240 2.101838 -0.010203 -0.022353 -203704.000000 0 0 1
-31.685195 -33.900748 -27.612769 53.997012 0.819166 2.107581 -0.011663 -0.021264 102569.000000 0 0 1
-31.096385 -33.119448 -28.826189 53.803645 0.816892 2.136212 -0.003282 -0.017136 -125639.000000 0 0 1
-30.982665 -33.774348 -30.102269 54.834102 0.828482 2.151928 0.001352 -0.013745 -356373.000000 0 0 1
-32.163055 -33.850448 -30.836549 55.957195 0.810954 2.154447 0.000187 -0.017070 -520772.000000 0 0 1
-32.003765 34.071391 -32.079639 56.693949 -0.816680 2.172247 0.010718 -0.013549 263094.000000 0 0 1
-31.178535 -34.238148 -33.128499 56.937240 0.832135 2.191788 0.011045 -0.020735 182138.000000 0 0 1
-31.358895 33.918091 -34.338153 57.558022 -0.824583 2.210033 0.000064 -0.024171 247645.000000 0 0 1
-30.270635 34.237391 33.382771 56.594343 -0.846813 0.939910 0.006704 -0.023174 310073.000000 0 0 1
-29.022475 33.668491 33.595640 55.718384 -0.859373 0.923597 0.023250 -0.018327 -623583.000000 0 0 1
-28.986355 32.433591 32.940285 54.563806 -0.841465 0.922660 0.032224 -0.024194 -218054.000000 0 0 1
-27.564245 31.823991 33.014438 53.502402 -0.857003 0.905789 0.042073 -0.020061 67867.700000 0 0 1
-27.212255 31.498691 34.379100 53.987006 -0.858278 0.880451 0.047265 -0.023545 173422.000000 0 0 1
-25.842935 31.188091 -34.289603 53.069117 -0.878849 2.273301 0.050295 -0.020036 334867.000000 0 0 1
-25.220815 29.809291 34.082725 51.829677 -0.868587 0.853180 0.054559 -0.025115 -303941.000000 0 0 1
-25.659275 28.796391 -33.956059 51.387201 -0.842943 2.292665 0.063447 -0.020153 65238.800000 0 0 1
-25.087875 27.543591 -34.255764 50.611345 -0.832023 2.314257 0.057811 -0.021468 -264903.000000 0 0 1
-25.076495 26.559791 -33.037989 49.252023 -0.814116 2.306076 0.064266 -0.024654 433078.000000 0 0 1
-23.959785 26.810491 -32.155799 48.237632 -0.841488 2.300451 0.068755 -0.019668 564947.000000 0 0 1
-24.072885 28.039791 -31.447339 48.524930 -0.861373 2.275838 0.056791 -0.013024 380032.000000 0 0 1
-22.866885 28.211091 -30.472669 47.406156 -0.889647 2.268944 0.070085 -0.010451 240503.000000 0 0 1
-21.605485 28.563791 -30.980699 47.354945 -0.923215 2.283951 0.055673 -0.009199 -324259.000000 0 0 1
-20.611485 28.474791 -29.981669 46.201164 -0.944242 2.276983 0.028858 -0.009561 108267.000000 0 0 1
-20.383085 29.705391 -29.053369 46.281515 -0.969410 2.249460 0.019950 -0.005663 -333262.000000 0 0 1
-19.724785 30.809691 -29.669859 47.102067 -1.001332 2.252228 0.016851 0.001412 200513.000000 0 0 1
-19.344485 31.859691 -28.836659 47.125385 -1.025116 2.229274 0.008786 -0.000181 -71791.000000 0 0 1
-19.031185 33.150991 -29.635669 48.367831 -1.049657 2.230287 0.002214 0.006340 1029030.000000 0 0 1
-17.824485 33.003091 -30.438719 48.305609 -1.075597 2.252514 0.004129 0.001669 745474.000000 0 0 1
-17.638985 34.054691 -31.341229 49.529066 -1.092884 2.255940 0.009218 0.006274 -155184.000000 0 0 1
-16.178985 34.081191 -31.833009 49.362208 -1.127577 2.271671 0.005397 0.005142 -93088.800000 0 0 1
-15.298785 -34.200248 -30.882349 48.553365 1.150165 2.260164 0.016494 -0.002100 171160.000000 0 0 1
-13.906385 -34.183048 -31.103399 48.262716 1.184424 2.271113 0.029696 0.008870 740391.000000 0 0 1
-13.130685 33.288291 -31.057809 47.382620 -1.195080 2.285599 0.035257 -0.000551 -275034.000000 0 0 1
-13.110285 32.613191 -29.792229 46.076856 -1.188573 2.273885 0.047213 -0.013083 -4625.430000 0 0 1
-12.761085 31.264091 -29.985339 45.159819 -1.183266 2.296929 0.033865 -0.013116 -112524.000000 0 0 1
-12.615885 30.458991 -28.708589 43.716058 -1.178115 2.287239 0.030523 -0.023367 938785.000000 0 0 1
-11.355085 30.753991 -28.060759 43.152660 -1.217100 2.278732 0.034678 -0.013287 739772.000000 0 0 1
-11.354385 30.298391 -26.720099 41.962820 -1.212243 2.261081 0.030922 -0.022696 202041.000000 0 0 1
-10.053985 30.631391 -25.947139 41.383798 -1.253650 2.248477 0.035876 -0.013472 553298.000000 0 0 1
-8.942885 29.768091 -26.214629 40.661053 -1.278956 2.271442 0.043508 -0.011961 -478329.000000 0 0 1
-7.799985 30.439591 -25.805279 40.661049 -1.319949 2.258344 0.050019 -0.016016 -621119.000000 0 0 1
-6.537085 29.851891 -26.478469 40.434863 -1.355215 2.284771 0.033544 -0.016200 -261918.000000 0 0 1
-6.076085 28.726691 -25.813539 39.095785 -1.362355 2.291967 0.036147 -0.021847 -81694.200000 0 0 1
-4.915985 28.114791 -26.357249 38.849877 -1.397692 2.316431 0.039316 -0.026093 90613.900000 0 0 1
-4.467985 27.010491 -25.417189 37.357235 -1.406864 2.319080 0.042847 -0.022818 -932028.000000 0 0 1
-5.338485 25.974391 -25.204459 36.584603 -1.368090 2.330817 0.050873 -0.020964 -954314.000000 0 0 1
-4.715585 24.775491 -24.786209 35.361248 -1.382713 2.347515 0.045223 -0.023100 -697104.000000 0 0 1
-5.540985 23.502391 -24.601909 34.472000 -1.339262 2.365531 0.051093 -0.022798 -325491.000000 0 0 1
-5.662885 22.896691 -25.898979 35.029756 -1.328338 2.402889 0.043353 -0.023309 469726.000000 0 0 1
-6.551485 21.756191 -25.772819 34.358289 -1.278301 2.419039 0.034933 -0.023875 157487.000000 0 0 1
-6.620385 20.980391 -27.067889 34.880896 -1.265134 2.459110 0.038028 -0.018589 127309.000000 0 0 1
-5.490785 20.152391 -27.283739 34.360879 -1.304790 2.488215 0.051454 -0.022287 -248980.000000 0 0 1
-5.195585 19.114691 -26.383929 32.992078 -1.305397 2.497600 0.045536 -0.015777 -430818.000000 0 0 1
-3.961585 18.274291 -26.730849 32.621805 -1.357315 2.531189 0.042112 -0.019827 -88342.100000 0 0 1
-3.964885 17.673391 -28.056989 33.395564 -1.350108 2.568340 0.050270 -0.023600 148751.000000 0 0 1
-2.995585 16.612691 -28.121539 32.799024 -1.392394 2.600972 0.047449 -0.015635 65255.600000 0 0 1
-2.665285 16.379591 -29.586599 33.922877 -1.409490 2.630422 0.056407 -0.014474 -197994.000000 0 0 1
-1.856785 17.434791 -30.032529 34.776032 -1.464697 2.613160 0.062636 -0.023470 -108620.000000 0 0 1
-1.742085 17.350791 -31.449369 35.960362 -1.470728 2.635317 0.058789 -0.023821 -15009.100000 0 0 1
-0.942085 18.556191 -31.992509 36.996491 -1.520071 2.615438 0.070114 -0.006535 654202.000000 0 0 1
0.434715 18.585791 -31.560689 36.629192 1.547411 2.609262 0.074512 -0.011296 925471.000000 0 0 1
1.118215 19.669691 -32.228229 37.773084 1.514008 2.592898 0.075944 0.002004 313406.000000 0 0 1
0.879515 21.083891 -31.647479 38.037704 1.529105 2.553505 0.076787 -0.001436 -95849.600000 0 0 1
1.477515 21.226091 -30.360469 37.074089 1.501300 2.530312 0.076592 -0.016019 -24684.700000 0 0 1
1.269515 22.525791 -29.794809 37.373166 1.514498 2.493480 0.081332 -0.019177 511904.000000 0 0 1
2.283315 22.658891 -28.612239 36.569100 1.470366 2.469332 0.075133 -0.018809 1065520.000000 0 0 1
3.654315 22.777791 -29.018889 37.071252 1.411719 2.469928 0.065870 -0.016535 816421.000000 0 0 1
4.556915 22.965391 -27.914449 36.433379 1.374915 2.443669 0.054370 -0.023829 373765.000000 0 0 1
4.826515 24.459391 -27.586649 37.183064 1.375972 2.406717 0.061156 -0.018145 -301019.000000 0 0 1
5.531915 25.076291 -28.665289 38.485338 1.353671 2.411086 0.047684 -0.015169 287147.000000 0 0 1
5.875815 26.412191 -28.338319 39.181492 1.351895 2.379305 0.038436 -0.019717 -577758.000000 0 0 1
6.711515 27.059491 -29.425009 40.535067 1.327674 2.383160 0.032606 -0.018282 -820533.000000 0 0 1
8.056015 26.686091 -29.326909 40.461270 1.277615 2.381561 0.011296 -0.013278 -469250.000000 0 0 1
8.848815 27.374891 -30.283589 41.770587 1.258152 2.381828 0.020364 -0.014971 -673564.000000 0 0 1
10.275315 27.536491 -29.825959 41.873957 1.213646 2.363537 0.017782 -0.013583 -754245.000000 0 0 1
11.064715 28.351491 -30.677439 43.212732 1.198707 2.360176 0.020535 -0.012157 756701.000000 0 0 1
12.368915 28.590491 -30.104069 43.320448 1.162486 2.339099 0.023936 -0.016300 964795.000000 0 0 1
13.185915 29.654391 -30.877919 44.796173 1.152398 2.331316 0.033587 -0.017285 22662.200000 0 0 1
12.603815 30.944791 -30.882669 45.499181 1.184013 2.316858 0.029464 -0.012359 153866.000000 0 0 1
13.352415 31.796891 -31.730439 46.863099 1.173229 2.314595 0.054752 -0.021905 35077.000000 0 0 1
12.774515 33.241091 -31.822889 47.758294 1.203898 2.300075 0.058409 -0.030554 679046.000000 0 0 1
11.644115 33.299791 -32.713249 48.110478 1.234411 2.318506 0.043844 -0.027775 491677.000000 0 0 1
11.055915 -34.290248 -32.689339 48.648199 -1.258898 2.307640 0.042871 -0.023859 -198982.000000 0 0 1
9.837715 -34.015448 -33.577559 48.798400 -1.289265 2.329646 0.023786 -0.016269 174866.000000 0 0 1
10.223515 -33.650348 33.907784 48.852881 -1.275842 0.803656 0.024714 -0.009522 -113121.000000 0 0 1
9.029015 -33.414148 33.244840 47.992163 -1.306884 0.805551 0.023097 -0.008324 -368814.000000 0 0 1
9.133415 -32.307048 32.128163 46.469167 -1.295280 0.807390 0.031835 -0.008191 -45137.400000 0 0 1
9.028815 -30.935548 32.496783 45.766456 -1.286825 0.781217 0.016971 -0.008169 117326.000000 0 0 1
9.409515 -30.139548 31.404783 44.533040 -1.268186 0.788089 0.038087 -0.005347 -455368.000000 0 0 1
8.779815 -28.750448 31.675743 43.669510 -1.274411 0.759252 0.027499 -0.011793 119336.000000 0 0 1
7.385515 -28.595848 31.537813 43.207661 -1.318047 0.752602 0.005484 -0.002403 -100282.000000 0 0 1
6.680215 -28.924948 32.704493 44.168560 -1.343826 0.737061 0.005368 0.008833 272076.000000 0 0 1
5.123715 -28.973948 32.467073 43.816126 -1.395767 0.736261 0.013209 0.008756 668905.000000 0 0 1
4.584115 -30.118348 31.746193 43.999429 -1.419752 0.764810 0.016313 0.006301 52675.800000 0 0 1
4.914115 -30.347348 30.385023 43.224526 -1.410261 0.791248 0.017640 -0.003004 -479676.000000 0 0 1
4.466315 -29.254248 29.398773 41.713868 -1.419294 0.788694 0.014238 -0.010071 384785.000000 0 0 1
3.051815 -29.246648 29.186323 41.430923 -1.466825 0.789138 0.018847 -0.012991 864472.000000 0 0 1
2.582915 -28.529048 28.029653 40.077917 -1.480506 0.796268 0.021546 -0.020021 -755820.000000 0 0 1
1.169215 -28.903048 27.641663 40.010183 -1.530365 0.808111 0.018667 -0.017232 -804782.000000 0 0 1
0.954815 -30.177548 27.059793 40.544154 -1.539167 0.840064 0.021227 -0.018253 153041.000000 0 0 1
0.911415 -31.288748 27.926353 41.948750 -1.541675 0.842331 0.038840 -0.025426 -590528.000000 0 0 1
1.176515 -32.700548 27.249643 42.582309 -1.534833 0.876391 0.039700 -0.024250 485796.000000 0 0 1
2.511815 -33.156248 27.030703 42.852128 -1.495184 0.888225 0.024196 -0.021882 877810.000000 0 0 1
3.144315 -32.535048 25.863073 41.681106 -1.474452 0.901418 0.022944 -0.025237 193640.000000 0 0 1
4.685415 -32.624948 25.800183 41.856777 -1.428157 0.906644 0.036567 -0.017760 -136854.000000 0 0 1
5.218815 -32.132448 24.614573 40.811854 -1.409787 0.923386 0.048816 -0.031550 508084.000000 0 0 1
6.598715 -31.854848 24.870243 40.948789 -1.366536 0.918076 0.051329 -0.028554 -52136.000000 0 0 1
7.459615 -31.697148 23.618473 40.226699 -1.339662 0.943282 0.040240 -0.020870 -70789.300000 0 0 1
8.679815 -31.024348 23.879153 40.100664 -1.297997 0.932933 0.026336 -0.015083 439026.000000 0 0 1
9.521315 -30.910948 22.742573 39.539433 -1.271994 0.957963 0.032101 -0.007641 406585.000000 0 0 1
10.764215 -30.010048 22.930073 39.271612 -1.226404 0.947291 0.013907 -0.000415 489627.000000 0 0 1
11.777615 -30.438548 23.817153 40.403888 -1.201607 0.940385 0.025123 -0.010655 733423.000000 0 0 1
12.985015 -29.668048 23.792083 40.185406 -1.158238 0.937186 0.033078 -0.007204 570692.000000 0 0 1
14.099315 -30.266348 24.689513 41.526071 -1.134847 0.934085 0.055729 -0.010860 -287037.000000 0 0 1
13.880315 -30.311148 26.080383 42.327476 -1.141369 0.906942 0.051116 -0.014888 390627.000000 0 0 1
14.675615 -29.292448 26.706263 42.268731 -1.106346 0.886896 0.043553 -0.006948 147391.000000 0 0 1
-10.886585 -14.150209 26.600033 32.036041 0.915020 0.591122 0.045317 -0.029014 -636735.000000 0 0 1
-9.559685 -13.782809 26.402893 31.280444 0.964382 0.565967 0.041653 -0.025961 -1351370.000000 0 0 1
-8.735685 -14.142109 27.454013 32.094147 1.017458 0.544433 0.036474 -0.020566 -186816.000000 0 0 1
-7.277585 -13.974209 26.961063 31.227242 1.090658 0.528860 0.045372 -0.013716 19627.800000 0 0 1
-6.726285 -14.990209 26.108153 30.847770 1.149014 0.561693 0.037391 -0.020604 261397.000000 0 0 1
-7.041185 -14.754409 24.747503 29.659902 1.125533 0.583797 0.042557 -0.014529 -121651.000000 0 0 1
-6.320185 -15.765909 23.787923 29.229675 1.189534 0.620087 0.046268 -0.017688 156494.000000 0 0 1
-6.913085 -17.057109 23.674473 29.986937 1.185737 0.660814 0.053206 -0.013125 -181039.000000 0 0 1
-6.858185 -17.934709 24.804453 31.367967 1.205556 0.658751 0.057048 -0.012683 -147835.000000 0 0 1
-7.150985 -19.459009 24.655393 32.213010 1.218626 0.699155 0.057386 -0.012759 -176377.000000 0 0 1
-8.540685 -19.613409 24.439893 32.479801 1.160107 0.719001 0.040472 -0.004290 -140903.000000 0 0 1
-8.953485 -20.938709 24.232903 33.253992 1.166722 0.754343 0.034251 -0.007863 243106.000000 0 0 1
-10.475785 -21.087309 23.987163 33.612508 1.109727 0.776118 0.026419 -0.000304 867324.000000 0 0 1
-11.269085 -20.920209 25.203723 34.639213 1.076694 0.755970 0.030244 -0.006137 -77907.400000 0 0 1
-12.651285 -21.046209 25.067373 35.090898 1.029554 0.775094 0.047856 -0.008738 -377655.000000 0 0 1
-13.386985 -20.878809 26.416403 36.234823 1.000650 0.753887 0.057415 -0.014051 -952071.000000 0 0 1
-13.197885 -21.929809 27.308973 37.428341 1.029037 0.753010 0.063226 -0.006528 585933.000000 0 0 1
-11.912885 -21.919309 27.935123 37.453225 1.072966 0.728961 0.069196 -0.006489 373935.000000 0 0 1
-11.623485 -23.212909 28.734793 38.725094 1.106562 0.734718 0.060047 -0.008317 -170152.000000 0 0 1
-12.577585 -23.572709 29.718653 39.963316 1.080658 0.732286 0.068880 -0.007448 -44269.900000 0 0 1
-12.375285 -24.860809 30.207323 41.032790 1.108924 0.743395 0.053365 0.000523 -212468.000000 0 0 1
-13.365685 -25.359209 31.282893 42.430536 1.085740 0.741771 0.043657 -0.005410 95241.200000 0 0 1
-13.242785 -24.726009 32.536213 42.957561 1.079091 0.711469 0.047731 -0.004178 -289716.000000 0 0 1
-14.224685 -25.226929 33.402163 44.209095 1.057367 0.714304 0.044095 -0.005129 -215029.000000 0 0 1
-14.180285 -24.680809 -33.993889 44.337426 1.049303 2.444495 0.032442 -0.006299 2115.630000 0 0 1
-14.205685 -23.271909 -33.813459 43.436543 1.022749 2.462999 0.032739 -0.009546 147281.000000 0 0 1
-15.293585 -22.563809 -34.418634 43.905144 0.975131 2.471770 0.038993 -0.012267 123378.000000 0 0 1
-15.388985 -21.062609 -34.150702 42.973537 0.939807 2.489295 0.025730 -0.012561 -100782.000000 0 0 1
-15.735985 -20.803109 -32.835619 41.935289 0.923196 2.470282 0.020556 -0.013106 40971.800000 0 0 1
-15.766185 -19.456809 -32.517259 41.042809 0.889796 2.485328 0.015498 -0.016122 -580815.000000 0 0 1
-16.004185 -19.187709 -30.991629 39.809336 0.875614 2.463071 0.007543 -0.013888 -78009.500000 0 0 1
-17.225685 -19.647509 -30.443709 40.119425 0.850984 2.432307 0.006403 -0.008739 -75400.500000 0 0 1
-17.279985 -19.441009 -29.036729 38.983104 0.844180 2.411113 0.009481 -0.003055 188895.000000 0 0 1
-16.411785 -20.415309 -28.156199 38.456509 0.893684 2.392280 -0.002158 0.003888 1250710.000000 0 0 1
-14.996685 -20.380109 -28.417039 38.049672 0.936413 2.414095 -0.000624 0.003874 1277710.000000 0 0 1
-14.242585 -21.303009 -27.565289 37.636613 0.981476 2.392646 0.002618 0.001590 1024820.000000 0 0 1
-12.702385 -21.279109 -27.765589 37.216650 1.032629 2.412911 0.031028 -0.007464 278329.000000 0 0 1
-12.030985 -20.290809 -27.000309 35.853567 1.035593 2.423515 0.030248 -0.010661 548499.000000 0 0 1
-10.610085 -20.330209 -27.019839 35.439569 1.089792 2.437841 0.020162 -0.014418 875647.000000 0 0 1
-9.820185 -21.370709 -26.153679 35.173260 1.140057 2.409186 0.036723 -0.017605 -205652.000000 0 0 1
-9.873585 -22.666509 -26.640839 36.345463 1.159980 2.393503 0.031203 -0.017981 51161.100000 0 0 1
-9.401085 -23.528709 -25.644429 36.050206 1.190671 2.362218 0.041156 -0.016965 -78786.100000 0 0 1
-9.492785 -24.888309 -26.333949 37.456879 1.206413 2.350470 0.040633 -0.015500 497691.000000 0 0 1
-8.370985 -25.294919 -27.150019 38.039846 1.251205 2.365600 0.036629 -0.012644 716336.000000 0 0 1
-8.611985 -26.518129 -27.871279 39.423162 1.256783 2.356011 0.030928 -0.014438 -72333.200000 0 0 1
-8.519785 -27.864679 -27.084919 39.782156 1.274067 2.319693 0.037143 -0.007838 8839.020000 0 0 1
-9.593385 -28.106499 -26.182189 39.591860 1.241873 2.293350 0.041306 -0.009835 312631.000000 0 0 1
-9.411385 -29.325899 -25.434449 39.943632 1.260255 2.261083 0.070308 -0.000576 -371080.000000 0 0 1
-10.467985 -29.427089 -24.336309 39.595306 1.229029 2.232708 0.070342 -0.009270 -183987.000000 0 0 1
-10.401385 -28.454109 -23.329509 38.237301 1.220337 2.227014 0.065095 -0.010956 238727.000000 0 0 1
-11.358185 -27.415239 -23.608409 37.920452 1.178022 2.242828 0.051327 -0.016117 152022.000000 0 0 1
-11.289585 -26.249879 -22.627709 36.448925 1.164630 2.240567 0.055405 -0.017956 -49917.600000 0 0 1
-11.703885 -26.664639 -21.335309 36.099575 1.157187 2.203110 0.058632 -0.019026 49307.800000 0 0 1
-11.833385 -25.618729 -20.418809 34.832113 1.138088 2.197165 0.049820 -0.009950 90558.400000 0 0 1
-12.451685 -25.972199 -19.042209 34.528327 1.123745 2.154952 0.063449 -0.008514 528568.000000 0 0 1
-13.837985 -26.304059 -19.057909 35.307185 1.086505 2.140965 0.064515 -0.005236 223413.000000 0 0 1
-14.244485 -26.584239 -17.728509 34.984671 1.078902 2.102208 0.062831 -0.004941 271443.000000 0 0 1
-15.773485 -26.611969 -17.489009 35.536815 1.035746 2.085340 0.069997 -0.009076 -454054.000000 0 0 1
-16.466485 -25.356909 -17.619809 34.993938 0.994851 2.098453 0.060916 -0.003108 474111.000000 0 0 1
-17.813585 -25.516489 -17.185909 35.549550 0.961333 2.075371 0.073412 -0.005537 382016.000000 0 0 1
-18.866685 -26.115109 -18.154109 36.980028 0.945166 2.083938 0.069967 -0.003694 -742594.000000 0 0 1
-18.729085 -27.479089 -18.481709 38.045401 0.972543 2.078052 0.075017 -0.010435 -129767.000000 0 0 1
-19.066985 -28.342589 -17.396009 38.333712 0.978606 2.041826 0.074726 -0.015315 -426474.000000 0 0 1
-20.512685 -28.856529 -17.267009 39.390597 0.952825 2.024562 0.056601 -0.008135 69111.700000 0 0 1
-20.925785 -29.774409 -18.284109 40.727295 0.958186 2.036375 0.045204 -0.007255 -419447.000000 0 0 1
-22.247785 -30.221219 -18.238909 41.724619 0.936209 2.023197 0.037363 0.005357 -328173.000000 0 0 1
-22.639385 -31.344349 -19.189209 43.165215 0.945274 2.031471 0.016329 0.001444 -636512.000000 0 0 1
-21.945785 -32.518579 -19.042409 43.608358 0.977137 2.022689 0.017806 -0.003940 -214546.000000 0 0 1
-22.293885 -33.359719 -20.139309 44.894097 0.981672 2.035990 0.004323 0.005943 168737.000000 0 0 1
-21.694185 34.073205 -20.094209 45.115388 -1.003832 2.032413 0.001130 0.005986 88592.500000 0 0 1
-22.350685 33.245547 -19.161209 44.406885 -0.978910 2.016942 0.001289 -0.002643 -118848.000000 0 0 1
-21.511885 32.131459 -18.922909 43.049604 -0.980837 2.025906 -0.002921 -0.011618 -245586.000000 0 0 1
-22.200385 30.881219 -18.409709 42.254280 -0.947501 2.021600 0.008273 -0.015916 163433.000000 0 0 1
-23.047885 30.970789 -17.254209 42.285961 -0.931030 1.991099 -0.002820 -0.013222 -78074.600000 0 0 1
-23.569885 29.793609 -16.683209 41.491302 -0.901502 1.984594 0.010087 -0.009702 37934.400000 0 0 1
-22.652885 28.582589 -16.254009 39.928817 -0.900620 1.990045 0.016590 -0.020991 121162.000000 0 0 1
-22.065085 27.898249 -17.336509 39.569367 -0.901621 2.024313 0.014483 -0.015172 -368433.000000 0 0 1
-21.406385 26.735819 -17.018309 38.244741 -0.895651 2.031953 0.022027 -0.016088 -113499.000000 0 0 1
-20.751185 26.253029 -18.362209 38.170721 -0.901918 2.072654 0.031857 -0.008722 -864884.000000 0 0 1
-20.665485 24.854659 -18.457209 37.222103 -0.877169 2.089629 0.035543 -0.015161 334163.000000 0 0 1
-19.908085 24.305739 -19.548809 37.003469 -0.884535 2.127389 0.030688 -0.007169 254619.000000 0 0 1
-18.442785 24.766859 -19.714009 36.635717 -0.930724 2.138988 0.021474 -0.011231 -453707.000000 0 0 1
-17.648885 24.304999 -18.593909 35.326330 -0.942740 2.125095 0.028562 -0.012089 1188050.000000 0 0 1
-16.389185 24.993759 -18.381909 35.088288 -0.990403 2.122191 0.037623 -0.022597 1061220.000000 0 0 1
-16.410385 26.227059 -17.392109 35.491476 -1.011691 2.082928 0.029913 -0.021295 47403.100000 0 0 1
-17.312085 27.218249 -17.908809 36.895350 -1.004293 2.077611 0.019354 -0.019417 215531.000000 0 0 1
-17.073685 28.382969 -17.203609 37.323824 -1.029240 2.049837 0.024474 -0.026730 -510117.000000 0 0 1
-17.985685 29.574599 -17.504709 38.788615 -1.024408 2.039001 0.023514 -0.024233 -201096.000000 0 0 1
-17.966785 30.094419 -18.821209 39.783380 -1.032575 2.063594 -0.003255 -0.028221 85388.300000 0 0 1
-18.525885 29.222169 -19.784209 39.856725 -1.005775 2.090224 0.005729 -0.021274 -367125.000000 0 0 1
-18.597385 29.764429 -21.232909 41.019756 -1.012327 2.114871 0.016730 -0.023064 360396.000000 0 0 1
-19.425485 30.926269 -21.372109 42.314899 -1.009955 2.100263 0.021488 -0.020257 145893.000000 0 0 1
-19.714885 31.098839 -22.758709 43.287104 -1.005792 2.124407 0.025388 -0.019028 -16512.700000 0 0 1
-20.477085 32.350019 -23.186309 44.759800 -1.006475 2.115327 0.018264 -0.015667 -244561.000000 0 0 1
-19.740385 33.529204 -23.021509 45.209294 -1.038688 2.105075 0.001665 -0.015133 -217760.000000 0 0 1
-20.123785 -34.291865 -23.956609 46.420016 1.040111 2.113069 0.006434 -0.004739 219507.000000 0 0 1
-19.083585 -33.123839 -23.970309 45.121477 1.048114 2.130859 0.020595 -0.008167 308211.000000 0 0 1
-19.132285 -32.335379 -22.795409 43.946010 1.036515 2.116142 0.026466 -0.007300 -335493.000000 0 0 1
-18.352385 -32.773049 -21.748809 43.403842 1.060320 2.095643 0.024665 -0.018418 -609452.000000 0 0 1
-18.170485 -31.678789 -20.631309 41.944763 1.050026 2.085031 0.044252 -0.024900 -430450.000000 0 0 1
-17.362485 -30.634409 -21.046109 41.022697 1.055174 2.109514 0.054863 -0.025553 -518285.000000 0 0 1
-16.942485 -29.911999 -19.939709 39.741257 1.055441 2.096403 0.064167 -0.024584 -317137.000000 0 0 1
-15.640185 -29.175339 -20.307009 38.835428 1.078707 2.121045 0.080396 -0.029744 -581408.000000 0 0 1
-14.607185 -30.071739 -20.529409 39.231824 1.118618 2.121497 0.081333 -0.029897 -1492250.000000 0 0 1
-13.433885 -29.356099 -20.686109 38.342730 1.141625 2.140646 0.076512 -0.024053 -1541140.000000 0 0 1
-12.176085 -30.193029 -20.761709 38.612493 1.187470 2.138496 0.092011 -0.019177 -396879.000000 0 0 1
-11.639385 -30.635929 -19.509409 38.139907 1.207714 2.107752 0.086378 -0.013174 258921.000000 0 0 1
-10.974485 -29.733159 -18.634109 36.765883 1.217209 2.102302 0.072407 -0.007709 68138.000000 0 0 1
-10.154185 -30.452969 -17.479409 36.551615 1.248951 2.069414 0.067483 0.005480 438010.000000 0 0 1
-10.913885 -31.068419 -16.424709 36.798514 1.232977 2.033469 0.087462 -0.006312 -15125.200000 0 0 1
-11.407485 -32.343629 -16.765609 38.174949 1.231721 2.025480 0.090327 -0.003301 -542407.000000 0 0 1
-12.433585 -32.836659 -15.773709 38.492209 1.208830 1.993020 0.094659 -0.015297 -755372.000000 0 0 1
-12.008985 -33.106919 -14.442309 38.063948 1.222823 1.959968 0.079465 -0.011129 -289118.000000 0 0 1
-12.878285 -33.944719 -13.715009 38.809737 1.208183 1.931990 0.078905 -0.009742 -558636.000000 0 0 1
-12.339285 -34.300506 -12.301209 38.472100 1.225470 1.896255 0.066233 -0.005508 99238.800000 0 0 1
-12.310585 -33.162109 -11.459409 37.183250 1.215340 1.884083 0.046003 -0.000633 70831.500000 0 0 1
-11.955185 -33.485099 -10.110509 36.964858 1.227872 1.847844 0.044720 -0.004727 -296861.000000 0 0 1
-10.705585 -32.780159 -9.555409 35.783435 1.255129 1.841111 0.040930 -0.007375 -793004.000000 0 0 1
-9.579185 -33.131589 -10.235109 35.975276 1.289346 1.859285 0.028145 -0.006242 98205.400000 0 0 1
-8.366385 -32.523809 -9.676509 34.948954 1.319016 1.851337 0.024001 -0.008740 2174640.000000 0 0 1
-6.967085 -32.992879 -10.201709 35.229891 1.362684 1.864580 0.017544 -0.012517 763616.000000 0 0 1
-6.613285 -34.267258 -9.678909 36.216872 1.380149 1.841333 0.008575 -0.004627 -745986.000000 0 0 1
-5.412285 34.203875 -10.258009 36.116820 -1.413861 1.858784 0.012940 -0.006530 -304999.000000 0 0 1
-4.564485 33.081326 -9.552909 34.734230 -1.433684 1.849416 0.015200 -0.009423 177833.000000 0 0 1
-4.144085 33.497091 -8.318009 34.762305 -1.447707 1.812423 0.016416 -0.008862 -53311.900000 0 0 1
-3.520685 32.412379 -7.581209 33.472859 -1.462599 1.799267 0.017455 -0.012112 41369.700000 0 0 1
-3.076885 32.852384 -6.166209 33.567373 -1.477411 1.755542 0.014347 -0.003992 -44452.200000 0 0 1
-2.012785 33.814171 -6.231809 34.442487 -1.511342 1.752732 0.011357 -0.001948 240401.000000 0 0 1
-1.643285 34.281066 -4.980609 34.679942 -1.522897 1.714911 0.010813 -0.001778 -54784.100000 0 0 1
-0.553485 33.473642 -4.247009 33.746528 -1.554263 1.696981 0.016485 -0.008454 -512960.000000 0 0 1
0.742615 33.689488 -4.749609 34.030749 1.548757 1.710822 0.019234 -0.006357 -695055.000000 0 0 1
1.591015 32.722119 -4.182109 33.026632 1.522213 1.697766 0.013737 -0.009542 52856.300000 0 0 1
3.070615 33.075804 -4.494009 33.520645 1.478226 1.705268 0.013254 -0.002765 163480.000000 0 0 1
3.629715 34.182914 -3.829609 34.587749 1.465008 1.681745 0.012482 -0.003805 -1054590.000000 0 0 1
4.962815 34.317459 -4.154309 34.922426 1.427177 1.690037 0.025942 -0.006218 -708206.000000 0 0 1
5.624215 -33.226819 -3.649909 33.896536 -1.403118 1.678683 0.028802 -0.003582 186230.000000 0 0 1
5.254615 -32.086979 -4.452709 32.817859 -1.408476 1.706896 0.023554 -0.009647 89380.000000 0 0 1
5.741215 -30.893569 -3.804309 31.651966 -1.387054 1.691279 0.025215 -0.012780 173150.000000 0 0 1
5.756715 -29.691989 -4.830909 30.628282 -1.379291 1.729185 0.023183 -0.014397 206159.000000 0 0 1
6.672715 -29.656899 -5.938909 30.973012 -1.349485 1.763736 0.036210 -0.010535 78054.200000 0 0 1
6.418515 -28.535849 -6.768009 30.021625 -1.349550 1.798189 0.024313 -0.008774 313911.000000 0 0 1
7.095515 -27.239139 -6.265909 28.837106 -1.315970 1.789830 0.034282 -0.007592 375552.000000 0 0 1
6.345015 -26.727089 -5.156809 27.949762 -1.337711 1.756362 0.037511 -0.013801 -152516.000000 0 0 1
6.737715 -25.461679 -4.725009 26.758543 -1.312104 1.748307 0.048029 -0.016060 -347883.000000 0 0 1
5.907415 -25.036739 -3.529809 25.965273 -1.339084 1.707162 0.041065 -0.019138 -316956.000000 0 0 1
4.675115 -24.498409 -3.919609 25.246626 -1.382230 1.726680 0.035844 -0.024532 -514596.000000 0 0 1
3.960715 -24.058709 -2.758209 24.538062 -1.407633 1.683440 0.034173 -0.019249 930173.000000 0 1 0
2.602315 -23.360409 -3.130109 23.712409 -1.459855 1.703186 0.029028 -0.017029 933139.000000 0 1 0
1.717315 -24.146309 -3.881509 24.516516 -1.499795 1.729788 0.017263 -0.011095 -18869.900000 0 1 0
0.446515 -23.548209 -4.131109 23.911997 -1.551837 1.744431 0.004501 -0.003565 755286.000000 0 1 0
-15.017485 23.462091 18.379573 33.373691 -1.001430 0.987569 0.016102 -0.000311 -33276.200000 0 0 1
-15.104185 22.650291 19.568973 33.527850 -0.982672 0.947564 0.023360 -0.008591 157497.000000 0 0 1
-14.914085 23.492291 20.693073 34.677383 -1.005145 0.931375 0.025298 -0.003384 -1015610.000000 0 0 1
-14.804085 22.822091 22.107273 35.053391 -0.995354 0.888375 0.037136 -0.014119 -266572.000000 0 0 1
-13.668285 22.055291 22.434873 34.301332 -1.015997 0.857867 0.039144 -0.014566 929012.000000 0 0 1
-12.367585 22.678891 22.380273 34.178441 -1.071542 0.856869 0.017905 -0.007665 581220.000000 0 0 1
-11.966285 23.748991 23.457973 35.461007 -1.104061 0.847960 0.046147 -0.004778 -479942.000000 0 0 1
-11.753085 23.100091 24.750343 35.837531 -1.100142 0.808442 0.048238 -0.011330 92374.200000 0 0 1
-11.737485 24.038591 25.799073 37.164695 -1.116571 0.803513 0.071441 -0.014342 -108447.000000 0 0 1
-11.276985 23.548591 27.162273 37.676194 -1.124186 0.765639 0.066255 -0.015763 545120.000000 0 0 1
-9.875485 23.279991 27.160393 37.110242 -1.169599 0.749714 0.042784 -0.020788 150221.000000 0 0 1
-9.470785 22.341391 28.116823 37.140129 -1.169848 0.712015 0.038498 -0.015585 -138162.000000 0 0 1
-7.934285 22.183191 28.063863 36.641878 -1.227304 0.698363 0.019674 -0.011259 652131.000000 0 0 1
-7.086785 23.291491 28.434533 37.433123 -1.275431 0.708085 0.012411 -0.012914 330899.000000 0 0 1
-6.889385 24.271091 27.411743 37.255242 -1.294220 0.743975 0.011489 -0.010894 -27064.500000 0 0 1
-5.957385 25.468991 27.861213 38.215273 -1.341020 0.753849 0.011726 -0.016860 1107790.000000 0 0 1
-4.578385 25.102091 27.928663 37.829707 -1.390389 0.740290 0.011956 -0.021771 533304.000000 0 0 1
-3.706485 26.190291 28.317713 38.749996 -1.430209 0.751333 0.023460 -0.013759 185909.000000 0 0 1
-2.264085 25.683391 28.233393 38.234632 -1.482870 0.740065 0.029316 -0.014984 -479814.000000 0 0 1
-1.665085 25.602991 26.942543 37.204653 -1.505853 0.760964 0.027889 -0.024821 113049.000000 0 0 1
-0.322385 25.169491 27.105553 36.990785 -1.557988 0.748420 0.034695 -0.008855 516636.000000 0 0 1
0.412215 24.865491 25.767863 35.811245 1.554220 0.767647 0.031643 -0.016649 122228.000000 0 0 1
-0.090285 23.739491 25.062933 34.521329 -1.566993 0.758290 0.037824 -0.009089 -166567.000000 0 0 1
0.546415 23.536791 23.823073 33.493550 1.547585 0.779488 0.039004 -0.007962 -109993.000000 0 0 1
0.089315 22.257191 23.157073 32.119161 1.566783 0.765590 0.026361 -0.005321 -198221.000000 0 0 1
0.848315 21.136891 23.448473 31.580352 1.530684 0.733999 0.052461 -0.006313 -172591.000000 0 0 1
0.276915 19.959191 22.857173 30.346273 1.556923 0.717865 0.051744 -0.004705 860338.000000 0 0 1
1.318115 18.783691 22.926173 29.667724 1.500738 0.687611 0.061661 0.003813 1111380.000000 0 0 1
2.476015 18.807991 22.084873 29.113790 1.439902 0.709679 0.053886 -0.005514 107674.000000 0 0 1
3.191315 17.620391 22.309373 28.607180 1.391624 0.676367 0.047242 -0.004958 -461690.000000 0 0 1
4.637215 17.582091 21.799973 28.387893 1.312922 0.695190 0.038946 -0.005238 -339761.000000 0 0 1
5.477815 18.351991 22.602973 29.625941 1.280729 0.702939 0.026958 0.004724 39055.700000 0 0 1
6.750115 18.677991 22.028573 29.659558 1.224007 0.733682 0.028501 -0.008606 492495.000000 0 0 1
7.732515 19.343791 23.020373 31.046925 1.190513 0.735537 0.034634 -0.018697 -387917.000000 0 0 1
7.401215 20.594291 23.600273 32.185022 1.225788 0.747679 0.024112 -0.010021 -50082.000000 0 0 1
7.190315 21.656691 22.711873 32.195373 1.250234 0.787754 0.030555 -0.015678 633717.000000 0 0 1
5.934415 22.481091 23.223973 32.862891 1.312710 0.785983 0.023244 -0.009642 742465.000000 0 0 1
5.785115 23.751391 22.676273 33.343807 1.331879 0.822932 0.022683 -0.017033 -99630.900000 0 0 1
4.574915 24.288191 23.149173 33.863406 1.384618 0.818107 0.006084 -0.012766 -601794.000000 0 0 1
4.280515 25.599891 22.431773 34.305417 1.405121 0.858089 0.021193 -0.016854 -129101.000000 0 0 1
3.860015 25.503391 21.104673 33.327614 1.420583 0.885053 0.026457 -0.012988 149850.000000 0 0 1
2.546315 24.998891 20.892173 32.678909 1.469289 0.877187 0.022515 -0.013841 -195512.000000 0 0 1
2.146715 25.365591 19.449673 32.036094 1.486367 0.918368 0.019517 -0.016246 -777612.000000 0 0 1
1.504215 26.608191 19.353473 32.936535 1.514324 0.942708 0.021009 -0.016871 143322.000000 0 0 1
1.455115 27.013191 18.004873 32.496235 1.516982 0.983563 0.031723 -0.014622 -368525.000000 0 0 1
0.367815 28.061791 17.918373 33.296658 1.557690 1.002564 0.013233 0.000594 -357417.000000 0 0 1
0.806415 29.302591 18.469873 34.647198 1.543283 1.008555 0.016038 -0.000739 238015.000000 0 0 1
-0.277485 30.174591 18.777273 35.541087 -1.561601 1.014169 -0.003140 0.005768 -384472.000000 0 0 1
-0.074485 31.603291 19.299373 37.030248 -1.568439 1.022565 -0.012513 0.013860 -310150.000000 0 0 1
0.432815 31.570291 20.636873 37.719373 1.557088 0.991881 -0.002490 0.009278 75663.000000 0 0 1
0.812815 32.858191 21.064373 39.038816 1.546064 1.000864 -0.012233 0.003339 -162281.000000 0 0 1
1.447515 32.828991 22.460973 39.803683 1.526732 0.971219 -0.005230 -0.004142 -469710.000000 0 0 1
0.502015 32.659091 23.462573 40.216421 1.555426 0.947878 -0.009376 0.004047 -132932.000000 0 0 1
1.053215 32.733091 24.728163 41.037136 1.538632 0.924066 0.004846 -0.006794 433192.000000 0 0 1
-0.099385 32.334591 25.723113 41.318448 -1.567723 0.898790 0.013395 -0.013335 202193.000000 0 0 1
-1.157285 33.223691 25.838983 42.104702 -1.535977 0.910078 0.013547 -0.003881 29466.000000 0 0 1
-2.076985 33.041891 26.929133 42.676206 -1.508020 0.887941 0.016334 -0.003735 313882.000000 0 0 1
-1.635385 33.503191 28.302103 43.887894 -1.522022 0.869940 0.038542 -0.012749 -651784.000000 0 0 1
-0.682085 32.625691 28.843273 43.552673 -1.549893 0.846963 0.038143 -0.014585 -162372.000000 0 0 1
-0.208785 33.118691 30.087023 44.745058 -1.564492 0.833336 0.047412 -0.016926 -666753.000000 0 0 1
0.920515 32.243191 30.707553 44.535654 1.542255 0.809991 0.045604 -0.018438 115699.000000 0 0 1
2.185615 32.166591 30.074773 44.090344 1.502954 0.820143 0.021275 -0.016272 275861.000000 0 0 1
2.262915 31.847491 28.709483 42.937371 1.499861 0.838423 0.016501 -0.019105 -1263720.000000 0 0 1
3.731215 31.757891 28.247713 42.666367 1.453843 0.847232 0.011924 -0.015801 -78364.100000 0 0 1
4.341215 30.596291 28.758523 42.214118 1.429850 0.821323 0.012776 -0.022272 171456.000000 0 0 1
5.665615 30.442991 28.269263 41.928821 1.386796 0.830888 0.011563 -0.024346 -209085.000000 0 0 1
6.506915 29.497891 29.039363 41.901671 1.353684 0.805105 0.007438 -0.013821 -481857.000000 0 0 1
6.764815 29.753291 30.391043 43.065491 1.347233 0.787395 0.007756 -0.021177 -12068.100000 0 0 1
7.622615 28.819591 30.973063 42.988413 1.312223 0.766276 0.002107 -0.017607 -210960.000000 0 0 1
7.667615 28.872191 32.452163 44.108260 1.311217 0.744039 0.009575 -0.010243 382777.000000 0 0 1
6.468415 28.396891 33.109945 44.096397 1.346832 0.721443 0.026462 -0.018205 599377.000000 0 0 1
6.445615 28.354091 -34.293681 44.961728 1.347269 2.438321 0.035269 -0.017111 -156728.000000 0 0 1
6.533115 26.937391 -33.838669 43.741972 1.332861 2.455295 0.026143 -0.013579 179856.000000 0 0 1
7.788015 26.364691 -34.166530 43.853185 1.283569 2.464044 0.009298 -0.008548 146079.000000 0 0 1
7.764115 24.950691 -33.983029 42.867992 1.269116 2.486082 0.012040 -0.001246 70075.300000 0 0 1
9.107715 24.246991 -34.285176 42.969062 1.211480 2.494606 -0.012600 0.005604 -575397.000000 0 0 1
9.475515 24.164891 33.187612 42.132468 1.197102 0.663735 -0.020832 0.000048 -313674.000000 0 0 1
10.644915 23.449191 32.921152 41.796901 1.144657 0.663818 -0.006918 -0.002849 -429285.000000 0 0 1
10.774315 21.995791 33.380668 41.402532 1.115313 0.633016 -0.000169 -0.007224 -906375.000000 0 0 1
9.889515 21.127891 32.712353 40.178206 1.133010 0.619478 -0.001778 -0.012927 38250.700000 0 0 1
9.767015 19.930491 33.358253 40.067344 1.115137 0.587093 -0.000993 -0.011006 -88708.100000 0 0 1
8.457915 19.820091 34.158570 40.387872 1.167458 0.562803 0.014751 -0.014147 -483745.000000 0 0 1
8.408115 20.666691 -33.555279 40.295971 1.184404 2.554799 0.013221 -0.017728 920631.000000 0 0 1
7.083515 20.908491 -33.040509 39.736839 1.244146 2.552568 0.024075 -0.013901 819364.000000 0 0 1
7.260015 21.522491 -31.632669 38.942922 1.245460 2.518852 0.026640 -0.022684 -118157.000000 0 0 1
7.775115 22.804291 -31.598859 39.736331 1.242207 2.490156 0.010549 -0.015941 -71930.400000 0 0 1
7.681815 23.296591 -30.278369 38.968206 1.252283 2.460685 0.003118 -0.015031 1616250.000000 0 0 1
9.150015 23.373991 -29.624229 38.828613 1.197672 2.438658 0.000982 -0.016408 1716840.000000 0 0 1
9.613515 22.064091 -29.304379 37.920844 1.159890 2.454002 0.007675 -0.022507 -665529.000000 0 0 1
10.977715 22.153391 -28.993409 38.103815 1.110729 2.435504 0.008237 -0.021867 -318450.000000 0 0 1
11.603415 20.752091 -29.160809 37.625009 1.060960 2.457571 0.008326 -0.026080 -385338.000000 0 0 1
11.688215 20.130491 -30.459489 38.335773 1.044747 2.489054 0.001245 -0.019666 1500320.000000 0 0 1
10.463915 19.556391 -31.053199 38.160806 1.079493 2.521365 0.011643 -0.023344 1190300.000000 0 0 1
10.862715 18.557791 -32.177689 38.701342 1.041222 2.552484 0.019688 -0.020567 -300551.000000 0 0 1
11.520015 17.409991 -31.600709 37.873782 0.986247 2.557783 0.023632 -0.007008 472439.000000 0 0 1
11.885615 16.412591 -32.605409 38.389500 0.944028 2.585514 0.026611 0.000146 146549.000000 0 0 1
13.136615 16.681391 -33.485769 39.650173 0.903723 2.576484 0.013762 0.010237 -384463.000000 0 0 1
13.025815 17.877791 -34.288044 40.803887 0.941130 2.568657 0.014544 0.000505 5128.750000 0 0 1
13.514815 17.774091 33.219315 40.026134 0.920694 0.591795 0.016790 -0.000235 -13600.600000 0 0 1
12.503415 17.191091 32.205953 38.588759 0.941969 0.583401 0.015274 -0.010079 -842891.000000 0 0 1
12.890315 17.508791 30.883403 37.769068 0.936173 0.613409 0.007099 -0.008755 39455.400000 0 0 1
12.070315 17.030291 29.841103 36.417231 0.954218 0.610393 0.016657 -0.010388 660377.000000 0 0 1
10.547315 17.420291 29.833053 36.120955 1.026371 0.598963 0.015156 -0.017426 326278.000000 0 0 1
9.836215 16.763391 30.855723 36.466944 1.040163 0.562117 0.028005 -0.010135 -593718.000000 0 0 1
8.517415 17.267491 30.882253 36.392666 1.112553 0.557492 0.037089 -0.015296 -64521.200000 0 0 1
7.664915 16.478991 31.882883 36.699131 1.135430 0.518095 0.047109 -0.004389 -227081.000000 0 0 1
8.031415 16.813591 33.241687 38.107876 1.125169 0.510900 0.052286 -0.002637 308719.000000 0 0 1
7.614015 15.751591 34.066769 38.296613 1.120532 0.474436 0.067000 -0.002746 -122234.000000 0 0 1
7.698715 15.960391 -33.244059 37.671896 1.121357 2.651870 0.061454 -0.007700 -52410.300000 0 0 1
6.699615 16.805691 -32.696589 37.368209 1.191453 2.636199 0.055351 -0.008632 218837.000000 0 0 1
6.789215 16.966891 -31.272229 36.220452 1.190165 2.612739 0.061130 -0.017642 -500558.000000 0 0 1
5.606515 17.770091 -30.746119 35.951815 1.265178 2.596740 0.055987 -0.020949 -726866.000000 0 0 1
5.583815 17.709691 -29.322989 34.708066 1.265365 2.577075 0.047512 -0.028334 525691.000000 0 0 1
4.899315 18.842791 -28.660479 34.647902 1.316419 2.544889 0.051319 -0.028937 969808.000000 0 0 1
3.347915 18.914391 -28.826209 34.639761 1.395607 2.553808 0.066246 -0.033049 -1020390.000000 0 0 1
2.648015 17.997591 -28.036799 33.421361 1.424713 2.566034 0.065611 -0.032694 34331.000000 0 0 1
1.330315 17.783091 -28.528139 33.643168 1.496128 2.582925 0.068667 -0.030098 725823.000000 0 0 1
0.329115 18.958891 -28.243469 34.018251 1.553439 2.550343 0.065816 -0.028917 -1059790.000000 0 0 1
0.153715 19.306891 -26.847489 33.069130 1.562835 2.518126 0.061875 -0.030072 -119261.000000 0 0 1
-0.485885 20.522091 -26.645819 33.636171 -1.547125 2.485165 0.076972 -0.031570 -513077.000000 0 0 1
-0.846385 20.870291 -25.221429 32.747609 -1.530264 2.449914 0.060576 -0.031157 -456605.000000 0 0 1
-1.839585 20.065691 -24.694009 31.871776 -1.479374 2.457183 0.058477 -0.027234 -417171.000000 0 0 1
-2.141485 20.296991 -23.324109 30.993029 -1.465678 2.422737 0.059562 -0.018837 577101.000000 0 0 1
-3.364085 19.584491 -22.669309 30.145761 -1.400684 2.421872 0.038013 -0.016052 1019200.000000 0 0 1
-4.713585 19.993491 -22.878309 30.746944 -1.339268 2.409959 0.033874 -0.013580 -122850.000000 0 0 1
-5.532585 18.969891 -22.492209 29.939367 -1.287017 2.420763 0.028712 -0.012358 -52392.000000 0 0 1
-7.070685 19.226791 -22.561809 30.474568 -1.218395 2.404385 0.049959 -0.010399 501916.000000 0 0 1
-7.673985 20.015491 -21.575909 30.414302 -1.204680 2.359443 0.023414 -0.002757 41127.100000 0 0 1
-7.370785 21.424591 -21.696209 31.369843 -1.239446 2.334535 0.023928 -0.009536 -424369.000000 0 0 1
-7.795485 22.341491 -20.544209 31.336501 -1.235080 2.285773 0.025692 -0.012450 -25075.700000 0 0 1
-7.145985 22.204991 -19.279309 30.262493 -1.259444 2.261487 0.029207 -0.019950 61474.000000 0 0 1
-7.555585 23.261791 -18.496809 30.664796 -1.256739 2.218295 0.045292 -0.016775 -124479.000000 0 0 1
-6.679685 23.474391 -17.217909 29.868405 -1.293572 2.185185 0.056007 -0.026581 609287.000000 0 0 1
-5.360785 23.874891 -17.580609 30.130155 -1.349923 2.193814 0.058869 -0.028955 106918.000000 0 0 1
-4.582885 24.236191 -16.442009 29.643472 -1.383910 2.158749 0.060825 -0.027543 -443817.000000 0 0 1
-3.106885 24.492691 -16.628809 29.766792 -1.444621 2.163537 0.062032 -0.024873 -585341.000000 0 0 1
-2.906485 25.831491 -17.184409 31.161153 -1.458750 2.154920 0.047019 -0.026270 -904504.000000 0 0 1
-1.565485 26.109391 -17.373909 31.400697 -1.510909 2.157113 0.049620 -0.030278 -728587.000000 0 0 1
-1.225285 27.589791 -16.947809 32.402563 -1.526415 2.121209 0.036330 -0.045941 -22414.000000 0 0 1
-1.962485 28.669791 -17.559309 33.676959 -1.502452 2.119292 0.044211 -0.043009 244596.000000 0 0 1
-1.667485 28.940891 -18.903709 34.607887 -1.513243 2.148648 0.046564 -0.032744 -468804.000000 0 0 1
-2.985785 29.252491 -19.631909 35.355834 -1.469079 2.159480 0.061972 -0.027890 256411.000000 0 0 1
-3.683985 30.457391 -19.307009 36.248931 -1.450426 2.132493 0.050569 -0.017589 346062.000000 0 0 1
-4.648685 30.248291 -18.264909 35.639532 -1.418305 2.108879 0.036697 -0.021942 41009.000000 0 0 1
-5.100785 31.581291 -17.622809 36.523408 -1.410666 2.074311 0.050719 -0.007621 369677.000000 0 0 1
-6.031485 32.323791 -18.421909 37.690489 -1.386322 2.081473 0.073073 -0.012962 355005.000000 0 0 1
-6.272285 33.570591 -17.812809 38.517818 -1.386087 2.051560 0.067425 -0.025977 17016.500000 0 0 1
-6.962585 -34.172548 -18.598209 39.523841 1.369800 2.060718 0.066449 -0.008755 -345862.000000 0 0 1
-8.294885 -34.351848 -18.974409 40.110881 1.333863 2.063545 0.077847 -0.017711 -408251.000000 0 0 1
-8.590985 -33.255748 -19.832109 39.661850 1.317992 2.094430 0.114302 -0.031653 -315215.000000 0 0 1
29.401715 -20.599409 -26.747999 44.768873 -0.611141 2.211137 0.017951 -0.001510 24334.900000 0 0 1
28.639115 -21.708109 -26.312459 44.539717 -0.648594 2.202802 0.029537 -0.010569 394384.000000 0 0 1
27.302615 -21.672509 -26.838699 43.993707 -0.670942 2.226930 0.027274 -0.007659 789895.000000 0 0 1
26.645615 -23.098509 -26.577039 44.157320 -0.714212 2.216639 0.019287 -0.009277 -560630.000000 0 0 1
27.175015 -24.235209 -27.137009 45.411938 -0.728277 2.211269 0.012119 0.001684 203975.000000 0 0 1
28.435315 -24.634209 -26.563509 46.054657 -0.713895 2.185581 0.014083 0.004044 607184.000000 0 0 1
28.836515 -26.010329 -27.048129 47.325291 -0.733915 2.179173 0.020266 -0.005479 8881.680000 0 0 1
28.181715 -27.006229 -26.212179 47.017272 -0.764102 2.162169 0.028265 -0.010919 153275.000000 0 0 1
28.248615 -28.314009 -26.678019 48.076856 -0.786554 2.159043 0.028074 -0.007508 202896.000000 0 0 1
27.094815 -28.680249 -27.645349 48.176250 -0.813816 2.181981 0.048813 -0.004346 -407379.000000 0 0 1
27.161915 -27.994029 -28.911619 48.552209 -0.800484 2.208653 0.027533 -0.002329 -7812.730000 0 0 1
28.115815 -28.400729 -29.891759 49.906089 -0.790439 2.212998 0.011801 0.000711 -413346.000000 0 0 1
28.072515 -29.813359 -30.575519 51.105429 -0.815463 2.212153 0.030606 0.001771 -222317.000000 0 0 1
28.683415 -30.858029 -29.782209 51.593956 -0.821905 2.186144 0.033266 0.000777 1487970.000000 0 0 1
30.062115 -30.773759 -29.337529 52.071544 -0.797095 2.169301 0.029161 -0.000901 2054240.000000 0 0 1
31.275315 -30.622319 -30.350849 53.263926 -0.774849 2.177083 0.026690 -0.004640 591857.000000 0 0 1
31.206415 -29.454959 -31.138449 53.019223 -0.756534 2.198521 0.028962 -0.008229 73282.200000 0 0 1
32.450515 -29.202849 -31.784839 54.001096 -0.732771 2.200118 0.022272 -0.009091 338324.000000 0 0 1
32.508915 -27.745119 -32.386579 53.623798 -0.706500 2.219256 0.018985 0.000623 26383.400000 0 0 1
32.404715 -26.545669 -31.608809 52.477185 -0.686334 2.217219 0.004852 0.011786 -878609.000000 0 0 1
31.254515 -26.440159 -30.853959 51.262984 -0.702146 2.216644 0.018332 0.006607 -795856.000000 0 0 1
30.984215 -25.132699 -30.098619 49.976005 -0.681500 2.217127 0.015040 0.000480 -206836.000000 0 0 1
31.799315 -24.994709 -28.942469 49.735284 -0.666155 2.191897 0.014971 -0.000141 381992.000000 0 0 1
31.617015 -23.671009 -28.423989 48.660821 -0.642655 2.194598 0.010195 -0.002265 547699.000000 0 0 1
32.774615 -23.443909 -27.370849 48.712993 -0.620925 2.167453 0.008224 -0.005074 389082.000000 0 0 1
32.642415 -24.184609 -26.168479 48.324030 -0.637649 2.143042 0.014685 -0.012158 -73770.200000 0 0 1
31.895015 -23.661509 -25.093329 46.976954 -0.638269 2.134313 0.033085 -0.009507 -406285.000000 0 0 1
32.370615 -22.380109 -24.425909 46.317934 -0.604911 2.126279 0.021511 -0.004077 -139457.000000 0 0 1
32.588115 -21.209909 -25.268229 46.371639 -0.576971 2.147074 0.023315 -0.016356 45721.600000 0 0 1
32.641415 -20.080309 -24.497809 45.484321 -0.551506 2.139570 0.013965 -0.022032 -109000.000000 0 0 1
32.689915 -18.709709 -25.278499 45.361727 -0.519832 2.161885 0.003429 -0.023278 -747188.000000 0 0 1
31.598015 -18.465109 -26.086579 44.943347 -0.528852 2.190056 0.007858 -0.013930 -714905.000000 0 0 1
31.680615 -17.330209 -26.902069 45.030199 -0.500559 2.211080 0.009083 -0.009123 -338518.000000 0 0 1
30.622315 -17.185109 -27.993529 44.907592 -0.511398 2.243827 0.000698 -0.001026 530045.000000 0 0 1
29.313915 -16.799409 -27.547729 43.593614 -0.520395 2.254826 0.002064 0.003736 244429.000000 0 0 1
28.370215 -16.840009 -28.535249 43.620127 -0.535686 2.283889 0.001171 0.005155 -638777.000000 0 0 1
26.959915 -16.420009 -28.090609 42.255604 -0.547049 2.297993 -0.011073 0.009371 -317772.000000 0 0 1
26.200715 -17.300809 -27.315649 41.616585 -0.583595 2.286786 -0.005336 0.017294 126985.000000 0 0 1
25.884715 -16.755909 -26.051069 40.366288 -0.574495 2.272300 -0.002118 0.016005 -44842.100000 0 0 1
25.393915 -17.833209 -25.073409 39.894237 -0.612243 2.250416 0.007840 0.012271 -316399.000000 0 0 1
25.434815 -17.446209 -23.701709 38.898214 -0.601213 2.226007 0.004250 0.011306 104291.000000 0 0 1
24.923015 -18.547809 -22.930409 38.613231 -0.639781 2.206630 0.012789 0.006380 -86489.300000 0 0 1
24.960115 -18.218009 -21.395509 37.585516 -0.630503 2.176388 0.005280 0.011649 660603.000000 0 0 1
24.021615 -17.203709 -20.926209 36.206516 -0.621500 2.187033 -0.001820 0.004165 521891.000000 0 0 1
24.296915 -15.846309 -21.334009 36.008132 -0.577916 2.204927 -0.006944 0.019134 474355.000000 0 0 1
25.572515 -15.067009 -20.837809 36.265446 -0.532431 2.182901 -0.022112 0.019561 384007.000000 0 0 1
25.469915 -14.462109 -19.579609 35.231098 -0.516415 2.160059 -0.020164 0.007760 -220598.000000 0 0 1
26.615815 -13.735209 -19.300609 35.631041 -0.476409 2.143230 -0.033106 0.016766 -669866.000000 0 0 1
26.429615 -12.716309 -18.160809 34.497015 -0.448445 2.125211 -0.025702 0.019627 -524681.000000 0 0 1
26.563415 -13.378909 -16.909809 34.213329 -0.466571 2.087764 -0.029237 0.025043 189435.000000 0 0 1
26.387815 -12.444409 -15.846509 33.200782 -0.440668 2.068368 -0.027213 0.028393 -203069.000000 0 0 1
27.045515 -12.815609 -14.522009 33.265425 -0.442512 2.022556 -0.011976 0.021453 -617354.000000 0 0 1
26.604715 -13.918409 -13.801309 33.045561 -0.482000 2.001648 0.022405 0.005374 -456080.000000 0 0 1
27.111915 -14.061609 -12.566109 33.025625 -0.478456 1.961129 0.025971 0.002617 -530382.000000 0 0 1
26.745715 -15.357209 -11.824309 33.030159 -0.521228 1.936906 0.039995 -0.021258 -462238.000000 0 0 1
25.488215 -15.368209 -11.224609 31.809162 -0.542588 1.931437 0.030893 -0.024278 -247975.000000 0 0 1
25.113115 -16.659909 -10.758509 31.999479 -0.585734 1.913685 0.033642 -0.017473 -330211.000000 0 0 1
23.660515 -16.765109 -10.277009 30.765334 -0.616454 1.911388 0.042145 -0.016729 -321380.000000 0 0 1
23.394415 -15.943609 -9.142209 29.750249 -0.598211 1.883149 0.036755 -0.017763 979403.000000 0 0 1
21.988115 -15.848909 -8.888809 28.525008 -0.624546 1.887688 0.050904 -0.024183 492308.000000 0 0 1
21.516715 -15.454209 -7.482109 27.527869 -0.622864 1.846061 0.042371 -0.025564 -269839.000000 0 0 1
21.856115 -14.109309 -7.149509 26.979211 -0.573244 1.839001 0.037890 -0.013812 493747.000000 0 0 1
21.503315 -13.882209 -5.774809 26.238459 -0.573265 1.792703 0.035537 -0.010088 -410144.000000 0 0 1
22.408015 -14.513609 -4.700509 27.108279 -0.574755 1.745075 0.037967 -0.013902 367790.000000 0 0 1
23.750315 -13.999109 -4.714109 27.969186 -0.532610 1.740151 0.036681 -0.013118 668607.000000 0 0 1
24.554515 -14.803709 -3.885109 28.933857 -0.542543 1.705479 0.036330 -0.022550 -857081.000000 0 0 1
26.032815 -14.555009 -4.134009 30.110559 -0.509805 1.708526 0.043936 -0.022786 -799784.000000 0 0 1
26.503515 -13.388109 -3.504809 29.899188 -0.467755 1.688287 0.055240 -0.013931 1034870.000000 0 0 1
27.734815 -12.883009 -4.087609 30.852884 -0.434852 1.703674 0.060055 -0.011643 553258.000000 0 0 1
28.403515 -11.741809 -3.301009 30.911590 -0.391998 1.677789 0.071608 -0.024229 -851647.000000 0 0 1
29.293815 -12.192609 -2.274809 31.811351 -0.394409 1.642367 0.076814 -0.027782 562918.000000 0 0 1
30.054715 -11.143409 -1.629009 32.095407 -0.355058 1.621573 0.089584 -0.022561 681665.000000 0 0 1
31.380915 -10.928909 -2.438609 33.318909 -0.335129 1.644052 0.073057 -0.019554 -525130.000000 0 0 1
31.178215 -10.446909 -3.753209 33.095401 -0.323313 1.684447 0.066714 -0.015532 -691697.000000 0 0 1
32.111315 -10.924409 -4.613809 34.231075 -0.327922 1.705992 0.059511 -0.015702 -1235420.000000 0 0 1
31.761715 -10.587109 -6.063509 34.024397 -0.321747 1.749964 0.052883 -0.019578 -128467.000000 0 0 1
30.610015 -11.279209 -6.491309 33.261549 -0.353043 1.767216 0.041746 -0.023555 199946.000000 0 0 1
30.518115 -11.225109 -7.893909 33.461504 -0.352459 1.808951 0.034888 -0.016406 770221.000000 0 0 1
29.234115 -12.007409 -8.368609 32.693195 -0.389724 1.829652 0.020321 -0.020776 850754.000000 0 0 1
29.515115 -13.384209 -8.300009 33.453987 -0.425736 1.821517 0.016738 -0.016419 -345387.000000 0 0 1
28.362315 -14.135909 -8.185709 32.729966 -0.462371 1.823578 0.017515 -0.017668 -691428.000000 0 0 1
28.622615 -15.687709 -8.175609 33.648163 -0.501374 1.816226 0.023332 -0.024049 -72097.600000 0 0 1
29.110115 -16.245909 -9.393009 34.634621 -0.509029 1.845439 0.028284 -0.022285 308874.000000 0 0 1
29.073115 -17.646809 -9.397009 35.283986 -0.545536 1.840375 0.032579 -0.023616 -186977.000000 0 0 1
29.391015 -18.186709 -10.773309 36.202933 -0.554117 1.872954 0.031879 -0.031582 -458217.000000 0 0 1
30.663615 -17.758709 -11.174909 37.155183 -0.524945 1.876289 0.031460 -0.020661 -129421.000000 0 0 1
30.999915 -18.057809 -12.562409 38.011753 -0.527461 1.907616 0.028125 -0.004389 -15119.100000 0 0 1
30.204615 -17.336909 -13.698409 37.423704 -0.521069 1.945542 0.027968 -0.009694 77099.000000 0 0 1
30.747715 -16.108409 -14.150009 37.485005 -0.482576 1.957875 0.005211 -0.000594 -276309.000000 0 0 1
29.849715 -15.550509 -15.042409 36.865945 -0.480275 1.991091 0.000038 0.002261 -1238140.000000 0 0 1
30.478915 -14.450709 -15.958809 37.315826 -0.442731 2.012708 -0.010005 0.017970 365154.000000 0 0 1
31.467215 -14.930309 -16.845009 38.689199 -0.443017 2.021271 -0.022181 0.018829 507504.000000 0 0 1
32.685915 -15.388209 -16.290009 39.629918 -0.440008 1.994406 -0.013505 0.017742 -349070.000000 0 0 1
33.841715 -15.638709 -17.315909 41.105615 -0.432882 2.005624 -0.005969 0.011021 769850.000000 0 0 1
35.159915 -15.631609 -16.791409 41.982356 -0.418343 1.982273 0.001523 0.006471 -1249.050000 0 0 1
-35.211327 -16.080009 -17.690309 42.559973 0.428388 1.999460 0.013089 -0.000787 -120890.000000 0 0 1
-33.762627 -15.841809 -17.189609 41.065321 0.438715 2.002691 0.026090 -0.005015 30398.200000 0 0 1
-33.290327 -16.736409 -16.205009 40.631953 0.465838 1.981031 0.022450 0.000710 27649.900000 0 0 1
-33.803227 -16.402409 -14.948809 40.437162 0.451764 1.949461 0.015466 -0.001691 -641147.000000 0 0 1
-33.344427 -17.270109 -13.768809 39.996095 0.477889 1.922240 0.006512 -0.000363 890437.000000 0 0 1
-31.925227 -17.143009 -13.516609 38.675594 0.492787 1.927820 0.019654 -0.003692 1024530.000000 0 0 1
-31.631527 -17.876809 -12.346309 38.374017 0.514406 1.898359 0.032790 0.002811 362402.000000 0 0 1
-30.199427 -17.566309 -11.824609 36.883628 0.526838 1.897151 0.044977 -0.005605 208040.000000 0 0 1
-30.062527 -16.206409 -11.345909 35.987955 0.494428 1.891537 0.037486 -0.016646 1195060.000000 0 0 1
-28.705727 -15.913709 -10.928009 34.593154 0.506195 1.892202 0.052702 -0.019918 1233380.000000 0 0 1
-28.360327 -16.198409 -9.459909 34.002742 0.518947 1.852727 0.045890 -0.011465 -30401.100000 0 0 1
-28.479427 -17.549209 -9.000309 34.641854 0.552251 1.833622 0.037722 -0.002948 -220387.000000 0 0 1
-28.515027 -17.601109 -7.548809 34.349532 0.553012 1.792369 0.042187 -0.003809 -285046.000000 0 0 1
-28.757827 -19.041709 -7.073209 35.208374 0.584862 1.773068 0.029728 -0.007923 272241.000000 0 0 1
-29.919227 -19.713209 -7.556309 36.617872 0.582593 1.778645 0.029884 -0.010816 126210.000000 0 0 1
-29.816327 -20.155709 -8.857409 37.063724 0.594433 1.812109 0.020828 -0.001388 -92449.600000 0 0 1
-31.112427 -20.919709 -9.209409 38.606095 0.591955 1.811667 0.029863 -0.010044 393.076000 0 0 1
-32.232627 -20.096909 -9.400209 39.130448 0.557517 1.813397 0.025857 -0.014158 -326081.000000 0 0 1
-33.384127 -20.884309 -9.608709 40.533709 0.559013 1.810129 0.014270 -0.010477 420025.000000 0 0 1
-34.695527 -20.083309 -9.874109 41.287007 0.524719 1.812295 0.012674 -0.016547 386215.000000 0 0 1
-34.836227 -19.678809 -11.186109 41.544522 0.514207 1.843417 0.003503 -0.015011 148159.000000 0 0 1
35.159315 -19.286309 -11.445809 41.703066 -0.501722 1.848824 0.023302 -0.022276 184573.000000 0 0 1
34.820515 -19.043209 -12.955009 41.748585 -0.500457 1.886316 0.015877 -0.007699 -219607.000000 0 0 1
34.694615 -20.256809 -13.667909 42.436616 -0.528468 1.898720 0.009614 0.002187 51836.700000 0 0 1
34.310915 -19.976309 -15.001909 42.442303 -0.527239 1.932070 0.011459 0.003777 -333254.000000 0 0 1
33.077315 -20.782309 -15.391309 41.986969 -0.560965 1.946120 0.014812 -0.004416 82381.900000 0 0 1
31.939415 -20.468809 -14.542809 40.627474 -0.569926 1.936873 0.027999 -0.007209 638882.000000 0 0 1
30.703315 -21.078109 -14.782609 40.068763 -0.601614 1.948655 0.029372 -0.006841 -137234.000000 0 0 1
29.950815 -20.622809 -15.987809 39.723565 -0.603004 1.985017 0.016579 -0.011016 -1121410.000000 0 0 1
29.270915 -19.401109 -15.914409 38.554610 -0.585329 1.996296 0.009375 -0.002180 -133028.000000 0 0 1
28.558215 -19.238209 -17.094709 38.443588 -0.592821 2.031602 0.002649 -0.003906 -510953.000000 0 0 1
27.771815 -17.941009 -17.188609 37.263948 -0.573569 2.050218 0.009272 -0.001795 -499749.000000 0 0 1
26.552915 -18.024509 -16.499709 36.085740 -0.596366 2.045681 0.012969 -0.007273 107321.000000 0 0 1
25.951115 -16.704809 -16.450109 34.973091 -0.571936 2.060500 0.002168 0.004418 27374.800000 0 0 1
24.534415 -16.607609 -15.768409 33.561778 -0.595061 2.059897 0.009389 -0.002325 1270020.000000 0 0 1
23.466315 -17.309509 -16.428609 33.469184 -0.635539 2.083870 0.013820 -0.006964 763248.000000 0 0 1
23.062615 -16.687109 -17.627609 33.482480 -0.626362 2.125243 0.001836 -0.004059 -988121.000000 0 0 1
22.018915 -17.399509 -18.491009 33.607930 -0.668741 2.153397 0.009665 0.002313 -820808.000000 0 0 1
20.763015 -17.534009 -17.925109 32.555396 -0.701282 2.153883 0.021128 0.005536 -1061820.000000 0 0 1
19.957915 -18.259609 -18.822209 32.954624 -0.740990 2.178709 0.020921 -0.007041 -138500.000000 0 0 1
18.514115 -18.406009 -18.312709 31.889010 -0.782470 2.182501 0.021627 -0.003929 346043.000000 0 0 1
17.788515 -17.147709 -18.087909 30.621033 -0.767058 2.202725 0.026592 -0.006280 -328472.000000 0 0 1
16.459315 -17.429609 -17.811409 29.865476 -0.814022 2.209790 0.029101 -0.011419 -885483.000000 0 0 1
15.664515 -16.210109 -17.421909 28.489781 -0.802513 2.228769 0.030952 -0.000630 -199764.000000 0 0 1
15.010115 -15.481309 -18.457109 28.383787 -0.800850 2.278735 0.037017 -0.000499 313415.000000 0 0 1
13.753015 -14.986409 -18.034809 27.184412 -0.828288 2.296183 0.039597 0.002533 674117.000000 0 0 1
12.796815 -14.589509 -19.240109 27.327533 -0.850764 2.351889 0.049511 -0.009823 300827.000000 0 0 1
13.205715 -13.441309 -19.987509 27.469260 -0.794239 2.385660 0.052931 -0.018347 -169731.000000 0 0 1
12.420015 -13.236709 -21.109209 27.840006 -0.817219 2.431395 0.043429 -0.009914 -257347.000000 0 0 1
12.651415 -11.824209 -21.685509 27.751244 -0.751614 2.467742 0.052081 -0.007072 -632936.000000 0 0 1
13.884015 -11.667809 -22.305309 28.747704 -0.698881 2.458935 0.055466 -0.008009 -779746.000000 0 0 1
13.954415 -10.334409 -22.712709 28.590084 -0.637447 2.488858 0.043042 -0.015507 770200.000000 0 0 1
15.345915 -9.999309 -23.361309 29.685587 -0.577495 2.476659 0.037067 -0.008575 654544.000000 0 0 1
15.671815 -10.602409 -24.578709 31.018217 -0.594798 2.485523 0.055865 -0.007462 -97179.200000 0 0 1
16.886715 -10.068709 -25.044809 31.839952 -0.537658 2.476054 0.040216 -0.009560 -360147.000000 0 0 1
21.935915 4.895191 -7.118509 23.575844 0.219561 1.877524 0.064053 0.013475 -343168.000000 0 1 0
21.873715 6.331391 -7.057209 23.840095 0.281752 1.871322 0.045193 0.001164 814088.000000 0 1 0
21.074815 6.806991 -5.974609 22.938590 0.312414 1.834296 0.026490 -0.000833 -311768.000000 0 1 0
21.073215 8.361691 -5.928509 23.433853 0.377738 1.826565 0.016852 -0.005875 -462594.000000 0 1 0
20.155615 8.804391 -6.912809 23.055434 0.411840 1.875315 0.008398 -0.001868 559568.000000 0 1 0
20.049115 10.212691 -7.173709 23.616269 0.471126 1.879434 0.012846 0.007004 -2210.480000 0 1 0
19.422015 11.163791 -6.126709 23.224587 0.521685 1.837759 0.012928 0.009562 -149688.000000 0 1 0
20.296315 11.280391 -5.065109 23.766425 0.507274 1.785564 0.016124 0.004045 61813.700000 0 1 0
19.666115 12.114491 -4.141709 23.466374 0.552107 1.748221 0.031695 -0.004378 292191.000000 0 1 0
20.656115 12.488391 -3.015109 24.325416 0.543784 1.695065 0.027085 -0.013178 -238921.000000 0 1 0
21.784915 13.263591 -3.383309 25.728430 0.546896 1.702679 0.025052 -0.016620 935185.000000 0 0 1
22.689715 13.457891 -2.274709 26.478525 0.535351 1.656810 0.028789 -0.020313 760118.000000 0 0 1
23.505215 12.228291 -1.695809 26.549990 0.479706 1.634712 0.020764 -0.023312 -1032130.000000 0 0 1
24.571715 11.800491 -2.487109 27.371636 0.447721 1.661786 0.023669 -0.017040 -64084.700000 0 0 1
25.293115 10.790491 -1.822009 27.558956 0.403240 1.636958 0.029163 -0.021510 209331.000000 0 0 1
26.740715 10.608591 -2.360009 28.864817 0.377676 1.652648 0.053824 -0.016979 736387.000000 0 0 1
27.682315 11.663991 -2.041609 30.108593 0.398776 1.638657 0.053601 -0.023003 1968590.000000 0 0 1
29.045015 11.162391 -2.206609 31.194246 0.366911 1.641593 0.057362 -0.015337 1220240.000000 0 0 1
30.087115 12.203891 -1.784709 32.516990 0.385341 1.625709 0.047063 -0.010969 -938472.000000 0 0 1
29.945215 12.620691 -0.430509 32.498970 0.398868 1.584044 0.056861 -0.015337 244345.000000 0 0 1
30.785915 13.687191 -0.038909 33.691442 0.418348 1.571951 0.066934 -0.015926 -1154620.000000 0 0 1
32.242015 13.324691 0.100691 34.887032 0.391894 1.567910 0.070149 -0.021022 -1386570.000000 0 0 1
33.201115 14.356091 0.241691 36.172777 0.408120 1.564115 0.063545 -0.021362 105993.000000 0 0 1
33.933715 14.511291 -0.957909 36.918723 0.404102 1.596746 0.065123 -0.011401 -585764.000000 0 0 1
33.396115 15.526891 -1.936109 36.879986 0.435201 1.623318 0.028954 0.012652 -102616.000000 0 0 1
32.158715 15.165391 -2.520109 35.644396 0.440654 1.641557 0.050162 0.011489 -104894.000000 0 0 1
31.742815 16.183491 -3.436709 35.795567 0.471482 1.666954 0.033694 0.019690 -455420.000000 0 0 1
30.367715 15.945291 -4.026509 34.534956 0.483505 1.687654 0.051489 0.005265 -1286210.000000 0 0 1
30.427715 14.992091 -5.050309 34.294522 0.457800 1.718597 0.030797 0.006575 91386.600000 0 0 1
29.235515 14.756091 -5.763009 33.251614 0.467426 1.744991 0.032523 -0.009864 581669.000000 0 0 1
28.055015 14.094791 -4.934909 31.782075 0.465564 1.726700 0.042215 -0.014471 991847.000000 0 0 1
26.874815 13.896091 -5.745109 30.795508 0.477208 1.758453 0.048417 -0.020129 947797.000000 0 0 1
25.787115 13.255891 -5.122509 29.443743 0.474825 1.745662 0.047088 -0.008041 63633.600000 0 0 1
24.706615 12.841491 -6.142209 28.513987 0.479330 1.787908 0.044174 -0.008434 -322484.000000 0 0 1
25.103515 11.785391 -7.029609 28.609392 0.438928 1.819048 0.046023 -0.002674 -306600.000000 0 0 1
24.113015 11.374691 -7.888609 27.803799 0.440772 1.858472 0.040728 -0.010073 -780563.000000 0 0 1
23.816415 12.280091 -9.141609 28.312387 0.476061 1.899571 0.038180 0.007666 -226171.000000 0 0 1
23.174615 13.430091 -8.698309 28.161866 0.525223 1.884799 0.028571 0.006516 78194.000000 0 0 1
22.883115 14.340091 -9.769609 28.717946 0.559797 1.917917 0.036068 0.002325 -852957.000000 0 0 1
22.059715 15.602391 -9.467509 28.630392 0.615595 1.907821 0.030590 -0.004501 582083.000000 0 0 1
20.677915 15.339591 -9.211009 27.344504 0.638255 1.914366 0.017282 0.004095 620346.000000 0 0 1
20.397315 14.905591 -7.856209 26.456513 0.631075 1.872291 0.018488 0.002676 -98938.000000 0 0 1
18.915215 14.484491 -7.610109 25.009990 0.653511 1.879982 0.014089 -0.002782 603395.000000 0 0 1
18.041315 15.634991 -7.691309 25.081830 0.714065 1.882466 0.037387 -0.003586 54545.000000 0 0 1
16.689515 15.269391 -7.676709 23.887781 0.740991 1.897967 0.043142 -0.001832 -69357.800000 0 1 0
15.896215 15.412891 -6.365409 23.038344 0.769962 1.850735 0.043079 0.002961 -202112.000000 0 1 0
16.374515 14.479591 -5.372509 22.508823 0.724060 1.811807 0.032771 -0.002085 573444.000000 0 1 0
16.085015 14.913491 -4.042909 22.304372 0.747623 1.753065 0.033920 0.007326 -242110.000000 0 1 0
15.706615 13.778691 -3.085609 21.120394 0.720105 1.717417 0.017051 0.011926 -544526.000000 0 1 0
16.781015 13.041991 -2.542309 21.404656 0.660675 1.689851 0.014749 0.004451 269435.000000 0 1 0
16.449215 12.348891 -1.360409 20.613648 0.643967 1.636840 0.004660 0.000357 -60290.500000 0 1 0
16.517815 13.114591 -0.022309 21.091022 0.671051 1.571854 0.012287 -0.003174 -520192.000000 0 1 0
15.492615 14.057591 0.118691 20.920111 0.736874 1.565123 0.011863 -0.004728 42860.700000 0 1 0
15.660515 14.837291 1.264291 21.610075 0.758412 1.512258 0.012618 -0.005659 -741882.000000 0 1 0
14.506715 15.794191 1.568591 21.502598 0.827862 1.497783 0.011749 -0.000242 -548957.000000 0 1 0
14.413515 16.870891 0.765191 22.202745 0.863787 1.536326 0.021201 -0.006609 -378578.000000 0 1 0
13.407615 17.668491 1.248191 22.214808 0.921660 1.514579 0.009965 -0.011079 -752707.000000 0 1 0
13.299615 19.042691 0.586691 23.234630 0.961138 1.545543 0.007146 -0.016496 -261675.000000 0 1 0
12.911215 18.997991 -0.779909 22.983285 0.973887 1.604737 0.020391 -0.023012 -143185.000000 0 1 0
12.608415 20.289691 -1.204609 23.918502 1.014776 1.621181 0.023409 -0.026447 516964.000000 0 1 0
11.073315 20.570991 -1.204109 23.393030 1.076982 1.622292 0.020490 -0.021917 221112.000000 0 1 0
10.498115 20.664291 0.043491 23.178119 1.100744 1.568920 0.018636 -0.026296 -607588.000000 0 1 0
9.144515 21.028491 -0.051009 22.930813 1.160601 1.573021 0.012742 -0.004710 -196631.000000 0 1 0
8.351415 20.763091 1.204291 22.412103 1.188374 1.517036 0.013166 -0.015684 -283489.000000 0 1 0
8.235915 21.909791 2.055391 23.496677 1.211236 1.483209 0.015188 -0.011391 -122861.000000 0 1 0
7.197715 21.719391 2.967291 23.072578 1.250791 1.441832 0.012751 -0.013809 -369454.000000 0 1 0
6.700715 23.018691 3.601791 24.243197 1.287526 1.421675 0.014827 -0.009936 277826.000000 0 1 0
7.668415 23.592391 4.467091 25.206356 1.256530 1.392634 0.010044 -0.006178 572760.000000 0 0 1
7.129815 24.818991 4.972991 26.297285 1.291057 1.380544 0.001658 -0.002279 170470.000000 0 0 1
7.741815 25.230791 6.343591 27.143501 1.273076 1.334909 -0.011516 0.005215 -134383.000000 0 0 1
7.230415 24.472791 7.416391 26.574409 1.283522 1.287960 -0.009285 -0.002610 8027.060000 0 0 1
8.019415 24.558791 8.577691 27.221719 1.255173 1.250229 -0.006532 -0.000334 -363738.000000 0 0 1
7.705115 23.565091 9.710191 26.626492 1.254782 1.197506 -0.000829 -0.004398 383216.000000 0 0 1
6.491315 23.867091 10.404491 26.833349 1.305242 1.172613 -0.005068 -0.009913 522579.000000 0 0 1
6.094415 22.894191 11.352191 26.270860 1.310630 1.123953 -0.012720 -0.008934 -866773.000000 0 0 1
4.837515 23.139691 12.193491 26.599399 1.364707 1.094588 0.000762 -0.014143 -699261.000000 0 0 1
3.827615 23.013791 11.228491 25.891392 1.405987 1.122227 0.001618 -0.014829 -968658.000000 0 0 1
2.565815 23.264591 11.784091 26.204759 1.460952 1.104375 -0.004596 -0.019233 -368226.000000 0 0 1
1.432815 23.350091 10.753691 25.747263 1.509511 1.139924 0.037166 -0.023479 -266793.000000 0 0 1
1.528615 24.588891 10.117691 26.633022 1.508709 1.181116 0.038230 -0.018931 47423.700000 0 0 1
0.552015 24.729691 9.104191 26.358084 1.548478 1.218127 0.024703 -0.024641 -97511.000000 0 0 1
-0.666385 25.582491 9.479291 27.290380 -1.544754 1.216054 0.029056 -0.034935 -145682.000000 0 0 1
-1.731185 24.926491 10.114491 26.956073 -1.501456 1.186161 0.023393 -0.029655 139210.000000 0 0 1
-2.989485 25.470291 9.730991 27.429271 -1.453959 1.208132 0.026949 -0.028520 205885.000000 0 0 1
-4.212785 24.638391 10.249591 27.015772 -1.401449 1.181656 0.039151 -0.031223 169456.000000 0 0 1
-4.620485 24.793891 11.547891 27.738776 -1.386554 1.141415 0.024144 -0.011296 -270892.000000 0 0 1
-5.638385 25.761691 11.573691 28.799417 -1.355327 1.157236 0.028166 -0.009220 -464795.000000 0 0 1
-6.263085 25.931791 13.009491 29.680479 -1.333813 1.117070 0.009254 0.016433 -295336.000000 0 0 1
-6.937385 24.747791 13.425291 28.996877 -1.297488 1.089430 0.012994 -0.013042 10802.200000 0 0 1
-7.240885 24.991491 14.803091 29.935539 -1.288784 1.053538 -0.000596 0.026240 -576756.000000 0 0 1
-8.340885 24.116891 15.331791 29.770095 -1.237821 1.029781 0.003435 0.012039 -232889.000000 0 0 1
-9.654185 24.506091 15.003791 30.312794 -1.195516 1.053001 0.000868 0.016543 906323.000000 0 0 1
-10.729785 23.587391 15.384991 30.136211 -1.143879 1.035013 0.001587 0.012766 1251710.000000 0 0 1
-12.128485 24.218791 15.279291 31.098339 -1.106518 1.057190 0.007441 0.006572 -160181.000000 0 0 1
-12.366285 25.326291 16.135591 32.476196 -1.116570 1.050838 0.018775 0.004313 293088.000000 0 0 1
-13.667085 25.828491 15.853391 33.245002 -1.084103 1.073711 0.011084 0.000587 167218.000000 0 0 1
-14.209485 26.822291 16.921891 34.751908 -1.083622 1.062220 0.039654 -0.001174 450138.000000 0 0 1
-15.507585 26.515491 17.430591 35.318295 -1.041591 1.054654 0.032013 -0.007290 402002.000000 0 0 1
-15.936085 27.468091 18.386591 36.694980 -1.045087 1.045967 0.043839 -0.009949 68745.300000 0 0 1
-17.167485 26.964991 19.165791 37.271447 -1.003857 1.030696 0.033308 -0.016278 693960.000000 0 0 1
-18.371885 26.969791 18.381591 37.453687 -0.972798 1.057809 0.032448 -0.014249 62928.900000 0 0 1
-19.444785 26.389591 19.081791 37.929209 -0.935774 1.043626 0.033546 -0.013639 -564620.000000 0 0 1
-20.702385 26.600191 18.249891 38.330372 -0.909441 1.074558 0.031854 -0.013974 -1088590.000000 0 0 1
-21.160485 27.934691 18.212791 39.494542 -0.922513 1.091509 0.019622 -0.013934 90542.200000 0 0 1
-21.664185 28.286391 16.947691 39.454797 -0.917205 1.126805 0.023191 -0.013518 -368595.000000 0 0 1
-22.628285 29.490891 17.002791 40.875993 -0.916316 1.141798 0.009343 -0.011729 120291.000000 0 0 1
-23.895485 29.111091 17.525691 41.540337 -0.883478 1.135261 0.000001 -0.012620 -17036.200000 0 0 1
-24.668285 30.249191 17.695291 42.856285 -0.886674 1.145162 -0.006723 -0.008001 -459731.000000 0 0 1
-26.042245 30.054691 18.348891 43.796858 -0.856804 1.138503 -0.015226 -0.011467 -654447.000000 0 0 1
-27.045265 29.524391 17.513891 43.702087 -0.829194 1.158454 0.003617 -0.007957 -208029.000000 0 0 1
-28.294805 29.373291 18.143591 44.638280 -0.804098 1.152222 0.025738 -0.016109 -34620.300000 0 0 1
-28.497845 28.189591 19.135691 44.417956 -0.779960 1.125406 0.017375 -0.018884 -803609.000000 0 0 1
-28.693225 26.907391 18.498991 43.468627 -0.753290 1.131203 0.026928 -0.019635 151375.000000 0 0 1
-29.123135 26.010491 19.477291 43.635622 -0.729002 1.108100 0.023292 -0.014731 -284858.000000 0 0 1
-29.308135 24.567391 18.935391 42.674026 -0.697630 1.111049 0.031310 -0.017036 -254951.000000 0 0 1
-30.295215 24.525891 17.948291 42.912242 -0.680545 1.139272 0.045479 -0.022670 -157089.000000 0 0 1
-29.931755 23.534691 17.083191 41.732805 -0.666318 1.149058 0.039669 -0.017400 -305224.000000 0 0 1
-30.433675 22.133891 17.393391 41.456577 -0.628803 1.137839 0.037880 -0.012799 -412200.000000 0 0 1
-31.712475 21.785591 16.928391 42.034075 -0.601929 1.156299 0.041257 -0.011013 -164333.000000 0 0 1
-32.030705 20.376591 16.953091 41.576181 -0.566583 1.150797 0.044984 -0.016824 71061.400000 0 0 1
-33.397545 20.108891 16.290591 42.250998 -0.541967 1.174974 0.058418 -0.029741 -188394.000000 0 0 1
-33.515915 20.238391 14.897591 41.890897 -0.543241 1.207210 0.049400 -0.035892 344712.000000 0 0 1
-34.826772 19.857191 14.475291 42.623305 -0.518197 1.224294 0.059469 -0.035307 642266.000000 0 0 1
-34.906949 19.889791 12.935791 42.207032 -0.517913 1.259299 0.071332 -0.030493 45252.900000 0 0 1
-34.920775 21.235691 12.487891 42.735963 -0.546362 1.274259 0.067489 -0.035717 -156015.000000 0 0 1
-35.020162 21.428891 11.081791 42.525465 -0.549125 1.307161 0.047706 -0.033912 -291183.000000 0 0 1
-33.789365 21.141491 10.212791 41.145898 -0.559092 1.319965 0.057868 -0.035321 -434344.000000 0 0 1
-33.680155 19.786391 9.963491 40.312842 -0.531162 1.321054 0.073647 -0.030088 -43916.800000 0 0 1
-32.452795 19.504091 9.325391 38.994312 -0.541154 1.329309 0.098572 -0.032917 -378073.000000 0 0 1
-31.583995 18.499791 10.060691 37.960618 -0.529863 1.302562 0.080776 -0.038931 -544799.000000 0 0 1
-31.158415 19.055791 11.259291 38.219650 -0.548889 1.271765 0.078373 -0.034490 46064.000000 0 0 1
-30.871145 18.097091 12.261391 37.826895 -0.530221 1.240689 0.055460 -0.038290 -42402.500000 0 0 1
-30.657085 18.704491 13.671291 38.426801 -0.547827 1.207053 0.040874 -0.026168 -494749.000000 0 0 1
-29.542415 19.516991 13.790091 37.997813 -0.583821 1.199399 0.029808 -0.021180 -511923.000000 0 0 1
-29.858755 20.904691 13.557191 38.888929 -0.610806 1.214705 0.031300 -0.014672 -681693.000000 0 0 1
-28.622755 21.751491 13.632091 38.447670 -0.649831 1.208351 0.025720 -0.019005 -716089.000000 0 0 1
-28.087815 21.665191 14.915791 38.480991 -0.657018 1.172754 0.026898 -0.011844 -1113770.000000 0 0 1
-26.880345 22.313091 15.039491 38.034369 -0.692821 1.164273 0.041226 -0.018981 -1150360.000000 0 0 1
-26.298745 22.251191 16.462291 38.180446 -0.702222 1.125006 0.041510 -0.018435 -698034.000000 0 0 1
-25.513125 21.110791 16.553791 37.021791 -0.691255 1.107235 0.060044 -0.018412 -289742.000000 0 0 1
-25.089425 20.903991 17.861091 37.221964 -0.694647 1.070309 0.047945 -0.011655 -53822.200000 0 0 1
-24.022785 19.782091 18.056191 35.978484 -0.688890 1.045048 0.053728 -0.011924 299778.000000 0 0 1
-23.527385 19.776891 19.408091 36.350203 -0.699006 1.007567 0.046961 -0.011462 -312038.000000 0 0 1
-22.540985 18.824891 19.562491 35.286875 -0.695804 0.983173 0.043250 -0.013718 -580734.000000 0 0 1
-22.074785 18.608591 21.048891 35.729982 -0.700404 0.940839 0.032799 -0.020519 -315455.000000 0 0 1
-22.960885 17.985591 21.915391 36.482435 -0.664484 0.926406 0.026641 -0.004422 -608246.000000 0 0 1
-22.527585 18.044591 23.241491 37.057607 -0.675350 0.892879 0.012699 -0.000559 -24259.500000 0 0 1
-23.421585 17.280291 24.226791 37.869730 -0.635643 0.876636 0.006615 0.004727 -434913.000000 0 0 1
-23.084585 15.979891 24.187191 37.057728 -0.605494 0.859667 -0.000091 -0.005398 -568764.000000 0 0 1
-23.953585 15.186191 24.897191 37.739432 -0.565034 0.850360 -0.004393 -0.006102 -435340.000000 0 0 1
19.867115 25.076991 33.676806 46.450888 0.900802 0.759765 0.052145 -0.007985 287293.000000 0 0 1
20.987715 24.204791 33.446603 46.314482 0.856464 0.763872 0.040076 -0.017046 350098.000000 0 0 1
20.905615 22.922091 34.056857 46.068823 0.831375 0.738825 0.042074 -0.013835 345012.000000 0 0 1
19.878615 21.900591 33.425744 44.632673 0.833757 0.724384 0.047058 -0.012395 258251.000000 0 0 1
20.128115 21.598791 32.089843 43.605123 0.820629 0.743773 0.047742 -0.002084 252189.000000 0 0 1
19.294815 20.519791 31.646803 42.365927 0.816155 0.727278 0.038908 -0.001561 -132993.000000 0 0 1
19.566415 20.039391 30.167493 41.164297 0.797340 0.748287 0.016803 0.018232 485950.000000 0 0 1
20.826815 19.349291 30.013253 41.339407 0.748639 0.758279 0.035506 0.011765 735818.000000 0 0 1
20.883015 18.589491 28.777883 40.122761 0.727359 0.770955 0.013354 0.014049 18249.300000 0 0 1
22.076515 17.590991 28.693383 40.250785 0.672798 0.777221 0.016358 0.019760 265854.000000 0 0 1
23.309515 18.287891 28.772853 41.299606 0.665260 0.800029 0.020442 0.021805 -268059.000000 0 0 1
24.310915 17.336291 29.043863 41.654694 0.619469 0.799238 0.017759 0.026862 1000860.000000 0 0 1
25.781315 17.903991 29.195023 42.866985 0.606996 0.821586 0.020052 0.017379 1004710.000000 0 0 1
26.565715 18.019891 28.013953 42.605577 0.596023 0.853276 0.027294 0.025672 583122.000000 0 0 1
27.883715 18.363391 28.460993 43.871902 0.582377 0.864883 0.028292 0.023316 883439.000000 0 0 1
28.934715 18.487091 27.303163 43.868587 0.568550 0.899010 0.039021 0.022161 240863.000000 0 0 1
28.649315 19.523491 26.381973 43.565564 0.598177 0.920315 0.044153 0.016751 282331.000000 0 0 1
29.707715 19.556091 25.441573 43.729425 0.582176 0.949862 0.046250 0.012996 -251506.000000 0 0 1
29.906315 20.802591 24.576473 43.944720 0.607761 0.977305 0.053171 0.000270 -662784.000000 0 0 1
28.829115 21.037391 23.739073 42.862959 0.630400 0.983831 0.046370 -0.004969 -275920.000000 0 0 1
29.188215 21.768391 22.547173 42.827441 0.640804 1.016358 0.047066 -0.018554 142312.000000 0 0 1
30.192815 21.083891 21.571273 42.678523 0.609590 1.040909 0.051542 -0.006284 -31224.700000 0 0 1
29.633715 20.010291 20.885873 41.410004 0.593924 1.042147 0.044434 -0.004080 253761.000000 0 0 1
30.504915 19.445291 19.898073 41.286831 0.567501 1.067921 0.059173 -0.005293 16418.200000 0 0 1
31.390515 18.341491 20.472473 41.724056 0.528796 1.057945 0.056160 -0.003828 -264242.000000 0 0 1
30.837815 17.057091 20.405073 40.722011 0.505237 1.045948 0.064589 -0.007639 -631502.000000 0 0 1
31.821015 16.139891 20.648573 41.224223 0.469398 1.046176 0.052971 -0.007308 -1865830.000000 0 0 1
31.380015 14.693591 20.705773 40.365034 0.437924 1.032163 0.061146 -0.003733 -302463.000000 0 0 1
30.621215 14.270791 21.796773 40.204646 0.436115 0.997808 0.046748 -0.004914 449377.000000 0 0 1
29.299115 14.803891 21.769773 39.389292 0.467853 0.985217 0.044467 -0.001393 -868879.000000 0 0 1
28.460815 14.439591 22.985073 39.329802 0.469510 0.946633 0.031618 -0.002032 -293220.000000 0 0 1
28.194015 13.011791 23.061873 38.678924 0.432383 0.931989 0.038447 -0.002659 477512.000000 0 0 1
27.389215 12.742591 24.259773 38.743764 0.435456 0.894179 0.027571 0.002870 550392.000000 0 0 1
26.870215 11.254191 24.123303 37.823260 0.396637 0.879171 0.030366 -0.001593 -101671.000000 0 0 1
25.784415 11.057291 23.257673 36.441996 0.405115 0.878624 0.017726 0.005559 -116699.000000 0 0 1
25.504415 9.635691 23.098473 35.733194 0.361227 0.867920 0.007366 0.007529 544462.000000 0 0 1
24.215315 9.280891 22.288973 34.195244 0.365997 0.860821 0.004209 -0.011112 25822.200000 0 0 1
22.960015 9.501191 22.856673 33.761848 0.392359 0.827122 -0.000781 -0.004899 -773153.000000 0 0 1
22.012715 8.910991 22.043873 32.402125 0.384647 0.822595 -0.014653 0.010460 -222060.000000 0 0 1
20.546715 9.192491 22.473473 31.807646 0.420685 0.786195 -0.007567 0.002366 317915.000000 0 0 1
20.169915 8.554191 23.718073 32.288490 0.401114 0.745767 0.015697 -0.000264 1705770.000000 0 0 1
18.733915 8.338991 23.838933 31.445080 0.418795 0.710381 0.016642 0.003476 1440350.000000 0 0 1
18.261915 7.652091 25.167923 32.023060 0.396794 0.666596 0.024880 -0.000815 -383724.000000 0 0 1
18.520915 6.245891 25.150823 31.852776 0.325257 0.660646 0.029017 -0.007543 301233.000000 0 0 1
18.299815 5.696791 26.439303 32.655373 0.301794 0.627247 0.028037 -0.012208 -170608.000000 0 0 1
18.489215 4.167891 26.382153 32.484463 0.221717 0.622974 0.036835 -0.021724 1001630.000000 0 0 1
19.915215 3.957091 26.338103 33.256127 0.196142 0.656755 0.044629 -0.016055 980028.000000 0 0 1
20.185915 2.568091 26.296813 33.250392 0.126542 0.658563 0.033881 -0.007350 634979.000000 0 0 1
21.670215 2.363591 25.801033 33.776886 0.108641 0.701513 0.036543 -0.005673 830521.000000 0 0 1
22.593115 2.765691 26.785373 35.150449 0.121807 0.704368 0.040980 -0.014565 31129.100000 0 0 1
23.944715 2.585891 26.395633 35.731857 0.107577 0.739636 0.040286 -0.015413 556750.000000 0 0 1
24.874715 3.199491 27.508603 37.225145 0.127922 0.739243 0.024903 -0.019113 -768034.000000 0 0 1
24.981315 2.378391 28.639483 38.078114 0.094921 0.719516 0.028609 -0.022648 528350.000000 0 0 1
25.870815 2.829191 29.690653 39.482125 0.108926 0.719702 0.029225 -0.015173 1196800.000000 0 0 1
27.384915 2.917891 29.306643 40.216004 0.106151 0.754330 0.037133 -0.014177 -337528.000000 0 0 1
27.729415 4.081891 28.456863 39.942149 0.146155 0.777810 0.025909 -0.009306 475276.000000 0 0 1
29.080315 4.072391 28.003143 40.576164 0.139135 0.809117 0.035555 -0.005116 424465.000000 0 0 1
29.481615 2.960191 26.968373 40.065215 0.100073 0.832388 0.035709 -0.006560 -507626.000000 0 0 1
29.026115 3.219591 25.631343 38.856747 0.110469 0.850461 0.017773 0.004514 108789.000000 0 0 1
29.269315 2.089691 24.868823 38.464502 0.071274 0.867757 0.029199 0.011913 -536559.000000 0 0 1
28.796015 2.355191 23.399673 37.179323 0.081607 0.890050 0.026533 0.006173 175390.000000 0 0 1
29.399415 3.409691 22.646773 37.266981 0.115462 0.917648 0.018717 0.010719 -687496.000000 0 0 1
30.794215 3.339491 22.527973 38.300723 0.108023 0.941982 0.015866 0.015287 -375373.000000 0 0 1
31.372615 4.615991 21.919373 38.548764 0.146086 0.965976 0.022185 0.010363 -404344.000000 0 0 1
30.928615 4.844291 20.546773 37.446178 0.155366 0.989986 0.012099 0.007700 50104.500000 0 0 1
31.322415 6.091791 19.984073 37.650587 0.192089 1.011279 0.029257 0.006717 160621.000000 0 0 1
32.842115 6.176391 19.701273 38.792943 0.185892 1.038101 0.024860 0.001029 613711.000000 0 0 1
33.822415 6.117391 20.757873 40.153051 0.178934 1.027490 0.032205 0.000223 637917.000000 0 0 1
33.982915 7.273591 21.579573 40.907476 0.210855 1.015116 0.041228 -0.002626 -427053.000000 0 0 1
34.865915 7.039891 22.798973 42.249085 0.199235 1.000796 0.037662 -0.003329 -5742.460000 0 0 1
34.179815 6.243391 23.757173 42.090889 0.180671 0.971059 0.028833 0.008415 6606.970000 0 0 1
34.998715 5.890791 24.800533 43.297550 0.166752 0.960887 0.044029 -0.000463 -334717.000000 0 0 1
34.267415 4.947591 25.788653 43.171622 0.143391 0.930601 0.033809 0.000975 138581.000000 0 0 1
33.873015 3.727891 25.185413 42.374324 0.109614 0.934332 0.041240 0.000089 188696.000000 0 0 1
33.202115 2.940691 26.167823 42.376680 0.088339 0.905229 0.041748 0.002984 -67000.300000 0 0 1
33.142615 1.452591 25.806643 42.030058 0.043800 0.909672 0.036939 0.000286 -679717.000000 0 0 1
32.209515 1.021491 24.876563 40.710437 0.031703 0.913396 0.052229 -0.000777 -559343.000000 0 0 1
32.374115 -0.407609 24.716553 40.732756 -0.012590 0.918770 0.047017 -0.007892 -401965.000000 0 0 1
31.394615 -1.140309 23.783063 39.402490 -0.036306 0.922797 0.050744 -0.000584 -212841.000000 0 0 1
30.124915 -1.308909 24.367403 38.768467 -0.043422 0.891126 0.047507 -0.001193 -291017.000000 0 0 1
29.340115 -2.136009 23.505373 37.655111 -0.072673 0.896653 0.058304 -0.002906 -627630.000000 0 0 1
27.851115 -1.973409 23.666573 36.601716 -0.070737 0.867681 0.035363 0.011656 -922900.000000 0 0 1
27.347815 -0.677509 23.421373 36.012813 -0.024769 0.862735 0.026524 0.011188 603064.000000 0 0 1
25.923815 -0.606709 23.570873 35.042807 -0.023399 0.833038 0.024345 0.009082 833086.000000 0 0 1
25.265515 0.782491 23.613973 34.591592 0.030961 0.819412 0.018585 0.020298 -109565.000000 0 0 1
25.381015 1.478591 22.407173 33.888988 0.058190 0.848388 0.013401 0.008168 106453.000000 0 0 1
24.469615 2.560991 22.363873 33.248512 0.104280 0.833042 0.002470 0.004395 -17269.200000 0 0 1
24.666915 3.557791 21.144873 32.683638 0.143245 0.867211 0.001162 0.000715 -427634.000000 0 0 1
24.339915 3.059091 19.844273 31.552886 0.125027 0.890632 0.010261 -0.000133 217443.000000 0 0 1
24.117315 4.061991 18.919773 30.920906 0.166860 0.912366 0.004365 -0.002637 231227.000000 0 0 1
23.709015 3.721191 17.473573 29.686535 0.155682 0.941467 0.001502 -0.005717 523719.000000 0 0 1
24.872015 3.249491 16.786873 30.182369 0.129913 0.981012 -0.010208 -0.002543 595986.000000 0 0 1
24.697715 3.292791 15.365173 29.272993 0.132542 1.018208 -0.004235 -0.004335 -410399.000000 0 0 1
24.132215 1.953791 14.779273 28.365613 0.080786 1.022742 0.004812 0.004656 -145110.000000 0 0 1
22.741615 1.779791 14.845673 27.216589 0.078102 0.993854 0.034519 -0.002698 -105412.000000 0 0 1
22.517415 0.561791 14.102773 26.575134 0.024944 1.011399 0.058396 -0.003198 271050.000000 0 0 1
21.007915 0.188691 13.933273 25.209208 0.008982 0.985189 0.086419 -0.023536 347681.000000 0 0 1
20.235315 1.027291 13.080073 24.116625 0.050724 0.997544 0.103797 -0.017876 550378.000000 0 1 0
20.204515 0.681191 11.714073 23.364630 0.033702 1.045627 0.097629 -0.013230 -618004.000000 0 1 0
19.758115 -0.723609 11.271173 22.758428 -0.036607 1.052671 0.093490 -0.002160 464349.000000 0 1 0
20.819815 -1.663609 11.478773 23.832635 -0.079736 1.068270 0.083538 -0.009662 1433270.000000 0 1 0
21.987015 -1.613409 10.639973 24.479398 -0.073249 1.121147 0.080020 -0.005578 290944.000000 0 1 0
23.138315 -2.477809 11.203273 25.827010 -0.106680 1.122111 0.078633 -0.013083 -262966.000000 0 0 1
23.629315 -2.160509 12.441773 26.791977 -0.091180 1.087857 0.073688 -0.021410 81095.500000 0 0 1
24.432615 -3.191809 12.981573 27.850701 -0.129902 1.085904 0.047867 -0.011431 3232.430000 0 0 1
24.749615 -2.786109 14.428573 28.783494 -0.112100 1.045720 0.039195 -0.013871 213886.000000 0 0 1
25.683815 -1.716709 14.571773 29.579418 -0.066741 1.055685 0.026812 -0.010499 266314.000000 0 0 1
25.905415 -1.403609 15.929973 30.443795 -0.054129 1.020126 0.024486 -0.017818 171787.000000 0 0 1
27.131415 -0.455409 16.157673 31.581505 -0.016784 1.033729 0.032812 -0.010941 -20289.800000 0 0 1
28.318015 -1.148009 15.959773 32.526024 -0.040518 1.057930 0.035918 -0.009637 -592598.000000 0 0 1
29.478215 -0.420909 16.247573 33.661936 -0.014278 1.067097 0.021936 -0.006038 -1118.070000 0 0 1
30.811515 -1.191309 16.345473 34.899042 -0.038645 1.083358 0.035850 -0.006153 -19476.100000 0 0 1
31.410615 -1.413309 15.099073 34.879882 -0.044964 1.123103 0.039935 -0.004923 263292.000000 0 0 1
32.808415 -1.615709 15.223673 36.204458 -0.049207 1.136809 0.011638 -0.002895 -420950.000000 0 0 1
33.238415 -2.376309 14.011773 36.149258 -0.071371 1.172760 0.023811 -0.007556 -266369.000000 0 0 1
32.962515 -1.644909 12.866173 35.422754 -0.049861 1.199077 0.031221 -0.008912 221603.000000 0 0 1
33.347815 -2.424109 11.734673 35.435231 -0.072564 1.233265 0.035397 -0.010272 -145591.000000 0 0 1
32.845315 -1.879809 10.399873 34.503706 -0.057170 1.264622 0.050179 -0.006998 -308790.000000 0 0 1
33.388515 -0.617209 9.946573 34.844055 -0.018484 1.281310 0.045212 -0.010256 289999.000000 0 0 1
32.549515 0.507391 10.149873 34.099095 0.015587 1.268558 0.034651 -0.005953 -278115.000000 0 0 1
33.090315 1.856891 9.626473 34.512113 0.056057 1.288116 0.038833 -0.017477 -118282.000000 0 0 1
33.318815 1.892391 8.232473 34.372928 0.056735 1.328941 0.057892 -0.016423 256241.000000 0 0 1
33.676815 3.163291 7.727373 34.696492 0.093656 1.346199 0.055856 -0.016490 -240920.000000 0 0 1
34.316615 3.118791 6.364173 35.040828 0.090634 1.388161 0.047382 -0.019282 -295209.000000 0 0 1
34.653115 4.435391 5.945373 35.438094 0.127302 1.402231 0.026763 -0.018108 134400.000000 0 0 1
35.242015 4.359591 4.660373 35.815146 0.123079 1.440303 0.037868 -0.011046 -290144.000000 0 0 1
-35.480927 5.753191 4.241873 36.193768 -0.160750 1.453327 0.035332 -0.028134 -317902.000000 0 0 1
34.957715 6.838991 4.172273 35.863930 0.193196 1.454196 0.057464 -0.029062 -175073.000000 0 0 1
35.459215 8.014491 3.488573 36.520653 0.222285 1.475127 0.049857 -0.034153 -572903.000000 0 0 1
34.451315 9.256791 3.528573 35.847344 0.262492 1.472203 0.082284 -0.038052 1029570.000000 0 0 1
33.395415 9.180291 2.563873 34.729021 0.268270 1.496904 0.092371 -0.038383 427371.000000 0 0 1
32.424715 8.207191 2.961073 33.578089 0.247909 1.482497 0.100315 -0.033470 -874212.000000 0 0 1
31.185615 8.175891 2.010773 32.302182 0.256398 1.508507 0.116470 -0.031832 13312.100000 0 0 1
31.366815 7.965191 0.599173 32.367891 0.248680 1.552284 0.109479 -0.031035 -214920.000000 0 0 1
30.175915 7.795291 -0.135727 31.166822 0.252802 1.575151 0.114901 -0.025877 -398109.000000 0 0 1
30.382015 7.542191 -1.645327 31.347385 0.243326 1.623307 0.086057 -0.019704 -987671.000000 0 0 1
29.344615 6.967991 -2.355627 30.252410 0.233136 1.648741 0.089137 -0.021035 -21201.900000 0 0 1
29.708315 6.853391 -3.717527 30.714377 0.226723 1.692129 0.083672 -0.016598 327865.000000 0 0 1
28.557715 6.278491 -4.649227 29.607057 0.216410 1.728480 0.082048 -0.017991 293842.000000 0 0 1
28.497215 4.885591 -4.585927 29.274408 0.169790 1.728097 0.082217 -0.018167 979810.000000 0 0 1
27.506415 4.399691 -5.497627 28.393380 0.158608 1.765651 0.080371 -0.011974 -18885.200000 0 0 1
27.391115 2.858491 -5.504927 28.084664 0.103982 1.768086 0.095658 -0.013827 -485427.000000 0 0 1
26.965215 2.263691 -4.340027 27.405892 0.083752 1.729827 0.101041 -0.016828 320719.000000 0 0 1
27.101615 0.900391 -4.352127 27.463598 0.033211 1.729936 0.095125 -0.014590 -169499.000000 0 0 1
27.187015 0.270091 -2.948327 27.347749 0.009934 1.678815 0.097760 -0.011360 -102518.000000 0 0 1
28.317615 0.692791 -2.232527 28.413931 0.024460 1.649449 0.081203 -0.004395 121185.000000 0 0 1
28.185015 0.106691 -0.934727 28.200712 0.003785 1.603948 0.089437 -0.006225 -69077.700000 0 0 1
29.376015 0.505091 -0.065527 29.380430 0.017192 1.573027 0.088212 -0.006240 234022.000000 0 0 1
30.674315 0.094591 -0.492627 30.678416 0.003084 1.586855 0.064227 -0.004024 97527.200000 0 0 1
31.581015 0.420791 0.495373 31.587703 0.013323 1.555113 0.031575 -0.004202 -594331.000000 0 0 1
-3.290985 -21.756109 -8.784209 23.692218 1.420667 1.950627 0.003869 0.024213 63239.000000 0 1 0
-3.403885 -21.979909 -7.405309 23.442301 1.417153 1.892196 0.006483 0.008078 -108545.000000 0 1 0
-2.515885 -23.004709 -6.979109 24.171353 1.461865 1.863701 0.011376 0.006213 208540.000000 0 1 0
-3.091085 -23.680009 -5.733609 24.559559 1.440995 1.806428 0.005138 0.012051 -226970.000000 0 1 0
-2.966285 -22.887909 -4.522009 23.518159 1.441914 1.764279 0.001085 0.010378 -195795.000000 0 1 0
-3.573385 -23.524409 -3.453409 24.043564 1.420048 1.714926 0.008614 0.003599 -404896.000000 0 1 0
-3.142385 -22.930109 -2.116709 23.241019 1.434603 1.661999 0.005659 -0.001929 -134858.000000 0 1 0
-1.786285 -23.022409 -1.740809 23.157128 1.493362 1.646041 0.014615 -0.002978 -406253.000000 0 1 0
-1.621785 -22.563109 -0.409209 22.625020 1.499042 1.588884 0.015129 -0.010284 1058170.000000 0 1 0
-0.100685 -22.535409 -0.013909 22.535639 1.566328 1.571414 0.011719 -0.014065 930978.000000 0 1 0
0.744315 -21.567609 -0.632909 21.589728 -1.536299 1.600116 -0.000087 -0.011550 -1082720.000000 0 1 0
1.858915 -21.463309 0.167691 21.544311 -1.484403 1.563013 0.009475 -0.007292 -814533.000000 0 1 0
2.826815 -20.404109 -0.423609 20.603349 -1.433131 1.591358 0.017087 -0.008454 267493.000000 0 1 0
3.508115 -20.740709 -1.609509 21.096787 -1.403241 1.647162 0.023870 -0.007966 -224071.000000 0 1 0
4.435215 -19.753209 -2.011109 20.344655 -1.349928 1.669810 0.030275 -0.008644 395541.000000 0 1 0
5.318715 -20.165309 -3.247209 21.106227 -1.312914 1.725261 0.034474 -0.005001 -402899.000000 0 1 0
6.238215 -21.122809 -2.826109 22.205299 -1.283629 1.698414 0.038907 -0.010068 -349337.000000 0 1 0
7.067915 -21.723009 -3.840309 23.164467 -1.256234 1.737350 0.034211 -0.005423 1230410.000000 0 1 0
8.273315 -20.959309 -4.514409 22.980868 -1.194839 1.768524 0.042925 0.000983 314053.000000 0 1 0
7.952815 -19.878409 -5.386109 22.077332 -1.190227 1.817249 0.022278 0.001928 1812970.000000 0 1 0
9.182015 -19.244509 -5.962809 22.140814 -1.125617 1.843476 0.029241 -0.000603 1741390.000000 0 1 0
8.833015 -18.426209 -7.209009 21.668345 -1.123787 1.909959 0.011252 0.018900 -807542.000000 0 1 0
9.961515 -17.824509 -7.727509 21.832529 -1.061172 1.932582 0.018491 0.010756 -419893.000000 0 1 0
9.669015 -16.578709 -8.392309 20.946940 -1.042807 1.983018 0.008535 0.007928 -60723.000000 0 1 0
9.953015 -16.556809 -9.936409 21.723781 -1.029537 2.045863 0.000140 0.009471 -254116.000000 0 1 0
9.124415 -17.369709 -10.741409 22.368273 -1.087109 2.071687 -0.005841 0.006369 -20903.900000 0 1 0
8.992415 -16.713009 -11.970309 22.438282 -1.077175 2.133503 -0.009132 0.008108 -5949.830000 0 1 0
8.401815 -17.539409 -13.133509 23.467221 -1.124069 2.164764 -0.002997 0.008284 76878.700000 0 1 0
7.064015 -17.931109 -12.942709 23.215054 -1.195514 2.162184 0.001877 0.007632 165956.000000 0 1 0
6.474015 -18.616809 -14.055609 24.208648 -1.236126 2.190265 0.008352 0.012000 283178.000000 0 1 0
5.269815 -19.492609 -13.659409 24.378520 -1.306759 2.165550 0.019463 0.013908 278196.000000 0 1 0
5.684115 -20.768609 -13.179609 25.245720 -1.303650 2.120053 0.022677 0.005976 1229.820000 0 0 1
4.516915 -21.479509 -12.861209 25.439783 -1.363527 2.100821 0.025181 0.006374 67116.200000 0 0 1
4.821315 -22.924709 -12.407909 26.509311 -1.363506 2.057889 0.019266 0.003310 -166023.000000 0 0 1
5.331615 -23.744109 -13.462809 27.811078 -1.349915 2.076109 0.014669 0.001565 -261676.000000 0 0 1
4.922615 -25.102579 -13.621809 28.981465 -1.377154 2.060107 0.005211 -0.003198 -121895.000000 0 0 1
3.511715 -25.395559 -14.172509 29.293798 -1.433387 2.075794 0.001416 -0.006343 -150035.000000 0 0 1
2.526815 -25.071479 -13.222209 28.456822 -1.470351 2.054026 0.016825 -0.006643 -278270.000000 0 0 1
1.194815 -25.347839 -13.607109 28.793992 -1.523694 2.062998 0.015801 -0.012481 168191.000000 0 0 1
0.579115 -26.610609 -13.064709 29.650405 -1.549037 2.027091 0.009494 -0.010750 -707729.000000 0 0 1
1.064815 -27.734759 -13.813309 31.002552 -1.532422 2.032589 0.005261 -0.005108 194357.000000 0 0 1
0.620615 -29.036699 -13.370509 31.973201 -1.549426 2.002236 0.002086 -0.005271 501921.000000 0 0 1
-0.859185 -29.459219 -13.626809 32.469582 1.541639 2.003888 -0.001491 -0.006655 1007190.000000 0 0 1
-1.850585 -28.828069 -12.802609 31.597295 1.506690 1.987973 0.000836 -0.015084 1254090.000000 0 0 1
-3.183285 -29.169609 -13.259409 32.199555 1.462096 1.995212 0.015636 -0.016109 832752.000000 0 0 1
-4.372085 -28.256079 -12.882009 31.360283 1.417283 1.994100 0.015985 -0.016365 300571.000000 0 0 1
-4.783785 -28.312419 -11.483209 30.924776 1.403413 1.951234 0.020862 -0.021171 46436.800000 0 0 1
-5.314485 -29.565989 -11.048109 32.007065 1.392946 1.923224 0.023570 -0.019625 -580791.000000 0 0 1
-5.767285 -29.563499 -9.564409 31.602848 1.378135 1.878262 0.027966 -0.019471 186225.000000 0 0 1
-7.072085 -29.094129 -9.272809 31.344342 1.332345 1.871128 0.036679 -0.017173 -252812.000000 0 0 1
-7.235385 -27.690919 -9.135809 30.043316 1.315219 1.879777 0.044128 -0.019433 -1033970.000000 0 0 1
-8.668785 -27.376629 -8.671509 29.997046 1.264136 1.864061 0.047439 -0.012596 775016.000000 0 0 1
-9.692885 -27.380819 -9.707209 30.625010 1.230560 1.893329 0.050238 -0.006686 431666.000000 0 0 1
-10.018185 -28.713559 -9.970409 32.003775 1.235101 1.887608 0.058945 -0.010119 -1361630.000000 0 0 1
-11.242285 -28.774089 -10.886409 32.754406 1.198325 1.909606 0.055575 -0.010218 -406063.000000 0 0 1
-10.922885 -28.283639 -12.152809 32.664422 1.202251 1.952013 0.063857 -0.010057 21433.800000 0 0 1
-11.616385 -28.979269 -13.168009 33.884140 1.189556 1.969928 0.062857 -0.006879 -98754.100000 0 0 1
-11.737185 -28.117369 -14.476709 33.733116 1.175350 2.014353 0.078646 -0.005998 766872.000000 0 0 1
-12.897485 -27.267939 -14.693309 33.552630 1.128989 2.024078 0.057122 -0.010662 755168.000000 0 0 1
-13.020185 -26.124919 -13.882009 32.322544 1.108444 2.014717 0.063315 -0.002637 -28990.000000 0 0 1
-13.857585 -24.912709 -14.337909 31.910052 1.063171 2.036803 0.072175 0.000604 -331983.000000 0 0 1
-13.339085 -24.153009 -15.388509 31.592804 1.066209 2.079550 0.056231 0.000112 -396903.000000 0 0 1
-14.330785 -23.380809 -16.016509 31.757869 1.020924 2.099405 0.064435 -0.001030 -211708.000000 0 0 1
-13.826385 -22.462509 -17.207609 31.493413 1.019035 2.148841 0.066930 0.000974 15235.300000 0 0 1
-13.233885 -21.278909 -16.730409 30.130289 1.014411 2.159482 0.043504 0.004928 54403.300000 0 0 1
-12.975885 -20.455309 -17.859209 30.095592 1.005500 2.206093 0.027104 0.009556 -229052.000000 0 0 1
-13.053985 -18.963409 -17.530409 28.936701 0.967913 2.221591 0.021206 0.008720 477121.000000 0 0 1
-11.795485 -18.286709 -17.600709 27.987893 0.997923 2.250894 0.016999 0.018695 271052.000000 0 0 1
-11.936985 -16.940909 -18.057009 27.487117 0.956973 2.287531 0.024745 0.013892 -432581.000000 0 0 1
-10.614285 -16.205409 -18.210009 26.587267 0.990925 2.325283 0.026742 0.013886 -476234.000000 0 0 1
-10.145185 -15.788109 -16.935109 25.278194 0.999652 2.304937 0.027103 0.013528 179627.000000 0 0 1
-8.819585 -15.298409 -17.093509 24.576706 1.047833 2.339935 0.018737 0.011030 -138617.000000 0 1 0
-8.238385 -14.718009 -15.813409 23.120439 1.060499 2.323971 0.010898 0.010914 -201462.000000 0 1 0
-7.995785 -15.486209 -14.632409 22.756596 1.094181 2.269201 0.018743 0.010462 118216.000000 0 1 0
-7.002485 -16.484709 -14.786109 23.225190 1.169106 2.260931 0.031300 0.009386 -209973.000000 0 1 0
-6.602085 -17.237709 -13.476109 22.854577 1.205028 2.201417 0.025292 0.006826 -721634.000000 0 1 0
-5.918885 -16.566009 -12.463009 21.559046 1.227641 2.187179 0.020428 0.002539 -34813.600000 0 1 0
-5.680485 -17.360109 -11.304009 21.480734 1.254563 2.124968 0.015446 -0.006121 -6549.240000 0 1 0
-4.670885 -18.518709 -11.527209 22.307764 1.323724 2.113830 0.028412 -0.000457 -375767.000000 0 1 0
-3.333785 -18.060209 -11.572709 21.707439 1.388258 2.133083 0.022685 0.004637 -1164680.000000 0 1 0
-2.483785 -19.113709 -11.425709 22.406470 1.441573 2.105899 0.021457 0.008983 -986519.000000 0 1 0
-1.064685 -18.742009 -11.805109 22.175596 1.514050 2.132167 0.024243 0.020550 -1188700.000000 0 1 0
-0.950385 -18.497209 -13.196009 22.741694 1.519462 2.189840 0.032085 0.014935 -362230.000000 0 1 0
0.238715 -17.826009 -13.557909 22.397332 -1.557406 2.220984 0.029817 0.009979 511124.000000 0 1 0
1.530015 -18.707109 -13.674209 23.222422 -1.489190 2.200415 0.025520 0.001118 -63236.800000 0 1 0
1.558315 -19.605609 -14.740909 24.578500 -1.491480 2.213983 0.038349 0.002813 159519.000000 0 1 0
0.993515 -20.897209 -14.457309 25.430183 -1.523289 2.175490 0.042768 0.006998 -583166.000000 0 0 1
1.136915 -21.938609 -15.592409 26.939161 -1.519020 2.188054 0.049515 0.000325 -26362.800000 0 0 1
2.350215 -22.623309 -15.766909 27.675496 -1.467283 2.176945 0.028525 -0.003300 -27621.500000 0 0 1
3.413715 -21.870109 -16.321109 27.501523 -1.415955 2.206150 0.019780 -0.010099 260329.000000 0 0 1
4.732215 -22.638709 -16.602709 28.470247 -1.364731 2.193410 0.017133 -0.004490 492466.000000 0 0 1
4.694315 -23.248309 -17.889109 29.707587 -1.371555 2.217017 -0.004289 0.006762 -79528.200000 0 0 1
6.041015 -23.463209 -18.229909 30.320713 -1.318802 2.215844 -0.006257 0.008184 108100.000000 0 0 1
6.198515 -23.462009 -19.763709 31.296832 -1.312504 2.254273 -0.001304 0.013050 -220384.000000 0 0 1
6.104315 -22.189309 -20.370009 30.733783 -1.302336 2.295333 0.016096 -0.002241 40507.800000 0 0 1
6.560315 -22.233209 -21.693009 31.748071 -1.283870 2.323050 0.028189 -0.005414 225362.000000 0 0 1
7.018515 -20.859609 -22.247209 31.294108 -1.246231 2.361584 0.024429 -0.016448 -300745.000000 0 0 1
5.850715 -20.175209 -22.525409 30.800390 -1.288543 2.391074 0.035624 -0.017744 -543754.000000 0 0 1
6.082415 -18.773709 -22.597909 30.001891 -1.257482 2.423734 0.046917 -0.021803 -49599.500000 0 0 1
4.818715 -17.908109 -22.778909 29.373442 -1.307942 2.458292 0.057502 -0.022399 -1488260.000000 0 0 1
4.261615 -18.043209 -24.043009 30.360913 -1.338858 2.484721 0.048368 -0.027607 -333015.000000 0 0 1
3.005915 -17.471009 -24.289909 30.071106 -1.400413 2.511120 0.058956 -0.022143 777738.000000 0 0 1
1.821815 -17.892609 -23.316809 29.447208 -1.469327 2.484575 0.058932 -0.012983 -607016.000000 0 0 1
1.886115 -17.293609 -22.007709 28.052908 -1.462161 2.472697 0.081841 -0.017733 -19693.700000 0 0 1
0.829915 -16.330609 -21.962609 27.381267 -1.520020 2.501606 0.062900 -0.014291 426318.000000 0 0 1
0.992915 -15.376309 -20.756609 25.850602 -1.506312 2.503016 0.056162 -0.009798 -86441.900000 0 0 1
2.031715 -14.429109 -20.798609 25.395063 -1.430909 2.530466 0.062839 -0.004002 -181028.000000 0 0 1
1.984815 -13.530309 -19.718409 23.996342 -1.425141 2.535229 0.064307 -0.005044 3697.790000 0 1 0
3.250315 -12.656909 -19.656009 23.603402 -1.319426 2.554874 0.056523 -0.004929 -622207.000000 0 1 0
4.417915 -13.361309 -19.283909 23.872824 -1.251463 2.511167 0.046463 -0.003881 219034.000000 0 1 0
5.636315 -12.629609 -19.329909 23.768056 -1.151042 2.520551 0.041210 -0.001395 655321.000000 0 1 0
5.785515 -11.495509 -18.288509 22.362658 -1.104524 2.528400 0.036068 0.000332 -323340.000000 0 1 0
4.942615 -10.321309 -18.517109 21.767917 -1.124191 2.588037 0.019689 0.014975 432634.000000 0 1 0
5.417715 -9.406109 -19.489109 22.308113 -1.048227 2.633416 0.029641 0.012258 -394445.000000 0 1 0
4.849215 -9.579709 -20.899609 23.496370 -1.102204 2.667008 0.037940 0.002017 -259182.000000 0 1 0
3.542915 -9.053909 -20.919509 23.068407 -1.197801 2.706537 0.039409 -0.000343 -492625.000000 0 1 0
2.953815 -9.205009 -22.169909 24.185990 -1.260284 2.730395 0.033534 -0.005587 -180767.000000 0 1 0
1.436215 -8.994509 -22.160309 23.959199 -1.412456 2.751618 0.034293 -0.006758 -231062.000000 0 1 0
1.045715 -7.693509 -21.872809 23.209985 -1.435703 2.800495 0.035081 -0.011848 320934.000000 0 1 0
-0.387385 -7.572809 -21.876209 23.153100 1.519686 2.807933 0.027804 -0.008103 976599.000000 0 1 0
-0.868285 -6.543609 -22.899209 23.831629 1.438875 2.860939 0.041883 -0.011809 -143374.000000 0 1 0
-0.758485 -7.116009 -24.192509 25.228761 1.464609 2.853987 0.045275 -0.006985 -71538.100000 0 0 1
-1.336985 -6.313109 -25.259879 26.071141 1.362101 2.891473 0.048963 -0.009437 351476.000000 0 0 1
-0.578385 -5.039909 -25.627139 26.124423 1.456535 2.946165 0.054588 -0.016255 117847.000000 0 0 1
-1.286985 -4.500109 -26.734599 27.141225 1.292242 2.968275 0.050640 -0.012826 118917.000000 0 0 1
-0.853685 -3.222609 -27.133379 27.337415 1.311839 3.019340 0.035559 -0.010343 -749713.000000 0 0 1
-1.307785 -2.042809 -26.335149 26.446615 1.001349 3.049748 0.039118 -0.017218 134216.000000 0 0 1
-2.700385 -1.795809 -26.188339 26.388371 0.586862 3.018386 0.018240 -0.017971 295635.000000 0 0 1
-3.213085 -1.102509 -27.356359 27.566462 0.330542 3.018050 0.024260 -0.010771 88013.200000 0 0 1
-4.765785 -1.155509 -27.291279 27.728358 0.237869 2.963804 0.017743 -0.011230 195728.000000 0 0 1
-5.283885 -0.214409 -26.389229 26.913878 0.040556 2.943819 0.016321 -0.015641 -2070110.000000 0 0 1
-6.630485 -0.384809 -26.392409 27.215266 0.057971 2.895062 0.027486 -0.021401 -1694820.000000 0 0 1
-7.364085 0.872691 -25.733769 26.780930 -0.117956 2.861027 0.027690 -0.012507 -950607.000000 0 0 1
-7.441285 2.033391 -26.582859 27.679520 -0.266746 2.859159 0.024674 -0.012393 67939.000000 0 0 1
-8.469085 2.042691 -27.541499 28.886540 -0.236673 2.835231 0.047984 -0.016911 389797.000000 0 0 1
-9.945485 1.759191 -27.126019 28.945265 -0.175072 2.785164 0.048626 -0.016619 -152179.000000 0 0 1
-10.885385 2.137491 -28.127749 30.236249 -0.193896 2.765933 0.051757 -0.025231 1657450.000000 0 0 1
-12.236885 1.714091 -27.819729 30.440381 -0.139170 2.723608 0.034383 -0.015153 1121160.000000 0 0 1
-13.405885 2.194091 -28.694679 31.747699 -0.162228 2.699445 0.023120 -0.007075 -596213.000000 0 0 1
-14.637985 1.651991 -28.215519 31.829471 -0.112381 2.660433 0.020132 -0.007512 230826.000000 0 0 1
-15.720185 2.163191 -28.956479 33.019408 -0.136747 2.640282 0.015877 -0.007887 -165531.000000 0 0 1
-16.187685 3.580991 -28.456779 32.934069 -0.217711 2.614062 0.013993 0.002551 -855518.000000 0 0 1
-15.352485 4.704091 -28.732189 32.914525 -0.297323 2.631980 0.023485 0.000260 -59254.100000 0 0 1
-15.289585 5.128491 -30.116019 34.162076 -0.323631 2.649959 0.026700 -0.011118 -554586.000000 0 0 1
-16.574185 5.670591 -30.778079 35.413971 -0.329650 2.624165 0.028531 -0.002627 -122459.000000 0 0 1
-17.105285 6.714991 -29.986069 35.168825 -0.374083 2.591799 0.028173 0.010976 -412198.000000 0 0 1
-17.930685 7.555791 -30.687729 36.336430 -0.398808 2.576510 0.025962 0.007229 -435197.000000 0 0 1
-18.711685 8.577391 -29.779929 36.201422 -0.429815 2.536796 0.012995 0.003653 86149.900000 0 0 1
-17.950385 9.575891 -29.150329 35.547935 -0.490059 2.532258 0.022895 0.007053 845758.000000 0 0 1
-18.888685 10.564091 -28.680929 35.930184 -0.509941 2.495165 0.031664 0.006933 584759.000000 0 0 1
-8.449385 24.677691 31.107713 40.596432 -1.240917 0.697785 0.020419 -0.009398 25295.500000 0 0 1
-9.235685 25.879391 30.900853 41.350979 -1.228011 0.726834 0.025976 -0.011971 476682.000000 0 0 1
-8.893885 26.937091 31.799593 42.613638 -1.251893 0.728415 0.020035 -0.008397 -403590.000000 0 0 1
-7.611585 27.683591 31.453773 42.587055 -1.302477 0.739841 0.020944 -0.011453 -525225.000000 0 0 1
-7.667885 28.692291 30.468803 42.548701 -1.309654 0.772608 0.036408 -0.005403 -260192.000000 0 0 1
-6.390485 28.968191 29.966343 42.166053 -1.353670 0.780340 0.030118 -0.004045 -317632.000000 0 0 1
-6.340385 30.170491 28.980153 42.312034 -1.363659 0.816309 0.052743 -0.010320 -192938.000000 0 0 1
-6.444685 31.384591 29.661593 43.661614 -1.368266 0.823918 0.056506 -0.012321 322804.000000 0 0 1
-6.133185 32.473491 28.791023 43.829973 -1.384128 0.854123 0.054129 -0.015097 -61120.400000 0 0 1
-6.464685 33.818991 29.488973 45.333385 -1.381919 0.862565 0.057978 -0.015846 -549335.000000 0 0 1
-5.596485 34.072091 30.546803 46.101357 -1.407996 0.846510 0.066086 -0.017683 -144972.000000 0 0 1
-6.140285 -33.941048 31.571143 46.759329 1.391822 0.829582 0.075524 -0.022116 -78421.600000 0 0 1
-7.218285 -34.409148 32.563863 47.921793 1.364017 0.823687 0.039517 -0.017266 59482.100000 0 0 1
-6.850785 33.367391 33.543540 47.806747 -1.368297 0.793088 0.051257 -0.014876 123446.000000 0 0 1
-6.885285 32.079391 32.958038 46.505125 -1.359371 0.783147 0.049297 -0.010442 -196527.000000 0 0 1
-6.754285 30.898491 33.897239 46.361189 -1.355586 0.750782 0.039206 0.000580 1163460.000000 0 0 1
-5.515385 30.741591 -34.178050 46.299071 -1.393274 2.401197 0.035361 -0.010645 947817.000000 0 0 1
-5.823185 30.462991 -32.811289 45.149573 -1.381919 2.384337 0.034403 -0.006185 -814590.000000 0 0 1
-4.543685 30.336391 -31.956289 44.296118 -1.422125 2.376653 0.043402 -0.007192 529969.000000 0 0 1
-3.776385 29.143591 -32.160769 43.565181 -1.441936 2.401227 0.052082 -0.000395 381542.000000 0 0 1
-3.075585 29.188691 -33.409289 44.470434 -1.465815 2.420780 0.049132 -0.008531 -1122570.000000 0 0 1
-2.394385 27.873991 -33.824189 43.894968 -1.485106 2.450533 0.055893 -0.005058 -1479580.000000 0 0 1
-1.312985 27.540791 -33.033379 43.028168 -1.523158 2.446064 0.075956 -0.000205 -553456.000000 0 0 1
-0.791385 26.246591 -33.199229 42.328461 -1.540654 2.472402 0.083925 -0.000587 57295.800000 0 0 1
-0.219085 25.862991 34.228121 42.901125 -1.562326 0.647097 0.071953 -0.002473 -715587.000000 0 0 1
-1.131585 25.529191 33.209560 41.903400 -1.526500 0.655855 0.070422 -0.002990 -124758.000000 0 0 1
-0.533685 25.429991 31.928493 40.821537 -1.549813 0.672690 0.064821 -0.004186 1509.260000 0 0 1
-0.246685 26.784991 31.192513 41.115318 -1.561587 0.709544 0.047477 -0.013141 379952.000000 0 0 1
-1.411985 27.509191 30.755513 41.287417 -1.519514 0.730393 0.039591 -0.017429 603838.000000 0 0 1
-1.036885 28.768991 30.173343 41.703244 -1.534770 0.761901 0.038104 -0.018010 230510.000000 0 0 1
-2.138685 29.848391 30.354563 42.625108 -1.499267 0.778271 0.042067 -0.012825 160281.000000 0 0 1
-2.251685 30.281591 31.692463 43.891423 -1.496575 0.764014 0.050195 -0.015552 -262163.000000 0 0 1
-3.003185 31.453391 31.825743 44.846547 -1.475604 0.781783 0.046413 -0.009195 -273485.000000 0 0 1
-2.621285 32.319291 33.042951 46.295186 -1.489868 0.775966 0.075413 -0.011996 613730.000000 0 0 1
-1.287785 32.835491 33.020502 46.585205 -1.531597 0.782973 0.064300 -0.022023 120313.000000 0 0 1
-0.921185 33.363691 34.266924 47.835201 -1.543193 0.772234 0.060921 -0.021959 1060230.000000 0 0 1
0.615815 33.762791 34.248610 48.096492 1.552559 0.778338 0.063337 -0.023745 1116830.000000 0 0 1
0.929315 -34.044748 33.399191 47.701304 -1.543506 0.795156 0.073472 -0.023478 -68834.100000 0 0 1
2.268415 -33.635048 33.461270 47.498618 -1.503456 0.789123 0.029286 -0.010248 -205506.000000 0 0 1
2.281815 -32.194248 32.927564 46.107491 -1.500038 0.775390 0.033197 -0.013964 -46493.900000 0 0 1
1.933615 -31.253648 33.953097 46.188117 -1.509007 0.744975 0.031159 -0.006316 273377.000000 0 0 1
1.761515 -29.976148 33.417933 44.926947 -1.512100 0.732016 0.020275 -0.003479 -463000.000000 0 0 1
1.354115 -28.991348 -34.353225 44.971947 -1.524123 2.440102 0.021378 -0.001335 139094.000000 0 0 1
0.038115 -29.157648 -33.843749 44.671795 -1.569489 2.430438 0.018714 -0.007542 333133.000000 0 0 1
-0.243885 -28.203948 -32.873539 43.315029 1.562149 2.432481 0.017560 -0.004141 -1090530.000000 0 0 1
-1.686085 -27.787048 -32.860809 43.067339 1.510192 2.438753 0.031189 -0.000672 -1138080.000000 0 0 1
-2.067685 -27.195548 -31.644829 41.776409 1.494912 2.430242 0.030549 -0.006131 -106608.000000 0 0 1
-3.304985 -26.550448 -31.806199 41.563007 1.446954 2.442230 0.037264 -0.013031 -326472.000000 0 0 1
-3.844885 -25.982848 -30.476149 40.232912 1.423885 2.430261 0.033437 -0.016583 -241693.000000 0 0 1
-4.293085 -26.937948 -29.469309 40.156243 1.412756 2.394792 0.034979 -0.009340 35258.500000 0 0 1
-4.583085 -26.453748 -28.157959 38.905991 1.399250 2.380008 0.034877 -0.010228 -43433.800000 0 0 1
-3.476185 -25.906948 -27.215409 37.735028 1.437413 2.376364 0.040397 -0.011630 -110110.000000 0 0 1
-2.856085 -24.664648 -27.440359 37.006424 1.455513 2.406103 0.038190 -0.007415 590730.000000 0 0 1
-1.843285 -24.359448 -26.455909 36.009659 1.495270 2.396005 0.036101 -0.007961 87611.700000 0 0 1
-0.806785 -23.359048 -27.016279 35.723597 1.536272 2.428372 0.031529 -0.012485 416050.000000 0 0 1
-0.045685 -23.551748 -28.202219 36.743055 1.568857 2.445810 0.010459 -0.014558 247596.000000 0 0 1
0.859515 -24.635848 -28.187429 37.445894 -1.535922 2.423027 0.020300 -0.012282 -186058.000000 0 0 1
1.634915 -24.895548 -29.487209 38.625856 -1.505220 2.439366 0.003779 -0.012727 468969.000000 0 0 1
2.634415 -23.945048 -29.852289 38.359675 -1.461218 2.462624 0.003385 -0.007743 664525.000000 0 0 1
3.358915 -24.188248 -31.063489 39.513213 -1.432813 2.475358 0.010116 -0.003497 -247799.000000 0 0 1
4.289915 -22.972548 -31.333149 39.088458 -1.386182 2.500756 0.014041 -0.009736 -601286.000000 0 0 1
5.373215 -22.757248 -30.439679 38.384083 -1.338933 2.486561 0.010951 -0.016240 1146580.000000 0 0 1
6.529315 -23.603648 -30.455049 39.080355 -1.300922 2.464333 0.014466 -0.010236 298853.000000 0 0 1
7.226515 -23.870148 -31.815329 40.425508 -1.276825 2.476746 0.023798 -0.007904 -1221200.000000 0 0 1
6.516015 -24.736248 -32.686339 41.505869 -1.313228 2.477557 -0.000350 -0.004959 -37379.200000 0 0 1
6.813115 -24.615948 -34.071629 42.582148 -1.300779 2.498323 0.003278 -0.005468 -339490.000000 0 0 1
6.337215 -23.355448 34.096861 41.811878 -1.305838 0.617234 0.003822 -0.002105 -140092.000000 0 0 1
4.922815 -23.292748 34.143264 41.623895 -1.362516 0.608895 0.008974 -0.001198 53281.500000 0 0 1
4.486615 -22.133748 33.426752 40.340801 -1.370801 0.594178 0.010776 -0.002951 572951.000000 0 0 1
3.031815 -21.694448 33.859056 40.327121 -1.431945 0.574231 0.009276 -0.004533 1441540.000000 0 0 1
1.925015 -22.509648 33.453722 40.367579 -1.485484 0.593966 0.012540 -0.003168 359173.000000 0 0 1
1.736315 -23.597448 34.331652 41.695523 -1.497348 0.603438 0.010357 -0.003256 -619309.000000 0 0 1
0.394015 -24.262448 33.992019 41.764566 -1.554558 0.619970 0.020933 -0.005237 -111357.000000 0 0 1
0.287115 -24.868248 32.688153 41.073440 -1.559251 0.650392 0.024997 -0.012739 -328794.000000 0 0 1
-0.899685 -25.607248 32.565513 41.437341 1.535677 0.666650 0.018526 -0.010530 -530320.000000 0 0 1
-0.973485 -26.376348 31.178933 40.850768 1.533906 0.702484 0.018059 -0.021462 131086.000000 0 0 1
-2.248785 -26.884848 30.829863 40.967457 1.487346 0.718878 0.025042 -0.019867 257944.000000 0 0 1
-2.100485 -27.945948 29.957383 41.022345 1.495775 0.752079 0.032707 -0.024726 -9945.050000 0 0 1
-3.408785 -28.285848 29.218243 40.809493 1.450863 0.772788 0.038291 -0.014686 -89026.700000 0 0 1
-4.443185 -28.795548 30.038603 41.847857 1.417703 0.770152 0.044269 -0.009653 -204290.000000 0 0 1
-5.469585 -29.224148 29.177763 41.657040 1.385777 0.794799 0.045255 -0.007676 55608.400000 0 0 1
-6.779585 -29.655048 29.912813 42.663345 1.346044 0.793807 0.041672 -0.006048 -270283.000000 0 0 1
-7.815585 -30.029248 29.047823 42.504295 1.316179 0.818374 0.069491 -0.005274 1044450.000000 0 0 1
-9.114685 -30.273248 29.645163 43.340313 1.278349 0.817552 0.058081 -0.006845 1167280.000000 0 0 1
-9.171185 -31.523748 30.606823 44.884685 1.287682 0.820441 0.036861 -0.001719 -770703.000000 0 0 1
-9.055785 -32.847848 30.052963 45.433126 1.301790 0.848010 0.050496 -0.008789 -363478.000000 0 0 1
-10.163085 -33.232948 29.312093 45.463347 1.274015 0.870112 0.049314 -0.010083 -672237.000000 0 0 1
-10.087185 34.220191 28.748513 45.817570 -1.284142 0.892515 0.071498 -0.013736 -489518.000000 0 0 1
-10.218685 33.257591 29.785933 45.800553 -1.272694 0.862764 0.061204 -0.008031 266988.000000 0 0 1
-10.029185 31.940891 29.320263 44.502616 -1.266553 0.851516 0.062846 -0.020220 -233839.000000 0 0 1
-10.397185 30.864391 30.338903 44.510236 -1.245869 0.820827 0.053560 -0.003666 1817220.000000 0 0 1
-11.846985 30.757991 30.549583 44.940873 -1.203141 0.823344 0.040049 0.003840 1716680.000000 0 0 1
-12.246585 29.564091 31.268633 44.740828 -1.178076 0.796961 0.033591 0.001784 110850.000000 0 0 1
-12.122185 29.662491 32.802552 45.856495 -1.182838 0.773699 0.029154 -0.015120 141472.000000 0 0 1
-13.175885 30.466691 33.346243 47.050984 -1.162617 0.783106 0.023903 -0.005238 557480.000000 0 0 1
-13.398585 30.106491 -34.144630 47.452910 -1.152075 2.373947 0.020803 -0.010465 464355.000000 0 0 1
-14.733185 30.680691 -33.556049 47.795188 -1.123105 2.349111 0.014972 -0.007512 405180.000000 0 0 1
-14.959385 30.262791 -32.212049 46.660860 -1.111706 2.332761 0.008455 -0.011013 -1004740.000000 0 0 1
-16.270085 30.355291 -31.798369 46.875320 -1.078774 2.316325 0.012816 -0.010652 -788872.000000 0 0 1
-16.576185 29.927591 -30.338619 45.725949 -1.064982 2.296267 0.024045 -0.007263 -246586.000000 0 0 1
-16.222285 28.600891 -30.088799 44.570274 -1.054847 2.311879 0.020185 -0.011402 95796.100000 0 0 1
-16.258385 28.339791 -28.705379 43.491121 -1.049944 2.291653 0.019424 -0.008152 -263899.000000 0 0 1
-16.767685 26.973891 -28.323059 42.555161 -1.014627 2.299042 0.008761 -0.016128 -264786.000000 0 0 1
-18.095585 26.688991 -28.666419 43.145290 -0.974977 2.297508 0.008127 -0.004189 -332353.000000 0 0 1
-18.530385 25.534391 -27.954379 42.152433 -0.943027 2.295847 0.004830 -0.005965 -17771.300000 0 0 1
-19.965985 25.042191 -28.206969 42.677687 -0.897708 2.292854 0.014168 -0.007073 29129.000000 0 0 1
-20.959485 25.730191 -27.441549 43.062528 -0.887224 2.261720 0.031371 -0.014642 690250.000000 0 0 1
-22.236785 25.238891 -27.865639 43.680317 -0.848549 2.262623 0.043297 -0.016698 627807.000000 0 0 1
-23.408785 25.342991 -26.869439 43.728768 -0.825052 2.232494 0.068232 -0.029865 -1153.330000 0 0 1
-23.872585 26.702791 -26.653819 44.647121 -0.841300 2.210538 0.052720 -0.018003 1002630.000000 0 0 1
-25.091895 26.821791 -25.875589 44.928363 -0.818708 2.184538 0.046585 -0.018110 1000850.000000 0 0 1
-24.940685 26.432191 -24.381809 43.762668 -0.814423 2.161731 0.044719 -0.004561 -319479.000000 0 0 1
-24.700385 25.045791 -24.062909 42.619529 -0.792341 2.170743 0.035137 -0.009081 316347.000000 0 0 1
-25.894375 24.264991 -23.912109 42.791324 -0.752925 2.163743 0.029218 -0.003916 38566.200000 0 0 1
-26.583545 24.323291 -22.575409 42.520071 -0.741027 2.130500 0.018992 -0.003870 -215963.000000 0 0 1
-25.932015 23.677491 -21.448409 41.147627 -0.739984 2.119117 0.012298 -0.001535 490127.000000 0 0 1
-24.826085 24.432391 -20.967009 40.655771 -0.777406 2.112645 0.029088 0.000656 440572.000000 0 0 1
-24.023585 23.777091 -19.773609 39.159651 -0.780241 2.100119 0.029652 -0.005632 351377.000000 0 0 1
-24.658285 23.910391 -18.505909 39.015465 -0.770001 2.064991 0.023462 -0.004021 -116822.000000 0 0 1
-23.734985 23.750391 -17.472209 37.851138 -0.785723 2.050598 0.031738 -0.005184 -382494.000000 0 0 1
-24.242785 23.927291 -16.027509 37.644507 -0.778849 2.010598 0.026965 -0.007010 -225298.000000 0 0 1
-24.601585 25.211391 -15.517009 38.491944 -0.797639 1.985724 0.033435 -0.014955 31258.100000 0 0 1
-24.939285 25.065791 -14.172709 38.093667 -0.787928 1.952012 -0.004438 -0.008304 -74956.200000 0 0 1
-25.199195 26.379291 -13.421909 38.871764 -0.808274 1.923341 -0.004934 -0.009293 236952.000000 0 0 1
-24.022585 27.121191 -13.132009 38.536908 -0.845910 1.918526 0.025681 -0.017166 -47847.600000 0 0 1
-24.153985 27.967591 -11.990609 38.850686 -0.858436 1.884552 0.026790 -0.012543 -655351.000000 0 0 1
-22.841085 28.545791 -11.496909 38.324356 -0.895960 1.875478 0.033558 -0.016072 -628727.000000 0 0 1
-22.060485 27.593991 -10.811509 36.945664 -0.896380 1.867775 0.040984 -0.020676 822556.000000 0 0 1
-20.866385 28.208891 -10.251209 36.554546 -0.933914 1.855045 0.036586 -0.022474 331243.000000 0 0 1
-19.932385 27.128691 -9.759009 35.050023 -0.937137 1.852956 0.058761 -0.021428 -486723.000000 0 0 1
-19.334185 26.367691 -10.828509 34.443032 -0.938100 1.890609 0.050568 -0.022868 124045.000000 0 0 1
-18.660785 25.286091 -10.189609 33.036940 -0.935029 1.884339 0.052404 -0.015009 -46665.100000 0 0 1
-17.928585 24.339691 -11.190709 32.234867 -0.935927 1.925339 0.054045 -0.022283 27119.100000 0 0 1
-17.355885 23.156091 -10.644009 30.833848 -0.927604 1.923254 0.053563 -0.023569 132206.000000 0 0 1
-17.045085 22.330591 -11.664809 30.418053 -0.918833 1.964361 0.056717 -0.022014 -94701.300000 0 0 1
-16.693585 20.953891 -11.088309 28.994688 -0.898082 1.963216 0.042563 -0.010801 397357.000000 0 0 1
-17.849985 20.147991 -10.822609 29.011935 -0.845802 1.953080 0.036823 -0.005383 576273.000000 0 0 1
-17.447185 18.816291 -10.447609 27.705768 -0.823135 1.957450 0.050897 -0.017455 -388627.000000 0 0 1
-18.619285 17.795491 -10.448109 27.794249 -0.762779 1.956174 0.042174 -0.007196 365057.000000 0 0 1
-19.312685 17.412391 -11.601609 28.473997 -0.733700 1.990452 0.027839 -0.004900 224998.000000 0 0 1
-19.908985 18.455291 -12.382509 29.837761 -0.747524 1.998733 0.024756 -0.000032 -920089.000000 0 0 1
-20.733885 17.982091 -13.537309 30.602423 -0.714441 2.029026 0.040276 -0.004304 -601880.000000 0 0 1
-19.925085 17.350391 -14.481009 30.128802 -0.716436 2.072177 0.040057 -0.012130 206942.000000 0 0 1
-20.667185 17.073191 -15.661409 31.046837 -0.690455 2.099535 0.038946 -0.004906 193320.000000 0 0 1
-19.728785 16.516291 -16.757409 30.705432 -0.696997 2.148077 0.061429 -0.012743 93795.500000 0 0 1
-18.900785 17.598091 -17.232609 31.046663 -0.749722 2.159226 0.039410 -0.013194 100479.000000 0 0 1
-18.128885 17.105691 -18.286309 30.913593 -0.756367 2.203751 0.040245 -0.012337 -571376.000000 0 0 1
-17.167685 18.147391 -18.953409 31.357438 -0.813133 2.219848 0.022099 0.000394 -269755.000000 0 0 1
-16.217385 18.481691 -17.984309 30.463287 -0.850561 2.202301 0.025764 -0.006659 -163531.000000 0 0 1
-15.558585 19.711791 -18.301309 31.073496 -0.902612 2.200578 0.044979 -0.000706 34748.900000 0 0 1
32.095956 31.728491 1.794591 45.167113 0.779641 1.531054 0.038230 -0.009229 -215423.000000 0 0 1
33.401466 31.369091 1.410691 45.843951 0.754030 1.540020 0.039513 -0.010957 -103455.000000 0 0 1
33.631016 31.713291 0.066491 46.225345 0.756059 1.569358 0.044803 -0.009320 40386.900000 0 0 1
35.040596 31.348491 -0.450709 47.018873 0.729842 1.580382 0.027925 -0.006645 65767.400000 0 0 1
-35.229159 31.923891 0.278191 47.542674 -0.736218 1.564945 0.010153 -0.002926 -220491.000000 0 0 1
-34.079299 31.879491 -0.527409 46.668819 -0.752059 1.582098 0.021272 -0.004124 -941328.000000 0 0 1
-33.072625 32.954691 -0.244809 46.689079 -0.783612 1.576040 0.013422 -0.001053 -648206.000000 0 0 1
-32.440515 32.711591 0.995291 46.080644 -0.789559 1.549196 0.005066 0.002276 -28041.200000 0 0 1
-31.991875 33.917791 1.609891 46.652849 -0.814610 1.536282 -0.003021 0.002913 -241890.000000 0 0 1
-31.222375 33.795791 2.909991 46.102714 -0.824957 1.507635 0.011138 0.003432 -295720.000000 0 0 1
-30.974745 -33.796948 3.525691 45.979333 0.828942 1.494041 0.002958 0.007053 -168415.000000 0 0 1
-30.376865 -34.083548 4.729191 45.899972 0.842838 1.467581 0.022448 0.001445 -658581.000000 0 0 1
-30.113455 -32.831248 5.657491 44.907886 0.828549 1.444481 0.031993 -0.003348 -302791.000000 0 0 1
-31.195605 -32.178348 6.286091 45.256235 0.800904 1.431446 0.025980 -0.005445 -121874.000000 0 0 1
-31.801325 -32.946048 7.300391 46.368762 0.803076 1.412697 0.014814 -0.011270 -818302.000000 0 0 1
-32.877145 -32.259248 8.179291 46.781049 0.775912 1.395051 0.022578 -0.011433 1412900.000000 0 0 1
-34.199401 -32.037248 7.623191 47.477335 0.752767 1.409533 0.008313 -0.003318 1390030.000000 0 0 1
-34.975037 -33.201848 7.276091 48.770456 0.759395 1.421047 -0.001664 -0.003558 -200650.000000 0 0 1
34.843006 -32.968748 7.115791 48.493380 -0.757766 1.423527 -0.003931 0.002988 518003.000000 0 0 1
34.077336 -32.750648 8.330791 47.992415 -0.765548 1.396327 -0.003423 0.008572 406630.000000 0 0 1
32.690506 -32.757748 8.110691 46.984280 -0.786426 1.397302 -0.010801 0.011917 -12480.900000 0 0 1
31.879566 -32.608648 9.429291 46.567609 -0.796703 1.366900 -0.014730 0.003147 -500407.000000 0 0 1
30.503236 -32.424548 9.328791 45.484339 -0.815921 1.364232 -0.004414 -0.005013 -442112.000000 0 0 1
29.784776 -32.194648 10.510291 45.100937 -0.824260 1.335594 -0.004232 0.004468 -162584.000000 0 0 1
29.915316 -30.817548 11.202591 44.386321 -0.800253 1.315649 -0.003109 -0.001014 -583847.000000 0 0 1
29.317796 -29.713248 10.534791 43.051041 -0.792097 1.323581 0.014973 -0.015729 192288.000000 0 0 1
30.082106 -29.140848 9.478091 42.941313 -0.769506 1.348242 0.018039 -0.016691 -314730.000000 0 0 1
29.385526 -27.929148 8.887091 41.503335 -0.759993 1.354996 0.013467 -0.015472 -644767.000000 0 0 1
29.843766 -27.465048 7.640891 41.271812 -0.743915 1.384586 0.021830 -0.023051 72506.000000 0 0 1
29.076496 -26.317848 7.291291 39.890283 -0.735639 1.386979 0.000935 -0.018435 -11526.300000 0 0 1
29.280316 -26.004048 5.818491 39.590432 -0.726205 1.423295 -0.007386 -0.010320 -574560.000000 0 0 1
30.600786 -25.713948 5.533391 40.351378 -0.698838 1.433233 0.025189 -0.016328 -1163090.000000 0 0 1
30.679646 -25.131448 4.294391 39.890753 -0.686313 1.462934 0.024080 -0.011023 -777563.000000 0 0 1
32.100596 -24.766048 3.898291 40.730849 -0.657128 1.474941 0.043599 -0.013035 -829850.000000 0 0 1
32.842896 -25.931348 3.741591 42.012976 -0.668341 1.481620 0.033174 -0.012691 -516589.000000 0 0 1
34.209006 -25.538348 3.637891 42.845042 -0.641282 1.485786 0.042509 -0.019419 80570.500000 0 0 1
35.068236 -26.775248 3.575491 44.266006 -0.652097 1.489935 0.041517 -0.020522 -689250.000000 0 0 1
34.956096 -27.491148 4.776391 44.727014 -0.666423 1.463802 0.023456 -0.015098 -149804.000000 0 0 1
35.553032 -28.783348 4.714091 45.986105 -0.680561 1.468105 0.019800 -0.012050 -1071180.000000 0 0 1
34.961446 -29.705848 5.813791 46.244354 -0.704305 1.444744 0.017991 -0.009152 -435940.000000 0 0 1
33.674126 -30.207648 5.737091 45.600033 -0.731187 1.444649 0.004471 -0.008437 -535911.000000 0 0 1
32.666096 -29.214648 5.734691 44.197921 -0.729680 1.440679 0.008948 -0.006316 -1444110.000000 0 0 1
31.231856 -29.667948 5.533891 43.430864 -0.759724 1.443031 0.009086 -0.010818 -961717.000000 0 0 1
31.011216 -30.029148 4.191991 43.370705 -0.769311 1.473990 0.006219 -0.015761 -159382.000000 0 0 1
29.718426 -29.680248 3.769891 42.170061 -0.784755 1.481279 0.015487 -0.013500 -78957.000000 0 0 1
28.556976 -30.633748 4.090591 42.079215 -0.820470 1.473431 0.017516 -0.017479 -156497.000000 0 0 1
28.620006 -31.747748 3.217991 42.864668 -0.837163 1.495652 0.020562 -0.002291 -718391.000000 0 0 1
27.416896 -32.418648 3.362191 42.590601 -0.868796 1.491772 0.032942 -0.000646 -698143.000000 0 0 1
27.365666 -33.755948 2.611391 43.533471 -0.889570 1.510774 0.027770 -0.000681 -120844.000000 0 0 1
27.237436 -33.486548 1.215591 43.182224 -0.887947 1.542642 0.036930 -0.001773 236861.000000 0 0 1
26.941176 34.146291 0.497191 43.497625 0.902803 1.559366 0.035836 0.001340 73817.600000 0 0 1
26.795516 34.286291 -1.045509 43.527491 0.907424 1.594818 0.032722 0.006282 636402.000000 0 0 1
28.078436 -34.176048 -1.589109 44.259757 -0.883033 1.606708 0.028880 0.003015 1008860.000000 0 0 1
28.096426 34.417791 -2.973109 44.529011 0.886174 1.637614 0.026914 0.004394 -174934.000000 0 0 1
29.225336 -33.759548 -3.753309 44.809761 -0.857263 1.654656 0.019648 0.003145 -352915.000000 0 0 1
29.180346 -32.351948 -3.676909 43.722544 -0.836896 1.654992 0.020366 0.003869 -172453.000000 0 0 1
29.899436 -31.826648 -4.744809 43.925221 -0.816610 1.679028 0.012549 0.002314 -407878.000000 0 0 1
30.240966 -30.314348 -4.681509 43.074265 -0.786610 1.679696 0.007993 0.008868 42249.700000 0 0 1
29.220786 -29.434148 -5.166309 41.796102 -0.789036 1.694721 0.002735 -0.000766 357419.000000 0 0 1
29.641216 -28.091448 -4.990109 41.141613 -0.758561 1.692387 0.002995 -0.014158 355580.000000 0 0 1
30.698336 -27.576348 -6.008109 41.700602 -0.731876 1.715377 0.023045 -0.020986 -595813.000000 0 0 1
31.994816 -27.980448 -5.714009 42.886171 -0.718564 1.704430 0.022548 -0.013445 -349675.000000 0 0 1
32.945346 -27.501348 -6.702009 43.435434 -0.695578 1.725713 0.033029 -0.015364 522182.000000 0 0 1
33.213846 -28.389148 -7.987809 44.417434 -0.707238 1.751615 0.026939 -0.011739 -1004070.000000 0 0 1
32.103666 -28.527548 -8.809309 43.841422 -0.726485 1.773109 0.019572 -0.008371 -702147.000000 0 0 1
32.297696 -29.446948 -9.872809 44.807771 -0.739261 1.792956 0.005128 0.006126 190129.000000 0 0 1
32.066816 -30.910348 -9.526909 45.546595 -0.767037 1.781521 -0.007306 0.010131 292416.000000 0 0 1
33.049376 -31.392348 -8.632609 46.392486 -0.759690 1.757965 0.007925 0.007100 -263547.000000 0 0 1
32.698316 -32.676848 -8.187809 46.946741 -0.785070 1.746099 0.018113 -0.004117 295585.000000 0 0 1
33.403116 -33.001948 -6.821209 47.449190 -0.779357 1.715054 0.020118 -0.008176 407337.000000 0 0 1
33.206396 -34.319548 -6.393609 48.180643 -0.801881 1.703890 0.026512 -0.004308 -71440.000000 0 0 1
32.817276 34.413791 -5.056109 47.820988 0.809140 1.676724 0.043740 -0.003544 -194104.000000 0 0 1
32.525946 32.999191 -4.546309 46.556983 0.792620 1.668603 0.041018 -0.001769 -517621.000000 0 0 1
31.496296 32.322991 -5.167009 45.425658 0.798351 1.684790 0.038584 -0.008213 -523565.000000 0 0 1
31.509706 30.984391 -4.845009 44.456363 0.776993 1.679997 0.052618 0.001334 -68212.900000 0 0 1
30.382886 30.182191 -5.497209 43.177584 0.782084 1.698459 0.028489 0.002015 -84626.800000 0 0 1
30.541566 30.071591 -6.897809 43.412759 0.777645 1.730362 0.015903 0.007236 243547.000000 0 0 1
29.351226 29.578491 -7.489609 42.337641 0.789255 1.748634 0.006370 0.008665 341294.000000 0 0 1
29.623106 29.364991 -9.021409 42.675718 0.781022 1.783798 0.012599 0.009367 -358980.000000 0 0 1
30.423436 28.233691 -9.207109 42.514675 0.748084 1.789089 0.019555 0.002067 -129309.000000 0 0 1
30.777806 27.980191 -10.579609 42.919606 0.737822 1.819862 0.019368 0.005443 499812.000000 0 0 1
31.903566 28.895991 -11.188209 44.474620 0.735971 1.825092 0.017011 0.002431 -61590.300000 0 0 1
33.170376 28.599391 -10.615509 45.065375 0.711532 1.808589 0.023806 -0.002188 -17690.200000 0 0 1
34.148646 29.518291 -11.007809 46.461074 0.712798 1.809996 0.023508 -0.002852 -255631.000000 0 0 1
34.228226 30.736391 -10.049909 47.088192 0.731700 1.785878 0.023064 -0.007360 -707224.000000 0 0 1
34.953486 30.416791 -8.861109 47.174640 0.716109 1.759755 0.023043 0.000556 390136.000000 0 0 1
34.868346 31.530691 -7.948609 47.677735 0.735174 1.738294 0.020980 -0.002502 -385880.000000 0 0 1
-35.499760 31.237391 -6.776709 47.769565 -0.721617 1.713139 0.008024 0.004561 2579180.000000 0 0 1
-34.067275 31.576491 -6.957009 46.968649 -0.747472 1.719464 0.019932 0.000301 2267220.000000 0 0 1
-33.337665 30.632191 -7.726009 45.928447 -0.743130 1.739818 0.021050 -0.002387 397832.000000 0 0 1
-32.065295 31.309491 -8.396609 45.595728 -0.773473 1.756007 0.034394 -0.004535 1431680.000000 0 0 1
-31.016495 31.864991 -7.563909 45.106688 -0.798891 1.739282 0.036545 -0.005283 124294.000000 0 0 1
-29.986535 32.415591 -8.309309 44.933366 -0.824304 1.756792 0.014726 -0.016252 -770473.000000 0 0 1
-30.073925 33.811991 -9.018709 46.141400 -0.843843 1.767521 0.000111 -0.007643 -668858.000000 0 0 1
-30.162675 -33.859448 -8.241609 46.088755 0.843076 1.750584 -0.007045 -0.008465 -63595.400000 0 0 1
-29.165595 -33.645448 -7.254709 45.114066 0.856600 1.732306 0.011206 -0.015694 31157.400000 0 0 1
-29.410295 -32.312748 -6.431609 44.163840 0.832387 1.716947 -0.014830 -0.013150 -258248.000000 0 0 1
-30.425545 -32.318148 -5.487509 44.724593 0.815553 1.693802 -0.010436 -0.016225 -605212.000000 0 0 1
-29.996505 -32.966348 -4.349209 44.782653 0.832531 1.668068 -0.001425 -0.017417 -7100.500000 0 0 1
-31.038675 -32.980448 -3.212309 45.402954 0.815720 1.641607 0.016660 -0.017084 -26866.400000 0 0 1
-31.555175 -31.690648 -2.764909 44.807042 0.787540 1.632543 0.014318 -0.016667 -253934.000000 0 0 1
-32.489055 -31.904048 -1.762709 45.568785 0.776313 1.609488 0.031393 -0.014931 -895582.000000 0 0 1
-33.083855 -30.551048 -1.453609 45.055754 0.745617 1.603064 0.047684 -0.012194 -33450.700000 0 0 1
-34.076487 -30.617348 -0.455109 45.813056 0.731980 1.580731 0.038336 -0.009070 -339637.000000 0 0 1
-34.592952 -29.348248 -0.109909 45.365230 0.703558 1.573219 0.048697 -0.014442 -501903.000000 0 0 1
-35.650706 -29.389948 0.985691 46.213780 0.689435 1.549466 0.048034 -0.008665 -240514.000000 0 0 1
34.580006 -30.204948 0.507891 45.917030 -0.717969 1.559735 0.021827 -0.004990 1491990.000000 0 0 1
33.400346 -30.219048 1.364591 45.062580 -0.735435 1.540510 0.023088 -0.010081 1318860.000000 0 0 1
32.605936 -28.895648 1.547291 43.594721 -0.725143 1.535296 0.013862 0.002948 -589258.000000 0 0 1
31.739106 -28.645848 0.408791 42.756550 -0.734217 1.561235 0.006218 -0.000175 374951.000000 0 0 1
31.235086 -27.318648 0.416391 41.498344 -0.718611 1.560762 0.001700 0.004960 405558.000000 0 0 1
29.801696 -27.304648 -0.216909 40.419450 -0.741700 1.576163 0.000780 -0.006973 723876.000000 0 0 1
28.719926 -27.969348 0.432191 40.091213 -0.772159 1.560016 0.003524 0.003176 392433.000000 0 0 1
28.518216 -29.357548 0.277091 40.929587 -0.799899 1.564026 0.010340 0.002808 -247581.000000 0 0 1
28.236526 -29.804748 -1.235609 41.074946 -0.812411 1.600883 0.011280 0.008485 -401093.000000 0 0 1
26.956706 -29.503348 -1.720909 40.000914 -0.830473 1.613831 0.020628 0.018988 -293226.000000 0 0 1
26.713496 -30.077848 -2.998909 40.339575 -0.844570 1.645207 0.025092 0.015448 94025.700000 0 0 1
25.221056 -30.477448 -3.094909 39.680663 -0.879492 1.648871 0.035254 0.009960 442734.000000 0 0 1
24.351556 -29.366548 -3.185409 38.282362 -0.878486 1.654101 0.041550 0.009638 -420925.000000 0 0 1
23.009156 -29.707848 -3.391709 37.729050 -0.911790 1.660814 0.029234 0.012038 313816.000000 0 0 1
22.052356 -28.452148 -3.535009 36.170809 -0.911444 1.668684 0.028972 0.009661 427102.000000 0 0 1
22.028256 -27.915748 -4.837809 35.887846 -0.902738 1.706012 0.033917 0.001982 -8163.740000 0 0 1
21.701756 -26.592548 -4.699709 34.644150 -0.886325 1.706873 0.037570 -0.008319 -438890.000000 0 0 1
21.098756 -25.952048 -5.940609 33.969945 -0.888185 1.746579 0.036422 -0.025942 786706.000000 0 0 1
19.888756 -26.632948 -6.360409 33.842745 -0.929364 1.759861 0.033566 -0.022666 579718.000000 0 0 1
19.285656 -26.130248 -7.529009 33.337852 -0.934982 1.798601 0.052837 -0.021016 -458420.000000 0 0 1
17.795756 -26.407548 -7.647309 32.749487 -0.977810 1.806482 0.049411 -0.015247 -503491.000000 0 0 1
17.042756 -25.723548 -6.699609 31.575960 -0.985659 1.784596 0.034519 -0.014091 428195.000000 0 0 1
15.636256 -26.017148 -6.662509 31.076897 -1.029643 1.786861 0.029643 -0.019174 908801.000000 0 0 1
14.926856 -25.115348 -5.641709 29.756018 -1.034555 1.761550 0.021162 -0.009594 -215836.000000 0 0 1
15.071256 -25.666548 -4.379609 30.084804 -1.039846 1.716891 0.013977 -0.006532 200457.000000 0 0 1
14.600956 -24.741548 -3.411209 28.930407 -1.037659 1.688982 0.018095 0.000521 -34993.300000 0 0 1
14.737456 -25.270748 -1.980709 29.321094 -1.042834 1.638400 0.014585 0.006939 -135050.000000 0 0 1
14.019956 -26.494148 -1.810209 30.029584 -1.084085 1.631114 0.029259 0.005519 327539.000000 0 0 1
14.752656 -27.607348 -1.330909 31.330143 -1.080029 1.613289 0.033674 0.001437 -469760.000000 0 0 1
14.003756 -28.941848 -1.588209 32.190964 -1.120145 1.620153 0.033321 0.000244 -103290.000000 0 0 1
12.737956 -29.003548 -0.995109 31.693084 -1.156972 1.602200 0.043861 -0.006893 179727.000000 0 0 1
11.817056 -30.039448 -1.390509 32.310134 -1.196006 1.613846 0.046604 -0.014424 671797.000000 0 0 1
12.297856 -31.521148 -1.133809 33.854181 -1.198813 1.604294 0.045916 -0.010868 -445838.000000 0 0 1
13.389056 -31.899848 -1.952509 34.650821 -1.173405 1.627174 0.037572 -0.008032 -59438.300000 0 0 1
14.051256 -33.054248 -1.455709 35.946352 -1.168844 1.611304 0.032795 -0.005417 192717.000000 0 0 1
15.558556 -33.111948 -1.846609 36.631677 -1.131536 1.621228 0.024411 0.001360 142597.000000 0 0 1
16.189756 -32.062848 -1.176409 35.937701 -1.103206 1.603537 0.018126 0.007597 -722953.000000 0 0 1
17.557056 -32.025048 -1.485309 36.552156 -1.069314 1.611443 0.022097 0.002775 -609822.000000 0 0 1
18.131956 -30.817648 -0.734909 35.763604 -1.038978 1.591347 0.018736 0.002557 -261898.000000 0 0 1
17.804356 -29.552348 -1.261209 34.524296 -1.028564 1.607336 0.020964 0.001312 432776.000000 0 0 1
18.532256 -28.595048 -0.471909 34.078498 -0.995763 1.584644 0.002777 0.008534 151541.000000 0 0 1
18.359856 -27.126848 -0.854409 32.767060 -0.975801 1.596875 -0.003946 0.011507 -682481.000000 0 0 1
18.943656 -26.751348 -2.082809 32.845621 -0.954629 1.634251 0.000903 0.006733 -32127.600000 0 0 1
18.122856 -26.888848 -3.215609 32.585092 -0.977740 1.669641 0.009643 0.006211 -346250.000000 0 0 1
32.070566 -29.290348 13.931091 45.612729 -0.740120 1.260416 0.007215 -0.009992 356023.000000 0 0 1
32.832606 -29.990548 14.931791 46.908116 -0.740190 1.246840 0.016921 -0.002787 -61750.500000 0 0 1
31.970986 -30.463348 15.888891 46.932040 -0.761255 1.225420 0.016252 0.001610 -640484.000000 0 0 1
32.664186 -31.122348 17.072091 48.239050 -0.761231 1.209052 0.009359 0.005252 -383738.000000 0 0 1
31.834596 -31.391948 18.226391 48.281438 -0.778397 1.183698 0.003285 -0.001175 1002080.000000 0 0 1
32.601646 -31.650048 19.453091 49.426872 -0.770589 1.166281 -0.003392 0.000543 212905.000000 0 0 1
33.359716 -32.992548 19.529991 50.821250 -0.779865 1.176360 -0.006618 0.005403 -369736.000000 0 0 1
34.367966 -33.028248 18.528891 51.140415 -0.765523 1.200047 -0.009162 0.009119 -441207.000000 0 0 1
34.961636 -34.249148 18.536791 52.334814 -0.775104 1.208742 0.001378 0.002060 -388211.000000 0 0 1
-35.143754 -34.352648 17.590791 52.197929 0.774015 1.227066 -0.003277 0.006349 130010.000000 0 0 1
-34.041205 -33.580948 18.031391 51.103960 0.778592 1.210194 -0.001274 0.003437 493800.000000 0 0 1
-33.111805 -33.349248 16.963591 49.963260 0.788971 1.224388 0.003005 0.008478 -609734.000000 0 0 1
-31.809285 -32.689448 17.447591 48.834916 0.799044 1.205446 -0.004629 0.004792 -431072.000000 0 0 1
-30.784795 -32.620948 16.510891 47.795809 0.814349 1.218082 0.008035 0.002997 -273106.000000 0 0 1
-31.053815 -31.702348 15.468691 46.996369 0.795732 1.235397 0.014771 0.002016 -850316.000000 0 0 1
-29.959685 -31.696048 14.376691 45.922886 0.813553 1.252381 0.015468 0.000953 999651.000000 0 0 1
-28.696725 -31.239748 14.900591 44.960555 0.827801 1.232994 0.015999 -0.004165 186451.000000 0 0 1
-27.684605 -31.276548 13.940091 44.033918 0.846243 1.248678 0.029003 0.000808 616638.000000 0 0 1
-26.362505 -30.622648 14.502291 42.930696 0.860018 1.226210 0.032586 -0.006652 314819.000000 0 0 1
-25.288595 -30.763648 13.632791 42.092375 0.882767 1.240971 0.036888 -0.004486 -7733.700000 0 0 1
-24.105385 -30.268248 14.302491 41.252851 0.898259 1.216742 0.024727 -0.006599 1344790.000000 0 0 1
-22.761785 -30.392048 13.492691 40.296751 0.927975 1.229368 0.042581 -0.003400 761720.000000 0 0 1
-22.363785 -31.715948 13.245091 41.005764 0.956637 1.241893 0.030538 -0.001440 479571.000000 0 0 1
-21.013885 -31.648648 12.763291 40.076450 0.984660 1.246678 0.033588 -0.009059 795042.000000 0 0 1
-20.458485 -33.001448 12.250991 40.715255 1.015853 1.265166 0.033703 -0.006564 -38091.100000 0 0 1
-21.061185 -33.354748 11.017491 40.957268 1.007587 1.298442 0.030440 -0.003671 249134.000000 0 0 1
-21.010685 34.052991 10.878991 41.465739 -1.017971 1.305328 0.015595 -0.000521 -702783.000000 0 0 1
-22.181585 33.555591 10.068291 41.465297 -0.986699 1.325532 0.026015 -0.003005 -981714.000000 0 0 1
-22.026485 33.533791 8.662491 41.045340 -0.989625 1.358150 0.019029 -0.006370 526378.000000 0 0 1
-23.227585 33.290791 7.907791 41.356143 -0.961604 1.378400 0.030034 -0.008425 193206.000000 0 0 1
-22.945085 33.566691 6.406991 41.161258 -0.971185 1.414505 0.022059 -0.012737 -91052.300000 0 0 1
-22.265285 32.512391 5.687291 39.813864 -0.970328 1.427459 0.022298 -0.014313 1347240.000000 0 0 1
-20.855585 32.359191 5.975791 38.958731 -0.998295 1.416801 0.012779 -0.014013 651553.000000 0 0 1
-19.835185 33.396691 5.468991 39.226055 -1.034854 1.430918 0.013380 -0.012827 -574551.000000 0 0 1
-19.795585 -34.219248 6.218891 40.018705 1.046341 1.414764 0.022481 -0.011509 365225.000000 0 0 1
-19.029585 -34.341348 7.439291 39.959934 1.064788 1.383535 0.018085 -0.013308 -47127.300000 0 0 1
-18.975185 -33.162548 8.426291 39.125626 1.051079 1.353731 0.026932 -0.011210 -318454.000000 0 0 1
-18.230185 -32.028848 7.927391 37.696555 1.053347 1.358920 0.020635 -0.012369 143320.000000 0 0 1
-18.345385 -30.848448 8.713491 36.933790 1.034287 1.332629 0.020519 -0.018525 44300.100000 0 0 1
-17.857985 -30.900748 10.205891 37.120400 1.046775 1.292269 0.019010 -0.013786 347612.000000 0 0 1
-16.514785 -31.319748 10.390591 36.900259 1.085551 1.285350 0.021556 -0.017252 -134963.000000 0 0 1
-16.073185 -31.326848 11.733091 37.113126 1.096739 1.249134 0.049664 -0.020090 781750.000000 0 0 1
-14.627085 -31.945048 11.713591 37.035738 1.141407 1.248993 0.059740 -0.029443 1244420.000000 0 0 1
-13.619885 -31.078648 11.165791 35.721961 1.157766 1.252894 0.050004 -0.016346 -142568.000000 0 0 1
-12.507185 -31.752248 10.690591 35.762042 1.195560 1.267218 0.064829 -0.007330 -132909.000000 0 0 1
-11.442985 -30.861748 9.990091 34.397548 1.215729 1.276120 0.065158 -0.001006 144688.000000 0 0 1
-10.700285 -30.013748 10.808791 33.647454 1.228331 1.243761 0.065706 -0.008700 161396.000000 0 0 1
-9.656785 -29.302948 10.105091 32.465815 1.252455 1.254285 0.052184 -0.008512 647383.000000 0 0 1
-8.659485 -28.666948 11.105791 31.939305 1.277440 1.215663 0.047648 -0.003250 -65927.300000 0 0 1
-9.209985 -27.680948 11.948991 31.525182 1.249599 1.182048 0.040825 -0.016194 -251697.000000 0 0 1
-8.439685 -27.438048 13.122691 31.563900 1.272390 1.142029 0.039796 -0.009643 -371417.000000 0 0 1
-8.722485 -26.040948 13.768091 30.720889 1.247589 1.106082 0.045776 -0.010567 -28159.900000 0 0 1
-8.307285 -24.951448 13.024291 29.346514 1.249402 1.110950 0.020861 -0.008613 200601.000000 0 0 1
-9.189585 -24.553548 11.934791 28.805632 1.212668 1.143599 0.015924 -0.010963 403772.000000 0 0 1
-8.879185 -23.266048 11.185691 27.299608 1.206220 1.148629 0.005102 -0.006493 -111826.000000 0 0 1
-7.718685 -23.312448 10.398391 26.667862 1.251060 1.170249 -0.003306 -0.007686 -330122.000000 0 0 1
-7.342685 -22.032548 9.944591 25.263473 1.249107 1.166214 -0.004109 -0.000818 250606.000000 0 0 1
-6.109985 -22.022748 8.984291 24.557093 1.300163 1.196247 0.000743 -0.007416 14686.300000 0 1 0
-4.964285 -22.449048 9.635791 24.928946 1.353163 1.173930 0.000886 -0.004809 -1087080.000000 0 1 0
-3.858785 -22.610448 8.794291 24.565466 1.401761 1.204678 0.000780 -0.008431 -20959.200000 0 1 0
-2.823285 -23.620248 9.300291 25.541779 1.451833 1.198108 0.009627 -0.009345 -241286.000000 0 0 1
-1.994085 -23.174848 10.317091 25.445870 1.484963 1.153323 0.003307 0.001836 -946550.000000 0 0 1
-1.104685 -24.142648 10.760991 26.455372 1.525072 1.151892 0.020340 -0.008383 -331467.000000 0 0 1
-0.155385 -23.583848 11.809391 26.375817 1.564208 1.106565 0.014141 0.004416 -93651.200000 0 0 1
-0.781085 -23.389748 13.094791 26.817232 1.537414 1.060658 0.011322 0.012548 753680.000000 0 0 1
0.199315 -22.941948 14.092991 26.925547 -1.562109 1.019953 0.020247 0.008147 555928.000000 0 0 1
0.677015 -21.490448 14.101491 25.712832 -1.539304 0.990320 0.010907 0.006694 -187117.000000 0 0 1
1.511515 -21.204048 13.013691 24.924937 -1.499632 1.021467 0.022428 -0.007807 -331483.000000 0 1 0
2.029115 -19.900248 13.007691 23.860788 -1.469183 0.994229 0.019455 -0.004173 -1609140.000000 0 1 0
3.492715 -19.825748 12.818891 23.865944 -1.396415 1.003777 0.023893 -0.002573 -1576260.000000 0 1 0
3.822215 -20.208248 11.505191 23.565908 -1.383863 1.060755 0.035207 -0.004096 122394.000000 0 1 0
5.236915 -20.209348 11.308791 23.743036 -1.317240 1.074355 0.044006 -0.009592 540598.000000 0 1 0
5.647415 -20.968748 10.002991 23.909026 -1.307713 1.139138 0.044063 -0.020390 -397592.000000 0 1 0
5.337415 -20.335348 8.764891 22.778009 -1.314116 1.175809 0.033524 -0.021269 -307887.000000 0 1 0
5.746715 -21.080348 7.626891 23.142499 -1.304653 1.234957 0.037458 -0.029388 805704.000000 0 1 0
7.253215 -21.528748 7.464291 23.912586 -1.245832 1.253342 0.041655 -0.018569 937013.000000 0 1 0
8.222915 -20.591448 6.993391 23.249335 -1.190862 1.265265 0.053316 -0.023766 252017.000000 0 1 0
8.738915 -19.602748 7.862991 22.857449 -1.151440 1.219621 0.057203 -0.017947 616719.000000 0 1 0
9.726515 -20.091148 8.998191 24.067130 -1.119934 1.187609 0.047912 -0.013617 325770.000000 0 1 0
9.019715 -20.313148 10.220891 24.463153 -1.152915 1.139765 0.062097 -0.016955 -156837.000000 0 1 0
9.800715 -20.132748 11.345891 25.102008 -1.117761 1.101800 0.063474 -0.008924 71421.400000 0 0 1
8.786315 -20.208448 12.546891 25.357547 -1.160668 1.053193 0.063791 -0.018037 544878.000000 0 0 1
8.631915 -21.511748 13.078691 26.614233 -1.189200 1.057080 0.052823 -0.022727 -312516.000000 0 0 1
7.768015 -21.557248 14.171691 26.942417 -1.224937 1.016907 0.070518 -0.024919 -63621.600000 0 0 1
7.834515 -22.964448 14.731191 28.385797 -1.242020 1.025158 0.064030 -0.021595 242554.000000 0 0 1
7.519715 -24.022148 13.802291 28.707367 -1.267426 1.069238 0.066100 -0.016876 -173627.000000 0 0 1
7.564815 -25.256448 14.451691 30.066027 -1.279780 1.069383 0.073123 -0.015338 268656.000000 0 0 1
7.485515 -26.523248 13.557891 30.713711 -1.295726 1.113607 0.075274 -0.020510 606247.000000 0 0 1
8.713315 -26.731948 12.867891 30.920891 -1.255704 1.141583 0.059127 -0.018234 247300.000000 0 0 1
8.593515 -27.862948 12.032091 31.543043 -1.271632 1.179432 0.050483 -0.014575 -81097.900000 0 0 1
9.926715 -28.276248 11.378991 32.055691 -1.233176 1.207908 0.053434 -0.020359 -17432.500000 0 0 1
10.774315 -29.023848 12.225391 33.285579 -1.215341 1.194705 0.044360 -0.016128 -119184.000000 0 0 1
12.014315 -29.257848 11.628991 33.698648 -1.181155 1.218464 0.055973 -0.014958 158329.000000 0 0 1
13.073115 -30.030748 12.504691 35.058800 -1.160213 1.206087 0.044981 -0.013138 -67541.000000 0 0 1
13.553515 -29.362448 13.662091 35.107034 -1.138343 1.171082 0.041815 -0.012252 773754.000000 0 0 1
14.568915 -29.991148 14.465591 36.345227 -1.118594 1.161455 0.040230 -0.014031 813617.000000 0 0 1
15.962015 -30.242748 13.839391 36.890899 -1.085160 1.186244 0.043834 -0.010382 -512538.000000 0 0 1
16.528715 -28.952048 13.620991 36.013204 -1.052049 1.182921 0.034035 -0.018880 1196020.000000 0 0 1
17.887615 -29.078648 13.128891 36.577347 -1.019314 1.203670 0.027411 -0.013179 1168640.000000 0 0 1
18.729015 -27.770648 12.983191 35.924200 -0.977447 1.201022 0.015642 -0.017116 -813223.000000 0 0 1
19.943115 -27.983848 12.379691 36.525064 -0.951621 1.225010 0.008473 -0.017475 -963611.000000 0 0 1
20.722915 -26.794948 12.294291 36.035511 -0.912494 1.222633 0.009253 -0.017394 354260.000000 0 0 1
22.079515 -27.138048 11.611291 36.861914 -0.887818 1.250346 0.010870 -0.015915 69348.900000 0 0 1
23.013015 -27.744348 12.461791 38.139795 -0.878344 1.237944 0.013510 -0.021800 -406091.000000 0 0 1
24.139415 -28.184148 11.774891 38.932064 -0.862547 1.263537 0.006509 -0.030638 -707881.000000 0 0 1
25.195815 -28.926448 12.636491 40.388728 -0.854219 1.252581 0.012545 -0.024385 -467483.000000 0 0 1
26.109715 -28.134148 13.308291 40.624600 -0.822702 1.237043 0.002878 -0.015251 840834.000000 0 0 1
27.343015 -28.026148 12.530391 41.111022 -0.797735 1.261074 -0.011757 -0.008047 1475290.000000 0 0 1
28.560915 -27.234448 13.185691 41.608935 -0.761629 1.248342 0.011635 -0.010239 702336.000000 0 0 1
28.470915 -25.862848 13.438591 40.744026 -0.737434 1.234673 0.018860 -0.007790 -345697.000000 0 0 1
27.499715 -25.502648 14.383791 40.168555 -0.747737 1.204579 0.026253 -0.008454 -952549.000000 0 0 1
28.061815 -25.231748 15.795191 40.909591 -0.732345 1.174396 0.017159 0.000886 -577394.000000 0 0 1
28.465215 -26.364248 16.550891 42.181442 -0.747099 1.167585 0.009582 -0.001990 80193.300000 0 0 1
28.871915 -25.942848 17.861491 42.727645 -0.732013 1.139519 0.010285 0.009833 -239314.000000 0 0 1
29.500315 -27.235748 18.491791 44.204082 -0.745505 1.139193 0.011170 0.021974 570080.000000 0 0 1
28.516215 -28.264648 18.738191 44.307839 -0.780968 1.134143 0.009697 0.019206 765811.000000 0 0 1
29.132915 -29.240948 19.573191 45.682268 -0.787249 1.128005 0.012724 0.013872 180183.000000 0 0 1
28.131715 -30.286848 20.102991 45.965387 -0.822273 1.118146 0.003573 0.023353 -198227.000000 0 0 1
27.203515 -29.667248 21.041091 45.419207 -0.828693 1.089121 -0.000792 0.031000 1167360.000000 0 0 1
26.066515 -30.453348 21.404691 45.442605 -0.862859 1.080342 -0.009626 0.028836 588244.000000 0 0 1
25.017615 -30.717248 20.314791 44.521019 -0.887307 1.096967 0.021379 0.011192 -1003300.000000 0 0 1
25.333915 -31.844148 19.566391 45.151973 -0.898769 1.122595 0.022166 0.015112 48743.600000 0 0 1
24.620915 -31.959948 18.352491 44.322022 -0.914387 1.143874 0.024907 0.005476 -514492.000000 0 0 1
24.914215 -31.020948 17.169891 43.333849 -0.894143 1.163396 0.020347 0.009944 641583.000000 0 0 1
26.207915 -31.296548 16.597391 44.065884 -0.873659 1.184620 0.012366 0.003598 485022.000000 0 0 1
26.735015 -30.201048 15.892491 43.352458 -0.846199 1.195457 0.010931 -0.012840 264796.000000 0 0 1
28.163315 -30.660148 15.450791 44.406575 -0.827819 1.215424 0.011819 -0.011849 35114.000000 0 0 1
28.141115 -31.614748 14.396691 44.706592 -0.843463 1.242927 0.028710 -0.006295 304844.000000 0 0 1
27.960915 -32.974048 14.803491 45.697308 -0.867484 1.240898 0.004010 -0.007437 -296376.000000 0 0 1
27.085215 -33.890248 13.905391 45.557850 -0.896541 1.260622 0.013772 -0.009825 -524549.000000 0 0 1
27.607715 -34.140148 12.602191 45.678779 -0.890798 1.291284 0.022084 -0.013785 31625.500000 0 0 1
26.869415 33.759391 11.903091 44.758747 0.898555 1.301619 0.020316 -0.018541 -738051.000000 0 0 1
27.514115 33.299591 10.592491 44.475725 0.880247 1.330322 0.015923 -0.018788 -1024880.000000 0 0 1
28.583515 32.474591 10.816191 44.593793 0.849040 1.325804 -0.009051 -0.012218 -763907.000000 0 0 1
28.971315 31.791691 9.621891 44.075270 0.831781 1.350718 -0.011647 -0.014254 -5537.530000 0 0 1
30.405415 31.223491 9.763291 44.662260 0.798672 1.350414 -0.020606 -0.003684 44058.100000 0 0 1
30.468615 30.191691 10.703791 44.209114 0.780833 1.326249 -0.018335 0.001180 463377.000000 0 0 1
31.823615 29.812591 10.941691 44.958354 0.752782 1.324953 -0.015882 0.005738 506626.000000 0 0 1
32.125915 28.989891 12.161891 44.948857 0.734130 1.296809 -0.009198 0.018540 -54455.100000 0 0 1
31.711315 27.631691 12.017491 43.744004 0.716760 1.292495 -0.003227 0.018915 180220.000000 0 0 1
32.140415 26.777391 13.062491 43.825376 0.694623 1.268139 0.012285 0.003004 -142148.000000 0 0 1
32.116215 25.297191 12.769191 42.830495 0.667181 1.268060 0.007256 -0.006979 -425583.000000 0 0 1
33.180115 24.800491 12.027191 43.135109 0.641867 1.288225 0.015471 -0.000583 -572964.000000 0 0 1
33.212415 23.361891 11.913991 42.317675 0.613010 1.285401 0.035159 -0.012594 -653307.000000 0 0 1
32.123115 22.661891 11.141691 40.860654 0.614388 1.294624 0.017586 -0.009342 44463.600000 0 0 1
30.881815 22.396191 11.790591 39.928610 0.627454 1.271035 0.010456 -0.013825 667228.000000 0 0 1
29.786615 22.733691 10.943491 39.036177 0.651907 1.286646 -0.005466 0.001190 567394.000000 0 0 1
28.384315 22.436091 11.562791 37.983491 0.668884 1.261471 -0.028034 0.006445 302947.000000 0 0 1
27.945915 23.259491 12.570391 38.470674 0.694130 1.237931 -0.025683 0.007137 -350251.000000 0 0 1
27.049915 22.557491 13.384991 37.678857 0.695085 1.207627 0.004364 -0.001912 -317205.000000 0 0 1
23.708215 9.609091 26.254713 36.656841 0.385072 0.772412 0.011031 -0.009502 -376544.000000 0 0 1
23.402115 8.310791 26.876553 36.593405 0.341238 0.745919 0.022630 -0.020031 -703446.000000 0 0 1
22.039115 8.107891 26.913563 35.718347 0.352520 0.717436 0.030574 -0.023768 -1191900.000000 0 0 1
21.591715 6.801991 27.569763 35.672973 0.305186 0.687480 0.048338 -0.024061 -395741.000000 0 0 1
21.808615 6.779191 29.023763 36.931719 0.301380 0.666684 0.046682 -0.020620 -169602.000000 0 0 1
23.139315 6.479091 29.352393 37.933751 0.273012 0.686009 0.036208 -0.019105 -453097.000000 0 0 1
23.395015 6.497091 30.858583 39.265647 0.270886 0.666658 0.035765 -0.020470 -310412.000000 0 0 1
23.275315 7.780191 31.452783 39.894225 0.322591 0.662585 0.032181 -0.013808 251717.000000 0 0 1
23.350215 7.560691 32.818127 40.980800 0.313142 0.642138 0.024276 -0.005417 -39556.100000 0 0 1
23.427715 8.890291 33.648871 41.954041 0.362690 0.640091 0.035274 -0.009455 636127.000000 0 0 1
24.575215 9.703091 33.333752 42.535046 0.376044 0.670232 0.011414 -0.005118 466894.000000 0 0 1
24.911615 10.523691 -34.397500 43.755281 0.399701 2.475325 0.017757 0.000282 -440651.000000 0 0 1
26.055915 11.483091 34.134051 44.451158 0.415101 0.695240 0.010955 0.000806 -697673.000000 0 0 1
25.733615 12.790591 33.785954 44.354355 0.461275 0.704820 0.006420 0.005882 206161.000000 0 0 1
25.512415 13.663691 -33.929469 44.595837 0.491697 2.435374 0.004478 -0.003601 -997495.000000 0 0 1
25.136015 15.087391 -34.365084 45.170871 0.540589 2.435310 0.005008 0.000823 -506309.000000 0 0 1
26.083415 15.776091 33.670378 45.419422 0.543965 0.735760 0.000240 0.002941 197224.000000 0 0 1
25.760015 17.136491 33.583125 45.662500 0.587012 0.744445 0.007241 -0.003789 -156702.000000 0 0 1
26.406415 17.947591 -34.101322 46.715254 0.596949 2.389093 0.005142 -0.007790 -92356.400000 0 0 1
25.856315 17.747791 -32.782949 45.367994 0.601540 2.378354 0.005232 -0.013222 633079.000000 0 0 1
26.890015 17.355991 -31.872679 45.168252 0.573166 2.354127 -0.002938 -0.009007 145112.000000 0 0 1
26.274315 16.775191 -30.563879 43.656584 0.568222 2.346331 0.007854 -0.011965 251195.000000 0 0 1
25.425115 15.668291 -30.841829 42.931925 0.552284 2.372280 0.005679 -0.003145 -58787.200000 0 0 1
24.588815 15.396991 -29.758579 41.560199 0.559446 2.368903 0.016442 -0.009058 -67552.000000 0 0 1
23.752615 14.117291 -30.081639 40.845925 0.536252 2.398628 0.017088 -0.007667 60454.700000 0 0 1
22.827315 14.278491 -31.188049 41.202621 0.558959 2.429419 0.015865 -0.006370 623888.000000 0 0 1
22.411215 13.103091 -31.839449 41.081675 0.529069 2.457556 0.019671 0.003666 -494734.000000 0 0 1
21.648815 12.008291 -31.118539 39.764729 0.506434 2.469574 0.021448 0.002313 -897547.000000 0 0 1
20.327015 12.362391 -30.814039 38.929696 0.546409 2.484106 0.028416 -0.004015 -79726.700000 0 0 1
19.720415 11.402091 -29.995789 37.664968 0.524226 2.492089 0.024598 -0.004179 -14289.500000 0 0 1
18.463915 11.933891 -29.257719 36.597104 0.573795 2.497183 0.026539 0.000647 476901.000000 0 0 1
17.347515 12.160691 -30.138549 36.839528 0.611400 2.528902 0.009421 0.015312 407055.000000 0 0 1
16.327515 12.699691 -29.340719 35.899132 0.661063 2.527523 0.007738 0.010932 -128250.000000 0 0 1
15.168315 13.407391 -30.133069 36.302035 0.723853 2.550022 0.004932 0.013563 893253.000000 0 0 1
14.430915 12.564991 -31.076709 36.495098 0.716389 2.589695 -0.004137 0.024297 -560530.000000 0 0 1
13.234115 12.161991 -30.523819 35.422583 0.743207 2.609417 0.000615 0.023323 -922460.000000 0 0 1
12.272515 11.647191 -31.627859 35.869111 0.759261 2.650372 0.010909 0.022778 -176260.000000 0 0 1
11.768415 12.605391 -32.476079 36.770738 0.819724 2.653448 0.023416 0.021886 -112286.000000 0 0 1
10.794515 12.009991 -33.310089 37.017880 0.838648 2.690194 0.039187 0.024041 46212.400000 0 0 1
10.327015 12.858391 34.325981 38.082258 0.894147 0.447887 0.045625 0.016862 259904.000000 0 0 1
11.257515 12.996091 33.241267 37.424749 0.856959 0.477349 0.030492 0.021583 400637.000000 0 0 1
10.619015 13.506491 32.115873 36.422768 0.904517 0.491231 0.036916 0.010789 -653055.000000 0 0 1
11.364015 13.277391 30.849733 35.456113 0.862891 0.515427 0.026046 0.011035 -901879.000000 0 0 1
11.501115 11.925091 30.398703 34.620291 0.803495 0.499003 0.022824 0.009836 192040.000000 0 0 1
11.766015 11.864091 29.002643 33.471615 0.789549 0.522679 0.025903 0.012531 -57574.200000 0 0 1
12.368215 10.519191 28.478573 32.781934 0.704785 0.518169 0.019691 0.011631 312131.000000 0 0 1
11.432415 9.461391 28.707913 32.316594 0.691341 0.477093 0.021403 0.002224 290555.000000 0 0 1
12.022815 8.213691 28.589063 32.083443 0.599345 0.471067 0.021046 -0.010264 -138826.000000 0 0 1
11.049515 6.981091 28.793503 31.621088 0.563475 0.426113 0.017823 -0.012800 -22305.500000 0 0 1
9.991415 7.063691 27.880483 30.447420 0.615393 0.413568 0.012281 -0.011726 -440113.000000 0 0 1
9.065715 5.989291 27.900643 29.941687 0.583828 0.371366 0.012594 -0.020612 -147695.000000 0 0 1
9.508815 4.680191 27.243473 29.232320 0.457384 0.371003 0.025599 -0.021920 -437547.000000 0 0 1
10.463415 4.000291 28.008853 30.165895 0.365166 0.380460 0.024593 -0.019706 -61123.200000 0 0 1
10.617315 2.642391 27.620623 29.708726 0.243920 0.377160 0.039076 -0.016447 113598.000000 0 0 1
11.501215 1.875391 28.656303 30.935072 0.161638 0.386227 0.028409 -0.017421 327585.000000 0 0 1
10.766915 1.723391 29.854973 31.783894 0.158717 0.350179 0.029799 -0.013895 58786.600000 0 0 1
10.666915 0.362691 30.175233 32.007175 0.033988 0.339970 0.031357 -0.003258 512870.000000 0 0 1
9.576215 0.145691 31.290803 32.723683 0.015213 0.297021 0.048301 0.000416 396365.000000 0 0 1
9.753015 0.805491 32.523963 33.964367 0.082402 0.292276 0.021959 -0.002544 -366216.000000 0 0 1
8.521415 1.127591 33.102181 34.200005 0.131560 0.254060 0.039873 -0.003044 -412614.000000 0 0 1
8.638115 2.347391 34.079388 35.235379 0.265340 0.256861 0.038492 -0.007031 -201893.000000 0 0 1
8.852915 3.654091 33.522224 34.863533 0.391454 0.278289 0.024096 -0.008534 899396.000000 0 0 1
10.010315 3.845991 32.663703 34.378998 0.366814 0.317220 0.004862 -0.001572 528757.000000 0 0 1
9.935315 5.182391 31.911293 33.821565 0.480788 0.337700 0.006266 -0.001854 42903.800000 0 0 1
10.155215 6.301791 32.738913 34.852222 0.555391 0.350026 0.004196 0.002956 105244.000000 0 0 1
9.907115 7.546691 32.124083 34.453739 0.650975 0.369846 0.007651 0.004082 -318081.000000 0 0 1
10.059515 8.781491 33.065518 35.660018 0.717670 0.383813 0.030573 0.004829 109550.000000 0 0 1
8.882315 9.164891 33.753303 36.085679 0.801054 0.361505 0.038629 0.002372 27416.100000 0 0 1
8.417115 8.343191 -34.046029 36.049809 0.780988 2.806611 0.038243 0.000193 -253648.000000 0 0 1
6.994015 8.734391 -33.596459 35.410844 0.895602 2.820091 0.043357 0.001539 -100585.000000 0 0 1
6.517715 7.914691 -32.563059 34.139065 0.881892 2.836555 0.050145 0.006578 338932.000000 0 0 1
5.209315 8.387791 -32.232039 33.710478 1.015036 2.844334 0.054180 0.002902 446051.000000 0 0 1
4.540515 7.562091 -31.106009 32.332419 1.030060 2.865283 0.047260 -0.000222 -467937.000000 0 0 1
5.059915 7.794791 -29.824419 31.238718 0.995026 2.839534 0.051575 0.001107 22728.300000 0 0 1
4.559615 6.966291 -28.852559 30.029810 0.991246 2.860660 0.031655 0.002355 238447.000000 0 0 1
3.121215 7.289491 -28.337829 29.426369 1.166235 2.868747 0.033120 0.003765 263666.000000 0 0 1
2.072615 6.879791 -29.172899 30.044722 1.278183 2.900102 0.031761 0.005727 550158.000000 0 0 1
0.821015 7.506891 -28.839319 29.811639 1.461861 2.885490 0.028970 0.011941 761045.000000 0 0 1
-0.280385 7.067991 -29.855869 30.682373 -1.531147 2.908959 0.023285 0.008259 2374.140000 0 0 1
-0.049785 7.506891 -31.214319 32.104355 -1.564164 2.905575 0.041208 0.005448 266511.000000 0 0 1
-0.616185 6.572691 -32.087219 32.759267 -1.477320 2.938687 0.054379 -0.003888 -351918.000000 0 0 1
-0.325385 7.036291 -33.579499 34.310320 -1.524585 2.934825 0.062176 -0.014164 482565.000000 0 0 1
1.066915 7.241991 -33.812059 34.595377 1.424525 2.928387 0.043785 -0.011054 501894.000000 0 0 1
1.824515 6.214191 -34.391108 34.995619 1.285217 2.955454 0.049420 -0.009377 -188773.000000 0 0 1
1.748615 6.103591 32.885988 33.493278 1.291780 0.190718 0.052605 -0.018810 -540487.000000 0 0 1
0.570715 5.481091 32.463693 32.928094 1.467046 0.168148 0.058429 -0.016110 -440178.000000 0 0 1
0.261115 5.546991 31.080443 31.572634 1.523758 0.176804 0.073975 -0.020443 -80418.900000 0 0 1
1.206515 4.782591 30.125343 30.526466 1.323680 0.162290 0.090916 -0.022598 -233545.000000 0 0 1
0.892515 4.868591 28.729903 29.153165 1.389488 0.170610 0.070698 -0.015862 34381.700000 0 0 1
1.432215 3.778991 28.000913 28.291043 1.208529 0.143337 0.053952 -0.010344 -77825.600000 0 0 1
1.504915 3.962591 26.480003 26.817111 1.207841 0.158727 0.049543 -0.010839 462376.000000 0 0 1
2.442615 4.981091 26.089873 26.673190 1.114876 0.209520 0.051395 -0.007320 276766.000000 0 0 1
2.258415 5.412691 24.754543 25.439832 1.175513 0.232635 0.045163 -0.015091 -415221.000000 0 0 1
2.810515 6.831591 24.473193 25.563779 1.180501 0.293149 0.047750 -0.015399 -187188.000000 0 0 1
4.173515 7.050591 24.683793 26.008050 1.036326 0.320485 0.036288 -0.008470 -810171.000000 0 0 1
4.924115 6.949691 23.501173 24.997004 0.954364 0.347698 0.025600 -0.015875 843049.000000 0 1 0
6.484015 6.899591 23.829833 25.641913 0.816439 0.378199 0.039588 -0.011657 1287330.000000 0 0 1
6.926715 5.778791 24.615033 26.215904 0.695294 0.351274 0.038492 -0.019392 3174.360000 0 0 1
6.555515 4.416991 24.299293 25.552695 0.592913 0.314509 0.040816 -0.020239 -772877.000000 0 0 1
6.791715 3.906491 22.802473 24.111010 0.521973 0.330967 0.048501 -0.024514 -97975.100000 0 1 0
5.835315 4.198191 21.824973 22.978362 0.623658 0.318183 0.027534 -0.023957 -38902.600000 0 1 0
4.575615 3.541991 22.027173 22.774509 0.658749 0.256888 0.022871 -0.020461 1117490.000000 0 1 0
3.435615 3.955791 20.995873 21.639741 0.855658 0.244551 0.007512 -0.018827 690884.000000 0 1 0
3.037215 5.263091 21.281773 22.132299 1.047402 0.278129 0.007292 -0.019160 -534269.000000 0 1 0
1.830515 5.526391 20.629473 21.435179 1.250939 0.275049 0.012449 -0.013867 -168682.000000 0 1 0
1.427615 7.049991 20.712273 21.925754 1.370999 0.334255 0.025153 -0.007321 -172927.000000 0 1 0
2.247115 7.809891 19.881973 21.478751 1.290637 0.388026 0.021282 -0.018418 -380756.000000 0 1 0
2.321415 9.070491 20.481873 22.520432 1.320244 0.428766 0.045140 -0.009283 93747.200000 0 1 0
3.327015 10.012491 19.800973 22.436522 1.249988 0.489574 0.061321 -0.027283 -690445.000000 0 1 0
3.030315 10.216591 18.468973 21.322863 1.282455 0.523333 0.027814 -0.018422 37664.100000 0 1 0
3.761015 11.256291 17.789173 21.384667 1.248333 0.588335 0.020550 -0.024363 85583.400000 0 1 0
5.302015 11.128291 17.704073 21.572770 1.126170 0.608218 0.033578 -0.025515 -271535.000000 0 1 0
5.777315 9.963891 17.060973 20.584782 1.045343 0.593810 0.027912 -0.024229 178205.000000 0 1 0
7.072715 9.793991 17.646773 21.385839 0.945360 0.600308 0.025563 -0.000154 330149.000000 0 1 0
7.265715 8.376391 18.096673 21.223668 0.856285 0.549732 0.038549 -0.003949 -84936.400000 0 1 0
6.560515 8.041791 19.292073 21.906502 0.886494 0.493553 0.039301 -0.014502 -33916.800000 0 1 0
6.599115 6.668691 19.656973 21.781100 0.790642 0.445307 0.040823 -0.028887 -188939.000000 0 1 0
7.962415 6.075491 20.121173 22.476059 0.651783 0.461856 0.060401 -0.021338 435032.000000 0 1 0
8.884015 5.998691 19.045273 21.854803 0.593903 0.512654 0.053991 -0.016737 -77308.000000 0 1 0
10.115415 5.327691 19.296573 22.429080 0.484771 0.534865 0.064046 -0.018019 536174.000000 0 1 0
10.185615 3.775591 19.225973 22.082569 0.354977 0.514294 0.066201 -0.019216 125707.000000 0 1 0
9.469115 3.150991 20.320673 22.638962 0.321239 0.456508 0.075826 -0.018360 227287.000000 0 1 0
9.658615 1.771391 20.286173 22.537867 0.181384 0.450814 0.066265 -0.025278 -38328.200000 0 1 0
8.873615 1.002691 21.349973 23.142337 0.112520 0.396158 0.070377 -0.023340 -131612.000000 0 1 0
9.302715 1.213991 22.678973 24.542821 0.129765 0.392234 0.073869 -0.021355 158071.000000 0 1 0
8.545515 0.392691 23.559573 25.064586 0.045921 0.348299 0.065704 -0.025643 -446349.000000 0 0 1
9.067915 0.423891 25.020483 26.616373 0.046712 0.348046 0.062623 -0.023950 12055.900000 0 0 1
10.367715 -0.047009 25.347943 27.386309 -0.004534 0.388258 0.060293 -0.021753 394328.000000 0 0 1
10.527715 -1.395009 25.081853 27.237440 -0.131741 0.400517 0.049914 -0.021372 -993485.000000 0 0 1
11.956015 -1.920909 25.157103 27.919814 -0.159303 0.448616 0.038432 -0.013786 -537231.000000 0 0 1
11.960515 -3.315709 24.967563 27.882378 -0.270430 0.461332 0.042914 -0.004308 1192060.000000 0 0 1
13.236315 -3.883409 25.359923 28.868782 -0.285382 0.498177 0.035062 0.001477 894379.000000 0 0 1
13.006915 -5.382909 25.474693 29.105249 -0.392389 0.504821 0.033823 -0.001469 -10896.100000 0 0 1
12.697215 -6.124909 24.314803 28.105932 -0.449454 0.525421 0.037784 -0.003512 314746.000000 0 0 1
12.520315 -7.515109 24.599523 28.607196 -0.540591 0.535709 0.034540 -0.009276 -31978.600000 0 0 1
12.280115 -8.319509 23.330273 27.646285 -0.595450 0.566314 0.039094 -0.010847 117458.000000 0 0 1
11.937315 -9.694009 23.557073 28.131992 -0.682061 0.578330 0.041209 -0.004517 -200772.000000 0 0 1
12.151015 -10.411809 22.353373 27.490475 -0.708468 0.621284 0.042252 -0.009628 -109075.000000 0 0 1
11.595915 -11.848209 22.284673 27.775024 -0.796159 0.639611 0.054306 -0.002838 190723.000000 0 0 1
10.189915 -11.747109 22.432373 27.295426 -0.856264 0.606170 0.044002 0.000054 46111.700000 0 0 1
9.501815 -13.034309 22.328773 27.545450 -0.940881 0.625594 0.030243 -0.000954 584405.000000 0 0 1
8.001815 -12.804509 22.649273 27.220839 -1.012253 0.587992 0.013132 0.002770 -30218.200000 0 0 1
7.353015 -12.015209 21.699973 25.871237 -1.021618 0.575779 0.005172 -0.000821 -733870.000000 0 0 1
5.997615 -11.907009 22.041173 25.759688 -1.104189 0.543999 0.001760 -0.001760 -26150.300000 0 0 1
5.221315 -10.734109 21.410573 24.513177 -1.118069 0.508592 -0.004162 -0.001969 177160.000000 0 1 0
5.407315 -9.525809 22.137573 24.699235 -1.054504 0.459474 0.001111 -0.000567 -248649.000000 0 1 0
4.830715 -8.417909 21.464973 23.557208 -1.049818 0.424645 -0.001138 0.006413 112665.000000 0 1 0
5.247615 -7.093709 22.045073 23.745387 -0.933884 0.380729 0.006405 0.006815 159248.000000 0 1 0
4.589815 -6.079709 21.304473 22.625424 -0.924141 0.343397 -0.001593 -0.002953 -29058.000000 0 1 0
4.992815 -4.811809 21.811273 22.886968 -0.766939 0.307809 0.020642 -0.012781 628.891000 0 1 0
-7.645685 -15.304309 -21.014009 27.097361 1.107487 2.458303 0.006786 0.006957 23961.000000 0 0 1
-7.402385 -14.638609 -19.794609 25.708184 1.102619 2.449595 0.001343 0.006084 -417407.000000 0 0 1
-6.632785 -13.493109 -19.987209 25.010925 1.113917 2.496658 -0.004450 -0.009928 -349845.000000 0 0 1
-6.050585 -13.111509 -18.651609 23.588213 1.138444 2.482776 -0.014216 -0.003684 -59343.700000 0 1 0
-5.056785 -14.007009 -18.215409 23.528037 1.224340 2.456247 -0.004013 0.005882 -28986.400000 0 1 0
-4.241285 -13.563009 -17.163409 22.282871 1.267720 2.450031 0.007065 0.002629 303268.000000 0 1 0
-3.311585 -14.604609 -16.502409 22.284316 1.347817 2.404669 0.019595 0.009000 -179712.000000 0 1 0
-2.378285 -15.185609 -17.345909 23.176271 1.415444 2.416494 0.019078 0.016148 -539951.000000 0 1 0
-1.429485 -15.901309 -16.550209 22.995750 1.481140 2.374177 0.029812 0.015574 -505447.000000 0 1 0
-0.091685 -15.937009 -17.276809 23.504996 1.565043 2.396503 0.032962 0.010766 -562172.000000 0 1 0
-0.001485 -16.818409 -18.400209 24.928430 1.570708 2.401078 0.051345 -0.001138 -325674.000000 0 1 0
-0.235685 -18.224109 -18.126409 25.704872 1.557864 2.353465 0.044310 0.001443 -273464.000000 0 0 1
-0.587985 -18.930309 -19.416309 27.123706 1.539746 2.368627 0.044794 -0.001136 378372.000000 0 0 1
-1.934685 -18.746709 -19.825409 27.353774 1.467959 2.381508 0.058450 -0.002356 -160824.000000 0 0 1
-2.219185 -19.050909 -21.162509 28.560703 1.454832 2.405304 0.046580 -0.010444 666089.000000 0 0 1
-3.538685 -18.389409 -21.687409 28.653733 1.380690 2.429321 0.039275 -0.010926 712588.000000 0 0 1
-3.384185 -16.998009 -21.956309 27.972568 1.374273 2.473368 0.034013 -0.006668 -240113.000000 0 0 1
-3.839985 -16.111509 -20.927909 26.689017 1.336823 2.472104 0.007521 0.000999 -279246.000000 0 0 1
-2.894885 -14.956709 -20.631009 25.646093 1.379609 2.505546 0.023024 0.007880 -334536.000000 0 0 1
-2.961985 -13.891509 -21.552209 25.811724 1.360720 2.558888 0.013739 -0.000171 264048.000000 0 0 1
-2.037585 -12.849009 -21.234909 24.903216 1.413527 2.591924 0.017127 0.004572 248065.000000 0 1 0
-1.827385 -11.821609 -22.316309 25.320100 1.417430 2.649545 0.027233 0.003406 -611748.000000 0 0 1
-2.938285 -11.032009 -22.489409 25.221266 1.310497 2.671849 0.020586 -0.004357 -576310.000000 0 0 1
-2.847485 -10.315709 -23.680309 25.986132 1.301469 2.717147 0.020354 0.000720 -202641.000000 0 0 1
-3.727385 -9.048109 -23.738109 25.676049 1.180029 2.750580 0.017895 -0.004943 -1219950.000000 0 0 1
-5.043285 -9.451009 -23.884409 26.176732 1.080613 2.719977 0.022586 -0.008863 -524196.000000 0 0 1
-5.818185 -8.223809 -23.851609 25.891728 0.955067 2.741965 0.021448 -0.012691 -343523.000000 0 0 1
-7.335385 -8.416609 -23.606209 26.113221 0.853931 2.699818 -0.004821 -0.018001 334342.000000 0 0 1
-8.128885 -8.869909 -24.687409 27.463107 0.828963 2.688117 -0.000954 -0.010853 47110.400000 0 0 1
-8.323185 -7.958509 -25.781119 28.236136 0.763004 2.721507 -0.000565 -0.015738 -451845.000000 0 0 1
-9.362285 -8.431509 -26.812939 29.625605 0.733137 2.702316 -0.000291 -0.016717 33804.200000 0 0 1
-9.961085 -7.323009 -27.440909 30.097395 0.633937 2.718289 0.008404 -0.021601 -126208.000000 0 0 1
-10.580585 -7.659709 -28.655699 31.492365 0.626613 2.713900 0.020234 -0.024668 -162211.000000 0 0 1
-11.339185 -6.505609 -29.348159 32.128096 0.520878 2.722536 0.033326 -0.028733 76251.700000 0 0 1
-10.557085 -5.615909 -30.135579 32.421345 0.488885 2.763846 0.011388 -0.018899 -286522.000000 0 0 1
-11.345785 -5.055209 -31.124069 33.511038 0.419154 2.761879 0.041850 -0.020305 -454463.000000 0 0 1
-10.616285 -3.960509 -31.977749 33.925913 0.357069 2.801057 0.027858 -0.017124 911680.000000 0 0 1
-9.601585 -4.569109 -32.827929 34.507103 0.444158 2.828347 0.020141 -0.018776 612406.000000 0 0 1
-9.005185 -3.610109 -33.674719 35.044443 0.381275 2.861084 0.021765 -0.016440 -398116.000000 0 0 1
-7.958985 -4.113509 34.169406 35.324420 0.477027 0.256426 0.016742 -0.013807 -34552.000000 0 0 1
-6.766685 -4.436209 -33.973609 34.923833 0.580299 2.907786 0.008717 -0.012685 472223.000000 0 0 1
-5.720685 -4.862809 33.952457 34.772726 0.704517 0.217636 0.001372 -0.013605 -208685.000000 0 0 1
-4.395885 -4.210509 34.185854 34.723548 0.763862 0.176211 0.012980 -0.014165 -982659.000000 0 0 1
-4.393185 -2.833909 33.902837 34.303549 0.572901 0.152998 0.029350 -0.021136 -433057.000000 0 0 1
-3.079285 -2.372309 34.025321 34.246639 0.656436 0.113749 0.030448 -0.021992 -260998.000000 0 0 1
-2.947785 -0.940809 -34.261393 34.400838 0.308939 3.051523 0.042031 -0.026623 -172517.000000 0 0 1
-3.184585 -0.902409 -32.889439 33.055577 0.276129 3.041291 0.030224 -0.023141 298236.000000 0 0 1
-3.415885 0.396691 -32.387519 32.569572 -0.115613 3.035811 0.030600 -0.023760 -891360.000000 0 0 1
-3.683185 0.286891 -30.836249 31.056761 -0.077735 3.022356 0.062571 -0.025765 489142.000000 0 0 1
-4.870085 -0.388009 -30.438359 30.827942 0.079504 2.982445 0.045278 -0.028819 672763.000000 0 0 1
-6.101685 0.275991 -30.727249 31.328431 -0.045201 2.945372 0.046076 -0.029639 -380697.000000 0 0 1
-7.321785 -0.627309 -30.723849 31.590457 0.085468 2.906821 0.043930 -0.034722 -410077.000000 0 0 1
-7.589385 -1.163209 -29.462219 30.446251 0.152084 2.886658 0.021074 -0.025356 202920.000000 0 0 1
-8.720785 -2.028009 -29.514819 30.842981 0.228488 2.847060 0.023393 -0.015658 316249.000000 0 0 1
-9.077785 -2.699309 -28.147409 29.697965 0.289027 2.817027 0.023434 -0.009321 -110280.000000 0 0 1
-9.707885 -1.865309 -27.216119 28.955821 0.189830 2.793189 0.026431 -0.010240 8627.070000 0 0 1
-9.880585 -2.467109 -25.974579 27.899666 0.244689 2.767938 0.015489 -0.010769 -239886.000000 0 0 1
-10.931185 -1.777909 -25.109089 27.442998 0.161234 2.726191 0.020238 -0.006615 55057.600000 0 0 1
-10.478385 -0.479209 -24.670009 26.807379 0.045701 2.739565 0.021701 -0.007296 715684.000000 0 0 1
-11.532185 0.231591 -23.998709 26.626734 -0.020079 2.693560 0.027167 -0.011207 687940.000000 0 0 1
-10.979685 1.517691 -23.298709 25.800906 -0.137357 2.697542 0.028050 -0.010713 178792.000000 0 0 1
-10.664285 2.510891 -24.224409 26.586718 -0.231237 2.716855 0.019902 -0.013955 -197281.000000 0 0 1
-9.921685 3.481091 -23.575309 25.813815 -0.337438 2.722068 0.024029 -0.010152 -797847.000000 0 0 1
-9.720685 4.751391 -24.443309 26.730933 -0.454641 2.724870 0.033054 -0.016454 333176.000000 0 0 1
-10.921385 5.512691 -24.619109 27.491216 -0.467449 2.680409 0.037215 -0.016281 341773.000000 0 0 1
-11.756885 4.948391 -25.587089 28.590384 -0.398387 2.679125 0.031149 -0.019086 -395233.000000 0 0 1
-13.104185 5.681991 -25.828419 29.514605 -0.409133 2.636452 0.025743 -0.009180 273705.000000 0 0 1
-13.055985 6.905891 -26.461609 30.304568 -0.486534 2.632503 0.032130 -0.013455 -94811.200000 0 0 1
-14.390885 7.298691 -26.660269 31.163094 -0.469371 2.597327 0.035552 -0.013122 -276608.000000 0 0 1
-14.607385 8.767491 -27.038439 31.958126 -0.540573 2.579344 0.051252 -0.009399 -274367.000000 0 0 1
-14.391785 9.551391 -25.919729 31.147791 -0.585925 2.553775 0.078601 -0.015389 335032.000000 0 0 1
-15.036085 10.826191 -26.016629 31.939869 -0.624032 2.522750 0.063338 -0.016021 -65124.400000 0 0 1
-14.623885 11.744691 -24.829809 31.117763 -0.676639 2.494650 0.063614 -0.013686 -151227.000000 0 0 1
-15.277585 11.515291 -23.603109 30.382780 -0.645889 2.460457 0.080083 -0.008275 230409.000000 0 0 1
-14.732485 12.339191 -22.578309 29.649314 -0.697222 2.436439 0.067441 -0.008126 382712.000000 0 0 1
-15.569985 12.086491 -21.282909 29.008101 -0.660102 2.394531 0.072684 -0.009854 749296.000000 0 0 1
-16.843185 12.723391 -21.261009 29.960108 -0.646950 2.359789 0.062884 -0.008766 308639.000000 0 0 1
-17.107785 13.085191 -19.926809 29.342397 -0.652949 2.317350 0.060504 -0.003257 852865.000000 0 0 1
-18.569585 13.668891 -19.807009 30.397133 -0.634539 2.280498 0.058583 -0.011226 816065.000000 0 0 1
-18.905585 14.831391 -20.554209 31.620671 -0.665217 2.278413 0.050577 -0.011897 1074270.000000 0 0 1
-20.339685 14.955491 -20.655509 32.619313 -0.634018 2.256515 0.035422 -0.014189 979510.000000 0 0 1
-20.795985 16.244691 -21.371509 33.957391 -0.663138 2.251529 0.033355 -0.012348 -163680.000000 0 0 1
-20.671585 16.254791 -22.788109 34.796991 -0.666353 2.284830 0.030350 -0.009460 99457.200000 0 0 1
-21.075585 17.533391 -23.292609 35.974237 -0.693909 2.275070 0.016531 -0.002909 15660.600000 0 0 1
-21.071785 17.762691 -24.842909 37.103955 -0.700393 2.304398 0.014614 0.000840 -520180.000000 0 0 1
-19.821485 17.908191 -25.423759 36.877664 -0.734731 2.331468 0.006985 -0.004827 -596827.000000 0 0 1
-19.816985 17.334291 -26.732109 37.520610 -0.718671 2.363801 0.006236 -0.017450 -408703.000000 0 0 1
-18.715085 17.840591 -27.685959 37.882099 -0.761480 2.390356 -0.002857 -0.006277 -65713.000000 0 0 1
-18.982585 19.151591 -28.110429 38.952769 -0.789830 2.376985 -0.017391 -0.014550 392382.000000 0 0 1
-18.373885 20.155091 -27.310949 38.596830 -0.831596 2.356886 -0.020769 -0.023038 -1216280.000000 0 0 1
-18.993285 21.543091 -27.473719 39.744872 -0.848217 2.334016 0.020109 -0.014468 240365.000000 0 0 1
-20.127785 21.869591 -26.692669 39.948784 -0.826849 2.302546 0.032380 -0.011827 -439000.000000 0 0 1
-21.330685 21.275291 -27.048039 40.487437 -0.784098 2.302395 0.050021 -0.017942 -685161.000000 0 0 1
-22.401585 21.667491 -25.944119 40.551307 -0.768742 2.265015 0.043725 -0.004888 292596.000000 0 0 1
-22.198185 21.060691 -24.649509 39.292625 -0.759109 2.248918 0.029329 -0.004212 253509.000000 0 0 1
-23.144685 21.470991 -23.657209 39.450519 -0.747902 2.213882 0.027764 -0.011525 211630.000000 0 0 1
-22.759285 20.995091 -22.246909 38.127469 -0.745100 2.193813 0.027576 -0.000856 -33025.800000 0 0 1
-21.621285 21.662491 -21.742009 37.542755 -0.786350 2.188453 0.025669 0.001794 -279247.000000 0 0 1
-20.592185 20.942591 -21.152009 36.194443 -0.793834 2.194936 0.014027 -0.000814 -639678.000000 0 0 1
-20.836585 20.133191 -19.890909 35.144799 -0.768231 2.172406 0.026345 -0.011230 -598511.000000 0 0 1
-21.752985 19.026791 -20.090409 35.197097 -0.718646 2.178273 0.043743 -0.014018 726972.000000 0 0 1
-22.366085 18.529791 -18.908109 34.657056 -0.691865 2.147874 0.038526 -0.011913 142158.000000 0 0 1
-23.441185 19.449491 -18.257809 35.512244 -0.692599 2.110786 0.028857 -0.004008 -865685.000000 0 0 1
-24.593985 19.545391 -19.062109 36.745754 -0.671515 2.116192 0.020365 -0.001652 -276882.000000 0 0 1
-25.395865 20.539191 -18.443409 37.509568 -0.680060 2.084836 0.021235 -0.005798 -1057530.000000 0 0 1
-26.817675 20.560191 -19.076209 38.804779 -0.654082 2.084716 0.007497 0.003079 77860.100000 0 0 1
-27.563745 19.400091 -18.790809 38.590388 -0.613289 2.079368 -0.003097 0.001631 109520.000000 0 0 1
-28.084365 19.370691 -17.473609 38.331218 -0.603802 2.044133 -0.006450 0.002128 -721730.000000 0 0 1
-29.058305 18.159791 -17.281909 38.377435 -0.558558 2.037914 -0.011646 0.001845 41411.900000 0 0 1
-28.377665 16.941391 -17.087509 37.205988 -0.538209 2.047967 -0.001286 -0.004144 385507.000000 0 0 1
-29.263185 15.947891 -16.555409 37.212240 -0.498982 2.031849 -0.000604 0.002010 337008.000000 0 0 1
-28.546305 14.784391 -15.823009 35.830676 -0.477872 2.028183 0.017040 -0.003149 -384533.000000 0 0 1
-28.135725 15.059891 -14.475809 35.042380 -0.491455 1.996646 0.022833 -0.002177 62932.700000 0 0 1
-29.118635 15.287391 -13.487509 35.545916 -0.483450 1.959986 0.000421 0.006134 20579.200000 0 0 1
-28.458915 15.892891 -12.212909 34.808749 -0.509308 1.929283 0.008947 -0.001272 12824.400000 0 0 1
-28.017435 17.209891 -12.154909 35.055653 -0.550836 1.924881 0.005916 0.002528 -59635.500000 0 0 1
-28.999935 18.231291 -12.184809 36.357197 -0.561232 1.912552 -0.015928 0.010413 -101189.000000 0 0 1
-28.348035 19.651591 -12.420009 36.661325 -0.606165 1.916413 0.022072 -0.001401 304984.000000 0 0 1
-27.661035 20.183991 -11.300809 36.058766 -0.630376 1.889567 -0.014528 -0.008967 -37329.800000 0 0 1
-26.695345 21.121791 -11.709709 35.998455 -0.669362 1.902108 -0.011927 -0.009013 200967.000000 0 0 1
-25.927865 21.764691 -10.527509 35.451155 -0.698327 1.872302 0.000975 -0.001747 189089.000000 0 0 1
-26.709025 22.788491 -9.928109 36.486363 -0.706356 1.846376 -0.011911 -0.005612 84708.500000 0 0 1
-26.096055 24.076691 -9.905909 36.862151 -0.745172 1.842869 0.001207 -0.005291 -20903.600000 0 0 1
-26.748305 25.051491 -8.904909 37.714008 -0.752653 1.809164 0.013620 0.006898 -385418.000000 0 0 1
-26.276145 24.944891 -7.628409 37.025343 -0.759414 1.778315 0.014660 0.002808 -449132.000000 0 0 1
-27.077935 25.431291 -6.591609 37.728165 -0.754049 1.746411 0.022264 -0.006899 -270398.000000 0 0 1
-27.033405 24.592991 -5.268209 36.923898 -0.738163 1.713962 0.034714 -0.006816 -169404.000000 0 0 1
-27.372045 23.247391 -5.479909 36.327668 -0.704094 1.722221 0.031286 -0.002014 -204473.000000 0 0 1
-27.111595 22.445191 -4.319409 35.460999 -0.691512 1.692907 0.031342 -0.005689 -53031.100000 0 0 1
-27.210655 20.905491 -4.578809 34.618272 -0.655100 1.703451 0.021883 0.001889 297574.000000 0 0 1
-26.247265 20.155091 -5.337009 33.520595 -0.654855 1.730693 0.022493 -0.009971 94162.600000 0 0 1
-26.210895 20.507691 -6.736509 33.955220 -0.663923 1.770515 0.013560 -0.001551 -272391.000000 0 0 1
-27.153875 19.664391 -7.681309 34.395112 -0.626773 1.796021 0.010005 -0.002952 322736.000000 0 0 1
-26.702205 18.312391 -7.767109 33.296838 -0.601133 1.806234 0.009853 0.000105 254637.000000 0 0 1
-27.307005 17.683691 -8.866609 33.719463 -0.574678 1.836877 0.001972 0.001762 -52886.100000 0 0 1
-26.887845 16.218691 -9.164109 32.710595 -0.542768 1.854754 0.020746 -0.005476 249192.000000 0 0 1
-27.548805 15.323291 -8.244209 32.583844 -0.507609 1.826592 0.013372 -0.001199 438394.000000 0 0 1
-27.177835 13.983191 -8.582509 31.746241 -0.475186 1.844550 0.022016 -0.010431 251104.000000 0 0 1
-27.792605 13.019891 -7.548309 31.605750 -0.438104 1.811954 0.025725 -0.004496 1052730.000000 0 0 1
-29.233155 13.034891 -7.418009 32.855937 -0.419434 1.798534 0.031427 -0.000718 964232.000000 0 0 1
-29.643945 11.938691 -6.553109 32.622677 -0.382863 1.773048 0.049038 -0.012531 41335.200000 0 0 1
-30.293195 10.751291 -7.317409 32.966838 -0.341040 1.794623 0.032649 -0.005664 -294829.000000 0 0 1
-29.426255 10.090491 -8.206209 32.172416 -0.330343 1.828716 0.049253 -0.003165 98834.200000 0 0 1
-30.116895 8.982291 -8.756009 32.624785 -0.289848 1.842513 0.045080 0.009069 -175621.000000 0 0 1
-29.204665 7.811491 -9.117109 31.576155 -0.261356 1.863701 0.069334 0.001652 -649188.000000 0 0 1
-28.636675 8.049191 -10.338409 31.491766 -0.274010 1.905288 0.057048 -0.012009 -222506.000000 0 0 1
-27.826525 6.913691 -10.596409 30.567933 -0.243526 1.924795 0.075523 -0.021941 173871.000000 0 0 1
-27.004615 6.971391 -11.966809 30.348872 -0.252640 1.976111 0.064286 -0.024393 123400.000000 0 0 1
-25.941445 7.896091 -11.959509 29.636746 -0.295471 1.986175 0.078429 -0.026569 -21600.800000 0 0 1
-25.300225 7.799691 -13.170309 29.570147 -0.299041 2.032408 0.071161 -0.020684 -439913.000000 0 0 1
-31.467685 26.202391 -34.103455 53.290019 -0.694350 2.265242 0.001124 -0.004462 109337.000000 0 0 1
-31.742575 27.613791 -34.116011 54.166546 -0.715951 2.252138 -0.005535 -0.013903 189815.000000 0 0 1
-31.565505 28.065291 33.404526 53.850757 -0.726767 0.901650 0.000581 -0.019679 -6924.430000 0 0 1
-31.771175 29.591991 33.161860 54.633345 -0.749900 0.918530 0.004075 -0.014620 74373.800000 0 0 1
-31.753055 29.934491 31.785243 53.987331 -0.755926 0.941280 0.017711 -0.013720 97917.100000 0 0 1
-32.237925 31.226891 31.536573 54.853969 -0.769469 0.958292 0.026734 -0.016813 -171514.000000 0 0 1
-31.985035 31.690691 30.110143 54.166069 -0.780776 0.981368 0.034648 -0.018923 -725563.000000 0 0 1
-30.628945 31.690891 29.817213 53.211944 -0.802437 0.975990 0.022605 -0.013894 -665566.000000 0 0 1
-30.472975 32.311791 28.558553 52.803835 -0.814677 0.999358 0.017450 -0.007843 -199438.000000 0 0 1
-29.026495 32.103891 28.104523 51.604858 -0.835697 0.994872 0.029322 -0.014439 -652971.000000 0 0 1
-28.937445 30.931391 27.375803 50.433731 -0.818691 0.997020 0.037868 -0.018967 -747214.000000 0 0 1
-27.745375 30.788291 26.719213 49.311672 -0.837337 0.998167 0.020244 -0.008904 -1222280.000000 0 0 1
-27.550995 31.480691 25.310823 48.895081 -0.851869 1.026688 0.018332 -0.008389 -374363.000000 0 0 1
-27.722935 32.896591 25.411813 49.965058 -0.870538 1.037248 0.014704 -0.011619 462747.000000 0 0 1
-28.771285 33.467191 24.625553 50.539663 -0.860706 1.061856 0.013621 -0.013628 143708.000000 0 0 1
-29.086015 -33.892048 24.908403 51.138007 0.861563 1.062051 0.020910 -0.010515 -710330.000000 0 0 1
-29.753175 -33.781048 26.106593 52.038109 0.848710 1.045254 0.022920 -0.018964 -60513.900000 0 0 1
-29.554065 -32.544448 26.783873 51.477759 0.833516 1.023594 0.011671 -0.020077 -300701.000000 0 0 1
-30.129115 -32.612148 28.195113 52.595439 0.824953 1.005015 0.019124 -0.020179 -474697.000000 0 0 1
-31.493085 -32.881248 28.346603 53.633206 0.806959 1.013932 0.015910 -0.025045 -402692.000000 0 0 1
-31.745535 -32.939148 29.706123 54.545579 0.803849 0.994871 0.012107 -0.021764 -2250.620000 0 0 1
-33.163225 -33.354948 30.161073 55.875239 0.788280 1.000605 0.016225 -0.023271 96080.400000 0 0 1
-33.330335 -33.705648 31.543733 56.938467 0.790997 0.983639 0.007098 -0.024922 -783360.000000 0 0 1
-34.680807 -33.911848 31.774033 57.985869 0.774188 0.990871 0.006669 -0.024185 -851575.000000 0 0 1
-34.988816 -34.305848 33.246115 59.214970 0.775542 0.974662 0.010915 -0.019065 -325160.000000 0 0 1
-34.705670 33.182191 33.594890 58.601689 -0.762961 0.960299 -0.006107 -0.013400 -173867.000000 0 0 1
-35.230493 32.998191 -33.992009 59.038334 -0.752692 2.184332 0.000545 -0.008756 -52645.400000 0 0 1
-35.170786 31.509391 -33.452599 57.869701 -0.730543 2.187155 -0.014657 -0.010059 -7120.780000 0 0 1
-33.992895 31.329791 -32.722289 56.637628 -0.744652 2.186764 -0.018592 -0.011851 -717423.000000 0 0 1
-33.703435 29.973391 -32.480579 55.581595 -0.726887 2.194908 -0.012190 -0.008928 881506.000000 0 0 1
-32.476725 29.828391 -31.491849 54.186780 -0.742918 2.190965 -0.015902 -0.001622 733041.000000 0 0 1
-32.793665 30.090591 -30.110139 53.735357 -0.742440 2.165594 -0.000592 -0.007000 -312167.000000 0 0 1
-33.056245 31.436691 -29.722829 54.446556 -0.760291 2.148269 -0.018568 -0.005298 -577845.000000 0 0 1
-34.169600 31.652391 -28.729659 54.725028 -0.747174 2.123490 -0.010377 -0.004853 -391635.000000 0 0 1
-33.869515 31.263191 -27.452519 53.648597 -0.745404 2.107970 -0.032722 -0.014187 -1198060.000000 0 0 1
-34.929790 31.608391 -26.659609 54.128693 -0.735522 2.085782 0.010049 -0.012000 -834168.000000 0 0 1
-34.828422 31.190891 -25.165209 53.095936 -0.730356 2.064576 0.007493 -0.012460 -58330.100000 0 0 1
-34.240873 32.247591 -24.423109 52.998422 -0.755428 2.049723 0.020427 -0.022473 -132400.000000 0 0 1
-33.911025 32.022291 -23.043709 52.023045 -0.756760 2.029685 0.016716 -0.023381 -729402.000000 0 0 1
-35.027035 31.782191 -22.048309 52.183606 -0.736867 2.007014 0.027398 -0.019731 -116018.000000 0 0 1
35.331166 32.870891 -21.952009 53.015823 0.749340 1.997712 0.036824 -0.027179 519093.000000 0 0 1
-35.649967 33.988091 -21.115909 53.590970 -0.761538 1.975798 0.047083 -0.029348 -116696.000000 0 0 1
-35.530853 33.714691 -19.582709 52.750397 -0.759176 1.951133 0.045916 -0.024044 -199345.000000 0 0 1
-34.413908 32.935591 -19.286809 51.391159 -0.763452 1.955511 0.038611 -0.025067 -428904.000000 0 0 1
-34.261313 32.751891 -17.916709 50.670824 -0.762878 1.932203 0.037036 -0.011655 1207480.000000 0 0 1
-33.066035 31.758391 -17.482709 49.067333 -0.765229 1.935102 0.034349 -0.003774 1249330.000000 0 0 1
-32.972085 31.429291 -16.101409 48.313705 -0.761447 1.910564 0.025096 -0.000274 1049770.000000 0 0 1
-31.672525 30.859391 -15.747209 46.940659 -0.772395 1.912901 0.017335 0.003168 1216500.000000 0 0 1
-31.408165 30.635091 -14.260709 46.134038 -0.772939 1.885058 0.010617 0.000566 -494989.000000 0 0 1
-32.188105 29.679891 -13.581309 45.841269 -0.744879 1.871579 0.010210 0.000718 -18461.100000 0 0 1
-31.907635 29.636491 -12.204909 45.225862 -0.748512 1.844050 0.007915 0.009492 -866229.000000 0 0 1
-32.840745 28.762091 -11.447709 45.131169 -0.719286 1.827252 0.007790 0.006529 -676031.000000 0 0 1
-32.478845 28.450691 -10.059309 44.334037 -0.719383 1.799688 0.005105 0.007406 -441292.000000 0 0 1
-33.181305 27.369291 -9.632109 44.077824 -0.689705 1.791099 0.007281 0.004947 -706219.000000 0 0 1
-32.497425 26.453591 -8.544009 42.765350 -0.683232 1.771938 0.007175 0.002958 230176.000000 0 0 1
-32.035725 27.012491 -7.340709 42.542312 -0.700532 1.744215 0.008110 -0.007318 31298.800000 0 0 1
-30.908425 27.838391 -7.470209 42.262404 -0.733187 1.748488 0.018873 -0.010164 -862266.000000 0 0 1
-30.394945 28.431291 -6.175009 42.075191 -0.752030 1.718090 0.026077 -0.009905 -421814.000000 0 0 1
-29.750895 27.536491 -5.270109 40.879679 -0.746763 1.700074 0.035562 -0.012161 310802.000000 0 0 1
-30.049605 27.844991 -3.949709 41.157289 -0.747337 1.666910 0.032949 -0.021353 65757.600000 0 0 1
-29.291335 26.912091 -2.927309 39.884986 -0.743091 1.644256 0.036994 -0.012897 428827.000000 0 0 1
-29.894455 25.609491 -2.949909 39.474377 -0.708350 1.645596 0.027282 -0.019769 333665.000000 0 0 1
-29.278675 24.813291 -1.967809 38.429318 -0.703033 1.622025 0.004587 -0.014971 127113.000000 0 0 1
-30.063165 23.518991 -1.673509 38.206511 -0.663867 1.614612 0.005786 -0.018229 -182536.000000 0 0 1
-30.018985 22.475891 -2.655209 37.594617 -0.642683 1.641483 -0.003067 -0.001838 46492.700000 0 0 1
-31.120575 21.632891 -2.404509 37.977017 -0.607451 1.634154 0.003197 -0.001910 -117655.000000 0 0 1
-31.433685 20.739491 -3.586209 37.829406 -0.583224 1.665738 0.011947 0.005042 661504.000000 0 0 1
-30.352745 19.833191 -3.937009 36.471148 -0.578778 1.678956 0.007210 0.001723 1123750.000000 0 0 1
-30.860425 18.956691 -4.935409 36.552431 -0.550847 1.706233 0.012596 0.003904 82055.500000 0 0 1
-29.830675 17.868291 -5.237809 35.165034 -0.539677 1.720302 0.011633 0.005517 -73737.300000 0 0 1
-29.753825 16.811591 -4.307209 34.445199 -0.514304 1.696170 0.030293 -0.004688 -195187.000000 0 0 1
-29.016335 15.799391 -4.893709 33.399354 -0.498611 1.717847 0.030171 -0.003231 -306163.000000 0 0 1
-28.682725 14.561991 -4.020509 32.417816 -0.469782 1.695138 0.045140 -0.010994 696935.000000 0 0 1
-29.875325 13.921791 -3.533209 33.148678 -0.436077 1.677586 0.052339 -0.012817 905185.000000 0 0 1
-29.526765 12.677391 -2.883309 32.262355 -0.405551 1.660286 0.054272 -0.017821 65828.800000 0 0 1
-30.702535 11.966891 -2.168809 33.023565 -0.371655 1.636518 0.074688 -0.021768 594117.000000 0 0 1
-31.609495 11.288091 -3.102009 33.707620 -0.342995 1.662954 0.081165 -0.006389 768221.000000 0 0 1
-32.531965 10.440991 -2.448209 34.254004 -0.310560 1.642330 0.067958 0.004679 -233829.000000 0 0 1
-33.501205 9.934091 -3.543009 35.122213 -0.288270 1.671845 0.044562 0.001655 -176880.000000 0 0 1
-32.906605 9.122791 -4.559909 34.450874 -0.270441 1.703546 0.036539 -0.006171 -59929.400000 0 0 1
-33.878285 8.727191 -5.458809 35.407636 -0.252123 1.725584 0.042123 0.000199 -483810.000000 0 0 1
-33.365555 7.888791 -6.642609 34.923023 -0.232172 1.762169 0.040996 -0.006357 -385513.000000 0 0 1
-32.834565 6.664191 -6.200009 34.072866 -0.200243 1.753779 0.043596 0.000787 276082.000000 0 0 1
-32.473885 5.938691 -7.352109 33.821218 -0.180877 1.789927 0.051957 0.004369 -660995.000000 0 0 1
-31.332485 4.944891 -7.152509 32.516687 -0.156529 1.792574 0.061603 0.008177 -929430.000000 0 0 1
-30.075485 5.569691 -7.182509 31.418859 -0.183116 1.801441 0.072045 -0.002334 -365062.000000 0 0 1
-29.192115 4.509291 -6.884209 30.329946 -0.153258 1.799769 0.071669 -0.004733 -452524.000000 0 0 1
-27.699535 4.828791 -6.698609 28.904201 -0.172593 1.804675 0.091452 -0.007240 -172760.000000 0 0 1
-26.973395 4.899191 -7.905709 28.531848 -0.179672 1.851554 0.084314 -0.005797 203837.000000 0 0 1
-25.603735 5.103091 -7.589609 27.188140 -0.196732 1.853707 0.094729 -0.012411 89433.700000 0 0 1
-24.733785 5.391691 -8.835709 26.812315 -0.214631 1.906612 0.087711 -0.011266 -160543.000000 0 0 1
-24.734485 4.274991 -9.716709 26.916254 -0.171144 1.940134 0.089623 -0.029016 148227.000000 0 0 1
-23.942985 4.466291 -10.847509 26.662385 -0.184419 1.989796 0.080861 -0.032157 -412163.000000 0 0 1
-24.375685 3.677191 -12.089909 27.456541 -0.149726 2.026761 0.079750 -0.037669 280287.000000 0 0 1
-25.491385 4.301391 -12.727209 28.814832 -0.167164 2.028277 0.073315 -0.023530 357419.000000 0 0 1
-25.958865 3.592391 -13.833809 29.633465 -0.137514 2.056500 0.072855 -0.024262 -489896.000000 0 0 1
-26.647515 4.517591 -14.793209 30.811325 -0.167935 2.071591 0.065679 -0.020418 -855364.000000 0 0 1
-25.910065 5.557191 -15.383209 30.640773 -0.211279 2.096764 0.057465 -0.015346 -48621.600000 0 0 1
-26.670575 6.327291 -16.275509 31.878620 -0.232932 2.106616 0.080426 -0.013279 -277872.000000 0 0 1
-27.373675 5.723791 -17.503509 32.991707 -0.206128 2.130037 0.034520 0.000208 -354858.000000 0 0 1
-28.573905 5.104391 -17.112509 33.695116 -0.176774 2.103499 0.039955 -0.013934 -465295.000000 0 0 1
-29.187425 4.552691 -18.262609 34.729752 -0.154734 2.124509 0.037957 -0.003007 197013.000000 0 0 1
-30.559415 3.932991 -17.864709 35.615925 -0.127996 2.096236 0.032379 -0.010273 -8948.650000 0 0 1
-30.536975 2.678991 -17.170609 35.135647 -0.087505 2.081389 0.032627 -0.019456 5705.010000 0 0 1
-30.244385 1.500391 -17.848309 35.150194 -0.049568 2.103394 0.041640 -0.015442 -58291.200000 0 0 1
-30.396925 0.258391 -16.911809 34.785760 -0.008500 2.078498 0.048183 -0.016131 -185666.000000 0 0 1
-30.149075 -0.965009 -17.461309 34.853914 0.031997 2.095534 0.053828 -0.008673 167718.000000 0 0 1
-30.406525 -1.992809 -16.570009 34.685635 0.065445 2.068854 0.068075 -0.020954 57815.300000 0 0 1
-30.126585 -3.372909 -17.262009 34.885020 0.111494 2.088431 0.060525 -0.012887 22124.100000 0 0 1
-31.101255 -3.531509 -18.252609 36.234202 0.113065 2.098719 0.062402 -0.011518 28338.700000 0 0 1
-30.976365 -4.828209 -18.818209 36.564625 0.154623 2.111403 0.061780 -0.008168 329490.000000 0 0 1
-31.858575 -5.060009 -20.085709 38.000108 0.157512 2.127711 0.071079 -0.010398 24179.200000 0 0 1
-31.661145 -6.348809 -20.575409 38.289463 0.197899 2.138106 0.080405 -0.008268 186265.000000 0 0 1
-32.544865 -6.520709 -21.672109 39.640487 0.197742 2.149234 0.082763 -0.010476 -116872.000000 0 0 1
-32.143475 -7.585009 -22.713809 40.083070 0.231734 2.173253 0.084521 -0.007717 -896017.000000 0 0 1
-30.951665 -7.306609 -23.342609 39.449582 0.231821 2.203971 0.082582 -0.013384 -966611.000000 0 0 1
-30.777765 -8.314609 -24.323109 40.100090 0.263852 2.222523 0.079863 -0.010992 375960.000000 0 0 1
-29.378535 -8.381409 -25.021409 39.489458 0.277908 2.257023 0.069302 -0.005848 53410.500000 0 0 1
-29.191365 -7.164909 -25.747399 39.577775 0.240688 2.279107 0.056792 -0.012249 -7379.360000 0 0 1
-29.360535 -7.241809 -27.172229 40.654826 0.241824 2.302804 0.050047 -0.014135 -718266.000000 0 0 1
-30.770585 -7.286109 -27.742419 42.066116 0.232506 2.290944 0.058693 -0.008591 -595531.000000 0 0 1
-31.461415 -8.489309 -27.578819 42.690518 0.263556 2.273152 0.065963 -0.015374 362062.000000 0 0 1
-32.824525 -8.408309 -28.028589 43.974435 0.250767 2.261894 0.058692 -0.011384 967828.000000 0 0 1
-33.717115 -9.541109 -27.521629 44.556893 0.275766 2.236578 0.054308 -0.008928 -253781.000000 0 0 1
-33.257775 -10.794409 -27.985699 44.786139 0.313841 2.245767 0.055467 0.002676 529464.000000 0 0 1
-34.179049 -11.863709 -27.632979 45.525120 0.334093 2.223055 0.038225 0.001778 253164.000000 0 0 1
-35.293569 -12.049709 -28.674009 47.042856 0.329005 2.226263 0.026371 0.010402 -111777.000000 0 0 1
34.897966 -11.272109 -28.343519 46.349580 -0.312424 2.228772 0.019086 0.008893 142698.000000 0 0 1
34.041856 -11.063309 -29.463449 46.360971 -0.314224 2.259482 0.019902 0.002425 -2992.660000 0 0 1
33.079286 -9.913709 -29.193399 45.219193 -0.291177 2.272602 0.008062 0.006552 -692326.000000 0 0 1
32.166876 -10.090009 -28.180659 43.939342 -0.303957 2.267058 -0.003370 0.010851 -305392.000000 0 0 1
31.424676 -8.908109 -27.868779 42.936390 -0.276228 2.277159 -0.028344 0.021095 209854.000000 0 0 1
30.142736 -9.096609 -27.046969 41.507486 -0.293093 2.280510 -0.031853 0.024569 -65464.400000 0 0 1
30.429226 -9.530209 -25.730839 40.973635 -0.303516 2.249758 -0.040276 0.030897 -778317.000000 0 0 1
29.278756 -10.011809 -25.173179 39.889483 -0.329484 2.253732 -0.046477 0.037940 -1031250.000000 0 0 1
29.364376 -10.142009 -23.664409 39.052928 -0.332557 2.221765 -0.057547 0.037926 440051.000000 0 0 1
30.227256 -11.251909 -23.303809 39.791457 -0.356352 2.196476 -0.069659 0.032898 561631.000000 0 0 1
30.238066 -11.414709 -21.905009 39.044407 -0.360956 2.166424 -0.061063 0.030168 -104848.000000 0 0 1
31.214526 -12.480709 -21.397509 39.849318 -0.380365 2.137626 -0.034342 0.032448 185642.000000 0 0 1
32.585386 -12.119709 -21.474109 40.863580 -0.356083 2.124108 -0.016730 0.024109 826042.000000 0 0 1
33.416016 -13.086709 -20.771109 41.464818 -0.373270 2.095473 0.016799 0.017689 493534.000000 0 0 1
34.905256 -13.195309 -21.184609 42.910148 -0.361426 2.087132 0.046475 -0.000596 269222.000000 0 0 1
-35.644012 -11.970309 -21.071009 43.101872 0.323995 2.081585 0.067828 -0.004364 678189.000000 0 0 1
35.506643 -11.046309 -22.157209 43.286079 -0.301614 2.108166 0.070110 0.002332 -353633.000000 0 0 1
-35.144195 -11.342409 -23.557609 43.803261 0.312186 2.138628 0.055879 0.000173 276074.000000 0 0 1
-35.638553 -12.501409 -24.234809 44.874466 0.337372 2.141302 0.043746 0.005386 1177500.000000 0 0 1
34.358736 -12.373209 -24.783209 44.134188 -0.345660 2.167045 0.041390 0.008511 835054.000000 0 0 1
33.994996 -13.656009 -25.538239 44.658124 -0.381977 2.179569 0.030501 -0.011509 -221421.000000 0 0 1
33.863926 -14.895009 -24.863809 44.573937 -0.414380 2.162542 0.027437 -0.019328 496017.000000 0 0 1
32.675596 -15.020609 -24.088009 43.284472 -0.430882 2.160969 0.002413 -0.005277 165181.000000 0 0 1
-29.421875 8.252291 -19.864909 36.446696 -0.273455 2.147233 0.011405 0.005351 762987.000000 0 0 1
-28.009205 8.102291 -19.672909 35.173656 -0.281586 2.164347 0.013390 0.010385 702047.000000 0 0 1
-27.291805 8.056891 -20.870209 35.289117 -0.287059 2.203598 0.035113 -0.006812 193990.000000 0 0 1
-26.059035 7.111491 -20.805609 34.095747 -0.266412 2.227124 0.042254 -0.005719 1110290.000000 0 0 1
-24.879885 7.673291 -20.192409 32.948770 -0.299158 2.230449 0.046016 -0.002016 852428.000000 0 0 1
-23.761685 6.834591 -20.065309 31.842518 -0.280071 2.252532 0.061484 -0.009429 658404.000000 0 0 1
-22.480485 7.553691 -19.534609 30.725094 -0.324159 2.259824 0.055450 -0.007864 396919.000000 0 0 1
-21.890785 8.460691 -20.387509 31.087623 -0.368811 2.286049 0.054969 -0.000372 -582561.000000 0 0 1
-20.677585 8.992091 -19.960109 30.113555 -0.410202 2.295386 0.059477 0.001044 -434392.000000 0 0 1
-20.155185 10.071491 -20.921309 30.746831 -0.463405 2.319156 0.043729 -0.000363 -154085.000000 0 0 1
-19.716985 9.401091 -22.103009 31.075441 -0.444917 2.362099 0.046759 -0.007314 -245603.000000 0 0 1
-19.023985 10.307291 -22.896509 31.502419 -0.496530 2.384473 0.040705 -0.003414 -529348.000000 0 0 1
-18.139785 9.429191 -23.777909 31.358418 -0.479367 2.431440 0.052803 -0.002217 -374357.000000 0 0 1
-18.861185 8.670291 -24.749709 32.302730 -0.430883 2.443672 0.048207 -0.000058 308621.000000 0 0 1
-17.999585 7.994491 -25.667129 32.352720 -0.417977 2.487094 0.041778 0.003558 -186941.000000 0 0 1
-18.767285 6.981991 -26.561679 33.263824 -0.356164 2.495621 0.022766 0.008132 -54907.700000 0 0 1
-19.120585 5.819191 -25.817489 32.649694 -0.295435 2.482817 0.037191 0.004350 262033.000000 0 0 1
-19.631985 4.784091 -26.655919 33.449072 -0.239030 2.492960 0.041969 0.006774 -622164.000000 0 0 1
-19.849985 3.468091 -25.879179 32.799108 -0.172969 2.480010 0.045884 0.005963 -395293.000000 0 0 1
-18.745985 2.672491 -25.598689 31.840965 -0.141609 2.504712 0.041770 0.009267 -786723.000000 0 0 1
-17.713585 3.196791 -24.835009 30.671946 -0.178549 2.514433 0.030077 0.004571 -926564.000000 0 0 1
-16.894685 1.974691 -24.307309 29.667745 -0.116354 2.531016 0.029571 0.001494 -64430.000000 0 0 1
-17.478985 1.213091 -23.228209 29.095295 -0.069292 2.495345 0.023752 0.003180 293706.000000 0 0 1
-18.665685 0.486691 -23.497109 30.012644 -0.026068 2.470121 0.025706 0.004627 70210.100000 0 0 1
-19.052285 -0.370909 -22.251509 29.296020 0.019466 2.433402 0.034130 0.004601 -7926.970000 0 0 1
-18.465085 -1.653909 -22.180009 28.907570 0.089331 2.445375 0.034652 0.000547 195769.000000 0 0 1
-19.048085 -2.323009 -21.112609 28.530128 0.121356 2.403883 0.027194 0.004760 -249421.000000 0 0 1
-18.409985 -3.714509 -20.940909 28.129110 0.199093 2.410517 0.023368 -0.013029 79823.900000 0 0 1
-18.818785 -4.609909 -21.998409 29.314296 0.240233 2.419513 0.029855 -0.014583 326046.000000 0 0 1
-18.928185 -5.971709 -21.620909 29.349638 0.305609 2.398925 0.030773 -0.011304 -175163.000000 0 0 1
-18.661085 -6.973509 -22.775909 30.259015 0.357624 2.422947 0.020392 -0.020065 -707792.000000 0 0 1
-17.334285 -6.949609 -23.176009 29.764105 0.381297 2.463318 0.031112 -0.010841 -749095.000000 0 0 1
-17.347785 -7.532309 -24.445409 30.907271 0.409632 2.483120 0.040511 -0.012124 133272.000000 0 0 1
-15.937885 -7.862909 -24.960609 30.641043 0.458311 2.522859 0.046083 -0.019395 -1052630.000000 0 0 1
-15.946385 -8.554809 -26.179339 31.824987 0.492399 2.536771 0.046507 -0.044248 922593.000000 0 0 1
-14.666885 -8.678809 -26.855769 31.806785 0.534315 2.576130 0.059936 -0.044161 1137370.000000 0 0 1
-13.608485 -9.559309 -26.134689 30.977302 0.612370 2.574883 0.061237 -0.044166 -626360.000000 0 0 1
-13.065385 -8.930109 -24.990709 29.580174 0.599562 2.577075 0.047561 -0.032909 -146735.000000 0 0 1
-12.322785 -9.869609 -24.246309 28.933436 0.675304 2.564410 0.028091 -0.032407 -169602.000000 0 0 1
-11.553485 -9.301609 -23.032909 27.395581 0.677838 2.569468 0.029621 -0.027329 -145889.000000 0 0 1
-12.280285 -8.947009 -21.899209 26.653888 0.629642 2.535033 0.033027 -0.025777 -303194.000000 0 0 1
-11.425785 -8.163009 -21.134709 25.374381 0.620350 2.555151 0.027958 -0.013553 -1095460.000000 0 0 1
-11.913085 -7.727809 -19.722409 24.302553 0.575448 2.517573 0.026658 -0.010758 -15016.500000 0 1 0
-12.966485 -6.752709 -19.592209 24.445521 0.480134 2.500536 0.021838 -0.003106 733393.000000 0 1 0
-14.218585 -7.370609 -19.876309 25.525707 0.478242 2.463353 0.024573 -0.011712 -860214.000000 0 0 1
-15.408985 -6.438609 -19.789609 25.894423 0.395797 2.440662 0.025074 0.000156 -478790.000000 0 0 1
-15.737185 -5.960209 -18.449809 24.971555 0.362040 2.402133 0.018975 0.000392 264179.000000 0 1 0
-15.010985 -4.812709 -18.058209 23.970623 0.310258 2.423934 0.014932 -0.003425 -643934.000000 0 1 0
-14.933385 -4.546009 -16.510009 22.721193 0.295506 2.384207 0.024859 0.004530 168703.000000 0 1 0
-16.126485 -4.145809 -15.850909 22.989184 0.251632 2.331587 0.027883 -0.000943 147523.000000 0 1 0
-16.593985 -2.821409 -16.048809 23.256934 0.168415 2.332376 -0.002360 -0.003898 -13880.600000 0 1 0
-17.720285 -2.414709 -15.078309 23.392194 0.135434 2.271280 -0.001003 -0.008357 -115030.000000 0 1 0
-17.376185 -2.478109 -13.702609 22.267338 0.141660 2.233649 0.015670 -0.014681 719317.000000 0 1 0
-18.418485 -1.991409 -12.866109 22.555334 0.107702 2.177819 0.016988 -0.021752 152188.000000 0 1 0
-17.935685 -0.696809 -12.174309 21.688434 0.038831 2.166785 0.015615 -0.018327 80321.900000 0 1 0
-17.599885 0.344791 -13.078209 21.929761 -0.019588 2.209765 0.032209 -0.016108 460258.000000 0 1 0
-16.755785 1.298591 -12.462809 20.922817 -0.077346 2.208879 0.039337 -0.011033 -554041.000000 0 1 0
-16.280185 2.387891 -13.457309 21.256661 -0.145636 2.256331 0.048016 -0.008590 102291.000000 0 1 0
-15.505085 1.953591 -14.551909 21.353741 -0.125336 2.320564 0.038260 -0.009148 80902.500000 0 1 0
-14.198785 1.498491 -14.295309 20.204129 -0.105147 2.356813 0.031107 -0.006880 -579299.000000 0 1 0
-13.712685 0.387691 -15.263809 20.522473 -0.028265 2.409475 0.030484 -0.008476 -82408.200000 0 1 0
-13.404685 0.907791 -16.476709 21.260094 -0.067619 2.457522 0.025146 -0.009463 86749.800000 0 1 0
-13.098885 -0.048509 -17.457609 21.825473 0.003703 2.497880 0.021097 -0.002400 216296.000000 0 1 0
-12.499585 0.686591 -18.732409 22.530295 -0.054874 2.552476 0.027308 -0.008391 471092.000000 0 1 0
-11.197685 1.268191 -18.587509 21.736880 -0.112774 2.596567 0.017087 -0.000067 413198.000000 0 1 0
-10.852285 2.009691 -19.729909 22.607084 -0.183112 2.631566 0.019466 0.000160 -502771.000000 0 1 0
-9.461385 2.578391 -19.594509 21.911429 -0.266057 2.677571 0.015047 0.002385 -75681.400000 0 1 0
-8.352785 1.615091 -19.536309 21.308330 -0.191002 2.730886 0.005129 0.001094 1343970.000000 0 1 0
-7.070185 2.200291 -19.309109 20.680196 -0.301706 2.775409 0.003544 0.005441 748537.000000 0 1 0
-6.480685 3.282091 -20.216209 21.481772 -0.468788 2.796626 0.002680 0.007405 -939687.000000 0 1 0
-5.982185 2.813091 -21.450509 22.446032 -0.439561 2.842649 -0.010432 0.003632 192713.000000 0 1 0
-5.906485 3.885691 -22.419909 23.508243 -0.581887 2.836118 -0.004918 0.002790 -358218.000000 0 1 0
-5.608785 3.288891 -23.779109 24.652004 -0.530346 2.874686 0.008865 -0.004668 421517.000000 0 1 0
-4.331385 2.631391 -23.755109 24.289717 -0.545928 2.931398 0.016568 -0.011162 484407.000000 0 1 0
-3.978585 2.104491 -25.016509 25.418178 -0.486542 2.963580 0.016341 -0.011996 155472.000000 0 0 1
-2.505185 1.591891 -24.952009 25.127929 -0.566070 3.023194 0.012291 -0.009049 -346265.000000 0 0 1
-1.580285 2.590791 -24.704309 24.890006 -1.023084 3.019363 0.013116 -0.009080 -536563.000000 0 1 0
-0.230785 2.221491 -24.780509 24.880955 -1.467280 3.051706 0.024052 -0.011249 181530.000000 0 1 0
0.403715 1.295391 -23.655009 23.693891 1.268682 3.084296 0.034241 -0.020669 -710452.000000 0 1 0
-0.063185 -0.020709 -23.637509 23.637603 0.316725 3.138780 0.030007 -0.023368 -231073.000000 0 1 0
0.547815 -0.806809 -22.649009 22.669995 -0.974311 3.098562 0.036648 -0.019956 -683883.000000 0 1 0
0.246315 -2.314009 -22.751109 22.869812 -1.464751 3.039663 0.047896 -0.023489 552251.000000 0 1 0
-0.939885 -2.819009 -22.118009 22.316732 1.248977 3.008042 0.035459 -0.020135 861181.000000 0 1 0
-2.170485 -2.776209 -22.843509 23.113725 0.907242 2.988534 0.038682 -0.023360 567923.000000 0 1 0
-2.974985 -1.457309 -22.889009 23.127495 0.455498 2.997860 0.037515 -0.021029 -1485820.000000 0 1 0
-3.473685 -1.169309 -21.604909 21.913600 0.324705 2.973545 0.019224 -0.016516 184576.000000 0 1 0
-4.334685 -0.035809 -21.548309 21.980000 0.008261 2.943074 0.008209 -0.013109 851340.000000 0 1 0
-5.747985 -0.224209 -22.187109 22.920677 0.038987 2.887913 0.010612 -0.009376 224047.000000 0 1 0
-6.571885 -1.200209 -21.511909 22.525373 0.180637 2.840483 0.021827 -0.009178 1214480.000000 0 1 0
-7.979885 -0.969609 -21.736309 23.175113 0.120914 2.787369 0.005406 0.001815 1373070.000000 0 1 0
-8.887985 -2.191409 -21.498209 23.366034 0.241737 2.739036 0.014238 -0.000959 -26335.100000 0 1 0
-8.702385 -3.094709 -22.555009 24.372878 0.341669 2.752924 0.031682 -0.006318 -40689.300000 0 1 0
-8.910285 -4.404809 -22.105509 24.237349 0.459118 2.719035 0.013514 -0.006426 -1033890.000000 0 1 0
-9.768185 -5.150409 -23.096909 25.601003 0.485220 2.695611 0.010771 -0.011496 -836186.000000 0 0 1
-11.123685 -4.874609 -22.980009 25.991903 0.413014 2.655408 0.008768 -0.009860 -566454.000000 0 0 1
-11.907385 -5.574409 -23.970009 27.339005 0.437842 2.639900 0.013841 -0.021628 426688.000000 0 0 1
-13.424285 -5.422309 -23.718809 27.788393 0.383879 2.593560 0.046572 -0.020189 -59663.800000 0 0 1
-13.926685 -4.228009 -24.257409 28.288700 0.294748 2.601177 0.035158 -0.016698 -828438.000000 0 0 1
-15.288085 -4.072709 -24.032409 28.772716 0.260351 2.559383 0.038395 -0.016857 -476343.000000 0 0 1
-15.791485 -2.658609 -24.266609 29.074173 0.166793 2.558284 0.035919 -0.012810 -157640.000000 0 0 1
-15.631685 -2.271909 -25.614679 30.093570 0.144329 2.589003 0.041081 -0.015486 103274.000000 0 0 1
-16.317085 -1.105409 -26.006819 30.721716 0.067642 2.580227 0.030507 -0.008448 686649.000000 0 0 1
-17.744185 -1.313509 -26.652299 32.045693 0.073890 2.552953 0.029762 -0.006228 519404.000000 0 0 1
-17.798885 -1.935309 -27.947279 33.190302 0.108307 2.571835 0.037292 -0.017390 70939.600000 0 0 1
-17.378285 -1.018209 -29.002049 33.825440 0.058524 2.600999 0.040418 -0.015618 -192060.000000 0 0 1
-17.544185 -1.578509 -30.411789 35.144943 0.089732 2.616594 0.035685 -0.015848 1172620.000000 0 0 1
-18.904885 -1.919009 -30.778939 36.172094 0.101162 2.588498 0.032376 -0.015518 1030930.000000 0 0 1
-19.030085 -2.488109 -32.098919 37.398870 0.130009 2.602716 0.030674 -0.020336 -178344.000000 0 0 1
-20.414585 -3.099209 -32.491729 38.497699 0.150663 2.575478 0.008096 -0.013182 630557.000000 0 0 1
-21.469185 -2.201009 -32.769899 39.238204 0.102163 2.559207 -0.000664 -0.019444 379489.000000 0 0 1
-22.103085 -1.667709 -31.604439 38.602697 0.075309 2.529958 0.001948 -0.009523 -378091.000000 0 0 1
-23.237085 -0.665009 -31.865869 39.444112 0.028611 2.511332 0.018909 -0.010578 24545.900000 0 0 1
-22.719085 0.521991 -32.409389 39.582797 -0.022972 2.530070 0.020130 -0.014883 -8584.400000 0 0 1
-23.792085 1.291191 -32.869989 40.597619 -0.054217 2.514357 0.024857 -0.016261 -319117.000000 0 0 1
-23.516785 2.663891 -33.606539 41.103953 -0.112795 2.528024 0.028466 -0.009405 -452237.000000 0 0 1
-22.894085 3.705391 -32.846139 40.208680 -0.160458 2.526798 0.041395 -0.013864 586196.000000 0 0 1
-23.753085 4.363691 -31.928029 40.033110 -0.181685 2.494004 0.034882 -0.015264 267109.000000 0 0 1
-24.939085 5.200691 -32.544749 41.329963 -0.205589 2.477436 0.038685 -0.016274 390552.000000 0 0 1
-26.029275 4.397391 -32.973109 42.238444 -0.167360 2.466489 0.025506 -0.019630 215820.000000 0 0 1
-26.784585 5.074391 -33.986749 43.569055 -0.187233 2.465568 0.029931 -0.021136 477345.000000 0 0 1
-28.170365 4.403591 -34.229335 44.548945 -0.155065 2.447061 0.043646 -0.016098 169773.000000 0 0 1
-28.042925 3.161091 33.941452 44.140914 -0.112249 0.693624 0.038406 -0.014590 -675929.000000 0 0 1
-29.220715 2.711391 33.413009 44.470563 -0.092525 0.720689 0.038317 -0.010647 -1045240.000000 0 0 1
-29.040365 1.215191 32.976770 43.957785 -0.041820 0.722444 0.030555 0.003278 -49721.100000 0 0 1
-29.147435 0.330391 34.041782 44.816571 -0.011335 0.708129 0.014826 0.004305 62222.600000 0 0 1
-28.806405 -0.970309 33.695282 44.340980 0.033671 0.707617 0.011840 0.004109 -622602.000000 0 0 1
-28.502835 -1.861009 -33.870559 44.306769 0.065200 2.440993 -0.026135 0.002654 1007390.000000 0 0 1
-27.323915 -1.560909 -33.058069 42.916998 0.057064 2.450075 0.002687 -0.009533 1396080.000000 0 0 1
-27.249865 -0.239609 -32.488409 42.404119 0.008793 2.443643 0.010896 -0.006521 -666758.000000 0 0 1
-27.560785 -0.270909 -30.950619 41.444072 0.009829 2.414040 0.019161 -0.011817 -1065470.000000 0 0 1
-26.517975 -0.757009 -30.228659 40.218751 0.028539 2.421290 0.017296 -0.013048 -523989.000000 0 0 1
-26.679965 -0.685109 -28.841829 39.295560 0.025673 2.394948 0.019073 -0.014176 340314.000000 0 0 1
-25.424345 -1.231909 -28.051819 37.879011 0.048416 2.404705 0.020413 -0.009435 558033.000000 0 0 1
-25.429435 -2.657809 -27.924099 37.861266 0.104139 2.400213 0.001540 -0.000918 644083.000000 0 0 1
-24.356585 -3.108609 -27.084719 36.558018 0.126943 2.405160 0.017869 -0.002625 -35247.200000 0 0 1
-24.483785 -4.538109 -26.476339 36.346206 0.183272 2.386851 0.014889 -0.007720 -811901.000000 0 0 1
-25.580035 -4.503809 -25.638459 36.495933 0.174281 2.349703 0.019309 -0.002837 -684292.000000 0 0 1
-25.587605 -5.529109 -24.688209 35.983389 0.212813 2.326911 0.018632 -0.008251 1066670.000000 0 0 1
-26.934255 -5.542709 -23.846209 36.398042 0.202953 2.285179 0.023023 -0.014770 1086110.000000 0 0 1
-26.904545 -6.589309 -22.829109 35.894871 0.240186 2.260099 0.031493 -0.014029 91688.300000 0 0 1
-28.059345 -6.447009 -22.020609 36.246352 0.225844 2.223739 0.056216 -0.012181 11202.500000 0 0 1
-28.408605 -7.596009 -21.075709 36.179189 0.261272 2.192643 0.066605 -0.015323 -369877.000000 0 0 1
-27.547735 -7.848809 -19.982209 34.925209 0.277562 2.179913 0.057132 -0.014139 -43648.000000 0 0 1
-28.091365 -8.635109 -18.933109 34.959298 0.298226 2.143107 0.067395 -0.014915 324964.000000 0 0 1
-28.845215 -7.848109 -17.778209 34.780799 0.265646 2.107319 0.069568 -0.015162 513070.000000 0 0 1
-27.913435 -7.197709 -16.911209 33.420890 0.252361 2.101346 0.060119 -0.023402 339505.000000 0 0 1
-28.455285 -6.636209 -15.745509 33.191318 0.229120 2.065063 0.058748 -0.019346 202207.000000 0 0 1
-27.411705 -5.758609 -14.946509 31.748406 0.207067 2.060971 0.058207 -0.019597 499449.000000 0 0 1
-27.155565 -4.535909 -15.536309 31.612910 0.165506 2.084555 0.060687 -0.018634 -106090.000000 0 0 1
-26.321535 -3.863109 -14.635209 30.363402 0.145726 2.073734 0.053905 -0.022279 -180640.000000 0 0 1
-13.824585 21.265191 -5.078409 25.867310 -0.994348 1.768405 0.041082 -0.016690 63255.400000 0 0 1
-14.014985 20.827391 -6.403209 25.907549 -0.978483 1.820541 0.059329 -0.017685 63654.800000 0 0 1
-14.716885 19.589891 -6.432909 25.332446 -0.926496 1.827547 0.054907 -0.030506 -221830.000000 0 0 1
-14.888585 19.122291 -7.877109 25.482951 -0.909242 1.885056 0.058147 -0.029380 -470450.000000 0 0 1
-13.728985 18.571691 -8.454209 24.594031 -0.934216 1.921704 0.053049 -0.026982 -160908.000000 0 1 0
-14.026185 17.624591 -9.467809 24.433573 -0.898603 1.968706 0.040902 -0.028352 -353036.000000 0 1 0
-14.447285 16.250191 -9.025509 23.542569 -0.844062 1.964238 0.038193 -0.030056 1775070.000000 0 1 0
-15.814985 16.251991 -8.468609 24.206575 -0.799025 1.928205 0.044817 -0.025640 1777900.000000 0 1 0
-16.035285 15.090791 -7.721309 23.334116 -0.755063 1.908056 0.046530 -0.018112 147675.000000 0 1 0
-17.470285 15.078691 -7.140509 24.157083 -0.712053 1.870866 0.059875 -0.023781 -466065.000000 0 1 0
-18.472385 14.869991 -8.046309 25.041740 -0.677773 1.897915 0.054587 -0.022164 -845188.000000 0 0 1
-19.702385 15.440591 -7.655509 26.176376 -0.664717 1.867593 0.048659 -0.020227 -733090.000000 0 0 1
-20.835285 14.860491 -8.423109 26.942384 -0.619555 1.888761 0.043385 -0.011222 -1040300.000000 0 0 1
-21.186085 13.544091 -8.075609 26.410378 -0.568811 1.881548 0.064092 -0.017618 623098.000000 0 0 1
-22.090685 12.855591 -8.978909 27.090319 -0.527039 1.908629 0.073712 -0.019637 747236.000000 0 0 1
-22.627285 11.472791 -8.515609 26.760691 -0.469259 1.894641 0.069261 -0.013972 -756126.000000 0 0 1
-21.603285 10.503891 -8.484709 25.475948 -0.452561 1.910330 0.069493 -0.012433 22577.200000 0 0 1
-21.905185 9.357191 -7.707509 25.035971 -0.403705 1.883737 0.076172 -0.020177 80482.900000 0 0 1
-20.666985 8.446491 -7.426109 23.529016 -0.387979 1.891901 0.043833 -0.006459 -50507.300000 0 1 0
-20.592385 7.433091 -8.328209 23.423412 -0.346408 1.934299 0.045532 -0.004686 787157.000000 0 1 0
-19.665985 6.406591 -7.900209 22.140657 -0.314928 1.935657 0.036053 -0.000723 173792.000000 0 1 0
-19.511485 5.246691 -8.878409 22.069254 -0.262689 1.984822 0.033768 -0.005008 -227248.000000 0 1 0
-20.488385 4.227891 -8.850709 22.715282 -0.203499 1.971033 0.036476 -0.002369 420307.000000 0 1 0
-20.104085 3.249091 -9.780809 22.591925 -0.160228 2.018541 0.018419 -0.007074 -394662.000000 0 1 0
-20.913685 1.948891 -9.634409 23.108489 -0.092919 2.000851 0.013556 -0.007976 -236370.000000 0 1 0
-20.640685 1.218291 -8.484209 22.349584 -0.058955 1.960175 0.017923 -0.010993 -50396.800000 0 1 0
-21.521285 0.196291 -8.033809 22.972730 -0.009121 1.928059 0.025939 -0.010771 -460062.000000 0 1 0
-21.717285 -1.045009 -8.918809 23.500589 0.048082 1.960068 0.031403 -0.019204 -1098300.000000 0 1 0
-20.586285 -1.854109 -8.955609 22.526336 0.089823 1.979654 0.022478 -0.011828 -117907.000000 0 1 0
-20.734885 -3.180009 -9.343309 22.964001 0.152179 1.989819 0.025671 -0.012950 -300083.000000 0 1 0
-21.694485 -4.132709 -8.580409 23.692898 0.188240 1.941371 0.033664 -0.010781 -60199.700000 0 1 0
-21.308385 -4.377809 -7.221209 22.920697 0.202630 1.891308 0.012032 -0.003710 732139.000000 0 1 0
-22.293285 -5.132609 -6.467409 23.773128 0.226288 1.846316 0.018695 -0.001015 -36320.400000 0 1 0
-22.311685 -6.639309 -6.807809 24.253618 0.289227 1.855312 0.022407 -0.004996 167371.000000 0 1 0
-21.144285 -7.353509 -6.390709 23.280809 0.334694 1.848872 0.015145 -0.005615 941705.000000 0 1 0
-21.343985 -8.762009 -6.591209 23.995469 0.389537 1.849059 0.028271 -0.004830 -308561.000000 0 1 0
-20.286785 -9.541109 -5.838409 23.166213 0.439616 1.825566 0.032775 -0.009695 756591.000000 0 1 0
-19.050285 -9.822709 -6.542009 22.409749 0.476065 1.867037 0.033960 0.001956 693518.000000 0 1 0
-18.069085 -10.307109 -5.682509 21.564305 0.518391 1.837460 0.040256 -0.003354 -161140.000000 0 1 0
-17.221985 -11.419009 -6.363209 21.621309 0.585493 1.869522 0.026182 -0.003488 583701.000000 0 1 0
-16.237085 -10.975209 -7.346009 20.929931 0.594392 1.929415 0.024754 -0.013008 964659.000000 0 1 0
-16.831585 -10.661009 -8.608509 21.704051 0.564612 1.978641 0.036334 -0.010969 -255332.000000 0 1 0
-15.973685 -10.840309 -9.891709 21.691400 0.596243 2.044314 0.048366 -0.007754 155269.000000 0 1 0
-15.976685 -12.194909 -10.341009 22.603247 0.651955 2.045979 0.047937 -0.009775 -638621.000000 0 1 0
-14.960385 -12.414309 -11.238809 22.455267 0.692657 2.094970 0.039686 0.001788 -392704.000000 0 1 0
-14.904585 -13.838009 -11.818209 23.522484 0.748307 2.097194 0.043231 -0.000190 332396.000000 0 1 0
-15.914885 -13.966209 -12.810209 24.747526 0.720276 2.114882 0.048666 -0.003945 253390.000000 0 1 0
-15.878185 -15.297109 -13.386309 25.793635 0.766761 2.116450 0.033941 0.001260 247954.000000 0 0 1
-16.525685 -15.302109 -14.836009 26.969612 0.746973 2.153281 0.055578 0.002720 143170.000000 0 0 1
-16.579385 -16.559609 -15.519009 28.105806 0.784801 2.155754 0.043906 0.012493 200160.000000 0 0 1
-17.027185 -16.393409 -16.854609 29.030101 0.766437 2.190250 0.044555 0.004435 -648014.000000 0 0 1
-17.219185 -17.671909 -17.589009 30.301320 0.798373 2.190102 0.042759 -0.000663 -423658.000000 0 0 1
-18.413185 -18.316609 -17.274809 31.192349 0.782769 2.157736 0.025565 -0.000866 -435280.000000 0 0 1
-19.416585 -18.192709 -18.274609 32.279092 0.752868 2.172617 0.027677 -0.006433 231755.000000 0 0 1
-20.813985 -17.765409 -17.767909 32.627141 0.706541 2.146678 0.025409 -0.012240 -275154.000000 0 0 1
-20.953085 -16.424709 -17.314709 31.758495 0.664834 2.147423 0.012526 -0.010242 225548.000000 0 0 1
-20.575785 -16.371709 -15.934209 30.745647 0.672100 2.115610 0.013542 -0.007253 -390327.000000 0 0 1
-20.612385 -14.957409 -15.355309 29.738528 0.627735 2.113373 0.025793 -0.014171 -265947.000000 0 0 1
-21.930985 -14.470309 -15.337309 30.423527 0.583241 2.099167 0.035391 -0.015216 158021.000000 0 0 1
-22.019885 -13.141909 -14.939509 29.677838 0.538078 2.098313 0.036639 -0.010969 -138806.000000 0 0 1
-23.467385 -12.751009 -14.570109 30.423584 0.497724 2.070207 0.045065 -0.016356 -253794.000000 0 0 1
-23.963585 -13.106709 -13.351909 30.402512 0.500493 2.025472 0.053536 -0.012797 290295.000000 0 0 1
-25.152655 -12.358809 -13.132909 30.949468 0.456705 2.009023 0.064327 -0.012158 161385.000000 0 0 1
-25.846855 -12.754109 -11.788709 31.140021 0.458393 1.959048 0.066738 -0.015107 -336435.000000 0 0 1
-26.999505 -12.034709 -11.487209 31.713774 0.419304 1.941440 0.061352 -0.019272 -255163.000000 0 0 1
-27.698705 -12.539509 -10.358109 32.120834 0.425106 1.899137 0.053906 -0.009584 486291.000000 0 0 1
-28.480925 -11.428209 -9.596109 32.153575 0.381591 1.873860 0.069880 -0.011806 -45051.400000 0 0 1
-27.591545 -10.508109 -9.085509 30.891102 0.363885 1.869325 0.058792 -0.017128 -257377.000000 0 0 1
-28.314295 -9.489909 -8.379709 31.015758 0.323397 1.844372 0.064048 -0.016534 248369.000000 0 0 1
-27.529725 -8.310509 -7.705309 29.771163 0.293175 1.832595 0.052816 -0.009146 504606.000000 0 0 1
-26.573035 -8.753009 -6.721009 28.773483 0.318201 1.806558 0.042092 -0.010334 453516.000000 0 0 1
-25.840635 -7.760909 -6.028609 27.646234 0.291766 1.790625 0.034778 -0.006523 255718.000000 0 0 1
-26.696025 -6.738209 -5.164709 28.013487 0.247241 1.756222 0.042088 -0.011134 -121379.000000 0 0 1
-27.227345 -7.247509 -3.962509 28.452701 0.260153 1.710517 0.034112 -0.014427 759135.000000 0 0 1
-26.288275 -7.330809 -2.853809 27.440088 0.271953 1.674986 0.055554 -0.008426 468468.000000 0 0 1
-25.875205 -5.975109 -2.192309 26.646471 0.226942 1.653163 0.049083 -0.004751 -288578.000000 0 0 1
-26.920465 -5.279709 -1.539409 27.476473 0.193664 1.626852 0.055342 -0.012143 11718.700000 0 0 1
-26.561325 -4.095709 -0.801609 26.887198 0.152993 1.600615 0.039823 -0.013307 -473753.000000 0 0 1
-27.791725 -3.271309 -0.390409 27.986316 0.117169 1.584747 0.049387 -0.017837 51582.300000 0 0 1
-28.615555 -3.690309 0.702591 28.861081 0.128254 1.546450 0.056347 -0.017224 209658.000000 0 0 1
-28.078115 -3.615909 2.012791 28.381450 0.128075 1.499818 0.046489 -0.014926 82072.700000 0 0 1
-29.101225 -4.101509 3.096391 29.551503 0.140017 1.465824 0.046531 -0.018201 279176.000000 0 0 1
-29.438525 -5.459109 2.953091 30.085701 0.183358 1.472482 0.060737 -0.015188 315168.000000 0 0 1
-30.319865 -5.876709 4.008491 31.143184 0.191450 1.441727 0.066104 -0.019977 -19662.500000 0 0 1
-30.884185 -7.279809 3.870291 31.965726 0.231488 1.449422 0.053990 -0.015200 -289073.000000 0 0 1
-30.020005 -8.367909 4.132591 31.437254 0.271844 1.438960 0.038146 -0.003966 302435.000000 0 0 1
-30.715705 -9.557009 3.862391 32.399214 0.301649 1.451300 0.051235 -0.006002 -159396.000000 0 0 1
-30.015865 -10.731409 4.497191 32.192236 0.343362 1.430640 0.034342 -0.004043 -278410.000000 0 0 1
-30.085265 -10.736509 5.882091 32.480684 0.342781 1.388697 0.024108 -0.011634 540969.000000 0 0 1
-29.258975 -11.751809 6.469091 32.187603 0.381926 1.368437 0.021186 -0.013122 -157935.000000 0 0 1
-29.577535 -11.993709 7.950691 32.892144 0.385239 1.326658 0.027408 -0.018099 -208228.000000 0 0 1
-29.436555 -10.801309 8.709691 32.542861 0.351682 1.299856 0.048381 -0.012220 526890.000000 0 0 1
-29.533405 -11.082309 10.115191 33.126375 0.358987 1.260489 0.033185 -0.011175 -472836.000000 0 0 1
-29.692585 -9.790809 10.893591 33.108607 0.318512 1.235524 0.023657 -0.011497 -10820.500000 0 0 1
-28.415115 -9.193109 10.996491 31.825380 0.312901 1.217997 0.049537 -0.017347 399530.000000 0 0 1
-28.484385 -8.005409 11.827891 31.864491 0.273978 1.190502 0.044705 -0.019873 -67496.300000 0 0 1
-27.329725 -7.018209 11.624791 30.517289 0.251366 1.180000 0.048517 -0.016000 -169703.000000 0 0 1
-27.525875 -6.342809 10.393391 30.098631 0.226478 1.218226 0.052530 -0.019081 1144140.000000 0 0 1
-26.644525 -5.167709 10.427091 29.075078 0.191572 1.204000 0.052120 -0.018883 400074.000000 0 0 1
-26.849845 -4.287809 9.140491 28.685328 0.158359 1.246495 0.054251 -0.024840 47337.400000 0 0 1
-26.305645 -4.996309 8.035591 27.955693 0.187697 1.279243 0.039494 -0.012013 263067.000000 0 0 1
-26.575275 -4.349109 6.864691 27.789998 0.162215 1.321192 0.036749 -0.015917 -179347.000000 0 0 1
-25.713695 -4.886309 5.684491 26.784017 0.187788 1.356935 0.029293 -0.009174 303105.000000 0 0 1
-24.399785 -4.323609 5.766691 25.442049 0.175378 1.342149 0.050348 -0.017656 574163.000000 0 0 1
-23.718985 -4.694809 4.578591 24.608840 0.195409 1.383651 0.049813 -0.012341 633538.000000 0 1 0
-22.254485 -4.107709 4.599991 23.093187 0.182525 1.370262 0.059823 -0.012342 884911.000000 0 1 0
-22.270485 -2.673309 4.506991 22.878681 0.119467 1.372504 0.053951 -0.012290 -790494.000000 0 1 0
-20.960185 -2.276509 4.614291 21.582482 0.108187 1.355335 0.043559 -0.006939 -1232760.000000 0 1 0
-20.689885 -0.774909 4.944091 21.286518 0.037436 1.336392 0.039103 -0.011476 -259019.000000 0 1 0
-20.599185 0.190191 3.910691 20.967978 -0.009233 1.383190 0.020844 -0.010293 -661871.000000 0 1 0
-21.832985 0.534291 3.434191 22.107880 -0.024467 1.414827 0.021068 -0.018342 -1367680.000000 0 1 0
-21.826185 1.702591 2.471891 22.031600 -0.077849 1.458362 0.028396 -0.007310 -652776.000000 0 1 0
-21.500385 2.865891 3.131791 21.915474 -0.132514 1.427402 0.029033 -0.013365 100668.000000 0 1 0
-21.531085 3.992291 2.281991 22.016664 -0.183338 1.466961 0.029544 -0.003504 810747.000000 0 1 0
-20.365485 4.115491 1.188091 20.811098 -0.199396 1.513676 0.007717 0.003438 9415.230000 0 1 0
-20.447185 5.037991 0.082991 21.058861 -0.241579 1.566855 0.011372 0.006058 251436.000000 0 1 0
-21.280285 4.689391 -1.037309 21.815520 -0.216897 1.618363 0.024629 0.000427 -58179.000000 0 1 0
-20.924985 3.458391 -1.945709 21.297917 -0.163795 1.662281 0.023370 0.004239 -547596.000000 0 1 0
-20.929685 2.278991 -1.180809 21.086485 -0.108461 1.626824 0.005812 0.009320 476001.000000 0 1 0
-20.507785 1.140791 -1.924209 20.629426 -0.055570 1.664207 0.004367 0.008454 -542515.000000 0 1 0
-19.701185 0.140391 -1.118409 19.733404 -0.007126 1.627503 0.007151 0.007337 -160549.000000 0 1 0
-20.543085 -0.583209 -0.232109 20.552673 0.028382 1.582090 0.015527 0.000095 803155.000000 0 1 0
-19.793785 -1.411709 0.677091 19.855611 0.071200 1.536689 0.017768 -0.004965 20045.700000 0 1 0
-18.995685 -2.664309 0.222091 19.182907 0.139350 1.559219 0.006815 -0.003011 98311.100000 0 1 0
-18.345885 -3.322509 1.330391 18.691723 0.179162 1.499561 0.021461 -0.002307 677308.000000 0 1 0
-17.635185 -4.504609 0.940491 18.225690 0.250086 1.519171 0.016555 -0.001237 -149685.000000 0 1 0
-18.474985 -5.772009 0.604991 19.365102 0.302815 1.539550 0.009465 -0.001446 -293029.000000 0 1 0
-19.200085 -6.171509 1.751791 20.243507 0.311001 1.484152 0.036990 -0.008246 520647.000000 0 1 0
-20.132285 -7.198309 1.448791 21.429502 0.343385 1.503137 0.016345 -0.008344 -99748.700000 0 1 0
-20.973585 -7.708809 2.657891 22.502920 0.352222 1.452407 0.031588 -0.006633 -346256.000000 0 1 0
-20.237585 -8.358709 3.658091 22.199313 0.391688 1.405257 0.033532 -0.011387 23516.900000 0 1 0
-21.015685 -8.875109 4.715391 23.295096 0.399589 1.366968 0.041414 -0.015084 98563.400000 0 1 0
-20.220285 -9.724709 5.780391 23.169869 0.448282 1.318654 0.037270 -0.005985 86745.400000 0 1 0
-19.646785 -10.878309 5.201091 23.051792 0.505675 1.343210 0.030472 -0.005072 -192778.000000 0 1 0
-18.622185 -11.399609 5.994991 22.642367 0.549307 1.302832 0.037290 -0.004888 -431638.000000 0 1 0
-17.891785 -12.549109 5.394791 22.509995 0.611658 1.328779 0.026557 -0.007306 -687871.000000 0 1 0
-18.663685 -13.708309 5.382591 23.774423 0.633501 1.342414 0.029783 -0.003473 -300150.000000 0 1 0
-18.055485 -14.709809 4.690391 23.756658 0.683640 1.372056 0.027000 -0.001558 -275765.000000 0 1 0
-18.682585 -16.126009 5.040491 25.189159 0.712083 1.369331 0.036709 -0.006901 -186464.000000 0 0 1
-18.097285 -17.197709 4.395991 25.349510 0.759916 1.396500 0.045029 -0.011893 -167139.000000 0 0 1
-18.574085 -18.452809 4.847291 26.627036 0.782123 1.387732 0.053340 -0.012913 356591.000000 0 0 1
-17.544385 -19.649309 4.701091 26.758196 0.841931 1.394192 0.051018 -0.011245 -361863.000000 0 0 1
-17.258985 -20.072609 3.374291 26.686477 0.860624 1.444015 0.055179 -0.018100 78339.000000 0 0 1
-16.499385 -21.257009 3.334791 27.114774 0.910746 1.447496 0.050581 -0.015202 655955.000000 0 0 1
-14.979785 -21.067509 3.694491 26.112893 0.952701 1.428839 0.034653 -0.012344 179889.000000 0 0 1
-14.434485 -22.400009 3.860891 26.926219 0.998370 1.426913 0.029683 -0.013844 -356783.000000 0 0 1
-13.050585 -22.284709 4.063391 26.142632 1.041010 1.414732 0.026707 -0.008156 -346639.000000 0 0 1
-12.352585 -23.622809 4.362691 27.012156 1.088990 1.408577 0.016080 -0.004702 -654068.000000 0 0 1
-12.468885 -24.414809 3.175091 27.597776 1.098618 1.455492 0.028907 -0.008612 73077.500000 0 0 1
-12.074385 -25.745069 3.401791 28.638638 1.132256 1.451732 0.038459 -0.013069 -265064.000000 0 0 1
18.458315 19.205891 -24.507509 36.196597 0.805244 2.314566 0.049867 -0.021292 545488.000000 0 0 1
17.433215 19.659891 -25.426449 36.564089 0.845356 2.339764 0.036807 -0.023913 735350.000000 0 0 1
17.966515 19.578791 -26.741979 37.699578 0.828314 2.359364 0.041417 -0.021543 -293167.000000 0 0 1
16.955915 19.841491 -27.846689 38.165769 0.863656 2.388569 0.033886 -0.017381 -396509.000000 0 0 1
16.634615 21.222291 -27.987699 38.863959 0.905995 2.374808 0.032320 -0.015544 394701.000000 0 0 1
15.725115 21.401391 -29.067409 39.372745 0.937113 2.401287 0.012379 -0.012757 9718.730000 0 0 1
15.501015 22.923891 -29.256239 40.270507 0.976226 2.384001 0.019402 -0.009982 -461944.000000 0 0 1
14.661815 23.505391 -28.305629 39.606576 1.013086 2.366948 0.020625 -0.016273 49680.300000 0 0 1
14.464915 24.839391 -28.620069 40.562759 1.043465 2.354031 0.020366 -0.009671 -30894.000000 0 0 1
13.515515 25.554891 -27.630009 39.989236 1.084311 2.333580 0.022553 -0.014366 -627891.000000 0 0 1
12.215115 25.060391 -27.661579 39.273339 1.117257 2.352282 0.013258 -0.015644 -824583.000000 0 0 1
11.469015 25.731591 -26.666129 38.790920 1.151510 2.328744 0.012275 -0.011552 -1477720.000000 0 0 1
9.974515 25.463291 -26.648209 38.183729 1.197447 2.343250 0.009487 -0.008172 -462143.000000 0 0 1
9.230215 26.225791 -25.735149 37.885180 1.232384 2.317596 0.012868 -0.005502 2797.450000 0 0 1
9.119615 27.568491 -26.176109 39.094472 1.251329 2.304413 0.019742 -0.014327 -1022640.000000 0 0 1
8.590115 28.552791 -25.138579 39.000001 1.278560 2.271269 0.029826 -0.014943 -981913.000000 0 0 1
9.468115 28.756791 -24.115109 38.705771 1.252727 2.243415 0.029035 -0.014314 -599520.000000 0 0 1
9.044515 29.680891 -23.120709 38.695293 1.275010 2.211185 0.043024 -0.017551 -636407.000000 0 0 1
9.990415 29.923591 -21.939509 38.426185 1.248568 2.178461 0.029235 -0.018773 -542107.000000 0 0 1
11.008115 30.820891 -22.272109 39.587280 1.227754 2.168333 0.018509 -0.018266 -393961.000000 0 0 1
11.666515 31.278191 -21.150009 39.519054 1.213787 2.135523 0.010568 -0.015083 -509927.000000 0 0 1
12.909715 32.141691 -21.424209 40.727702 1.188868 2.124728 -0.001771 0.003534 -261811.000000 0 0 1
14.022615 31.384891 -21.829709 40.720772 1.150611 2.136586 -0.000980 0.001103 -164429.000000 0 0 1
14.912115 32.250391 -22.541509 42.078243 1.137690 2.136138 -0.000069 0.010103 -222619.000000 0 0 1
16.111415 31.582491 -23.183509 42.361616 1.099072 2.149903 -0.005359 0.014606 -250412.000000 0 0 1
17.003515 30.937291 -22.295309 41.753039 1.068251 2.134098 -0.009672 0.016520 -318181.000000 0 0 1
18.160515 30.597091 -22.999509 42.367012 1.035142 2.144639 -0.003085 0.019888 -1181740.000000 0 0 1
19.201715 29.800391 -22.293509 41.878033 0.998407 2.132163 -0.007009 0.017144 -791275.000000 0 0 1
19.883215 30.557191 -21.320909 42.233462 0.993937 2.099987 0.004890 0.021023 -70657.900000 0 0 1
20.796415 29.722791 -20.644309 41.738743 0.960286 2.088180 0.013775 0.011828 13088.600000 0 0 1
21.490915 30.427391 -19.447909 42.022693 0.955854 2.051942 0.031561 0.005444 35050.300000 0 0 1
22.567015 31.282191 -19.783709 43.350211 0.945851 2.044707 0.032831 0.009462 114552.000000 0 0 1
23.059215 31.843391 -18.610409 43.498003 0.944049 2.012904 0.032764 0.002668 -243287.000000 0 0 1
24.289315 32.785991 -18.681709 44.876478 0.933181 2.000159 0.043418 0.004259 694233.000000 0 0 1
25.472315 32.075891 -19.078309 45.184992 0.899647 2.006697 0.055017 0.004240 166931.000000 0 0 1
26.609315 32.866691 -18.781809 46.271280 0.890221 1.988767 0.046830 -0.001491 216810.000000 0 0 1
27.931115 32.251591 -19.283409 46.820531 0.857065 1.995288 0.047307 -0.000418 88577.000000 0 0 1
28.384915 31.086291 -18.591509 46.018530 0.830790 1.986682 0.051629 0.007192 -866088.000000 0 0 1
29.634015 30.705891 -19.040909 46.728822 0.803160 1.990486 0.037455 0.003342 -725228.000000 0 0 1
30.023815 29.387891 -18.341209 45.841875 0.774695 1.982419 0.034723 0.001430 -292717.000000 0 0 1
30.390415 29.638791 -16.979909 45.720373 0.772878 1.951298 0.026376 0.005909 248222.000000 0 0 1
30.942315 28.440991 -16.352609 45.096836 0.743301 1.941864 0.029398 0.002024 -44704.200000 0 0 1
31.507215 28.649591 -14.915509 45.121791 0.737931 1.907694 0.030899 0.005376 313879.000000 0 0 1
32.738915 29.340791 -14.803809 46.388267 0.730715 1.895606 0.001470 0.014295 14083.000000 0 0 1
32.571915 30.766791 -14.916509 47.223165 0.756906 1.892173 0.013425 0.004912 -328616.000000 0 0 1
33.903515 31.500691 -14.845209 48.601667 0.748677 1.881204 0.014914 0.003760 -221178.000000 0 0 1
34.659815 31.479891 -13.686209 48.781130 0.737356 1.855178 0.015597 0.001292 -206037.000000 0 0 1
-35.372927 31.974991 -13.919409 49.672869 -0.734987 1.854821 0.025059 -0.005842 -38033.800000 0 0 1
-34.535127 32.255491 -12.672709 48.925343 -0.751280 1.832805 0.014197 -0.000126 -368230.000000 0 0 1
-34.907927 33.428791 -11.940009 49.785653 -0.763757 1.812985 0.029719 -0.005248 499864.000000 0 0 1
-34.092327 33.495191 -10.769909 48.991892 -0.776563 1.792437 0.024198 -0.005884 13642.000000 0 0 1
-34.535927 -34.155648 -9.864509 49.564575 0.779862 1.771158 0.021639 -0.006934 77594.400000 0 0 1
-33.619927 -33.486848 -9.011809 48.299909 0.783415 1.758476 0.014258 -0.001698 -288620.000000 0 0 1
-33.487927 -34.100548 -7.781809 48.423601 0.794462 1.732199 0.013487 -0.001406 -31581.200000 0 0 1
-33.136127 -32.971548 -6.768809 47.232856 0.782909 1.714599 0.006329 -0.002440 -1089540.000000 0 0 1
-34.232227 -32.200948 -6.447609 47.437518 0.754831 1.707136 0.013760 -0.001240 -976163.000000 0 0 1
-33.998127 -31.183348 -5.504109 46.460403 0.742241 1.689544 0.031881 -0.007130 234357.000000 0 0 1
-35.307027 -30.460448 -5.104209 46.909253 0.711838 1.679822 0.033238 -0.008526 541040.000000 0 0 1
35.153815 -31.239948 -4.279209 47.223264 -0.726517 1.661537 0.023600 -0.006792 1019770.000000 0 0 1
33.868215 -30.687548 -3.937909 45.872527 -0.736168 1.656747 0.022664 -0.001863 724847.000000 0 0 1
33.951015 -29.719948 -2.754409 45.205459 -0.719044 1.631765 0.019330 -0.004668 -216188.000000 0 0 1
34.424315 -28.394248 -3.017409 44.725513 -0.689700 1.638313 0.045954 -0.012954 392875.000000 0 0 1
33.660415 -27.461548 -2.253809 43.499883 -0.684326 1.622631 0.040744 -0.009081 7346.200000 0 0 1
33.907815 -25.975848 -2.576809 42.791641 -0.653708 1.631050 0.069230 -0.023028 -218768.000000 0 0 1
33.357315 -25.688948 -3.855009 42.278761 -0.656251 1.662104 0.061194 -0.024392 418483.000000 0 0 1
33.454315 -24.337648 -4.139809 41.577041 -0.628938 1.670531 0.065377 -0.031481 -63177.600000 0 0 1
33.028215 -23.931448 -5.572509 41.165884 -0.627030 1.706580 0.072572 -0.039135 -81679.400000 0 0 1
34.139115 -24.125748 -6.410109 42.292084 -0.615201 1.722950 0.069555 -0.042236 328713.000000 0 0 1
33.744715 -23.724348 -7.730409 41.967960 -0.612773 1.756052 0.049279 -0.040649 -290538.000000 0 0 1
34.963415 -23.480248 -8.617009 42.988548 -0.591387 1.772612 0.038439 -0.037950 -291179.000000 0 0 1
35.520015 -24.705148 -9.023709 44.197773 -0.607718 1.776409 0.035691 -0.020671 -478325.000000 0 0 1
-34.629227 -24.531348 -9.754909 43.544559 0.616341 1.796735 0.039877 -0.018386 -56885.400000 0 0 1
-34.082927 -25.879748 -10.317709 44.021158 0.649437 1.807378 0.030285 -0.011870 -67040.500000 0 0 1
-33.476627 -26.697848 -9.344809 43.826762 0.673219 1.785667 0.022541 -0.007773 366909.000000 0 0 1
-34.379327 -27.661448 -8.796709 44.994176 0.677537 1.767571 0.019575 -0.000827 359418.000000 0 0 1
-33.468027 -28.803448 -8.304409 44.930064 0.710631 1.756695 0.013302 -0.005262 123337.000000 0 0 1
-32.820627 -29.357148 -9.416409 45.030039 0.729753 1.781465 0.000617 -0.002000 244128.000000 0 0 1
-32.019227 -30.501148 -9.058709 45.139906 0.761122 1.772849 -0.007109 -0.001612 210425.000000 0 0 1
-31.564327 -31.364048 -10.286609 45.670828 0.782216 1.797979 -0.010430 0.008112 -393751.000000 0 0 1
-30.504227 -30.726948 -10.937709 44.657437 0.789036 1.818238 -0.017013 0.013605 -317782.000000 0 0 1
-30.275127 -31.341848 -12.183809 45.247541 0.802709 1.843431 -0.021465 0.012625 -440098.000000 0 0 1
-30.598527 -30.544648 -13.480809 45.287720 0.784517 1.873048 -0.017802 0.011434 -1092870.000000 0 0 1
-29.736127 -29.519548 -13.840509 44.127097 0.781743 1.889832 -0.018185 0.019307 -518477.000000 0 0 1
-30.092327 -28.960948 -15.104809 44.412159 0.766242 1.917825 -0.020522 0.022707 -161378.000000 0 0 1
-29.165827 -27.836748 -15.611409 43.234779 0.762086 1.940227 -0.020108 0.022203 371807.000000 0 0 1
-27.891127 -28.401648 -15.890809 42.861246 0.794467 1.950613 -0.008642 0.015847 44472.000000 0 0 1
-26.978327 -27.510048 -16.511609 41.919758 0.795156 1.975652 0.020733 0.018358 174502.000000 0 0 1
-25.716427 -28.249048 -16.998809 41.812711 0.832294 1.989467 0.033482 0.011197 -260195.000000 0 0 1
-25.844927 -29.066448 -18.192009 42.939118 0.843999 2.008289 0.018488 0.014320 243063.000000 0 0 1
-26.253127 -28.375348 -19.418409 43.260394 0.824227 2.036300 0.015599 0.016319 113109.000000 0 0 1
-24.993227 -27.823648 -20.124309 42.471221 0.838936 2.064436 0.027786 0.011748 252058.000000 0 0 1
-24.598327 -26.641648 -19.478609 41.161527 0.825255 2.063743 0.031128 0.014863 -246860.000000 0 0 1
-23.245527 -26.294448 -19.650409 40.223017 0.846865 2.081208 0.055238 0.002012 55555.400000 0 0 1
-22.786727 -25.193348 -18.665909 38.760236 0.835515 2.073246 0.051839 0.000263 -91937.500000 0 0 1
-22.603227 -25.611148 -17.307909 38.293609 0.847704 2.039779 0.052593 0.000814 268278.000000 0 0 1
-22.252927 -24.454248 -16.509409 36.956239 0.832494 2.033902 0.060456 -0.006994 25615.100000 0 0 1
-22.556527 -24.661348 -15.000009 36.633035 0.829945 1.992666 0.047658 0.001676 -9734.730000 0 0 1
-23.936027 -24.579248 -14.713209 37.330301 0.798656 1.975924 0.018440 0.010814 30330.400000 0 0 1
-24.215827 -24.395848 -13.318109 36.863745 0.789101 1.940436 0.012446 0.013310 -1112830.000000 0 0 1
-25.684327 -24.261048 -13.038209 37.660032 0.756909 1.924323 -0.012415 0.027329 -1276610.000000 0 0 1
-26.387627 -25.483048 -13.261909 39.007318 0.767961 1.917697 0.000436 0.019860 1193250.000000 0 0 1
-27.694627 -25.703548 -12.676809 39.854313 0.748128 1.894499 -0.012793 0.019849 1476220.000000 0 0 1
-28.872927 -24.825848 -13.253809 40.319128 0.710174 1.905747 -0.004997 0.020956 -628622.000000 0 0 1
-29.015027 -23.462948 -12.842209 39.462692 0.679992 1.902259 0.000924 0.021289 95590.400000 0 0 1
-29.565027 -23.221748 -11.576509 39.336446 0.665804 1.869514 0.004465 0.015103 -20380.100000 0 0 1
-30.962427 -23.849048 -11.184209 40.651390 0.656340 1.849516 0.009410 0.006787 448595.000000 0 0 1
-32.126227 -23.155848 -11.596909 41.264707 0.624535 1.855671 0.029038 -0.001217 202906.000000 0 0 1
-32.345827 -23.199748 -13.003109 41.875550 0.622204 1.886534 0.024144 0.009125 -1242930.000000 0 0 1
-33.775527 -22.709848 -13.286209 42.814095 0.591945 1.886329 0.003405 0.003883 -256709.000000 0 0 1
-34.661627 -23.792648 -13.158109 44.052858 0.601558 1.874115 0.007774 0.008398 -478576.000000 0 0 1
35.344315 -23.354248 -13.318209 44.407389 -0.583905 1.875394 0.015776 0.001591 -123665.000000 0 0 1
34.276415 -24.466948 -13.273309 44.155236 -0.619936 1.876124 0.016110 0.007056 -135708.000000 0 0 1
34.275515 -25.342448 -14.384509 44.988495 -0.636666 1.896249 -0.001741 0.015710 -131163.000000 0 0 1
33.492015 -26.461848 -14.081409 44.946975 -0.668672 1.889451 0.006882 0.000417 49839.300000 0 0 1
33.649515 -27.594348 -15.118809 46.068604 -0.686849 1.905173 0.007261 0.002235 1.408290 0 0 1
32.865215 -27.293748 -16.222409 45.697238 -0.693049 1.933708 0.012757 -0.013031 -208763.000000 0 0 1
32.461215 -28.462948 -16.912009 46.366862 -0.719865 1.944154 0.003166 -0.005130 -380996.000000 0 0 1
31.507515 -28.387448 -18.075409 46.100880 -0.733353 1.973692 0.010141 -0.003357 -271152.000000 0 0 1
30.154815 -28.212048 -17.712709 44.932979 -0.752125 1.975997 0.011040 -0.010873 4022.400000 0 0 1
29.352215 -28.030148 -18.879809 44.762584 -0.762363 2.006200 0.026185 -0.012169 673257.000000 0 0 1
27.822615 -27.969748 -18.575909 43.605838 -0.788035 2.010859 0.024612 -0.010951 423535.000000 0 0 1
27.467215 -26.832348 -17.798909 42.322854 -0.773707 2.004849 0.017721 -0.008199 -460979.000000 0 0 1
26.239015 -27.048048 -17.161709 41.407814 -0.800580 1.998141 0.024157 -0.009242 -210180.000000 0 0 1
26.096415 -26.083548 -15.937109 40.191614 -0.785152 1.978528 0.027252 -0.006716 -69575.200000 0 0 1
25.793015 -24.758448 -16.301409 39.293718 -0.764935 1.998586 0.033592 -0.010277 81708.800000 0 0 1
25.429815 -23.971448 -15.191309 38.106190 -0.755886 1.980849 0.046228 -0.007629 -94303.400000 0 0 1
25.257015 -22.484548 -15.575809 37.230062 -0.727391 2.002442 0.044009 -0.013061 917949.000000 0 0 1
23.971315 -22.170448 -16.164209 36.433973 -0.746389 2.030472 0.042425 -0.007762 845509.000000 0 0 1
23.725815 -20.778348 -16.162009 35.438180 -0.719266 2.044362 0.043177 -0.004164 51199.700000 0 0 1
22.228115 -20.388548 -16.204209 34.239719 -0.742260 2.063781 0.049317 -0.008317 17360.100000 0 0 1
21.695615 -20.561948 -14.894109 33.396525 -0.758577 2.033063 0.053846 -0.018122 499416.000000 0 0 1
20.308215 -20.261048 -14.762809 32.262582 -0.784236 2.046071 0.041989 -0.018007 518811.000000 0 0 1
20.053915 -18.868848 -14.175409 30.969907 -0.754961 2.046220 0.019728 -0.009144 -288915.000000 0 0 1
20.251115 -18.907448 -12.794909 30.517355 -0.751098 2.003434 0.040118 -0.019319 184344.000000 0 0 1
19.889215 -17.760648 -12.075409 29.271778 -0.728922 1.996023 0.038384 -0.020759 -214141.000000 0 0 1
18.918015 -18.022448 -10.908409 28.314189 -0.761159 1.966289 0.044739 -0.011486 -517495.000000 0 0 1
19.538715 -18.516848 -9.765109 28.635509 -0.758553 1.918792 0.057494 -0.023490 147179.000000 0 0 1
18.696815 -18.744848 -8.609109 27.839845 -0.786681 1.885187 0.053372 -0.034211 81442.300000 0 0 1
19.362715 -19.492048 -7.415009 28.457636 -0.788727 1.834402 0.043185 -0.030015 -303899.000000 0 0 1
20.302215 -18.673248 -6.773509 28.403355 -0.743628 1.811592 0.047515 -0.031363 -82809.400000 0 0 1
20.942415 -19.380948 -5.735509 29.105016 -0.746694 1.769157 0.043920 -0.019959 674140.000000 0 0 1
22.343515 -18.806648 -5.284809 29.679149 -0.699659 1.749816 0.038631 -0.022796 290390.000000 0 0 1
23.230715 -18.699948 -6.342409 30.489020 -0.677762 1.780349 0.029985 -0.036101 -142296.000000 0 0 1
24.302915 -17.836448 -6.042409 30.745427 -0.633132 1.768614 0.029062 -0.034914 -86083.900000 0 0 1
25.465015 -17.779548 -7.070509 31.852338 -0.609514 1.794639 0.022799 -0.045948 74375.600000 0 0 1
26.295915 -18.918948 -7.108409 33.165211 -0.623670 1.786806 0.033857 -0.051182 234472.000000 0 0 1
25.784915 -19.977448 -7.933109 33.569249 -0.659168 1.809374 0.041491 -0.052314 -684429.000000 0 0 1
26.622715 -21.284348 -8.039709 35.020413 -0.674424 1.802434 0.041330 -0.058051 -305710.000000 0 0 1
27.872715 -20.986948 -8.614509 35.938141 -0.645391 1.812857 0.047570 -0.048067 83993.200000 0 0 1
28.783615 -22.059548 -8.312909 37.205169 -0.653910 1.796133 0.055828 -0.051091 282659.000000 0 0 1
-30.008605 30.148191 3.707591 42.698665 -0.787719 1.483855 0.032106 -0.007770 137744.000000 0 0 1
-29.146055 30.967691 2.954791 42.628877 -0.815692 1.501426 0.022883 -0.003325 180529.000000 0 0 1
-28.067765 31.389791 3.813691 42.280760 -0.841212 1.480474 0.026929 -0.003953 543883.000000 0 0 1
-27.275925 32.564791 3.137691 42.594445 -0.873551 1.497065 0.023585 -0.009861 -474845.000000 0 0 1
-26.573325 32.072691 2.025391 41.700135 -0.878897 1.522207 0.028921 -0.017473 154214.000000 0 0 1
-25.936005 32.954391 1.100291 41.950910 -0.904016 1.544565 0.021526 -0.021813 13385.000000 0 0 1
-24.826285 33.900891 1.650691 42.051630 -0.938707 1.531532 0.038325 -0.015703 -1854580.000000 0 0 1
-23.562485 33.442991 1.513991 40.937959 -0.957019 1.533805 0.024418 -0.015379 -1994740.000000 0 0 1
-22.738885 34.117191 2.454891 41.073910 -0.982914 1.510993 0.027541 -0.015120 -271293.000000 0 0 1
-21.275985 33.808491 2.136191 40.003061 -1.009104 1.517370 0.023367 -0.018568 -296708.000000 0 0 1
-20.782985 -34.319848 0.979391 40.134071 1.026293 1.546391 0.029464 -0.018043 21033.300000 0 0 1
-19.444185 34.161291 0.695791 39.313538 -1.053341 1.553097 0.026719 -0.013592 -200208.000000 0 0 1
-18.842185 -33.959448 -0.547109 38.840332 1.064242 1.584883 0.029293 -0.010432 -96955.100000 0 0 1
-18.597885 -32.566548 -0.385809 37.504803 1.051918 1.581083 0.026752 -0.005171 116602.000000 0 0 1
-17.547985 -32.213448 0.483891 36.686130 1.072000 1.557606 0.030517 0.001395 -511231.000000 0 0 1
-17.449985 -30.714848 0.590491 35.330618 1.054141 1.554082 0.028642 -0.001004 -241224.000000 0 0 1
-16.736085 -30.172348 -0.501809 34.506796 1.064365 1.585339 0.031239 0.002597 119299.000000 0 0 1
-16.893685 -28.750448 -0.536709 33.350756 1.039546 1.586890 0.011416 0.005385 -33268.300000 0 0 1
-16.130585 -28.071848 -1.710409 32.421442 1.049249 1.623576 0.018934 0.005870 -109407.000000 0 0 1
-16.587185 -28.387248 -2.984609 33.013307 1.041987 1.661326 0.011571 0.004127 -211188.000000 0 0 1
-15.616185 -28.102248 -3.967109 32.393511 1.063594 1.693571 0.018959 0.004956 -106897.000000 0 0 1
-16.090185 -28.146848 -5.454109 32.876837 1.051482 1.737462 0.038003 0.004527 219176.000000 0 0 1
-16.990585 -27.063448 -5.751209 32.468240 1.010182 1.748869 0.024213 0.009719 -152892.000000 0 0 1
-17.444685 -27.080448 -7.057809 32.976967 0.998523 1.786487 0.043922 0.001238 -465123.000000 0 0 1
-18.183985 -25.840848 -7.319709 32.434317 0.957597 1.798435 0.027448 0.004904 -477620.000000 0 0 1
-17.345585 -24.711248 -7.180409 31.033424 0.958776 1.804289 0.038982 0.005510 -56189.500000 0 0 1
-17.955285 -23.499148 -7.503409 30.510709 0.918343 1.819272 0.024412 0.014361 73089.300000 0 0 1
-17.038685 -22.339548 -7.083209 28.974887 0.919208 1.817759 0.035157 0.010691 243998.000000 0 0 1
-15.844285 -22.128948 -7.781509 28.306953 0.949414 1.849279 0.049626 0.007661 -951705.000000 0 0 1
-14.961885 -21.229448 -7.239809 26.962239 0.956876 1.842649 0.068840 -0.002099 -566351.000000 0 0 1
-13.768185 -21.052148 -8.154109 26.443248 0.991612 1.884268 0.052147 -0.002937 -317672.000000 0 0 1
-14.084085 -20.168848 -9.208909 26.266859 0.961206 1.928998 0.052439 0.007033 74223.000000 0 0 1
-13.012985 -20.272548 -10.130609 26.133183 1.000135 1.968881 0.038861 0.008794 546162.000000 0 0 1
-13.314885 -19.360648 -11.372309 26.104603 0.968353 2.021550 0.044492 0.008541 50766.100000 0 0 1
-14.350385 -19.855748 -12.199309 27.368000 0.944976 2.032809 0.044679 0.015203 -251599.000000 0 0 1
-14.591985 -18.962648 -13.260209 27.355826 0.914924 2.076852 0.035607 0.010722 525060.000000 0 0 1
-15.847285 -19.383948 -14.087509 28.728589 0.885447 2.083305 0.043216 0.013801 654791.000000 0 0 1
-17.122985 -19.205148 -13.487709 29.050863 0.842651 2.053617 0.055673 0.008339 -225890.000000 0 0 1
-18.089985 -19.599648 -14.408309 30.314900 0.825432 2.066088 0.040990 0.013360 -632449.000000 0 0 1
-19.491985 -19.623548 -13.783609 30.903220 0.788762 2.033116 0.034860 0.007044 -55926.700000 0 0 1
-20.477485 -19.972548 -14.724309 32.171965 0.772916 2.046175 0.042562 -0.001423 1242550.000000 0 0 1
-21.873485 -19.884348 -14.295509 32.835929 0.737799 2.021236 0.032352 -0.002578 1664010.000000 0 0 1
-22.740485 -20.518048 -15.405409 34.284787 0.734068 2.036819 0.036542 -0.010736 -343661.000000 0 0 1
-22.885385 -19.818348 -16.577509 34.515527 0.713700 2.071783 0.035840 -0.028505 177975.000000 0 0 1
-23.849585 -20.438548 -17.410009 35.911633 0.708531 2.076932 0.049086 -0.028156 147205.000000 0 0 1
-24.024785 -19.823148 -18.819909 36.391434 0.689867 2.114317 0.045235 -0.025895 -584853.000000 0 0 1
-22.894885 -20.052548 -19.578809 36.188537 0.719313 2.142449 0.031540 -0.027110 -498277.000000 0 0 1
-23.141885 -19.691748 -20.936909 36.900758 0.705024 2.174122 0.029815 -0.025913 -386154.000000 0 0 1
-22.133685 -18.769348 -21.622909 36.190312 0.703331 2.211148 0.020849 -0.020562 -214519.000000 0 0 1
-20.915985 -19.404848 -21.873009 35.950732 0.747938 2.224860 0.010881 -0.014240 381225.000000 0 0 1
-19.858885 -18.640648 -22.508209 35.333675 0.753766 2.261421 0.017897 -0.015302 1546250.000000 0 0 1
-18.572185 -19.464848 -22.870409 35.310933 0.808862 2.275340 0.028834 -0.011719 192570.000000 0 0 1
-18.617085 -20.378248 -23.917209 36.522620 0.830531 2.284794 0.010576 -0.007668 70579.000000 0 0 1
-17.312485 -20.899048 -24.110009 36.301307 0.878985 2.297171 0.017267 -0.004822 156371.000000 0 0 1
-17.272485 -22.413848 -24.315609 37.309090 0.914231 2.280665 0.012283 0.001789 -285041.000000 0 0 1
-17.499185 -22.793448 -25.674499 38.534954 0.916045 2.299986 0.018485 0.003223 313822.000000 0 0 1
-17.451785 -24.201448 -25.879739 39.497288 0.946046 2.285281 0.019569 -0.002232 -159556.000000 0 0 1
-17.408585 -24.518948 -27.407499 40.686714 0.953387 2.309896 0.021214 0.007821 219470.000000 0 0 1
-16.160185 -24.233648 -28.015739 40.414143 0.982667 2.336738 0.016140 0.005316 211120.000000 0 0 1
-16.235385 -24.351348 -29.431199 41.506281 0.982761 2.358986 0.021309 0.006252 -142468.000000 0 0 1
-14.938485 -24.069048 -30.245299 41.439782 1.015330 2.388916 0.008095 -0.001424 410678.000000 0 0 1
-13.987085 -25.106248 -30.004679 41.548081 1.062506 2.377727 0.015460 0.003401 184411.000000 0 0 1
-12.767185 -24.893948 -30.681709 41.522006 1.096911 2.402272 0.024042 0.003649 336484.000000 0 0 1
-11.800785 -26.127948 -30.524649 41.876991 1.146568 2.387528 0.023746 0.003161 -671362.000000 0 0 1
-12.071585 -27.274448 -31.339079 43.263802 1.154116 2.380919 0.025118 0.011127 583312.000000 0 0 1
-11.162685 -28.372748 -31.139799 43.581022 1.195967 2.366744 0.023090 0.006532 283735.000000 0 0 1
-9.769985 -28.215848 -31.780639 43.607290 1.237458 2.387352 0.032703 0.000742 -71325.200000 0 0 1
-9.035385 -27.127248 -31.166319 42.294979 1.249279 2.399240 0.031684 -0.006887 409528.000000 0 0 1
-7.923485 -26.723048 -31.975599 42.418650 1.282550 2.424637 0.037205 -0.007059 334852.000000 0 0 1
-7.180185 -25.425748 -31.574209 41.169824 1.295565 2.444834 0.051124 -0.009419 -160764.000000 0 0 1
-7.973285 -24.224748 -31.647599 40.644584 1.252826 2.463296 0.047963 -0.011182 226907.000000 0 0 1
-8.615185 -24.009148 -30.406479 39.688973 1.226278 2.443577 0.045965 -0.007852 -466118.000000 0 0 1
-9.064885 -22.548048 -30.206249 38.768597 1.188545 2.464093 0.047464 -0.018242 -311873.000000 0 0 1
-10.109385 -22.119548 -31.058989 39.447876 1.142108 2.477283 0.045578 -0.019196 39957.000000 0 0 1
-10.269085 -20.742648 -30.975699 38.667887 1.111100 2.499878 0.041217 -0.018394 789341.000000 0 0 1
-11.296585 -20.288348 -32.115919 39.631581 1.062746 2.515566 0.028758 -0.014853 783338.000000 0 0 1
-11.630885 -18.894948 -32.060609 38.989476 1.019018 2.536218 0.030647 -0.012478 13209.100000 0 0 1
-12.127985 -18.547048 -33.339059 40.032161 0.991682 2.554955 0.038555 -0.016860 -397473.000000 0 0 1
-13.010085 -17.288348 -33.313029 39.722880 0.925675 2.565570 0.048141 -0.019302 -406014.000000 0 0 1
-12.393585 -16.021948 -33.342359 39.013032 0.912400 2.595666 0.055534 -0.021193 -393963.000000 0 0 1
-11.598485 -15.672848 -32.229889 37.668671 0.933702 2.597535 0.040529 -0.013716 91285.400000 0 0 1
-11.158685 -14.193448 -32.216549 36.930695 0.904536 2.630788 0.038000 -0.017950 -42861.400000 0 0 1
-10.294685 -13.739748 -33.265579 37.434743 0.927767 2.665142 0.032725 -0.019677 27081.000000 0 0 1
-10.891985 -13.652948 34.282844 38.475339 0.897413 0.471178 0.041551 -0.021098 212052.000000 0 0 1
-11.579785 -12.305348 33.749283 37.742908 0.815766 0.464181 0.042973 -0.020564 207150.000000 0 0 1
-12.626185 -11.860348 -34.287853 38.415430 0.754133 2.673774 0.039179 -0.014948 -612529.000000 0 0 1
-13.561885 -11.162748 33.744513 38.042395 0.688667 0.479937 0.028775 -0.023787 44156.300000 0 0 1
-14.543285 -10.327348 -34.319081 38.677650 0.617480 2.662276 0.039985 -0.019467 -378032.000000 0 0 1
-13.901885 -9.217148 -33.736119 37.634346 0.585470 2.682418 0.031733 -0.018908 -516370.000000 0 0 1
-14.616985 -8.574148 -32.735989 36.862139 0.530499 2.663916 0.036382 -0.019704 -273786.000000 0 0 1
-13.857585 -7.370648 -32.088979 35.722006 0.488829 2.686675 0.040267 -0.029038 -776357.000000 0 0 1
-13.806785 -6.089648 -32.768929 36.076500 0.415396 2.710041 0.043148 -0.034456 583555.000000 0 0 1
-15.061085 -5.381048 -32.838839 36.526447 0.343147 2.688375 0.045107 -0.023494 726679.000000 0 0 1
-15.662585 -4.858248 -31.515119 35.526355 0.300771 2.661801 0.052728 -0.025902 -338094.000000 0 0 1
-16.084985 -5.954948 -30.732289 35.194627 0.354571 2.632546 0.053368 -0.034246 -358963.000000 0 0 1
-16.438585 -5.665248 -29.370429 34.131279 0.331884 2.607073 0.062110 -0.039291 559444.000000 0 0 1
-15.294585 -5.125948 -28.412649 32.672287 0.323383 2.625239 0.051546 -0.037085 486590.000000 0 0 1
-14.946885 -3.823448 -28.794619 32.667388 0.250432 2.649717 0.046732 -0.027454 -256001.000000 0 0 1
-13.835285 -3.255448 -28.144989 31.530199 0.231097 2.673956 0.048102 -0.023165 126372.000000 0 0 1
-13.457285 -1.881448 -28.830049 31.871776 0.138908 2.701151 0.033144 -0.006692 97766.800000 0 0 1
-13.271985 -2.021448 -30.233489 33.080141 0.151148 2.723701 0.035893 -0.012947 269119.000000 0 0 1
-13.168285 -0.783448 -30.918499 33.615043 0.059425 2.738320 0.036504 -0.019220 -113014.000000 0 0 1
-13.477185 -0.858448 -32.400389 35.102089 0.063610 2.746688 0.032352 -0.024319 780158.000000 0 0 1
-14.855685 -1.156448 -32.725719 35.958329 0.077689 2.714325 0.013505 -0.024552 1242470.000000 0 0 1
-14.884085 -1.301448 -34.139756 37.265973 0.087217 2.729066 0.017551 -0.014413 -140458.000000 0 0 1
-16.284185 -1.704448 34.219292 37.934677 0.104289 0.446281 0.009249 -0.017034 -216104.000000 0 0 1
-16.280885 -1.950448 32.816399 36.684976 0.119232 0.463382 0.016737 -0.014917 397918.000000 0 0 1
-17.573585 -1.797448 32.251803 36.772823 0.101927 0.501098 0.017403 -0.008316 133271.000000 0 0 1
-17.535885 -1.855448 30.649423 35.360105 0.105416 0.522088 0.025525 0.001437 -95149.500000 0 0 1
-16.788985 -0.791448 30.112183 34.485359 0.047106 0.509092 0.013742 0.016881 -28028.000000 0 0 1
-16.863585 -0.671448 28.657343 33.257700 0.039795 0.532234 0.015878 0.012961 -40925.500000 0 0 1
-16.138585 0.588552 28.099793 32.409854 -0.036452 0.521618 0.012565 0.017370 47958.000000 0 0 1
-16.599885 1.843552 28.604933 33.123965 -0.110605 0.528485 0.012678 0.014252 236809.000000 0 0 1
-17.889985 2.352552 28.272293 33.539657 -0.130751 0.568051 0.018061 0.010166 348173.000000 0 0 1
-18.096785 2.915552 26.853403 32.513064 -0.159736 0.598953 0.020692 0.011172 -381731.000000 0 0 1
-17.596085 4.232552 26.770953 32.314403 -0.236055 0.594457 0.019541 0.017587 74490.100000 0 0 1
-18.051285 4.815552 25.609413 31.699849 -0.260699 0.630264 0.021184 0.021385 -615760.000000 0 0 1
-18.020485 6.359552 25.527863 31.888141 -0.339262 0.642594 0.017028 0.017342 450167.000000 0 0 1
-16.796785 7.091552 25.447443 31.304863 -0.399494 0.621697 0.012774 0.022107 654453.000000 0 0 1
-16.007285 6.828552 24.265923 29.861301 -0.403217 0.622161 -0.002284 0.020888 196277.000000 0 0 1
-14.928785 7.880552 23.975653 29.322409 -0.485699 0.613468 -0.008483 0.023987 216490.000000 0 0 1
-13.819985 7.923552 24.854693 29.521694 -0.520586 0.569978 -0.004656 0.026205 371829.000000 0 0 1
-12.707185 8.572552 24.234673 28.675435 -0.593490 0.563975 -0.008597 0.022005 -299504.000000 0 0 1
-11.426485 8.457552 25.040583 28.794540 -0.637181 0.516345 -0.011530 0.042822 -940067.000000 0 0 1
-10.405385 9.265552 24.486573 28.172943 -0.727518 0.517311 -0.016739 0.032622 -942214.000000 0 0 1
-9.350085 9.291552 25.350893 28.573148 -0.782258 0.479495 -0.008117 0.016737 -1155900.000000 0 0 1
-9.309785 10.581552 26.227753 29.774760 -0.849247 0.493095 -0.000928 -0.005758 -1200150.000000 0 0 1
-10.330585 10.703552 27.163403 30.969944 -0.803128 0.501028 -0.012628 -0.001372 -385285.000000 0 0 1
-10.321585 11.945552 27.800683 31.970444 -0.858200 0.516456 0.006240 -0.010312 -790025.000000 0 0 1
-11.062185 13.128552 27.085283 32.067793 -0.870611 0.564931 0.014848 -0.021290 1462540.000000 0 0 1
-12.466585 12.868552 26.772483 32.214612 -0.801263 0.589774 0.020439 -0.021156 1370720.000000 0 0 1
-12.586985 12.018552 25.671093 31.014235 -0.762300 0.595765 0.010715 -0.003249 -724454.000000 0 0 1
-14.074585 11.852552 25.264093 31.254621 -0.699904 0.629484 0.010422 -0.005478 208908.000000 0 0 1
-14.651285 13.093552 24.876583 31.700877 -0.729312 0.668538 0.034178 -0.018754 149688.000000 0 0 1
-15.958885 12.967552 24.323153 31.850576 -0.682353 0.701826 0.034418 -0.005990 483538.000000 0 0 1
-16.085685 12.497552 22.827273 30.594484 -0.660519 0.728575 0.020275 0.006555 -277964.000000 0 0 1
-15.849985 11.135552 22.644173 29.799012 -0.612441 0.707642 0.011811 0.013446 -45909.600000 0 0 1
-15.772385 10.847552 21.275173 28.619407 -0.602461 0.732683 0.007556 0.022859 -112158.000000 0 0 1
-16.133485 9.364552 20.847973 27.975384 -0.525914 0.729923 0.002386 0.013261 -77803.300000 0 0 1
-17.514785 9.148552 20.861873 28.734673 -0.481354 0.758284 0.013758 0.015186 -587010.000000 0 0 1
-17.840085 7.771552 20.858373 28.526082 -0.410834 0.750712 0.010674 0.010797 228438.000000 0 0 1
-19.361585 7.578552 21.068073 29.600154 -0.373090 0.778802 0.026472 0.004550 203791.000000 0 0 1
-19.816485 7.929552 22.370373 30.919322 -0.380635 0.761926 0.022825 0.007066 -198553.000000 0 0 1
-21.213385 7.794552 22.471373 31.870446 -0.352122 0.788253 0.014514 0.009352 -264410.000000 0 0 1
-21.650985 8.662552 23.690973 33.242550 -0.380592 0.777499 0.019567 0.001280 -924544.000000 0 0 1
-21.371585 10.051552 23.771673 33.509264 -0.439626 0.782141 0.015330 0.006009 890720.000000 0 0 1
-20.013185 10.550552 23.773583 32.818058 -0.485154 0.760625 0.019409 0.011898 1115590.000000 0 0 1
-19.080185 9.952552 24.855263 32.876904 -0.480791 0.713601 0.023756 0.001517 -737623.000000 0 0 1
-19.246385 10.566552 26.090893 34.100001 -0.502087 0.699555 0.029695 0.003635 69248.800000 0 0 1
-18.627785 9.817552 27.120413 34.335047 -0.485043 0.660190 0.033327 -0.002369 98475.300000 0 0 1
-29.969625 -14.309709 20.922273 39.251595 0.445465 1.008619 -0.002390 0.005933 -57073.900000 0 0 1
-29.547535 -15.632309 21.112473 39.536849 0.486622 1.007478 0.007594 0.008378 99546.000000 0 0 1
-30.378175 -16.669709 20.574573 40.299203 0.501875 1.034977 0.003948 0.007172 147680.000000 0 0 1
-30.317185 -16.830609 19.033873 39.556155 0.506789 1.068789 0.003760 0.002595 64582.100000 0 0 1
-30.724765 -15.684709 18.308773 39.054225 0.472005 1.082860 0.011431 0.003825 61038.500000 0 0 1
-30.112385 -15.596409 17.015073 37.940960 0.477896 1.105753 0.010271 0.003251 -1251810.000000 0 0 1
-30.476405 -14.284009 16.261273 37.380117 0.438288 1.120731 0.002962 0.010092 -670090.000000 0 0 1
-31.724215 -14.224709 15.614273 38.112645 0.421511 1.148685 0.016114 0.010983 1250820.000000 0 0 1
-32.889695 -14.275009 16.524073 39.478512 0.409492 1.138939 0.019922 0.009171 344485.000000 0 0 1
-33.183825 -13.012509 17.272673 39.608545 0.373707 1.119553 0.004458 0.008914 -586353.000000 0 0 1
-34.387807 -13.218409 17.995173 41.000901 0.366980 1.116426 -0.003428 0.005395 386827.000000 0 0 1
-34.953932 -11.985309 18.459573 41.305942 0.330326 1.107501 0.002153 0.009189 902587.000000 0 0 1
35.203866 -12.136709 19.489773 42.029313 -0.331995 1.088609 0.017216 0.003584 389059.000000 0 0 1
-35.592409 -12.415909 20.735373 43.022437 0.335637 1.067899 0.005752 0.003819 535636.000000 0 0 1
34.808766 -12.223609 21.822773 42.863740 -0.337712 1.036635 0.012609 -0.004392 -436838.000000 0 0 1
35.560188 -12.385509 23.177973 44.217036 -0.335157 1.019037 -0.000072 -0.000196 1451320.000000 0 0 1
-34.626349 -11.469709 23.362273 43.316672 0.319867 1.001147 -0.006572 0.003902 1789590.000000 0 0 1
-33.420245 -12.006009 22.805473 42.203633 0.344886 0.999922 -0.004776 0.002135 278556.000000 0 0 1
-32.183405 -11.062109 22.820273 40.974464 0.331070 0.980101 0.007619 -0.003743 280112.000000 0 0 1
-32.368085 -9.884709 22.052273 40.394345 0.296389 0.993304 0.010947 0.002018 -823955.000000 0 0 1
-31.218185 -9.136109 21.908073 39.217435 0.284703 0.978062 0.022155 0.003387 -1070120.000000 0 0 1
-31.322355 -7.791809 21.111373 38.568021 0.243813 0.991566 0.017991 -0.004131 -70003.000000 0 0 1
-31.574275 -7.842009 19.715573 38.041238 0.243441 1.025971 0.019861 0.001702 -85565.200000 0 0 1
-32.851905 -8.342709 19.421773 39.064738 0.248692 1.050464 0.010046 0.002414 -710117.000000 0 0 1
-33.055305 -8.364109 17.937473 38.527451 0.247832 1.086511 0.011956 0.000422 -495094.000000 0 0 1
-34.376075 -8.692309 17.619773 39.594535 0.247668 1.109616 -0.010123 0.002151 -321226.000000 0 0 1
-34.618006 -8.641609 16.208973 39.189470 0.244628 1.144386 -0.014061 0.005878 344155.000000 0 0 1
35.207586 -8.815509 15.884773 39.618346 -0.245343 1.158248 -0.004432 0.003571 266342.000000 0 0 1
34.726236 -10.100109 16.188473 39.623104 -0.283041 1.149919 -0.007071 0.011627 -293957.000000 0 0 1
33.343516 -10.065209 15.904273 38.288959 -0.293166 1.142441 0.001967 0.011800 21254.400000 0 0 1
32.653686 -11.418009 16.140973 38.172833 -0.336381 1.134220 0.010912 0.004876 -98626.100000 0 0 1
32.469516 -11.739909 17.487573 38.702844 -0.346942 1.101967 0.011715 -0.009063 460658.000000 0 0 1
31.399686 -12.669609 17.699873 38.206607 -0.383515 1.089118 0.034517 -0.015876 447116.000000 0 0 1
31.167776 -13.176309 19.141773 38.877408 -0.399967 1.055995 0.035299 -0.018846 -277520.000000 0 0 1
32.207826 -13.962109 19.638473 40.223801 -0.409049 1.060736 0.029455 -0.018727 -430608.000000 0 0 1
31.902256 -14.257809 20.957973 40.746481 -0.420291 1.030546 0.032704 -0.020563 -28091.200000 0 0 1
32.713516 -15.404809 21.639573 42.139689 -0.440098 1.031514 0.016890 -0.006673 124927.000000 0 0 1
32.707896 -15.271809 23.025773 42.816128 -0.436831 1.002991 0.014270 -0.008077 -261384.000000 0 0 1
33.318976 -16.402409 23.562473 43.981625 -0.457456 1.005419 0.008098 -0.004565 -66433.800000 0 0 1
33.866916 -16.084809 24.975413 45.049532 -0.443401 0.983156 0.015883 0.005353 -57069.600000 0 0 1
34.944846 -15.179909 24.997193 45.567879 -0.409802 0.990143 0.019599 0.003113 -65855.800000 0 0 1
35.305395 -14.960609 26.324483 46.510957 -0.400810 0.969169 0.015571 0.002614 -315635.000000 0 0 1
-34.928447 -13.858909 26.357543 45.899737 0.377727 0.959119 0.015156 -0.008320 220449.000000 0 0 1
-33.693555 -14.463709 25.984633 44.940579 0.405484 0.954276 -0.001730 -0.003875 821138.000000 0 0 1
-32.556245 -13.625609 26.331353 44.033016 0.396374 0.929804 0.018270 -0.009120 469222.000000 0 0 1
-31.238985 -14.352509 26.101143 43.164087 0.430678 0.921412 0.002690 -0.001863 -671808.000000 0 0 1
-30.775395 -14.473009 24.741003 42.056036 0.439589 0.941858 0.004372 0.000996 9896.480000 0 0 1
-29.593455 -15.158009 24.422613 41.255325 0.473366 0.937274 0.004894 -0.007472 -156486.000000 0 0 1
-29.502015 -16.690209 24.771133 41.982627 0.514841 0.939697 0.007275 -0.002312 -690786.000000 0 0 1
-29.334625 -16.798009 26.139833 42.731536 0.520054 0.912560 0.009376 -0.006974 161004.000000 0 0 1
-29.133785 -18.153609 26.472783 43.349039 0.557240 0.913866 0.009657 -0.013696 -272947.000000 0 0 1
-28.982165 -18.276009 27.990893 44.243287 0.562613 0.885815 0.013365 -0.017032 241916.000000 0 0 1
-27.830405 -17.541009 28.415553 43.470244 0.562389 0.858362 0.013031 -0.015872 313038.000000 0 0 1
-27.445955 -17.907909 29.713043 44.236168 0.578116 0.834307 0.016050 -0.015969 1014000.000000 0 0 1
-26.147085 -17.149909 30.233933 43.495748 0.580513 0.802236 0.013694 -0.013749 669747.000000 0 0 1
-26.352335 -15.832009 30.729963 43.467559 0.540994 0.785601 0.027249 -0.025846 348933.000000 0 0 1
-25.272185 -14.996709 30.298123 42.208540 0.535558 0.770131 0.018023 -0.022449 -477762.000000 0 0 1
-25.178955 -13.622609 31.023013 42.213536 0.495932 0.745267 0.032123 -0.016390 -259830.000000 0 0 1
-24.708085 -13.651209 32.354693 42.937992 0.504760 0.717394 0.036528 -0.018396 -4082.700000 0 0 1
-24.606985 -12.323409 32.847386 42.852315 0.464295 0.697383 0.036466 -0.010207 -155122.000000 0 0 1
-23.805885 -12.316209 34.180595 43.436416 0.477439 0.665009 0.038991 -0.010828 422789.000000 0 0 1
-22.419685 -12.609709 34.030502 42.658201 0.512343 0.647245 0.016873 -0.012347 275500.000000 0 0 1
-22.135485 -14.018509 34.240457 43.115046 0.564549 0.653164 0.017956 -0.014210 -384604.000000 0 0 1
-22.026385 -14.707709 -33.227079 42.491377 0.588739 2.468620 0.020955 -0.016090 -273813.000000 0 0 1
-20.866685 -14.411709 -32.469349 41.199206 0.604428 2.478523 0.009185 -0.013015 -29920.600000 0 0 1
-20.897885 -15.180109 -31.264519 40.554007 0.628222 2.451105 0.019458 -0.013075 -151313.000000 0 0 1
-19.584985 -15.210709 -30.452459 39.271995 0.660341 2.458183 0.027365 -0.013545 25456.400000 0 0 1
-19.292185 -14.101109 -29.657619 38.086797 0.631180 2.463364 0.019313 -0.009767 175467.000000 0 0 1
-19.770885 -14.248009 -28.313469 37.357010 0.624455 2.430909 0.022857 -0.010884 29470.900000 0 0 1
-19.483685 -12.995509 -27.390699 36.038142 0.588229 2.434183 0.034409 -0.012402 -547752.000000 0 0 1
-18.168885 -12.812709 -26.959269 34.943899 0.614208 2.451994 0.028064 -0.008297 -488178.000000 0 0 1
-18.068385 -11.613009 -26.243699 33.912539 0.571244 2.455716 0.029641 -0.016266 623945.000000 0 0 1
-16.766185 -11.677509 -25.382139 32.584079 0.608368 2.463824 0.048331 -0.017883 -435903.000000 0 0 1
-16.760385 -12.556309 -24.272309 32.058016 0.642967 2.429716 0.055269 -0.025862 20062.700000 0 0 1
-15.574685 -12.788309 -23.509109 30.964333 0.687473 2.432928 0.064324 -0.025905 299417.000000 0 0 1
-14.509685 -13.621909 -24.270209 31.386788 0.753851 2.454766 0.039587 -0.021408 -448238.000000 0 0 1
-13.983985 -12.935309 -25.359439 31.717113 0.746462 2.497343 0.041383 -0.029609 -238512.000000 0 0 1
-13.163085 -13.756109 -26.195309 32.383508 0.807424 2.513090 0.037428 -0.025172 780853.000000 0 0 1
-12.021985 -12.989009 -26.973619 32.261721 0.824043 2.560908 0.028955 -0.018651 564751.000000 0 0 1
-12.658785 -12.188509 -27.926139 32.995058 0.766474 2.579935 0.051373 -0.030078 -56529.200000 0 0 1
-11.764885 -11.620209 -28.820119 33.227113 0.779212 2.620684 0.047538 -0.031465 -79256.100000 0 0 1
-12.605585 -10.807309 -29.856809 34.163252 0.708742 2.634058 0.029139 -0.028653 434399.000000 0 0 1
-11.897685 -9.869209 -30.678079 34.352595 0.692476 2.674842 0.027902 -0.025835 -49663.900000 0 0 1
-11.330685 -10.382309 -31.865339 35.377629 0.741748 2.692221 0.039695 -0.024787 -78718.600000 0 0 1
-10.545585 -9.215709 -32.540749 35.426530 0.718202 2.735172 0.031234 -0.022758 -174665.000000 0 0 1
-9.291585 -8.968809 -31.939839 34.451799 0.767724 2.757364 0.012032 -0.016251 -336714.000000 0 0 1
-8.821885 -7.745409 -32.531219 34.584639 0.720513 2.795267 0.008904 -0.015732 -186712.000000 0 0 1
-7.298085 -7.579209 -32.333179 34.002073 0.804292 2.826985 0.012525 -0.014142 -377029.000000 0 0 1
-6.933385 -7.529609 -30.967129 32.614873 0.826599 2.822367 -0.000206 -0.003176 -127429.000000 0 0 1
-7.308985 -6.308709 -30.252829 31.756177 0.712076 2.832663 0.009571 -0.003351 -314963.000000 0 0 1
-6.549785 -4.993909 -30.658249 31.745347 0.651424 2.879137 0.012380 -0.008867 234413.000000 0 0 1
-5.171485 -4.996309 -30.336249 31.176841 0.768171 2.908852 0.016129 -0.012069 -44799.800000 0 0 1
-4.616685 -3.803509 -30.897089 31.470789 0.689122 2.950358 0.028452 -0.018671 -245977.000000 0 0 1
-3.165685 -3.621509 -30.405659 30.783778 0.852457 2.984696 0.022009 -0.012107 -787747.000000 0 0 1
-2.337185 -4.292009 -31.342729 31.721451 1.072152 2.986914 0.019202 -0.011242 387443.000000 0 0 1
-0.926885 -4.132409 -31.204269 31.490353 1.350152 3.006696 0.029268 -0.004764 782169.000000 0 0 1
-0.318285 -2.756709 -31.395169 31.517573 1.455847 3.053432 0.025304 -0.002349 -817269.000000 0 0 1
-0.124385 -2.039909 -30.155379 30.224553 1.509896 3.073924 0.014620 -0.012376 -75736.700000 0 0 1
0.784115 -0.998209 -30.397009 30.423501 -0.904946 3.099858 0.022208 0.001568 65028.200000 0 0 1
1.179115 -0.359709 -29.008499 29.034682 -0.296099 3.099122 0.024061 -0.006373 458483.000000 0 0 1
0.108315 0.415891 -28.440469 28.443716 1.316016 3.126483 0.031905 -0.009975 160460.000000 0 0 1
0.197415 1.758191 -28.929969 28.984019 1.458982 3.080513 0.037700 -0.013622 100641.000000 0 0 1
-0.969985 2.649691 -28.450599 28.590179 -1.219873 3.042739 0.016872 -0.004557 184018.000000 0 0 1
-2.238685 2.416891 -29.019609 29.206006 -0.823657 3.028553 0.010499 -0.017508 -274618.000000 0 0 1
-3.102085 3.419691 -28.570159 28.940823 -0.834059 2.981374 0.036474 -0.017325 144738.000000 0 0 1
-4.324685 3.751691 -29.475589 30.026462 -0.714570 2.949746 0.050742 -0.020536 150010.000000 0 0 1
-3.938985 4.230691 -30.757569 31.296045 -0.821089 2.955822 0.061118 -0.020545 911568.000000 0 0 1
-5.019385 4.850591 -31.493849 32.258100 -0.768298 2.923483 0.065163 -0.012823 590335.000000 0 0 1
-4.419485 5.593191 -32.795469 33.561264 -0.902088 2.927559 0.075256 -0.010782 172451.000000 0 0 1
-4.153085 4.808091 -33.947389 34.536808 -0.858362 2.956578 0.072302 -0.019185 239700.000000 0 0 1
-3.054385 3.926391 -33.797009 34.161142 -0.909670 2.995454 0.067651 -0.018486 -526102.000000 0 0 1
-2.572685 3.375591 33.667817 33.934278 -0.919568 0.125400 0.063024 -0.011096 -376332.000000 0 0 1
-3.511985 2.516991 33.075904 33.356928 -0.621837 0.129897 0.054155 -0.015866 -192054.000000 0 0 1
-3.113485 1.956491 31.861043 32.072538 -0.561035 0.114905 0.053374 -0.013077 -26415.500000 0 0 1
-2.674685 2.863591 30.723723 30.972588 -0.819494 0.126853 0.060357 -0.011236 221707.000000 0 0 1
-3.813585 3.561091 30.252383 30.699046 -0.751173 0.170793 0.056562 -0.007432 273120.000000 0 0 1
-3.573785 4.294991 29.059433 29.591713 -0.876797 0.189956 0.057034 -0.007390 180842.000000 0 0 1
-4.655985 5.387091 28.894553 29.758933 -0.858067 0.241610 0.047017 0.004521 296157.000000 0 0 1
-4.520885 6.193291 27.759273 28.798827 -0.940241 0.269505 0.044008 0.009793 -803206.000000 0 0 1
-5.747385 6.807491 27.565913 28.969879 -0.869636 0.312601 0.019517 0.012120 -677310.000000 0 0 1
-5.775785 7.460391 26.163503 27.812695 -0.911990 0.346098 0.026477 0.014095 -206578.000000 0 0 1
-5.185585 8.686191 26.228683 28.111990 -1.032592 0.368116 0.051079 0.001104 -289492.000000 0 0 1
-5.337185 9.425891 25.044193 27.286343 -1.055581 0.408220 0.049972 0.000426 46148.700000 0 0 1
-4.742385 10.816091 25.335173 27.952621 -1.157583 0.436206 0.067720 -0.008568 -446254.000000 0 0 1
-4.613985 11.626791 24.153073 27.200037 -1.193016 0.477864 0.076263 -0.015898 59058.800000 0 0 1
-4.051785 12.916991 24.334093 27.846251 -1.266838 0.507683 0.066174 -0.012924 1018380.000000 0 0 1
-2.442185 12.943591 24.406243 27.733833 -1.384310 0.494898 0.064763 -0.008842 1766560.000000 0 0 1
-1.828485 12.323191 25.537643 28.414355 -1.423493 0.453867 0.078509 -0.010721 227777.000000 0 0 1
-2.284785 12.941191 26.735443 29.790578 -1.396046 0.456851 0.082921 -0.014795 -831500.000000 0 0 1
-1.374985 12.587491 27.922453 30.659401 -1.461993 0.425747 0.066639 -0.009203 1021330.000000 0 0 1
-0.044985 13.141891 27.833363 30.779983 -1.567373 0.441134 0.072853 -0.012203 507460.000000 0 0 1
0.785515 12.562591 28.823853 31.452348 1.508350 0.411731 0.065887 -0.013509 299108.000000 0 0 1
2.287315 12.806691 28.520373 31.347325 1.394057 0.427950 0.054508 -0.003838 181362.000000 0 0 1
2.744915 14.086491 28.754603 32.137065 1.378346 0.462928 0.049374 -0.003925 516248.000000 0 0 1
4.176715 14.088691 28.686293 32.231034 1.282592 0.473405 0.039079 -0.000050 569500.000000 0 0 1
4.932615 15.381491 28.836633 33.052569 1.260472 0.510608 0.038893 0.000198 -369616.000000 0 0 1
5.009715 15.874791 30.156893 34.446254 1.265111 0.504375 0.041898 0.010876 675909.000000 0 0 1
3.905415 16.720691 30.539473 35.035598 1.341342 0.512197 0.023561 0.012181 482828.000000 0 0 1
3.901115 18.188591 30.026243 35.321647 1.359516 0.554658 0.035043 0.013178 -554713.000000 0 0 1
4.859015 18.995491 30.605433 36.347368 1.320368 0.569768 0.045856 0.013744 -592020.000000 0 0 1
5.356415 19.836591 29.617353 36.046762 1.307059 0.606519 0.031683 0.009551 34012.900000 0 0 1
6.458415 20.804391 30.101983 37.157276 1.269794 0.626434 0.038339 0.004557 10198.600000 0 0 1
5.919915 21.656791 31.031553 38.301687 1.303963 0.626324 0.028300 -0.007653 312131.000000 0 0 1
6.936215 22.512591 31.548733 39.373218 1.271922 0.641375 -0.001353 -0.007022 198477.000000 0 0 1
7.149315 23.885991 30.877863 39.687475 1.279973 0.679280 -0.007020 0.000635 -128573.000000 0 0 1
7.668015 23.786591 29.558633 38.708050 1.258948 0.701879 -0.015143 0.001973 213789.000000 0 0 1
7.902915 25.061491 29.027883 39.155489 1.265325 0.735718 -0.015871 0.004937 -306655.000000 0 0 1
8.404415 24.897791 27.582903 38.096597 1.245250 0.761176 -0.001540 -0.007435 128215.000000 0 0 1
7.477915 24.541491 26.548033 36.918857 1.275029 0.768302 0.004321 -0.011774 215682.000000 0 0 1
8.153415 24.688791 25.330213 36.299232 1.251825 0.798451 0.020735 -0.012785 -281239.000000 0 0 1
27.793776 2.406191 6.437791 28.630908 0.086358 1.344003 0.060589 -0.007319 4853.560000 0 0 1
28.345316 3.124991 7.520891 29.492140 0.109804 1.312935 0.056194 -0.005656 107513.000000 0 0 1
27.695446 2.760891 8.703991 29.161957 0.099359 1.267706 0.037647 0.006369 -540771.000000 0 0 1
28.313066 3.305391 9.996891 30.207502 0.116218 1.233496 0.030509 0.003637 -179528.000000 0 0 1
28.249526 4.689791 10.239091 30.411657 0.164513 1.227404 0.028569 -0.005134 185180.000000 0 0 1
29.163396 5.420691 9.428391 31.125265 0.183776 1.263044 0.047493 -0.016922 -255035.000000 0 0 1
28.858736 6.943991 9.315191 31.109781 0.236131 1.266702 0.049904 -0.019737 53054.000000 0 0 1
27.807466 7.247191 8.415791 29.943321 0.254949 1.285901 0.061240 -0.017758 139268.000000 0 0 1
27.740116 8.669091 8.177891 30.191805 0.302895 1.296505 0.075771 -0.022534 -40231.600000 0 0 1
27.064666 8.950191 6.832191 29.313494 0.319376 1.335560 0.074722 -0.019943 -285425.000000 0 0 1
25.677456 9.147091 6.940991 28.127893 0.342214 1.321455 0.059665 -0.016722 -108440.000000 0 0 1
25.188256 9.269191 5.574691 27.412467 0.352617 1.366005 0.068151 -0.027171 -120364.000000 0 0 1
23.707756 9.643391 5.435291 26.164768 0.386321 1.361539 0.028291 -0.025008 -442713.000000 0 0 1
23.537256 10.950891 5.837391 26.608261 0.435470 1.349615 0.012721 -0.007149 686994.000000 0 0 1
22.174056 11.333591 5.631791 25.531473 0.472504 1.348385 0.005859 -0.016304 415184.000000 0 0 1
21.813556 12.667991 6.272091 25.993237 0.526137 1.327094 -0.005676 -0.008922 -628243.000000 0 0 1
22.318656 13.793991 5.598491 26.827965 0.553584 1.360570 0.004987 0.003978 351095.000000 0 0 1
21.934056 14.986291 6.232491 27.286181 0.599391 1.340350 0.030584 -0.013014 -177624.000000 0 0 1
21.717256 16.113391 5.189091 27.535563 0.638337 1.381212 0.036358 -0.011606 -16105.500000 0 0 1
20.462756 16.148891 4.532191 26.458492 0.668111 1.398653 0.048712 -0.015157 285626.000000 0 0 1
20.290656 17.194991 3.601291 26.839295 0.703002 1.436211 0.042926 -0.015956 -259674.000000 0 0 1
18.896956 17.248991 2.930591 25.752883 0.739838 1.456753 0.035212 -0.013821 -480914.000000 0 0 1
18.014556 17.883391 3.780991 25.663901 0.781744 1.422931 0.031650 -0.011742 -447538.000000 0 0 1
16.851556 18.290291 3.096491 25.061882 0.826316 1.446926 0.035937 -0.007753 -49496.000000 0 0 1
16.002956 19.369491 3.830191 25.415392 0.880286 1.419516 0.026704 -0.008780 -830066.000000 0 0 1
14.664656 19.406991 3.496491 24.574558 0.923697 1.428031 0.021616 -0.004728 -1035660.000000 0 1 0
14.021356 20.419891 4.155491 25.116498 0.969085 1.404583 0.019718 -0.009079 1027610.000000 0 0 1
12.442856 20.476491 4.053091 24.301006 1.024760 1.403226 0.013468 -0.002396 1537790.000000 0 1 0
11.727456 19.360491 4.621091 23.102301 1.026166 1.369411 0.003110 -0.004956 -254406.000000 0 1 0
10.356356 19.399591 4.364791 22.419849 1.080441 1.374861 0.007619 0.000573 -628392.000000 0 1 0
9.537856 18.830291 5.484291 21.808897 1.101949 1.316597 0.009842 -0.004123 -951395.000000 0 1 0
9.564956 19.627291 6.623991 22.816577 1.117336 1.276241 0.014640 -0.002432 -137812.000000 0 1 0
9.034656 18.935091 7.692991 22.346024 1.125605 1.219339 0.017046 -0.003767 -334547.000000 0 1 0
8.060656 19.775991 8.595491 23.020566 1.183757 1.188143 0.000153 -0.006613 1427820.000000 0 1 0
6.686356 19.819891 8.154291 22.450565 1.245430 1.199084 0.005975 -0.014078 759047.000000 0 1 0
6.528856 20.995991 7.394391 23.197728 1.269318 1.246381 0.004968 -0.011192 -1571100.000000 0 1 0
5.196756 21.193391 6.741491 22.838865 1.330334 1.271156 0.010696 -0.006574 -102058.000000 0 1 0
4.006156 21.459991 7.507391 23.085524 1.386240 1.239574 0.012656 -0.003411 782166.000000 0 1 0
3.985156 22.671991 8.199891 24.436424 1.396799 1.228597 0.015790 -0.007491 -861573.000000 0 1 0
3.870556 24.004291 7.305391 25.388106 1.410928 1.278921 0.011266 -0.005968 -729438.000000 0 0 1
2.712856 24.052491 6.544391 25.074109 1.458482 1.306736 0.017672 -0.013429 -657908.000000 0 0 1
2.825956 24.974191 5.450791 25.717841 1.458121 1.357231 0.014570 -0.006087 -594824.000000 0 0 1
1.563556 25.317991 4.678091 25.793989 1.509118 1.388423 0.018011 -0.008017 -430442.000000 0 0 1
0.543056 25.954291 5.431791 26.522150 1.549876 1.364535 0.035243 -0.022080 429598.000000 0 0 1
-0.482544 26.438191 4.549291 26.831079 -1.552547 1.400420 0.039028 -0.012297 884548.000000 0 0 1
-1.930744 26.527291 5.149691 27.091405 -1.498141 1.379547 0.037112 -0.027973 463275.000000 0 0 1
-2.716344 27.108791 4.141691 27.557552 -1.470928 1.419932 0.050766 -0.022735 -590462.000000 0 0 1
-3.909044 27.616291 4.652691 28.276981 -1.430182 1.405505 0.039730 -0.020995 -837348.000000 0 0 1
-4.943944 28.086091 3.649491 28.750476 -1.396553 1.443516 0.051511 -0.021782 -383030.000000 0 0 1
-4.580844 29.296991 3.048391 29.809235 -1.415693 1.468354 0.043791 -0.021485 434014.000000 0 0 1
-5.584044 29.808991 2.163391 30.404567 -1.385615 1.499583 0.051692 -0.022945 -130201.000000 0 0 1
-5.082944 30.737391 1.074091 31.173341 -1.406913 1.536334 0.043588 -0.009566 179192.000000 0 0 1
-4.459044 31.991991 1.429891 32.332880 -1.432309 1.526558 0.035421 -0.004490 2481810.000000 0 0 1
-3.186944 32.005291 2.212391 32.239570 -1.471548 1.502119 0.037789 -0.015181 1391030.000000 0 0 1
-2.576344 33.416491 2.311491 33.595273 -1.493851 1.501938 0.034020 -0.012281 -193209.000000 0 0 1
-1.855444 33.715291 1.093691 33.784015 -1.515819 1.538418 0.021557 0.001156 376058.000000 0 0 1
-0.942744 -34.069648 1.111191 34.100798 1.543132 1.538205 0.016163 -0.001890 371994.000000 0 0 1
0.430856 -34.226348 1.801291 34.276423 -1.558209 1.518220 0.005657 0.001432 -238587.000000 0 0 1
0.250156 -34.216348 3.201691 34.366726 -1.563485 1.477499 -0.002223 0.000062 180241.000000 0 0 1
1.435856 34.415991 3.947191 34.671348 1.529100 1.456703 -0.005330 0.002836 337549.000000 0 0 1
1.038656 34.409491 5.436991 34.851868 1.540620 1.414154 -0.000437 0.001408 1060380.000000 0 0 1
0.109656 33.389891 5.936791 33.913748 1.567512 1.394834 0.007733 -0.010504 466036.000000 0 0 1
-0.258644 33.541691 7.324191 34.333011 -1.563085 1.355816 0.020479 -0.022616 -122666.000000 0 0 1
0.803056 33.488791 8.446391 34.546860 1.546821 1.323802 0.017045 -0.012040 -210627.000000 0 0 1
1.233256 32.122991 8.571591 33.269800 1.532423 1.310219 0.014429 -0.016028 -864243.000000 0 0 1
2.432656 31.997691 9.235791 33.392662 1.494916 1.290561 0.016805 -0.006726 -1016060.000000 0 0 1
2.783356 30.494691 9.322991 32.009239 1.479775 1.275253 0.009610 -0.003975 -153878.000000 0 0 1
2.096356 29.706291 10.248791 31.494382 1.500344 1.239344 0.024075 -0.020296 61803.800000 0 0 1
2.731756 28.437991 10.269991 30.358763 1.475030 1.225700 0.019980 -0.021939 229580.000000 0 0 1
2.239856 27.408191 11.307991 29.733761 1.489255 1.180667 0.017009 -0.031320 -354587.000000 0 0 1
2.835756 27.778791 12.520091 30.601559 1.469065 1.149293 0.012943 -0.014957 -195923.000000 0 0 1
2.580156 26.992491 13.636891 30.351549 1.475498 1.104817 0.020155 -0.009761 -329635.000000 0 0 1
1.156356 26.709591 14.175291 30.260176 1.527530 1.083264 0.018118 -0.017466 273995.000000 0 0 1
0.400356 27.740091 14.810091 31.448556 1.556365 1.080451 0.017934 -0.017619 167289.000000 0 0 1
0.058456 28.879691 14.085591 32.131664 1.568772 1.117011 0.023278 -0.023467 -482004.000000 0 0 1
-0.631044 29.992691 14.920791 33.505070 -1.549760 1.109254 0.004179 -0.015822 -109526.000000 0 0 1
-1.948944 29.679391 15.302591 33.448974 -1.505224 1.095625 -0.008454 -0.011066 -182741.000000 0 0 1
-2.552044 30.875291 15.751191 34.754805 -1.488327 1.100434 -0.009690 -0.000741 -514573.000000 0 0 1
-3.955444 30.648791 16.306091 34.941129 -1.442449 1.085271 -0.019838 0.010751 771080.000000 0 0 1
-4.951444 30.217891 15.286091 34.224294 -1.408382 1.107785 -0.007591 0.002149 1181380.000000 0 0 1
-6.181444 29.974691 15.936891 34.506185 -1.367425 1.090710 0.008078 0.001826 -171346.000000 0 0 1
-7.272644 29.214991 15.162391 33.709125 -1.326820 1.104254 0.004439 -0.001361 -480775.000000 0 0 1
-8.442144 29.160691 15.893391 34.266828 -1.288996 1.088502 0.010207 0.003686 -252030.000000 0 0 1
-9.496144 28.384291 15.277391 33.604216 -1.247945 1.098843 0.020582 0.000285 1016500.000000 0 0 1
-10.606444 27.998691 16.294591 34.087197 -1.208681 1.072390 0.027007 0.001108 151585.000000 0 0 1
-11.354344 29.086491 16.881191 35.495347 -1.198624 1.075163 0.032340 -0.009590 485900.000000 0 0 1
-10.692444 29.782391 17.885191 36.348304 -1.226109 1.056353 0.032116 -0.014812 -348127.000000 0 0 1
-11.633244 30.914191 18.357391 37.789064 -1.210880 1.063534 0.049149 -0.011077 251612.000000 0 0 1
-12.847544 30.508091 18.942291 38.139394 -1.172217 1.051051 0.049602 -0.004938 -173918.000000 0 0 1
-13.688444 31.599391 19.166691 39.411382 -1.162012 1.062919 0.078447 -0.018259 454222.000000 0 0 1
-14.828144 31.334591 20.214291 40.129141 -1.128802 1.042884 0.078479 -0.021193 621100.000000 0 0 1
-14.327044 31.013991 21.501591 40.366449 -1.138046 1.009056 0.075505 -0.020637 -342906.000000 0 0 1
-15.371644 30.631891 22.328791 40.904462 -1.105695 0.993361 0.062789 -0.012859 -406159.000000 0 0 1
-14.971244 30.542591 23.793091 41.510229 -1.115039 0.960407 0.056578 -0.005648 -32556.900000 0 0 1
-13.867744 29.628491 23.938391 40.536506 -1.133030 0.939070 0.038910 -0.005237 797045.000000 0 0 1
-13.607844 29.244391 25.319191 41.005722 -1.135280 0.905293 0.056642 -0.009303 -30532.400000 0 0 1
-12.880144 30.285891 26.190091 42.060125 -1.168684 0.898630 0.047529 -0.014219 -359754.000000 0 0 1
-13.735044 31.381591 26.533391 43.329857 -1.158236 0.911756 0.039957 -0.008865 429156.000000 0 0 1
-13.115344 32.540291 27.027991 44.287640 -1.187664 0.914379 0.038449 -0.011785 -644388.000000 0 0 1
-14.165244 33.526791 27.553791 45.649876 -1.171041 0.922801 0.043099 -0.013261 -157354.000000 0 0 1
-14.943644 33.130191 28.669391 46.290992 -1.147063 0.902908 0.021759 -0.014571 245464.000000 0 0 1
-14.201244 32.871391 29.866991 46.628755 -1.162991 0.875612 0.034593 -0.008651 -280158.000000 0 0 1
-14.978344 32.191191 31.043291 47.162585 -1.135298 0.852346 0.016889 -0.004258 283994.000000 0 0 1
-16.030144 33.031991 31.542991 48.404939 -1.118985 0.861041 0.013514 -0.002688 70144.400000 0 0 1
-16.740744 32.556191 32.629491 49.039185 -1.095845 0.842799 0.001472 0.005493 -708697.000000 0 0 1
-18.105144 33.144691 32.893191 50.083218 -1.070840 0.854268 0.007974 0.001979 -694743.000000 0 0 1
-18.212044 -34.369748 33.359891 51.242955 1.083527 0.861877 0.018194 -0.000599 -611552.000000 0 0 1
-19.591544 -34.111948 33.406091 51.608337 1.049465 0.866759 0.020677 -0.001842 -74165.700000 0 0 1
-19.852044 -32.631448 33.748891 50.969625 1.024244 0.847129 0.033935 -0.001923 17290.200000 0 0 1
-19.391944 -32.183248 -33.796991 50.537566 1.028506 2.303322 0.032701 0.004220 -123820.000000 0 0 1
-20.276544 -32.486348 -32.741091 50.383331 1.012804 2.278170 0.037746 0.000453 -83917.600000 0 0 1
-19.845144 -31.678948 -31.470091 48.864630 1.011158 2.270546 0.037334 0.002810 -137285.000000 0 0 1
-19.962444 -30.257848 -31.650391 48.122591 0.987601 2.288562 0.057689 0.003070 41150.900000 0 0 1
-19.431144 -29.591548 -30.536291 46.751408 0.989764 2.282550 0.047447 0.003364 -235655.000000 0 0 1
-19.660744 -28.086448 -30.705091 46.023864 0.960065 2.301181 0.042418 0.000352 213688.000000 0 0 1
-21.032444 -27.766648 -30.557391 46.336860 0.922531 2.290899 0.053968 -0.002032 141481.000000 0 0 1
-21.259844 -26.363148 -30.508791 45.582703 0.892151 2.304071 0.051519 -0.002354 317799.000000 0 0 1
-22.482544 -25.833848 -29.696391 45.329109 0.854649 2.285149 0.054075 -0.004724 150726.000000 0 0 1
-22.593244 -26.127848 -28.308591 44.659774 0.857819 2.257346 0.046952 -0.007715 630828.000000 0 0 1
-21.756344 -25.262648 -27.490891 43.212139 0.859832 2.260339 0.041113 -0.012591 273839.000000 0 0 1
-21.817144 -25.588648 -25.998591 42.505216 0.864789 2.228949 0.050195 -0.008407 -672259.000000 0 0 1
-23.019044 -25.237748 -25.395391 42.564612 0.831343 2.210094 0.041291 -0.009837 -447600.000000 0 0 1
-23.097644 -25.544548 -24.022391 41.989288 0.835660 2.179870 0.045540 -0.004814 -368685.000000 0 0 1
-24.532544 -25.417148 -23.416391 42.381653 0.803106 2.156172 0.037607 -0.002705 145915.000000 0 0 1
-25.528144 -26.358748 -23.678291 43.670713 0.801405 2.143850 0.016877 -0.000410 -404899.000000 0 0 1
-25.197344 -27.707548 -23.697891 44.319345 0.832810 2.134958 0.025691 0.008303 -1149780.000000 0 0 1
-26.516044 -28.540148 -23.654991 45.576301 0.822146 2.116500 0.004978 0.013173 859740.000000 0 0 1
-27.256144 -28.280248 -22.442091 45.236238 0.803836 2.089908 0.004319 0.018464 27914.700000 0 0 1
-28.263144 -27.313848 -22.648791 45.363193 0.768319 2.093560 0.005568 0.016424 -439618.000000 0 0 1
-29.020344 -26.858148 -21.342691 44.933851 0.746723 2.065738 0.007101 0.021876 457582.000000 0 0 1
-29.961344 -27.834248 -20.849291 45.903381 0.748611 2.042270 -0.005676 0.026824 531284.000000 0 0 1
-30.446844 -27.362448 -19.610191 45.390235 0.732094 2.017545 -0.005673 0.024982 -842192.000000 0 0 1
-31.295644 -28.394648 -18.816791 46.257377 0.736836 1.989728 -0.005272 0.022332 1128570.000000 0 0 1
-32.671344 -28.584048 -19.252691 47.488215 0.718771 1.988235 -0.002017 0.016223 1817500.000000 0 0 1
-33.576444 -27.457148 -19.203291 47.434575 0.685471 1.987597 -0.005008 0.024629 -432343.000000 0 0 1
-34.028344 -27.021548 -17.778791 46.948670 0.671127 1.959172 -0.000131 0.025581 -191279.000000 0 0 1
-33.001244 -26.533848 -16.905591 45.595243 0.677191 1.950640 -0.008365 0.031057 670776.000000 0 0 1
-33.609744 -26.007748 -15.715991 45.310156 0.658570 1.925011 -0.007976 0.027352 249484.000000 0 0 1
-33.276144 -26.798548 -14.409091 45.089753 0.677987 1.896066 0.018111 0.023616 -143020.000000 0 0 1
-33.913644 -28.039348 -14.323191 46.276280 0.690862 1.885479 0.013615 0.022802 265984.000000 0 0 1
-33.549344 -28.710348 -13.072591 46.051441 0.707831 1.858623 -0.003088 0.014489 -392271.000000 0 0 1
-34.274244 -30.006648 -12.761291 47.307222 0.719106 1.843933 0.006561 0.020373 -382268.000000 0 0 1
-33.705044 -31.031548 -13.524991 47.769366 0.744124 1.857854 0.002606 0.014916 -52337.200000 0 0 1
-34.222144 -32.258948 -13.222591 48.853165 0.755877 1.844875 0.002581 0.008927 -299974.000000 0 0 1
-33.594044 -33.340948 -14.146391 49.399382 0.781617 1.861230 0.000512 0.021431 -339198.000000 0 0 1
-32.218144 -33.543548 -13.991191 48.568836 0.805550 1.863006 -0.000949 0.015778 -580055.000000 0 0 1
-31.787644 -33.997548 -15.231891 48.972421 0.818978 1.887073 0.012939 -0.002318 1494640.000000 0 0 1
-30.240044 -34.391748 -15.360891 48.303308 0.849546 1.894425 0.006155 -0.005855 1736070.000000 0 0 1
-29.981244 33.779091 -16.539891 48.098544 -0.844892 1.921837 0.015793 -0.001689 -849358.000000 0 0 1
-28.600944 33.581491 -16.617891 47.136873 -0.865323 1.931086 0.008653 -0.004263 -837734.000000 0 0 1
9.455115 19.861991 -8.799909 23.692536 1.126499 1.951336 0.048794 -0.020391 -285765.000000 0 1 0
8.090315 20.238491 -8.887209 23.537888 1.190506 1.957967 0.041239 -0.014361 327911.000000 0 1 0
7.656815 20.455491 -10.242809 24.124035 1.212626 2.009305 0.043168 -0.017481 257254.000000 0 1 0
7.383115 19.191191 -11.098509 23.366409 1.203537 2.065734 0.038532 -0.014340 34805.300000 0 1 0
8.574315 18.433191 -11.300109 23.259275 1.135410 2.078112 0.046452 -0.023722 242104.000000 0 1 0
8.467115 17.578491 -12.408809 23.123017 1.121916 2.137250 0.042009 -0.023086 -538570.000000 0 1 0
9.841215 17.040191 -12.763109 23.454521 1.047063 2.146189 0.050963 -0.028183 -495837.000000 0 1 0
9.723215 15.897091 -13.564809 23.049131 1.021866 2.200020 0.053417 -0.038920 451415.000000 0 1 0
11.009815 15.460291 -13.997009 23.582894 0.951972 2.206227 0.060955 -0.045851 12784.600000 0 1 0
11.059015 14.313491 -15.029009 23.516993 0.912969 2.264085 0.056662 -0.044350 -707278.000000 0 1 0
10.916915 12.944191 -14.651309 22.391783 0.870156 2.284075 0.074457 -0.045028 252734.000000 0 1 0
12.088115 12.298891 -14.190109 22.332587 0.794041 2.259322 0.083063 -0.042950 -402827.000000 0 1 0
12.903815 11.606891 -15.320009 23.150184 0.732535 2.293968 0.076254 -0.038738 -275596.000000 0 1 0
13.521215 12.559691 -16.189709 24.549455 0.748548 2.290914 0.053595 -0.028358 -225393.000000 0 1 0
14.480015 11.872391 -16.929009 25.243135 0.686767 2.305865 0.052654 -0.030532 -283995.000000 0 0 1
15.081415 12.768091 -18.035109 26.753287 0.702523 2.310578 0.038853 -0.022530 -3722.710000 0 0 1
16.049015 13.717791 -17.689609 27.543982 0.707241 2.268202 0.020782 -0.012797 -553349.000000 0 0 1
16.652015 14.274191 -18.768109 28.866660 0.708662 2.278599 0.017312 -0.006494 407026.000000 0 0 1
17.912415 15.205891 -18.588509 29.960080 0.703856 2.240103 0.020358 -0.002686 320574.000000 0 0 1
17.755915 16.510291 -18.070109 30.238900 0.749063 2.211274 0.017976 -0.006367 93754.200000 0 0 1
16.953515 17.499591 -18.721509 30.727060 0.801247 2.225954 0.033127 -0.006092 111737.000000 0 0 1
16.915015 18.815591 -17.899709 30.992641 0.838540 2.186517 0.032976 -0.001536 60421.100000 0 0 1
18.064215 19.588591 -18.149609 32.240302 0.825861 2.168745 0.031575 -0.005102 42315.200000 0 0 1
17.841015 20.938291 -17.763809 32.745484 0.865098 2.144184 0.028490 0.000783 247377.000000 0 0 1
19.057415 21.869891 -18.050009 34.165480 0.854009 2.127407 0.029761 -0.007225 583496.000000 0 0 1
20.119915 22.013591 -17.139709 34.397366 0.830313 2.092417 0.021785 -0.008229 19432.600000 0 0 1
19.686015 22.836391 -16.065109 34.163250 0.859350 2.060365 0.016968 -0.007152 74339.200000 0 0 1
20.853015 23.220391 -15.110509 34.675096 0.839061 2.021695 0.011625 -0.008458 -317438.000000 0 0 1
21.298615 22.196291 -14.226309 33.892391 0.806034 2.003965 0.021701 -0.006860 789672.000000 0 0 1
22.360315 22.769591 -13.406709 34.614705 0.794467 1.968511 0.019978 -0.008172 1389500.000000 0 0 1
23.817715 22.876891 -13.947409 35.849210 0.765252 1.970405 0.020962 -0.006661 -100514.000000 0 0 1
23.966215 23.755991 -15.100209 36.969486 0.780993 1.991552 0.018767 -0.009142 -690575.000000 0 0 1
25.307415 24.076091 -15.220909 38.102486 0.760469 1.981738 0.026111 -0.006201 -731830.000000 0 0 1
25.828915 24.690091 -16.561209 39.382827 0.762859 2.004813 0.031056 -0.008554 -330322.000000 0 0 1
26.189915 23.707291 -17.508109 39.426909 0.735684 2.030927 0.023940 -0.007187 121281.000000 0 0 1
26.439715 24.285991 -18.764309 40.508853 0.742965 2.052416 0.032104 -0.004303 -937664.000000 0 0 1
26.929715 23.223991 -19.825709 40.713905 0.711645 2.079393 0.026011 -0.011204 -660738.000000 0 0 1
28.279915 23.187291 -20.133709 41.746500 0.686770 2.074058 0.023960 -0.013954 -1028800.000000 0 0 1
28.626515 22.142991 -21.003409 41.844146 0.658381 2.096641 0.028856 -0.012063 813521.000000 0 0 1
30.171915 22.101891 -21.273509 43.027900 0.632227 2.087955 0.031835 -0.006945 781196.000000 0 0 1
30.594615 23.369791 -21.817009 44.251096 0.652308 2.086363 0.028805 0.003444 -1033490.000000 0 0 1
31.962815 23.361091 -22.014909 45.299209 0.631154 2.078291 0.032567 0.002920 -824107.000000 0 0 1
32.358915 24.824391 -22.446809 46.553292 0.654392 2.073931 0.041371 0.003464 -121598.000000 0 0 1
32.361315 25.248391 -23.805209 47.449172 0.662552 2.096358 0.039506 0.005069 806648.000000 0 0 1
31.091015 25.057691 -24.468909 46.832324 0.678356 2.120552 0.033821 -0.006103 596015.000000 0 0 1
31.065115 25.515291 -25.931309 47.838313 0.687624 2.143685 0.042799 -0.009391 -204340.000000 0 0 1
31.071215 26.927791 -26.072039 48.685496 0.714080 2.135919 0.046908 -0.010149 -263264.000000 0 0 1
29.859815 27.562491 -26.422019 48.470842 0.745412 2.147319 0.051326 -0.006248 -8149.780000 0 0 1
29.288515 27.483691 -27.851519 48.876144 0.753618 2.177106 0.053482 -0.009876 -87604.700000 0 0 1
28.982715 26.142591 -28.149119 48.122819 0.733922 2.195606 0.040658 -0.012898 -167061.000000 0 0 1
28.521515 26.035691 -29.445809 48.563254 0.739866 2.222245 0.042684 -0.016047 -380438.000000 0 0 1
27.961615 24.614391 -29.817789 47.716042 0.721819 2.245801 0.033962 -0.018018 625414.000000 0 0 1
26.807415 24.279191 -29.023359 46.373182 0.735950 2.247037 0.032720 -0.014391 553410.000000 0 0 1
26.073915 23.165091 -29.487329 45.672454 0.726391 2.272639 0.033805 -0.022342 1210060.000000 0 0 1
24.617915 23.083691 -28.861299 44.405778 0.753246 2.278308 0.022908 -0.013636 1042000.000000 0 0 1
24.727415 22.950091 -27.437269 43.485118 0.748137 2.253583 0.020721 -0.009915 76253.500000 0 0 1
23.455115 23.001291 -26.842759 42.423290 0.775630 2.255878 0.015343 -0.015401 -191394.000000 0 0 1
23.542115 23.144291 -25.312479 41.600613 0.776877 2.224920 0.017055 -0.011950 -91670.700000 0 0 1
24.010615 21.997391 -24.647509 40.839864 0.741668 2.218700 0.020703 -0.013934 173764.000000 0 0 1
24.330115 22.249091 -23.290509 40.366129 0.740751 2.185824 0.020896 -0.015613 -116256.000000 0 0 1
24.772915 20.985591 -22.504809 39.503908 0.702819 2.176920 0.034205 -0.013221 386022.000000 0 0 1
26.078515 20.602091 -22.938209 40.381883 0.668615 2.174909 0.017818 -0.010198 323566.000000 0 0 1
26.307415 19.256991 -22.744709 39.752152 0.631880 2.179937 0.044056 -0.015345 29851.400000 0 0 1
27.705215 18.789491 -23.226809 40.744430 0.595940 2.177376 0.048767 -0.019674 399888.000000 0 0 1
28.767915 19.008591 -22.307709 41.067668 0.583900 2.145033 0.046039 -0.021174 -153851.000000 0 0 1
29.795315 18.111491 -22.643809 41.575581 0.546182 2.146759 0.031475 -0.015243 100442.000000 0 0 1
31.111415 18.214291 -21.831909 42.146326 0.529655 2.115311 0.034849 -0.011603 93603.900000 0 0 1
31.840815 19.412591 -22.003009 43.299175 0.547504 2.103846 0.025217 -0.010562 250348.000000 0 0 1
33.162015 19.156891 -21.521409 43.930362 0.523843 2.082769 0.014545 -0.013443 549828.000000 0 0 1
33.564915 20.096791 -20.366809 44.105458 0.539495 2.050792 0.030427 -0.016088 -338542.000000 0 0 1
32.575115 20.019691 -19.376409 42.864570 0.551064 2.039845 0.023622 -0.012533 247875.000000 0 0 1
32.702215 21.137591 -18.506109 43.112744 0.573816 2.014458 0.013478 0.002823 -135619.000000 0 0 1
32.032015 20.808491 -17.141209 41.867222 0.576105 1.992613 0.028738 -0.010138 -280944.000000 0 0 1
32.697215 19.922391 -16.301409 41.614246 0.547229 1.973304 0.026335 -0.014364 32030.200000 0 0 1
32.181115 20.023091 -14.980709 40.754999 0.556583 1.947201 0.035924 -0.009820 -123996.000000 0 0 1
32.757115 18.813291 -14.126909 40.330361 0.521328 1.928666 0.028380 -0.006694 -425657.000000 0 0 1
34.162115 18.796791 -14.084709 41.457791 0.503015 1.917433 0.016226 -0.010835 -114357.000000 0 0 1
34.707315 17.869491 -13.157009 41.194942 0.475467 1.895876 0.013238 0.000427 4930.040000 0 0 1
34.530515 18.285891 -11.651009 40.773475 0.487013 1.860585 0.027500 -0.001254 -768174.000000 0 0 1
35.265115 19.441091 -11.316709 41.828845 0.503828 1.844759 0.016220 -0.003100 86768.700000 0 0 1
35.047915 19.840691 -9.976209 41.491374 0.515121 1.813616 0.020182 0.001420 994373.000000 0 0 1
33.658015 20.575491 -9.693209 40.622298 0.548694 1.811739 0.028984 -0.007821 729884.000000 0 0 1
32.523415 19.871591 -10.045109 39.415185 0.548464 1.828493 0.038597 -0.016874 -1083090.000000 0 0 1
31.354515 20.594091 -9.759009 38.761584 0.581151 1.825305 0.029841 -0.012821 -12470.400000 0 0 1
30.068915 19.871191 -10.223209 37.463554 0.583968 1.847186 0.031780 -0.012490 41318.600000 0 0 1
29.990715 19.643991 -11.626409 37.689557 0.579884 1.884389 0.043075 -0.013509 -81320.600000 0 0 1
28.752615 19.009391 -11.846409 36.447321 0.584164 1.901838 0.035693 -0.018499 -50704.600000 0 0 1
28.601115 18.442391 -13.227009 36.511633 0.572721 1.941497 0.042369 -0.008114 148187.000000 0 0 1
29.537315 17.376391 -13.428509 36.806477 0.531762 1.944258 0.048477 -0.009125 370506.000000 0 0 1
29.314015 16.670291 -14.599009 36.746988 0.517072 1.979352 0.032414 -0.007056 140017.000000 0 0 1
30.645115 16.158291 -15.215809 37.838265 0.485226 1.984636 0.041322 -0.016831 247386.000000 0 0 1
31.275315 15.110291 -14.455109 37.622020 0.450067 1.965158 0.035744 -0.015721 -161567.000000 0 0 1
32.551915 14.927691 -15.000109 38.826104 0.429967 1.967457 0.033896 -0.017975 -463644.000000 0 0 1
33.275615 13.683891 -14.464709 38.778128 0.390149 1.953050 0.026060 -0.019083 -511253.000000 0 0 1
33.678615 13.822191 -13.161209 38.710715 0.389452 1.917701 0.031146 -0.009189 -62488.900000 0 0 1
34.565415 12.806891 -12.766609 39.009879 0.354830 1.904205 0.017808 -0.003529 -716913.000000 0 0 1
35.591215 13.239391 -11.757409 39.752392 0.356125 1.871054 0.035272 -0.003279 -943205.000000 0 0 1
-34.750227 14.049891 -12.317809 39.455115 -0.384217 1.888302 0.007289 -0.001079 -588085.000000 0 0 1
-33.948227 14.464091 -11.211909 38.566811 -0.402771 1.865769 -0.008792 0.001854 -685027.000000 0 0 1
-32.497227 14.817391 -11.613809 37.556695 -0.427798 1.885184 0.008270 -0.004709 349484.000000 0 0 1
-31.634327 13.710191 -11.968609 36.495857 -0.408961 1.904923 0.001779 -0.009627 432763.000000 0 0 1
-31.338427 12.826691 -10.869209 35.563474 -0.388494 1.881395 0.021445 0.003246 -894922.000000 0 0 1
-30.249927 11.824891 -11.284809 34.383616 -0.372643 1.905197 0.032616 -0.004051 -40957.000000 0 0 1
-30.626027 11.046291 -12.415909 34.844352 -0.346160 1.935128 0.017085 -0.011255 564540.000000 0 0 1
-29.664227 9.993691 -12.615109 33.748795 -0.324951 1.953893 0.040451 -0.020074 83487.800000 0 0 1
-29.662027 9.206791 -13.951109 34.047530 -0.300961 1.992981 0.043748 -0.021943 -228422.000000 0 0 1
-30.850627 8.578291 -14.377409 35.100686 -0.271208 1.992817 0.019105 -0.018540 297982.000000 0 0 1
-30.566627 7.948691 -15.624609 35.236753 -0.254410 2.030205 0.028269 -0.024623 121409.000000 0 0 1
-31.818827 7.466191 -16.407009 36.570093 -0.230477 2.036046 0.021495 -0.024155 213200.000000 0 0 1
-32.531527 6.431391 -15.754209 36.713187 -0.195180 2.014310 0.028094 -0.023885 -1150240.000000 0 0 1
-33.611327 5.989391 -16.441609 37.893543 -0.176345 2.019602 0.021237 -0.028059 -1663770.000000 0 0 1
-34.398227 5.227791 -15.387009 38.043762 -0.150824 1.987180 0.025292 -0.021468 -366945.000000 0 0 1
-35.414127 4.340491 -15.872309 39.050358 -0.121956 1.989370 0.026105 -0.020476 56098.600000 0 0 1
35.015215 4.109391 -14.837909 38.250698 0.116826 1.969162 0.017896 -0.017386 -83614.900000 0 0 1
33.973815 2.991891 -15.036209 37.272766 0.087838 1.986037 0.016926 -0.014923 -602458.000000 0 0 1
34.559415 1.743791 -15.198509 37.794029 0.050415 1.984650 0.024938 -0.020640 -451847.000000 0 0 1
33.720615 0.621491 -15.309709 37.038538 0.018428 1.996921 0.029451 -0.008833 -379999.000000 0 0 1
32.924815 0.231191 -14.065909 35.804283 0.007022 1.974531 0.024243 -0.015705 -242999.000000 0 0 1
33.787115 -0.378209 -13.098009 36.239068 -0.011193 1.940601 0.031109 -0.014892 383387.000000 0 0 1
33.375815 -0.287609 -11.747209 35.383960 -0.008617 1.909211 0.028242 -0.007258 -311120.000000 0 0 1
33.444515 1.150891 -11.072109 35.248429 0.034398 1.890322 0.027480 -0.009058 -59665.000000 0 0 1
32.443715 2.086091 -11.440509 34.464934 0.064210 1.909163 0.027748 -0.005035 460241.000000 0 0 1
32.754315 3.374491 -10.944509 34.698914 0.102662 1.891689 0.030129 -0.005372 -402326.000000 0 0 1
31.769215 4.397391 -11.479909 34.064767 0.137543 1.914528 0.032865 -0.008407 -301259.000000 0 0 1
32.076915 4.882991 -12.765209 34.867214 0.151068 1.945621 0.022080 -0.011458 153159.000000 0 0 1
31.099615 5.775891 -13.214309 34.280679 0.183630 1.966518 0.030432 -0.017371 -437159.000000 0 0 1
31.463215 6.492891 -14.548209 35.266725 0.203508 1.996014 0.014957 -0.013824 -447747.000000 0 0 1
31.319315 5.593391 -15.638909 35.450825 0.176729 2.027669 0.009842 -0.003824 263633.000000 0 0 1
31.714915 6.133291 -16.902909 36.457666 0.191030 2.052885 0.009672 -0.005799 -661704.000000 0 0 1
30.704615 7.135191 -17.579609 36.093309 0.228329 2.079517 0.012047 -0.006216 807242.000000 0 0 1
29.545415 6.537491 -18.185309 35.304048 0.217761 2.111927 0.006524 -0.009837 1170310.000000 0 0 1
28.559115 6.063791 -17.239809 33.905805 0.209217 2.104194 0.003128 -0.000751 -1728860.000000 0 0 1
27.169515 6.038791 -17.766409 33.019613 0.218708 2.138926 -0.003773 0.004271 -1440770.000000 0 0 1
26.989915 5.252491 -18.906409 33.369095 0.192207 2.173151 0.006913 0.001779 353175.000000 0 0 1
25.829515 5.606691 -19.659709 32.940901 0.213749 2.210325 0.005762 0.002575 252572.000000 0 0 1
25.490415 4.427191 -20.597109 33.069656 0.171965 2.243164 0.013569 0.020971 -219593.000000 0 0 1
24.798815 3.467791 -19.819609 31.934679 0.138936 2.240342 0.019006 0.008348 199352.000000 0 0 1
24.476015 2.305291 -20.559509 32.048137 0.093909 2.267274 0.015209 0.003990 -371028.000000 0 0 1
23.489715 1.365691 -19.887509 30.808194 0.058075 2.272509 0.017255 -0.004372 -395746.000000 0 0 1
22.161315 1.775291 -19.701509 29.705639 0.079937 2.295915 0.023977 -0.004990 -314382.000000 0 0 1
21.423015 0.744191 -19.166409 28.755010 0.034724 2.300356 0.027181 -0.003514 470653.000000 0 0 1
19.924415 1.114891 -18.864309 27.460653 0.055898 2.328091 0.032885 -0.005247 194487.000000 0 0 1
19.138415 1.446891 -19.997409 27.717662 0.075458 2.376716 0.031468 -0.006728 609479.000000 0 0 1
17.966315 2.213891 -19.753209 26.793265 0.122606 2.399780 0.036173 -0.015556 593942.000000 0 0 1
16.776915 1.685491 -18.950409 25.365799 0.100129 2.414462 0.048212 -0.014188 -924123.000000 0 0 1
17.101815 1.660891 -17.588809 24.588551 0.096814 2.367886 0.044650 -0.017924 249276.000000 0 1 0
15.976115 1.629591 -16.721009 23.183700 0.101650 2.376387 0.037611 -0.016377 745098.000000 0 1 0
15.102115 2.939991 -16.510409 22.567920 0.192269 2.391444 0.047559 -0.017458 442082.000000 0 1 0
14.525015 3.365991 -17.734209 23.169120 0.227718 2.442497 0.049876 -0.008000 -114764.000000 0 1 0
13.757515 4.508691 -17.575709 22.770662 0.316695 2.452554 0.062351 -0.010094 -385116.000000 0 1 0
-19.308185 -21.562809 -17.628909 33.890105 0.840507 2.117856 0.054695 -0.010391 101735.000000 0 0 1
-19.218885 -22.335309 -18.824109 34.965393 0.860255 2.139291 0.056509 -0.014548 -117558.000000 0 0 1
-20.338585 -22.137609 -19.649709 35.914383 0.827727 2.149724 0.055975 -0.016532 -310558.000000 0 0 1
-20.274185 -22.666409 -21.134709 37.033561 0.841051 2.178143 0.047496 -0.006103 -207858.000000 0 0 1
-20.052185 -24.067909 -21.160509 37.803724 0.876166 2.164876 0.042950 -0.004525 267406.000000 0 0 1
-19.877885 -24.565709 -22.462509 38.770720 0.890488 2.188749 0.039820 -0.003859 -200144.000000 0 0 1
-19.489385 -26.012249 -22.371009 39.458020 0.927783 2.173604 0.040856 -0.008467 298338.000000 0 0 1
-20.652185 -26.806299 -22.126009 40.430814 0.914352 2.149879 0.044226 -0.002914 359639.000000 0 0 1
-20.264785 -28.131889 -21.979809 41.050904 0.946543 2.135811 0.060968 -0.010621 93730.400000 0 0 1
-21.420885 -29.167089 -21.773709 42.233492 0.937341 2.112452 0.043354 -0.002568 299613.000000 0 0 1
-22.202485 -29.439439 -22.933509 43.423229 0.924629 2.127204 0.032445 0.004599 -110140.000000 0 0 1
-21.557985 -30.012279 -24.045309 44.086966 0.947890 2.147670 0.032694 -0.000781 -809172.000000 0 0 1
-21.994485 -29.509139 -25.469319 44.757490 0.930281 2.176148 0.027043 0.002577 92017.500000 0 0 1
-23.286785 -29.897759 -25.907919 45.906107 0.909066 2.170463 0.024115 0.007330 545904.000000 0 0 1
-23.815285 -29.134529 -26.993679 46.310337 0.885520 2.193073 0.022897 0.010369 -95750.600000 0 0 1
-23.208685 -29.382269 -28.407189 46.999247 0.902252 2.219831 0.031846 -0.003077 -322601.000000 0 0 1
-23.689385 -30.529149 -29.057249 48.348109 0.910887 2.215549 0.026880 0.003849 289666.000000 0 0 1
-23.114585 -30.671889 -30.366099 48.960687 0.924990 2.239812 0.035622 -0.002557 -360292.000000 0 0 1
-23.701785 -31.812129 -31.178789 50.456943 0.930468 2.236902 0.032865 0.004496 26645.800000 0 0 1
-23.127285 -33.059639 -30.881369 50.808169 0.960364 2.224088 0.023431 0.002365 -66442.000000 0 0 1
-24.071085 -33.983799 -31.310939 52.102694 0.954515 2.215481 0.030668 0.002485 -120191.000000 0 0 1
-23.548185 33.425376 -31.333169 51.512526 -0.957056 2.224667 0.039659 0.004804 -57302.400000 0 0 1
-22.657585 33.112665 -32.378389 51.557491 -0.970714 2.249784 0.033382 -0.009419 -334778.000000 0 0 1
-22.008885 31.937659 -31.984899 50.273640 -0.967410 2.260380 0.044930 -0.004410 -414094.000000 0 0 1
-20.789585 31.569929 -32.841249 50.074094 -0.988452 2.286108 0.037917 -0.003142 -244760.000000 0 0 1
-21.005685 31.391469 -34.216619 50.965088 -0.981075 2.306857 0.035233 -0.005612 344872.000000 0 0 1
-20.185985 30.280719 34.224216 49.956910 -0.982820 0.816090 0.026547 -0.004978 306237.000000 0 0 1
-20.487185 29.946629 32.769273 48.891212 -0.970806 0.836252 0.015032 -0.001941 -55661.800000 0 0 1
-20.041885 30.840049 31.797793 48.619805 -0.994516 0.857924 0.017318 0.003432 29861.100000 0 0 1
-20.518285 30.514009 30.539283 47.799085 -0.978820 0.877717 0.026471 0.000598 -410614.000000 0 0 1
-20.086385 31.603839 29.625713 47.748805 -1.004634 0.901481 0.021275 -0.005928 -651602.000000 0 0 1
-20.792785 32.776649 29.797253 48.933883 -1.005482 0.916087 0.015655 -0.006215 -549252.000000 0 0 1
-20.076285 33.951409 29.529913 49.272418 -1.036781 0.928146 0.019933 -0.017759 -365386.000000 0 0 1
-20.957685 -33.649259 29.390553 49.348777 1.013761 0.932824 0.034174 -0.025510 -79078.200000 0 0 1
-21.470585 -33.294699 30.656773 50.093520 0.998039 0.912221 0.033281 -0.016147 838731.000000 0 0 1
-22.550085 -32.293769 30.645493 49.905311 0.961226 0.909586 0.054582 -0.017848 938366.000000 0 0 1
-22.240785 -30.772689 30.311243 48.583766 0.944968 0.897078 0.072629 -0.018466 -551552.000000 0 0 1
-21.729985 -30.493129 29.026613 47.376866 0.951651 0.911356 0.063639 -0.012710 117432.000000 0 0 1
-22.029085 -29.135099 28.649953 46.421486 0.923402 0.905655 0.059154 -0.014594 -433911.000000 0 0 1
-23.412085 -28.853609 28.075923 46.571600 0.889137 0.923722 0.053867 -0.002469 -524091.000000 0 0 1
-24.464085 -28.874889 29.051983 47.710255 0.867904 0.916091 0.058055 0.003957 1524640.000000 0 0 1
-25.554725 -29.843979 28.984453 48.824231 0.862669 0.935211 0.044863 -0.005236 467441.000000 0 0 1
-26.501835 -29.782909 27.812723 48.609840 0.843626 0.961656 0.025936 0.009263 -1078190.000000 0 0 1
-25.878195 -29.897649 26.559253 47.633437 0.857338 0.979334 0.024297 0.005348 -11195.700000 0 0 1
-26.821065 -30.128429 25.519783 47.732076 0.843408 1.006707 0.016472 0.009972 -10854.900000 0 0 1
-26.213115 -30.321839 24.101093 46.769691 0.857946 1.029422 0.014258 0.005406 26567.200000 0 0 1
-25.502335 -29.205009 23.538273 45.358042 0.852977 1.025181 0.003874 0.005552 736234.000000 0 0 1
-25.012385 -29.282769 22.194873 44.448986 0.863888 1.047967 0.013142 0.004624 757788.000000 0 0 1
-23.745785 -30.176819 21.888273 44.199539 0.904102 1.052714 0.025881 -0.007564 -16214.500000 0 0 1
-24.050885 -31.536439 21.631973 45.176701 0.919256 1.071474 0.021753 -0.015814 380118.000000 0 0 1
-22.883085 -32.288069 21.361873 44.972043 0.954244 1.075828 0.039080 -0.015585 -386849.000000 0 0 1
-22.190185 -32.882009 22.588273 45.649326 0.977155 1.053167 0.052896 -0.017676 -731772.000000 0 0 1
-21.337185 -32.014449 23.223573 44.939234 0.982919 1.027714 0.078902 -0.026249 -74748.300000 0 0 1
-20.689685 -32.637929 24.332093 45.665613 1.005812 1.008853 0.069319 -0.026689 -167840.000000 0 0 1
-19.844485 -31.717199 25.230833 45.126259 1.011716 0.977477 0.071079 -0.026896 -114931.000000 0 0 1
-18.581485 -31.316449 24.697293 43.999407 1.035284 0.974829 0.071961 -0.022009 1060460.000000 0 0 1
-17.883585 -30.475309 25.697073 43.691036 1.040123 0.942022 0.083418 -0.024040 322509.000000 0 0 1
-16.897685 -31.169659 26.647813 44.352963 1.074023 0.926279 0.062762 -0.023093 -427929.000000 0 0 1
-17.595585 -32.111089 27.489823 45.786647 1.069521 0.926808 0.047417 -0.022812 618296.000000 0 0 1
-16.717485 -32.775299 28.380703 46.466750 1.099130 0.913758 0.042201 -0.021989 -132253.000000 0 0 1
-16.994485 -32.251479 29.822373 47.099303 1.085832 0.885141 0.059847 -0.021174 80176.800000 0 0 1
-16.617285 -30.904649 30.048023 46.196485 1.077449 0.862633 0.060262 -0.010461 283595.000000 0 0 1
-17.172285 -30.436039 31.296123 46.911482 1.057110 0.840445 0.064999 -0.001529 100734.000000 0 0 1
-17.236685 -28.915139 31.480393 46.089085 1.033240 0.818888 0.056631 -0.005208 -77609.200000 0 0 1
-18.160185 -28.170449 30.699063 45.451061 0.998189 0.829247 0.081140 -0.005787 21151.700000 0 0 1
-18.107585 -28.085779 29.304763 44.446201 0.998139 0.850868 0.087304 -0.006059 -949698.000000 0 0 1
-16.747485 -27.851459 28.671783 43.338818 1.029411 0.847882 0.079307 -0.000787 -593079.000000 0 0 1
-16.414885 -26.421179 28.737733 42.348370 1.014878 0.824937 0.069247 -0.002524 -241073.000000 0 0 1
-15.218185 -26.263269 28.043183 41.325205 1.045626 0.824945 0.063299 -0.007506 -722809.000000 0 0 1
-15.101485 -24.872009 27.338983 39.926078 1.025123 0.816549 0.060210 -0.000574 452994.000000 0 0 1
-16.067885 -24.804609 26.248333 39.527466 0.995985 0.844570 0.080986 -0.009749 720376.000000 0 0 1
-15.965785 -23.584609 25.463503 38.203796 0.975703 0.841269 0.058300 0.001012 -364087.000000 0 0 1
-16.525785 -22.269509 26.001093 38.014332 0.932383 0.817590 0.057243 0.004206 -806403.000000 0 0 1
-16.464785 -21.174109 25.054813 36.703892 0.909870 0.819454 0.045351 0.004492 16549.800000 0 0 1
-16.887485 -20.011909 25.626943 36.638830 0.869871 0.796172 0.045615 0.003971 -481718.000000 0 0 1
-16.752685 -18.805909 24.695803 35.273182 0.843076 0.795217 0.032786 0.002062 -439298.000000 0 0 1
-15.422185 -18.501509 24.399173 34.285117 0.875922 0.778945 0.025712 -0.001193 -595678.000000 0 0 1
-15.251485 -17.402609 23.556273 33.020548 0.851179 0.776483 0.015033 0.003215 296196.000000 0 0 1
-13.970885 -16.511409 23.741273 32.116356 0.868550 0.738875 0.039383 -0.002360 73622.000000 0 0 1
-12.792685 -17.261209 23.542773 31.872626 0.933001 0.739728 0.000648 0.004011 -262222.000000 0 0 1
-11.596685 -16.602509 23.852753 31.290258 0.961085 0.703928 0.006319 -0.003564 -870593.000000 0 0 1
-11.056185 -15.693509 22.744773 29.763235 0.957052 0.701011 0.011799 -0.000679 -578175.000000 0 0 1
-10.556985 -16.359109 21.571973 29.058913 0.997713 0.734221 0.038249 0.002742 -8678.970000 0 0 1
-9.410485 -17.124409 21.863873 29.322884 1.068309 0.729324 0.032154 0.005594 -1041770.000000 0 0 1
-9.114885 -18.323609 20.961673 29.295520 1.109199 0.773421 0.032110 0.008196 -95962.800000 0 0 1
-8.737285 -18.078509 19.599073 28.058801 1.120600 0.797497 0.028740 0.005270 -9033.100000 0 0 1
-8.464885 -19.332209 19.037773 28.422269 1.158080 0.836831 0.019494 0.007535 -94073.900000 0 0 1
-8.091285 -19.413709 17.585073 27.415247 1.175907 0.874430 0.018899 -0.002402 386376.000000 0 0 1
-7.015185 -18.527409 17.208673 26.241496 1.208840 0.855580 0.022216 0.005018 500666.000000 0 0 1
-7.142985 -18.240809 15.780873 25.155224 1.197558 0.892664 0.047823 0.004438 783161.000000 0 0 1
-6.066185 -17.172909 15.325373 23.802825 1.231237 0.871281 0.022988 0.001299 606422.000000 0 1 0
-6.265685 -15.943009 15.931273 23.393243 1.196334 0.821641 0.024347 -0.009556 -497174.000000 0 1 0
-5.312385 -15.018409 15.556173 22.265861 1.230807 0.797279 0.017298 -0.004922 -552384.000000 0 1 0
-5.440285 -13.732209 16.386673 22.061127 1.193596 0.733576 0.005037 -0.010984 -21096.600000 0 1 0
-4.924685 -13.735809 17.721973 22.956335 1.226544 0.688836 0.010968 -0.014812 -248381.000000 0 1 0
-5.352485 -14.755809 18.617573 24.351530 1.222819 0.700478 0.020968 -0.010667 -678844.000000 0 1 0
-6.692385 -14.410409 19.300173 24.998892 1.136021 0.688750 0.060782 -0.012334 -16436.900000 0 1 0
-6.615985 -13.266909 20.094073 24.971061 1.108203 0.635636 0.048007 -0.024826 -1000190.000000 0 1 0
-7.822885 -12.953409 20.689773 25.633085 1.027496 0.631486 0.048584 -0.018160 -549059.000000 0 0 1
-7.754885 -12.050309 21.969873 26.230202 0.998974 0.577959 0.044892 -0.013889 -180268.000000 0 0 1
-7.372485 -10.718409 21.556473 25.177755 0.968282 0.542983 0.029035 -0.012188 60627.000000 0 0 1
-7.037885 -9.838209 22.624473 25.655193 0.949834 0.490989 0.025603 -0.015774 956633.000000 0 0 1
-5.596985 -10.005909 23.260873 25.932849 1.060789 0.457939 0.020434 -0.011466 875690.000000 0 0 1
-5.370085 -11.245209 23.871673 26.928596 1.125274 0.481113 0.028585 -0.013369 99209.500000 0 0 1
-4.129585 -11.317109 24.566153 27.361036 1.220912 0.455931 0.015149 -0.008888 -20628.000000 0 0 1
-3.976085 -12.620309 25.376103 28.618666 1.265586 0.480643 0.016880 -0.011082 -206164.000000 0 0 1
-2.731585 -12.878709 26.006623 29.149050 1.361793 0.468615 0.011114 -0.010194 271519.000000 0 0 1
-2.729585 -14.219309 26.557603 30.248069 1.381140 0.499143 0.011878 -0.014236 29991.300000 0 0 1
-2.701185 -15.413709 25.563303 29.972676 1.397312 0.549306 0.020244 -0.029499 -534740.000000 0 0 1
-1.412285 -15.943109 25.420423 30.039560 1.482444 0.561924 0.020964 -0.023825 -380368.000000 0 0 1
-1.429785 -17.100109 24.603043 29.996129 1.487378 0.609023 0.028261 -0.012434 -239423.000000 0 0 1
-0.048885 -17.803609 24.709073 30.455035 1.568051 0.624373 0.036695 -0.015277 315262.000000 0 0 1
0.313515 -18.369509 25.978093 31.818210 -1.553731 0.615554 0.040988 -0.017215 132234.000000 0 0 1
0.850015 -17.325709 26.772073 31.900574 -1.521775 0.574922 0.036565 -0.018329 -933349.000000 0 0 1
1.535715 -17.717009 28.131413 33.281034 -1.484332 0.563729 0.029085 -0.010839 -371020.000000 0 0 1
2.762715 -18.399809 27.920563 33.552100 -1.421761 0.587813 0.032194 -0.013026 697395.000000 0 0 1
3.584515 -18.495209 29.116623 34.679954 -1.379362 0.574285 0.029783 -0.015826 338875.000000 0 0 1
4.295115 -17.198509 29.533753 34.445309 -1.326065 0.540581 0.020566 -0.015832 -1597640.000000 0 0 1
3.474915 -16.094309 29.896053 34.130277 -1.358151 0.503417 0.022895 -0.016287 -495673.000000 0 0 1
4.090115 -14.983109 30.410003 34.146608 -1.304307 0.472196 0.026900 -0.014483 -733220.000000 0 0 1
3.210715 -14.116809 31.339833 34.522139 -1.347162 0.432744 0.024170 -0.023413 142023.000000 0 0 1
2.650915 -14.885209 32.426193 35.777853 -1.394554 0.436303 0.020842 -0.026299 -244017.000000 0 0 1
1.574915 -14.196509 32.985650 35.945435 -1.460311 0.408648 0.016093 -0.016482 -131937.000000 0 0 1
0.869815 -15.051309 34.089941 37.274959 -1.513071 0.416394 0.004554 -0.013485 339756.000000 0 0 1
1.488915 -14.836909 -33.525579 36.692168 -1.470779 2.723090 0.029023 -0.005574 141566.000000 0 0 1
0.728415 -15.540809 -32.527219 36.056447 -1.523960 2.695453 0.010887 -0.013460 386454.000000 0 0 1
1.418015 -15.462509 -31.161069 34.815402 -1.479345 2.679310 0.021517 -0.007309 149390.000000 0 0 1
0.871615 -16.362209 -30.180319 34.341422 -1.517577 2.644204 0.005552 -0.007950 -337513.000000 0 0 1
1.566715 -16.184609 -28.947089 33.201358 -1.474294 2.629793 0.013786 -0.014534 213311.000000 0 0 1
1.221515 -17.288609 -27.937599 32.877007 -1.500259 2.586328 0.026635 -0.016415 -92415.500000 0 0 1
1.794015 -18.519609 -28.349559 33.910057 -1.474227 2.560789 0.029550 -0.016278 12581.300000 0 0 1
1.440515 -19.614809 -27.574699 33.870044 -1.497488 2.522030 0.046902 -0.023102 -209979.000000 0 0 1
2.363515 -20.876109 -27.886409 34.914896 -1.458060 2.495922 0.034479 -0.021513 507662.000000 0 0 1
3.656815 -20.880609 -27.310559 34.572226 -1.397425 2.481535 0.020742 -0.019586 3334.460000 0 0 1
3.825015 -20.922109 -25.935359 33.541143 -1.389972 2.454731 0.023231 -0.021346 -371733.000000 0 0 1
5.212115 -21.534409 -25.542309 33.812816 -1.333327 2.427066 0.020804 -0.020776 368457.000000 0 0 1
5.501315 -22.906609 -25.789659 34.929697 -1.335097 2.401388 0.021475 -0.016512 108933.000000 0 0 1
5.483515 -23.368209 -27.131159 36.224880 -1.340309 2.417295 0.008978 -0.014493 -369504.000000 0 0 1
4.855915 -24.789509 -27.231039 37.143360 -1.377360 2.393714 0.011764 -0.009110 -90594.400000 0 0 1
5.657015 -25.817079 -26.716909 37.580802 -1.355086 2.361601 0.007239 -0.001930 -81503.200000 0 0 1
4.941915 -27.021309 -26.777199 38.361336 -1.389906 2.343433 0.012868 -0.001771 -330756.000000 0 0 1
5.397915 -28.045929 -25.774419 38.471188 -1.380654 2.304960 0.012115 -0.003279 486839.000000 0 0 1
6.783315 -28.382369 -25.892349 39.012639 -1.336199 2.296539 0.016389 -0.003086 571202.000000 0 0 1
7.163015 -29.544809 -25.126309 39.440284 -1.332940 2.261490 0.015272 -0.002435 52329.900000 0 0 1
8.656615 -29.870539 -25.346169 40.120000 -1.288719 2.254617 0.024560 -0.008154 -135080.000000 0 0 1
8.845915 -30.416769 -26.593139 41.359704 -1.287779 2.269169 0.026641 -0.006910 -629508.000000 0 0 1
10.181415 -30.619799 -26.920569 42.023212 -1.249786 2.266091 0.048936 0.000835 -456014.000000 0 0 1
10.480915 -30.381429 -28.410549 42.895689 -1.238603 2.294704 0.054503 -0.010920 -205740.000000 0 0 1
9.832815 -31.294549 -29.225169 43.933400 -1.266361 2.298578 0.053684 -0.017977 -203007.000000 0 0 1
10.013415 -30.907759 -30.548309 44.595485 -1.257490 2.325412 0.053668 -0.012142 37021.000000 0 0 1
-34.530228 -4.624409 -5.566509 35.280417 0.133131 1.729237 0.064244 -0.009830 -223365.000000 0 0 1
-34.239020 -3.878809 -4.404909 34.738435 0.112805 1.697941 0.075899 -0.017042 153302.000000 0 0 1
-33.204145 -2.950909 -4.507009 33.638315 0.088639 1.705185 0.072482 -0.014619 -382587.000000 0 0 1
-33.710555 -1.578609 -4.975209 34.112259 0.046794 1.717167 0.069523 -0.000665 527303.000000 0 0 1
-34.697953 -0.933909 -4.139209 34.956447 0.026909 1.689485 0.044517 -0.001188 752561.000000 0 0 1
-35.317625 0.139591 -4.779509 35.639835 -0.003952 1.705307 0.040654 -0.002822 85796.900000 0 0 1
35.173266 0.994391 -3.780609 35.389836 0.028264 1.677828 0.038069 -0.003512 -367807.000000 0 0 1
-35.389813 1.719891 -2.869809 35.547612 -0.048560 1.651616 0.042216 -0.002401 47168.800000 0 0 1
35.150376 2.595691 -2.058109 35.306124 0.073712 1.629123 0.037853 -0.008889 -94592.400000 0 0 1
-35.564695 3.977791 -1.840909 35.833773 -0.111384 1.622193 0.033573 -0.016573 -576937.000000 0 0 1
-35.570837 4.758291 -3.000809 36.012923 -0.132980 1.654219 0.039696 -0.015964 761961.000000 0 0 1
-34.274356 4.818291 -3.608209 34.798945 -0.139665 1.674670 0.046837 -0.002878 668776.000000 0 0 1
-33.288335 5.891291 -3.044709 33.942463 -0.175164 1.660619 0.052499 -0.008585 -274012.000000 0 0 1
-32.856015 5.584191 -1.741209 33.372634 -0.168351 1.622995 0.059727 -0.018727 189592.000000 0 0 1
-32.751775 6.827891 -1.062809 33.472801 -0.205530 1.602553 0.059104 -0.041312 -491270.000000 0 0 1
-31.806705 6.813891 0.144491 32.528702 -0.211038 1.566354 0.064704 -0.036036 -1315930.000000 0 0 1
-30.506975 7.065091 -0.248909 31.315380 -0.227577 1.578745 0.092150 -0.029708 -260484.000000 0 0 1
-29.672455 7.692291 0.768491 30.662950 -0.253656 1.545731 0.089749 -0.035598 403126.000000 0 0 1
-29.879285 9.205391 0.999791 31.281152 -0.298859 1.538829 0.090007 -0.030128 587790.000000 0 0 1
-31.194315 9.548991 1.492291 32.657242 -0.297056 1.525085 0.075384 -0.038743 1042790.000000 0 0 1
-31.152665 10.888591 2.044191 33.064009 -0.336250 1.508932 0.076955 -0.029059 -258482.000000 0 0 1
-32.526875 11.567691 2.022191 34.581763 -0.341686 1.512287 0.082129 -0.026257 -814710.000000 0 0 1
-32.952175 11.757591 0.681591 34.993590 -0.342727 1.551318 0.061217 -0.024203 -109330.000000 0 0 1
-34.190953 12.392491 0.601891 36.372481 -0.347722 1.554248 0.060465 -0.004036 425779.000000 0 0 1
-35.493881 11.507591 0.662891 37.318624 -0.313520 1.553032 0.064645 -0.029524 372904.000000 0 0 1
-35.631802 10.701991 -0.519709 37.207903 -0.291777 1.584764 0.062564 -0.024765 -34338.900000 0 0 1
34.563136 9.883591 -0.344709 35.950168 0.278525 1.580385 0.073491 -0.025191 191790.000000 0 0 1
34.265876 8.882691 -1.534809 35.431739 0.253645 1.614127 0.062180 -0.036199 42721.900000 0 0 1
33.835286 9.561991 -2.713809 35.265040 0.275422 1.647827 0.057176 -0.028483 236311.000000 0 0 1
33.449646 8.578891 -3.633609 34.722893 0.251060 1.675634 0.035970 -0.030375 -208025.000000 0 0 1
32.815626 9.101091 -4.945009 34.411456 0.270541 1.714998 0.029632 -0.021843 448315.000000 0 0 1
31.396756 9.230291 -4.904109 33.090858 0.285933 1.719546 0.061005 -0.023237 652501.000000 0 0 1
30.872176 9.585391 -6.176409 32.910774 0.301049 1.759587 0.052982 -0.013129 -39908.600000 0 0 1
29.390456 10.010791 -6.174609 31.656605 0.328288 1.767104 0.074884 -0.011453 -96855.500000 0 0 1
28.468646 8.939791 -6.106209 30.457667 0.304271 1.772646 0.076059 -0.012453 1218720.000000 0 0 1
27.140946 9.456091 -6.353809 29.435005 0.335255 1.788368 0.060321 -0.005717 591768.000000 0 0 1
26.083556 8.356291 -6.562309 28.164577 0.310035 1.805956 0.068163 -0.003330 -366528.000000 0 0 1
26.304326 7.680191 -7.798209 28.490612 0.284078 1.848046 0.069657 -0.004792 842493.000000 0 0 1
25.310856 6.661491 -8.010009 27.371064 0.257351 1.867788 0.063978 -0.007805 278472.000000 0 0 1
25.758156 5.795291 -9.183809 27.953718 0.221304 1.905550 0.076178 -0.016232 460968.000000 0 0 1
26.837566 4.922091 -8.784209 28.664338 0.181387 1.882259 0.071257 -0.020198 1045560.000000 0 0 1
27.010816 3.851991 -9.752309 28.974637 0.141654 1.914080 0.060901 -0.019621 -769341.000000 0 0 1
28.016946 2.793791 -9.313709 29.656361 0.099389 1.890257 0.052225 -0.017283 -707438.000000 0 0 1
29.328286 3.312691 -9.250109 30.930354 0.112475 1.874506 0.058443 -0.010040 884341.000000 0 0 1
30.256516 2.793891 -8.267509 31.489908 0.092079 1.836455 0.047313 -0.010495 589717.000000 0 0 1
30.501966 1.300891 -8.186209 31.608168 0.042624 1.832773 0.042879 -0.010251 -455297.000000 0 0 1
29.391156 0.668991 -7.529809 30.347745 0.022758 1.821533 0.064404 -0.013476 896647.000000 0 0 1
29.703516 -0.667209 -7.141809 30.557315 -0.022459 1.806697 0.061673 -0.013532 -260636.000000 0 0 1
29.468436 -1.769709 -8.265809 30.656879 -0.059982 1.843798 0.055880 -0.014416 -534792.000000 0 0 1
30.338936 -1.947709 -9.349009 31.806424 -0.064110 1.869137 0.048258 -0.010646 -107146.000000 0 0 1
30.142576 -3.168309 -10.001909 31.916317 -0.104726 1.889546 0.047704 -0.016418 5188.260000 0 0 1
31.086076 -3.507609 -11.212609 33.232064 -0.112360 1.914953 0.041946 -0.020473 -523683.000000 0 0 1
32.449456 -3.559509 -10.932909 34.426238 -0.109257 1.893967 0.040071 -0.007418 -307444.000000 0 0 1
33.196906 -4.067209 -12.058609 35.552593 -0.121910 1.916838 0.035493 -0.025733 -317275.000000 0 0 1
34.622206 -4.342209 -11.611909 36.774834 -0.124765 1.892051 0.035166 -0.013863 -853511.000000 0 0 1
34.625586 -5.317909 -10.626909 36.607958 -0.152392 1.865326 0.036906 -0.015195 869268.000000 0 0 1
-35.385436 -5.657809 -10.175009 37.251453 0.158549 1.847456 0.040685 -0.011192 660318.000000 0 0 1
-35.299586 -6.963909 -9.358009 37.176998 0.194779 1.825248 0.041931 -0.012057 -288990.000000 0 0 1
35.627271 -6.849809 -8.014709 37.154514 -0.189945 1.788218 0.040906 -0.006606 397283.000000 0 0 1
35.007446 -8.009109 -7.475409 36.681724 -0.224912 1.776025 0.036913 -0.006087 -112986.000000 0 0 1
34.802176 -8.013809 -5.972709 36.208920 -0.226322 1.736505 0.043983 -0.006552 815504.000000 0 0 1
-35.234901 -8.047209 -5.313609 36.530676 0.224536 1.716770 0.035279 -0.000774 1531250.000000 0 0 1
-35.327853 -8.889609 -4.174009 36.667489 0.246514 1.684878 0.058691 -0.005603 -66357.300000 0 0 1
-35.106517 -10.362109 -4.603309 36.892158 0.287012 1.695900 0.053675 -0.008842 -585213.000000 0 0 1
35.276469 -10.838909 -5.517909 37.314321 -0.298100 1.719217 0.025866 -0.007953 14733.100000 0 0 1
-35.607576 -12.052009 -6.091409 38.082223 0.326364 1.731441 0.023659 -0.008624 193191.000000 0 0 1
34.862486 -12.517209 -7.303509 37.754665 -0.344710 1.765470 0.019966 -0.018191 1255.050000 0 0 1
35.054226 -11.642209 -8.412809 37.882914 -0.320658 1.794737 0.041954 -0.016424 236018.000000 0 0 1
34.107186 -11.756209 -9.467309 37.297970 -0.331931 1.827433 0.038398 -0.017091 -8176.060000 0 0 1
34.393406 -10.882409 -10.698209 37.626918 -0.306443 1.859097 0.012116 -0.017135 -171990.000000 0 0 1
34.105596 -9.542509 -10.491709 36.936799 -0.272817 1.858806 0.025810 -0.018166 327950.000000 0 0 1
34.522596 -8.893609 -11.680409 37.514503 -0.252135 1.887417 0.027339 -0.016713 60064.500000 0 0 1
33.358386 -8.333509 -12.555009 36.604065 -0.244807 1.920900 0.028866 -0.019610 67561.200000 0 0 1
33.876586 -7.820909 -13.770609 37.395446 -0.226890 1.947915 0.026631 -0.010265 152630.000000 0 0 1
32.931206 -7.133809 -14.529009 36.693974 -0.213331 1.977899 0.022245 -0.012129 -389041.000000 0 0 1
33.448996 -6.651009 -15.909909 37.632386 -0.196280 2.007298 0.021556 -0.010620 -177690.000000 0 0 1
34.311346 -5.514909 -15.832209 38.188239 -0.159368 1.998281 0.026983 -0.016927 220833.000000 0 0 1
33.759086 -4.231409 -15.898409 37.554496 -0.124691 2.007928 0.031877 -0.011018 -353728.000000 0 0 1
34.879556 -3.186609 -15.895609 38.463077 -0.091107 1.996838 0.031487 -0.011847 -406896.000000 0 0 1
35.666003 -3.157109 -17.025909 39.647355 -0.088289 2.014662 0.041283 -0.013400 302275.000000 0 0 1
-34.406146 -2.474909 -16.975809 38.445886 0.071809 2.028123 0.048249 -0.012118 525540.000000 0 0 1
-34.357458 -0.958309 -16.607309 38.172713 0.027885 2.020898 0.034931 -0.006726 -685771.000000 0 0 1
-34.590358 -0.045409 -17.666609 38.840752 0.001313 2.042997 0.029142 -0.004580 211004.000000 0 0 1
-34.365673 1.231591 -17.158909 38.431035 -0.035822 2.033630 0.032343 -0.015839 -402262.000000 0 0 1
-34.555293 2.408791 -18.192009 39.125692 -0.069596 2.054389 0.019978 -0.015806 -99139.100000 0 0 1
-33.577385 2.578091 -19.206409 38.768202 -0.076630 2.089111 0.019284 -0.006957 115714.000000 0 0 1
-33.823385 3.638791 -20.110309 39.518182 -0.107170 2.104688 0.017881 -0.006947 -184195.000000 0 0 1
-32.846065 3.750991 -21.297609 39.325845 -0.113706 2.143097 0.014329 0.002367 -1098270.000000 0 0 1
-31.502645 3.960791 -21.095809 38.120043 -0.125073 2.157243 0.008942 0.000943 -816284.000000 0 0 1
-30.894085 4.248391 -22.337809 38.359758 -0.136658 2.192381 0.010544 0.004076 211819.000000 0 0 1
-29.415165 4.709191 -22.139109 37.115611 -0.158747 2.209918 0.021453 0.000320 797586.000000 0 0 1
-28.614385 3.680791 -21.547509 36.008699 -0.127932 2.212296 0.029418 0.009102 35695.000000 0 0 1
-27.226795 3.752691 -21.699709 35.017973 -0.136968 2.239123 0.025814 0.009578 287043.000000 0 0 1
-26.376565 2.707391 -20.853209 33.732914 -0.102286 2.237229 0.039973 0.009230 380100.000000 0 0 1
-26.290445 3.052191 -19.462309 32.852471 -0.115578 2.204850 0.037300 0.012546 167852.000000 0 0 1
-25.700945 1.992991 -18.689209 31.840181 -0.077391 2.198107 0.047930 0.006257 -25028.300000 0 0 1
-24.995085 2.550391 -17.429609 30.578588 -0.101684 2.177295 0.058007 0.000165 292341.000000 0 0 1
-23.769785 3.229191 -17.661109 29.788339 -0.135026 2.205435 0.047018 0.006957 103484.000000 0 0 1
-23.129085 3.629991 -16.501109 28.642940 -0.155675 2.184742 0.052213 -0.002967 161013.000000 0 0 1
-21.964485 4.637791 -16.858209 28.073955 -0.208093 2.214914 0.048748 -0.009437 1593620.000000 0 0 1
-20.831185 3.952091 -17.478209 27.478084 -0.187492 2.260201 0.057688 -0.012129 974899.000000 0 0 1
-19.732185 4.787491 -17.754709 26.972373 -0.238024 2.289295 0.053443 -0.010804 -471781.000000 0 0 1
-18.519685 4.044091 -18.271109 26.328062 -0.214992 2.337797 0.056914 -0.016220 -670644.000000 0 0 1
-18.079485 3.077391 -17.307909 25.217094 -0.168599 2.327263 0.066517 -0.014871 -402635.000000 0 0 1
-17.113985 2.272191 -17.904409 24.872057 -0.131996 2.374398 0.046403 -0.011897 -1038280.000000 0 1 0
-17.073085 0.847391 -17.289109 24.312993 -0.049592 2.361866 0.042904 -0.011303 -203502.000000 0 1 0
-17.981085 -0.086909 -17.786509 25.292032 0.004833 2.350749 0.020374 -0.012662 499190.000000 0 0 1
-19.347085 0.192491 -17.442609 26.049786 -0.009949 2.304449 0.029761 -0.016340 -159571.000000 0 0 1
-20.315585 -0.824409 -18.025209 27.171876 0.040558 2.296120 0.023834 -0.015338 -681608.000000 0 0 1
-20.152385 -2.124709 -17.503809 26.777161 0.105044 2.283239 0.009064 -0.018754 451163.000000 0 0 1
-21.310585 -2.852809 -17.847709 27.943162 0.133077 2.263623 0.029130 -0.009822 7922.100000 0 0 1
-21.488985 -4.103309 -16.917409 27.655241 0.188678 2.229036 0.040567 -0.014127 -96663.500000 0 0 1
-21.787585 -3.700309 -15.594109 27.047503 0.168230 2.185290 0.038179 -0.020543 314101.000000 0 0 1
-22.091385 -4.763209 -14.702609 26.960790 0.212363 2.147583 0.039752 -0.030491 -111513.000000 0 0 1
-22.157685 -4.281709 -13.255109 26.172389 0.190885 2.101864 0.034305 -0.027933 43494.200000 0 0 1
-23.213185 -3.346909 -13.093609 26.860685 0.143195 2.079979 0.031094 -0.028817 532330.000000 0 0 1
-23.490985 -2.981909 -11.762809 26.440156 0.126263 2.031841 0.029527 -0.032459 -432039.000000 0 0 1
-24.360685 -1.709209 -11.727209 27.090438 0.070048 2.018494 0.067515 -0.029880 -299363.000000 0 0 1
-24.689085 -1.320509 -10.422509 26.831388 0.053435 1.969739 0.064039 -0.029642 558287.000000 0 0 1
-25.089185 0.074991 -10.395909 27.157831 -0.002989 1.963617 0.074960 -0.027860 -321092.000000 0 0 1
-25.654135 0.503891 -9.032609 27.202511 -0.019639 1.909273 0.087751 -0.018046 -412357.000000 0 0 1
-24.696085 0.711491 -8.034409 25.979888 -0.028802 1.885206 0.060989 -0.014009 297460.000000 0 0 1
-25.333065 1.103191 -6.819109 26.257979 -0.043520 1.833504 0.065205 -0.012688 -364276.000000 0 0 1
-24.341785 1.543291 -5.765209 25.062759 -0.063316 1.802906 0.040688 -0.001150 -408446.000000 0 0 1
-23.936585 2.840391 -6.111009 24.867094 -0.118111 1.819086 0.054966 -0.002099 481886.000000 0 1 0
-22.576885 3.123691 -5.795409 23.517227 -0.137485 1.819794 0.034226 0.014698 369978.000000 0 1 0
-22.104185 4.618091 -5.781209 23.309744 -0.205961 1.821429 0.045368 0.002955 -170444.000000 0 1 0
-22.546385 5.336291 -4.614709 23.624373 -0.232404 1.767397 0.044092 -0.000135 658989.000000 0 1 0
-22.272585 6.673091 -4.845309 23.750268 -0.291099 1.776249 0.054536 -0.007023 -569201.000000 0 1 0
-22.708785 7.719191 -3.759609 24.277757 -0.327668 1.726280 0.053300 -0.002444 -470029.000000 0 1 0
-22.092185 7.545691 -2.493309 23.478047 -0.329131 1.677194 0.039665 -0.004394 1217470.000000 0 1 0
-20.693885 7.862891 -2.435609 22.270926 -0.363114 1.680378 0.037449 -0.005363 267342.000000 0 1 0
-20.335285 9.359591 -2.432509 22.517612 -0.431356 1.679035 0.036684 -0.009606 -777572.000000 0 1 0
-20.359885 9.925791 -3.694509 22.949851 -0.453611 1.732482 0.035840 -0.011260 652463.000000 0 1 0
-19.549785 11.098391 -3.705609 22.783764 -0.516330 1.734165 0.027253 -0.014252 -195857.000000 0 1 0
-19.484385 11.781591 -5.080009 23.329244 -0.543845 1.790308 0.034456 -0.016547 -131557.000000 0 1 0
-18.517485 11.129791 -5.872609 22.388770 -0.541185 1.836203 0.032203 -0.008812 108394.000000 0 1 0
-18.531185 11.708991 -7.161909 23.060751 -0.563512 1.886586 0.036089 -0.006413 324926.000000 0 1 0
-17.299885 11.423691 -8.095509 22.255876 -0.583605 1.943084 0.037379 -0.006222 368367.000000 0 1 0
-17.018985 10.053091 -8.462709 21.501812 -0.533552 1.975320 0.029187 -0.002063 257309.000000 0 1 0
-17.844385 9.508191 -9.471209 22.327821 -0.489573 2.008862 0.030457 -0.002341 -296730.000000 0 1 0
-17.754485 10.169891 -10.855309 23.162171 -0.520184 2.058576 0.028040 -0.001038 49396.100000 0 1 0
-16.568085 9.902691 -11.560509 22.499113 -0.538724 2.110429 0.024339 -0.006060 -84558.800000 0 1 0
-16.706585 10.499791 -12.808509 23.524742 -0.561099 2.146553 0.029941 -0.009199 537467.000000 0 1 0
-15.508385 10.256391 -13.790609 23.149178 -0.584309 2.208968 0.022097 -0.003647 274250.000000 0 1 0
-15.625585 9.041691 -14.523409 23.169819 -0.524570 2.248267 0.023808 -0.002851 109827.000000 0 1 0
-15.588585 7.832991 -13.753109 22.215034 -0.465632 2.238380 0.026598 -0.003241 -302136.000000 0 1 0
-15.819785 6.513991 -14.513809 22.435426 -0.390605 2.274328 0.045724 -0.007015 -49089.600000 0 1 0
-14.813885 6.205191 -15.461609 22.293877 -0.396673 2.337182 0.046401 -0.009106 564853.000000 0 1 0
-15.137485 4.999891 -16.121109 22.672285 -0.319017 2.361785 0.063278 -0.011679 146314.000000 0 1 0
31.527246 -15.984409 28.524863 45.421761 -0.469234 0.891816 0.014178 -0.003674 -42819.700000 0 0 1
30.892846 -14.690809 28.428913 44.479106 -0.443890 0.877401 0.023103 -0.002258 -223382.000000 0 0 1
29.898426 -14.481409 29.406613 44.366383 -0.451052 0.846227 0.023319 -0.011553 -150723.000000 0 0 1
30.188466 -14.579309 30.947433 45.625030 -0.449909 0.825351 0.020661 -0.017961 -320233.000000 0 0 1
31.024046 -13.515209 31.370443 46.143873 -0.410845 0.823252 0.006968 -0.016043 42003.600000 0 0 1
31.033046 -13.388909 32.759563 47.069117 -0.407313 0.801001 -0.004126 -0.015052 -320724.000000 0 0 1
31.678466 -12.097809 33.297504 47.524793 -0.364801 0.794510 0.001061 -0.017722 15591.400000 0 0 1
31.364776 -11.933409 -34.190660 47.907794 -0.363559 2.365529 -0.003944 -0.024287 116585.000000 0 0 1
31.385536 -10.539809 -33.868719 47.362745 -0.323985 2.367552 0.015596 -0.012829 -121234.000000 0 0 1
30.998376 -10.287809 -32.408139 46.011149 -0.320444 2.352309 0.017875 -0.006628 -788378.000000 0 0 1
29.676226 -10.569309 -32.133229 44.999257 -0.342147 2.366110 0.028758 -0.013951 -824937.000000 0 0 1
29.179736 -9.997809 -30.959049 43.702127 -0.330093 2.358040 0.011634 0.001625 -508606.000000 0 0 1
27.841626 -10.465409 -30.409459 42.537233 -0.359551 2.367264 0.009737 0.005905 -512727.000000 0 0 1
27.570206 -10.114209 -29.062319 41.316243 -0.351609 2.350982 0.004548 0.012288 545502.000000 0 0 1
26.742366 -11.168109 -28.507619 40.651755 -0.395602 2.347966 0.023221 0.008060 -487791.000000 0 0 1
26.161656 -10.865409 -27.129409 39.223644 -0.393641 2.334581 0.017841 0.009243 -213478.000000 0 0 1
25.212156 -9.743809 -27.017479 38.216997 -0.368791 2.355972 0.008169 0.003099 1847360.000000 0 0 1
23.974356 -9.779309 -27.750789 37.954064 -0.387304 2.390829 0.012457 -0.003021 618917.000000 0 0 1
23.065456 -11.001609 -27.493379 37.535804 -0.445057 2.392721 0.014763 0.007198 -1321030.000000 0 0 1
23.472556 -12.058409 -28.318179 38.707692 -0.474566 2.391448 0.019357 -0.000441 225906.000000 0 0 1
22.810456 -13.268609 -28.006179 38.480112 -0.526847 2.385918 0.014998 0.001156 -160482.000000 0 0 1
23.624456 -14.426009 -28.531129 39.752359 -0.548205 2.371321 0.022877 0.004558 -140084.000000 0 0 1
23.918156 -14.284109 -29.936719 40.894023 -0.538364 2.392132 0.022764 -0.004882 -57038.800000 0 0 1
24.826256 -15.159709 -30.512189 42.156298 -0.548201 2.380071 0.022236 0.000104 -626435.000000 0 0 1
24.901556 -15.064409 -32.065099 43.303516 -0.544058 2.404571 0.035337 -0.017005 701090.000000 0 0 1
23.745156 -15.699609 -32.675529 43.335902 -0.584188 2.424936 0.044296 -0.017277 997566.000000 0 0 1
23.857856 -15.959009 -34.047179 44.531985 -0.589561 2.441148 0.058459 -0.022911 -20380.400000 0 0 1
24.061356 -14.730209 33.815961 44.039155 -0.549337 0.695300 0.035319 -0.029664 -1153640.000000 0 0 1
22.973456 -13.910409 33.790692 43.163527 -0.544453 0.671559 0.056487 -0.030363 -974707.000000 0 0 1
23.089356 -12.845709 32.822956 42.136410 -0.507704 0.677776 0.050617 -0.030967 -26452.000000 0 0 1
21.929756 -11.770309 32.951782 41.294967 -0.492596 0.646891 0.045472 -0.032927 2146600.000000 0 0 1
20.563756 -12.217909 32.697623 40.512713 -0.536105 0.631580 0.049675 -0.029536 1558230.000000 0 0 1
20.327556 -12.470009 31.303603 39.352588 -0.550253 0.651022 0.048267 -0.022873 -725010.000000 0 0 1
18.839056 -12.870909 31.165593 38.624662 -0.599364 0.631940 0.060446 -0.025479 93740.400000 0 0 1
17.925456 -11.828409 31.412783 38.052545 -0.583280 0.599690 0.052812 -0.019042 -974556.000000 0 0 1
17.031556 -12.216609 32.352343 38.548587 -0.622238 0.574873 0.037036 -0.015254 -551042.000000 0 0 1
16.112656 -11.033409 32.852679 38.218481 -0.600429 0.536306 0.031844 -0.009518 -193857.000000 0 0 1
15.313556 -10.553409 31.802863 36.841573 -0.603410 0.529157 0.041875 -0.000871 53484.300000 0 0 1
14.712356 -9.255209 31.949143 36.371143 -0.561526 0.498250 0.042296 0.000206 716651.000000 0 0 1
13.594656 -9.097509 33.039244 36.866936 -0.589753 0.459723 0.049120 0.005135 -622767.000000 0 0 1
12.485356 -9.911709 32.799701 36.468431 -0.670990 0.452402 0.058943 0.002727 -559769.000000 0 0 1
11.349456 -9.673509 33.560362 36.724444 -0.705847 0.418148 0.064790 0.000233 -238067.000000 0 0 1
10.344256 -8.719309 32.894377 35.567823 -0.700365 0.390194 0.069762 0.000476 -690205.000000 0 0 1
10.802256 -7.402309 32.893516 35.404326 -0.600762 0.378874 0.061713 0.004795 1137250.000000 0 0 1
9.809956 -6.519409 32.278523 34.360456 -0.586550 0.349894 0.069924 0.001245 812527.000000 0 0 1
10.284356 -5.081509 32.436673 34.405340 -0.458917 0.339924 0.082135 0.001783 10.141300 0 0 1
9.947556 -4.430709 33.646996 35.365313 -0.419028 0.313006 0.064887 -0.000283 314548.000000 0 0 1
10.338656 -3.071409 33.563826 35.254103 -0.288776 0.310914 0.049239 0.001513 -195797.000000 0 0 1
10.235356 -2.353009 -33.924149 35.512633 -0.225964 2.841367 0.036270 0.001177 -879758.000000 0 0 1
8.883956 -2.159909 -33.714139 34.931835 -0.238497 2.876777 0.041571 0.010678 -799327.000000 0 0 1
8.571156 -1.512609 -32.483369 33.629184 -0.174678 2.879802 0.031968 0.003530 631134.000000 0 0 1
7.018756 -1.418109 -32.302209 33.086352 -0.199362 2.923445 0.037051 0.000822 509291.000000 0 0 1
6.469856 -0.413609 -33.126989 33.755407 -0.063842 2.948332 0.056912 0.001464 101679.000000 0 0 1
5.216256 0.096991 -32.698829 33.112417 0.018592 2.983374 0.054603 0.001865 344166.000000 0 0 1
4.603156 1.117791 -33.695469 34.026801 0.238220 3.001927 0.055200 0.003332 -401048.000000 0 0 1
5.325356 2.278691 -33.847689 34.339743 0.404320 2.972103 0.043114 -0.000412 -234612.000000 0 0 1
4.696056 3.226691 34.106861 34.579509 0.602020 0.165528 0.050175 -0.001994 115128.000000 0 0 1
5.622856 4.423791 33.933658 34.679671 0.666610 0.207794 0.042125 -0.001059 -269844.000000 0 0 1
5.262656 5.270091 32.910107 33.742325 0.786104 0.222558 0.057365 -0.021684 532628.000000 0 0 1
6.220156 6.364591 32.786421 33.972750 0.796875 0.265048 0.056286 -0.017130 657985.000000 0 0 1
5.595656 7.519491 31.889353 33.238305 0.931047 0.285873 0.062934 -0.012177 -830960.000000 0 0 1
4.465356 8.034591 32.487593 33.762964 1.063537 0.275734 0.062078 -0.014502 -655033.000000 0 0 1
4.062156 9.268391 31.942063 33.506709 1.157731 0.306805 0.061450 -0.015208 -83593.200000 0 0 1
3.636156 9.406191 30.446033 32.072714 1.201920 0.319854 0.063133 -0.019720 -932307.000000 0 0 1
2.406156 8.820391 30.173173 31.527912 1.304481 0.294214 0.064053 -0.025534 -688053.000000 0 0 1
2.185856 8.830491 28.787243 30.190410 1.328139 0.306078 0.053721 -0.019262 -210156.000000 0 0 1
0.937956 8.075391 28.353103 29.495595 1.455164 0.279238 0.053064 -0.014544 12325.700000 0 0 1
-0.306744 8.686291 28.590473 29.882451 -1.535497 0.295129 0.059990 -0.012505 138309.000000 0 0 1
-1.398944 8.294891 27.762293 29.008742 -1.403717 0.294209 0.069029 -0.009807 1103310.000000 0 0 1
-2.772544 8.506791 28.466173 29.839160 -1.255731 0.304533 0.071207 -0.008098 -291036.000000 0 0 1
-3.089344 9.831691 28.773713 30.563585 -1.266342 0.343927 0.068970 -0.012356 1123050.000000 0 0 1
-4.434044 9.870391 29.335393 31.267405 -1.148586 0.353375 0.052874 -0.004157 1112850.000000 0 0 1
-4.693944 11.259891 30.111373 32.488660 -1.175829 0.384923 0.041091 -0.001212 1850.130000 0 0 1
-4.917544 12.475991 29.419573 32.331777 -1.195334 0.427687 0.048371 -0.011730 830028.000000 0 0 1
-6.095444 12.419691 28.581283 31.753627 -1.114545 0.450809 0.047448 -0.016032 523657.000000 0 0 1
-6.363044 13.841991 28.052643 31.922402 -1.139912 0.497505 0.051785 -0.014633 432840.000000 0 0 1
-5.335444 14.396091 27.215933 31.247742 -1.215873 0.513618 0.048622 -0.010297 67901.200000 0 0 1
-5.718244 15.714491 26.759863 31.555249 -1.221807 0.558536 0.038685 -0.010366 256974.000000 0 0 1
-4.707544 16.725591 26.111283 31.364079 -1.296437 0.587152 0.083456 -0.004768 243678.000000 0 0 1
-4.408844 16.355291 24.781113 30.017278 -1.307488 0.599600 0.065667 0.007154 -543538.000000 0 0 1
-3.340944 17.106591 24.278133 29.886871 -1.377923 0.622653 0.081375 0.007121 -2314.730000 0 0 1
-2.935944 16.798291 22.760873 28.440458 -1.397768 0.643002 0.070276 -0.006827 397879.000000 0 0 1
-2.330544 15.519791 22.440573 27.383839 -1.421744 0.610289 0.069814 -0.014886 200523.000000 0 0 1
-2.332844 15.431791 21.045173 26.200794 -1.420761 0.638104 0.058745 -0.010788 -5475.170000 0 0 1
-1.482744 14.327791 20.403073 24.975377 -1.467676 0.614733 0.054106 -0.013402 -18548.700000 0 1 0
-2.010744 12.986591 20.444173 24.303473 -1.417184 0.571291 0.057252 -0.007968 -106602.000000 0 1 0
-1.200044 12.070991 19.775573 23.199616 -1.471706 0.550220 0.056842 -0.006892 -271487.000000 0 1 0
-2.004644 10.753491 19.472873 22.334926 -1.386494 0.511814 0.046148 -0.005701 -285189.000000 0 1 0
-2.254044 9.811191 20.526573 22.862204 -1.344973 0.455960 0.059611 -0.016858 -62120.100000 0 1 0
-3.085544 10.286991 21.566673 24.092823 -1.279389 0.462030 0.063230 -0.010002 -622986.000000 0 1 0
-4.565944 10.229491 21.183573 23.963181 -1.150981 0.486435 0.044629 -0.002654 -910565.000000 0 1 0
-5.154544 8.947691 21.256273 23.631750 -1.048154 0.452220 0.022255 0.000640 88953.100000 0 1 0
-6.553544 8.927191 21.045173 23.781147 -0.937542 0.484405 0.015076 0.005847 641881.000000 0 1 0
-7.266444 7.524091 21.087973 23.539663 -0.802816 0.460459 0.012602 0.011777 221369.000000 0 1 0
-7.268744 6.869391 22.338273 24.474917 -0.757159 0.420951 0.014476 0.012856 188738.000000 0 1 0
-8.129344 5.739191 22.301873 24.421262 -0.614731 0.419690 0.010198 0.018103 223387.000000 0 1 0
-8.129744 4.957091 23.638573 25.484262 -0.547556 0.382926 0.006266 0.020305 -50961.500000 0 0 1
-9.011144 5.536191 24.581713 26.760245 -0.550920 0.406297 -0.025409 0.027600 172506.000000 0 0 1
-8.968344 4.932191 25.853333 27.805620 -0.502809 0.376960 -0.027508 0.041191 -18113.000000 0 0 1
-9.851944 5.562391 26.990123 29.265469 -0.513982 0.396932 -0.015768 0.040074 -275936.000000 0 0 1
-9.410344 6.773591 27.536923 29.878390 -0.623893 0.398528 -0.015099 0.029010 -88175.800000 0 0 1
-10.225044 7.185291 28.607233 31.217842 -0.612546 0.411868 -0.006993 0.027217 -174989.000000 0 0 1
-9.508544 8.202791 29.539583 32.098055 -0.711807 0.401970 -0.003751 0.016469 447863.000000 0 0 1
-8.546044 7.635791 30.431733 32.518157 -0.729206 0.360166 0.003579 0.008839 425183.000000 0 0 1
-8.088144 8.593191 31.383453 33.528825 -0.815665 0.359667 0.010333 -0.001407 163640.000000 0 0 1
-7.123444 8.038991 32.511063 34.239422 -0.845708 0.319090 0.038774 -0.000328 120782.000000 0 0 1
-5.852244 7.931191 31.898583 33.386706 -0.935099 0.299691 0.048407 -0.004214 -737046.000000 0 0 1
-4.964244 7.349491 32.815966 33.993328 -0.976735 0.263958 0.065725 -0.001250 384642.000000 0 0 1
-3.478144 7.477291 32.348683 33.383299 -1.135406 0.249613 0.055994 -0.001742 718765.000000 0 0 1
-2.942344 8.810191 32.504963 33.806056 -1.248472 0.278339 0.054566 -0.007446 243115.000000 0 0 1
-1.563344 8.831491 32.137233 33.365266 -1.395592 0.272154 0.051634 -0.011633 642833.000000 0 0 1
-1.106344 10.248291 31.771933 33.402203 -1.463259 0.313718 0.051822 -0.014558 -69359.600000 0 0 1
-1.141744 11.174391 32.801000 34.670970 -1.468975 0.329929 0.058640 -0.021902 -123393.000000 0 0 1
-1.469444 12.415491 32.230913 34.570730 -1.452989 0.370026 0.066869 -0.018379 -27310.000000 0 0 1
-1.493344 13.535291 33.289711 35.967193 -1.460911 0.388290 0.056960 -0.017174 819700.000000 0 0 1
-0.157544 13.871191 33.702118 36.445404 -1.559439 0.390474 0.062864 -0.017935 373675.000000 0 0 1
-0.093444 14.749091 -34.041799 37.099710 -1.564461 2.732736 0.060335 -0.017223 34539.900000 0 0 1
1.351356 15.021191 -33.553769 36.787467 1.481075 2.719169 0.053275 -0.014673 -203788.000000 0 0 1
1.977856 16.013091 -34.341851 37.943296 1.447904 2.702372 0.050502 -0.007504 -552351.000000 0 0 1
3.073156 16.453391 -33.610789 37.547883 1.386144 2.679552 0.051845 -0.011614 -452725.000000 0 0 1
3.966256 17.403691 34.407175 38.761750 1.346726 0.478562 0.056985 -0.000108 234415.000000 0 0 1
3.242456 18.619991 34.226581 39.098291 1.398387 0.504537 0.051949 0.003461 148575.000000 0 0 1
4.110356 19.578291 33.693594 39.184982 1.363857 0.535801 0.038537 0.015098 -125123.000000 0 0 1
3.630156 21.061991 33.721973 39.924390 1.400117 0.564893 0.052401 0.005926 -90896.200000 0 0 1
3.881156 21.692191 -33.860169 40.399574 1.393750 2.564646 0.050333 -0.008918 232851.000000 0 0 1
3.532656 23.108691 -33.910149 41.187249 1.419099 2.538026 0.056068 -0.000850 73511.800000 0 0 1
3.808656 23.952991 -32.639829 40.664605 1.413111 2.502537 0.072229 -0.002715 -28887.300000 0 0 1
3.353856 25.292091 -32.612449 41.406643 1.438961 2.477723 0.073951 -0.000833 152040.000000 0 0 1
3.482356 25.732091 -31.287629 40.659354 1.436282 2.448864 0.080313 -0.006470 -320154.000000 0 0 1
2.942856 27.079691 -30.856929 41.159691 1.462547 2.418387 0.076320 -0.007106 -769625.000000 0 0 1
3.873656 28.076191 -30.735289 41.808321 1.433692 2.396681 0.064624 -0.012210 -495293.000000 0 0 1
3.245656 29.290791 -30.355169 42.307458 1.460438 2.370988 0.065036 -0.016091 -505850.000000 0 0 1
4.241756 30.454191 -30.206359 43.103067 1.432403 2.347306 0.067424 -0.024897 -528092.000000 0 0 1
5.226456 30.149691 -29.279469 42.350998 1.399152 2.334156 0.053492 -0.027815 -332865.000000 0 0 1
5.837256 31.371291 -28.764209 42.960577 1.386830 2.304398 0.057749 -0.038693 -467671.000000 0 0 1
7.037556 31.062091 -27.841059 42.302544 1.347994 2.289144 0.051707 -0.031293 5484.500000 0 0 1
8.122356 30.454291 -28.498259 42.492202 1.310157 2.305908 0.048261 -0.021875 1770430.000000 0 0 1
9.305356 31.239491 -28.953019 43.597853 1.281293 2.297076 0.057809 -0.026275 1775920.000000 0 0 1
8.983456 32.333591 -29.993749 45.008761 1.299795 2.300164 0.059100 -0.030179 -1446890.000000 0 0 1
8.441456 33.484791 -29.366819 45.330999 1.323844 2.275530 0.068538 -0.035801 143392.000000 0 0 1
8.036856 -34.275248 -30.165479 46.360973 -1.340477 2.279257 0.058935 -0.032286 -398446.000000 0 0 1
6.804956 34.261991 -31.013249 46.712023 1.374733 2.296851 0.032355 -0.023897 -1248890.000000 0 0 1
6.922956 33.295291 -32.018619 46.708625 1.365791 2.326082 0.020382 -0.014329 146104.000000 0 0 1
5.687856 32.977491 -32.644089 46.749365 1.400000 2.343786 0.028840 -0.017810 161349.000000 0 0 1
5.887356 32.247791 -34.009809 47.236089 1.390219 2.374593 0.024565 -0.016742 313687.000000 0 0 1
6.594456 33.090591 33.906161 47.834107 1.374088 0.782961 0.020566 -0.011783 358779.000000 0 0 1
6.557956 32.514991 32.627003 46.526903 1.371776 0.793647 0.016487 -0.010310 -315985.000000 0 0 1
5.633256 33.142291 31.559163 46.109931 1.402434 0.816970 0.014417 -0.011681 10575.700000 0 0 1
5.989056 34.419391 31.048313 46.739287 1.398519 0.844256 0.018564 -0.008176 225291.000000 0 0 1
5.166756 -34.092348 29.936533 45.663766 -1.420389 0.855838 0.008687 -0.014446 187788.000000 0 0 1
17.752515 -22.073909 29.376003 40.808808 -0.893481 0.767218 0.053072 -0.008505 -868922.000000 0 0 1
16.772015 -21.124609 29.520853 39.987877 -0.899752 0.740331 0.045487 -0.004918 -589322.000000 0 0 1
15.464415 -21.594709 29.708753 39.850842 -0.949333 0.729513 0.045643 -0.002112 93181.000000 0 0 1
14.946415 -22.041509 31.120713 40.960007 -0.974918 0.707817 0.045868 -0.009526 -410610.000000 0 0 1
15.423915 -23.288809 31.546393 42.135978 -0.985831 0.724727 0.068912 -0.009265 97481.300000 0 0 1
15.154315 -23.406209 32.949592 43.164563 -0.996217 0.702316 0.062032 -0.016223 -12036.000000 0 0 1
15.928715 -24.415809 33.827817 44.656208 -0.992740 0.711296 0.068596 -0.020372 -212444.000000 0 0 1
15.597215 -25.736389 33.570004 45.084143 -1.025949 0.730849 0.077210 -0.026108 44595.300000 0 0 1
16.400315 -26.617369 34.356613 46.452465 -1.018586 0.738309 0.066178 -0.017081 258836.000000 0 0 1
16.108815 -28.150829 33.977051 46.972365 -1.051045 0.762167 0.061980 -0.008759 93838.600000 0 0 1
16.749815 -28.672709 32.814382 46.684732 -1.042096 0.791339 0.048693 -0.015135 270013.000000 0 0 1
16.323415 -30.026669 32.461623 47.136098 -1.072856 0.811131 0.060982 -0.017115 -436262.000000 0 0 1
17.028015 -30.668889 31.262573 46.988110 -1.063953 0.842861 0.069561 -0.017890 -202144.000000 0 0 1
18.247415 -31.263549 31.613043 48.059985 -1.042475 0.852925 0.055795 -0.018080 -360987.000000 0 0 1
18.962915 -31.712199 30.507453 47.916181 -1.031871 0.880606 0.045123 -0.012711 61261.300000 0 0 1
20.275315 -32.502679 30.812103 49.161959 -1.013057 0.893425 0.028868 -0.005370 -54609.900000 0 0 1
21.405015 -31.734939 31.082503 49.309259 -0.977395 0.888782 0.014140 -0.002870 43065.500000 0 0 1
22.607815 -32.493369 30.910903 50.223662 -0.962917 0.907821 0.000438 0.007729 428049.000000 0 0 1
23.784615 -31.556399 31.286413 50.401923 -0.924920 0.901112 -0.007408 0.003640 -231314.000000 0 0 1
23.818715 -30.412759 30.446333 49.185834 -0.906395 0.903320 -0.018653 0.004382 67207.700000 0 0 1
24.850315 -29.460369 30.594443 49.208449 -0.870078 0.899845 -0.025270 0.010686 -344715.000000 0 0 1
25.984015 -29.458949 29.603363 49.186968 -0.847992 0.924976 -0.016812 0.011072 -84804.200000 0 0 1
26.901915 -30.555619 29.750113 50.422496 -0.848902 0.939717 -0.015091 0.018746 294067.000000 0 0 1
27.685615 -30.772589 28.583533 50.303716 -0.838156 0.966456 -0.019466 0.007269 214609.000000 0 0 1
28.996015 -31.565199 28.842063 51.662320 -0.827796 0.978485 -0.006115 0.004722 186777.000000 0 0 1
28.786415 -32.891819 29.246773 52.591855 -0.851862 0.981100 -0.014469 0.002525 1203680.000000 0 0 1
30.014415 -33.685009 29.222133 53.753865 -0.842958 0.996042 -0.004035 -0.001917 815674.000000 0 0 1
29.567215 33.734586 29.640773 53.766327 0.851137 0.986888 -0.014027 0.003136 -356673.000000 0 0 1
29.297615 33.543201 31.012213 54.270193 0.852857 0.962536 0.001049 0.003947 1342410.000000 0 0 1
28.183415 34.292996 31.599193 54.486911 0.882878 0.952140 -0.001007 0.006012 919175.000000 0 0 1
26.743115 34.221726 31.059993 53.395167 0.907459 0.949979 -0.008917 0.002539 -473777.000000 0 0 1
26.157215 32.950116 31.231413 52.395717 0.899821 0.932201 -0.014310 0.008372 218508.000000 0 0 1
24.778415 33.049062 30.881413 51.573947 0.927458 0.928820 -0.014464 0.012052 264836.000000 0 0 1
24.000715 31.778599 30.844893 50.371828 0.923945 0.911774 0.006700 0.002916 -504408.000000 0 0 1
23.995115 31.183189 29.589943 49.231306 0.914939 0.925996 0.003389 0.004973 190950.000000 0 0 1
23.255915 29.978559 29.629903 48.140240 0.911017 0.907787 0.035979 -0.013710 -289746.000000 0 0 1
22.857515 29.382369 28.256373 46.735556 0.909656 0.921531 0.029296 -0.017753 412245.000000 0 0 1
21.604415 29.862649 27.743293 46.132622 0.944499 0.925568 0.044379 -0.016229 667119.000000 0 0 1
21.435115 29.527619 26.380293 45.025152 0.942876 0.944805 0.032388 -0.013200 -101682.000000 0 0 1
20.135315 30.082189 25.782193 44.441990 0.980943 0.951906 0.051763 -0.012999 -25758.200000 0 0 1
20.240215 31.468259 25.527403 45.294215 0.999220 0.972070 0.040661 -0.019095 -37865.900000 0 0 1
18.950215 31.940929 25.226023 44.896390 1.035326 0.974149 0.062786 -0.024590 -494568.000000 0 0 1
18.810915 33.385589 24.664873 45.571965 1.057690 0.998898 0.086369 -0.029603 -295737.000000 0 0 1
19.181715 33.625990 23.310373 45.188703 1.052393 1.028802 0.088127 -0.029246 1965570.000000 0 0 1
20.639615 33.606752 23.164573 45.738440 1.020037 1.039725 0.072060 -0.016042 1569890.000000 0 0 1
21.177815 33.986468 21.755573 45.572851 1.013547 1.073126 0.072279 -0.017684 -250744.000000 0 0 1
20.761215 -33.606789 21.324773 44.890871 -1.017414 1.075792 0.076056 -0.016556 200439.000000 0 0 1
21.324815 -33.341409 20.072473 44.376812 -1.001774 1.101433 0.082236 -0.020241 -56705.200000 0 0 1
20.852815 -32.017379 19.353373 42.831128 -0.993510 1.101955 0.068456 -0.019908 -166292.000000 0 0 1
21.347615 -30.815619 19.985773 42.482398 -0.964951 1.080998 0.058792 -0.008527 233086.000000 0 0 1
20.934815 -29.566529 19.495373 41.140196 -0.954683 1.077109 0.059203 -0.019244 -481762.000000 0 0 1
21.552115 -29.086059 18.167773 40.503833 -0.933095 1.105660 0.043723 -0.021960 -602391.000000 0 0 1
21.202915 -29.871769 17.063873 40.411161 -0.953525 1.134863 0.037976 -0.020538 311308.000000 0 0 1
21.458215 -29.132099 15.865673 39.507642 -0.935937 1.157550 0.035293 -0.009605 -147278.000000 0 0 1
21.290715 -29.990609 14.653273 39.591029 -0.953448 1.191662 0.030698 -0.022849 283792.000000 0 0 1
22.385215 -30.903919 14.463573 40.808639 -0.943915 1.208498 0.031970 -0.012099 526781.000000 0 0 1
22.588915 -31.249739 13.155173 40.741427 -0.944898 1.242010 0.022008 -0.019473 -457568.000000 0 0 1
21.397315 -31.684439 12.274673 40.154905 -0.976823 1.260141 0.016310 -0.014820 272465.000000 0 0 1
20.600415 -32.782659 12.786373 40.774639 -1.009760 1.251829 0.018614 -0.016969 677891.000000 0 0 1
19.357615 -32.888039 12.121573 40.040891 -1.038808 1.263241 0.036904 -0.004042 274470.000000 0 0 1
18.209215 -33.466289 12.982373 40.250590 -1.072489 1.242386 0.054938 0.000326 -51175.600000 0 0 1
17.808715 -32.740379 14.136673 39.861363 -1.072620 1.208261 0.055420 0.000630 225714.000000 0 0 1
18.439815 -33.166419 15.337673 40.930213 -1.063375 1.186694 0.042474 -0.006677 -828514.000000 0 0 1
18.222315 -32.197699 16.544873 40.527490 -1.055789 1.150273 0.048717 -0.010026 -225944.000000 0 0 1
16.910315 -31.962799 16.970373 39.944622 -1.084170 1.132003 0.075117 -0.019802 -653429.000000 0 0 1
16.042215 -33.006619 17.291273 40.568186 -1.118387 1.130478 0.068514 -0.014779 -803174.000000 0 0 1
16.187515 -33.884419 18.589573 41.901811 -1.125125 1.111133 0.059435 -0.020889 174336.000000 0 0 1
17.158815 33.913528 18.405773 42.229430 1.102394 1.119812 0.048668 -0.009232 737641.000000 0 0 1
17.767015 33.368712 19.600973 42.583282 1.081531 1.092466 0.040993 -0.014980 905290.000000 0 0 1
18.850615 32.256929 19.287073 42.045765 1.041934 1.094246 0.042363 -0.004056 488688.000000 0 0 1
18.242415 31.056119 18.863073 40.658133 1.039692 1.088355 0.027070 0.000433 567488.000000 0 0 1
19.222815 30.019779 18.634273 40.223623 1.001243 1.089118 0.013820 -0.007186 422700.000000 0 0 1
18.585115 28.679379 18.238873 38.737188 0.995807 1.080558 0.012812 0.002099 -195991.000000 0 0 1
18.049415 27.978979 19.336473 38.503296 0.997869 1.044652 0.006926 -0.000977 173866.000000 0 0 1
17.474015 26.730449 18.852873 37.084888 0.991816 1.037505 0.020396 0.000746 -104310.000000 0 0 1
17.048315 25.631469 19.853773 36.630445 0.983857 0.997979 0.020733 0.000590 97189.400000 0 0 1
15.963415 25.939269 20.717573 36.836044 1.019119 0.973479 0.021268 -0.001621 113018.000000 0 0 1
15.121115 24.841959 20.939073 35.835957 1.024010 0.946775 0.032091 -0.007383 -539694.000000 0 0 1
13.986815 25.207459 21.861173 36.179523 1.064223 0.921983 0.035800 -0.016978 -436898.000000 0 0 1
13.041315 26.151969 21.379673 36.209001 1.108210 0.939178 0.058787 -0.019482 59056.500000 0 0 1
11.888515 26.104209 22.204773 36.274212 1.143440 0.912037 0.060173 -0.019584 -187625.000000 0 0 1
10.876515 27.132979 21.715073 36.414853 1.189549 0.931882 0.058802 -0.023458 -623273.000000 0 0 1
11.402715 28.467149 21.849573 37.653742 1.189810 0.951728 0.051131 -0.026460 201103.000000 0 0 1
11.056615 29.309959 20.755573 37.578135 1.210071 0.985638 0.051415 -0.033817 -207268.000000 0 0 1
11.463315 30.762389 20.870773 38.901431 1.214096 1.004507 0.059607 -0.033922 -433096.000000 0 0 1
10.757615 31.559409 21.828373 39.852232 1.242279 0.991144 0.039707 -0.023568 -185837.000000 0 0 1
11.262715 31.580829 23.145973 40.742282 1.228226 0.966593 0.035377 -0.023856 -271173.000000 0 0 1
10.543615 32.617089 24.008433 41.850294 1.258144 0.959812 0.028707 -0.022321 2315500.000000 0 0 1
9.143415 32.362859 24.434383 41.569168 1.295445 0.942459 0.024056 -0.027267 2085060.000000 0 0 1
8.881615 33.170234 25.578293 42.818180 1.309175 0.930579 0.018690 -0.019798 -932131.000000 0 0 1
7.540315 32.859987 26.243903 42.724437 1.345233 0.909349 0.051856 -0.026483 -1229610.000000 0 0 1
6.400515 33.438445 25.732833 42.676397 1.381672 0.923570 0.049291 -0.026037 -289303.000000 0 0 1
5.849715 32.941899 24.510163 41.474522 1.395052 0.938537 0.045064 -0.032568 -291192.000000 0 0 1
5.067015 31.598459 24.586933 40.356592 1.411794 0.915692 0.040857 -0.033287 -374469.000000 0 0 1
5.884615 30.517909 24.927143 39.841359 1.380309 0.894819 0.029336 -0.029661 -496940.000000 0 0 1
5.224215 29.321339 24.664163 38.669811 1.394475 0.879139 0.022195 -0.028564 -1130840.000000 0 0 1
6.137915 28.125119 25.005403 38.130912 1.355929 0.855584 0.017218 -0.024241 508058.000000 0 0 1
7.205415 27.888959 24.069023 37.537047 1.317964 0.874726 0.025246 -0.020844 626348.000000 0 0 1
8.245815 28.829549 24.096283 38.467742 1.292214 0.893867 0.036080 -0.019264 -918292.000000 0 0 1
9.482515 28.566829 24.993913 39.123873 1.250299 0.877806 0.028520 -0.018127 -471363.000000 0 0 1
9.180815 28.659869 26.380903 40.020338 1.260788 0.851059 0.015414 -0.007940 -250876.000000 0 0 1
10.236315 28.496949 27.268663 40.748475 1.225943 0.837672 0.028719 0.000587 457448.000000 0 0 1
11.328715 29.649119 27.349793 41.897747 1.205822 0.859555 0.031676 -0.000091 485076.000000 0 0 1
10.744115 30.755689 27.955563 42.928567 1.234712 0.861617 0.025997 -0.008137 401423.000000 0 0 1
11.600415 31.881999 27.898263 43.924305 1.221833 0.882601 0.027882 -0.001874 186604.000000 0 0 1
10.933615 33.014237 28.772563 45.136949 1.250986 0.879612 0.023588 -0.006812 176952.000000 0 0 1
11.059015 32.951789 30.191743 46.039804 1.246996 0.855588 0.028016 -0.017032 548095.000000 0 0 1
10.195715 31.975059 30.819363 45.565229 1.262124 0.827961 0.027339 -0.013000 164540.000000 0 0 1
10.413015 32.042779 32.362893 46.717528 1.256590 0.805521 0.032615 -0.020420 -293354.000000 0 0 1
10.392315 30.783779 32.935114 46.264057 1.245219 0.778605 0.025360 -0.017901 238353.000000 0 0 1
10.457815 30.973339 34.353516 47.422333 1.245175 0.760609 0.042557 -0.010429 -121486.000000 0 0 1
10.339615 29.606299 -33.825439 46.125925 1.234801 2.394001 0.028087 -0.009099 -700254.000000 0 0 1
11.483215 28.843049 -34.002539 46.043006 1.191905 2.401632 0.029763 0.002893 -466091.000000 0 0 1
11.221115 27.426049 -33.883519 45.013270 1.182435 2.423018 0.021114 -0.003601 -303854.000000 0 0 1
12.498615 26.575829 -33.963129 44.899713 1.131190 2.428622 0.006322 -0.003497 -113127.000000 0 0 1
12.407915 25.177389 -33.783609 43.922540 1.112909 2.448327 0.005708 -0.009870 -350099.000000 0 0 1
12.397915 24.796399 -32.453259 42.682359 1.107158 2.434638 0.011753 -0.005582 -110562.000000 0 0 1
12.477915 23.246529 -32.355629 41.749086 1.078171 2.457515 0.012508 -0.018080 -498984.000000 0 0 1
13.673615 22.721729 -32.842469 42.212232 1.029065 2.462323 0.007179 -0.010489 -410012.000000 0 0 1
13.778315 21.339729 -32.667539 41.381084 0.997475 2.480679 0.001683 -0.002957 -118980.000000 0 0 1
15.115715 20.810129 -33.215229 42.009496 0.942595 2.482683 0.015541 -0.017791 675101.000000 0 0 1
16.257615 20.978729 -32.355099 41.848173 0.911513 2.454596 0.020282 -0.011145 1081260.000000 0 0 1
17.442415 20.387629 -32.920939 42.469772 0.863095 2.457767 0.023184 -0.007279 630268.000000 0 0 1
18.660915 20.472729 -31.960489 42.294624 0.831663 2.427462 0.028337 -0.007854 -328758.000000 0 0 1
19.295415 21.690529 -32.197039 43.352525 0.843769 2.407859 0.038395 -0.012882 -219011.000000 0 0 1
20.301215 21.948529 -31.211479 43.220755 0.824368 2.377689 0.034507 -0.009326 314106.000000 0 0 1
19.872415 22.432129 -29.785379 42.252599 0.845831 2.353129 0.027640 -0.019667 -50851.300000 0 0 1
19.299615 23.731129 -29.794789 42.700950 0.888021 2.343055 0.029895 -0.009674 104453.000000 0 0 1
18.861215 24.222839 -28.520509 41.903589 0.909207 2.319408 0.030964 -0.006547 40997.900000 0 0 1
20.029715 24.759579 -27.631049 42.162793 0.890611 2.285432 0.016131 -0.010080 423069.000000 0 0 1
20.775715 25.836909 -28.140579 43.486416 0.893554 2.274587 0.012360 -0.006146 -735128.000000 0 0 1
20.012515 26.950109 -28.464289 44.011645 0.932063 2.274105 0.007056 0.000747 -1351610.000000 0 0 1
20.668615 27.986859 -29.398299 45.549050 0.934689 2.272370 0.008599 0.009090 -1025440.000000 0 0 1
20.852015 27.706759 -30.805369 46.383637 0.925635 2.297143 0.014726 0.007842 139489.000000 0 0 1
21.567015 26.521919 -31.173549 46.263792 0.888072 2.310165 0.021828 0.003654 1002740.000000 0 0 1
23.056015 26.420319 -30.642069 46.567687 0.853292 2.288971 0.030490 -0.009495 488419.000000 0 0 1
23.855015 27.442239 -31.246979 47.942799 0.855215 2.280693 0.032563 -0.005882 726514.000000 0 0 1
25.220315 26.976779 -31.213679 48.353952 0.819036 2.272507 0.044730 -0.009170 903941.000000 0 0 1
26.315615 28.066279 -31.417729 49.671937 0.817579 2.255579 0.041492 -0.005990 -57263.500000 0 0 1
26.399415 29.002069 -30.375309 49.605529 0.832342 2.229810 0.041209 -0.006707 35405.100000 0 0 1
27.420315 29.928519 -30.677569 50.879300 0.829106 2.217987 0.052389 -0.006794 211833.000000 0 0 1
27.568515 31.085999 -29.678199 51.060336 0.845296 2.191045 0.039604 0.000056 70493.700000 0 0 1
27.963815 30.622339 -28.423169 50.275035 0.830745 2.171658 0.050384 -0.009837 161359.000000 0 0 1
27.336815 31.371679 -27.413569 49.829584 0.854017 2.153336 0.046841 -0.007091 16601.100000 0 0 1
27.946715 30.998699 -26.017149 49.181605 0.837128 2.128220 0.059385 -0.010066 -60528.000000 0 0 1
27.675815 29.718959 -25.423409 47.911554 0.820981 2.130142 0.047525 0.005255 791763.000000 0 0 1
26.325815 29.371019 -25.065509 46.733126 0.840018 2.136908 0.038727 0.003514 735544.000000 0 0 1
25.733615 29.869949 -23.732209 46.017937 0.859651 2.112640 0.035179 0.015338 -173078.000000 0 0 1
25.583715 31.271659 -23.844609 46.914907 0.885109 2.103951 0.052234 0.012545 -59827.400000 0 0 1
24.992815 31.778599 -22.718809 46.375257 0.904362 2.082761 0.039389 0.022038 -158377.000000 0 0 1
2.945915 -26.471609 -19.801109 33.188981 -1.459967 2.210075 -0.004884 0.007429 -664954.000000 0 0 1
2.682615 -27.521159 -18.925009 33.507710 -1.473629 2.170982 -0.010795 0.016582 -54827.000000 0 0 1
2.815115 -27.160859 -17.556009 32.463065 -1.467519 2.142184 0.005933 0.011286 -131288.000000 0 0 1
2.749815 -28.232209 -16.424509 32.777792 -1.473703 2.095650 0.009211 0.003361 365244.000000 0 0 1
4.082115 -28.603349 -16.115809 33.083751 -1.429039 2.079587 0.019921 0.001292 56982.400000 0 0 1
3.980015 -29.656089 -15.149909 33.538693 -1.437388 2.039482 0.016315 -0.009243 3624.390000 0 0 1
5.283515 -30.389259 -14.797109 34.210774 -1.398656 2.018091 0.052108 -0.011745 -88124.700000 0 0 1
6.277215 -29.556089 -14.216809 33.392866 -1.361523 2.010580 0.037965 -0.005694 -199001.000000 0 0 1
7.544015 -30.158419 -14.080709 34.127830 -1.325680 1.996089 0.045951 -0.007759 75074.900000 0 0 1
7.784015 -31.122479 -12.950609 34.596501 -1.325715 1.954474 0.039825 -0.019915 -756792.000000 0 0 1
8.030715 -30.421579 -11.734709 33.580772 -1.312703 1.927777 0.031021 -0.014628 -60436.000000 0 0 1
8.012915 -31.146189 -10.498709 33.830679 -1.318989 1.886338 0.028026 -0.013575 114855.000000 0 0 1
9.257015 -31.994879 -10.152909 34.820198 -1.289159 1.866676 0.033338 -0.021050 476615.000000 0 0 1
10.417415 -31.326869 -9.711109 34.412221 -1.249761 1.856882 0.029335 -0.017643 507223.000000 0 0 1
11.561315 -32.170009 -9.593809 35.505136 -1.225788 1.844406 0.031171 -0.020806 674650.000000 0 0 1
12.764515 -31.717459 -8.746609 35.290696 -1.188184 1.821251 0.028311 -0.023783 282325.000000 0 0 1
13.704415 -30.876319 -9.403109 35.065318 -1.153070 1.842279 0.031048 -0.023984 153114.000000 0 0 1
14.623615 -30.354289 -8.468309 34.741118 -1.121843 1.817032 0.028409 -0.018101 -114668.000000 0 0 1
15.876015 -29.703609 -9.093909 34.886264 -1.079946 1.834516 0.046021 -0.024054 -93816.700000 0 0 1
15.824215 -28.301819 -9.414909 33.764468 -1.060975 1.853383 0.045119 -0.025467 65096.000000 0 0 1
15.226015 -27.998229 -10.672709 33.610104 -1.072710 1.893935 0.036836 -0.022047 -174389.000000 0 0 1
14.832115 -26.482879 -10.820309 32.224426 -1.060259 1.913229 0.029340 -0.018182 -571769.000000 0 0 1
13.828515 -26.140239 -9.875809 31.178062 -1.084209 1.893103 0.018357 -0.016634 256863.000000 0 0 1
13.403415 -24.746509 -9.827309 29.809684 -1.074403 1.906749 0.008054 -0.008178 506091.000000 0 0 1
12.600415 -24.216509 -11.098909 29.468552 -1.091023 1.956958 -0.001495 0.005158 338440.000000 0 0 1
13.469715 -24.023909 -12.192009 30.120201 -1.059791 1.987533 -0.001997 -0.006216 -59239.200000 0 0 1
12.740215 -24.052609 -13.376809 30.327877 -1.083687 2.027590 0.000041 -0.012597 95115.500000 0 0 1
13.522015 -23.358809 -14.560609 30.667413 -1.046049 2.065523 0.006440 -0.010761 534048.000000 0 0 1
14.527515 -24.119009 -15.208209 32.001015 -1.028668 2.066035 0.014878 -0.010074 257717.000000 0 0 1
15.065015 -23.452809 -16.322009 32.301655 -0.999815 2.100525 0.014519 -0.017210 -1019520.000000 0 0 1
15.828315 -24.404209 -17.265209 33.825855 -0.995413 2.106463 0.018162 -0.013068 483868.000000 0 0 1
17.144215 -24.785909 -16.906509 34.555686 -0.965668 2.082031 0.035934 -0.015737 116046.000000 0 0 1
18.128015 -23.766409 -16.884509 34.330071 -0.919180 2.084985 0.038649 -0.015645 -989600.000000 0 0 1
19.487815 -24.275409 -16.446009 35.207125 -0.894363 2.056829 0.034795 -0.012398 -32265.700000 0 0 1
20.140815 -25.229149 -17.340609 36.645042 -0.897084 2.063721 0.045183 -0.010129 51219.900000 0 0 1
21.406215 -25.647019 -16.875309 37.426885 -0.875283 2.038556 0.052281 -0.008726 65889.400000 0 0 1
22.163915 -26.600239 -17.774609 38.919771 -0.876124 2.045077 0.047145 -0.010698 -254544.000000 0 0 1
22.860515 -25.951709 -18.830709 39.378801 -0.848642 2.069394 0.046055 -0.010720 -59785.000000 0 0 1
23.164615 -26.909879 -19.807709 40.658164 -0.860053 2.079650 0.039869 -0.021451 -748813.000000 0 0 1
24.274715 -26.472789 -20.736309 41.473665 -0.828685 2.094381 0.029625 -0.014455 -409460.000000 0 0 1
23.982415 -25.307669 -21.479709 40.951340 -0.812279 2.122945 0.036121 -0.013077 -123847.000000 0 0 1
24.815315 -24.284209 -21.016309 40.585810 -0.774582 2.115102 0.035271 -0.008734 -52857.100000 0 0 1
24.492915 -22.954009 -21.759709 40.003430 -0.752975 2.145929 0.033541 -0.008258 -208452.000000 0 0 1
24.955215 -22.909709 -23.113209 41.010218 -0.742689 2.169529 0.029396 -0.010948 -195774.000000 0 0 1
24.238815 -23.511109 -24.152609 41.516755 -0.770159 2.191682 0.029075 -0.018109 -391171.000000 0 0 1
23.190015 -22.693409 -24.922009 40.913007 -0.774575 2.225780 0.028986 -0.011490 118328.000000 0 0 1
23.780415 -21.628409 -25.657099 41.128858 -0.738042 2.244420 0.018198 0.000182 159510.000000 0 0 1
22.791115 -20.984109 -26.456159 40.739368 -0.744142 2.277592 0.007345 0.003241 -63209.200000 0 0 1
23.329015 -19.974009 -27.503839 41.226996 -0.708075 2.301148 0.003081 0.002161 -116972.000000 0 0 1
22.409115 -19.164609 -28.235669 40.825283 -0.707514 2.334529 0.018938 -0.000507 -115666.000000 0 0 1
22.953115 -18.674109 -29.393829 41.708093 -0.682965 2.352869 0.024369 0.000457 -493405.000000 0 0 1
22.040815 -17.626209 -30.040239 41.217675 -0.674563 2.387392 0.034564 -0.002209 -1467170.000000 0 0 1
20.893515 -18.217409 -30.475299 41.196563 -0.717081 2.403500 0.042750 -0.010459 -948425.000000 0 0 1
20.076715 -17.237709 -31.099929 40.834039 -0.709461 2.436602 0.044200 -0.010457 -480482.000000 0 0 1
18.820915 -17.756109 -31.775929 40.978237 -0.756295 2.458199 0.043613 -0.009938 -588245.000000 0 0 1
19.037715 -18.471909 -32.968199 42.314870 -0.770315 2.464051 0.053555 -0.011446 306639.000000 0 0 1
17.833115 -18.950609 -33.528109 42.441486 -0.815769 2.481580 0.047584 -0.017294 -106920.000000 0 0 1
18.050315 -19.480409 33.938269 43.094156 -0.823484 0.663993 0.071653 -0.013650 -161370.000000 0 0 1
18.857915 -20.632009 34.001571 44.015992 -0.830293 0.688056 0.059966 -0.010830 84682.000000 0 0 1
18.906615 -21.437509 32.834069 43.532780 -0.848049 0.716304 0.044381 -0.016126 -66874.900000 0 0 1
19.657315 -22.775309 33.043164 44.687531 -0.858747 0.738578 0.037472 -0.009820 -171917.000000 0 0 1
19.161115 -23.633609 34.042103 45.656988 -0.889531 0.729353 0.043707 -0.004992 -19968.500000 0 0 1
19.503115 -23.276709 -33.436969 45.168657 -0.873380 2.404267 0.048045 -0.005335 -510059.000000 0 0 1
18.602615 -23.921309 -32.400979 44.363383 -0.909827 2.389637 0.049507 -0.009629 -512519.000000 0 0 1
18.664915 -25.347259 -32.381029 45.159646 -0.936077 2.370335 0.044883 -0.012079 -509017.000000 0 0 1
19.698115 -25.916089 -31.654479 45.405567 -0.920880 2.342210 0.034755 -0.013744 -515884.000000 0 0 1
19.762515 -27.437079 -31.743729 46.379033 -0.946586 2.324634 0.033159 -0.004118 281723.000000 0 0 1
18.775115 -28.238209 -31.087399 46.003563 -0.984029 2.312793 0.033299 -0.006581 229396.000000 0 0 1
19.226715 -29.605659 -30.966289 46.958202 -0.994824 2.290875 0.030982 -0.000733 125943.000000 0 0 1
18.148115 -30.624129 -30.446519 46.842096 -1.035830 2.278357 0.041602 0.001658 142539.000000 0 0 1
17.014815 -30.908629 -31.210109 47.105395 -1.067579 2.295027 0.038013 -0.005741 -538350.000000 0 0 1
17.186115 -31.243289 -32.572349 48.295586 -1.067896 2.310999 0.039915 -0.009199 -809757.000000 0 0 1
15.967015 -31.849259 -33.325679 48.784442 -1.106085 2.322824 0.046469 -0.022127 778308.000000 0 0 1
14.898915 -30.902189 -33.459019 47.921070 -1.121546 2.343692 0.059488 -0.015016 333388.000000 0 0 1
13.714815 -31.471549 -33.982599 48.304986 -1.159827 2.351108 0.041338 -0.022758 -154916.000000 0 0 1
12.696615 -30.486469 34.328330 47.634683 -1.176175 0.766045 0.049951 -0.014215 -255285.000000 0 0 1
12.032615 -29.706809 -33.506649 46.367811 -1.185948 2.378392 0.056213 -0.017333 353082.000000 0 0 1
11.201415 -28.754069 -34.192088 46.058301 -1.199323 2.407390 0.046783 -0.009046 33273.700000 0 0 1
10.400615 -27.899259 -33.199299 44.595234 -1.213963 2.410520 0.042488 -0.012817 1056540.000000 0 0 1
9.303215 -28.602769 -32.536719 44.309213 -1.256333 2.395447 0.039571 -0.007199 8796.770000 0 0 1
8.268215 -27.775699 -32.215139 43.332067 -1.281471 2.409008 0.024253 -0.001464 -441228.000000 0 0 1
7.017815 -28.423139 -31.584869 43.066560 -1.328733 2.394101 0.008312 -0.000014 -87177.900000 0 0 1
6.120215 -29.262979 -32.244849 43.971687 -1.364623 2.393973 0.006639 0.006144 500990.000000 0 0 1
6.670915 -30.545539 -32.565299 45.144543 -1.355780 2.376555 0.010278 0.008076 190838.000000 0 0 1
5.428515 -31.404179 -32.885679 45.794750 -1.399628 2.371879 0.017994 -0.005189 324966.000000 0 0 1
4.663815 -31.757329 -31.777399 45.167270 -1.424981 2.351176 0.020691 -0.020712 -326790.000000 0 0 1
3.708115 -32.724829 -32.071009 45.969710 -1.457966 2.342916 0.035400 -0.041034 -511144.000000 0 0 1
2.787415 -33.076219 -30.829479 45.301907 -1.486723 2.319287 0.033605 -0.053065 1397630.000000 0 0 1
1.669615 -32.231349 -30.446579 44.369378 -1.519042 2.327058 0.031412 -0.043541 865769.000000 0 0 1
0.532015 -32.325509 -31.280399 44.985386 -1.554340 2.339697 0.025394 -0.017930 -444391.000000 0 0 1
-0.461585 -31.191789 -30.979669 43.964539 1.555999 2.352728 0.015684 -0.005561 -227829.000000 0 0 1
-1.099885 -31.418459 -29.728939 43.268224 1.535803 2.328266 0.014855 -0.014213 -37052.700000 0 0 1
-1.820785 -30.237039 -29.404519 42.216342 1.510652 2.341332 0.019858 -0.002017 387678.000000 0 0 1
-2.611685 -30.309639 -28.032869 41.368308 1.484842 2.315347 0.020452 -0.005259 -269069.000000 0 0 1
-1.747085 -30.212309 -26.951229 40.524125 1.513034 2.298379 0.009238 -0.001654 -486049.000000 0 0 1
-2.343885 -30.340069 -25.664689 39.808164 1.493696 2.271439 0.013051 -0.001838 -594867.000000 0 0 1
-1.379985 -30.615959 -24.539709 39.261160 1.525753 2.245976 0.003983 0.003705 -692047.000000 0 0 1
-1.880685 -30.624119 -23.218209 38.476732 1.509461 2.218598 0.022125 0.002443 -585764.000000 0 0 1
-1.032785 -31.215619 -22.278409 38.364164 1.537723 2.190395 0.014078 0.006890 -123166.000000 0 0 1
-1.656085 -31.114639 -20.849209 37.490705 1.517621 2.160502 -0.007259 0.019667 -204262.000000 0 0 1
-1.684685 -29.828789 -20.161609 36.042826 1.514378 2.164433 -0.013703 0.014269 741179.000000 0 0 1
-0.391185 -29.201919 -20.029409 35.413025 1.557401 2.171950 -0.000212 0.007402 499012.000000 0 0 1
-0.534185 -27.778749 -19.410909 33.892885 1.551569 2.180608 0.007410 0.000024 -243606.000000 0 0 1
-1.006985 -27.874509 -18.080109 33.239926 1.534686 2.145907 0.014709 -0.000395 -2370.690000 0 0 1
-0.979785 -26.611129 -17.494009 31.861459 1.533994 2.152041 0.019172 -0.002765 -169526.000000 0 0 1
-1.896085 -26.520359 -16.254109 31.162809 1.499422 2.119506 0.014176 -0.005976 -243010.000000 0 0 1
-1.958085 -25.223259 -15.726909 29.788968 1.493322 2.126974 0.011849 -0.000126 308509.000000 0 0 1
-2.722985 -25.221309 -14.498209 29.218610 1.463249 2.090010 0.014526 -0.004792 231509.000000 0 0 1
-2.705785 -23.878509 -13.728609 27.676329 1.457963 2.089830 0.019399 -0.007813 -231376.000000 0 0 1
-1.648385 -23.926609 -12.822309 27.195798 1.502012 2.061766 0.021046 -0.007215 -585093.000000 0 0 1
-1.507685 -22.725409 -12.188909 25.831896 1.504550 2.062190 0.017861 -0.003045 173678.000000 0 0 1
-0.338085 -22.716609 -11.181109 25.321450 1.555915 2.028140 0.012483 -0.002622 185492.000000 0 0 1
0.075215 -21.398409 -10.802209 23.970509 -1.567281 2.038285 0.011906 0.003388 31462.800000 0 1 0
1.222415 -21.520609 -9.951509 23.741598 -1.514055 2.003315 0.004592 0.000202 551108.000000 0 1 0
1.824915 -20.146309 -9.697809 22.433270 -1.480460 2.017834 0.015992 0.004841 -395416.000000 0 1 0
2.547515 -19.541709 -10.798909 22.471864 -1.441164 2.072081 0.026967 0.015480 508828.000000 0 1 0
3.429215 -18.456009 -10.480909 21.499611 -1.387087 2.080012 0.021517 0.015246 1054820.000000 0 1 0
4.776015 -18.851509 -9.796509 21.775246 -1.322668 2.037441 0.024083 0.002029 98775.100000 0 1 0
4.543815 -19.328209 -8.511109 21.602428 -1.339902 1.975763 0.021108 0.004091 -45954.900000 0 1 0
5.646115 -20.111209 -8.106309 22.406508 -1.297097 1.940977 0.021646 0.001155 -68857.200000 0 1 0
5.241415 -21.151309 -7.010409 22.890962 -1.327884 1.882050 0.032597 -0.002694 -3698.870000 0 1 0
4.232015 -22.038309 -7.412809 23.633594 -1.381076 1.889837 0.022620 -0.001740 -64045.700000 0 1 0
3.892615 -23.117909 -6.558109 24.343356 -1.403980 1.843567 0.030335 -0.012114 236881.000000 0 1 0
2.871415 -24.012009 -7.325109 25.268139 -1.451779 1.864914 0.018942 -0.012005 366238.000000 0 0 1
3.466315 -24.694109 -8.398309 26.312468 -1.431337 1.895656 0.020993 -0.011743 -61481.300000 0 0 1
2.469115 -25.339239 -9.149409 27.053378 -1.473661 1.915798 0.012730 -0.010730 302849.000000 0 0 1
3.051215 -26.224989 -10.296209 28.338523 -1.454969 1.942635 0.008738 -0.012569 9337.010000 0 0 1
3.845715 -27.291979 -9.868909 29.275195 -1.430808 1.914640 0.009657 -0.014528 -110536.000000 0 0 1
4.501015 -27.898879 -11.004509 30.326652 -1.410841 1.942138 0.024408 -0.012862 485107.000000 0 0 1
4.748015 -29.409259 -10.746009 31.668990 -1.410731 1.916993 0.025385 -0.015907 1438300.000000 0 0 1
3.481415 -30.146809 -10.687409 32.174075 -1.455824 1.909404 0.023299 -0.015390 1253770.000000 0 0 1
3.734115 -31.498829 -11.004509 33.574084 -1.452799 1.904736 0.032480 -0.017408 -145934.000000 0 0 1
2.492515 -32.308499 -11.383709 34.345896 -1.493801 1.908629 0.030755 -0.019615 -297427.000000 0 0 1
2.015315 -32.087609 -12.687909 34.563843 -1.508072 1.946671 0.028855 -0.020599 466938.000000 0 0 1
1.189415 -33.218139 -13.049309 35.709158 -1.535005 1.944894 0.026459 -0.022508 -12711.000000 0 0 1
0.862015 -33.128899 -14.562609 36.198572 -1.544782 1.984822 0.031045 -0.012152 -192411.000000 0 0 1
-0.233885 -32.291189 -14.831409 35.535142 1.563553 2.001349 0.018016 -0.009415 -78713.300000 0 0 1
-0.646785 -32.550419 -16.187709 36.359181 1.550929 2.032212 -0.002076 0.004110 167844.000000 0 0 1
-1.736985 -31.603149 -16.748609 35.809106 1.515889 2.057505 -0.001609 0.009314 3187.290000 0 0 1
-3.010285 -31.795419 -16.190809 35.807162 1.476401 2.039989 0.004797 0.003515 -561636.000000 0 0 1
-3.957085 -31.178679 -17.044009 35.752858 1.444555 2.067713 0.001998 0.015872 925425.000000 0 0 1
-5.407485 -31.100739 -16.453109 35.597777 1.398647 2.051265 0.013570 0.008205 639184.000000 0 0 1
-5.390085 -30.213299 -15.327909 34.305120 1.394253 2.033994 0.015631 0.003237 838988.000000 0 0 1
-6.750285 -29.928649 -14.916709 34.114493 1.348962 2.023340 0.028540 -0.000563 1267310.000000 0 0 1
-7.412685 -30.895219 -13.880909 34.671921 1.335318 1.982695 0.029032 -0.006357 104218.000000 0 0 1
-7.596685 -32.164819 -14.508309 36.093992 1.338866 1.984452 0.028782 -0.003355 -450857.000000 0 0 1
-8.350785 -32.980009 -13.653709 36.658429 1.322801 1.952452 0.042151 0.000199 136313.000000 0 0 1
-8.870485 -34.340556 -14.156009 38.188374 1.318013 1.950547 0.054220 -0.006008 5101.000000 0 0 1
-7.880385 33.498164 -14.292109 37.262472 -1.339749 1.964436 0.052349 -0.007658 -131936.000000 0 0 1
-8.379485 32.351579 -14.926309 36.601027 -1.317353 1.990852 0.066865 -0.014268 -150580.000000 0 0 1
-7.249285 -22.010509 -3.136309 23.384848 1.252630 1.705319 0.034224 -0.002123 186140.000000 0 1 0
-7.190385 -21.004809 -4.090109 22.575045 1.240979 1.752981 0.025398 -0.005318 -652353.000000 0 1 0
-5.911785 -20.908209 -4.620309 22.213727 1.295240 1.780319 0.014393 -0.008570 -473450.000000 0 1 0
-5.981785 -20.057109 -5.900809 21.746010 1.280957 1.845593 0.011844 -0.005130 390174.000000 0 1 0
-6.914085 -20.496909 -6.876909 22.698453 1.245459 1.878602 0.021297 -0.004652 -243676.000000 0 1 0
-6.977385 -19.442609 -7.850809 22.098284 1.226241 1.933997 0.006882 -0.002073 -252557.000000 0 1 0
-7.843685 -19.678509 -9.075609 23.046341 1.191505 1.975556 0.005886 -0.006615 -73292.300000 0 1 0
-7.385185 -20.534009 -10.091209 24.042026 1.225545 2.003946 0.013566 0.000539 -995403.000000 0 1 0
-8.388585 -20.601409 -11.018309 24.823166 1.184111 2.030711 0.025192 0.003980 -224851.000000 0 1 0
-7.950285 -21.526009 -12.218509 25.997463 1.217002 2.060074 0.020838 0.003796 -64750.700000 0 0 1
-6.995685 -20.910809 -13.034709 25.614551 1.247952 2.104679 0.029481 0.001755 -451536.000000 0 0 1
-6.654385 -21.718209 -14.196809 26.786393 1.273481 2.129398 0.022439 0.007313 -226975.000000 0 0 1
-5.613985 -21.014909 -15.062709 26.458051 1.309749 2.176457 0.022468 0.010441 -585561.000000 0 0 1
-4.354285 -21.035409 -14.406809 25.865119 1.366681 2.161563 0.026056 0.003764 229927.000000 0 0 1
-3.350885 -20.344709 -15.193509 25.612074 1.407556 2.205845 0.026722 0.007976 533694.000000 0 0 1
-3.407185 -18.817709 -15.338809 24.515182 1.391674 2.246807 0.039605 0.012263 -796085.000000 0 1 0
-4.503585 -18.269709 -16.037509 24.723800 1.329109 2.276628 0.028804 0.010501 -250295.000000 0 1 0
-4.393685 -18.312609 -17.455609 25.677898 1.335321 2.318274 0.037167 0.000344 -177291.000000 0 0 1
-5.750985 -17.939209 -18.087009 26.115684 1.260566 2.335846 0.016879 0.012381 437316.000000 0 0 1
-6.715085 -18.965009 -17.810809 26.869851 1.230494 2.295421 0.024921 0.015970 337214.000000 0 0 1
-7.897785 -18.769809 -18.580109 27.566306 1.172513 2.310427 0.017948 0.014586 636574.000000 0 0 1
-9.077485 -19.738009 -18.291309 28.400031 1.139741 2.270590 0.022401 0.013360 97055.000000 0 0 1
-8.671485 -21.082309 -18.612609 29.429367 1.180573 2.255509 0.031361 0.017201 -93829.400000 0 0 1
-9.536385 -22.027709 -18.106709 30.066851 1.162231 2.217069 0.037482 0.015614 -662056.000000 0 0 1
-8.968385 -23.425309 -18.159209 30.966658 1.205161 2.197418 0.044460 -0.000268 -980407.000000 0 0 1
-8.680985 -23.743509 -19.527309 31.944163 1.220279 2.228492 0.042318 -0.009042 290611.000000 0 0 1
-7.562085 -24.588009 -19.721409 32.414338 1.272426 2.224860 0.049288 -0.016585 1263900.000000 0 0 1
-6.153385 -23.952009 -19.341109 31.394927 1.319330 2.234525 0.066017 -0.016544 -500293.000000 0 0 1
-5.604285 -23.038409 -20.278109 31.199007 1.332173 2.278328 0.058747 -0.019050 38791.700000 0 0 1
-5.047685 -21.864309 -19.682909 29.848686 1.343907 2.290847 0.059426 -0.011473 1290360.000000 0 0 1
-3.842085 -22.034709 -18.653109 29.124363 1.398167 2.265899 0.047753 -0.007637 2350520.000000 0 0 1
-2.544885 -22.475609 -19.211209 29.676590 1.458048 2.274902 0.052103 -0.017772 1257650.000000 0 0 1
-1.579285 -22.719409 -18.258109 29.189455 1.501395 2.246573 0.064571 -0.008940 399879.000000 0 0 1
-0.163085 -23.083609 -18.805409 29.774537 1.563731 2.254403 0.034654 -0.006262 956216.000000 0 0 1
0.535815 -22.096109 -19.585309 29.531500 -1.546552 2.295883 0.031556 -0.016302 2238060.000000 0 0 1
1.948415 -22.542709 -19.776809 30.051493 -1.484578 2.289085 0.032556 -0.011665 2351420.000000 0 0 1
2.661315 -21.913609 -20.999009 30.467151 -1.449942 2.331228 0.037834 -0.011186 -128144.000000 0 0 1
2.268315 -22.200509 -22.312609 31.557256 -1.468976 2.356116 0.024249 -0.017876 -432517.000000 0 0 1
1.203315 -21.376509 -22.724509 31.221890 -1.514564 2.385962 0.029169 -0.020444 -376859.000000 0 0 1
0.669415 -21.708409 -24.130109 32.464832 -1.539969 2.408740 0.035596 -0.026061 -49804.800000 0 0 1
0.110815 -20.678909 -24.893609 32.362345 -1.565438 2.448408 0.037568 -0.025178 74940.100000 0 0 1
-1.206685 -20.264709 -24.537009 31.846183 1.511320 2.450398 0.043031 -0.027314 333305.000000 0 0 1
-1.636885 -18.998809 -25.377749 31.743729 1.484851 2.497187 0.034494 -0.020188 50328.800000 0 0 1
-1.045185 -17.811109 -24.927009 30.654263 1.512182 2.520368 0.028412 -0.017403 -20398.900000 0 0 1
-1.643685 -16.701609 -25.613259 30.621635 1.472697 2.561557 0.024626 -0.009141 98525.300000 0 0 1
-1.090685 -15.331009 -25.149219 29.473932 1.499774 2.593020 0.018577 -0.002167 -325585.000000 0 0 1
0.235415 -15.217809 -25.591789 29.775440 -1.555328 2.605074 0.030187 -0.016012 -730031.000000 0 0 1
0.942715 -14.035809 -25.274619 28.925750 -1.503732 2.633709 0.034079 -0.013714 235425.000000 0 0 1
0.397215 -12.710009 -25.840529 28.799914 -1.539554 2.684282 0.027005 -0.004611 117305.000000 0 0 1
1.197715 -11.547509 -25.524119 28.040331 -1.467445 2.714719 0.022899 -0.002637 233828.000000 0 0 1
0.781715 -10.478109 -26.279709 28.302385 -1.496330 2.761239 0.021595 -0.000456 -417194.000000 0 0 1
1.677315 -9.256409 -26.079329 27.724104 -1.391536 2.795406 0.038944 -0.002639 -150865.000000 0 0 1
2.952715 -9.317509 -26.658869 28.394186 -1.263908 2.790172 0.044972 -0.008349 -569261.000000 0 0 1
3.187215 -9.255809 -28.034009 29.694007 -1.239166 2.805640 0.037408 -0.006413 -1009040.000000 0 0 1
4.657315 -9.046009 -28.374869 30.143890 -1.095341 2.797299 0.035227 -0.005844 -686925.000000 0 0 1
4.994115 -7.681109 -28.119769 29.574686 -0.994294 2.826622 0.031977 -0.020090 146172.000000 0 0 1
6.132315 -7.261609 -28.854829 30.379885 -0.869513 2.823394 0.047926 -0.015394 371034.000000 0 0 1
7.534315 -7.242709 -28.139719 30.017770 -0.765667 2.785986 0.058164 -0.021102 597878.000000 0 0 1
8.078115 -8.481109 -27.713629 30.087047 -0.809730 2.741731 0.048563 -0.017371 340196.000000 0 0 1
8.440815 -9.347809 -28.798909 31.432564 -0.836341 2.729320 0.055597 -0.023458 -735746.000000 0 0 1
8.823515 -10.778409 -28.312249 31.553320 -0.884799 2.684372 0.060600 -0.025674 -739291.000000 0 0 1
7.770215 -11.537709 -27.869769 31.148339 -0.978104 2.678653 0.061469 -0.025061 -563645.000000 0 0 1
8.163915 -12.725109 -27.125319 31.054160 -1.000378 2.633110 0.059968 -0.026103 381807.000000 0 0 1
9.012515 -13.802009 -27.933279 32.434380 -0.992325 2.608470 0.075519 -0.033679 384496.000000 0 0 1
8.219815 -14.296009 -28.957599 33.323922 -1.048983 2.623920 0.085492 -0.033402 -144076.000000 0 0 1
8.999315 -15.119609 -29.823719 34.627222 -1.033908 2.608579 0.082832 -0.029635 627755.000000 0 0 1
8.159115 -15.830209 -30.980369 35.734437 -1.094894 2.619868 0.059249 -0.025826 493604.000000 0 0 1
7.678315 -14.950709 -32.033129 36.174599 -1.096348 2.658396 0.058959 -0.018545 273797.000000 0 0 1
6.605315 -15.514509 -32.745719 36.832218 -1.168290 2.666064 0.050647 -0.015512 44951.500000 0 0 1
5.729415 -14.399109 -33.398219 36.818495 -1.192101 2.707149 0.051071 -0.012829 282886.000000 0 0 1
6.364115 -13.785309 34.337957 37.545066 -1.138289 0.416329 0.060962 -0.010497 289923.000000 0 0 1
5.575715 -12.670309 33.923023 36.638734 -1.156238 0.387442 0.035555 -0.012222 7431.880000 0 0 1
6.364815 -11.746409 33.011463 35.612437 -1.074230 0.384558 0.058318 -0.010039 -170471.000000 0 0 1
6.447015 -12.216509 31.685243 34.565325 -1.085212 0.411112 0.057400 -0.017030 93122.300000 0 0 1
6.887615 -11.190509 30.835663 33.518723 -1.019067 0.402835 0.060094 -0.011611 -269833.000000 0 0 1
7.200715 -11.580109 29.310313 32.327135 -1.014489 0.435455 0.056782 -0.010307 441099.000000 0 0 1
6.105515 -11.989609 28.478903 31.497237 -1.099789 0.441360 0.042928 -0.018328 459422.000000 0 0 1
6.609815 -12.428309 27.205433 30.631489 -1.082006 0.477487 0.035279 -0.014697 -10484.600000 0 0 1
5.705815 -13.318509 26.305333 30.031809 -1.166039 0.503466 0.018478 -0.030743 -473950.000000 0 0 1
5.802915 -14.733909 26.442823 30.821823 -1.195605 0.539578 0.017171 -0.012428 -114699.000000 0 0 1
5.048815 -15.437209 25.508533 30.240423 -1.254707 0.566985 -0.004750 -0.006363 291628.000000 0 0 1
3.492215 -15.476709 25.502593 30.035085 -1.348870 0.556530 0.015236 -0.014727 -128707.000000 0 0 1
2.992315 -14.191609 25.147643 29.030323 -1.362989 0.523141 0.008155 -0.020811 -646530.000000 0 0 1
1.598315 -14.178709 25.041553 28.821342 -1.458544 0.517913 0.007189 -0.022716 -316560.000000 0 0 1
0.996415 -12.789409 24.847833 27.963845 -1.493044 0.476578 0.006415 -0.026411 -647018.000000 0 0 1
1.261215 -12.256609 23.577873 26.603218 -1.468256 0.481548 -0.007908 -0.015912 -254540.000000 0 0 1
0.539315 -11.113609 23.245773 25.771479 -1.522307 0.446426 -0.008804 -0.006751 -950021.000000 0 0 1
-0.901885 -11.364709 22.890873 25.572682 1.491604 0.462074 -0.006459 -0.010171 -1615560.000000 0 0 1
-1.069585 -11.958809 21.658173 24.763553 1.481595 0.506189 -0.003633 -0.009302 -115099.000000 0 1 0
-2.264485 -12.713809 21.519573 25.097029 1.394532 0.540493 0.013620 -0.013716 258114.000000 0 0 1
-2.307685 -13.584409 20.251373 24.494483 1.402525 0.597450 0.032265 -0.015044 314850.000000 0 1 0
-1.319685 -14.627209 20.073973 24.872901 1.480819 0.631637 0.037677 -0.018560 148987.000000 0 1 0
-1.464085 -15.373409 18.896673 24.404293 1.475848 0.685160 0.045908 -0.020931 561696.000000 0 1 0
-2.481285 -16.570409 19.050473 25.370372 1.422159 0.721381 0.031012 -0.017504 211241.000000 0 0 1
-2.253485 -17.525109 17.997273 25.221211 1.442912 0.776206 0.015063 -0.004617 96903.200000 0 0 1
-3.250285 -18.558709 17.929973 26.009113 1.397419 0.810174 0.017509 0.008429 474179.000000 0 0 1
-2.939685 -19.703109 16.907073 26.128593 1.422690 0.867059 0.018638 0.000525 90604.200000 0 0 1
-1.932785 -20.558809 17.404873 27.006108 1.477059 0.870454 0.022976 -0.003085 -378467.000000 0 0 1
-1.958485 -21.925509 17.004973 27.816051 1.481708 0.913048 0.014778 -0.030273 -736410.000000 0 0 1
-1.023485 -22.904309 17.652173 28.935344 1.526141 0.914665 0.030469 -0.014681 -3784.720000 0 0 1
0.309015 -22.752509 17.184573 28.514588 -1.557216 0.923967 0.031028 -0.012853 32361.500000 0 0 1
1.241115 -23.535809 17.928873 29.612821 -1.518112 0.920474 0.029815 -0.002386 -145244.000000 0 0 1
2.616315 -23.536709 17.268973 29.309371 -1.460092 0.940733 0.028656 -0.008899 -584044.000000 0 0 1
3.229515 -22.282809 17.365873 28.434607 -1.426866 0.913814 0.036813 -0.011605 -1206440.000000 0 0 1
4.392215 -22.226109 16.635973 28.107776 -1.375695 0.937427 0.048655 -0.010828 -905100.000000 0 0 1
5.106215 -20.916709 16.983473 27.422992 -1.331358 0.902926 0.050288 -0.012979 -992382.000000 0 0 1
5.747915 -20.876609 18.224273 28.301863 -1.302125 0.871179 0.051151 -0.009768 17439.100000 0 0 1
6.321715 -19.587809 18.601773 27.742968 -1.258612 0.835908 0.049962 0.001417 398916.000000 0 0 1
7.249915 -18.788309 17.670073 26.791665 -1.202527 0.850595 0.040538 -0.007998 -746768.000000 0 0 1
6.630715 -18.377109 16.507373 25.576901 -1.224520 0.869247 0.031423 -0.006677 -357974.000000 0 0 1
7.564515 -17.847109 15.573473 24.865121 -1.169899 0.893975 0.041843 -0.011498 196868.000000 0 1 0
6.986315 -16.799009 14.555873 23.299973 -1.176679 0.896028 0.026559 -0.011828 189271.000000 0 1 0
5.953115 -17.365609 13.751773 22.937202 -1.240541 0.927870 0.026394 -0.011509 392302.000000 0 1 0
5.419615 -16.358509 12.850073 21.496451 -1.250875 0.930072 0.013688 -0.013534 208135.000000 0 1 0
6.054015 -16.500009 11.435773 20.968507 -1.219137 0.993956 0.016005 -0.015723 -288585.000000 0 1 0
7.402615 -16.193409 11.274373 21.074551 -1.142023 1.006317 0.025617 -0.012643 -855576.000000 0 1 0
7.904715 -16.637609 10.058173 20.987172 -1.127257 1.070993 0.025465 -0.008496 50038.500000 0 1 0
9.359215 -16.113409 10.024773 21.159701 -1.044589 1.077233 0.029160 -0.006036 11168.300000 0 1 0
9.983815 -16.481209 8.830773 21.196447 -1.026145 1.141077 0.035627 -0.009578 -211623.000000 0 1 0
11.318515 -16.003009 8.729273 21.457057 -0.955205 1.151820 0.032971 -0.008416 470457.000000 0 1 0
12.275015 -16.953209 7.963273 22.394218 -0.944109 1.207246 0.035989 -0.012836 -73005.700000 0 1 0
12.587015 -18.106809 8.656873 23.690313 -0.963330 1.196714 0.050445 -0.019263 -293697.000000 0 1 0
13.419415 -18.877209 7.864773 24.459852 -0.952806 1.243443 0.048939 -0.015863 -302904.000000 0 1 0
13.936615 -20.197809 8.506773 25.972022 -0.966809 1.237102 0.047682 -0.016199 -18496.100000 0 0 1
12.966515 -21.166709 8.815573 26.341496 -1.021171 1.229547 0.051430 -0.018740 -164599.000000 0 0 1
13.599015 -22.201409 9.500673 27.714591 -1.021215 1.220896 0.052393 -0.015559 24617.300000 0 0 1
12.572315 -23.192009 10.064973 28.235369 -1.074041 1.206313 0.056211 -0.019110 182678.000000 0 0 1
12.055615 -22.672309 11.310673 28.058916 -1.082086 1.155890 0.053340 -0.026031 -73515.500000 0 0 1
11.094015 -23.456509 12.009373 28.592132 -1.129013 1.137325 0.058218 -0.019948 -241276.000000 0 0 1
11.465215 -24.913209 12.374473 30.087318 -1.139487 1.146933 0.036351 -0.021408 -543650.000000 0 0 1
12.583915 -24.900209 13.213973 30.870446 -1.102859 1.128467 0.010346 -0.020500 -291112.000000 0 0 1
12.750315 -26.198019 13.767373 32.224948 -1.117853 1.129373 0.016776 -0.022305 -114139.000000 0 0 1
13.972215 -26.318069 14.692073 33.222290 -1.082737 1.112707 0.027019 -0.015147 -225826.000000 0 0 1
13.740915 -25.683719 15.954373 33.211567 -1.079539 1.069702 0.027642 -0.019021 443745.000000 0 0 1
14.500715 -26.212729 17.073973 34.480407 -1.065505 1.052756 0.023428 -0.018279 -167559.000000 0 0 1
14.163615 -25.680919 18.464673 34.656338 -1.066785 1.008898 0.016658 -0.017280 -403241.000000 0 0 1
14.555115 -24.359109 18.872973 34.079417 -1.032201 0.983883 -0.000276 -0.014719 1933030.000000 0 0 1
15.895815 -24.359409 19.508273 35.023284 -0.992628 0.980017 -0.002766 -0.016521 1781030.000000 0 0 1
16.368215 -22.944109 19.921573 34.514050 -0.951137 0.955498 -0.015433 -0.009382 -51286.800000 0 0 1
16.576015 -21.954909 18.904773 33.379226 -0.924101 0.968710 -0.015261 -0.014056 435975.000000 0 0 1
15.355015 -21.338209 18.523273 32.159093 -0.947036 0.956983 -0.009016 -0.013856 -256270.000000 0 0 1
15.561915 -20.202009 17.456573 30.903500 -0.914420 0.970516 -0.005864 -0.013603 -250109.000000 0 0 1
16.338615 -19.077009 17.802673 30.786649 -0.862566 0.954203 -0.012603 -0.020888 388267.000000 0 0 1
17.713015 -19.340309 17.506973 31.532405 -0.829288 0.982186 -0.008749 -0.018056 45560.800000 0 0 1
18.572315 -18.077909 17.692973 31.381252 -0.771909 0.971808 0.010749 -0.017645 -403522.000000 0 0 1
18.759615 -17.667609 19.055673 32.049746 -0.755429 0.934071 0.007740 -0.010846 103736.000000 0 0 1
18.979115 -16.312809 19.259973 31.579441 -0.709991 0.914875 0.026289 -0.013988 -254046.000000 0 0 1
19.583315 -16.010509 20.672673 32.668058 -0.685356 0.885619 0.029231 -0.005773 28197.700000 0 0 1
20.936515 -16.419209 20.659473 33.685930 -0.665056 0.910569 0.029429 -0.005278 -88559.600000 0 0 1
21.566415 -16.266509 21.922473 34.789429 -0.646217 0.889053 0.043281 -0.000990 60881.800000 0 0 1
33.530196 -1.169709 -7.506609 34.380103 -0.034871 1.790911 0.044525 -0.000113 90459.800000 0 0 1
34.710536 -1.058609 -8.291009 35.702701 -0.030489 1.805159 0.035760 0.000147 210489.000000 0 0 1
35.478579 -2.219309 -8.320109 36.508617 -0.062472 1.800711 0.044309 -0.008102 -696434.000000 0 0 1
-34.459458 -1.946109 -8.855809 35.632386 0.056415 1.821961 0.040660 -0.004940 -285301.000000 0 0 1
-33.600625 -3.113809 -8.815909 34.877186 0.092407 1.826339 0.057902 -0.009812 -518944.000000 0 0 1
-32.355905 -2.791909 -9.325309 33.788471 0.086074 1.850417 0.092064 -0.009095 -1077580.000000 0 0 1
-31.320425 -3.800209 -8.794609 32.752951 0.120743 1.842646 0.087298 -0.007552 -540836.000000 0 0 1
-31.123155 -3.686509 -7.424909 32.208235 0.117900 1.803417 0.088294 -0.009431 136462.000000 0 0 1
-29.947145 -4.394009 -7.114809 31.092754 0.145686 1.801667 0.077076 -0.014907 -56294.400000 0 0 1
-29.724255 -4.405709 -5.610709 30.568312 0.147148 1.755389 0.073822 -0.021449 -159810.000000 0 0 1
-29.373205 -3.069509 -5.226509 29.992057 0.104122 1.745954 0.074095 -0.014813 433076.000000 0 0 1
-29.200805 -3.011309 -3.849309 29.606962 0.102761 1.701179 0.080122 -0.016810 -312589.000000 0 0 1
-28.911755 -1.530809 -3.440709 29.155985 0.052898 1.689082 0.092826 -0.012089 -147571.000000 0 0 1
-27.526635 -1.260309 -3.355109 27.758977 0.045753 1.691958 0.078209 -0.008949 337891.000000 0 0 1
-27.298945 0.044691 -2.910309 27.453676 -0.001637 1.677004 0.093467 -0.011943 -456351.000000 0 0 1
-25.841315 0.231991 -2.496209 25.962636 -0.008977 1.667091 0.073921 -0.001490 -349049.000000 0 0 1
-25.416245 -0.366009 -1.257309 25.449957 0.014400 1.620220 0.054384 -0.003747 410961.000000 0 0 1
-24.033385 -0.325109 -0.993409 24.056104 0.013527 1.612104 0.033389 -0.004979 -261632.000000 0 1 0
-23.501885 -1.143209 0.150591 23.530155 0.048605 1.564396 0.019010 -0.004854 -729351.000000 0 1 0
-23.689285 -2.511909 -0.076809 23.822213 0.105641 1.574021 0.024527 -0.007194 524103.000000 0 1 0
-23.067485 -3.197609 1.000191 23.309525 0.137742 1.527874 0.016755 -0.008791 -296521.000000 0 1 0
-23.197085 -4.774909 0.947991 23.702388 0.203005 1.530790 0.014798 -0.004232 -639502.000000 0 1 0
-24.348185 -5.318809 1.510191 24.968070 0.215069 1.510275 0.012898 -0.006949 -207455.000000 0 1 0
-24.437785 -6.730709 1.271091 25.379588 0.268759 1.520692 0.000508 -0.005381 292279.000000 0 0 1
-25.610105 -7.472209 2.008691 26.753434 0.283888 1.495644 0.015631 -0.004824 387859.000000 0 0 1
-25.453595 -7.588409 3.369091 26.773499 0.289738 1.444625 0.016058 -0.005291 835615.000000 0 0 1
-26.647375 -8.269109 3.798691 28.158317 0.300894 1.435479 0.029776 -0.001662 668781.000000 0 0 1
-26.799315 -8.427009 5.290591 28.586852 0.304659 1.384652 0.027957 -0.010774 -474987.000000 0 0 1
-25.990305 -9.405109 5.845491 28.251050 0.347210 1.362378 0.027680 -0.006990 -327854.000000 0 0 1
-26.019695 -9.431809 7.242591 28.608367 0.347756 1.314848 0.025487 -0.008503 -237083.000000 0 0 1
-25.556445 -8.253809 8.115491 28.055631 0.312389 1.277338 0.034155 -0.009696 507993.000000 0 0 1
-24.134985 -8.205409 7.906491 26.689677 0.327720 1.270045 0.043652 -0.014233 573671.000000 0 0 1
-23.707385 -6.930809 8.287691 26.053062 0.284422 1.247063 0.041340 -0.013252 -368070.000000 0 0 1
-22.365485 -6.459709 7.691491 24.517378 0.281173 1.251692 0.047744 -0.014421 235080.000000 0 1 0
-21.267185 -6.934209 8.454591 23.913522 0.315183 1.209434 0.044436 -0.021190 -1247950.000000 0 1 0
-20.077485 -6.586709 7.908891 22.561930 0.317001 1.212647 0.042541 -0.019438 -568472.000000 0 1 0
-18.847985 -6.874909 8.854691 21.929808 0.349759 1.155158 0.047478 -0.017490 496679.000000 0 1 0
-18.764385 -5.957509 9.934191 22.051808 0.307425 1.103479 0.044851 -0.008960 428486.000000 0 1 0
-17.611385 -6.236809 10.719991 21.540123 0.340354 1.049880 0.035113 -0.013986 98850.200000 0 1 0
-17.462285 -5.156509 11.818891 21.707307 0.287134 0.995044 0.027468 -0.003825 -135088.000000 0 1 0
-18.486785 -5.193209 12.777191 23.064849 0.273857 0.983673 0.026246 -0.003970 -117159.000000 0 1 0
-18.616185 -3.924609 13.312491 23.220407 0.207775 0.960256 0.027887 0.005025 178061.000000 0 1 0
-19.866585 -3.731509 14.194291 24.699864 0.185665 0.958594 0.031453 -0.002563 3286.740000 0 1 0
-19.641985 -4.460309 15.348891 25.323712 0.223294 0.919639 0.027109 -0.006613 443945.000000 0 0 1
-20.727185 -4.440909 16.277291 26.726168 0.211064 0.915947 0.012799 0.003463 -4843.380000 0 0 1
-20.590985 -5.374709 17.486591 27.543729 0.255326 0.882961 0.008016 0.006657 -662629.000000 0 0 1
-21.509085 -5.107009 18.487391 28.818499 0.233118 0.874330 -0.005111 0.008157 -184973.000000 0 0 1
-21.471285 -6.020009 19.486491 29.613847 0.273356 0.852611 0.002952 0.006722 -462087.000000 0 0 1
-22.270385 -5.531109 20.715591 30.914381 0.243436 0.836459 0.004042 0.008823 -499543.000000 0 0 1
-21.944785 -4.270209 21.177791 30.794595 0.192187 0.812465 0.004390 0.006600 -154593.000000 0 0 1
-22.635585 -3.946109 22.337391 32.045289 0.172598 0.799512 0.003847 -0.001381 -385092.000000 0 0 1
-22.635685 -2.477109 22.744991 32.184545 0.109000 0.785966 0.004713 0.005151 -62271.100000 0 0 1
-23.418085 -1.635709 21.937491 32.129982 0.069735 0.819245 0.008979 0.003704 -221173.000000 0 0 1
-23.232385 -0.280909 22.333991 32.227780 0.012091 0.805148 0.009087 -0.001771 -507404.000000 0 0 1
-24.262585 0.653391 21.729891 32.577417 -0.026923 0.840590 0.014624 -0.001382 -968141.000000 0 0 1
-25.423265 0.595591 22.480291 33.942018 -0.023423 0.846893 0.017165 -0.004281 -487571.000000 0 0 1
-26.450185 1.420391 21.885491 34.359926 -0.053649 0.880263 0.022329 -0.001753 465372.000000 0 0 1
-27.626405 1.560891 22.865491 35.895478 -0.056440 0.880194 0.025317 -0.006341 -558864.000000 0 0 1
-27.313145 2.340991 24.010091 36.441358 -0.085500 0.851482 0.025520 -0.004505 584594.000000 0 0 1
-28.304395 2.145191 25.048891 37.857464 -0.075645 0.847762 0.026083 -0.006383 317512.000000 0 0 1
-28.013065 3.050091 26.288591 38.537318 -0.108454 0.820085 0.040321 -0.005571 -478358.000000 0 0 1
-26.897745 2.660491 27.021091 38.219187 -0.098591 0.785545 0.033506 -0.005484 -160666.000000 0 0 1
-26.529205 3.546191 28.082191 38.794119 -0.132883 0.761390 0.028704 -0.006981 -436079.000000 0 0 1
-25.309925 3.149491 28.928191 38.566201 -0.123801 0.722595 0.030009 -0.006166 -410690.000000 0 0 1
-25.493925 2.084291 29.855491 39.314562 -0.081575 0.708405 0.021233 -0.005623 191417.000000 0 0 1
-24.420485 1.910191 30.756891 39.319146 -0.078062 0.672548 0.013831 -0.008461 144238.000000 0 0 1
-24.784885 0.806091 31.764091 40.297615 -0.032512 0.662857 0.016782 -0.010206 163769.000000 0 0 1
-25.065485 -0.444709 31.182591 40.010377 0.017740 0.677148 0.004899 -0.006721 -77053.500000 0 0 1
-25.443295 -1.352109 32.225491 41.081282 0.053092 0.669016 0.017041 -0.001812 -835368.000000 0 0 1
-26.081715 -2.677209 31.670391 41.114924 0.102289 0.691501 0.010671 0.000473 57002.900000 0 0 1
-27.417645 -2.524709 31.230291 41.634511 0.091824 0.722574 0.001194 0.005038 99537.100000 0 0 1
-27.492775 -1.812709 29.985791 40.722061 0.065839 0.743133 -0.000351 0.003723 -852051.000000 0 0 1
-28.931735 -1.543809 29.501491 41.349324 0.053310 0.776359 0.008597 -0.005752 63282.800000 0 0 1
-29.727055 -0.799309 30.398091 42.525059 0.026882 0.774419 0.026338 -0.005970 -997477.000000 0 0 1
-31.018025 -0.706409 29.890591 43.082065 0.022770 0.804036 0.019062 -0.012890 -638577.000000 0 0 1
-31.996155 -0.210209 30.969091 44.529571 0.006570 0.801719 0.027902 -0.013359 -300976.000000 0 0 1
-32.043825 -1.130209 32.060191 45.342474 0.035256 0.785454 0.021784 -0.015341 9703.260000 0 0 1
-32.979485 -0.713509 33.039891 46.688220 0.021632 0.784600 0.022028 -0.013981 71131.600000 0 0 1
-33.333645 -1.715109 34.147291 47.750507 0.051407 0.774002 0.029880 -0.019700 96029.100000 0 0 1
-34.135774 -2.784109 33.684091 48.037697 0.081380 0.793715 0.012013 -0.013143 151896.000000 0 0 1
-33.877585 -3.935009 -34.379591 48.426556 0.115636 2.360199 0.012857 -0.007433 -520794.000000 0 0 1
-34.859721 -5.053209 34.143191 49.056015 0.143956 0.800979 0.005972 -0.013805 882901.000000 0 0 1
35.133076 -4.726609 -34.243191 49.287626 -0.133731 2.338886 0.006734 -0.020507 915250.000000 0 0 1
34.192506 -5.206609 33.645291 48.251859 -0.151113 0.799194 0.005087 -0.015014 13551.500000 0 0 1
32.715696 -4.849209 33.949391 47.396126 -0.147151 0.772325 0.017428 -0.014928 167256.000000 0 0 1
32.115336 -5.408409 -33.691591 46.859034 -0.166840 2.373157 0.015589 -0.013543 113407.000000 0 0 1
31.622706 -6.702009 -33.820791 46.784168 -0.208846 2.378803 0.024763 -0.016393 -571948.000000 0 0 1
30.184276 -6.799609 -34.364091 46.240848 -0.221571 2.408569 0.029763 -0.020158 221510.000000 0 0 1
29.159576 -6.479409 -33.410991 44.816938 -0.218653 2.412080 0.034779 -0.019524 650298.000000 0 0 1
27.910586 -7.049809 -33.803491 44.400188 -0.247411 2.436169 0.046917 -0.016519 688631.000000 0 0 1
26.849566 -6.905109 -32.642691 42.826686 -0.251723 2.437508 0.041763 -0.007615 130656.000000 0 0 1
25.610456 -7.492109 -32.961891 42.408884 -0.284600 2.461064 0.035435 -0.012168 -439757.000000 0 0 1
24.600456 -7.137709 -32.064791 41.039983 -0.282392 2.467552 0.024752 -0.008351 -709446.000000 0 0 1
23.231556 -7.561109 -32.619091 40.753904 -0.314654 2.498745 0.028375 -0.018803 -416601.000000 0 0 1
23.058356 -8.974109 -32.775091 41.066154 -0.371154 2.494939 0.039637 -0.022938 202254.000000 0 0 1
22.846956 -9.645109 -31.538091 40.120602 -0.399464 2.475241 0.034269 -0.015445 -452630.000000 0 0 1
22.889856 -11.207609 -31.623491 40.615283 -0.455319 2.463245 0.040715 -0.020875 249227.000000 0 0 1
21.762056 -11.725909 -32.324891 40.693767 -0.494222 2.488725 0.052482 -0.031822 263276.000000 0 0 1
21.581256 -13.102309 -32.059391 40.807177 -0.545635 2.474512 0.048778 -0.026879 -436907.000000 0 0 1
20.313156 -13.561309 -32.820991 40.911501 -0.588657 2.501840 0.039399 -0.020623 327120.000000 0 0 1
19.083856 -13.166209 -32.250691 39.719639 -0.603924 2.518296 0.026963 -0.014920 120250.000000 0 0 1
18.639256 -11.818009 -32.592391 39.361799 -0.565073 2.546365 0.026919 -0.018513 -532572.000000 0 0 1
17.281956 -11.384709 -31.998991 38.107913 -0.582511 2.567516 0.027251 -0.014089 205182.000000 0 0 1
16.213856 -12.029209 -32.676691 38.410378 -0.638303 2.588161 0.023133 -0.005916 -265514.000000 0 0 1
14.965656 -11.624509 -32.192691 37.355983 -0.660400 2.609567 0.051915 -0.013428 -7752.330000 0 0 1
13.744056 -11.943409 -33.083491 37.763229 -0.715414 2.638461 0.056824 -0.016534 -766671.000000 0 0 1
13.449656 -13.308209 -33.224891 38.234737 -0.780112 2.623916 0.059700 -0.012495 982388.000000 0 0 1
12.174456 -13.601909 -33.848391 38.457027 -0.840720 2.646998 0.056736 -0.015131 1459380.000000 0 0 1
10.968356 -13.493809 -32.846191 37.165306 -0.888273 2.654690 0.056951 -0.010619 -126008.000000 0 0 1
10.734556 -12.142109 -32.515991 36.331133 -0.846849 2.679205 0.082429 -0.000721 150751.000000 0 0 1
9.658956 -11.921309 -31.581791 35.111573 -0.889851 2.689350 0.088287 -0.016353 856454.000000 0 0 1
8.501556 -11.137309 -32.257891 35.169414 -0.918812 2.731827 0.085272 -0.010360 -73527.700000 0 0 1
8.817556 -9.746509 -32.308391 34.879448 -0.835397 2.755234 0.070351 -0.007663 -115580.000000 0 0 1
7.723056 -8.934509 -32.582191 34.656460 -0.857997 2.793860 0.074415 -0.001399 -503334.000000 0 0 1
8.069156 -7.436109 -32.786691 34.574183 -0.744593 2.818632 0.076106 0.006936 -89487.000000 0 0 1
8.549756 -6.834609 -31.614391 33.455641 -0.674370 2.808282 0.059945 -0.002091 139927.000000 0 0 1
8.978756 -5.583409 -31.977491 33.680149 -0.556329 2.822264 0.054973 -0.003464 -374637.000000 0 0 1
9.240056 -4.727809 -30.770391 32.473802 -0.472936 2.816262 0.057172 -0.005916 141121.000000 0 0 1
8.060756 -4.465809 -30.023291 31.405688 -0.505923 2.843787 0.056525 -0.004881 242890.000000 0 0 1
8.358556 -3.495709 -29.051591 30.431569 -0.396113 2.839289 0.052320 -0.005007 315967.000000 0 0 1
7.057656 -2.901809 -28.446391 29.452134 -0.390088 2.879507 0.041415 -0.003892 -676689.000000 0 0 1
6.376556 -2.056109 -29.381591 30.135792 -0.311922 2.917397 0.041089 0.004950 -80462.400000 0 0 1
5.064756 -1.738709 -28.991291 29.481686 -0.330690 2.958944 0.046758 0.001206 -397356.000000 0 0 1
3.995856 -2.801109 -29.033891 29.441126 -0.611399 2.975074 0.037581 -0.003389 -1387730.000000 0 0 1
4.191156 -3.862709 -28.156891 28.727980 -0.744639 2.941866 0.031980 -0.007257 -464942.000000 0 0 1
3.048356 -4.678409 -28.106391 28.655701 -0.993311 2.945476 0.057738 -0.009661 85553.200000 0 0 1
3.124856 -5.620909 -26.874691 27.633465 -1.063408 2.906709 0.051358 -0.022078 -145217.000000 0 0 1
3.016756 -4.994809 -25.658991 26.314117 -1.027457 2.917984 0.062172 -0.018692 -38074.200000 0 0 1
3.121256 -5.935809 -24.635391 25.531913 -1.086695 2.875806 0.053505 -0.023084 -129035.000000 0 0 1
3.024456 -5.292009 -23.206191 23.993333 -1.051586 2.884736 0.050539 -0.023831 -75064.300000 0 1 0
4.079556 -4.422409 -22.896991 23.674304 -0.825703 2.884630 0.044056 -0.022231 -318139.000000 0 1 0
3.817456 -3.767409 -21.709591 22.362305 -0.778800 2.899389 0.041750 -0.019968 423188.000000 0 1 0
4.833556 -2.608809 -21.386491 22.080561 -0.494923 2.890198 0.053726 -0.016727 1092030.000000 0 1 0
6.049556 -2.993809 -20.727691 21.799018 -0.459544 2.826780 0.041988 -0.026590 361805.000000 0 1 0
6.904956 -1.876009 -20.557491 21.767137 -0.265287 2.806646 0.062414 -0.010250 624561.000000 0 1 0
8.389656 -2.231909 -20.255091 22.037161 -0.260009 2.736671 0.053652 -0.010957 -283032.000000 0 1 0
9.185056 -2.509109 -21.398191 23.421005 -0.266667 2.722928 0.061783 -0.017440 434816.000000 0 1 0
10.351056 -3.300509 -21.158991 23.785303 -0.308666 2.667227 0.052852 -0.017443 867505.000000 0 1 0
11.537656 -2.595309 -20.454991 23.627522 -0.221260 2.617398 0.046496 -0.015530 -672172.000000 0 1 0
11.263456 -2.413209 -19.051691 22.263332 -0.211060 2.597782 0.047862 -0.012962 43592.100000 0 1 0
12.299256 -1.803909 -18.316991 22.136801 -0.145630 2.545339 0.040654 -0.016654 -175960.000000 0 1 0
12.466156 -0.282309 -18.452891 22.270921 -0.022642 2.547335 0.038830 -0.013498 152724.000000 0 1 0
12.931556 0.196491 -19.722091 23.584415 0.015193 2.561176 0.039246 -0.014527 214246.000000 0 1 0
12.749456 1.589891 -19.740191 23.553164 0.124062 2.564609 0.044382 -0.021996 -62497.500000 0 1 0
13.086756 2.243491 -21.107591 24.936456 0.169782 2.580088 0.039971 -0.018846 349911.000000 0 1 0
14.483956 2.338091 -21.389791 25.937903 0.160046 2.540386 0.038109 -0.016208 511647.000000 0 0 1
14.755956 3.425191 -22.265691 26.930117 0.228083 2.544183 0.043549 -0.021376 -509633.000000 0 0 1
16.241856 3.610491 -22.615591 28.076654 0.218739 2.507306 0.035721 -0.018699 -32511.600000 0 0 1
16.768656 2.720391 -23.586591 29.067433 0.160830 2.517415 0.027239 -0.021095 113518.000000 0 0 1
17.256756 1.528591 -22.970491 28.771091 0.088349 2.495410 0.030359 -0.019875 -732144.000000 0 0 1
8.910315 27.400291 3.413691 29.014185 1.256392 1.452867 -0.010141 -0.002576 108143.000000 0 0 1
8.893415 27.677591 4.805691 29.465853 1.259895 1.406971 -0.010909 0.000649 -827317.000000 0 0 1
10.177515 28.004191 5.206791 30.247763 1.222209 1.397797 0.002903 -0.001092 -721948.000000 0 0 1
10.290715 28.462791 6.633991 30.984498 1.223869 1.355019 0.005317 -0.006198 -33845.200000 0 0 1
10.406515 27.422391 7.614191 30.302788 1.208095 1.316804 -0.002312 -0.002922 61117.900000 0 0 1
10.228915 28.003691 8.917791 31.118554 1.220583 1.280147 0.003214 -0.004917 -646670.000000 0 0 1
10.145915 26.921791 10.124191 30.499535 1.210390 1.232431 0.010269 -0.000565 595596.000000 0 0 1
11.356015 26.246391 10.529991 30.474789 1.162447 1.217992 0.037420 -0.004733 796750.000000 0 0 1
12.018715 25.455891 9.549591 29.726193 1.129685 1.243745 0.024866 -0.006012 -296728.000000 0 0 1
13.321115 24.848391 10.082291 29.942398 1.078691 1.227362 0.045802 -0.010021 264622.000000 0 0 1
14.425415 25.754291 10.215891 31.236845 1.060219 1.237620 0.060086 -0.015876 -195968.000000 0 0 1
15.567915 25.109691 10.640491 31.401856 1.015803 1.225103 0.075544 -0.016642 -1256350.000000 0 0 1
16.762215 25.997391 10.822491 32.771367 0.998110 1.234236 0.072296 -0.018929 -1320660.000000 0 0 1
17.402415 26.420191 9.602791 33.061822 0.988344 1.276100 0.056055 -0.017897 1215630.000000 0 0 1
18.836915 26.402091 9.675891 33.845570 0.951092 1.280868 0.053242 -0.025793 1053270.000000 0 0 1
19.628615 27.267091 10.691391 35.257376 0.946862 1.262707 0.051165 -0.025811 -856773.000000 0 0 1
19.545815 28.655291 10.570991 36.261693 0.972184 1.274981 0.050806 -0.031900 181049.000000 0 0 1
18.357815 29.267291 11.039491 36.269188 1.010583 1.261512 0.047043 -0.013238 -36437.900000 0 0 1
18.524015 30.785191 11.322291 37.670431 1.029114 1.265515 0.051823 0.003522 -876830.000000 0 0 1
18.711515 31.617091 10.191091 38.126363 1.036416 1.300209 0.051761 -0.021535 1019010.000000 0 0 1
17.611715 31.748191 9.229091 37.460596 1.064328 1.321865 0.063570 -0.025876 228438.000000 0 0 1
16.387815 32.438691 9.753591 37.629266 1.103003 1.308600 0.070033 -0.019851 -1155770.000000 0 0 1
16.580015 33.814991 9.987891 38.962911 1.114926 1.311559 0.055467 -0.015196 1122870.000000 0 0 1
15.297215 -34.362048 10.081091 38.940769 -1.151960 1.308931 0.065205 -0.004856 1221230.000000 0 0 1
15.474815 -32.789848 10.101191 37.638784 -1.129848 1.299094 0.062049 -0.003563 80032.400000 0 0 1
16.168915 -32.272448 8.999291 37.201236 -1.106339 1.326464 0.052180 -0.005631 47502.000000 0 0 1
16.140015 -30.859348 9.086591 35.991187 -1.088904 1.315567 0.024513 -0.002956 -145184.000000 0 0 1
16.723815 -30.213348 7.865091 35.417397 -1.065252 1.346861 0.026556 0.002719 -609044.000000 0 0 1
16.014315 -30.510848 6.693891 35.102397 -1.087449 1.378925 0.027044 0.007652 -291314.000000 0 0 1
16.553615 -29.847648 5.574991 34.583013 -1.064426 1.408884 0.015341 0.010846 -110720.000000 0 0 1
16.018715 -30.286948 4.177791 34.515973 -1.084298 1.449459 0.020643 0.002346 -210106.000000 0 0 1
16.368615 -31.585448 3.840591 35.781590 -1.092669 1.463255 0.015958 0.000402 -117243.000000 0 0 1
16.052215 -31.844048 2.466091 35.746309 -1.103883 1.501753 0.012458 -0.003952 -246915.000000 0 0 1
16.467715 -33.253548 1.980791 37.160565 -1.110983 1.517467 0.015980 -0.006677 -89719.700000 0 0 1
17.883415 -33.309348 1.874291 37.852902 -1.078075 1.521261 0.022477 0.004183 295965.000000 0 0 1
18.249815 34.266691 1.408391 38.849008 1.081424 1.534535 0.052063 -0.003250 -746227.000000 0 0 1
19.698215 33.877591 1.625091 39.221827 1.044126 1.529351 0.072609 -0.004886 -645749.000000 0 0 1
19.922215 33.470391 2.978091 39.064443 1.033900 1.494487 0.060852 -0.025034 95655.500000 0 0 1
21.268315 33.200791 3.287591 39.565666 1.001060 1.487608 0.033265 -0.016961 -338984.000000 0 0 1
21.504015 33.067091 4.798091 39.735083 0.994200 1.449749 0.045851 -0.014805 -414060.000000 0 0 1
21.014315 31.936891 5.443491 38.616033 0.988821 1.429361 0.057701 -0.028940 434665.000000 0 0 1
21.940315 30.827891 5.510891 38.237497 0.952259 1.426170 0.044098 -0.032443 297963.000000 0 0 1
21.294215 29.689991 6.308691 37.077469 0.948607 1.399816 0.058278 -0.042929 -758318.000000 0 0 1
20.120215 29.229591 5.764291 35.950230 0.967931 1.409760 0.061524 -0.039357 -1057840.000000 0 0 1
19.245515 28.963391 6.845891 35.441981 0.984311 1.376417 0.060922 -0.049930 -517232.000000 0 0 1
17.744215 28.940791 6.502591 34.564580 1.020785 1.381540 0.071045 -0.037653 -240820.000000 0 0 1
17.154715 30.201391 6.347891 35.308695 1.054231 1.390031 0.058650 -0.041156 74705.300000 0 0 1
17.498115 30.775191 5.117391 35.769876 1.053801 1.427239 0.065074 -0.042171 -703420.000000 0 0 1
17.353615 32.358791 5.285891 37.096899 1.078542 1.427821 0.058690 -0.033726 269336.000000 0 0 1
16.028315 32.794991 5.507991 36.915528 1.116195 1.421032 0.059924 -0.027014 -156419.000000 0 0 1
15.997315 34.222991 5.739991 38.210923 1.133531 1.420007 0.049866 -0.025060 880324.000000 0 0 1
14.571615 -33.914248 5.795791 37.364413 -1.164985 1.415052 0.044570 -0.017039 1429160.000000 0 0 1
13.769915 -33.910548 4.620991 36.890234 -1.185072 1.445203 0.050226 -0.018344 -59344.000000 0 0 1
12.672415 -33.037848 4.756691 35.703160 -1.204531 1.437170 0.042284 -0.010727 -106528.000000 0 0 1
11.915415 -32.886148 3.445191 35.147478 -1.223186 1.472618 0.047339 -0.011060 896457.000000 0 0 1
10.791815 -31.947848 3.453991 33.897763 -1.245036 1.468725 0.049985 -0.009136 1190580.000000 0 0 1
10.346815 -31.683548 2.111491 33.397039 -1.255147 1.507530 0.049243 -0.005190 196514.000000 0 0 1
9.426015 -30.399748 1.965491 31.888205 -1.270128 1.509120 0.060673 -0.005469 509337.000000 0 0 1
8.814515 -30.082248 0.744491 31.355886 -1.285761 1.547051 0.057939 0.000541 1213730.000000 0 0 1
7.730215 -30.997748 0.322191 31.948715 -1.326401 1.560712 0.057126 -0.005135 629411.000000 0 0 1
8.099015 -31.701348 -1.010209 32.735150 -1.320668 1.601661 0.061138 -0.007429 -286397.000000 0 0 1
9.191015 -32.569748 -0.862409 33.852725 -1.295754 1.596274 0.045199 -0.010403 -386884.000000 0 0 1
9.266115 -33.422748 -1.988009 34.740368 -1.300349 1.628052 0.029327 -0.005135 544254.000000 0 0 1
10.534615 -34.375148 -2.131109 36.016254 -1.273423 1.630002 0.036661 -0.014335 590345.000000 0 0 1
10.603515 33.561491 -1.051509 35.212410 1.264778 1.600663 0.037404 -0.014291 -543873.000000 0 0 1
11.737115 32.785191 -1.166109 34.842336 1.227012 1.604271 0.050890 -0.020939 -936540.000000 0 0 1
12.023415 31.969391 0.154591 34.155941 1.211069 1.566270 0.047101 -0.014239 -659071.000000 0 0 1
12.309815 32.705591 1.352291 34.971644 1.210814 1.532118 0.040965 -0.014986 1160860.000000 0 0 1
13.615715 33.349591 1.302591 36.045522 1.183179 1.534651 0.047693 -0.014211 624743.000000 0 0 1
14.745915 32.391491 1.706991 35.630948 1.143593 1.522870 0.060072 -0.023264 -994936.000000 0 0 1
15.184415 31.668691 0.573491 35.125508 1.123701 1.554469 0.053540 -0.021535 -286029.000000 0 0 1
16.111715 30.669891 0.875091 34.655379 1.087093 1.545542 0.062473 -0.021792 -441823.000000 0 0 1
16.759515 30.064891 -0.430009 34.423304 1.062255 1.583288 0.057304 -0.014422 278198.000000 0 0 1
17.700315 30.935391 -1.090009 35.657926 1.051091 1.601370 0.049081 -0.010956 464878.000000 0 0 1
17.184815 31.824091 -2.103009 36.228625 1.075668 1.628877 0.049060 -0.017146 -516787.000000 0 0 1
18.274615 32.613991 -2.786209 37.488623 1.060056 1.645186 0.038614 -0.000356 -451942.000000 0 0 1
18.842015 33.658191 -1.992909 38.624694 1.060457 1.622416 0.025064 0.010497 11368.200000 0 0 1
19.931815 34.229191 -2.667109 39.699222 1.043490 1.638030 0.031653 0.019644 -871285.000000 0 0 1
20.971715 -33.883348 -1.786909 39.888434 -1.016568 1.615609 0.034809 0.019990 87470.900000 0 0 1
22.012115 34.287591 -1.048809 40.758705 1.000076 1.596531 0.028832 0.014709 1181410.000000 0 0 1
22.843415 33.382191 -1.775209 40.488808 0.970686 1.614655 0.022185 0.017907 -147138.000000 0 0 1
23.803515 33.962791 -2.845809 41.571349 0.959486 1.639306 0.023383 0.019923 -1120010.000000 0 0 1
23.094915 -34.330048 -3.911509 41.559923 -0.978607 1.665053 0.018324 0.009821 -42026.500000 0 0 1
23.957115 -33.701848 -4.854509 41.633210 -0.952822 1.687664 0.025527 0.008522 -110809.000000 0 0 1
23.230515 -33.281648 -6.147809 41.050219 -0.961415 1.721125 0.035058 -0.001215 -284101.000000 0 0 1
22.224515 -32.339748 -5.860409 39.675342 -0.968699 1.719048 0.037758 0.003610 -132951.000000 0 0 1
21.684615 -31.839148 -7.048409 39.161639 -0.972890 1.751765 0.043805 -0.006131 672561.000000 0 0 1
20.590315 -30.700348 -6.803309 37.586666 -0.980016 1.752803 0.049077 -0.006787 1361850.000000 0 0 1
19.307115 -31.102648 -6.310209 37.147788 -1.015256 1.741492 0.043787 -0.005261 189782.000000 0 0 1
18.664015 -29.930648 -5.886409 35.760858 -1.013222 1.736154 0.040599 -0.013224 1963820.000000 0 0 1
17.319515 -30.087248 -4.992609 35.073270 -1.048479 1.713629 0.033805 -0.006782 2106380.000000 0 0 1
16.158415 -30.681848 -5.536109 35.115790 -1.086061 1.729110 0.032028 -0.010388 -149556.000000 0 0 1
15.089915 -30.650348 -4.602709 34.472225 -1.113308 1.704716 0.025213 -0.009221 -154133.000000 0 0 1
13.954215 -31.529648 -5.078009 34.851470 -1.154135 1.717021 0.021658 -0.012566 -608852.000000 0 0 1
14.208915 -32.885748 -4.913409 36.159470 -1.162953 1.707100 0.017990 -0.008001 -481716.000000 0 0 1
13.068415 -33.636148 -5.179109 36.455412 -1.200223 1.713346 0.020754 -0.006114 -690945.000000 0 0 1
13.317115 33.736191 -5.352209 36.662273 1.194830 1.717307 0.024478 -0.008377 -366581.000000 0 0 1
13.499915 33.023791 -4.133109 35.915192 1.182732 1.686132 0.041993 -0.019062 92077.100000 0 0 1
13.592315 31.623691 -4.245909 34.681934 1.164855 1.693528 0.046697 -0.020685 348409.000000 0 0 1
12.286915 30.832591 -4.636509 33.512895 1.191580 1.709592 0.038732 -0.020210 111079.000000 0 0 1
11.399115 30.465591 -3.616809 32.728784 1.212759 1.681531 0.036168 -0.019705 -141352.000000 0 0 1
11.805615 29.241391 -2.989709 31.676013 1.187079 1.665321 0.040418 -0.024159 854686.000000 0 0 1
10.706515 28.684691 -1.961909 30.680450 1.213562 1.634787 0.035616 -0.019264 405880.000000 0 0 1
10.608015 29.421391 -0.764009 31.284691 1.224750 1.595220 0.032973 -0.014207 -196566.000000 0 0 1
9.582415 28.886291 0.029291 30.434213 1.250491 1.569834 0.015313 -0.001788 241054.000000 0 0 1
8.164915 29.511991 -0.171109 30.621115 1.300883 1.576384 -0.002748 0.008175 37505.400000 0 0 1
7.235615 28.881891 0.651591 29.781576 1.325324 1.548916 -0.008743 0.003527 -658947.000000 0 0 1
5.987915 29.535691 0.705091 30.144805 1.370772 1.547404 -0.000792 0.012373 407312.000000 0 0 1
4.977215 28.739591 1.622391 29.212478 1.399314 1.515230 0.001840 0.011819 266891.000000 0 0 1
4.483715 27.595891 1.010091 27.976010 1.409726 1.534683 -0.002000 0.003562 -435403.000000 0 0 1
3.384415 27.073391 1.705991 27.337395 1.446433 1.508351 0.005803 -0.003429 69656.600000 0 0 1
2.558815 26.211491 0.684191 26.344978 1.473483 1.544823 0.014635 -0.004556 112032.000000 0 0 1
1.354015 25.659091 1.178691 25.721812 1.518076 1.524956 0.022562 -0.010468 -168977.000000 0 0 1
0.971115 24.793291 0.171091 24.812892 1.531648 1.563901 0.019236 -0.006911 -182207.000000 0 1 0
-0.296185 23.952091 0.482291 23.958776 -1.558431 1.550665 0.026377 -0.005654 -21469.600000 0 1 0
-1.399285 24.815691 0.425391 24.858750 -1.514469 1.553683 0.036231 -0.015414 -296473.000000 0 1 0
-2.556285 24.180391 0.968091 24.334401 -1.465470 1.531003 0.030701 -0.008606 245546.000000 0 1 0
-3.792285 25.079591 1.187991 25.392491 -1.420723 1.523994 0.040427 -0.018919 -381410.000000 0 0 1
-4.912185 24.237991 1.492891 24.775764 -1.370840 1.510504 0.024911 -0.016053 227191.000000 0 1 0
-5.945585 24.988591 2.112091 25.772865 -1.337208 1.488754 0.012153 -0.014744 311191.000000 0 0 1
-6.975385 25.596491 1.098291 26.552638 -1.304743 1.529422 0.023943 -0.011927 -703069.000000 0 0 1
-6.537585 26.682991 0.387991 27.474944 -1.330520 1.556674 0.023164 -0.014687 -141417.000000 0 0 1
-7.395285 26.981991 -0.706609 27.986021 -1.303284 1.596048 0.018288 -0.006345 -169295.000000 0 0 1
-7.024885 28.287691 -1.428109 29.181877 -1.327383 1.619754 0.021327 0.001664 280805.000000 0 0 1
-7.629885 29.504391 -0.941609 30.489520 -1.317738 1.601684 0.039102 -0.014149 60266.100000 0 0 1
-7.504285 30.462891 -1.988809 31.436561 -1.329264 1.634103 0.041176 -0.008265 -367139.000000 0 0 1
-7.660685 31.978591 -1.597509 32.922156 -1.335671 1.619339 0.030959 -0.009056 -655747.000000 0 0 1
-7.413985 32.921391 -2.655009 33.850173 -1.349289 1.649311 0.024163 0.003652 1070710.000000 0 0 1
-6.082185 32.942991 -3.227809 33.654901 -1.388225 1.666853 0.024881 0.007719 1087370.000000 0 0 1
-4.963085 33.507991 -2.307509 33.952058 -1.423749 1.638813 0.026452 -0.001089 -556478.000000 0 0 1
-5.016985 -33.955348 -2.161409 34.391968 1.424105 1.633684 0.028161 0.002327 -102850.000000 0 0 1
-4.111185 -33.559948 -1.174709 33.831227 1.448901 1.605526 0.029140 0.000408 -160176.000000 0 0 1
-4.024185 -32.034948 -1.063709 32.304233 1.445832 1.603730 0.033486 -0.007189 -367181.000000 0 0 1
-5.278685 -31.520748 -0.756109 31.968637 1.404869 1.594450 0.041952 -0.009677 -545713.000000 0 0 1
-5.591085 -30.414848 -1.567909 30.964198 1.388999 1.621454 0.049430 -0.003918 429578.000000 0 0 1
-7.044185 -29.881848 -1.376309 30.731736 1.339288 1.615596 0.077545 -0.009974 397466.000000 0 0 1
-7.214785 -29.257948 -0.174809 30.134884 1.329027 1.576597 0.063449 -0.006611 -799318.000000 0 0 1
-8.501885 -28.782248 0.009091 30.011663 1.283578 1.570493 0.052312 -0.007313 -604238.000000 0 0 1
-8.446785 -28.264448 1.424991 29.534011 1.280396 1.522528 0.051173 -0.008628 637753.000000 0 0 1
-7.459085 -27.246848 1.680091 28.299318 1.303584 1.511393 0.056735 -0.011827 137936.000000 0 0 1
-7.389585 -26.845048 3.021391 28.006988 1.302181 1.462706 0.051552 -0.006419 635482.000000 0 0 1
-8.413085 -25.755248 3.569191 27.328592 1.255068 1.439819 0.035865 -0.002953 539861.000000 0 0 1
-8.007485 -24.464648 3.175791 25.936933 1.254478 1.448045 0.033454 -0.006010 -214966.000000 0 0 1
-8.979385 -23.518748 3.570091 25.426490 1.206080 1.429923 0.023168 -0.008469 -289658.000000 0 0 1
-8.329785 -22.110348 3.808591 23.932367 1.210504 1.410977 0.005894 0.005952 605591.000000 0 1 0
-7.496185 -22.182248 4.966291 23.935517 1.244909 1.361792 0.002243 0.002734 -157110.000000 0 1 0
-6.811185 -20.995748 5.334191 22.708308 1.257100 1.333680 -0.008355 0.009910 250013.000000 0 1 0
-7.704185 -19.857848 5.982591 22.124195 1.200706 1.296978 -0.004453 0.002253 374275.000000 0 1 0
-8.093085 -20.154048 7.320991 22.919001 1.188945 1.245670 -0.002766 0.000067 37354.800000 0 1 0
-8.912485 -19.116948 7.835991 22.500952 1.134545 1.215091 -0.002251 -0.002262 -406476.000000 0 1 0
-26.901685 29.078791 -5.580309 40.005207 -0.824269 1.710742 0.044402 -0.008721 -31320.300000 0 0 1
-25.988215 30.038791 -4.991209 40.032842 -0.857569 1.695799 0.046938 -0.018367 468840.000000 0 0 1
-25.137525 29.321891 -4.099609 38.839094 -0.862082 1.676547 0.033046 -0.015126 251823.000000 0 0 1
-24.109285 30.196791 -3.341409 38.784904 -0.897028 1.657056 0.023902 -0.018767 -306134.000000 0 0 1
-24.757285 31.074391 -2.452509 39.806478 -0.898065 1.632446 0.019848 -0.025510 326636.000000 0 0 1
-23.954985 32.132491 -1.884709 40.123439 -0.930177 1.617786 0.020293 -0.024648 573840.000000 0 0 1
-22.776685 31.709491 -0.915509 39.052623 -0.947899 1.594241 0.021463 -0.018451 303219.000000 0 0 1
-21.716885 31.209391 -1.694809 38.059447 -0.962865 1.615342 0.023889 -0.021069 -66388.500000 0 0 1
-20.593985 30.934091 -0.848909 37.171909 -0.983437 1.593636 0.021381 -0.012160 638957.000000 0 0 1
-19.515785 30.036891 -1.507009 35.851802 -0.994613 1.612843 0.029177 -0.018175 922242.000000 0 0 1
-18.244985 29.958191 -0.845609 35.086860 -1.023775 1.594899 0.029816 -0.010132 682705.000000 0 0 1
-17.303685 29.106091 -1.490109 33.893988 -1.034428 1.614774 0.024298 -0.003041 -107870.000000 0 0 1
-15.938485 29.414091 -0.870109 33.466119 -1.074220 1.596799 0.031203 -0.003325 -610019.000000 0 0 1
-15.661785 28.889991 0.349891 32.864046 -1.074025 1.560150 0.026650 -0.011885 414302.000000 0 0 1
-14.581685 29.606691 0.982591 33.017377 -1.113156 1.541032 0.031793 -0.011808 644091.000000 0 0 1
-14.047785 28.952291 2.291191 32.261819 -1.119055 1.499718 0.033017 -0.017775 -31438.600000 0 0 1
-15.006185 28.998291 3.322791 32.819619 -1.093259 1.469379 0.023465 -0.019118 -52598.700000 0 0 1
-14.581385 28.318491 4.513091 32.170199 -1.095294 1.430044 0.032432 -0.027917 518784.000000 0 0 1
-13.390285 28.943291 5.319891 32.331332 -1.137482 1.405502 0.040360 -0.020489 332030.000000 0 0 1
-13.655285 30.116091 5.993091 33.605994 -1.145101 1.391503 0.035400 -0.025775 -424739.000000 0 0 1
-13.556285 31.288991 5.222091 34.497015 -1.161950 1.418834 0.036693 -0.012491 -34249.300000 0 0 1
-13.265885 32.552691 6.090891 35.675767 -1.183824 1.399227 0.045456 -0.017725 -760215.000000 0 0 1
-14.361685 32.894391 6.809191 36.533054 -1.159142 1.383316 0.055423 -0.019371 -808199.000000 0 0 1
-13.868185 33.805191 7.758391 37.353850 -1.181495 1.361573 0.054669 -0.017654 185046.000000 0 0 1
-14.958185 -34.368148 8.601091 38.456413 1.160289 1.345230 0.040113 -0.015501 -28709.800000 0 0 1
-15.448685 33.573991 9.575991 38.178192 -1.139543 1.317265 0.038357 -0.017970 -310751.000000 0 0 1
-16.517485 34.021191 10.349091 39.209341 -1.118811 1.303687 0.049276 -0.017691 -1118020.000000 0 0 1
-16.789685 33.203091 11.587291 38.969271 -1.102626 1.268886 0.063086 -0.016329 112602.000000 0 0 1
-16.050185 33.551291 12.744491 39.315640 -1.124596 1.240674 0.080394 -0.022417 291199.000000 0 0 1
-14.655985 33.281491 12.694091 38.517469 -1.155984 1.234951 0.077106 -0.018585 35276.800000 0 0 1
-14.002185 33.388591 14.110991 38.858451 -1.173704 1.199162 0.086216 -0.020750 -180165.000000 0 0 1
-14.481485 32.455391 15.067391 38.601710 -1.151110 1.169807 0.084810 -0.014250 327460.000000 0 0 1
-13.763885 31.165091 15.121391 37.274171 -1.154913 1.153074 0.079467 -0.006693 213953.000000 0 0 1
-14.389285 30.127291 14.246991 36.299889 -1.125215 1.167470 0.083076 -0.008350 -48783.800000 0 0 1
-14.178285 30.366891 12.874191 35.901485 -1.133978 1.204031 0.075925 -0.011928 410020.000000 0 0 1
-15.262485 29.818791 12.123891 35.624324 -1.097721 1.223533 0.044545 -0.012260 291177.000000 0 0 1
-15.070485 29.698791 10.552091 34.935430 -1.101211 1.263959 0.026708 -0.007518 159816.000000 0 0 1
-14.285985 28.553291 10.184891 33.512860 -1.106887 1.262002 0.025648 -0.005886 318238.000000 0 0 1
-14.483885 28.242191 8.829791 32.944946 -1.096925 1.299463 0.029348 -0.008002 -336599.000000 0 0 1
-13.710585 26.963491 8.410991 31.396731 -1.100382 1.299590 0.031301 -0.013771 1083930.000000 0 0 1
-12.288585 27.159891 8.294891 30.943080 -1.145904 1.299408 0.038007 -0.018292 877851.000000 0 0 1
-11.613885 25.952491 8.099891 29.563869 -1.150019 1.293268 0.039116 -0.023073 -160558.000000 0 0 1
-10.350385 26.064191 7.238891 28.963322 -1.192783 1.318185 0.044958 -0.028773 -276860.000000 0 0 1
-10.622285 26.169391 5.820391 28.836555 -1.185210 1.367559 0.046126 -0.025179 538884.000000 0 0 1
-9.426885 26.185291 5.042991 28.283694 -1.225235 1.391538 0.050430 -0.020211 108998.000000 0 0 1
-9.612585 26.608591 3.588691 28.518373 -1.224127 1.444624 0.041894 -0.014379 -99733.700000 0 0 1
-9.650785 27.962391 3.441591 29.780488 -1.238463 1.454972 0.048198 -0.013958 65459.400000 0 0 1
-10.000085 28.355391 2.156691 30.144339 -1.231745 1.499190 0.041576 -0.014675 44978.400000 0 0 1
-9.640785 29.822791 1.827891 31.395617 -1.258131 1.512542 0.052612 -0.017042 -68220.500000 0 0 1
-10.539385 30.724991 2.409891 32.571633 -1.240350 1.496741 0.042257 -0.021976 -156915.000000 0 0 1
-10.375585 32.082091 2.001491 33.777496 -1.258006 1.511506 0.055730 -0.017677 -597712.000000 0 0 1
-11.112685 33.102491 2.905591 35.038680 -1.246912 1.487776 0.053028 -0.010515 970828.000000 0 0 1
-12.424385 33.468191 2.437291 35.783034 -1.215335 1.502631 0.050524 -0.010339 460392.000000 0 0 1
-12.366685 34.252191 1.279491 36.438778 -1.224313 1.535676 0.043994 -0.001602 -574125.000000 0 0 1
-13.726585 -34.302748 0.614891 36.952344 1.190152 1.554155 0.043091 0.000053 334419.000000 0 0 1
-14.484885 33.408991 0.173691 36.414320 -1.161696 1.566026 0.034744 0.005233 58246.900000 0 0 1
-14.655685 33.471591 -1.267209 36.561487 -1.158088 1.605463 0.032125 0.000432 -194033.000000 0 0 1
-13.426285 33.218791 -2.146209 35.893724 -1.186694 1.630625 0.041938 0.002646 -24952.000000 0 0 1
-12.934885 31.859491 -2.098509 34.449124 -1.185130 1.631750 0.036045 0.002082 1426300.000000 0 0 1
-11.503285 31.769491 -2.360809 33.870334 -1.223395 1.640554 0.029352 0.006785 1372460.000000 0 0 1
-11.162185 30.286491 -2.439509 32.370003 -1.217690 1.646231 0.011180 -0.001048 -243595.000000 0 0 1
-11.450485 29.654591 -3.689209 32.001853 -1.202305 1.686334 0.020290 -0.006097 -335204.000000 0 0 1
-10.437985 29.848691 -4.651809 31.961464 -1.234392 1.716859 0.013782 0.001570 -88531.700000 0 0 1
-10.739185 29.244691 -6.005009 31.727625 -1.218865 1.761212 0.015414 -0.004228 -183622.000000 0 0 1
-10.842085 27.783591 -5.994409 30.420579 -1.198738 1.769145 0.018855 -0.002976 42961.100000 0 0 1
-10.565485 27.263691 -7.290909 30.134626 -1.201086 1.815166 0.012979 -0.002745 -48499.800000 0 0 1
-10.888485 25.783091 -7.520909 28.980872 -1.171205 1.833314 0.031318 -0.009616 -132193.000000 0 0 1
-10.154485 24.893591 -6.730809 27.714765 -1.183485 1.816109 0.007443 -0.001433 -156920.000000 0 0 1
-10.597885 23.600491 -7.048709 26.813851 -1.148730 1.836798 0.051696 -0.013421 -95985.000000 0 0 1
-10.098185 22.535391 -6.042409 25.422979 -1.149521 1.810768 0.023378 -0.006487 -341745.000000 0 0 1
-8.715885 22.329391 -6.023409 24.715376 -1.198652 1.816987 0.012354 -0.008184 -351274.000000 0 1 0
-8.147285 21.229791 -5.307409 23.350607 -1.204362 1.800092 0.015253 -0.003236 -223912.000000 0 1 0
-8.294985 21.048791 -3.749409 22.932868 -1.195401 1.735029 0.013278 -0.012379 349447.000000 0 1 0
-9.554485 20.888191 -3.084509 23.175826 -1.141797 1.704284 0.025157 -0.014600 295414.000000 0 1 0
-10.188185 19.646591 -3.332709 22.380674 -1.092401 1.720262 0.029232 -0.015633 -43133.500000 0 1 0
-11.551985 19.519991 -2.614609 22.832314 -1.036426 1.685562 0.034886 -0.019673 -202450.000000 0 1 0
-11.611885 19.404191 -1.185009 22.644265 -1.031538 1.623152 0.043424 -0.020830 75445.300000 0 1 0
-11.136585 18.178791 -0.636309 21.328311 -1.021153 1.600635 0.038019 -0.023872 -416923.000000 0 1 0
-11.004085 18.301891 0.945591 21.376230 -1.029455 1.526546 0.041752 -0.019872 72257.700000 0 1 0
-12.272285 18.301391 1.581991 22.091912 -0.980099 1.499125 0.053720 -0.020453 314567.000000 0 1 0
-12.100085 18.566191 2.944991 22.355949 -0.993208 1.438680 0.048048 -0.016018 190599.000000 0 1 0
-13.409685 18.532791 3.768991 23.183815 -0.944429 1.407502 0.044442 -0.017424 166875.000000 0 1 0
-13.907885 17.255691 4.093791 22.537685 -0.892415 1.388140 0.036111 -0.014325 880319.000000 0 1 0
-15.208785 17.393891 4.700091 23.578495 -0.852320 1.370114 0.042902 -0.017305 665652.000000 0 1 0
-15.629085 16.005391 5.316591 22.993629 -0.797293 1.337465 0.027015 -0.009562 -276162.000000 0 1 0
-14.818085 15.585391 6.392091 22.435215 -0.810630 1.281880 0.032304 -0.003805 60561.100000 0 1 0
-15.170685 16.172991 7.637191 23.452974 -0.817365 1.239109 0.012845 0.001855 -507355.000000 0 1 0
-14.150885 15.822091 8.818591 22.985944 -0.841098 1.177049 0.010255 0.003535 1263950.000000 0 1 0
-12.870885 16.434191 8.825791 22.663559 -0.906398 1.170787 0.023737 -0.009818 323599.000000 0 1 0
-12.047585 16.158991 7.696691 21.575364 -0.930139 1.206026 0.025623 -0.011694 -80278.300000 0 1 0
-10.907385 17.260891 7.518991 21.758782 -1.007241 1.217960 0.028711 -0.019859 1129520.000000 0 1 0
-9.878485 17.146491 8.510691 21.541088 -1.048119 1.164629 0.041264 -0.020961 33236.000000 0 1 0
-9.154085 18.345791 8.569291 22.221567 -1.107969 1.174906 0.044381 -0.023331 276394.000000 0 1 0
-7.849485 18.295591 9.428891 22.028323 -1.165511 1.128479 0.042228 -0.022770 664601.000000 0 1 0
-6.735985 17.714091 8.731991 20.866484 -1.207421 1.139037 0.026850 -0.016866 464571.000000 0 1 0
-5.535985 17.661591 9.513591 20.810750 -1.267048 1.096011 0.030663 -0.020507 573240.000000 0 1 0
-4.592585 18.722891 8.958391 21.257733 -1.330253 1.135788 0.025597 -0.021752 -1379590.000000 0 1 0
-4.940885 20.022491 9.319091 22.630906 -1.328863 1.146383 0.029663 -0.024216 14808.800000 0 1 0
-4.323785 21.051591 8.543791 23.127061 -1.368224 1.192403 0.028754 -0.027848 -539440.000000 0 1 0
-2.900685 21.519291 8.704691 23.393706 -1.436809 1.189531 0.032043 -0.024439 135349.000000 0 1 0
-1.756185 20.669491 8.492291 22.414973 -1.486035 1.182225 0.021979 -0.008122 733452.000000 0 1 0
-0.626185 21.466291 8.150491 22.970073 -1.541634 1.208063 0.025508 -0.012653 98978.500000 0 1 0
0.656815 20.638691 7.990391 22.141213 1.538983 1.201582 0.025447 -0.003938 42568.400000 0 1 0
1.036415 20.040691 9.225391 22.086450 1.519127 1.139890 0.016263 -0.005287 -802361.000000 0 1 0
2.217415 19.299991 9.114391 21.458767 1.456406 1.132122 0.005687 -0.014634 -228224.000000 0 1 0
2.928715 19.118891 10.450391 21.984540 1.418794 1.075432 -0.009283 -0.014850 -874916.000000 0 1 0
3.827715 18.102191 10.662891 21.355045 1.362415 1.047989 0.000203 -0.012267 -222469.000000 0 1 0
4.536515 18.281391 11.909291 22.284982 1.327560 1.006988 -0.007576 -0.001458 561506.000000 0 1 0
6.003615 18.770791 11.678591 22.907978 1.261240 1.035839 0.000100 -0.003956 718724.000000 0 1 0
6.984915 17.963791 11.018591 22.201265 1.199954 1.051459 -0.004922 0.000562 397263.000000 0 1 0
7.474515 16.977391 11.883491 22.029923 1.156069 1.001042 -0.007845 -0.000099 -419142.000000 0 1 0
8.785915 16.268291 11.443491 21.744035 1.075614 1.016574 -0.000973 0.000302 567514.000000 0 1 0
9.904715 17.116091 11.218491 22.735841 1.046202 1.054770 0.010266 -0.003658 -756688.000000 0 1 0
10.976215 16.428191 10.714391 22.475785 0.981779 1.073890 0.011967 -0.003359 -476738.000000 0 1 0
12.028515 17.461391 10.214391 23.535486 0.967584 1.121869 0.023700 -0.002511 801039.000000 0 1 0
12.934715 17.022491 9.146891 23.253766 0.921014 1.166523 0.017586 0.002462 461104.000000 0 1 0
13.556515 18.163291 8.585091 24.236089 0.929623 1.208708 0.021985 0.008753 -622398.000000 0 1 0
14.495815 17.789891 7.477491 24.135487 0.887075 1.255800 0.023092 0.006342 -4703.660000 0 1 0
15.636015 17.093091 8.027091 24.517196 0.829888 1.237239 0.031920 0.000081 417917.000000 0 1 0
16.412415 16.593291 6.954091 24.352906 0.790878 1.281211 0.024970 -0.005917 154026.000000 0 1 0
17.920015 16.471391 7.312391 25.414655 0.743301 1.278947 0.030323 -0.005971 55859.800000 0 0 1
18.181015 15.444691 8.215791 25.230675 0.704201 1.239121 0.035622 -0.008761 16716.800000 0 0 1
19.362115 15.713591 8.932891 26.487827 0.681752 1.226807 0.043936 -0.016313 -407513.000000 0 0 1
19.605615 14.691491 10.002791 26.462726 0.643086 1.183166 0.033837 -0.022204 -531380.000000 0 0 1
20.207515 13.632191 9.371691 26.115299 0.593482 1.203752 0.037147 -0.025905 -52583.800000 0 0 1
20.398915 12.649291 10.379991 26.150803 0.555065 1.162629 0.040764 -0.024910 4014.140000 0 0 1
21.240015 11.409491 9.950091 26.082926 0.492939 1.179400 0.035032 -0.027239 -559273.000000 0 0 1
22.628815 11.558191 9.820991 27.241639 0.472229 1.201977 0.022929 -0.024971 402719.000000 0 0 1
23.286715 10.508491 9.119891 27.126958 0.423906 1.227925 0.033079 -0.021170 -143421.000000 0 0 1
23.342615 9.087091 9.676591 26.853106 0.371241 1.202150 0.042522 -0.026171 93797.500000 0 0 1
22.094915 8.351491 9.618191 25.503769 0.361383 1.184103 0.046230 -0.028842 1327860.000000 0 0 1
22.263715 7.001491 9.982991 25.384128 0.304688 1.166603 0.041146 -0.018322 77233.700000 0 0 1
23.260515 6.024991 9.202091 25.729954 0.253452 1.205056 0.045512 -0.018118 527449.000000 0 0 1
23.022715 5.772091 7.814191 24.988477 0.245649 1.252750 0.041206 -0.011952 1312620.000000 0 1 0
24.263415 5.195391 7.353591 25.880121 0.210939 1.282686 0.040304 -0.011298 992597.000000 0 0 1
24.070615 4.820991 5.842391 25.234302 0.197670 1.337151 0.062202 -0.024487 50545.000000 0 0 1
23.159115 3.759791 5.582791 24.117383 0.160942 1.337193 0.059454 -0.015630 546916.000000 0 1 0
23.054315 3.474591 4.201291 23.690189 0.149587 1.392510 0.071975 -0.014859 33617.100000 0 1 0
22.071815 2.316891 3.852591 22.524996 0.104588 1.398915 0.061809 -0.011600 -82673.100000 0 1 0
22.555215 1.067791 4.284791 22.983414 0.047306 1.383269 0.059766 -0.009259 218257.000000 0 1 0
21.732715 0.018591 3.888491 22.077853 0.000855 1.393746 0.038720 -0.009072 -411338.000000 0 1 0
22.398015 -1.371109 4.146691 22.819861 -0.061139 1.388067 0.051941 -0.013330 -557894.000000 0 1 0
22.428415 -1.692309 5.537391 23.163773 -0.075311 1.329405 0.050851 -0.011150 637642.000000 0 1 0
22.631515 -3.084009 5.721191 23.546308 -0.135436 1.325364 0.046458 -0.014018 -741544.000000 0 1 0
22.093215 -3.505609 7.096691 23.468329 -0.157362 1.263593 0.055025 -0.016383 -137679.000000 0 1 0
22.352615 -4.887209 7.300991 24.017258 -0.215254 1.261919 0.053090 -0.020857 535017.000000 0 1 0
22.275215 -5.255409 8.671391 24.474426 -0.231694 1.208626 0.069982 -0.023040 -66706.500000 0 1 0
22.163115 -6.765709 8.922191 24.831109 -0.296284 1.203263 0.083966 -0.030885 740507.000000 0 1 0
20.890715 -7.288009 8.508591 23.705129 -0.335662 1.203670 0.088663 -0.034517 767217.000000 0 1 0
20.661615 -8.558409 9.006091 24.109300 -0.392703 1.187960 0.084061 -0.028820 -93275.200000 0 1 0
-26.289535 -33.298148 5.035691 42.723114 0.902479 1.452654 0.021180 -0.014199 -168345.000000 0 0 1
-26.938075 -34.352648 5.663791 44.020936 0.905787 1.441777 0.031273 -0.013711 37538.200000 0 0 1
-26.955505 -34.203248 7.032091 44.112490 0.903355 1.410701 0.044192 0.000072 -173046.000000 0 0 1
-27.698255 33.450091 7.725391 44.111037 -0.879186 1.394753 0.049883 -0.004182 755293.000000 0 0 1
-29.099995 33.385091 7.437991 44.907657 -0.853869 1.404401 0.038316 -0.005659 520601.000000 0 0 1
-29.693595 32.217791 7.975691 44.534338 -0.826147 1.390734 0.042395 -0.000579 828677.000000 0 0 1
-31.257445 32.205891 7.933991 45.576260 -0.800342 1.395823 0.032122 0.002499 855075.000000 0 0 1
-31.795535 32.366591 6.632691 45.853515 -0.794298 1.425638 0.023683 0.006193 745731.000000 0 0 1
-33.221525 32.442991 6.528391 46.891761 -0.773542 1.431120 0.004879 0.011587 1106870.000000 0 0 1
-33.974165 32.334191 5.150291 47.183358 -0.760671 1.461424 0.001222 0.010026 57840.600000 0 0 1
-33.773025 31.105791 4.509091 46.135879 -0.744310 1.472905 0.002909 0.003840 181271.000000 0 0 1
-34.487163 31.027591 3.319291 46.509069 -0.732641 1.499367 0.008614 0.007276 -188352.000000 0 0 1
-34.111921 29.744391 2.650391 45.336260 -0.717108 1.512302 0.012708 -0.002397 -97431.300000 0 0 1
-34.493533 28.635391 3.390491 44.958702 -0.692867 1.495311 0.020787 -0.009028 497441.000000 0 0 1
-33.834035 27.476991 2.853191 43.679144 -0.682082 1.505428 0.019153 -0.012298 -96281.700000 0 0 1
-34.071704 26.238791 3.636591 43.157617 -0.656245 1.486433 0.029555 -0.013287 -417447.000000 0 0 1
-35.422532 25.837291 3.579891 43.990192 -0.630188 1.489327 0.029764 -0.011112 -181299.000000 0 0 1
35.609538 24.828091 4.538191 43.647090 0.608865 1.466633 0.036046 -0.014134 1189440.000000 0 0 1
34.100906 24.384991 4.347691 42.147384 0.620777 1.467458 0.048531 -0.012912 834964.000000 0 0 1
33.822686 23.568791 3.215891 41.349776 0.608598 1.492945 0.038211 -0.018474 116389.000000 0 0 1
34.243716 22.215291 3.321291 40.953415 0.575489 1.489608 0.034073 -0.015556 -1142710.000000 0 0 1
33.708396 21.396491 2.109191 39.981427 0.565582 1.518018 0.040935 -0.013176 527744.000000 0 0 1
32.293686 21.207291 2.204391 38.697425 0.581071 1.513801 0.042223 -0.017094 944464.000000 0 0 1
31.767816 20.401191 3.293791 37.897913 0.570870 1.483774 0.038547 -0.011352 -647382.000000 0 0 1
32.116536 18.869391 3.341291 37.399065 0.531199 1.481335 0.045334 -0.012947 -213650.000000 0 0 1
31.451586 18.162191 2.291491 36.391186 0.523685 1.507786 0.049292 -0.022686 340576.000000 0 0 1
31.727336 16.788791 2.218691 35.964009 0.486701 1.509065 0.039853 -0.014503 -289721.000000 0 0 1
30.971416 15.790091 3.160191 34.907627 0.471479 1.480142 0.052990 -0.011595 1028840.000000 0 0 1
29.541526 15.851891 2.955791 33.655919 0.492495 1.482859 0.049847 -0.005985 1333980.000000 0 0 1
28.776006 15.001791 3.830291 32.676955 0.480566 1.453309 0.044536 -0.011832 137691.000000 0 0 1
27.274026 15.309091 3.889991 31.517817 0.511482 1.447059 0.025099 -0.003754 -120247.000000 0 0 1
26.640386 14.955891 2.661191 30.667096 0.511553 1.483910 0.031236 -0.007437 476882.000000 0 0 1
25.223856 15.098391 2.666391 29.518028 0.539372 1.480342 0.010655 -0.001497 332374.000000 0 0 1
24.531956 14.335391 1.518491 28.453930 0.528837 1.517404 0.005669 -0.008189 -540454.000000 0 0 1
24.950656 14.730391 0.213491 28.975252 0.533317 1.563428 0.017302 -0.010196 564051.000000 0 0 1
26.249956 14.240791 -0.104209 29.864212 0.497072 1.574286 0.031686 -0.014268 -334618.000000 0 0 1
26.932346 14.867691 -1.375909 30.794360 0.504407 1.615492 0.046168 -0.015960 228197.000000 0 0 1
27.345036 16.240991 -1.342409 31.832732 0.535943 1.612980 0.035965 -0.017012 408926.000000 0 0 1
28.179536 16.555991 -0.233609 32.683967 0.531191 1.577944 0.051439 -0.020770 -544451.000000 0 0 1
28.855596 17.939191 -0.257509 33.978321 0.556214 1.578375 0.063917 -0.016944 106422.000000 0 0 1
29.729366 18.043891 -1.368509 34.803592 0.545506 1.610127 0.062028 -0.015520 27972.700000 0 0 1
30.534216 19.200491 -1.376509 36.095595 0.561341 1.608941 0.053312 -0.009079 -286668.000000 0 0 1
29.961556 20.429691 -2.048109 36.321645 0.598450 1.627214 0.047809 -0.005905 -539771.000000 0 0 1
30.871546 21.424991 -2.424309 37.655808 0.606691 1.635222 0.032865 -0.004053 298793.000000 0 0 1
30.153506 22.484791 -3.059809 37.738073 0.640729 1.651966 0.036427 -0.004268 -25538.600000 0 0 1
31.083116 23.701591 -3.199309 39.219397 0.651468 1.652462 0.039660 -0.000525 172864.000000 0 0 1
31.597126 24.348891 -2.048409 39.942995 0.656558 1.622102 0.032187 0.006666 350142.000000 0 0 1
32.627776 23.694591 -1.316909 40.345256 0.628100 1.603443 0.033617 0.003529 -257238.000000 0 0 1
33.000646 24.320191 0.007891 40.994078 0.635104 1.570604 0.032418 -0.008580 46498.500000 0 0 1
33.629776 25.551991 -0.245709 42.236554 0.649745 1.576614 0.056759 -0.014082 122631.000000 0 0 1
34.267836 26.220491 0.838391 43.156710 0.653135 1.551368 0.040400 -0.019058 49806.800000 0 0 1
34.500756 27.693691 0.319991 44.241893 0.676384 1.563564 0.042506 -0.010020 -292704.000000 0 0 1
35.280703 27.920491 -0.812509 44.999356 0.669464 1.588853 0.032859 -0.012311 -136111.000000 0 0 1
34.542526 27.850491 -2.001709 44.416695 0.678550 1.615878 0.032448 -0.012186 -302523.000000 0 0 1
35.315810 27.139691 -3.119909 44.648663 0.655227 1.640730 0.022322 -0.004341 537311.000000 0 0 1
-34.979527 27.984291 -3.706009 44.949108 -0.674753 1.653339 0.030783 -0.005356 854592.000000 0 0 1
-34.463462 27.518991 -4.967909 44.381361 -0.673824 1.682968 0.029119 -0.010037 -474652.000000 0 0 1
-35.413129 27.717391 -6.119609 45.384943 -0.664095 1.706046 0.021822 -0.002686 -990931.000000 0 0 1
34.800226 26.903491 -6.003009 44.394703 0.658112 1.706431 0.018009 0.007399 -1009610.000000 0 0 1
34.024136 27.034491 -7.173809 44.045080 0.671420 1.734399 0.015951 0.007696 -142290.000000 0 0 1
32.720576 26.230691 -6.961409 42.510545 0.675751 1.735294 0.024783 0.008521 -319466.000000 0 0 1
32.662266 24.806691 -7.095609 41.623830 0.649548 1.742103 0.016708 0.003941 -261421.000000 0 0 1
33.548796 24.109491 -6.250509 41.783467 0.623126 1.720953 0.024525 0.001589 -98693.000000 0 0 1
33.580946 22.672791 -6.562609 41.046355 0.593865 1.731368 0.021379 0.002709 55946.900000 0 0 1
32.395536 21.997391 -6.202109 39.646212 0.596510 1.727878 0.025038 0.000149 29871.200000 0 0 1
32.533776 20.614691 -6.322309 39.030548 0.564788 1.733497 0.030503 -0.004604 -45951.700000 0 0 1
31.355236 19.735391 -5.826609 37.504478 0.561766 1.726786 0.046261 -0.008239 -845510.000000 0 0 1
30.211926 19.789591 -6.574009 36.709753 0.579900 1.750848 0.037999 -0.012852 -903979.000000 0 0 1
29.203106 19.058691 -5.899509 35.367490 0.578219 1.738386 0.056345 -0.021065 -596134.000000 0 0 1
27.895706 18.908791 -6.633909 34.347075 0.595697 1.765161 0.035101 -0.018209 -807095.000000 0 0 1
27.945586 17.865491 -7.614409 34.031027 0.568813 1.796456 0.033587 -0.013767 74757.700000 0 0 1
26.754306 17.820591 -8.363809 33.216256 0.587598 1.825335 0.045619 -0.016173 -537409.000000 0 0 1
26.990666 16.725791 -9.390309 33.112325 0.554770 1.858332 0.048324 -0.013584 -221054.000000 0 0 1
25.960656 16.645991 -10.323009 32.520904 0.570165 1.893811 0.035649 -0.007189 -16651.700000 0 0 1
26.220756 15.646591 -11.308509 32.561116 0.538008 1.925488 0.041774 0.001220 61538.600000 0 0 1
25.451556 15.954091 -12.627009 32.584599 0.559922 1.968730 0.048010 0.002706 1007900.000000 0 0 1
24.022356 15.800391 -12.495409 31.350617 0.581795 1.980753 0.045305 0.000574 1331880.000000 0 0 1
23.282356 15.790591 -13.717009 31.298038 0.595959 2.024470 0.041199 0.000704 -39092.400000 0 0 1
23.091656 14.440491 -14.432709 30.822970 0.558855 2.058100 0.039672 -0.000414 -46877.000000 0 0 1
24.314956 13.932691 -14.954109 31.764168 0.520337 2.060977 0.051849 -0.006172 549247.000000 0 0 1
24.720756 14.562891 -16.170609 32.934514 0.532363 2.084025 0.058373 -0.014186 -708405.000000 0 0 1
26.146256 14.214191 -16.662309 34.107220 0.497948 2.081197 0.058056 -0.011036 41499.700000 0 0 1
26.268676 12.901191 -17.168609 33.930005 0.456522 2.101338 0.059208 -0.014373 547631.000000 0 0 1
27.597976 12.426591 -17.408709 34.916065 0.423080 2.092765 0.044602 -0.004069 638428.000000 0 0 1
27.643206 10.992491 -17.848409 34.692181 0.378484 2.111197 0.029408 0.001225 -50576.000000 0 0 1
27.074896 10.784591 -19.130509 34.861638 0.379061 2.151671 0.027051 -0.007677 57549.900000 0 0 1
27.222256 9.484791 -19.640809 34.882286 0.335267 2.168880 0.007767 0.000419 -329831.000000 0 0 1
28.515896 9.239391 -20.432809 36.277023 0.313335 2.169103 0.013177 -0.005792 -965071.000000 0 0 1
28.722636 10.019491 -21.598009 37.307560 0.335638 2.188197 0.019067 -0.008933 147011.000000 0 0 1
29.259406 9.314491 -22.689009 38.179363 0.308198 2.207159 0.015560 -0.002774 -829171.000000 0 0 1
30.662676 8.752591 -22.543809 39.051644 0.278053 2.186192 0.007314 -0.002601 -611445.000000 0 0 1
31.707886 9.732191 -22.503509 40.081336 0.297805 2.166929 0.005543 -0.001166 86957.900000 0 0 1
32.997596 9.260791 -22.712909 41.115445 0.273612 2.156058 0.001397 0.008607 -275758.000000 0 0 1
34.096556 10.334291 -22.589209 42.185840 0.294288 2.135859 0.007711 0.003006 -86464.400000 0 0 1
34.132556 10.900091 -21.299309 41.683377 0.309109 2.107119 0.006426 -0.004665 -84777.500000 0 0 1
35.037836 11.947991 -21.213009 42.666102 0.328637 2.091149 -0.003689 0.001351 -481403.000000 0 0 1
34.986556 12.650491 -19.812809 42.150225 0.346955 2.060146 -0.013934 0.004474 -235851.000000 0 0 1
35.429907 11.877791 -18.708309 41.789485 0.323472 2.034965 -0.006184 0.002648 200600.000000 0 0 1
35.523328 12.625791 -17.496309 41.562462 0.341497 2.005304 0.002874 0.003819 -396914.000000 0 0 1
-35.385634 11.785291 -16.301209 40.703386 -0.321498 1.982845 -0.007125 0.000175 -653014.000000 0 0 1
35.170256 10.660191 -15.999009 40.081852 0.294301 1.981395 -0.002439 -0.009181 145567.000000 0 0 1
-35.416879 9.860391 -15.121409 39.752228 -0.271533 1.961016 0.001658 -0.017210 41149.800000 0 0 1
35.186966 8.512791 -14.850109 39.129477 0.237369 1.960065 0.017612 -0.008355 -395288.000000 0 0 1
33.963936 8.733091 -14.233209 37.847062 0.251676 1.956349 0.029243 -0.010496 -162775.000000 0 0 1
34.089806 8.422891 -12.873409 37.400330 0.242228 1.922189 0.023085 -0.012122 -199836.000000 0 0 1
32.832236 8.851791 -12.060109 36.079858 0.263345 1.911618 0.038478 -0.014479 9184.710000 0 0 1
32.777236 10.300991 -11.994409 36.391256 0.304499 1.906672 0.049487 -0.020149 382829.000000 0 0 1
31.888386 10.870591 -11.038909 35.452735 0.328541 1.887430 0.037403 -0.010427 -134554.000000 0 0 1
32.414936 10.741091 -9.540709 35.455948 0.319976 1.843241 0.057487 -0.004291 1062570.000000 0 0 1
33.614666 11.464591 -9.188309 36.685251 0.328688 1.823955 0.053367 -0.007202 810670.000000 0 0 1
33.304656 12.809091 -8.858009 36.765980 0.367164 1.814120 0.060169 -0.002059 -196069.000000 0 0 1
33.056276 13.148491 -7.378509 36.332391 0.378575 1.775302 0.047368 -0.003287 -60288.900000 0 0 1
34.198956 12.853291 -6.626909 37.130737 0.359506 1.750233 0.051348 -0.007464 -110142.000000 0 0 1
33.848906 12.993191 -5.299509 36.642274 0.366514 1.715934 0.044164 -0.005120 -472730.000000 0 0 1
34.988666 12.705791 -4.355709 37.478208 0.348333 1.687279 0.052827 0.000263 -1023620.000000 0 0 1
-35.438932 13.752691 -4.236609 38.249226 -0.370177 1.681787 0.055221 0.011978 -778524.000000 0 0 1
-34.638852 13.422591 -3.136309 37.280725 -0.369685 1.655023 0.043903 0.006402 -105589.000000 0 0 1
-33.413965 14.377991 -2.990809 36.498830 -0.406350 1.652831 0.038332 0.002165 350466.000000 0 0 1
-33.819235 15.627891 -2.424909 37.334325 -0.432871 1.635793 0.046103 -0.000129 585137.000000 0 0 1
-32.732395 16.544791 -2.507509 36.761765 -0.468003 1.639059 0.044982 0.003655 422044.000000 0 0 1
-32.906765 17.692091 -1.466209 37.390039 -0.493307 1.610020 0.045980 0.006567 175556.000000 0 0 1
-34.002315 18.562891 -1.697209 38.776525 -0.499713 1.614579 0.031904 0.006937 161704.000000 0 0 1
-34.228070 19.306991 -0.485709 39.300847 -0.513580 1.583155 0.014196 0.008410 -69369.500000 0 0 1
-35.527808 20.141391 -0.527709 40.843350 -0.515740 1.583717 0.006994 0.003832 -45426.000000 0 0 1
-35.452882 21.392591 -1.211409 41.424839 -0.542922 1.600044 0.010244 0.004032 39204.700000 0 0 1
35.598930 21.309891 -2.625509 41.572690 0.539397 1.633993 -0.002209 0.012606 -77736.900000 0 0 1
-35.456809 22.672391 -3.276509 42.213246 -0.568914 1.648493 0.026211 -0.017787 -707052.000000 0 0 1
-34.110875 22.838891 -3.557309 41.204626 -0.589995 1.657237 0.023099 -0.003121 -927366.000000 0 0 1
-33.826115 24.044091 -4.292009 41.722245 -0.617947 1.673850 0.019326 -0.007887 1334010.000000 0 0 1
-32.320115 24.297591 -4.729509 40.710330 -0.644639 1.687234 0.005723 -0.012758 1306770.000000 0 0 1
-31.862705 23.336791 -5.683209 39.901587 -0.632153 1.713713 -0.005833 -0.004837 295648.000000 0 0 1
-30.533595 23.586491 -6.143409 39.068714 -0.657732 1.728698 0.007274 0.004610 524663.000000 0 0 1
-29.951815 22.561591 -7.221909 38.187597 -0.645586 1.761059 0.018606 -0.008257 -132753.000000 0 0 1
-30.727825 22.550491 -8.377609 39.024456 -0.633103 1.787156 0.007485 -0.017424 -153592.000000 0 0 1
-29.955045 22.158491 -9.503009 38.452706 -0.636892 1.820519 -0.011056 -0.012722 -239535.000000 0 0 1
-30.690605 22.204891 -10.801609 39.390928 -0.626329 1.848570 -0.005968 0.000444 -326758.000000 0 0 1
-31.088085 23.481291 -11.293809 40.563409 -0.646894 1.852949 -0.011205 0.003048 31460.200000 0 0 1
-31.882735 23.458991 -12.450209 41.495069 -0.634344 1.875532 -0.026768 0.008516 -12178.100000 0 0 1
-32.590645 24.841391 -12.784409 42.926518 -0.651279 1.873205 0.005565 0.009082 406376.000000 0 0 1
-31.659345 25.911291 -12.948009 42.911072 -0.685884 1.877314 -0.004185 0.002553 -511041.000000 0 0 1
-31.077015 25.968391 -14.219409 42.922369 -0.696083 1.908458 -0.014052 0.000206 -472274.000000 0 0 1
-29.735445 26.751891 -14.182709 42.438303 -0.732629 1.911548 -0.012990 0.009150 854247.000000 0 0 1
-28.599075 26.143791 -13.531009 41.042577 -0.740577 1.906763 -0.000762 0.007393 870084.000000 0 0 1
-28.833995 25.747891 -12.153209 40.522261 -0.728917 1.875399 -0.000656 0.005114 -1685900.000000 0 0 1
-29.050515 26.877691 -11.156309 41.119410 -0.746567 1.845555 0.008084 0.008778 -81907.700000 0 0 1
-27.935355 27.726391 -10.920109 40.845876 -0.781644 1.841437 0.015400 0.006342 90941.100000 0 0 1
-28.292735 28.919491 -10.184509 41.719780 -0.796353 1.817405 0.003055 0.006826 727320.000000 0 0 1
-27.032175 29.753891 -9.728809 41.360394 -0.833291 1.808242 0.012794 0.006041 725279.000000 0 0 1
-27.303565 31.060091 -9.490609 42.429772 -0.849674 1.796383 0.005200 -0.006373 -302166.000000 0 0 1
-26.234215 31.684191 -8.816709 42.069661 -0.879219 1.781936 0.027503 -0.000935 -81822.900000 0 0 1
34.112016 -25.130189 33.542010 54.039083 -0.634932 0.901162 0.004751 0.008040 -161148.000000 0 0 1
33.664196 -23.796409 33.788174 53.302795 -0.615326 0.884222 0.005737 -0.003568 246783.000000 0 0 1
32.689376 -23.892909 -34.013949 52.881142 -0.631169 2.269486 0.003067 0.001438 141635.000000 0 0 1
32.349466 -22.529009 -33.440369 51.694318 -0.608323 2.274291 -0.002371 -0.004821 49575.200000 0 0 1
31.574036 -21.826809 -34.394752 51.539581 -0.604856 2.301436 -0.005095 -0.009092 69515.100000 0 0 1
31.321036 -20.530209 -33.980609 50.568554 -0.580216 2.307664 -0.007918 -0.004164 119157.000000 0 0 1
31.004946 -19.564109 33.664377 49.772998 -0.562902 0.827989 -0.004000 -0.003080 841834.000000 0 0 1
32.147466 -19.263909 32.825108 49.820131 -0.539857 0.851478 0.021587 -0.018671 1006660.000000 0 0 1
31.775686 -18.471609 31.719713 48.549302 -0.526565 0.858795 0.024212 -0.015345 -292221.000000 0 0 1
32.914546 -18.440609 30.687843 48.632984 -0.510684 0.887943 0.017165 -0.015740 82777.500000 0 0 1
33.942846 -17.522909 31.027983 49.212853 -0.476561 0.888618 0.006690 -0.016023 -102416.000000 0 0 1
35.006716 -17.535309 30.140103 49.410354 -0.464378 0.914741 0.019142 -0.019206 -1033230.000000 0 0 1
-35.330189 -16.434109 30.426633 49.437660 0.435387 0.907834 0.017959 -0.021309 -1481230.000000 0 0 1
-34.394850 -16.381909 29.376443 48.107671 0.444500 0.913928 0.029098 -0.021017 -533025.000000 0 0 1
-33.414515 -15.431509 29.515663 47.178763 0.432640 0.894879 0.025516 -0.022310 -945754.000000 0 0 1
-32.223105 -15.849809 30.339303 47.010831 0.457128 0.869291 0.039190 -0.025343 -693403.000000 0 0 1
-31.173585 -14.895609 30.580323 46.139221 0.445753 0.846266 0.031076 -0.018576 686885.000000 0 0 1
-30.086005 -15.450509 31.283333 46.070954 0.474425 0.824363 0.027598 -0.022274 -52714.200000 0 0 1
-29.109725 -14.450509 31.866773 45.515761 0.460776 0.795222 0.028108 -0.019857 -147297.000000 0 0 1
-29.618615 -13.932109 33.105919 46.554998 0.439675 0.779715 0.042863 -0.018270 137831.000000 0 0 1
-28.769625 -12.949309 33.606075 46.094948 0.422940 0.753846 0.038553 -0.015611 -290342.000000 0 0 1
-28.951305 -12.523909 -33.720869 46.174922 0.408278 2.389536 0.029023 -0.006270 -72336.400000 0 0 1
-28.696625 -13.535109 -32.723469 45.579830 0.440721 2.371631 0.039723 -0.004546 231162.000000 0 0 1
-29.110745 -13.036509 -31.448249 44.792616 0.421043 2.349118 0.047420 -0.000375 -476941.000000 0 0 1
-29.053865 -14.092709 -30.295759 44.278263 0.451620 2.324320 0.044194 0.002004 -331771.000000 0 0 1
-30.182625 -14.922709 -30.309689 45.302929 0.459169 2.303719 0.035547 0.005285 -267779.000000 0 0 1
-30.494025 -15.471009 -29.068129 44.879771 0.469507 2.275344 0.039763 -0.003718 307684.000000 0 0 1
-31.650895 -16.500609 -29.176229 46.100994 0.480567 2.256059 0.032547 -0.009954 43110.000000 0 0 1
-31.449895 -17.582009 -30.037199 46.909022 0.509764 2.265723 0.031365 -0.008294 -837252.000000 0 0 1
-32.549015 -18.391309 -30.023209 47.948637 0.514313 2.247406 0.026839 -0.014535 -957256.000000 0 0 1
-32.422095 -19.604009 -30.989189 48.947311 0.543831 2.256365 0.037421 -0.019229 -446530.000000 0 0 1
-33.597695 -20.348209 -31.022079 50.052214 0.544558 2.239277 0.024202 -0.022728 -441020.000000 0 0 1
-33.583575 -21.485609 -31.912179 51.067359 0.569147 2.245804 0.017131 -0.011620 -122377.000000 0 0 1
-34.914553 -22.266509 -31.776569 52.197450 0.567710 2.225314 0.020306 -0.011130 208286.000000 0 0 1
-35.208751 -22.819409 -30.461829 51.848864 0.575051 2.198777 0.006923 -0.009320 104865.000000 0 0 1
35.053196 -23.755109 -30.489339 52.178843 -0.595594 2.194843 0.004453 -0.005416 218616.000000 0 0 1
35.477695 -25.214479 -30.861159 53.355862 -0.617880 2.187565 0.005753 0.001275 161653.000000 0 0 1
-35.373475 -25.390179 -32.163989 54.133780 0.622556 2.207014 0.016316 0.004193 -719205.000000 0 0 1
-34.597883 -26.534339 -32.235569 54.223764 0.654252 2.207429 0.012534 0.005503 -152026.000000 0 0 1
-34.626200 -27.321129 -33.575299 55.432108 0.668016 2.221443 0.008384 -0.002143 307744.000000 0 0 1
35.443173 -27.954269 -33.713459 56.340545 -0.667817 2.212283 0.022388 0.000801 -257912.000000 0 0 1
35.299833 -29.138849 34.288377 57.191289 -0.690078 0.927872 0.010818 0.000302 83592.200000 0 0 1
-35.494974 -30.524819 -34.026619 57.874594 0.710257 2.199303 0.013862 -0.005535 294304.000000 0 0 1
35.105206 -31.026259 -32.922869 57.261851 -0.723797 2.183343 0.019468 -0.010228 -67870.600000 0 0 1
-35.304428 -31.774939 -32.153429 57.357584 0.732830 2.165881 0.013356 -0.017784 74774.900000 0 0 1
35.664206 -32.271979 -30.713659 57.067899 -0.735507 2.139090 0.012593 -0.023471 -664198.000000 0 0 1
34.868656 -33.385979 -30.662969 57.189724 -0.763679 2.136680 0.029017 -0.023529 -389045.000000 0 0 1
34.555906 -33.577219 -29.303719 56.393690 -0.771035 2.117211 0.030421 -0.025512 137672.000000 0 0 1
33.379366 34.260910 -29.114149 55.996658 0.798430 2.117561 0.036873 -0.026018 615689.000000 0 0 1
32.132146 -34.043175 -29.530229 55.348415 -0.814268 2.133569 0.041753 -0.018658 312879.000000 0 0 1
31.017096 34.088174 -28.983869 54.443811 0.832534 2.132186 0.060347 -0.017839 1149670.000000 0 0 1
29.703966 -34.308576 -29.715959 54.244283 -0.857207 2.150549 0.048034 -0.004575 384982.000000 0 0 1
29.598916 34.002216 -31.027859 54.726361 0.854521 2.173611 0.044379 -0.002189 -1355220.000000 0 0 1
28.481246 -34.362020 -31.627419 54.701220 -0.878705 2.187299 0.040739 0.001306 -1065300.000000 0 0 1
28.005606 33.852963 -32.949449 54.918151 0.879646 2.214265 0.042226 -0.007848 102412.000000 0 0 1
27.662736 32.473049 -32.832869 53.830504 0.865219 2.226769 0.034216 -0.005783 32552.000000 0 0 1
27.635056 31.992659 -34.161777 54.353046 0.858349 2.250441 0.042881 -0.008341 65895.300000 0 0 1
27.566416 30.412939 -34.289985 53.485113 0.834454 2.266744 0.032003 -0.015027 -703959.000000 0 0 1
28.844366 29.881279 -34.189599 53.794210 0.803053 2.259534 0.033316 -0.012257 -776757.000000 0 0 1
28.786286 28.490469 -34.105003 52.948167 0.780234 2.270669 0.023642 -0.009504 942484.000000 0 0 1
30.225906 27.898719 -33.887249 53.294368 0.745382 2.259906 0.032487 -0.006089 1064360.000000 0 0 1
30.873646 28.120839 -32.632299 52.998402 0.738770 2.234099 0.031246 -0.008761 142071.000000 0 0 1
32.045716 27.325419 -32.514679 53.205365 0.706060 2.228267 0.051496 -0.007744 368420.000000 0 0 1
32.821176 27.645979 -31.196859 53.054442 0.700019 2.199400 0.045650 -0.016288 -363604.000000 0 0 1
33.570856 28.853989 -31.150109 54.128407 0.709981 2.183994 0.030323 -0.013199 -251075.000000 0 0 1
32.966686 30.109769 -31.197629 54.467354 0.740136 2.180686 0.026612 -0.006157 -287550.000000 0 0 1
32.009716 30.507969 -30.031319 53.453141 0.761382 2.167387 0.036920 -0.002450 229149.000000 0 0 1
32.614476 30.707199 -28.777959 53.242906 0.755287 2.141831 0.039682 -0.006857 -807695.000000 0 0 1
31.685566 30.690579 -27.769049 52.124916 0.769448 2.132632 0.048487 -0.013835 -536570.000000 0 0 1
32.258066 31.040939 -26.355989 51.949600 0.766172 2.102889 0.047676 -0.016537 -8316.060000 0 0 1
32.416456 32.446159 -26.227519 52.834294 0.785856 2.090256 0.046038 -0.018034 -15806.100000 0 0 1
32.713896 32.829279 -24.934409 52.627800 0.787159 2.064383 0.043105 -0.023667 166327.000000 0 0 1
32.991616 34.351538 -24.743609 53.672350 0.805589 2.049932 0.045456 -0.024368 184995.000000 0 0 1
31.772306 -33.837319 -25.021609 52.730680 -0.816862 2.065212 0.049693 -0.018237 306694.000000 0 0 1
31.897326 -32.449769 -25.189129 52.008838 -0.793983 2.076387 0.045032 -0.018862 -605046.000000 0 0 1
32.543366 -31.823649 -26.457269 52.647910 -0.774217 2.097321 0.037353 -0.017400 811972.000000 0 0 1
33.942036 -32.025969 -26.681299 53.755151 -0.756361 2.090184 0.041096 -0.024100 598854.000000 0 0 1
34.817276 -31.242849 -25.871279 53.457286 -0.731342 2.075973 0.044756 -0.023989 -39195.400000 0 0 1
-35.043247 -31.662179 -26.099039 53.960010 0.734755 2.075644 0.029188 -0.020855 -528606.000000 0 0 1
-34.649971 -32.967149 -25.827239 54.355310 0.760516 2.065937 0.034467 -0.024925 -327389.000000 0 0 1
-34.247457 -33.269619 -24.510109 53.670302 0.770916 2.045055 0.037256 -0.026288 -6649.310000 0 0 1
-32.797595 -32.793489 -24.243009 52.333724 0.785336 2.052443 0.024094 -0.014018 -201402.000000 0 0 1
-32.622095 -31.362859 -24.155409 51.296334 0.765721 2.061106 0.018794 -0.012694 -265104.000000 0 0 1
-32.794825 -31.062949 -22.776609 50.588352 0.758284 2.037824 0.008450 -0.011122 -192456.000000 0 0 1
-32.798825 -29.568669 -22.376909 49.505507 0.733652 2.039812 -0.000044 0.005460 -20740.400000 0 0 1
-33.833555 -28.702659 -22.784509 49.876708 0.703535 2.045210 0.002300 0.002386 -509451.000000 0 0 1
-33.667655 -28.214559 -24.122909 50.114740 0.697505 2.072995 -0.005157 0.003979 525387.000000 0 0 1
-34.877620 -27.336309 -24.604609 50.686379 0.664771 2.077649 -0.006087 -0.001982 548495.000000 0 0 1
-35.016121 -26.088699 -23.882209 49.770562 0.640324 2.071276 -0.007912 0.000787 -508755.000000 0 0 1
35.419996 -25.128849 -24.368709 49.798285 -0.617043 2.082139 -0.004258 0.001789 -258419.000000 0 0 1
-35.481220 -24.447509 -25.703679 50.172471 0.603323 2.108665 0.002112 0.011056 -673978.000000 0 0 1
-34.426827 -23.544509 -25.646439 48.962130 0.599839 2.122104 -0.003026 0.000093 -637677.000000 0 0 1
-34.112037 -23.246909 -27.017049 49.335290 0.598193 2.150315 0.006658 -0.008572 223560.000000 0 0 1
-32.890085 -22.315609 -27.249849 48.190232 0.596144 2.171792 0.016770 -0.018949 -29706.900000 0 0 1
-33.018635 -21.014609 -26.586719 47.314878 0.566789 2.167490 0.010545 -0.009755 167176.000000 0 0 1
-34.033185 -20.134609 -27.104889 47.940955 0.534233 2.171691 0.011879 -0.016559 751408.000000 0 0 1
-35.178621 -19.879009 -26.060449 48.081778 0.514353 2.143615 0.025388 -0.022345 13089.100000 0 0 1
-34.848991 -19.129809 -24.937609 46.928522 0.502025 2.131043 0.021319 -0.024155 -364836.000000 0 0 1
-34.152245 -19.793209 -23.891009 46.140300 0.525253 2.115063 -0.002661 -0.008852 -189038.000000 0 0 1
-34.770282 -21.041409 -23.285909 46.839588 0.544201 2.091098 0.012430 0.002040 147909.000000 0 0 1
35.477460 -20.867909 -22.389109 46.855011 -0.531699 2.068988 0.009274 0.002830 197640.000000 0 0 1
35.054216 -22.098109 -21.734809 46.792376 -0.562472 2.053860 0.017161 0.013405 77118.500000 0 0 1
33.955566 -21.960709 -20.657509 45.409095 -0.574086 2.043079 0.005267 0.011163 1015470.000000 0 0 1
32.642946 -21.615109 -21.163709 44.504803 -0.584882 2.066371 0.006066 0.006543 840778.000000 0 0 1
31.606266 -21.528309 -20.229209 43.262514 -0.597956 2.057361 0.014393 0.006042 19694.800000 0 0 1
30.208796 -21.274609 -20.799609 42.400520 -0.613574 2.083518 0.006009 0.009855 -671204.000000 0 0 1
29.850076 -22.138309 -21.864209 43.118157 -0.638136 2.102586 0.004171 0.011930 -616313.000000 0 0 1
28.515046 -22.175609 -22.239209 42.419900 -0.660983 2.122646 0.019812 -0.001275 -610783.000000 0 0 1
28.118156 -20.968209 -23.123109 42.011602 -0.640755 2.153637 0.027963 0.007659 -451940.000000 0 0 1
28.221426 -19.699009 -22.505409 41.121689 -0.609393 2.149917 0.015174 0.005844 -48111.800000 0 0 1
28.619676 -18.781909 -23.478909 41.510302 -0.580762 2.171977 -0.002350 0.010042 -728871.000000 0 0 1
29.373226 -17.602209 -22.966009 41.231806 -0.539875 2.161562 -0.007219 0.020578 -466744.000000 0 0 1
28.589176 -16.773809 -22.086009 39.830811 -0.530597 2.158553 -0.022655 0.013695 204262.000000 0 0 1
29.312656 -15.958809 -21.203709 39.541279 -0.498560 2.136775 -0.029367 0.010277 -203700.000000 0 0 1
30.247806 -16.613309 -20.159909 39.966909 -0.502260 2.099501 -0.010760 0.005095 863989.000000 0 0 1
31.382936 -17.290409 -20.752309 41.406585 -0.503572 2.095763 -0.014341 0.005263 587609.000000 0 0 1
32.311846 -17.697709 -19.764209 41.807754 -0.501088 2.063194 -0.006143 0.018936 -341693.000000 0 0 1
33.658756 -18.178409 -20.315309 43.313719 -0.495195 2.058985 0.003463 0.005932 -111341.000000 0 0 1
34.489366 -17.066209 -20.647509 43.670259 -0.459499 2.063267 0.002724 0.006526 423910.000000 0 0 1
35.458930 -17.412009 -21.634309 45.039507 -0.456460 2.071839 0.023890 0.003273 -79673.500000 0 0 1
-34.978523 -16.320509 -22.152309 44.503718 0.436561 2.091814 0.033274 -0.010796 -262582.000000 0 0 1
-34.004005 -15.847309 -21.239009 43.110383 0.436114 2.085947 0.045812 -0.009298 162898.000000 0 0 1
-33.232785 -14.796009 -21.795009 42.407102 0.418875 2.110576 0.055686 -0.018572 255614.000000 0 0 1
-31.979765 -14.303309 -20.962309 40.825341 0.420574 2.110012 0.061865 -0.017274 1508190.000000 0 0 1
-30.898025 -15.268609 -20.864609 40.288340 0.458966 2.115170 0.063401 -0.025630 898732.000000 0 0 1
-31.171155 -16.404409 -20.068009 40.539741 0.484441 2.088655 0.052799 -0.023455 -861788.000000 0 0 1
-29.987235 -17.357909 -20.080209 40.046799 0.524718 2.096034 0.039150 -0.031875 -153914.000000 0 0 1
-30.358165 -18.584809 -19.492609 40.582942 0.549331 2.071811 0.031571 -0.024631 619681.000000 0 0 1
-29.284025 -19.535809 -19.619309 40.300363 0.588313 2.079250 0.041241 -0.032825 443128.000000 0 0 1
-29.633225 -21.035109 -19.275609 41.135787 0.617305 2.058485 0.027785 -0.002547 -427229.000000 0 0 1
-30.149655 -21.766509 -20.348809 42.389346 0.625305 2.071503 0.021651 -0.000951 76019.700000 0 0 1
-30.474285 -23.063009 -19.843409 43.062110 0.647840 2.049703 0.008923 0.017779 225691.000000 0 0 1
-31.553895 -23.673409 -20.799509 44.594823 0.643663 2.056025 -0.007273 0.018267 264918.000000 0 0 1
-30.985085 -24.071509 -22.007309 44.987051 0.660480 2.081960 -0.006201 0.006908 852160.000000 0 0 1
-32.007015 -24.687809 -22.822609 46.419914 0.657010 2.084786 -0.007898 0.008902 669209.000000 0 0 1
-31.567255 -24.726909 -24.303209 46.888779 0.664480 2.115677 0.000537 0.012982 -632626.000000 0 0 1
-30.339375 -25.316719 -24.554909 46.522656 0.695397 2.126811 0.000879 0.004052 -716390.000000 0 0 1
-30.170365 -25.677319 -25.910239 47.338316 0.705119 2.149981 0.012935 0.005087 -778138.000000 0 0 1
-28.791205 -26.156369 -26.305779 46.958313 0.737483 2.165417 0.018435 -0.003975 -800516.000000 0 0 1
-27.886315 -25.095079 -26.405459 45.876550 0.732764 2.184105 0.031647 -0.008330 60993.600000 0 0 1
-26.560955 -25.523329 -26.698499 45.494335 0.765479 2.197963 0.024165 -0.006069 519469.000000 0 0 1
-25.610915 -24.327609 -26.960879 44.436928 0.759706 2.222727 0.034209 -0.007550 -150389.000000 0 0 1
-25.798895 -23.668309 -28.184759 44.946107 0.742354 2.248594 0.042065 -0.008849 197080.000000 0 0 1
-24.726685 -22.753109 -28.346139 43.961535 0.743855 2.271550 0.053645 -0.010903 270646.000000 0 0 1
-24.543685 -22.222209 -29.758649 44.517371 0.735799 2.302950 0.040568 -0.003037 -63700.100000 0 0 1
-24.015185 -23.132809 -30.679449 45.310977 0.766685 2.314593 0.037610 -0.009458 129181.000000 0 0 1
-23.653385 -22.556909 -31.945719 45.703674 0.761675 2.344759 0.043069 -0.007029 81286.000000 0 0 1
-23.220785 -23.708709 -32.881759 46.717426 0.795795 2.351590 0.041993 -0.014496 -321336.000000 0 0 1
-24.347385 -24.259209 -33.491489 47.989418 0.783584 2.343248 0.033061 -0.014842 -388006.000000 0 0 1
-24.223685 -25.576529 -33.955099 48.927442 0.812557 2.337811 0.048909 -0.002819 -30038.400000 0 0 1
-19.753485 -14.510809 -12.051609 27.313093 0.633569 2.027776 0.029455 0.008817 176633.000000 0 0 1
-20.129185 -14.097509 -10.752609 26.824289 0.610962 1.983245 0.035240 0.003653 -252000.000000 0 0 1
-19.167185 -14.489609 -9.814009 25.954663 0.647304 1.958562 0.024866 -0.002397 -53726.800000 0 0 1
-19.569885 -14.134009 -8.361809 25.547416 0.625492 1.904247 0.043594 -0.014190 -390113.000000 0 0 1
-20.583585 -14.932609 -7.829709 26.607727 0.627611 1.869482 0.051605 -0.010961 -191687.000000 0 0 1
-20.979185 -14.275409 -6.620309 26.224836 0.597488 1.826002 0.056541 -0.015831 454035.000000 0 0 1
-22.221685 -14.915509 -5.897109 27.405321 0.591144 1.787674 0.057009 -0.018937 22138.300000 0 0 1
-22.084385 -16.176309 -5.326409 27.888415 0.632192 1.762967 0.045964 -0.021142 321755.000000 0 0 1
-21.312885 -16.232409 -4.124209 27.106075 0.650899 1.723540 0.047292 -0.019945 -97025.200000 0 0 1
-21.100785 -17.577109 -3.441409 27.677449 0.694546 1.695459 0.033665 -0.012101 -508774.000000 0 0 1
-22.251185 -18.185309 -2.957509 28.888883 0.685185 1.673351 0.032567 -0.015161 -535172.000000 0 0 1
-21.933685 -19.300509 -2.172309 29.297016 0.721626 1.645012 0.021675 -0.011322 308027.000000 0 0 1
-23.095285 -20.335309 -1.914809 30.831534 0.721934 1.632942 0.004775 -0.016964 354321.000000 0 0 1
-23.230585 -21.221509 -3.020209 31.609084 0.740232 1.666491 -0.012981 -0.011258 85649.600000 0 0 1
-24.199885 -22.211009 -2.716509 32.959715 0.742571 1.653309 -0.013686 -0.008648 -125038.000000 0 0 1
-24.409885 -23.290109 -3.770609 33.948331 0.761927 1.682095 -0.026335 -0.006403 301440.000000 0 0 1
-23.284585 -24.202209 -3.753509 33.793604 0.804720 1.682098 -0.029353 0.001846 359201.000000 0 0 1
-23.219085 -24.929509 -4.952609 34.425785 0.820907 1.715161 -0.028574 0.004425 310865.000000 0 0 1
-21.964385 -24.701209 -5.860409 33.569754 0.843979 1.746270 -0.021149 0.011039 440444.000000 0 0 1
-21.731285 -23.348409 -6.329309 32.518566 0.821255 1.766683 -0.022680 0.017999 211328.000000 0 0 1
-21.261385 -22.413109 -5.309909 31.346277 0.811763 1.741012 -0.026289 0.017037 -602698.000000 0 0 1
-21.105385 -20.957209 -5.760909 30.295709 0.781875 1.762117 -0.011211 0.026848 688753.000000 0 0 1
-19.858785 -20.599209 -6.397209 29.319329 0.803697 1.790757 -0.007001 0.030733 674160.000000 0 0 1
-19.815185 -19.268109 -6.843609 28.473437 0.771401 1.813523 -0.011980 0.027927 54245.400000 0 0 1
-18.589285 -18.952709 -7.721809 27.647659 0.795078 1.853854 0.014850 0.024640 -122738.000000 0 0 1
-18.651485 -19.562209 -8.968209 28.477828 0.809226 1.891168 0.013203 0.019427 50800.500000 0 0 1
-17.458785 -19.585209 -9.755409 27.992099 0.842738 1.926773 0.027514 0.020728 284475.000000 0 0 1
-17.318685 -18.175609 -10.495709 27.211203 0.809536 1.966777 0.028958 0.020530 -80960.200000 0 0 1
-16.939885 -17.035009 -9.691609 25.905184 0.788198 1.954242 0.033728 0.002589 113791.000000 0 0 1
-15.551285 -16.990609 -9.406009 24.879636 0.829599 1.958497 0.033606 0.005028 -71825.700000 0 1 0
-15.144785 -15.854709 -8.558609 23.536910 0.808295 1.942953 0.023146 -0.001679 -115205.000000 0 1 0
-15.562885 -16.004609 -7.240809 23.468708 0.799390 1.884444 -0.007048 0.000681 61630.200000 0 1 0
-16.278885 -14.889309 -6.716009 23.060755 0.740845 1.866310 0.028679 0.002454 188884.000000 0 1 0
-16.673785 -15.136609 -5.184509 23.108682 0.737113 1.797076 0.017842 -0.007190 128548.000000 0 1 0
-17.285985 -14.057309 -4.472009 22.724702 0.682750 1.768880 0.034819 -0.007849 183238.000000 0 1 0
-17.487185 -14.466609 -3.168209 22.915540 0.691149 1.709497 0.023591 -0.006138 33432.000000 0 1 0
-18.457785 -13.518909 -2.419309 23.006603 0.632157 1.676148 0.039431 -0.003351 1004440.000000 0 1 0
-19.830585 -13.501209 -2.840809 24.157917 0.597742 1.688662 0.053463 -0.011632 783898.000000 0 1 0
-20.605285 -12.606609 -2.117209 24.248442 0.549061 1.658221 0.053199 -0.010419 -359393.000000 0 1 0
-22.099185 -12.639609 -2.489809 25.579931 0.519538 1.668285 0.042204 -0.009547 -138330.000000 0 0 1
-22.414185 -12.081609 -3.752809 25.737998 0.494371 1.717126 0.050868 -0.009618 220832.000000 0 0 1
-23.814985 -12.133309 -3.945609 27.017375 0.471205 1.717360 0.046278 -0.009319 -43581.000000 0 0 1
-24.313885 -11.417309 -5.216409 27.362947 0.439017 1.762608 0.052695 -0.014793 -74508.800000 0 0 1
-24.074885 -12.129209 -6.411009 27.709545 0.466692 1.804276 0.057207 -0.019038 292659.000000 0 0 1
-24.641685 -11.432309 -7.524009 28.187250 0.434387 1.841002 0.064572 -0.022192 -92846.100000 0 0 1
-23.920185 -11.786309 -8.819409 28.086907 0.457819 1.890204 0.078078 -0.025335 -492653.000000 0 0 1
-22.798485 -11.005909 -9.037709 26.880870 0.449751 1.913690 0.068834 -0.020715 -449937.000000 0 0 1
-22.030185 -11.299109 -10.190009 26.773779 0.473908 1.961238 0.057169 -0.018288 -604241.000000 0 0 1
-20.695785 -10.580109 -10.175709 25.373200 0.472584 1.983450 0.050981 -0.015663 -981701.000000 0 0 1
-20.672285 -9.156309 -10.305309 24.847148 0.416956 1.998462 0.044119 -0.027151 184948.000000 0 1 0
-19.407985 -8.626909 -9.985209 23.469083 0.418273 2.010269 0.041678 -0.017727 -346953.000000 0 1 0
-19.319985 -7.187309 -10.507809 23.137271 0.356150 2.042215 0.028761 -0.025720 -89394.500000 0 1 0
-19.130685 -7.191309 -11.905909 23.652668 0.359563 2.098284 0.056509 -0.024365 374901.000000 0 1 0
-18.786085 -5.894309 -12.363009 23.248739 0.304032 2.131487 0.042959 -0.041910 -454206.000000 0 1 0
-18.246885 -5.920409 -13.813809 23.639403 0.313745 2.194882 0.058259 -0.029975 35480.100000 0 1 0
-19.119385 -6.393509 -14.862009 25.046101 0.322710 2.206055 0.055197 -0.033500 661697.000000 0 0 1
-18.453685 -6.319609 -16.112509 25.299979 0.329940 2.261213 0.050965 -0.031427 -80459.500000 0 0 1
-18.987185 -7.411509 -17.137509 26.629643 0.372154 2.269924 0.043888 -0.023188 659130.000000 0 0 1
-20.332585 -7.188509 -17.577109 27.821637 0.339831 2.254642 0.040796 -0.024738 831316.000000 0 0 1
-20.582485 -8.187909 -18.504109 28.863171 0.378617 2.266724 0.048314 -0.023380 -71968.700000 0 0 1
-21.908985 -7.939809 -19.276109 30.242563 0.347678 2.261894 0.031462 -0.018884 -516722.000000 0 0 1
-22.009085 -6.709309 -19.975309 30.470111 0.295894 2.285734 0.032880 -0.021238 311500.000000 0 0 1
-23.208385 -6.625509 -20.720809 31.810037 0.278082 2.280214 0.019849 -0.016816 858649.000000 0 0 1
-24.520185 -6.297409 -19.925309 32.216685 0.251392 2.237601 0.042673 -0.018413 43353.100000 0 0 1
-24.780485 -4.913609 -19.730809 32.054966 0.195746 2.233855 0.041262 -0.009899 474567.000000 0 0 1
-25.925125 -4.749809 -18.892709 32.428495 0.181203 2.192715 0.055898 -0.004527 195228.000000 0 0 1
-25.947995 -3.309309 -18.399109 31.980888 0.126851 2.183786 0.053527 -0.008814 48697.300000 0 0 1
-26.254565 -2.236709 -19.303109 32.663666 0.084988 2.203052 0.054872 -0.003781 220917.000000 0 0 1
-27.574665 -2.117109 -19.789509 34.006896 0.076627 2.191892 0.055971 0.004255 -4158.820000 0 0 1
-27.609525 -0.818109 -20.633209 34.477304 0.029623 2.212371 0.052713 0.005900 -8653.820000 0 0 1
-27.085005 -0.796709 -21.970209 34.884414 0.029407 2.252092 0.040375 0.007587 207470.000000 0 0 1
-27.927535 -1.434709 -22.915109 36.153946 0.051327 2.257279 0.029160 0.009185 -290864.000000 0 0 1
-27.407045 -1.402009 -24.351709 36.689474 0.051111 2.296584 0.016286 0.004637 -755183.000000 0 0 1
-27.448275 -0.189609 -25.152359 37.230162 0.006908 2.312562 0.023924 0.010044 338581.000000 0 0 1
-26.724435 0.995591 -24.784909 36.462013 -0.037237 2.318213 0.030761 0.018523 -590088.000000 0 0 1
-25.258115 0.836891 -24.413909 35.138465 -0.033121 2.338926 0.035644 0.015490 -1129230.000000 0 0 1
-24.457585 0.535491 -25.530829 35.359348 -0.021891 2.377541 0.032136 0.007627 843559.000000 0 0 1
-23.069885 0.522891 -25.138119 34.123570 -0.022662 2.398943 0.032901 0.010577 1245770.000000 0 0 1
-22.045585 0.101391 -26.250169 34.279578 -0.004599 2.443029 0.034138 -0.002327 246735.000000 0 0 1
-22.002985 0.903891 -27.398079 35.151147 -0.041057 2.464562 0.030488 0.005610 -206609.000000 0 0 1
-21.077685 0.370291 -28.278899 35.271831 -0.017566 2.501000 0.024775 0.002716 -441736.000000 0 0 1
-20.968985 1.159691 -29.605649 36.297902 -0.055249 2.524613 0.026692 0.007636 -44266.700000 0 0 1
-20.339285 2.462991 -29.496159 35.913455 -0.120508 2.534504 0.028511 0.005012 377390.000000 0 0 1
-20.354685 3.298191 -30.684689 36.969466 -0.160640 2.549906 0.019640 0.000569 -136675.000000 0 0 1
-19.591685 2.798391 -31.955519 37.587502 -0.141876 2.587092 0.009521 0.000717 775367.000000 0 0 1
-18.191685 2.682491 -31.664379 36.616473 -0.146402 2.615464 0.002071 0.003741 706663.000000 0 0 1
-17.478685 2.105191 -32.765009 37.195189 -0.119866 2.648543 -0.002628 0.005013 -450391.000000 0 0 1
-15.965685 2.089391 -32.624349 36.381545 -0.130128 2.683117 0.012566 -0.009293 -751511.000000 0 0 1
-15.341985 3.303291 -32.897919 36.449435 -0.212073 2.696482 0.017162 -0.004777 -1065270.000000 0 0 1
-14.024985 3.061891 -33.253049 36.219341 -0.214944 2.734061 0.011416 -0.007946 -781971.000000 0 0 1
-13.301685 4.406991 -33.557919 36.366060 -0.319929 2.746034 0.016776 -0.008187 -238088.000000 0 0 1
-13.257585 5.255591 -32.397909 35.397872 -0.377418 2.726925 0.030783 -0.016112 33583.800000 0 0 1
-12.685285 6.440591 -32.817509 35.768514 -0.469806 2.732538 0.028801 -0.007457 -449709.000000 0 0 1
-12.297485 7.454191 -31.690659 34.800733 -0.544933 2.715607 0.037107 -0.014069 -642801.000000 0 0 1
-11.168785 7.118891 -30.927349 33.644038 -0.567461 2.736973 0.051775 -0.025716 -26070.500000 0 0 1
-11.377085 6.121991 -29.937329 32.606142 -0.493660 2.734182 0.049560 -0.028074 608854.000000 0 0 1
-10.103085 5.230591 -29.575239 31.687950 -0.477725 2.774369 0.065412 -0.032872 498025.000000 0 0 1
-9.501085 4.406591 -30.494559 32.242934 -0.434269 2.810768 0.051557 -0.034876 -96840.600000 0 0 1
-10.288485 3.364891 -31.018629 32.853170 -0.316089 2.805830 0.057145 -0.029555 -78444.700000 0 0 1
-9.535385 2.390691 -31.982149 33.458883 -0.245654 2.843384 0.049459 -0.030266 442179.000000 0 0 1
-10.544985 1.420391 -32.326139 34.032242 -0.133892 2.823610 0.049333 -0.026762 1000960.000000 0 0 1
-10.268385 0.580991 -33.455759 35.000930 -0.056520 2.843347 0.042045 -0.021878 -700572.000000 0 0 1
-10.677085 1.179291 33.967314 35.625402 -0.110005 0.306294 0.035345 -0.012777 99056.400000 0 0 1
-12.072485 1.027691 33.771171 35.878866 -0.084922 0.344468 0.010573 -0.003529 -66829.400000 0 0 1
-12.380085 1.209491 32.426643 34.730628 -0.097387 0.366293 0.001345 0.008491 -880831.000000 0 0 1
-13.806285 0.953591 31.977623 34.843811 -0.068960 0.408439 -0.000444 0.018821 -766936.000000 0 0 1
-14.641585 2.021791 32.341893 35.559270 -0.137218 0.428667 0.005678 0.022172 -255171.000000 0 0 1
-15.923685 1.797191 31.787883 35.598639 -0.112387 0.466935 0.007496 0.018444 -309873.000000 0 0 1
-16.653585 3.124091 31.659653 35.908710 -0.185437 0.491405 0.014523 0.017292 -586325.000000 0 0 1
-17.111485 3.744291 32.832456 37.212804 -0.215422 0.490093 0.016495 0.005818 680836.000000 0 0 1
-16.458285 5.055691 32.936444 37.165097 -0.298033 0.481676 0.013311 0.008728 162126.000000 0 0 1
-17.030785 5.858691 34.106025 38.569325 -0.331325 0.485850 0.016685 0.001137 519400.000000 0 0 1
-18.401785 6.184191 33.918703 39.081304 -0.324207 0.519835 0.021226 -0.000190 117823.000000 0 0 1
-19.250885 5.704891 -33.918539 39.415855 -0.288100 2.607106 0.017754 0.001969 534879.000000 0 0 1
-20.731585 6.210791 -33.949579 40.260980 -0.291072 2.574075 0.013200 0.002671 527907.000000 0 0 1
-20.854785 7.548291 -33.533229 40.204182 -0.347277 2.557247 0.017450 -0.004919 111049.000000 0 0 1
-20.514985 8.515991 34.361136 40.915454 -0.393465 0.573866 0.010761 -0.002815 -700778.000000 0 0 1
-20.325385 9.956191 -34.003119 40.846776 -0.455487 2.554321 0.002162 0.000697 -326839.000000 0 0 1
-19.299785 10.147991 -33.038429 39.585366 -0.484081 2.558225 0.009043 0.001672 322797.000000 0 0 1
-19.250085 11.482491 -32.477189 39.461135 -0.537835 2.537499 0.014825 -0.001494 188650.000000 0 0 1
-18.454885 12.527491 -33.330479 40.105382 -0.596367 2.551830 0.012387 -0.010555 -205668.000000 0 0 1
-19.053785 12.704491 34.251585 41.202207 -0.588074 0.589346 0.026518 -0.011040 -42656.600000 0 0 1
-18.143285 12.976191 33.224603 40.017928 -0.620859 0.591253 0.024298 -0.011798 -17001.600000 0 0 1
-18.766385 12.577791 31.846553 39.045882 -0.590465 0.616999 0.037609 -0.016709 -36404.400000 0 0 1
-19.029985 11.248691 31.663443 38.616667 -0.533852 0.609486 0.016018 -0.002334 54784.300000 0 0 1
-17.874385 10.490291 31.374243 37.601635 -0.530724 0.583780 0.015811 -0.000638 100386.000000 0 0 1
-18.070185 8.953191 31.484433 37.389313 -0.460015 0.569686 0.021297 0.007242 -241648.000000 0 0 1
-18.680285 8.458691 30.346973 36.625691 -0.425191 0.594246 0.022142 0.002524 -18629.800000 0 0 1
-18.546385 7.110891 30.344563 36.267418 -0.366124 0.579586 0.018864 -0.000247 -159541.000000 0 0 1
-19.080885 6.353591 29.103083 35.375665 -0.321434 0.604676 0.015202 0.007916 454597.000000 0 0 1
-20.505785 6.348391 29.069723 36.136381 -0.300232 0.636056 0.036980 -0.002225 569335.000000 0 0 1
-21.018185 5.510491 28.006813 35.447301 -0.256406 0.659829 0.018678 0.001029 29580.300000 0 0 1
-22.541685 5.525991 27.785393 36.203483 -0.240404 0.695898 0.009961 0.005289 -146657.000000 0 0 1
-22.994985 6.370991 26.764783 35.856833 -0.270280 0.728108 0.013292 0.005858 219776.000000 0 0 1
-24.389785 6.602091 26.815063 36.844223 -0.264356 0.755694 0.017903 0.001468 -109800.000000 0 0 1
-24.843885 7.173191 25.416883 36.258671 -0.281086 0.794015 0.017548 -0.003526 -244032.000000 0 0 1
-24.782585 6.272991 24.323523 35.286834 -0.247914 0.810262 0.014409 -0.002812 -60978.500000 0 0 1
-25.858195 5.406191 24.176743 35.810446 -0.206102 0.829654 0.012298 0.007338 -855559.000000 0 0 1
-25.900015 4.761791 22.777273 34.817949 -0.181822 0.857696 0.014376 0.002524 -99382.200000 0 0 1
-26.482225 5.585491 21.758473 34.726605 -0.207868 0.893658 0.018932 0.009318 189803.000000 0 0 1
-26.544765 4.772491 20.653473 33.970092 -0.177890 0.917270 0.025978 0.010310 -80441.000000 0 0 1
-27.350605 5.407491 19.476773 34.009428 -0.195193 0.961016 0.047208 0.008451 -682387.000000 0 0 1
-28.707995 5.392691 19.753673 35.262412 -0.185682 0.976180 0.054585 0.007229 -785018.000000 0 0 1
-29.474815 6.001091 18.742873 35.441121 -0.200855 1.013557 0.057978 0.009435 954621.000000 0 0 1
-31.023355 6.124191 18.979173 36.880391 -0.194900 1.030239 0.052452 0.009658 975237.000000 0 0 1
-31.437185 7.281991 19.719173 37.817585 -0.227622 1.022272 0.060916 -0.010476 236850.000000 0 0 1
-32.839865 7.161591 19.905173 39.063551 -0.214715 1.036124 0.066818 -0.012290 326404.000000 0 0 1
-33.356525 8.301191 20.800773 40.177602 -0.243908 1.026612 0.059344 -0.003200 -192996.000000 0 0 1
-32.810285 8.170391 22.072073 40.378788 -0.244055 0.992467 0.052500 0.000528 -14761.100000 0 0 1
-33.226745 9.154391 22.975673 41.421021 -0.268843 0.982810 0.050449 0.006816 -62873.700000 0 0 1
-0.560385 31.907791 11.578291 33.948166 -1.553235 1.222754 0.000084 0.004586 -177048.000000 0 0 1
-0.587685 32.243091 13.004291 34.771739 -1.552572 1.187489 -0.009244 0.001213 61112.500000 0 0 1
0.058115 33.479091 13.185391 35.982043 1.569060 1.195612 -0.023178 -0.001663 -505905.000000 0 0 1
0.267615 33.786891 14.680491 36.839414 1.562876 1.160916 -0.027466 0.005690 38427.500000 0 0 1
-0.871885 33.869091 15.546291 37.276838 -1.545059 1.140600 -0.013634 0.016671 281888.000000 0 0 1
-0.455585 34.279391 16.837691 38.194136 -1.557507 1.114257 -0.025767 0.003104 642013.000000 0 0 1
-1.648785 -34.116648 17.741691 38.489372 1.522506 1.091730 -0.007678 0.007841 666069.000000 0 0 1
-2.433285 33.664091 18.302191 38.394818 -1.498640 1.073918 -0.017669 0.008110 286659.000000 0 0 1
-3.316985 34.171891 19.298091 39.384474 -1.474032 1.058715 -0.002589 0.003602 262843.000000 0 0 1
-4.362985 33.157091 19.854291 38.892431 -1.439963 1.035039 -0.005380 -0.004849 432758.000000 0 0 1
-5.454485 33.029391 18.957391 38.471739 -1.407133 1.055536 0.000601 -0.010199 -533995.000000 0 0 1
-6.488285 32.293091 19.534091 38.295199 -1.372518 1.035504 0.023471 -0.025515 -646511.000000 0 0 1
-7.564485 31.986891 18.481791 37.708874 -1.338576 1.058571 0.006676 -0.025131 -556680.000000 0 0 1
-8.280485 33.162191 18.225791 38.735988 -1.326103 1.080924 0.024285 -0.028051 -170893.000000 0 0 1
-8.837885 33.224991 16.908391 38.313208 -1.310815 1.113727 0.053761 -0.021155 190988.000000 0 0 1
-9.898885 34.323291 16.664491 39.418035 -1.290014 1.134304 0.118489 -0.032250 -439617.000000 0 0 1
-11.118585 34.198091 17.293191 39.902215 -1.256453 1.122546 0.117129 -0.030756 -186484.000000 0 0 1
-12.064185 -33.653348 16.848091 39.521520 1.226584 1.130396 0.096482 -0.032643 191520.000000 0 0 1
-13.440885 -33.705448 17.506391 40.288812 1.191347 1.121288 0.114643 -0.037354 -215637.000000 0 0 1
-13.396285 -33.457248 18.920291 40.704119 1.189945 1.087359 0.100166 -0.027412 -493863.000000 0 0 1
-14.661585 -33.414048 19.515391 41.380082 1.157308 1.079677 0.073493 -0.033133 -242991.000000 0 0 1
-14.755985 -32.979048 20.999891 41.789378 1.150077 1.044288 0.074415 -0.042113 -100048.000000 0 0 1
-14.596285 -31.616848 21.301391 40.821880 1.138287 1.021821 0.105110 -0.031717 94731.900000 0 0 1
-14.673285 -31.400748 22.689391 41.426088 1.133657 0.991174 0.067240 -0.021508 23305.500000 0 0 1
-14.570585 -29.915148 23.011591 40.456784 1.117551 0.965757 0.083192 -0.024618 -138397.000000 0 0 1
-14.723185 -29.664648 24.391091 41.130145 1.110096 0.935989 0.074053 -0.029735 -41309.100000 0 0 1
-14.725185 -28.304448 24.799891 40.410487 1.091086 0.910059 0.062251 -0.010132 1015710.000000 0 0 1
-15.980485 -27.420048 24.320891 39.984255 1.043118 0.916928 0.085151 -0.011386 1334520.000000 0 0 1
-17.137785 -27.532448 25.146191 41.037425 1.014027 0.911245 0.090730 -0.011286 788918.000000 0 0 1
-18.128985 -26.554548 24.799691 40.605773 0.971771 0.913798 0.087395 -0.010170 148520.000000 0 0 1
-19.320685 -26.454848 25.822591 41.712756 0.940005 0.903254 0.078006 0.000534 1115880.000000 0 0 1
-20.231385 -27.563848 26.012091 42.961652 0.937625 0.920437 0.080221 -0.000684 843276.000000 0 0 1
-20.767985 -28.189448 24.840591 42.930282 0.935843 0.953753 0.075567 -0.001932 -864899.000000 0 0 1
-22.186685 -27.719148 24.486891 43.130129 0.895805 0.967033 0.051559 0.008106 -442331.000000 0 0 1
-22.253185 -26.353248 24.109091 42.082611 0.869551 0.960758 0.064015 0.004214 294665.000000 0 0 1
-23.461385 -25.966448 23.470191 42.137191 0.836036 0.980034 0.048269 0.004334 52077.800000 0 0 1
-23.692785 -24.422248 23.239391 41.205140 0.800558 0.971584 0.051607 0.012372 -71433.900000 0 0 1
-24.151685 -23.800848 24.409691 41.780585 0.778082 0.946859 0.046698 0.014042 100149.000000 0 0 1
-24.664385 -22.529848 24.070091 41.173963 0.740200 0.946416 0.028181 0.015591 230591.000000 0 0 1
-25.208815 -21.682848 25.302991 41.783628 0.710346 0.920312 0.032275 0.016321 -140774.000000 0 0 1
-26.449285 -22.101248 25.780891 43.042818 0.696080 0.928596 0.013836 0.024623 -220941.000000 0 0 1
-26.923565 -21.311248 26.854691 43.591537 0.669565 0.907074 0.003641 0.016674 -615870.000000 0 0 1
-28.003915 -22.000348 27.732991 45.137051 0.665909 0.909149 0.001207 0.015096 -643646.000000 0 0 1
-29.334695 -21.932548 27.374491 45.726620 0.642006 0.928975 -0.006397 0.008444 -524718.000000 0 0 1
-29.675775 -22.592048 26.171991 45.563421 0.650691 0.958916 -0.007816 0.012350 -631412.000000 0 0 1
-31.205155 -22.909948 26.203891 46.746886 0.633294 0.975748 -0.007328 0.006999 563639.000000 0 0 1
-31.792965 -23.537248 25.064291 46.829620 0.637283 1.006025 -0.010510 0.002508 239144.000000 0 0 1
-31.491775 -24.897548 24.835591 47.206211 0.668986 1.016778 -0.018366 0.006849 -689095.000000 0 0 1
-31.884915 -25.456348 23.454191 47.061370 0.673754 1.049073 -0.011253 0.005220 959725.000000 0 0 1
-33.304035 -25.657748 23.303891 48.068182 0.656436 1.064651 -0.006399 0.002462 785614.000000 0 0 1
-33.633185 -26.009048 21.969991 47.857520 0.658257 1.093847 0.006179 0.002405 1278200.000000 0 0 1
-34.914852 -26.971448 21.810591 49.215930 0.657741 1.111674 0.008440 0.001320 758882.000000 0 0 1
-34.957929 -28.214248 22.482991 50.235301 0.679050 1.106769 0.004138 0.003727 474124.000000 0 0 1
-33.874445 -29.132448 22.286691 49.928691 0.710278 1.108091 -0.004743 -0.002909 -124227.000000 0 0 1
-34.113773 -30.291948 21.228291 50.318903 0.726128 1.135284 -0.002717 0.000829 -353594.000000 0 0 1
-34.366386 -29.827948 19.944791 49.684501 0.714817 1.157720 -0.001409 0.005985 547306.000000 0 0 1
-34.839585 -30.825748 19.040391 50.264897 0.724348 1.182296 -0.006582 0.004663 -742532.000000 0 0 1
-35.142036 -30.222148 17.682791 49.608689 0.710271 1.206336 -0.001295 0.012083 -569492.000000 0 0 1
-34.071415 -30.045848 16.772991 48.424658 0.722696 1.217094 0.016981 0.005376 297104.000000 0 0 1
-34.502830 -29.506648 15.527391 47.981115 0.707502 1.241249 0.015658 0.006652 128739.000000 0 0 1
-35.037496 -30.520848 14.454191 48.662839 0.716612 1.269218 0.007477 0.004453 -228054.000000 0 0 1
-34.044185 -31.395448 14.021591 48.386834 0.744944 1.276798 0.010971 -0.003557 -390923.000000 0 0 1
-34.310011 -32.102148 12.824791 48.705236 0.752166 1.304340 0.015299 -0.000640 28455.000000 0 0 1
-34.449916 -31.363748 11.456891 47.976471 0.738540 1.329664 0.011997 -0.003190 62399.200000 0 0 1
-35.480944 -30.402248 11.431891 48.102830 0.708464 1.330845 0.004135 -0.000724 73760.400000 0 0 1
-35.426011 -29.670848 10.297691 47.343468 0.697218 1.351533 0.010309 -0.003017 245310.000000 0 0 1
34.585686 -28.861548 10.096991 46.163924 -0.695423 1.350293 0.026502 0.002184 260074.000000 0 0 1
34.604716 -27.796848 9.164991 45.322712 -0.676730 1.367176 0.032395 -0.030333 238894.000000 0 0 1
33.312336 -27.305548 8.878591 43.978791 -0.686628 1.367516 0.028414 -0.024065 5074.670000 0 0 1
33.468576 -26.162348 7.826691 43.195731 -0.663482 1.388599 0.029225 -0.018695 39131.200000 0 0 1
34.192736 -25.073248 8.276891 43.200902 -0.632722 1.378014 0.037891 -0.022788 -138186.000000 0 0 1
34.332056 -24.161648 7.186391 42.592482 -0.613247 1.401261 0.043332 -0.030726 148323.000000 0 0 1
34.888656 -22.707348 7.439391 42.286955 -0.576974 1.393950 0.053991 -0.032707 71941.200000 0 0 1
33.993796 -21.927448 8.179891 41.271077 -0.572882 1.371276 0.034327 -0.020994 -300542.000000 0 0 1
34.435756 -20.639148 8.018791 40.940161 -0.539943 1.373656 0.052226 -0.021990 -157813.000000 0 0 1
33.674796 -19.571148 8.799891 39.930688 -0.526467 1.348593 0.056212 -0.014573 -234127.000000 0 0 1
34.011046 -19.667048 10.170391 40.583013 -0.524277 1.317489 0.044989 -0.017876 79493.600000 0 0 1
33.275646 -18.754648 10.945791 39.734315 -0.513236 1.291713 0.038468 -0.008243 -439621.000000 0 0 1
33.628396 -18.799148 12.424691 40.480242 -0.509747 1.258828 0.026319 -0.017708 109769.000000 0 0 1
34.883476 -18.220948 12.750791 41.369585 -0.481358 1.257479 0.012265 -0.014399 383935.000000 0 0 1
35.254006 -18.570148 14.061991 42.254407 -0.484820 1.231532 0.015866 -0.004080 -730374.000000 0 0 1
-34.888630 -17.814348 14.608391 41.808762 0.472096 1.213855 0.022887 -0.013988 -96477.200000 0 0 1
-33.651585 -18.211448 14.032991 40.755501 0.496044 1.219280 0.018903 -0.011936 775703.000000 0 0 1
-32.486045 -17.661348 14.653791 39.774363 0.497962 1.193484 0.007317 -0.012929 479056.000000 0 0 1
-31.221235 -17.782448 13.801091 38.489623 0.517738 1.204064 0.018218 -0.009938 -220775.000000 0 0 1
-30.668585 -19.041348 13.663591 38.598300 0.555627 1.208957 0.009770 -0.009949 -199664.000000 0 0 1
-29.453985 -19.063948 12.972091 37.406503 0.574436 1.216653 -0.020731 0.002211 -207297.000000 0 0 1
-28.718335 -20.368848 12.650591 37.412166 0.616916 1.225855 -0.018862 -0.004983 -19202.900000 0 0 1
-29.409375 -21.076148 11.639291 38.007742 0.621811 1.259561 -0.002157 -0.003034 64289.700000 0 0 1
-28.519065 -21.962748 10.982391 37.633925 0.656246 1.274666 -0.001607 -0.003306 -221834.000000 0 0 1
-29.178495 -22.726848 9.811391 38.264312 0.661736 1.311489 0.018087 -0.009031 399964.000000 0 0 1
-29.995995 -23.873548 10.029491 39.626969 0.672231 1.314916 0.019519 -0.013825 -240223.000000 0 0 1
-31.299355 -23.520248 10.431391 40.517473 0.644436 1.310410 0.029553 -0.020407 -518700.000000 0 0 1
-32.136765 -24.835748 10.585291 41.971829 0.657943 1.315843 0.039784 -0.020977 -69475.700000 0 0 1
-32.344785 -25.525648 9.312791 42.243010 0.668104 1.348513 0.039831 -0.015861 161752.000000 0 0 1
-33.168585 -26.689848 9.428691 43.605083 0.677584 1.352846 0.044687 -0.012281 251005.000000 0 0 1
-33.369565 -27.484348 8.163091 43.994924 0.688987 1.384169 0.041275 -0.018322 -13753.200000 0 0 1
-32.162245 -27.964548 7.608991 43.293449 0.715697 1.394125 0.030564 -0.018022 -120575.000000 0 0 1
-32.324685 -28.736648 6.466291 43.732061 0.726704 1.422391 0.030362 -0.017548 -319025.000000 0 0 1
-30.959445 -28.970148 5.816691 42.797087 0.752216 1.434461 0.040720 -0.016097 -4390.380000 0 0 1
-30.461595 -27.837348 5.112391 41.580804 0.740415 1.447534 0.050062 -0.013098 -1205970.000000 0 0 1
-29.176035 -27.961748 4.656391 40.679016 0.764149 1.456078 0.044331 -0.014051 -1057650.000000 0 0 1
-28.508495 -26.696948 4.134691 39.275399 0.752595 1.465327 0.037838 -0.013471 20388.300000 0 0 1
-28.660145 -26.469348 2.749191 39.109952 0.745680 1.500444 0.051627 -0.014393 -103206.000000 0 0 1
-27.864255 -25.380648 2.322391 37.762250 0.738787 1.509257 0.040218 -0.022537 -376153.000000 0 0 1
-28.153015 -24.796748 0.954591 37.528419 0.722097 1.545357 0.042525 -0.021491 -314900.000000 0 0 1
-27.796915 -25.656048 -0.113309 37.827426 0.745368 1.573792 0.037799 -0.020096 -65114.000000 0 0 1
-28.029855 -25.096548 -1.433909 37.650572 0.730240 1.608890 0.035065 -0.023562 797347.000000 0 0 1
-29.513715 -24.991748 -1.948909 38.722669 0.702624 1.621148 0.068916 -0.029651 644169.000000 0 0 1
-30.209595 -23.844448 -1.629409 38.520544 0.668183 1.613109 0.056718 -0.018309 -304267.000000 0 0 1
-31.535735 -23.836648 -2.120909 39.587708 0.647242 1.624397 0.072260 -0.025977 -99196.800000 0 0 1
-32.155605 -22.480548 -1.847709 39.278137 0.610133 1.617855 0.065988 -0.024371 -482695.000000 0 0 1
-32.463035 -22.209348 -0.489509 39.336286 0.600004 1.583241 0.068131 -0.024576 64860.400000 0 0 1
-33.271785 -21.055348 -0.417609 39.376564 0.564209 1.581402 0.073324 -0.017484 -276465.000000 0 0 1
-33.476915 -20.557148 1.012991 39.297918 0.550700 1.545016 0.056596 -0.017036 -191331.000000 0 0 1
-34.187691 -21.452548 1.862591 40.403951 0.560390 1.524681 0.067930 -0.018968 257183.000000 0 0 1
-34.269547 -20.979648 3.167491 40.306085 0.549338 1.492129 0.066685 -0.025793 -695364.000000 0 0 1
-35.307040 -21.889448 3.873391 41.722155 0.554977 1.477825 0.071930 -0.017473 1598800.000000 0 0 1
34.643166 -21.872548 3.424591 41.113078 -0.563165 1.487403 0.060996 -0.012242 1103380.000000 0 0 1
33.929726 -20.700748 3.705891 39.918428 -0.547818 1.477826 0.060198 -0.014472 -243500.000000 0 0 1
32.644366 -20.529548 2.842691 38.667789 -0.561388 1.497214 0.050394 -0.002729 656348.000000 0 0 1
31.607816 -21.426648 3.165791 38.316805 -0.595733 1.488081 0.041580 -0.007204 -78837.300000 0 0 1
30.341776 -21.094848 2.649791 37.049121 -0.607525 1.499214 0.046712 -0.005277 848860.000000 0 0 1
29.087626 -21.958748 2.989891 36.567965 -0.646641 1.488942 0.035285 0.009402 538752.000000 0 0 1
28.928606 -23.064948 2.111191 37.058241 -0.673096 1.513796 0.026493 0.000186 -27358.600000 0 0 1
27.812206 -23.884148 2.408691 36.739259 -0.709561 1.505188 0.013252 0.005083 12406.300000 0 0 1
27.517296 -24.836448 1.225291 37.088436 -0.734236 1.537753 0.016068 0.004520 -1365.110000 0 0 1
26.938926 -24.275948 0.050791 36.263342 -0.733449 1.569396 0.011220 -0.003461 182033.000000 0 0 1
26.466426 -25.278748 -0.825309 36.608305 -0.762450 1.593343 0.005034 -0.002038 265.352000 0 0 1
25.693556 -24.759248 -2.055409 35.740788 -0.766882 1.628337 0.007314 -0.004692 421855.000000 0 0 1
26.591166 -24.251148 -3.072709 36.119937 -0.739406 1.655969 0.000563 -0.032642 464355.000000 0 0 1
26.942466 -25.155748 -4.065409 37.084171 -0.751116 1.680644 0.008440 -0.033932 -810114.000000 0 0 1
25.761456 -25.732448 -4.923609 36.743073 -0.784835 1.705202 0.013971 -0.029100 287016.000000 0 0 1
25.201956 -24.783848 -5.795509 35.818510 -0.777034 1.733313 0.015408 -0.036115 -55645.800000 0 0 1
24.333956 -23.907948 -5.140609 34.498656 -0.776568 1.720362 0.019293 -0.045778 -1527860.000000 0 0 1
23.799756 -22.893048 -6.140609 33.589093 -0.765982 1.754646 0.022390 -0.046419 -488369.000000 0 0 1
22.954756 -23.407148 -7.134209 33.551637 -0.795156 1.785066 0.030990 -0.032203 114065.000000 0 0 1
21.983256 -22.541848 -7.685409 32.410862 -0.797943 1.810201 0.034561 -0.033944 66944.000000 0 0 1
22.512256 -21.307648 -8.488409 32.138305 -0.757915 1.838089 0.043406 -0.030145 -726432.000000 0 0 1
23.019156 -21.588448 -9.783509 33.040274 -0.753336 1.871412 0.044836 -0.028938 246580.000000 0 0 1
22.680056 -20.484848 -10.584209 32.342533 -0.734586 1.904192 0.048826 -0.031481 -385506.000000 0 0 1
23.392556 -20.433648 -11.899909 33.261893 -0.717986 1.936669 0.047787 -0.025633 658641.000000 0 0 1
24.769656 -20.005748 -11.805209 33.957750 -0.679401 1.925854 0.047534 -0.021903 927698.000000 0 0 1
25.296656 -19.706748 -13.072409 34.628957 -0.661820 1.957891 0.043298 -0.017083 -148703.000000 0 0 1
26.826156 -19.882348 -13.199309 35.905044 -0.637816 1.947242 0.033501 -0.018547 -31945.100000 0 0 1
27.142786 -21.247648 -13.287309 36.942469 -0.664171 1.938717 0.024293 -0.017094 124858.000000 0 0 1
27.854156 -21.708448 -12.151509 37.346619 -0.662029 1.902200 0.025227 -0.034946 -235346.000000 0 0 1
28.140466 -23.187848 -12.306809 38.484019 -0.689207 1.896304 0.017532 -0.009209 470257.000000 0 0 1
29.168536 -23.490548 -13.282509 39.737066 -0.677988 1.911616 0.018796 -0.018146 809415.000000 0 0 1
29.074796 -24.854248 -13.694209 40.627685 -0.707296 1.914595 0.017627 -0.008918 -163327.000000 0 0 1
-4.396285 -9.296109 -27.525109 29.383271 1.129049 2.784055 0.036257 0.000513 -29081.500000 0 0 1
-4.155585 -8.036309 -27.017769 28.492297 1.093562 2.818469 0.017438 0.005737 175967.000000 0 0 1
-4.701885 -6.943609 -27.739079 28.978923 0.975569 2.848018 0.008256 0.005214 -224690.000000 0 0 1
-4.597385 -5.602909 -27.065299 28.018904 0.883659 2.879947 0.006666 -0.002789 -235898.000000 0 0 1
-5.264785 -5.550909 -25.836999 26.945892 0.811847 2.853711 0.001303 -0.000002 140118.000000 0 0 1
-5.159485 -4.267609 -25.314269 26.184824 0.691071 2.883010 0.009749 -0.007138 -22408.400000 0 0 1
-5.759685 -4.227909 -23.922609 24.966786 0.633216 2.851360 0.007527 -0.008041 -528722.000000 0 1 0
-5.054285 -5.027509 -23.018409 24.097071 0.782742 2.841256 0.004144 -0.017378 258330.000000 0 1 0
-5.486785 -4.886909 -21.663609 22.875722 0.727636 2.814602 0.007692 -0.013358 -575509.000000 0 1 0
-4.778085 -5.846209 -20.687109 22.021915 0.885598 2.791635 0.011102 -0.020631 -485636.000000 0 1 0
-5.068685 -7.208909 -20.928709 22.708386 0.957983 2.743054 -0.003072 -0.014364 368095.000000 0 1 0
-4.366385 -8.002609 -20.019909 21.997815 1.071322 2.714289 0.009115 -0.022699 -617443.000000 0 1 0
-5.010885 -9.463009 -20.057309 22.736604 1.083810 2.651224 0.006173 -0.020149 964255.000000 0 1 0
-6.226885 -9.640809 -19.320909 22.472580 0.997317 2.605586 0.011143 -0.014017 1591840.000000 0 1 0
-7.412285 -8.975509 -19.870109 23.028743 0.880500 2.611657 0.006370 -0.010399 142143.000000 0 1 0
-8.601285 -9.091309 -18.934809 22.697159 0.813088 2.557544 0.013918 -0.007329 -775600.000000 0 1 0
-9.113885 -10.419209 -18.840809 23.379455 0.852125 2.507940 0.026675 -0.005363 476916.000000 0 1 0
-10.155285 -10.535509 -17.869109 23.096143 0.803773 2.455431 0.045600 0.002705 220552.000000 0 1 0
-10.854885 -11.911409 -17.844809 24.044696 0.831772 2.407071 0.040674 0.005839 -60459.200000 0 1 0
-11.899985 -12.025609 -18.795009 25.287888 0.790649 2.408699 0.055174 -0.002933 -114678.000000 0 0 1
-11.500585 -12.409309 -20.096609 26.270290 0.823386 2.441828 0.050818 -0.012193 -1198730.000000 0 0 1
-12.628085 -12.476509 -21.150409 27.612889 0.779360 2.443332 0.051131 -0.023517 -161545.000000 0 0 1
-13.550185 -13.507309 -20.966209 28.383743 0.783814 2.401891 0.053674 -0.005545 118906.000000 0 0 1
-14.390985 -13.483509 -19.764909 27.920550 0.752854 2.357314 0.045738 0.000677 119722.000000 0 0 1
-15.653285 -14.401409 -19.917709 29.140025 0.743769 2.323367 0.037876 0.000840 457370.000000 0 0 1
-15.293485 -15.717209 -20.134709 29.771259 0.799061 2.313543 0.039863 0.001966 -327840.000000 0 0 1
-16.030585 -16.316309 -21.167809 31.165330 0.794231 2.317482 0.046263 -0.005966 40003.400000 0 0 1
-15.591185 -17.775909 -21.499509 31.957736 0.850780 2.308713 0.023072 -0.005289 -187186.000000 0 0 1
-15.951185 -18.794409 -20.582209 32.113821 0.867046 2.266485 0.020092 0.005896 94347.900000 0 0 1
-15.362585 -20.031209 -20.902609 32.774646 0.916546 2.262393 0.015653 0.004123 -173746.000000 0 0 1
-16.218385 -21.147009 -20.339909 33.525273 0.916545 2.222704 0.017005 0.004002 -284420.000000 0 0 1
-15.669285 -22.356409 -20.730409 34.279519 0.959476 2.220243 0.024640 0.001267 236829.000000 0 0 1
-16.534285 -23.467009 -20.456809 35.250024 0.957006 2.189936 0.036974 0.004241 135251.000000 0 0 1
-15.929385 -24.830109 -20.850409 36.125050 1.000395 2.186059 0.037918 -0.002019 -103150.000000 0 0 1
-15.996485 -25.075249 -22.244209 37.141089 1.002946 2.212937 0.033153 -0.009521 76307.700000 0 0 1
-15.511585 -26.381839 -22.552809 38.016311 1.039273 2.205874 0.031911 -0.009727 -208515.000000 0 0 1
-15.857885 -26.907609 -23.953709 39.360795 1.038248 2.225051 0.037016 -0.004829 -661781.000000 0 0 1
-17.126885 -27.471199 -24.085109 40.349591 1.013313 2.210442 0.048905 -0.007628 -499869.000000 0 0 1
-17.121385 -28.848199 -23.936509 41.210641 1.035170 2.190548 0.049824 -0.000603 -73917.400000 0 0 1
-18.047685 -29.558429 -24.959809 42.689715 1.022636 2.195281 0.053794 -0.007175 -115979.000000 0 0 1
-17.492685 -29.607139 -26.301899 43.293956 1.037149 2.223730 0.043632 -0.001855 229665.000000 0 0 1
-17.578685 -28.368999 -27.022429 42.942077 1.016058 2.251418 0.066624 -0.005666 146385.000000 0 0 1
-16.439085 -27.996969 -28.031309 42.893218 1.039861 2.283014 0.066317 -0.006397 -332337.000000 0 0 1
-16.471785 -28.755359 -29.212229 44.176292 1.050598 2.293300 0.067676 0.002189 1093810.000000 0 0 1
-15.394885 -28.391739 -30.131799 44.170337 1.073937 2.321526 0.031508 0.013716 794369.000000 0 0 1
-15.776485 -28.693389 -31.633959 45.529281 1.068084 2.338945 0.035441 0.012060 58551.600000 0 0 1
-15.678385 -30.026909 -32.000709 46.599061 1.089590 2.327770 0.014665 0.013594 96191.200000 0 0 1
-16.457085 -30.119479 -33.151079 47.718055 1.070726 2.338838 0.031378 0.012346 -159320.000000 0 0 1
-16.378985 -31.481649 -33.779329 48.993964 1.091064 2.331538 0.022424 0.006309 -144017.000000 0 0 1
-15.173985 -31.780939 34.383722 49.219084 1.125346 0.797378 0.027376 0.005688 -136215.000000 0 0 1
-15.358285 -32.925289 33.511118 49.426173 1.134340 0.825753 0.024048 -0.000260 -307242.000000 0 0 1
-14.102385 -33.420099 32.780155 48.890887 1.171492 0.835946 0.021777 -0.007420 -262641.000000 0 0 1
-13.344385 -34.291933 33.556364 49.799988 1.199686 0.831426 0.022239 -0.001154 -87864.300000 0 0 1
-12.207985 34.038707 32.878290 48.873821 -1.226436 0.832920 0.023132 -0.003810 415130.000000 0 0 1
-11.235085 33.215580 33.776087 48.685993 -1.244630 0.804108 0.031153 -0.003522 229582.000000 0 0 1
-10.558085 34.001426 -34.098235 49.297665 -1.269717 2.334610 0.031285 -0.000722 -113713.000000 0 0 1
-9.782385 33.181583 -33.241969 47.976463 -1.284104 2.336273 0.032181 -0.007938 58229.800000 0 0 1
-9.056185 34.052205 -32.201489 47.733668 -1.310863 2.311229 0.017133 -0.005690 -131979.000000 0 0 1
-9.927185 -34.214750 -31.279109 47.408658 1.288407 2.291317 0.022036 -0.001308 -129210.000000 0 0 1
-9.257185 -33.083239 -30.693849 46.068521 1.297959 2.299985 0.023745 0.002971 -42846.700000 0 0 1
-10.016885 -32.265999 -29.630799 44.937924 1.269783 2.290779 0.029958 0.008375 -26171.200000 0 0 1
-10.218685 -32.801379 -28.312229 44.518921 1.268793 2.260047 0.050588 0.007438 307996.000000 0 0 1
-10.853785 -34.113112 -28.215709 45.581085 1.262754 2.238294 0.062619 -0.003984 32523.900000 0 0 1
-11.155285 -34.400917 -26.739449 44.976234 1.257222 2.207470 0.065836 -0.004215 337292.000000 0 0 1
-9.985585 34.192164 -25.980509 44.088580 -1.286655 2.200963 0.062724 -0.005415 112885.000000 0 0 1
-10.345885 34.116027 -24.626209 43.328868 -1.276355 2.175302 0.064124 -0.017673 304458.000000 0 0 1
-9.138385 33.979886 -23.680009 42.413271 -1.308077 2.163151 0.073602 -0.014651 175462.000000 0 0 1
-8.433085 32.770609 -23.567509 41.236601 -1.318924 2.179152 0.054958 -0.015013 150168.000000 0 0 1
-7.583185 32.793199 -22.412209 40.437677 -1.343548 2.158247 0.067417 -0.015282 268441.000000 0 0 1
-6.653885 31.571769 -22.208609 39.169799 -1.363082 2.173635 0.060273 -0.017802 -651059.000000 0 0 1
-5.562685 31.565249 -23.041209 39.474115 -1.396359 2.194080 0.036508 -0.027232 -1390990.000000 0 0 1
-4.721785 30.467579 -22.804209 38.348411 -1.417042 2.207637 0.031493 -0.020380 11298.500000 0 0 1
-3.242785 30.708359 -23.180309 38.611471 -1.465587 2.214732 0.033408 -0.026274 -220771.000000 0 0 1
-2.830785 30.809509 -24.522609 39.479078 -1.479173 2.241011 0.035859 -0.027469 -351287.000000 0 0 1
-3.338585 31.802429 -25.345349 40.803522 -1.466201 2.241013 0.037764 -0.033011 -800493.000000 0 0 1
-2.540885 32.004419 -26.618499 41.704717 -1.491571 2.263034 0.032733 -0.023125 420825.000000 0 0 1
-1.468885 32.982354 -26.706059 42.464184 -1.526290 2.250944 0.038005 -0.033133 971779.000000 0 0 1
-1.960685 34.315197 -26.659589 43.498399 -1.513721 2.230505 0.032028 -0.026471 -465101.000000 0 0 1
-0.944085 -33.551519 -27.198239 43.201157 1.542665 2.251799 0.013179 -0.014846 -105455.000000 0 0 1
0.155315 -33.242439 -26.356479 42.423436 -1.566124 2.241161 0.024798 -0.020307 101181.000000 0 0 1
0.974615 -32.257949 -26.933659 42.035071 -1.540592 2.266261 0.007533 -0.008697 598655.000000 0 0 1
2.298715 -31.880279 -26.171269 41.310672 -1.498816 2.256895 0.012309 -0.005464 328339.000000 0 0 1
2.071915 -31.343849 -24.880109 40.071805 -1.504790 2.240672 0.004773 -0.001152 946375.000000 0 0 1
3.261315 -30.674989 -24.405309 39.334594 -1.464876 2.240118 0.000980 0.001666 408520.000000 0 0 1
3.180415 -30.067199 -22.979509 37.976432 -1.465411 2.220687 0.004502 0.005059 -215088.000000 0 0 1
3.298815 -30.972969 -21.897609 38.075088 -1.464690 2.183543 0.004855 0.006965 336757.000000 0 0 1
3.034515 -30.281969 -20.675109 36.792202 -1.470921 2.167529 0.009435 0.012617 -535284.000000 0 0 1
2.825115 -31.117619 -19.396409 36.776463 -1.480256 2.126350 0.015970 0.015132 -629548.000000 0 0 1
1.639415 -31.854639 -19.471109 37.370173 -1.519376 2.118858 0.012361 0.010377 -303141.000000 0 0 1
1.772615 -33.190829 -19.928209 38.754443 -1.517440 2.110891 0.006429 0.012923 -280530.000000 0 0 1
2.207715 -34.255270 -18.883409 39.177554 -1.506436 2.073727 0.008779 0.000353 897196.000000 0 0 1
3.622915 -34.127201 -18.662709 39.065178 -1.465033 2.068868 0.014275 0.000988 656050.000000 0 0 1
4.110315 33.746671 -17.737009 38.344935 1.449594 2.051682 0.036179 -0.015809 -34593.100000 0 0 1
5.191315 32.801369 -18.247209 37.892482 1.413833 2.073221 0.040971 -0.019148 -1034240.000000 0 0 1
6.429815 33.375588 -18.386609 38.643755 1.380478 2.066667 0.060519 -0.021067 -1262350.000000 0 0 1
7.284815 32.601669 -19.178109 38.519310 1.350959 2.091952 0.049691 -0.030780 -830947.000000 0 0 1
8.623715 33.183316 -19.515409 39.450629 1.316540 2.088262 0.039213 -0.024233 -952973.000000 0 0 1
9.452015 33.447265 -18.429309 39.340813 1.295383 2.058335 0.034587 -0.024442 104898.000000 0 0 1
10.735915 33.942410 -18.787509 40.253169 1.264455 2.056390 0.031976 -0.011564 405016.000000 0 0 1
11.584015 34.248762 -17.538509 40.184156 1.244644 2.022449 0.017671 -0.013143 -75920.900000 0 0 1
12.256315 33.133495 -16.929909 39.174833 1.216498 2.017686 0.013011 -0.019205 -244213.000000 0 0 1
13.121015 33.678731 -15.970309 39.515424 1.199293 1.986850 0.006723 -0.020120 -222086.000000 0 0 1
14.178715 32.585449 -15.578609 38.801295 1.160382 1.983947 0.008411 -0.016868 4593.970000 0 0 1
13.741015 31.397049 -14.982609 37.404128 1.158257 1.982925 0.027697 -0.018373 -540618.000000 0 0 1
14.848515 30.564609 -14.727509 37.034757 1.118567 1.979769 0.016455 -0.009935 -88470.500000 0 0 1
14.685315 29.297789 -13.828609 35.570344 1.106155 1.970090 0.032033 -0.017776 -340483.000000 0 0 1
14.473815 29.572949 -12.453509 35.201428 1.115642 1.932404 0.034121 -0.021090 1035410.000000 0 0 1
13.156115 29.346819 -11.871909 34.282085 1.149359 1.924421 0.058580 -0.024266 1280770.000000 0 0 1
12.730215 27.880239 -11.605109 32.772621 1.142465 1.932758 0.054037 -0.018692 -427267.000000 0 0 1
12.052315 27.245019 -12.674909 32.375958 1.154308 1.973048 0.032236 -0.015256 21101.500000 0 0 1
11.713515 25.885169 -12.413609 31.005582 1.145850 1.982714 0.047821 -0.014351 31734.000000 0 0 1
10.601415 25.622999 -11.386709 29.976411 1.178496 1.960437 0.045481 -0.012392 -745724.000000 0 0 1
9.410115 26.328489 -11.611409 30.274815 1.227534 1.964416 0.035780 -0.014123 -316844.000000 0 0 1
8.769615 26.562099 -10.388409 29.839073 1.251909 1.926391 0.016291 -0.004100 472006.000000 0 0 1
7.710915 27.757529 -10.632709 30.708193 1.299833 1.924367 0.023172 -0.012562 635229.000000 0 0 1
8.260015 29.037029 -10.847109 32.078602 1.293652 1.915738 0.029041 -0.015313 -272011.000000 0 0 1
7.322215 30.073469 -10.674509 32.741007 1.331966 1.902896 0.016898 -0.011072 -120881.000000 0 0 1
7.888515 31.446349 -11.058409 34.254780 1.325012 1.899513 0.030187 -0.023887 -252662.000000 0 0 1
8.727115 32.051309 -10.085109 34.715391 1.304955 1.865554 0.020198 -0.023829 -216073.000000 0 0 1
9.319515 33.249806 -10.553309 36.107829 1.297521 1.867398 0.029749 -0.025115 452615.000000 0 0 1
10.448415 33.184657 -11.634009 36.684343 1.265766 1.893507 0.032757 -0.032319 -166879.000000 0 0 1
11.725415 32.941755 -11.109409 36.688739 1.228836 1.878427 0.033764 -0.023364 -371298.000000 0 0 1
12.763915 33.129178 -12.048709 37.491751 1.203046 1.897972 0.051335 -0.023862 683167.000000 0 0 1
14.200415 32.823671 -11.516709 37.572327 1.162483 1.882332 0.042623 -0.027035 569847.000000 0 0 1
14.527315 33.906839 -10.622409 38.386875 1.166009 1.851175 0.052233 -0.023410 -223665.000000 0 0 1
15.929115 33.939645 -10.483209 38.929859 1.131979 1.843446 0.031589 -0.021885 -51122.100000 0 0 1
16.449215 -33.856449 -9.515309 38.824953 -1.118531 1.818401 0.042416 -0.028495 -12531.400000 0 0 1
16.104515 -34.203941 -8.174709 38.679334 -1.130749 1.783748 0.038523 -0.028401 180203.000000 0 0 1
16.749215 -33.395049 -7.196909 38.046827 -1.105911 1.761102 0.035814 -0.017771 -1206880.000000 0 0 1
17.113315 -34.242549 -5.943809 38.739471 -1.107335 1.724835 0.038079 -0.010695 232295.000000 0 0 1
18.025215 33.565590 -6.292509 38.615449 1.077977 1.734479 0.038344 -0.013335 632290.000000 0 0 1
19.350315 34.067477 -6.567809 39.726110 1.054239 1.736886 0.039410 -0.009000 -731876.000000 0 0 1
20.165915 32.939476 -7.224809 39.292125 1.021446 1.755723 0.027254 -0.005810 -111913.000000 0 0 1
20.406515 31.765239 -6.475709 38.306541 0.999771 1.740662 0.030799 0.000171 -137437.000000 0 0 1
21.239615 31.971079 -5.332909 38.751917 0.984407 1.708851 0.020668 0.006280 -328764.000000 0 0 1
21.793415 30.648479 -4.731509 37.903422 0.952675 1.695953 0.013383 0.004105 241538.000000 0 0 1
22.649715 29.982149 -5.674209 38.001783 0.923823 1.720671 0.007918 0.004708 -74227.800000 0 0 1
22.976615 28.710479 -5.225809 37.141964 0.895881 1.711963 0.012695 0.006572 13919.900000 0 0 1
23.933215 27.934189 -6.183809 37.300901 0.862384 1.737347 0.003825 0.018690 -400836.000000 0 0 1
25.256115 28.401749 -6.249309 38.517328 0.843955 1.733763 0.007327 0.017531 -400362.000000 0 0 1
26.059315 27.516329 -6.993409 38.537566 0.812587 1.753277 0.003258 0.021220 9940.360000 0 0 1
26.766015 26.485639 -6.064709 38.140390 0.780133 1.730484 0.005026 0.017665 -645914.000000 0 0 1
27.669515 27.153969 -5.182309 39.112612 0.775995 1.703684 0.021020 0.012380 -74524.300000 0 0 1
28.344715 26.198849 -4.434509 38.851865 0.746076 1.685185 0.023600 0.014529 -763746.000000 0 0 1
29.545815 26.763029 -3.708809 40.037110 0.736018 1.663564 0.031229 0.007924 -509639.000000 0 0 1
29.240515 27.388629 -2.437409 40.138332 0.752708 1.631559 0.035544 -0.000012 -868808.000000 0 0 1
30.411015 27.888289 -1.910209 41.306602 0.742153 1.617057 0.047219 -0.010695 -644651.000000 0 0 1
30.305815 29.106179 -0.955009 42.030038 0.765209 1.593520 0.056568 -0.011420 17566.000000 0 0 1
30.307415 30.330669 -1.585009 42.906889 0.785782 1.607745 0.057562 0.002221 165592.000000 0 0 1
29.722015 31.319899 -0.739009 43.184261 0.811569 1.587910 0.054780 -0.001622 -125202.000000 0 0 1
32.698016 23.576191 19.390473 44.732398 0.624700 1.122449 0.057563 -0.012898 94422.100000 0 0 1
33.080906 22.929291 20.577573 45.205478 0.606099 1.098199 0.051702 -0.025067 153762.000000 0 0 1
33.974586 23.713591 21.347173 46.608032 0.609369 1.095036 0.053627 -0.028406 -68583.800000 0 0 1
33.776446 23.565691 22.857273 47.102495 0.609178 1.064128 0.053291 -0.021833 -382137.000000 0 0 1
32.537466 24.127291 23.173173 46.666999 0.638054 1.051160 0.043143 -0.017660 -170570.000000 0 0 1
32.294896 24.232491 24.559293 47.258150 0.643725 1.024316 0.044637 -0.015534 54283.200000 0 0 1
30.859016 24.740691 24.849463 46.710560 0.675797 1.009850 0.050690 -0.018752 292230.000000 0 0 1
30.793086 26.130591 24.588563 47.282336 0.703673 1.023902 0.041988 -0.021822 633655.000000 0 0 1
29.513186 26.600691 25.013913 46.950194 0.733541 1.008919 0.031312 -0.027655 366087.000000 0 0 1
29.421376 28.106891 25.324833 47.926630 0.762553 1.014072 0.020978 -0.009997 -170201.000000 0 0 1
29.487246 28.954691 24.240123 47.910911 0.776286 1.040323 0.022073 -0.018580 260567.000000 0 0 1
29.261486 30.302991 24.580493 48.771984 0.802882 1.042587 0.013752 -0.010418 -165289.000000 0 0 1
29.319646 31.276391 23.356073 48.819672 0.817679 1.071947 0.025596 -0.013241 -714737.000000 0 0 1
30.658036 31.555191 23.107273 49.694983 0.799818 1.087182 0.001120 -0.010067 -579619.000000 0 0 1
31.029416 32.198791 21.883073 49.784090 0.803891 1.115688 -0.004195 -0.000329 -173050.000000 0 0 1
32.535236 32.464891 21.923873 50.923147 0.784316 1.125718 -0.019651 -0.022013 -336953.000000 0 0 1
32.941776 33.569391 22.672173 52.211991 0.794834 1.121610 -0.013151 -0.000591 946983.000000 0 0 1
34.367566 33.766591 22.563373 53.201673 0.776578 1.132817 -0.008422 -0.002059 1107270.000000 0 0 1
34.828026 -33.829848 23.391373 53.894400 -0.770861 1.121844 -0.008509 0.006296 -381452.000000 0 0 1
34.245026 -32.634648 22.907473 52.559437 -0.761324 1.119826 -0.013928 0.010372 349273.000000 0 0 1
34.816806 -31.499148 23.560673 52.531054 -0.735412 1.105699 0.002578 0.002940 -801476.000000 0 0 1
33.901646 -30.228148 23.541973 51.159428 -0.728178 1.092611 0.001569 0.009203 333322.000000 0 0 1
32.614636 -30.619148 24.019163 50.775653 -0.753851 1.078053 -0.008829 0.017105 847767.000000 0 0 1
31.597996 -30.727548 23.006073 49.718155 -0.771433 1.089724 -0.006314 0.024804 123124.000000 0 0 1
30.880976 -32.080548 22.998873 50.117306 -0.804448 1.094039 -0.017042 0.022962 -220135.000000 0 0 1
29.969766 -32.298248 24.055003 50.199670 -0.822775 1.071069 -0.016401 0.019814 63766.400000 0 0 1
29.510776 -33.619148 24.083483 50.804992 -0.850385 1.076925 -0.019432 0.017866 -227785.000000 0 0 1
28.561596 -33.790448 25.283643 50.959020 -0.869063 1.051630 -0.018176 0.013921 -196814.000000 0 0 1
28.346946 33.736691 25.617373 50.970221 0.871995 1.044199 -0.010860 0.006662 43744.700000 0 0 1
27.495916 33.563391 26.730663 50.961308 0.884443 1.018635 -0.016161 0.011155 -660388.000000 0 0 1
27.069176 32.074491 27.017203 49.914352 0.869827 0.998848 -0.009458 0.005203 271403.000000 0 0 1
26.343346 31.374391 26.038343 48.541936 0.872345 1.004620 -0.017567 0.005755 688592.000000 0 0 1
24.999956 31.865891 25.879073 48.064115 0.905556 1.002226 -0.027869 0.006328 327990.000000 0 0 1
24.357156 31.489791 24.492413 46.741376 0.912428 1.019257 0.001791 -0.007848 80998.000000 0 0 1
24.623856 32.454691 23.478173 47.019845 0.921741 1.047977 0.011450 -0.012332 79156.300000 0 0 1
25.904856 32.640991 22.911873 47.554703 0.899952 1.068088 0.001341 -0.004049 -472415.000000 0 0 1
26.094156 33.542091 21.663073 47.699744 0.909644 1.099373 0.010889 0.001008 169827.000000 0 0 1
27.418786 33.568091 21.141873 48.224323 0.885888 1.116971 0.017192 0.004837 404089.000000 0 0 1
27.508436 34.356791 19.911973 48.307244 0.895647 1.145935 0.010800 0.002840 553695.000000 0 0 1
28.930736 -34.154548 19.337273 48.759110 -0.868015 1.162999 0.013700 -0.000195 662295.000000 0 0 1
29.630986 33.553191 18.909573 48.594073 0.847394 1.171106 0.016330 -0.010743 -210773.000000 0 0 1
30.840526 33.892991 18.280873 49.336226 0.832518 1.191210 0.014837 -0.003781 -349062.000000 0 0 1
31.546186 32.629391 17.628873 48.688974 0.802275 1.200307 0.009169 -0.003639 -273028.000000 0 0 1
32.406876 32.000491 18.519073 49.164958 0.779089 1.184595 0.006331 -0.001985 -780115.000000 0 0 1
33.399016 31.293391 17.886773 49.139671 0.752861 1.198239 0.010122 -0.009731 -312512.000000 0 0 1
34.371716 30.568191 18.861073 49.714879 0.726895 1.181665 0.022636 -0.018854 126705.000000 0 0 1
35.168386 31.441691 19.616173 51.090014 0.729509 1.176723 0.035501 -0.016120 -511378.000000 0 0 1
-35.218529 30.819991 20.401673 51.053353 -0.718891 1.159700 0.041236 -0.016156 -515816.000000 0 0 1
-34.179662 31.837791 20.920773 51.181764 -0.749940 1.149707 0.021203 -0.015814 -320824.000000 0 0 1
-33.256085 32.187591 19.893373 50.376130 -0.769073 1.164841 0.022445 -0.014750 163481.000000 0 0 1
-32.213485 33.072191 20.289673 50.429646 -0.798550 1.156729 0.022403 -0.003722 196901.000000 0 0 1
-32.539995 -34.404548 21.043973 51.820585 0.813243 1.152622 0.001544 -0.003412 -621531.000000 0 0 1
-32.884025 34.247291 22.369473 52.484563 -0.805703 1.130497 0.007511 -0.003909 196555.000000 0 0 1
-32.821145 -33.403048 23.093273 52.213891 0.794185 1.112655 0.001429 -0.003248 -278669.000000 0 0 1
-32.678815 -33.635348 24.636303 52.973475 0.799821 1.087084 0.008440 -0.009067 -91288.500000 0 0 1
-33.883715 -34.217348 25.137643 54.321581 0.790297 1.089695 0.011195 -0.005165 368163.000000 0 0 1
-33.775825 34.368891 26.511173 54.998812 -0.794101 1.067824 0.016945 -0.002089 -488811.000000 0 0 1
-35.148433 34.064791 27.065083 55.931574 -0.769743 1.065695 0.010948 -0.009840 -485339.000000 0 0 1
-35.080383 33.322991 28.237503 56.021527 -0.759712 1.042518 0.028121 -0.013669 55210.100000 0 0 1
34.936996 33.236391 28.761663 56.146991 0.760458 1.032986 0.024878 -0.015978 31693.200000 0 0 1
34.900696 32.229391 29.979253 56.174263 0.745626 1.007847 0.030935 -0.011455 -189780.000000 0 0 1
34.916206 30.824091 29.667523 55.221625 0.723232 1.003629 0.031947 -0.011271 274794.000000 0 0 1
-35.351672 30.261891 28.905993 54.782106 -0.707981 1.014960 0.031516 -0.012204 -154203.000000 0 0 1
-35.568422 28.767091 28.555943 53.926802 -0.680073 1.012748 0.044081 -0.010967 -239651.000000 0 0 1
34.815286 28.519191 27.527683 52.756248 0.686313 1.021848 0.040837 -0.010802 257232.000000 0 0 1
34.616156 27.136891 27.086963 51.656487 0.664869 1.018825 0.045239 -0.009892 -161735.000000 0 0 1
34.128236 26.036091 28.050093 51.277892 0.651700 0.991995 0.040974 -0.014345 438113.000000 0 0 1
35.230506 25.582491 28.874723 52.243679 0.628059 0.985204 0.026281 -0.006112 741104.000000 0 0 1
35.045456 24.299291 29.535873 51.874920 0.606259 0.965061 0.016548 -0.003796 -178256.000000 0 0 1
35.379659 23.155391 28.508793 50.996506 0.579520 0.977576 0.034143 -0.008543 -613079.000000 0 0 1
34.571546 23.123391 27.352643 49.780017 0.589517 0.989066 0.035453 -0.006709 -176287.000000 0 0 1
35.019576 22.369191 26.237463 49.144235 0.568435 1.007606 0.033191 -0.010341 -552075.000000 0 0 1
34.691486 20.871091 26.358123 48.309960 0.541610 0.993686 0.034896 -0.007060 -1336130.000000 0 0 1
33.340066 20.614591 26.236813 47.168758 0.553776 0.980951 0.047670 0.002328 -776370.000000 0 0 1
32.995986 19.309491 26.686153 46.623409 0.529471 0.961395 0.050670 0.007007 -514441.000000 0 0 1
32.815286 19.153991 28.236433 47.339355 0.528341 0.931702 0.038753 0.016499 -772305.000000 0 0 1
31.747216 19.821091 28.823993 47.239644 0.558125 0.914527 0.028569 0.011332 -135182.000000 0 0 1
31.957876 21.239491 28.987953 48.090781 0.586577 0.923821 0.030067 0.002575 -452550.000000 0 0 1
30.922736 21.752391 30.055913 48.298447 0.613033 0.899124 0.029280 -0.000344 516933.000000 0 0 1
29.555756 21.679291 29.703683 47.178842 0.632860 0.889761 0.037212 -0.001358 325455.000000 0 0 1
29.024456 22.354291 28.541943 46.441101 0.656297 0.908938 0.037238 -0.002548 -394957.000000 0 0 1
28.844536 23.892891 28.713143 47.194513 0.691780 0.916753 0.035120 -0.006020 -194248.000000 0 0 1
30.087586 24.565391 28.678533 48.282290 0.684699 0.934804 0.043659 -0.014325 12597.500000 0 0 1
29.999246 25.937791 28.850953 49.041831 0.712918 0.941850 0.030427 -0.004767 -100497.000000 0 0 1
30.169686 26.351791 30.333533 50.246891 0.717953 0.922675 0.024388 0.002717 673840.000000 0 0 1
31.502506 26.063591 30.805533 51.192768 0.691197 0.925099 0.017986 0.008134 656376.000000 0 0 1
31.709246 25.887291 32.175533 52.066237 0.684659 0.904634 0.022681 0.001676 -145097.000000 0 0 1
31.358666 24.539491 32.844616 51.617064 0.664005 0.881087 0.024497 -0.000426 -27853.200000 0 0 1
31.660886 24.609691 34.248397 52.735199 0.660739 0.863947 0.018542 -0.007359 163294.000000 0 0 1
31.250146 23.481791 -33.879569 51.728052 0.644405 2.284920 0.012112 -0.008863 -414779.000000 0 0 1
31.785536 23.373891 -32.402649 51.054782 0.634067 2.258370 0.007767 -0.012461 -314898.000000 0 0 1
31.174106 24.176991 -31.363479 50.398607 0.659652 2.242485 -0.010562 -0.013009 342479.000000 0 0 1
31.565086 23.828391 -30.043639 49.666560 0.646628 2.220445 0.033868 -0.017623 -103724.000000 0 0 1
33.055406 24.131091 -29.711319 50.574024 0.630590 2.198740 0.031755 0.003525 174638.000000 0 0 1
33.451256 23.521291 -28.530619 49.862149 0.612838 2.179970 0.032596 0.002966 -88202.900000 0 0 1
34.575646 24.153991 -27.919589 50.580570 0.609775 2.155536 0.037447 0.012317 184760.000000 0 0 1
35.111986 23.278891 -26.775599 49.916841 0.585453 2.136967 0.027764 0.014455 -221816.000000 0 0 1
-35.275329 22.370991 -27.288079 49.894382 -0.565175 2.149473 0.019957 0.011691 -137626.000000 0 0 1
-35.131256 21.236891 -26.414549 48.815357 -0.543723 2.142555 0.001450 0.008435 -336322.000000 0 0 1
-34.131489 20.124791 -26.734219 47.798371 -0.532756 2.164352 0.013510 0.009859 306612.000000 0 0 1
-32.803495 20.435291 -26.295729 46.745436 -0.557132 2.168240 0.013582 0.008369 219971.000000 0 0 1
-32.057805 19.229191 -26.322859 45.720428 -0.540294 2.184299 -0.007514 -0.002276 -461183.000000 0 0 1
-30.675005 19.408491 -25.735219 44.496595 -0.564127 2.187518 -0.006249 -0.000258 -529103.000000 0 0 1
-30.902065 19.518791 -24.338809 43.912395 -0.563356 2.158268 -0.009184 -0.005062 405886.000000 0 0 1
-29.644755 19.778891 -23.740509 42.820880 -0.588370 2.158455 -0.002726 -0.001482 175546.000000 0 0 1
-29.715995 20.209891 -22.267109 42.276521 -0.597246 2.125512 -0.012399 -0.001957 50599.900000 0 0 1
-30.326345 19.165991 -21.520109 41.834645 -0.563611 2.111114 -0.024285 0.002043 -65434.700000 0 0 1
-30.846815 19.684491 -20.334909 41.863035 -0.567990 2.078016 -0.013887 0.003256 -455829.000000 0 0 1
-31.786175 18.730391 -19.584809 41.770243 -0.532487 2.058807 -0.007922 0.003273 548473.000000 0 0 1
-32.618865 19.239791 -18.498809 42.146955 -0.532913 2.025184 -0.015314 -0.001405 1468450.000000 0 0 1
-33.747835 20.050591 -18.871009 43.555224 -0.536092 2.018910 -0.013687 -0.000074 1543410.000000 0 0 1
-35.006510 20.177391 -17.887809 44.187742 -0.522878 1.987572 -0.002252 -0.003452 1163800.000000 0 0 1
-34.609998 20.928791 -16.720909 43.765912 -0.543871 1.962813 0.002451 -0.009031 365324.000000 0 0 1
-35.626840 20.825891 -15.736209 44.165798 -0.528986 1.935100 0.010657 0.002844 -564348.000000 0 0 1
-35.349928 21.543391 -14.380209 43.823801 -0.547326 1.905127 0.013915 0.005747 -279189.000000 0 0 1
-35.412002 22.983091 -14.354609 44.590214 -0.575686 1.898556 0.017455 -0.005020 289736.000000 0 0 1
34.630066 23.538991 -14.512709 44.316411 0.596990 1.904431 0.023864 0.001474 71764.000000 0 0 1
34.643456 25.047791 -14.731209 45.216915 0.626007 1.902643 0.011382 -0.002734 -118136.000000 0 0 1
35.156836 25.838391 -13.666509 45.720882 0.633797 1.874348 0.016607 0.002194 266022.000000 0 0 1
34.925396 27.251591 -13.801109 46.399387 0.662600 1.872808 0.021501 0.008711 452900.000000 0 0 1
-35.253900 27.888791 -14.668509 47.284112 -0.669281 1.886221 0.022757 0.011967 685187.000000 0 0 1
-35.284593 27.544191 -16.005509 47.537998 -0.662817 1.914194 0.025700 0.012857 -484798.000000 0 0 1
-34.138121 28.077191 -16.574109 47.206367 -0.688286 1.929541 0.024211 0.008079 -998931.000000 0 0 1
-33.994715 27.791391 -18.091209 47.489935 -0.685333 1.961618 0.019934 0.005869 -17283.500000 0 0 1
-33.492545 26.505191 -18.426609 46.516832 -0.669460 1.978092 0.015648 0.002184 620431.000000 0 0 1
-32.153325 26.181891 -18.048709 45.222601 -0.683389 1.981340 0.016783 0.008194 390779.000000 0 0 1
-31.788125 24.714391 -18.533609 44.325847 -0.660853 2.002173 0.007613 0.008015 -235398.000000 0 0 1
-31.634705 24.745191 -19.970809 44.854345 -0.663803 2.032235 0.005087 0.010484 272259.000000 0 0 1
-31.095805 23.513691 -20.438309 44.017806 -0.647438 2.053662 0.001158 0.013449 -89343.500000 0 0 1
-30.712115 23.522191 -21.948709 44.477784 -0.653595 2.086878 -0.002509 0.016189 271422.000000 0 0 1
-31.896795 23.451491 -22.724409 45.648403 -0.633981 2.091873 0.002226 0.018947 335811.000000 0 0 1
-31.567925 23.449591 -24.103309 46.123603 -0.638896 2.120671 0.011273 0.011501 326356.000000 0 0 1
-32.593605 24.198591 -25.048709 47.700657 -0.638641 2.123656 -0.005009 0.024103 340494.000000 0 0 1
-32.418665 25.613291 -25.081189 48.332976 -0.668662 2.116389 -0.014729 0.022962 49643.500000 0 0 1
-33.197185 26.198791 -26.131859 49.712210 -0.668113 2.124290 -0.008796 0.015162 84487.500000 0 0 1
-33.023965 27.703591 -26.331739 50.511699 -0.698011 2.119170 -0.012742 0.016734 -373888.000000 0 0 1
-31.717555 27.921991 -26.814899 50.046775 -0.721842 2.136247 -0.014195 0.002765 -378585.000000 0 0 1
-31.527835 29.281891 -27.182949 50.895444 -0.748481 2.134232 -0.013280 -0.000644 439816.000000 0 0 1
-30.168095 29.442691 -27.970969 50.590129 -0.773230 2.156629 -0.006753 0.003676 674172.000000 0 0 1
-29.136325 28.939891 -27.132989 49.220339 -0.782016 2.154665 -0.039414 0.007426 -1290450.000000 0 0 1
-27.944245 28.818091 -27.816269 48.837568 -0.800792 2.176775 0.017762 0.000690 -67805.500000 0 0 1
-26.874005 29.900091 -27.403329 48.653572 -0.838648 2.169090 0.009351 -0.008417 52848.100000 0 0 1
-26.314945 29.905291 -26.118299 47.633689 -0.849174 2.151145 0.018479 -0.010487 187843.000000 0 0 1
-27.202375 30.357691 -25.066509 47.852779 -0.840161 2.122132 0.001780 -0.008828 273310.000000 0 0 1
-26.483415 30.957391 -23.831309 47.198121 -0.863130 2.100086 -0.010055 -0.013302 149135.000000 0 0 1
-25.937285 32.246591 -24.085909 47.882318 -0.893413 2.097889 -0.001003 -0.009474 -603634.000000 0 0 1
-24.948985 32.589091 -23.173309 47.132822 -0.917409 2.084791 0.012872 0.003285 -213475.000000 0 0 1
-24.261585 33.944391 -23.623909 47.947213 -0.950243 2.085994 0.003103 0.012897 294648.000000 0 0 1
-25.103095 -33.804448 -23.371709 48.157480 0.932050 2.077524 -0.020814 0.009535 30120.900000 0 0 1
-24.353885 -32.656948 -23.701409 47.131144 0.930021 2.097726 -0.003713 0.010411 180769.000000 0 0 1
16.117515 8.615191 -25.115429 31.060917 0.490883 2.512542 0.015075 -0.002663 890849.000000 0 0 1
14.770115 8.085491 -25.120059 30.241508 0.500862 2.551067 0.021164 -0.004821 1044290.000000 0 0 1
14.823715 6.658591 -25.294689 30.064941 0.422176 2.570545 0.026563 -0.013278 94992.400000 0 0 1
13.436515 5.978891 -25.242949 29.214612 0.418666 2.614061 0.016144 -0.008469 293730.000000 0 0 1
12.799515 5.971691 -23.955209 27.809004 0.436536 2.608854 0.039291 -0.029524 412295.000000 0 0 1
11.539015 5.317091 -23.974409 27.132870 0.431793 2.654277 0.044638 -0.032817 -317451.000000 0 0 1
10.921715 5.600091 -22.614209 25.730280 0.473794 2.644337 0.061268 -0.039518 -816608.000000 0 0 1
11.430515 4.858491 -21.539909 24.864217 0.401909 2.618546 0.053804 -0.036984 107516.000000 0 1 0
11.006715 5.155191 -20.170309 23.549207 0.438023 2.599280 0.063025 -0.035677 -245736.000000 0 1 0
11.285315 6.610791 -19.688009 23.636383 0.529903 2.555220 0.054683 -0.035399 -203022.000000 0 1 0
10.910915 6.779191 -18.335909 22.387743 0.555950 2.530489 0.048914 -0.029354 100906.000000 0 1 0
11.353415 8.084291 -17.920209 22.702196 0.618773 2.480562 0.058147 -0.023559 951550.000000 0 1 0
12.878715 8.151791 -17.563109 23.254586 0.564307 2.426837 0.060220 -0.023667 456375.000000 0 1 0
13.251815 7.686991 -16.263209 22.342614 0.525637 2.386052 0.060988 -0.033013 553192.000000 0 1 0
14.654015 7.870291 -16.099909 23.149270 0.492865 2.339887 0.042304 -0.028148 79496.900000 0 1 0
15.102515 7.324991 -14.733509 22.334228 0.451590 2.291193 0.038498 -0.029020 -398802.000000 0 1 0
16.512015 7.231191 -14.767509 23.302705 0.412776 2.257156 0.031196 -0.025801 403462.000000 0 1 0
17.171915 7.599491 -13.563809 23.164711 0.416644 2.196339 0.040661 -0.024883 -82118.800000 0 1 0
17.592815 9.082391 -13.399609 23.907038 0.476567 2.165771 0.041360 -0.028545 -1228540.000000 0 1 0
16.537215 9.982891 -13.263709 23.432105 0.543108 2.172501 0.046770 -0.022275 61049.500000 0 1 0
16.946515 11.326391 -13.272209 24.323302 0.589175 2.147971 0.052384 -0.022926 234302.000000 0 1 0
15.667915 12.206991 -13.102409 23.794270 0.661871 2.153944 0.057535 -0.018560 143092.000000 0 1 0
15.121215 12.405591 -11.834409 22.860513 0.687063 2.114932 0.081421 -0.014805 244447.000000 0 1 0
15.766915 13.384991 -10.973609 23.413109 0.703872 2.058609 0.083435 -0.011279 49397.100000 0 1 0
15.276115 14.875291 -11.226809 24.097203 0.772105 2.055444 0.076333 -0.013684 -98367.900000 0 1 0
13.949115 15.138791 -10.862809 23.275769 0.826275 2.056353 0.078507 -0.022829 -163322.000000 0 1 0
13.593415 16.487991 -10.980409 24.025073 0.881328 2.045460 0.062643 -0.017173 149002.000000 0 1 0
12.581515 17.006191 -9.914809 23.362544 0.933843 2.009083 0.054777 -0.021514 322362.000000 0 1 0
12.945515 16.805791 -8.528909 22.864016 0.914429 1.953066 0.068806 -0.016296 438336.000000 0 1 0
11.784515 17.149891 -7.790909 22.219176 0.968748 1.929050 0.060858 -0.012144 269498.000000 0 1 0
11.880715 16.978991 -6.260409 21.647869 0.960251 1.864180 0.045959 -0.007706 22044.800000 0 1 0
12.696315 17.957391 -5.679909 22.713997 0.955371 1.823541 0.036871 -0.001267 141105.000000 0 1 0
13.301215 17.529491 -4.439209 22.447983 0.921693 1.769864 0.037193 -0.007219 -87064.300000 0 1 0
14.312715 18.591691 -3.958809 23.794473 0.914715 1.737949 0.031635 -0.012010 -425952.000000 0 1 0
15.417915 18.647791 -4.836709 24.674804 0.879929 1.768092 0.031779 -0.010192 -141114.000000 0 1 0
16.178415 19.781991 -4.489209 25.946508 0.885274 1.744689 0.026322 -0.015687 -712932.000000 0 0 1
17.566415 19.953991 -5.140909 27.077105 0.848947 1.761818 0.022225 -0.009472 -690153.000000 0 0 1
18.545115 19.212091 -4.524709 27.083181 0.803061 1.738651 0.027737 -0.023272 -607938.000000 0 0 1
18.572215 17.848491 -4.983109 26.235990 0.765530 1.761891 0.015753 -0.013867 -533575.000000 0 0 1
19.782415 17.021591 -4.483909 26.479878 0.710524 1.740949 0.040616 -0.018245 98814.800000 0 0 1
21.073715 17.378391 -4.900109 27.751054 0.689590 1.748301 0.034218 -0.024613 -69591.900000 0 0 1
21.997315 16.392691 -4.535409 27.805972 0.640431 1.734638 0.042531 -0.028732 347782.000000 0 0 1
23.519815 16.641491 -4.771509 29.204250 0.615776 1.734916 0.046890 -0.027375 697318.000000 0 0 1
24.000115 17.779491 -4.048209 30.141397 0.637593 1.705511 0.050414 -0.027220 1190630.000000 0 0 1
25.439415 17.797591 -3.948609 31.297118 0.610462 1.697299 0.041279 -0.015512 1003990.000000 0 0 1
26.042415 19.086191 -3.355909 32.461549 0.632460 1.674362 0.050409 -0.021060 -288817.000000 0 0 1
25.883315 20.231691 -4.169109 33.115688 0.663451 1.697027 0.046501 -0.020326 302898.000000 0 0 1
26.398915 21.392291 -3.528609 34.161146 0.681019 1.674274 0.062088 -0.002777 -188574.000000 0 0 1
26.246215 22.691191 -4.363709 34.968498 0.712881 1.695912 0.040574 -0.001722 175841.000000 0 0 1
27.370915 23.049291 -5.171509 36.154962 0.699895 1.714326 0.039254 0.007819 394183.000000 0 0 1
27.608315 22.286791 -6.358109 36.046437 0.679146 1.748111 0.031292 0.001586 -460585.000000 0 0 1
28.716315 22.942291 -7.149509 37.444504 0.674087 1.762912 0.029576 0.004882 -640958.000000 0 0 1
28.266215 24.110291 -7.780209 37.958091 0.706217 1.777228 0.011965 0.004514 100918.000000 0 0 1
29.274715 24.948291 -8.321909 39.353276 0.705777 1.783872 0.017452 0.006033 185292.000000 0 0 1
30.147315 24.402691 -9.480509 39.927834 0.680476 1.810527 0.022652 -0.003340 171294.000000 0 0 1
29.378915 24.260691 -10.636109 39.557914 0.690267 1.843021 0.021077 0.000950 243039.000000 0 0 1
30.229915 23.589291 -11.566809 40.051135 0.662631 1.863771 0.016188 -0.010029 521116.000000 0 0 1
29.502515 23.105891 -12.858709 39.618518 0.664403 1.901346 0.026186 -0.006434 120274.000000 0 0 1
29.640215 23.967891 -14.008109 40.610703 0.679979 1.922967 0.025429 0.000179 33714.600000 0 0 1
29.335415 23.285591 -15.228609 40.431372 0.670931 1.956977 0.028913 0.000054 -69484.100000 0 0 1
29.441515 24.100191 -16.487409 41.466331 0.685967 1.979706 0.031701 -0.003060 -1002540.000000 0 0 1
30.769415 24.250491 -16.845709 42.645294 0.667465 1.976885 0.030688 0.004098 -848421.000000 0 0 1
30.887815 24.854991 -18.111909 43.587486 0.677592 1.999322 0.035663 -0.007569 -440842.000000 0 0 1
32.259015 25.447191 -18.400109 45.019635 0.667899 1.991840 0.023143 -0.006424 -255962.000000 0 0 1
33.275015 24.463891 -18.377609 45.204481 0.633964 1.989464 0.028933 0.001830 294322.000000 0 0 1
34.552015 24.971091 -18.797509 46.591238 0.625806 1.986087 0.025329 -0.001665 1275000.000000 0 0 1
35.599015 23.759991 -18.884809 46.781011 0.588534 1.986338 0.011987 -0.009682 436513.000000 0 0 1
35.531515 22.861091 -19.984109 46.738449 0.571724 2.012603 0.011010 0.002125 -89957.700000 0 0 1
-34.735027 23.101991 -20.866709 46.643795 -0.586912 2.034611 0.014384 0.006288 -348622.000000 0 0 1
-34.700627 22.139391 -22.081509 46.710589 -0.567901 2.063183 0.021005 0.006411 -172543.000000 0 0 1
-34.412127 20.783291 -21.758409 45.711793 -0.543321 2.066887 0.013600 -0.001606 200049.000000 0 0 1
-34.229927 20.068491 -22.930609 45.828430 -0.530274 2.094808 0.002170 0.002526 53002.000000 0 0 1
-33.931527 18.588891 -22.766109 44.890880 -0.501180 2.102663 -0.004550 -0.003406 3327.590000 0 0 1
-35.062127 17.850891 -22.346909 45.248109 -0.470918 2.087337 -0.001808 -0.003998 92866.200000 0 0 1
-34.971227 16.468391 -22.655309 44.804661 -0.440108 2.100927 -0.005079 -0.001259 -636021.000000 0 0 1
35.021415 15.797391 -22.363609 44.454337 0.423750 2.097943 0.002667 -0.002670 -240462.000000 0 0 1
34.163515 16.095891 -23.492709 44.476183 0.440296 2.127286 0.021319 -0.005293 1322100.000000 0 0 1
32.983915 15.222491 -23.542309 43.288603 0.432386 2.145809 0.020148 -0.001865 927686.000000 0 0 1
33.169915 13.738791 -24.012709 43.192682 0.392683 2.160294 0.001637 -0.000853 -719572.000000 0 0 1
33.306115 13.662691 -25.408649 44.063203 0.389282 2.185408 0.001567 0.009766 219825.000000 0 0 1
33.655915 12.337191 -25.840119 44.188671 0.351358 2.195390 0.006324 0.012405 -597452.000000 0 0 1
33.803315 12.212391 -27.392299 45.190094 0.346686 2.222016 0.024519 0.011256 -181023.000000 0 0 1
32.582415 12.007891 -28.064559 44.647762 0.353094 2.250519 0.019607 0.012535 -85043.000000 0 0 1
31.895615 13.147991 -28.456249 44.720890 0.390996 2.260499 0.021420 0.011562 -306780.000000 0 0 1
32.124915 13.474291 -29.954169 45.943649 0.397147 2.280984 0.020909 0.006085 -36794.800000 0 0 1
33.409415 14.007491 -30.222699 47.178494 0.397005 2.266080 0.021862 0.008778 26529.100000 0 0 1
33.699115 13.909491 -31.596959 48.243881 0.391454 2.284903 0.024582 0.001368 -1041810.000000 0 0 1
35.125915 14.334491 -31.962969 49.607851 0.387460 2.270921 0.036863 -0.000721 190110.000000 0 0 1
-35.130927 13.509691 -31.528709 49.099422 -0.367119 2.268083 0.026473 0.001137 391356.000000 0 0 1
-34.915927 13.411191 -30.090089 48.004119 -0.366724 2.248265 0.011148 -0.000174 -677807.000000 0 0 1
-33.796827 12.393891 -29.709219 46.674101 -0.351490 2.260780 0.004162 0.001530 326367.000000 0 0 1
-34.204427 11.010891 -29.665309 46.596278 -0.311438 2.260937 0.004584 -0.000633 829279.000000 0 0 1
-33.085327 10.099991 -29.649119 45.560058 -0.296286 2.279394 0.006117 -0.005738 552891.000000 0 0 1
-33.472227 8.710191 -30.146289 45.880891 -0.254575 2.287702 0.009037 -0.001637 -533231.000000 0 0 1
-33.598427 8.749391 -31.566309 46.923747 -0.254753 2.308668 0.014948 -0.008720 398838.000000 0 0 1
-34.057427 7.496891 -32.225659 47.482679 -0.216670 2.316763 0.010503 -0.003775 -619258.000000 0 0 1
-35.320027 6.750291 -31.811559 48.010895 -0.188841 2.295068 0.006323 0.013065 -625285.000000 0 0 1
-35.159427 6.052391 -30.605629 47.005545 -0.170471 2.279838 0.006504 0.006934 -189179.000000 0 0 1
35.084115 5.230091 -30.361009 46.690897 0.147983 2.278717 0.007820 0.016994 -513576.000000 0 0 1
35.382815 4.373191 -29.101589 46.021418 0.122973 2.255378 0.001795 0.014180 690842.000000 0 0 1
-34.827027 3.489991 -29.242549 45.609522 -0.099876 2.266792 0.006450 0.010831 919875.000000 0 0 1
-35.167927 2.373791 -28.428739 45.283674 -0.067397 2.249510 0.016285 0.013081 69829.400000 0 0 1
-34.047827 1.313091 -28.244209 44.257362 -0.038547 2.262930 0.020809 0.013224 139604.000000 0 0 1
-33.130427 1.545691 -27.184719 42.883835 -0.046621 2.257402 0.026098 0.002759 66478.000000 0 0 1
-32.207127 0.459291 -27.179509 42.145411 -0.014260 2.271687 0.025075 0.003963 664292.000000 0 0 1
-31.162427 0.634491 -26.001969 40.590662 -0.020358 2.266063 0.027892 0.004266 689926.000000 0 0 1
-31.828327 0.500291 -24.750309 40.322084 -0.015717 2.231681 0.021588 0.001179 317442.000000 0 0 1
-30.904227 0.713391 -23.717309 38.962686 -0.023080 2.225241 0.031723 0.007683 -170625.000000 0 0 1
-31.425627 0.299591 -22.303909 38.537308 -0.009533 2.188005 0.037994 0.013986 -591247.000000 0 0 1
-31.341327 -1.095509 -22.036509 38.328666 0.034940 2.183322 0.046242 0.007471 199521.000000 0 0 1
-31.631727 -1.475709 -20.707209 37.835597 0.046619 2.149924 0.046084 -0.000621 505722.000000 0 0 1
-33.146027 -1.375109 -20.326109 38.906307 0.041463 2.120503 0.035338 0.002840 529953.000000 0 0 1
-34.005727 -2.408809 -20.798809 39.934725 0.070717 2.118608 0.045197 -0.000310 962070.000000 0 0 1
-35.352127 -2.237709 -20.316009 40.835284 0.063213 2.091524 0.042238 0.000711 765475.000000 0 0 1
35.167115 -3.525009 -20.311309 40.763966 -0.099902 2.092394 0.036154 -0.001727 -416456.000000 0 0 1
34.640015 -4.016109 -21.507009 40.970858 -0.115423 2.123434 0.027628 0.007946 -3891.650000 0 0 1
35.540615 -4.771209 -22.277609 42.216011 -0.133449 2.126693 0.035631 0.004298 -351593.000000 0 0 1
34.856015 -5.654009 -23.313809 42.313630 -0.160810 2.154330 0.038908 0.002938 -658578.000000 0 0 1
34.160715 -6.798509 -22.838309 41.650481 -0.196449 2.151165 0.044074 0.004100 400099.000000 0 0 1
33.510315 -7.538809 -23.880409 41.833585 -0.221286 2.178329 0.050652 0.008184 687338.000000 0 0 1
32.161715 -6.925309 -24.384909 40.950697 -0.212089 2.208647 0.020008 0.016113 -267958.000000 0 0 1
32.259315 -5.745309 -25.112299 41.283163 -0.176250 2.224706 0.007748 0.019290 268997.000000 0 0 1
30.997215 -5.276109 -25.592339 40.541738 -0.168597 2.253972 -0.025713 0.023911 461490.000000 0 0 1
31.102515 -4.001509 -26.468639 41.036171 -0.127953 2.271829 -0.000474 -0.002163 -119871.000000 0 0 1
31.558815 -4.375809 -27.768779 42.263597 -0.137777 2.287679 0.006131 -0.003367 227276.000000 0 0 1
31.202515 -3.465209 -28.739469 42.562445 -0.110602 2.312074 -0.003768 -0.003110 -238702.000000 0 0 1
30.861415 -3.839109 -30.192029 43.344254 -0.123763 2.341393 -0.002228 0.000852 89890.000000 0 0 1
30.342515 -2.773609 -30.949609 43.430858 -0.091157 2.364019 -0.002539 -0.012077 -5894.450000 0 0 1
29.803515 -3.244909 -32.179409 43.980602 -0.108450 2.391569 0.013293 -0.016588 -636528.000000 0 0 1
29.252715 -2.054809 -33.065299 44.195674 -0.070128 2.416076 0.023189 -0.020196 114453.000000 0 0 1
28.132015 -1.358609 -32.518779 43.020078 -0.048257 2.427821 0.022247 -0.018509 1333880.000000 0 0 1
26.889615 -2.072109 -32.291569 42.072443 -0.076908 2.445764 0.032635 -0.018568 437901.000000 0 0 1
26.045915 -2.324709 -33.536799 42.526590 -0.089018 2.479338 0.045859 -0.028447 -1094800.000000 0 0 1
26.490915 -3.460209 -34.260163 43.445373 -0.129883 2.479293 0.056236 -0.028936 331390.000000 0 0 1
25.889615 -3.557909 33.269305 42.305762 -0.136571 0.665835 0.058864 -0.028141 -251043.000000 0 0 1
26.493115 -4.771809 32.477773 42.183658 -0.178204 0.692091 0.054623 -0.035097 115255.000000 0 0 1
27.855515 -4.674609 32.146093 42.791973 -0.166267 0.720891 0.060762 -0.033071 -131538.000000 0 0 1
28.127815 -3.760609 31.019783 42.042158 -0.132909 0.740953 0.075760 -0.037726 -696743.000000 0 0 1
28.799315 -2.417809 31.321923 42.618179 -0.083757 0.745214 0.052790 -0.029773 9931.710000 0 0 1
30.157315 -2.613309 31.716443 43.843195 -0.086440 0.762073 0.052132 -0.030546 347391.000000 0 0 1
30.695515 -1.412209 32.248253 44.543897 -0.045975 0.761262 0.042732 -0.022882 -220129.000000 0 0 1
32.171715 -1.525409 32.653483 45.864976 -0.047379 0.778528 0.029620 -0.025266 -251119.000000 0 0 1
33.003515 -1.806509 31.528203 45.678474 -0.054682 0.809003 0.039042 -0.030305 41687.100000 0 0 1
34.317415 -1.960109 32.044743 46.993537 -0.057055 0.820444 0.028143 -0.021995 -17932.000000 0 0 1
35.393815 -2.395909 31.050223 47.144234 -0.067590 0.851811 0.012052 -0.018665 -233726.000000 0 0 1
-35.641627 -1.529709 30.000413 46.612126 0.042893 0.871580 0.013500 -0.009249 -205011.000000 0 0 1
-34.684127 -2.132209 29.179423 45.375915 0.061398 0.872309 0.011590 -0.010726 -344597.000000 0 0 1
-34.597427 -1.411409 27.837893 44.428845 0.040773 0.893649 0.017449 -0.005748 -399561.000000 0 0 1
35.630415 -1.563209 26.990763 44.726629 -0.043845 0.922962 0.029072 -0.019187 -299827.000000 0 0 1
-35.495427 -0.725409 25.831543 43.905810 0.020434 0.941792 0.033886 -0.020715 -497008.000000 0 0 1
-26.218575 15.609191 12.473191 32.964238 -0.536992 1.182745 0.058657 -0.026406 456085.000000 0 0 1
-27.326725 14.797591 12.883791 33.640908 -0.496299 1.177776 0.033542 -0.022588 656171.000000 0 0 1
-28.322745 15.586291 13.516591 35.040099 -0.503081 1.174780 0.040131 -0.024473 -262131.000000 0 0 1
-29.573105 14.793591 13.905791 35.871854 -0.463838 1.172713 0.039508 -0.022219 160296.000000 0 0 1
-30.540895 15.598791 14.585991 37.266871 -0.472211 1.168652 0.040553 -0.029689 -623182.000000 0 0 1
-31.513855 14.882691 15.238291 38.037127 -0.441209 1.158607 0.047724 -0.016242 -730899.000000 0 0 1
-32.439355 15.823791 16.006791 39.483179 -0.453837 1.153371 0.049751 -0.028820 -377570.000000 0 0 1
-31.989555 16.178091 17.284691 39.797271 -0.468221 1.121515 0.042570 -0.017684 340244.000000 0 0 1
-33.099245 16.456791 18.163391 41.186099 -0.461401 1.114075 0.056892 -0.022406 385978.000000 0 0 1
-32.794875 16.541691 19.668491 41.665104 -0.467160 1.079169 0.038585 -0.006930 -408600.000000 0 0 1
-32.079995 15.420391 20.141191 40.897214 -0.448077 1.055856 0.022531 -0.005639 1407450.000000 0 0 1
-30.677695 15.705491 20.419291 40.059092 -0.473163 1.035926 0.021995 0.000212 1365090.000000 0 0 1
-30.366975 16.367291 21.802791 40.809350 -0.494346 1.007165 0.036450 -0.006600 -566942.000000 0 0 1
-31.023035 17.590491 21.917991 41.859914 -0.515812 1.019721 0.022699 0.002179 -91240.300000 0 0 1
-31.223815 18.165391 23.225291 42.945572 -0.526915 0.999399 0.014494 -0.004064 -997560.000000 0 0 1
-31.978985 17.374691 24.282091 43.751060 -0.497697 0.982426 0.012034 -0.005234 -222125.000000 0 0 1
-33.275485 16.922291 23.980891 44.370091 -0.470465 0.999796 0.051047 -0.002241 740411.000000 0 0 1
-34.313753 17.940391 23.858491 45.480972 -0.481747 1.018572 0.052229 -0.006658 48063.200000 0 0 1
35.652633 17.290491 23.574391 46.106651 0.451552 1.034098 0.010806 -0.011232 -54110.100000 0 0 1
35.055046 16.806091 24.744391 46.082381 0.447048 1.003967 0.030303 0.001862 204640.000000 0 0 1
34.102816 15.741491 24.598491 44.898579 0.432450 0.990983 0.048538 0.000126 589684.000000 0 0 1
33.542976 15.019391 25.827591 44.919682 0.420994 0.958226 0.069503 -0.002105 -73572.900000 0 0 1
32.518096 15.752491 26.500091 44.808731 0.451108 0.937997 0.050432 0.000431 275094.000000 0 0 1
32.155566 15.257191 27.736091 45.122644 0.443024 0.908813 0.045316 0.009574 -110032.000000 0 0 1
31.165216 14.059491 27.743391 44.029941 0.423791 0.889111 0.044841 0.010034 -405914.000000 0 0 1
31.653386 12.917791 27.154291 43.659612 0.387471 0.899560 0.048095 0.004324 -36403.800000 0 0 1
30.906986 11.795991 27.634891 43.105387 0.364598 0.874865 0.041890 0.008746 -32792.200000 0 0 1
31.372676 10.454191 27.085491 42.745277 0.321654 0.884536 0.052783 -0.004146 38078.900000 0 0 1
32.576346 10.114491 27.744991 43.969373 0.301049 0.887945 0.049104 -0.003848 -102746.000000 0 0 1
33.034686 8.857391 27.401391 43.824423 0.261962 0.895340 0.039827 -0.002706 367962.000000 0 0 1
34.079696 8.307291 28.451591 45.165582 0.239098 0.889321 0.038500 -0.000645 701876.000000 0 0 1
35.356834 8.913991 28.420591 46.230887 0.246968 0.908723 0.038855 -0.001190 -604798.000000 0 0 1
-35.060161 8.169391 29.109391 46.295901 -0.228926 0.890828 0.044484 -0.002805 -75788.800000 0 0 1
-33.678995 8.893791 29.201091 45.454130 -0.258182 0.873132 0.043494 -0.002759 623391.000000 0 0 1
-32.871525 8.904391 28.015691 44.098801 -0.264536 0.882408 0.039903 0.002445 -506991.000000 0 0 1
-31.709945 9.588491 28.261391 43.544988 -0.293640 0.864506 0.027838 0.002217 -794543.000000 0 0 1
-30.992025 10.207191 27.042991 42.379426 -0.318160 0.878747 0.018498 0.005801 -77540.200000 0 0 1
-30.461995 9.401691 26.052691 41.171199 -0.299361 0.885646 0.020821 -0.000327 226841.000000 0 0 1
-29.791305 10.068691 25.006991 40.177730 -0.325921 0.898979 0.018008 0.003275 23666.500000 0 0 1
-28.973965 9.079491 24.139091 38.789477 -0.303675 0.899106 0.012717 0.005253 639444.000000 0 0 1
-28.107315 9.618591 23.110691 37.638311 -0.329718 0.909652 0.008401 0.002191 581395.000000 0 0 1
-27.358925 8.604791 22.480291 36.440591 -0.304719 0.905995 -0.003147 0.009172 339435.000000 0 0 1
-26.344575 9.040091 21.367791 35.104734 -0.330558 0.916392 0.007606 0.012747 -170914.000000 0 0 1
-25.137035 9.545291 21.909291 34.684292 -0.362911 0.887081 0.013381 0.002850 489701.000000 0 0 1
-24.261385 10.135791 20.942991 33.614847 -0.395735 0.898188 0.011012 -0.001440 500878.000000 0 0 1
-23.604785 9.343391 19.789691 32.188767 -0.376903 0.908663 0.014720 0.003029 -117499.000000 0 0 1
-24.553785 9.097091 18.706291 32.180285 -0.354817 0.950475 0.014243 0.008997 951992.000000 0 0 1
-24.194385 8.111591 17.735491 31.075936 -0.323490 0.963420 0.021570 0.011932 -408326.000000 0 0 1
-24.073385 6.667391 18.244491 30.932886 -0.270188 0.939974 0.016831 0.015730 86594.500000 0 0 1
-22.834085 6.471191 18.963991 30.379347 -0.276159 0.896639 0.028074 0.012247 1296700.000000 0 0 1
-22.617485 5.192091 19.591591 30.370032 -0.225651 0.869647 0.021161 0.011634 -248253.000000 0 0 1
-22.778985 3.971391 18.723891 29.752953 -0.172610 0.890129 0.017769 0.010154 -704887.000000 0 0 1
-24.127485 3.660691 18.449491 30.592808 -0.150574 0.923457 0.030432 0.003011 272013.000000 0 0 1
-24.332185 2.732891 17.367191 30.019048 -0.111847 0.953860 0.040034 0.006543 -183439.000000 0 0 1
-24.103585 1.255491 17.700891 29.931265 -0.052040 0.938021 0.035073 0.009449 -942056.000000 0 0 1
-22.817185 0.845191 18.066491 29.115913 -0.037025 0.901413 0.011509 0.013722 -55163.000000 0 0 1
-22.780485 -0.524609 18.395191 29.284958 0.023025 0.891630 0.008963 0.009473 -1022150.000000 0 0 1
-21.401885 -1.066609 18.667691 28.419378 0.049796 0.854143 0.010127 0.015001 -1211970.000000 0 0 1
-20.656485 -0.625809 19.733791 28.574543 0.030287 0.808468 -0.003869 0.016783 -293469.000000 0 0 1
-19.680385 -1.604309 20.035991 28.130629 0.081338 0.778100 -0.004796 0.011235 -368252.000000 0 0 1
-18.743085 -1.215209 21.188591 28.314949 0.064744 0.725273 0.004826 0.015280 96424.300000 0 0 1
-19.351685 -1.091409 22.492091 29.691296 0.056339 0.711273 0.006130 0.012210 -651236.000000 0 0 1
-18.432685 -0.751309 23.476191 29.857325 0.040737 0.666033 0.013412 0.008400 -751901.000000 0 0 1
-18.931785 -0.644809 24.952691 31.328343 0.034046 0.649330 0.016687 0.016913 186068.000000 0 0 1
-19.518785 0.609991 25.342191 31.993463 -0.031241 0.656546 0.029682 0.000195 14996.200000 0 0 1
-20.927985 0.574191 25.370891 32.893652 -0.027430 0.689914 0.006084 0.002519 -81170.800000 0 0 1
-21.633785 1.809391 25.977791 33.854692 -0.083443 0.696126 0.010109 -0.000258 -105463.000000 0 0 1
-21.260185 3.032391 25.350591 33.224138 -0.141677 0.702828 0.014037 0.004869 554182.000000 0 0 1
-22.339885 3.556491 24.586591 33.409872 -0.157874 0.743790 0.004073 0.000488 -62529.300000 0 0 1
-21.803885 4.352391 23.365591 32.253737 -0.197026 0.760588 0.007480 0.006937 311768.000000 0 0 1
-21.332085 3.552391 22.226791 31.011410 -0.165014 0.771695 0.013197 0.006098 847450.000000 0 0 1
-20.009785 3.022391 22.335691 30.139831 -0.149912 0.736135 0.008994 0.013072 -43534.700000 0 0 1
-19.668285 2.403991 20.964991 28.847035 -0.121623 0.757197 0.013479 0.014673 -582205.000000 0 0 1
-19.083185 3.258891 20.110991 27.914875 -0.169141 0.766360 0.014898 0.017597 -158324.000000 0 0 1
-18.800785 2.581591 18.909391 26.789908 -0.136460 0.787188 0.014959 0.007748 -82536.900000 0 0 1
-18.435985 3.424691 17.699391 25.785315 -0.183668 0.814251 0.010736 0.010688 517005.000000 0 0 1
-17.092285 3.926991 17.735391 24.942164 -0.225833 0.779791 0.011819 0.002103 696823.000000 0 1 0
-16.861585 4.713491 16.584491 24.115874 -0.272582 0.812480 0.015379 0.004771 60266.100000 0 1 0
-15.363485 5.114991 16.459591 23.089347 -0.321389 0.777221 0.008813 0.003669 -39244.500000 0 1 0
-14.815585 5.947691 17.439491 23.643444 -0.381754 0.741282 -0.001035 0.003053 66257.600000 0 1 0
-15.350785 7.290891 17.574391 24.447145 -0.443409 0.768617 -0.003996 -0.004959 -654673.000000 0 1 0
-14.937885 8.292091 16.513791 23.761407 -0.506754 0.802399 -0.013550 0.006146 -167063.000000 0 1 0
-15.361785 8.150091 15.145891 23.060929 -0.487783 0.854259 -0.010848 0.005436 -1428280.000000 0 1 0
-16.681785 8.340191 14.912791 23.879532 -0.463614 0.896304 0.006495 0.005149 -1593820.000000 0 1 0
-17.094085 7.593391 13.567291 23.107114 -0.418030 0.943266 0.001390 0.003008 -112200.000000 0 1 0
-16.873885 6.191891 13.655391 22.572931 -0.351695 0.921099 0.000787 0.001485 227257.000000 0 1 0
-17.349785 5.492291 12.550591 22.106506 -0.306582 0.967047 -0.005349 0.005191 -371214.000000 0 1 0
-17.124485 4.017491 12.700991 21.695700 -0.230438 0.945404 0.004488 0.012228 -248884.000000 0 1 0
-17.846185 3.324691 13.691791 22.737745 -0.184186 0.924591 0.017282 0.009018 114438.000000 0 1 0
-17.733385 1.937791 13.562491 22.409131 -0.108842 0.920752 0.014937 0.003488 -402267.000000 0 1 0
-18.561585 1.241891 14.632791 23.668403 -0.066807 0.904293 0.024101 0.006974 454823.000000 0 1 0
-19.846985 0.912691 14.106291 24.366437 -0.045954 0.953389 0.033363 0.005595 493369.000000 0 1 0
-20.807785 0.518591 15.050491 25.685602 -0.024918 0.944744 0.024807 0.004145 -341002.000000 0 0 1
-22.140585 0.076291 14.461891 26.445370 -0.003446 0.992188 0.036854 0.002791 -546445.000000 0 0 1
-22.087185 -1.178109 13.832591 26.087780 0.053289 1.011921 0.035220 -0.000221 1033370.000000 0 0 1
-23.350785 -1.499709 13.219291 26.874857 0.064137 1.056545 0.055988 -0.007467 651406.000000 0 0 1
-23.326585 -2.731209 12.236991 26.482693 0.116555 1.090463 0.054373 -0.014405 -211737.000000 0 0 1
-23.051385 -4.002309 12.750791 26.645215 0.171912 1.071806 0.041704 -0.013320 150700.000000 0 0 1
-23.067185 -5.009709 11.778591 26.380436 0.213858 1.107958 0.057415 -0.018930 -236880.000000 0 0 1
-23.143785 -6.402209 12.428191 27.038547 0.269879 1.093198 0.052797 -0.019987 -262676.000000 0 0 1
-24.203185 -6.778009 13.261791 28.418492 0.273052 1.085285 0.041793 -0.020509 -155802.000000 0 0 1
-24.206885 -8.201609 13.489691 28.900025 0.326674 1.085160 0.048759 -0.023727 373103.000000 0 0 1
-25.145975 -8.387809 14.759791 30.340185 0.321959 1.062744 0.041765 -0.016545 88297.500000 0 0 1
-26.455345 -7.958009 14.532191 31.215377 0.292199 1.086545 0.050151 -0.020937 -351303.000000 0 0 1
-27.179205 -8.006009 15.756191 32.420101 0.286462 1.063289 0.037494 -0.011138 -681874.000000 0 0 1
-28.623405 -7.480309 15.717091 33.500467 0.255619 1.082457 0.037455 -0.014206 230850.000000 0 0 1
-29.649855 -8.156209 14.991691 34.210941 0.268445 1.117186 0.031204 -0.007646 663758.000000 0 0 1
-29.758335 -9.607309 15.090591 34.721533 0.312281 1.121183 0.026203 -0.010779 -900616.000000 0 0 1
-30.097715 -10.266009 16.451291 35.803748 0.328715 1.093381 0.014696 -0.006198 -358236.000000 0 0 1
-29.055175 -10.208009 17.399391 35.371535 0.337861 1.056521 0.025904 0.013024 -69964.400000 0 0 1
-29.355055 -10.931109 18.526491 36.392847 0.356468 1.036693 0.023012 0.017056 -305235.000000 0 0 1
-28.150675 -11.102609 19.457191 35.976530 0.375669 0.999373 0.020496 0.021332 81371.600000 0 0 1
-27.264845 -12.118809 18.941891 35.341655 0.418258 1.005146 0.013169 0.016962 -35289.000000 0 0 1
-26.081705 -12.092609 19.699091 34.850261 0.434142 0.970061 0.011632 0.010014 -685880.000000 0 0 1
-24.947785 -12.942809 19.188291 34.030851 0.478571 0.971756 0.032063 0.010610 -642626.000000 0 0 1
-24.577285 -12.512809 17.892491 32.874832 0.470918 0.995288 0.025087 0.014070 149228.000000 0 0 1
-23.419885 -13.223009 17.495991 32.085023 0.513988 0.994048 0.028147 0.005458 -86459.500000 0 0 1
-23.298985 -13.106309 15.979091 31.144011 0.512410 1.032037 0.020076 -0.001695 -335066.000000 0 0 1
-22.799985 -11.915509 15.415891 29.991138 0.481572 1.030938 0.025576 -0.006633 -23862.600000 0 0 1
-22.660585 -11.944009 14.045191 29.213505 0.485079 1.069255 0.024254 -0.015636 503489.000000 0 0 1
-21.332285 -11.275309 13.559491 27.677767 0.486231 1.058815 0.040346 -0.025015 238652.000000 0 0 1
-21.225685 -9.828709 13.663591 27.089241 0.433659 1.042119 0.041044 -0.027208 449486.000000 0 0 1
-19.916585 -9.321609 13.407391 25.755017 0.437748 1.023273 0.047206 -0.021619 355094.000000 0 0 1
-19.278585 -9.335409 11.981791 24.543370 0.450958 1.060783 0.049143 -0.010751 -386557.000000 0 1 0
-18.752485 -10.567109 11.647191 24.473998 0.513152 1.074809 0.045976 -0.016532 202088.000000 0 1 0
-18.309985 -10.525209 10.283791 23.490252 0.521710 1.117658 0.045777 -0.011192 -1076090.000000 0 1 0
-17.751485 -11.816809 9.720591 23.435915 0.587319 1.143103 0.028946 -0.007011 1764110.000000 0 1 0
-16.306985 -12.002909 9.819991 22.503773 0.634519 1.119235 0.036803 -0.010242 1905740.000000 0 1 0
-15.609785 -11.810409 11.031691 22.468853 0.647714 1.057585 0.037389 -0.009822 -583814.000000 0 1 0
-14.119385 -12.214809 10.992791 21.665642 0.713201 1.038651 0.026947 -0.007688 126313.000000 0 1 0
-13.801485 -13.583209 10.779391 22.162577 0.777428 1.062857 0.028315 -0.010820 999462.000000 0 1 0
-12.418785 -13.985609 10.723991 21.559858 0.844668 1.050191 0.027137 -0.008470 1012500.000000 0 1 0
-12.406785 -15.535009 10.629091 22.544232 0.896889 1.079831 0.035833 -0.007936 -23491.300000 0 1 0
-12.783885 -16.082109 9.377291 22.583081 0.899165 1.142595 0.024808 -0.009587 239556.000000 0 1 0
-12.415885 -17.460809 9.459691 23.420500 0.952678 1.155013 0.026733 -0.010222 211205.000000 0 1 0
-12.685385 -18.250409 8.210691 23.694132 0.963384 1.216929 0.016385 -0.011804 -359938.000000 0 1 0
-11.775885 -17.971009 7.204891 22.661401 0.990724 1.247244 0.009834 -0.015352 -524458.000000 0 1 0
-12.163885 -18.610609 6.010791 23.031381 0.991895 1.306756 0.000514 -0.013238 -549348.000000 0 1 0
-11.189085 -18.539209 4.839591 22.188275 1.027781 1.350914 0.007652 -0.007406 -703167.000000 0 1 0
-11.615285 -19.043309 3.602591 22.595158 1.023100 1.410672 0.017635 -0.013026 429310.000000 0 1 0
-10.714785 -18.869409 2.460791 21.838423 1.054360 1.457875 0.018062 -0.022324 554803.000000 0 1 0
-11.050585 -19.858209 1.331391 22.764809 1.062996 1.512278 0.027125 -0.015519 -98228.000000 0 1 0
-10.853885 -21.173609 1.835691 23.864164 1.097109 1.493798 0.017002 -0.016232 -220834.000000 0 1 0
-11.231085 -22.182009 0.876891 24.878661 1.102109 1.535542 0.022772 -0.012286 -906083.000000 0 1 0
-10.284785 -22.453409 -0.236609 24.697943 1.141268 1.580377 0.030895 -0.009766 -823306.000000 0 1 0
-10.326285 -21.635609 -1.389709 24.013810 1.125488 1.628700 0.033178 -0.013962 -79556.500000 0 1 0
-11.369685 -21.914109 -2.315309 24.796342 1.092199 1.664306 0.045684 -0.002184 830758.000000 0 1 0
-12.561585 -20.878709 -2.323909 24.476815 1.029168 1.665883 0.046998 -0.000192 475728.000000 0 1 0
-13.056685 -20.783609 -1.015809 24.565572 1.009885 1.612159 0.030693 -0.004380 -183083.000000 0 1 0
-14.110385 -19.831909 -0.951609 24.358021 0.952394 1.609874 0.042150 0.003536 280566.000000 0 1 0
25.631915 -20.535909 -4.080209 33.096325 -0.675463 1.694394 0.026195 -0.029201 -505475.000000 0 0 1
24.340315 -20.740509 -3.580209 32.178216 -0.705715 1.682289 0.001808 -0.024048 -361140.000000 0 0 1
24.336115 -21.478409 -2.358009 32.544259 -0.723103 1.643315 -0.008532 -0.029963 -59275.900000 0 0 1
22.948415 -21.805509 -1.710409 31.702295 -0.759866 1.624775 -0.008315 -0.023488 518754.000000 0 0 1
22.223415 -22.667409 -2.589609 31.849611 -0.795288 1.652194 0.007917 -0.027297 -427333.000000 0 0 1
21.058715 -23.152809 -1.991709 31.360628 -0.832728 1.634349 -0.001495 -0.019548 -876547.000000 0 0 1
20.130715 -23.821009 -2.971009 31.329109 -0.869164 1.665771 0.012581 -0.020324 -688238.000000 0 0 1
19.438815 -22.838309 -3.681909 30.216094 -0.865635 1.692952 0.019614 -0.024369 -473304.000000 0 0 1
18.483115 -23.437509 -4.533309 30.190947 -0.903038 1.721521 0.022143 -0.018045 -43931.100000 0 0 1
17.715315 -22.390309 -5.379409 29.053337 -0.901442 1.757027 0.022931 -0.000494 80838.200000 0 0 1
16.728415 -21.597809 -4.717109 27.722849 -0.911772 1.741781 0.018565 0.005126 513734.000000 0 0 1
17.286815 -20.641409 -3.826609 27.194571 -0.873614 1.711977 0.011171 -0.001751 -35849.400000 0 0 1
16.313615 -20.184409 -2.695609 26.092350 -0.891058 1.674291 0.030682 0.011035 212671.000000 0 0 1
15.897715 -21.184009 -1.786609 26.546027 -0.927002 1.638150 0.024883 0.008541 553349.000000 0 0 1
14.986715 -20.657809 -0.804609 25.534175 -0.943177 1.602313 0.033227 0.015885 212104.000000 0 0 1
14.688615 -21.469009 0.458991 26.017003 -0.970769 1.553153 0.026496 0.012525 -82626.700000 0 0 1
13.833115 -22.603309 0.324991 26.502269 -1.021604 1.558533 0.043647 0.002693 93999.900000 0 0 1
13.279615 -22.891009 1.562991 26.510176 -1.045120 1.511804 0.056303 0.004360 510.916000 0 0 1
12.227515 -24.002609 1.650991 26.988204 -1.099638 1.509584 0.054254 -0.000351 175722.000000 0 0 1
12.885015 -25.227129 1.769991 28.382469 -1.098578 1.508394 0.034654 0.000173 191041.000000 0 0 1
11.954015 -26.257909 1.545691 28.892308 -1.143582 1.517272 0.040871 -0.001845 58638.100000 0 0 1
12.374815 -27.575349 2.185691 30.303683 -1.148971 1.498607 0.038489 -0.002408 -122730.000000 0 0 1
12.155015 -27.547439 3.579991 30.321975 -1.155252 1.452454 0.060266 -0.005680 68474.800000 0 0 1
12.457315 -28.742429 4.222091 31.609144 -1.161822 1.436824 0.068528 -0.008378 -252318.000000 0 0 1
11.947415 -28.914769 5.638091 31.789820 -1.178968 1.392498 0.067896 -0.006980 -160977.000000 0 0 1
12.297615 -30.165229 6.184291 33.157471 -1.183691 1.383185 0.056759 -0.005220 -130232.000000 0 0 1
11.921415 -30.170929 7.506491 33.297936 -1.194496 1.343408 0.045805 -0.007132 -114249.000000 0 0 1
12.097115 -31.566629 8.112391 34.764970 -1.204834 1.335275 0.033415 -0.002284 174993.000000 0 0 1
11.778815 -31.669749 9.500991 35.099606 -1.214723 1.296690 0.038463 -0.004034 125367.000000 0 0 1
10.747715 -32.590989 9.798791 35.688966 -1.252251 1.292663 0.041973 -0.000498 -117208.000000 0 0 1
10.692115 -32.843939 11.268991 36.332297 -1.256073 1.255430 0.038730 -0.000689 25058.800000 0 0 1
11.862715 -33.451959 11.806391 37.405193 -1.230012 1.249670 0.034014 0.001191 498553.000000 0 0 1
11.701615 -33.758719 13.207091 38.092075 -1.237131 1.216730 0.044679 0.004482 105325.000000 0 0 1
10.592215 34.082891 13.596091 38.192829 1.269481 1.206828 0.038631 0.002541 -208252.000000 0 0 1
10.867015 32.774709 13.161891 36.952793 1.250636 1.206618 0.045035 0.003840 208173.000000 0 0 1
9.829515 31.820189 13.368191 35.886659 1.271187 1.189083 0.039346 0.006165 -79993.400000 0 0 1
9.804515 30.671979 12.406591 34.508293 1.261404 1.203038 0.043605 0.004664 -133208.000000 0 0 1
9.442215 30.982229 11.051891 34.222774 1.274976 1.241962 0.006599 0.006281 319530.000000 0 0 1
10.467015 31.618479 10.266491 34.852367 1.251110 1.271790 0.017089 0.003053 260452.000000 0 0 1
10.107915 31.929779 8.783091 34.624030 1.264211 1.314323 0.011167 0.000058 -45029.400000 0 0 1
9.046115 32.864417 8.801391 35.204639 1.302193 1.318109 0.014024 0.001334 282679.000000 0 0 1
8.377215 32.988531 7.507091 34.853656 1.322110 1.353706 0.002691 0.003187 129020.000000 0 0 1
8.778215 34.199770 6.685791 35.935792 1.319546 1.383658 0.020618 0.008573 -364814.000000 0 0 1
8.378415 -33.429719 7.111991 35.189834 -1.325227 1.367291 0.021429 0.004919 -134830.000000 0 0 1
8.729815 -32.397459 6.209691 34.122797 -1.307588 1.387796 0.044431 -0.003227 -13740.700000 0 0 1
8.089815 -31.035039 6.639691 32.752164 -1.315803 1.366656 0.034280 -0.005362 290191.000000 0 0 1
8.550715 -30.498779 7.902491 32.645668 -1.297451 1.326299 0.034648 -0.007325 225210.000000 0 0 1
7.892215 -29.259359 8.141691 31.379680 -1.307333 1.308336 0.047014 -0.005328 215760.000000 0 0 1
8.604215 -27.983869 7.543991 30.233115 -1.272500 1.318604 0.057459 -0.014390 -391484.000000 0 0 1
9.389315 -27.282899 8.434191 30.060795 -1.239346 1.286407 0.059884 -0.013059 -134841.000000 0 0 1
10.093315 -26.156449 7.865691 29.118790 -1.202519 1.297274 0.066564 -0.022852 138543.000000 0 0 1
9.279115 -24.987209 7.209291 27.612252 -1.215225 1.306645 0.048064 -0.020383 -244615.000000 0 0 1
9.044615 -25.378699 5.898691 27.580392 -1.228444 1.355259 0.054717 -0.017014 -422202.000000 0 0 1
8.344415 -24.396509 5.177791 26.298830 -1.241236 1.372619 0.056514 -0.022039 128843.000000 0 0 1
8.081115 -24.871109 3.730991 26.415844 -1.256637 1.429082 0.063327 -0.012307 441632.000000 0 0 1
7.149115 -25.937669 3.546691 27.137641 -1.301848 1.439729 0.044029 -0.009768 213944.000000 0 0 1
7.705515 -27.215919 3.908191 28.554425 -1.294892 1.433497 0.050618 -0.007004 165781.000000 0 0 1
6.790115 -28.374499 3.411391 29.374402 -1.335910 1.454399 0.047548 -0.002861 974318.000000 0 0 1
5.543915 -28.340189 4.149391 29.173940 -1.377616 1.428083 0.033407 0.001597 409315.000000 0 0 1
4.495815 -29.172329 3.712991 29.749344 -1.417887 1.445661 0.028050 0.008092 84264.800000 0 0 1
4.631315 -30.734669 3.976491 31.334988 -1.421235 1.443551 0.029307 0.005364 -237961.000000 0 0 1
5.535315 -31.497379 3.196491 32.139418 -1.396834 1.471175 0.040229 -0.000379 -52767.800000 0 0 1
5.668015 -32.792769 3.792291 33.494381 -1.399644 1.457331 0.024370 0.007588 183691.000000 0 0 1
6.755715 -33.620169 3.080291 34.430273 -1.372495 1.481212 0.023412 0.004392 307303.000000 0 0 1
6.291415 -33.934619 1.755991 34.557543 -1.387480 1.519961 0.028798 0.002114 3007.360000 0 0 1
7.208515 34.037149 1.142491 34.810853 1.362096 1.537970 0.011401 0.002853 -275761.000000 0 0 1
6.831915 33.435726 -0.228009 34.127333 1.369241 1.577478 0.029981 0.001263 617198.000000 0 0 1
5.733415 32.527039 -0.164709 33.028888 1.396322 1.575783 0.005495 0.002467 141658.000000 0 0 1
4.430915 32.997382 -0.372109 33.295626 1.437314 1.581972 0.017717 0.000005 -415665.000000 0 0 1
3.306515 31.984959 -0.231409 32.156247 1.467785 1.577993 0.028015 0.002282 -436249.000000 0 0 1
3.239615 31.081469 -1.286509 31.276316 1.466942 1.611942 0.025017 0.001147 246082.000000 0 0 1
2.132715 30.217009 -1.084409 30.311583 1.500333 1.606579 0.015252 -0.000313 143722.000000 0 0 1
1.875915 29.125589 -2.192309 29.268160 1.506477 1.645771 0.005370 0.002058 -89407.300000 0 0 1
1.566915 29.748219 -3.430909 29.986379 1.518172 1.685463 0.014691 -0.013809 92632.200000 0 0 1
1.714415 28.810569 -4.452809 29.203007 1.511360 1.723871 0.025958 -0.024899 -485938.000000 0 0 1
1.495815 29.452559 -5.813909 30.058148 1.520053 1.765445 0.021002 -0.020787 66074.500000 0 0 1
0.153515 29.895329 -5.956109 30.483266 1.565661 1.767451 0.029209 -0.016296 155402.000000 0 0 1
-0.139085 30.817979 -6.938309 31.589671 -1.566283 1.792240 0.022016 -0.014527 -344157.000000 0 0 1
-0.134785 30.451599 -8.450009 31.602543 -1.566370 1.841473 0.034087 -0.023754 -831381.000000 0 0 1
-1.113985 29.536209 -8.836909 30.849953 -1.533098 1.861314 0.027571 -0.016830 -312800.000000 0 0 1
-1.132185 29.143679 -10.195809 30.896446 -1.531967 1.907099 0.039014 -0.021635 129745.000000 0 0 1
-1.520785 30.325089 -11.160409 32.349321 -1.520689 1.923032 0.034265 -0.024698 -525776.000000 0 0 1
-0.399785 31.115609 -11.449409 33.157653 -1.557949 1.923357 0.030301 -0.022427 -502426.000000 0 0 1
-0.551785 32.488019 -11.779709 34.562080 -1.553814 1.918593 0.027954 -0.031686 -65087.300000 0 0 1
-0.796585 33.402851 -10.597809 35.052797 -1.546953 1.877941 0.027043 -0.031377 -367530.000000 0 0 1
0.339115 33.582181 -9.817209 34.989362 1.560699 1.855191 0.019150 -0.036713 -506596.000000 0 0 1
0.115915 -34.219201 -8.875909 35.351789 -1.567409 1.824586 0.025183 -0.021086 1267.110000 0 0 1
1.206715 -34.051484 -7.782209 34.950287 -1.535373 1.795344 0.020130 -0.023328 863335.000000 0 0 1
2.406915 -33.421629 -8.253709 34.509742 -1.498904 1.812308 0.025221 -0.022366 512984.000000 0 0 1
3.279315 -33.003059 -7.201509 33.938438 -1.471757 1.784615 0.022597 -0.023948 -1316920.000000 0 0 1
4.548715 -32.362009 -7.737109 33.583528 -1.431154 1.803269 0.018601 -0.016956 -355767.000000 0 0 1
5.473715 -33.157339 -8.438509 34.649375 -1.407189 1.816810 0.033868 -0.017592 61602.700000 0 0 1
6.102215 -34.064964 -7.546209 35.420391 -1.393542 1.785489 0.036535 -0.014327 -1842710.000000 0 0 1
6.427915 33.446721 -8.270709 35.048622 1.380928 1.809021 0.025541 -0.018449 101567.000000 0 0 1
5.334615 32.562829 -8.464809 34.065363 1.408414 1.821915 0.023609 -0.020237 -142377.000000 0 0 1
4.377315 32.937311 -9.444109 34.542996 1.438672 1.847724 0.028925 -0.026624 72959.000000 0 0 1
3.369315 31.814179 -9.613609 33.405325 1.465284 1.862711 0.023708 -0.030664 -70425.900000 0 0 1
4.040115 30.792929 -10.335609 32.731511 1.440339 1.892064 0.009956 -0.025442 153416.000000 0 0 1
3.213215 29.654999 -10.525009 31.630990 1.462864 1.910008 0.007549 -0.026981 102968.000000 0 0 1
3.776215 28.609889 -11.516109 31.070988 1.439565 1.950493 0.005725 -0.023348 -99881.200000 0 0 1
3.825015 29.231259 -12.783109 32.132618 1.440682 1.979940 0.014330 -0.024273 -97316.200000 0 0 1
5.090315 29.039339 -13.382909 32.377412 1.397269 1.996916 0.020037 -0.022696 -101248.000000 0 0 1
5.234215 29.396459 -14.870709 33.356960 1.394587 2.032870 0.022216 -0.023160 -859423.000000 0 0 1
4.324415 28.686919 -15.616209 32.947016 1.421178 2.064601 0.028410 -0.024159 -486057.000000 0 0 1
4.334015 29.231769 -16.920409 34.052610 1.423605 2.090808 0.041145 -0.020779 260724.000000 0 0 1
3.186915 28.671829 -17.813609 33.905086 1.460099 2.123977 0.035857 -0.015249 189116.000000 0 0 1
3.407715 27.338619 -18.216909 33.028297 1.446788 2.155023 0.047185 -0.007619 55194.800000 0 0 1
2.428415 26.857769 -19.130109 33.063545 1.480624 2.187790 0.047854 -0.016051 275078.000000 0 0 1
2.948615 25.686079 -20.019609 32.699446 1.456502 2.229675 0.054142 -0.009374 215023.000000 0 0 1
2.940815 24.435379 -19.330209 31.295257 1.451022 2.236576 0.056425 -0.013072 -799128.000000 0 0 1
3.980715 23.632429 -19.712409 31.030902 1.403920 2.259130 0.059966 -0.008344 -756926.000000 0 0 1
4.318715 22.485229 -18.738509 29.586628 1.381038 2.256663 0.061944 -0.005605 472629.000000 0 0 1
3.345815 21.457529 -18.658209 28.631256 1.416115 2.280584 0.066585 -0.005729 608518.000000 0 0 1
4.080215 20.436529 -17.942209 27.499505 1.373734 2.281617 0.050166 -0.003953 742770.000000 0 0 1
3.162815 19.250729 -17.673209 26.323683 1.407955 2.306866 0.046292 -0.015251 482689.000000 0 0 1
2.221415 19.474529 -16.579109 25.672141 1.457220 2.272869 0.053062 -0.020230 298277.000000 0 0 1
1.440915 18.329529 -16.337209 24.595778 1.492346 2.297257 0.034822 -0.014651 51665.100000 0 1 0
2.156815 17.248229 -15.414009 23.232411 1.446396 2.296243 0.026522 -0.007144 696207.000000 0 1 0
3.280615 16.566129 -15.999809 23.263554 1.375294 2.329199 0.030905 -0.014841 26667.700000 0 1 0
3.013215 15.409929 -16.789309 22.987525 1.377696 2.389654 0.037479 -0.018202 -819037.000000 0 1 0
3.077515 15.585029 -18.308509 24.239755 1.375838 2.426922 0.034762 -0.018504 -543486.000000 0 1 0
4.332615 16.017529 -18.825109 25.094173 1.306626 2.419128 0.035918 -0.015562 -210634.000000 0 0 1
4.441515 16.568429 -20.126909 26.444893 1.308883 2.435786 0.037240 -0.014064 -513942.000000 0 0 1
4.744015 15.522729 -21.292309 26.773555 1.274194 2.490256 0.024710 -0.015539 -255192.000000 0 0 1
3.836915 14.495529 -21.507309 26.218441 1.312034 2.532753 0.016739 -0.013200 710129.000000 0 0 1
2.557015 14.876529 -22.086809 26.752132 1.400577 2.542078 0.022448 -0.009887 1225210.000000 0 0 1
1.751015 13.691129 -22.678709 26.548765 1.443593 2.594861 0.034769 -0.002695 200074.000000 0 0 1
1.176315 12.786729 -21.734909 25.244612 1.479060 2.607974 0.032157 -0.005760 304652.000000 0 0 1
0.260515 11.899629 -22.356309 25.327329 1.548907 2.652363 0.024801 0.000204 -255309.000000 0 0 1
-0.401385 10.915529 -21.430209 24.053352 -1.534041 2.670218 0.014135 -0.002759 -591545.000000 0 1 0
-1.360585 11.592429 -20.592609 23.670470 -1.453962 2.625939 0.016506 0.004510 393277.000000 0 1 0
-1.962485 10.830329 -19.546209 22.432157 -1.391539 2.628739 0.007753 0.008612 158958.000000 0 1 0
-2.936685 9.682329 -19.828409 22.260670 -1.276311 2.669761 -0.002334 0.000452 -424356.000000 0 1 0
-2.388685 8.625529 -20.558309 22.422080 -1.300635 2.730984 0.001128 -0.002413 -755473.000000 0 1 0
-3.403585 7.802829 -21.038209 22.695259 -1.159479 2.757095 -0.002051 0.007787 -255518.000000 0 1 0
-2.945185 6.549729 -21.815609 22.967235 -1.148221 2.823577 -0.004103 -0.000090 41960.900000 0 1 0
-2.429685 5.449929 -21.067209 21.895945 -1.151424 2.865585 0.008776 -0.002360 187697.000000 0 1 0
-2.253985 4.311929 -21.909309 22.443062 -1.089129 2.923064 0.012960 -0.004783 -533662.000000 0 1 0
-1.603185 3.079929 -21.228409 21.510498 -1.090863 2.979465 0.015028 -0.002032 511498.000000 0 1 0
-0.196985 3.317829 -21.069009 21.329556 -1.511494 2.985130 0.021470 -0.002805 314163.000000 0 1 0
0.312415 2.366029 -20.181509 20.322131 1.439514 3.023884 0.025928 -0.007545 702327.000000 0 1 0
1.875615 2.376929 -20.070809 20.297909 0.902742 2.991865 0.027745 -0.013360 901420.000000 0 1 0
2.536115 1.851029 -21.215009 21.446091 0.630492 2.994661 0.039330 -0.018213 732989.000000 0 1 0
3.968315 1.984429 -21.077109 21.539035 0.463702 2.934117 0.043255 -0.017389 1435400.000000 0 1 0
4.763315 1.242129 -22.206609 22.745671 0.255089 2.923447 0.053168 -0.010626 309971.000000 0 1 0
6.165515 1.402829 -22.166309 23.050526 0.223720 2.863716 0.050231 -0.011718 -17419.100000 0 1 0
6.763215 0.810629 -23.296309 24.271716 0.119289 2.857131 0.047245 -0.010271 -1138150.000000 0 1 0
8.261115 0.727029 -23.238709 24.674120 0.087780 2.798817 0.038723 -0.017474 -733352.000000 0 1 0
8.810415 2.020029 -23.716209 25.380357 0.225382 2.777456 0.040612 -0.019331 175826.000000 0 0 1
10.216515 2.067829 -23.625809 25.823090 0.199703 2.726082 0.042988 -0.020757 -483417.000000 0 0 1
13.532015 -20.836709 22.401173 33.452899 -0.994821 0.837081 0.012465 0.010376 -403475.000000 0 0 1
12.645715 -21.916609 22.524873 33.876566 -1.047466 0.843423 0.010998 0.014526 742178.000000 0 0 1
11.313415 -21.768609 21.999173 32.951924 -1.091503 0.839797 -0.001761 0.015109 899821.000000 0 0 1
11.130515 -21.603509 20.488373 31.786371 -1.095049 0.870343 0.005131 -0.000388 -451304.000000 0 0 1
11.469015 -20.277509 20.049973 30.736250 -1.056053 0.860151 0.001550 -0.004772 -7263.970000 0 0 1
11.136815 -20.155209 18.704973 29.667105 -1.065995 0.888605 0.030113 -0.017141 67515.200000 0 0 1
11.306615 -18.747109 18.087173 28.397878 -1.028091 0.880300 0.040512 -0.019528 204090.000000 0 0 1
10.362515 -17.851509 18.634673 27.808436 -1.044850 0.836441 0.048809 -0.019265 -123185.000000 0 0 1
10.675915 -16.577809 18.162573 26.808170 -0.998659 0.826436 0.049352 -0.016696 -328581.000000 0 0 1
9.792715 -15.469509 18.706673 26.175228 -1.006441 0.774643 0.045213 -0.006948 -567506.000000 0 0 1
8.517715 -15.668509 18.150473 25.445890 -1.072865 0.776605 0.031740 -0.005615 -949092.000000 0 0 1
7.691715 -14.642309 18.658873 24.934178 -1.087108 0.725263 0.019401 0.001083 1315840.000000 0 1 0
6.150615 -14.860609 18.311573 24.371735 -1.178376 0.720699 0.006885 0.004966 1061420.000000 0 1 0
5.854715 -14.821909 16.927373 23.248712 -1.194604 0.755251 0.003731 0.001249 724959.000000 0 1 0
4.438615 -14.918909 16.673273 22.809498 -1.281620 0.751040 -0.016818 0.002865 958310.000000 0 1 0
3.856515 -16.373909 16.820073 23.788494 -1.339484 0.785454 -0.023600 0.013542 -1212070.000000 0 1 0
2.535515 -16.386109 16.425573 23.339513 -1.417278 0.790111 -0.008473 0.011494 -956466.000000 0 1 0
1.861315 -17.642209 16.348873 24.124628 -1.465682 0.826188 -0.001238 0.003955 538351.000000 0 1 0
0.367415 -17.561409 15.985873 23.750499 -1.549878 0.832437 0.006304 0.003964 45828.300000 0 1 0
0.026115 -17.181709 14.661173 22.586762 -1.569276 0.864389 0.003613 -0.003847 -709929.000000 0 1 0
-1.344885 -17.320109 14.452873 22.598240 1.493303 0.876874 0.005734 0.002510 -630267.000000 0 1 0
-1.729285 -18.081009 13.160573 22.430203 1.475445 0.943776 0.000262 0.004212 -217748.000000 0 1 0
-3.132285 -18.163909 13.204473 22.673705 1.400030 0.949156 -0.004506 0.001210 -541371.000000 0 1 0
-3.463885 -19.259109 12.366273 23.148142 1.392842 1.007208 0.014160 -0.008356 184431.000000 0 1 0
-4.947385 -19.709109 12.368873 23.788960 1.324858 1.024014 0.010199 -0.006593 122.997000 0 1 0
-5.385885 -20.188209 13.586373 24.923103 1.310085 0.994250 0.000932 -0.004512 -182776.000000 0 1 0
-5.396985 -21.590209 13.585173 26.073387 1.325842 1.022732 -0.033508 0.007753 -236108.000000 0 0 1
-6.193685 -22.195409 14.758673 27.364509 1.298666 1.001148 -0.014389 0.001456 440281.000000 0 0 1
-7.590285 -22.015509 14.559673 27.464143 1.238788 1.012038 0.006600 0.000822 145052.000000 0 0 1
-8.391585 -22.649909 15.528473 28.715337 1.215985 0.999441 0.005024 -0.003104 1011130.000000 0 0 1
-9.891885 -22.184309 15.412573 28.767001 1.151361 1.005374 0.029753 -0.008335 931657.000000 0 0 1
-10.125385 -20.898609 15.946273 28.170178 1.119625 0.969067 0.017994 0.003209 -1152760.000000 0 0 1
-11.465185 -20.541309 15.904373 28.396213 1.061715 0.976305 0.033037 -0.002851 -607726.000000 0 0 1
-11.799885 -19.281809 16.744673 28.132002 1.021622 0.933259 0.032292 0.006226 -581487.000000 0 0 1
-11.956785 -19.608909 18.105573 29.245270 1.023229 0.903208 0.035305 0.004624 -64854.000000 0 0 1
-12.355685 -18.524909 18.900973 29.207567 0.982579 0.866988 0.023584 0.001853 -220047.000000 0 0 1
-12.813985 -18.948309 20.326873 30.600954 0.976182 0.844298 0.026843 0.003469 155587.000000 0 0 1
-14.034185 -19.684409 20.324673 31.583645 0.951426 0.871710 0.031275 0.001639 410627.000000 0 0 1
-14.129685 -20.407809 21.479573 32.825276 0.965212 0.857459 0.019892 0.007842 -1140810.000000 0 0 1
-15.485785 -21.016609 21.618473 33.894923 0.935774 0.879147 0.034008 -0.000438 -1555790.000000 0 0 1
-15.628385 -22.165209 20.775873 34.164013 0.956665 0.917104 0.029068 -0.002158 920806.000000 0 0 1
-16.815385 -22.187809 19.941473 34.244976 0.922280 0.949219 0.042330 -0.003336 791922.000000 0 0 1
-18.019585 -22.879009 20.626773 35.687789 0.903660 0.954547 0.053053 -0.008059 -369790.000000 0 0 1
-18.387185 -22.172809 21.800773 36.124725 0.878462 0.922930 0.043125 -0.003576 20834.000000 0 0 1
-19.228685 -22.971209 22.632573 37.545334 0.873852 0.923782 0.051811 0.001705 15695.100000 0 0 1
-19.649585 -22.171009 23.856333 38.036620 0.845617 0.892851 0.035214 0.007472 -505020.000000 0 0 1
-20.664085 -21.280709 23.497773 37.842018 0.800098 0.900850 0.049967 0.012158 -146948.000000 0 0 1
-20.705785 -20.114209 24.273523 37.716241 0.770907 0.871626 0.043223 0.011330 31958.000000 0 0 1
-21.828185 -19.146409 23.851193 37.575711 0.720042 0.883111 0.034198 0.006080 -47148.500000 0 0 1
-21.449185 -18.413109 22.726573 36.271301 0.709381 0.893650 0.043718 0.005618 -430443.000000 0 0 1
-22.427185 -17.552109 22.231073 36.128600 0.664057 0.907990 0.039905 0.002880 -537418.000000 0 0 1
-22.087185 -16.902909 20.885273 34.781413 0.653210 0.926705 0.045459 0.007692 -247163.000000 0 0 1
-21.109585 -15.899809 20.900773 33.693632 0.645548 0.901648 0.044306 0.009974 -460189.000000 0 0 1
-21.219985 -15.352309 19.588173 32.705927 0.626313 0.928647 0.035790 0.012600 231016.000000 0 0 1
-20.120685 -14.335309 19.201773 31.289793 0.619044 0.910089 0.026833 0.007775 50710.500000 0 0 1
-20.036085 -14.243309 17.837273 30.372436 0.617993 0.943096 0.022373 0.007620 527116.000000 0 0 1
-19.256085 -13.046909 17.505773 29.111351 0.595498 0.925621 0.039557 -0.006729 65569.400000 0 0 1
-18.918185 -13.042709 15.971973 27.984172 0.603595 0.963377 0.045035 -0.015673 64480.100000 0 0 1
-18.342985 -11.873809 15.416073 26.741499 0.574490 0.956376 0.042454 -0.017306 639242.000000 0 0 1
-16.981685 -11.629309 15.779673 25.934852 0.600462 0.916709 0.052635 -0.022191 327614.000000 0 0 1
-16.395985 -10.346509 15.123373 24.588513 0.562930 0.908336 0.049174 -0.026426 160511.000000 0 1 0
-17.035085 -9.167709 15.638373 24.875685 0.493712 0.890966 0.047459 -0.017511 273130.000000 0 1 0
-16.784285 -8.024009 14.884173 23.825103 0.445948 0.896015 0.050210 -0.011614 -969589.000000 0 1 0
-16.874585 -6.667809 15.671773 23.975316 0.376309 0.858382 0.042176 -0.006012 357583.000000 0 1 0
-16.031885 -6.514909 16.821173 24.133322 0.385987 0.799577 0.036661 -0.001782 -130656.000000 0 1 0
-14.660785 -6.549209 16.499773 23.023320 0.420120 0.771802 0.040216 -0.004298 -1085220.000000 0 1 0
-13.829185 -6.401009 17.770973 23.409971 0.433499 0.708836 0.040596 -0.003494 -289845.000000 0 1 0
-13.794785 -7.550609 18.637673 24.385870 0.500808 0.700870 0.045409 -0.014388 188700.000000 0 1 0
-13.140985 -8.731409 18.091073 24.004373 0.586460 0.717187 0.051458 -0.012115 -286715.000000 0 1 0
-13.329085 -9.999209 18.999773 25.271329 0.643616 0.719961 0.056777 -0.013139 881285.000000 0 0 1
-14.684185 -10.436609 19.188573 26.320134 0.617896 0.753870 0.059871 -0.013354 438736.000000 0 0 1
-15.378085 -9.665909 20.168673 27.142046 0.561149 0.733137 0.043824 -0.012893 -239319.000000 0 0 1
-16.754885 -10.422809 20.436673 28.408075 0.556494 0.767863 0.032037 -0.002360 1457050.000000 0 0 1
-17.731485 -10.427109 19.385773 28.265498 0.531591 0.815031 0.037728 -0.006230 565822.000000 0 0 1
-18.183685 -9.136509 18.977473 27.825648 0.465611 0.820284 0.031260 -0.010082 -540829.000000 0 0 1
-19.330385 -9.016009 17.929673 27.864411 0.436422 0.871785 0.033369 -0.016141 269276.000000 0 0 1
-20.624485 -9.212709 18.444573 29.162401 0.420096 0.886048 0.021093 -0.008714 -326411.000000 0 0 1
-21.587385 -9.257309 17.436373 29.253035 0.405110 0.932219 0.022088 -0.012254 -22089.000000 0 0 1
-23.056485 -9.452709 17.863173 30.660205 0.389081 0.948851 0.020990 -0.004040 170197.000000 0 0 1
-23.595985 -8.340709 18.596573 31.179648 0.339772 0.931746 0.023429 -0.001650 -310129.000000 0 0 1
-24.954485 -8.477909 18.837573 32.395299 0.327501 0.950236 0.017822 0.007425 -881136.000000 0 0 1
-25.573905 -7.398609 19.753773 33.150801 0.281614 0.932440 0.033082 -0.004381 -135832.000000 0 0 1
-25.257895 -7.554209 21.121973 33.781135 0.290615 0.895332 0.040135 -0.010354 380445.000000 0 0 1
-26.023025 -6.634909 21.868773 34.633265 0.249644 0.887390 0.039690 -0.014427 -545069.000000 0 0 1
-25.891655 -6.854509 23.408873 35.571582 0.258801 0.852533 0.031145 -0.010115 37931.800000 0 0 1
-24.714785 -6.400909 24.021933 35.054893 0.253423 0.815827 0.017125 -0.012154 492989.000000 0 0 1
-23.505085 -7.130709 23.757173 34.172201 0.294545 0.802071 0.021737 -0.007965 756785.000000 0 0 1
-22.387685 -6.863109 24.854133 34.147308 0.297462 0.755614 0.024990 -0.007176 523155.000000 0 0 1
-21.976885 -5.531809 24.839823 33.624413 0.246588 0.739592 0.015864 -0.006028 -277947.000000 0 0 1
-21.246385 -5.186009 25.957313 33.942387 0.239408 0.700149 0.021205 -0.009885 -143777.000000 0 0 1
-20.726585 -3.724209 25.987333 33.448506 0.177786 0.681013 0.015118 -0.009076 -66233.800000 0 0 1
-19.699785 -3.469509 26.923203 33.540690 0.174331 0.638983 0.017409 -0.007473 -349238.000000 0 0 1
-19.958485 -3.357409 28.315203 34.804655 0.166659 0.620571 0.015315 -0.008245 -370992.000000 0 0 1
-20.878485 -2.205709 28.727283 35.581358 0.105255 0.631117 0.018715 -0.009503 669087.000000 0 0 1
-22.256885 -2.380509 28.399983 36.160680 0.106551 0.667482 0.020355 -0.007338 130161.000000 0 0 1
-23.046785 -1.306309 28.787513 36.899616 0.056620 0.675879 0.024332 0.001759 569289.000000 0 0 1
-24.291885 -0.937109 27.909103 37.012050 0.038558 0.716583 0.027172 -0.008264 -185032.000000 0 0 1
-24.036985 -0.303609 26.687203 35.917623 0.012630 0.733238 0.019297 -0.009868 476585.000000 0 0 1
-25.188635 0.033491 25.892243 36.123077 -0.001330 0.771625 0.024541 -0.012269 364534.000000 0 0 1
-26.154975 -1.078709 25.428503 36.494590 0.041220 0.799905 0.023320 -0.009239 -262151.000000 0 0 1
-27.022035 -1.622209 26.403353 37.814798 0.059961 0.797877 0.020424 -0.006510 94052.800000 0 0 1
-27.479435 -2.907409 26.028413 37.961173 0.105411 0.815288 0.014263 -0.005518 -232511.000000 0 0 1
-26.454795 -4.011009 26.283623 37.506975 0.150471 0.794325 0.020218 -0.016046 -181433.000000 0 0 1
-26.265425 -4.370209 27.636323 38.376264 0.164876 0.766791 0.009745 -0.011357 -736866.000000 0 0 1
-25.106145 -5.141909 27.661333 37.708183 0.202013 0.747246 0.015321 -0.013927 -522562.000000 0 0 1
-24.830285 -5.602109 29.052203 38.625861 0.221901 0.719487 0.004629 -0.008098 -46710.900000 0 0 1
-25.862395 -6.345009 29.700473 39.890358 0.240585 0.730932 0.014033 -0.007357 110652.000000 0 0 1
-25.397265 -7.262409 30.649313 40.461637 0.278520 0.711335 0.018246 -0.009268 -246028.000000 0 0 1
-26.514015 -7.957709 31.507333 41.940793 0.291578 0.720867 0.007254 -0.008909 769094.000000 0 0 1
-27.298665 -8.943309 30.789073 42.108988 0.316591 0.750752 0.007348 -0.012775 1714590.000000 0 0 1
-28.705685 -8.876409 31.157373 43.284973 0.299895 0.767254 0.014063 -0.006962 1417020.000000 0 0 1
-29.536565 -9.761609 30.167213 43.333110 0.319192 0.800748 0.011866 -0.014447 -64057.900000 0 0 1
-29.317135 -11.136109 30.408393 43.682693 0.363016 0.800818 0.021923 -0.017935 266559.000000 0 0 1
-30.062555 -11.882909 29.457833 43.734708 0.376425 0.831785 0.011671 -0.009542 80135.800000 0 0 1
-29.296875 -13.110409 28.805933 43.127387 0.420775 0.839377 0.011212 -0.015402 -401484.000000 0 0 1
-28.192345 -12.686009 28.055583 41.747561 0.422838 0.833851 0.014703 -0.016673 -919731.000000 0 0 1
-27.427315 -13.842709 27.813463 41.442332 0.467405 0.835056 0.016433 -0.015132 -340663.000000 0 0 1
-26.177125 -13.310709 27.034723 39.916076 0.470414 0.826725 0.027206 -0.019834 628680.000000 0 0 1
-25.185955 -12.455409 27.696873 39.453597 0.459268 0.792578 0.023980 -0.023203 563878.000000 0 0 1
-25.624095 -11.266009 28.407703 39.881259 0.414226 0.778017 0.031636 -0.028645 -1154210.000000 0 0 1
-25.761335 -10.008909 27.474463 38.970126 0.370575 0.788354 0.030171 -0.023393 -159242.000000 0 0 1
-24.562785 -9.495809 26.931763 37.667236 0.368896 0.774184 0.029259 -0.021564 38356.400000 0 0 1
-24.007785 -10.355009 25.898023 36.800918 0.407211 0.790158 0.022861 -0.022510 -262244.000000 0 0 1
-24.700285 -10.333409 24.508333 36.297959 0.396226 0.829562 0.025936 -0.012340 -217154.000000 0 0 1
-25.980055 -10.937609 24.555643 37.384143 0.398478 0.854167 0.022306 -0.011792 -386344.000000 0 0 1
-26.599385 -10.888709 23.289773 36.993307 0.388549 0.889800 0.030605 0.001787 760276.000000 0 0 1
-27.987425 -11.655609 23.356273 38.270938 0.394614 0.914373 0.034127 -0.004837 294886.000000 0 0 1
-29.031325 -11.088109 24.033163 39.285582 0.364838 0.912519 0.033376 -0.008891 -835264.000000 0 0 1
-28.937615 -11.011209 25.460763 40.085942 0.363597 0.882588 0.035012 -0.017205 -658393.000000 0 0 1
-30.282335 -10.657209 26.138743 41.398427 0.338392 0.887446 0.014149 -0.015136 -223504.000000 0 0 1
-30.752495 -9.360709 25.764223 41.196286 0.295478 0.895150 0.016653 -0.015691 282066.000000 0 0 1
-32.143465 -9.135909 25.966293 42.319210 0.276920 0.910208 0.009386 -0.006771 971908.000000 0 0 1
-32.832025 -9.168409 27.416743 43.745621 0.272315 0.893445 -0.002173 -0.008011 -76044.600000 0 0 1
-33.063115 -10.479109 27.823083 44.464652 0.306927 0.894723 0.004506 -0.016065 -59703.000000 0 0 1
-33.740875 -10.480009 29.017033 45.719421 0.301156 0.883207 0.006520 -0.016913 -1063940.000000 0 0 1
-34.171053 -11.867009 29.588643 46.733014 0.334252 0.885190 0.014522 -0.013157 1562320.000000 0 0 1
-35.397467 -12.511909 29.057513 47.474915 0.339762 0.912133 0.009602 -0.020002 1208460.000000 0 0 1
34.769106 -11.878509 29.482993 47.108774 -0.329208 0.894576 0.001741 -0.011780 -684885.000000 0 0 1
33.550656 -12.444009 28.693603 45.867448 -0.355173 0.894926 -0.002393 -0.007528 21194.300000 0 0 1
33.505806 -12.041409 27.318513 44.876895 -0.345009 0.916321 0.006903 -0.007698 30369.700000 0 0 1
32.412416 -12.565309 26.589043 43.765613 -0.369832 0.917846 0.016417 -0.001335 -95594.900000 0 0 1
32.394766 -12.123909 25.118743 42.747647 -0.358118 0.942700 0.022790 -0.015590 -111983.000000 0 0 1
32.231026 -10.730509 24.921273 42.131375 -0.321383 0.937862 0.023554 -0.026228 115083.000000 0 0 1
32.301716 -10.365009 23.549673 41.296748 -0.310502 0.963980 0.021471 -0.027208 -592821.000000 0 0 1
31.928846 -8.903109 23.195873 40.456954 -0.271935 0.960211 0.042495 -0.010986 687962.000000 0 0 1
30.525366 -8.645609 23.422373 39.435417 -0.275999 0.934846 0.048185 -0.022076 602531.000000 0 0 1
30.122036 -7.404009 22.967473 38.596130 -0.241022 0.933441 0.058615 -0.008617 1908750.000000 0 0 1
28.531476 -7.182309 23.105673 37.409929 -0.246609 0.905065 0.065649 0.003030 1404420.000000 0 0 1
27.818066 -7.836909 22.115173 36.391521 -0.274603 0.917634 0.060984 0.006793 -281107.000000 0 0 1
26.478176 -7.515609 22.464373 35.527824 -0.276568 0.886273 0.067737 -0.012905 -102752.000000 0 0 1
14.487015 -17.298809 26.464093 34.777444 -0.873629 0.706012 0.022526 0.006508 43429.900000 0 0 1
13.695415 -18.458009 26.267603 34.903430 -0.932450 0.718826 -0.000913 0.018356 707162.000000 0 0 1
14.507615 -19.655909 26.140993 35.779563 -0.934968 0.751578 0.019681 0.010934 411031.000000 0 0 1
13.625215 -21.001909 26.151043 36.202261 -0.995293 0.763588 -0.010924 0.003989 820526.000000 0 0 1
12.933015 -21.371709 27.345883 37.037955 -1.026601 0.740220 0.001309 0.002331 313620.000000 0 0 1
11.742315 -20.667509 27.602853 36.427261 -1.054123 0.710934 0.004431 0.005497 -460313.000000 0 0 1
11.031415 -21.111109 28.899213 37.450441 -1.089279 0.689341 -0.001309 0.004335 -234615.000000 0 0 1
11.551215 -20.624109 30.168623 38.326626 -1.060245 0.664630 0.005023 0.005237 188955.000000 0 0 1
10.865615 -19.613509 30.943043 38.212867 -1.064898 0.627063 0.007739 0.004275 -327855.000000 0 0 1
10.715915 -18.234409 30.369083 37.008184 -1.039488 0.608328 0.010676 -0.000536 -108468.000000 0 0 1
11.872115 -17.445509 30.415693 37.019012 -0.973260 0.606543 0.014804 0.001145 -295417.000000 0 0 1
11.562815 -16.283409 29.782783 35.858921 -0.953325 0.590694 0.027682 -0.001425 -170603.000000 0 0 1
12.640515 -15.217709 29.987623 35.925183 -0.877647 0.583164 0.034044 -0.007657 -63666.700000 0 0 1
12.232215 -13.995109 29.497423 34.865285 -0.852513 0.562284 0.048201 -0.008473 183931.000000 0 0 1
12.900015 -12.949309 30.230383 35.326633 -0.787305 0.543819 0.045848 -0.005622 173103.000000 0 0 1
12.424115 -11.482309 29.901723 34.355714 -0.746023 0.514870 0.048011 -0.004811 202023.000000 0 0 1
12.831515 -11.006609 28.581333 33.206713 -0.708993 0.534135 0.055760 -0.004074 850380.000000 0 0 1
14.213915 -10.652109 28.455613 33.544369 -0.643126 0.558034 0.051485 -0.003153 313617.000000 0 0 1
14.471015 -9.644409 27.413363 32.464093 -0.587862 0.565313 0.046205 -0.004268 -305293.000000 0 0 1
14.465015 -8.307309 27.687993 32.324495 -0.521311 0.542223 0.039253 -0.000767 1836810.000000 0 0 1
15.722415 -7.834609 28.328043 33.332468 -0.462293 0.555070 0.039360 -0.003683 1382940.000000 0 0 1
16.104015 -6.348609 28.081143 32.987796 -0.375518 0.552417 0.035279 -0.003701 59794.500000 0 0 1
17.402015 -6.079409 28.591463 34.018540 -0.336096 0.572652 0.034224 -0.009041 170739.000000 0 0 1
17.766915 -4.844709 28.040093 33.546703 -0.266209 0.581113 0.032118 -0.008180 400423.000000 0 0 1
19.256315 -4.835909 27.566443 33.972054 -0.246045 0.624176 0.036653 -0.012541 -763020.000000 0 0 1
19.548415 -5.732809 26.576603 33.486138 -0.285264 0.653995 0.035857 -0.008108 677274.000000 0 0 1
20.883015 -5.712409 26.057823 33.878342 -0.267011 0.693273 0.046090 -0.001738 1051910.000000 0 0 1
22.057615 -6.029809 27.047943 35.418754 -0.266847 0.701831 0.059196 -0.013746 -517695.000000 0 0 1
22.369315 -4.922709 27.867423 36.072324 -0.216613 0.687960 0.049778 -0.015552 -609323.000000 0 0 1
23.340515 -5.284009 28.781853 37.431209 -0.222635 0.693636 0.063019 -0.028355 -513000.000000 0 0 1
23.991115 -4.060809 29.470033 38.217098 -0.167674 0.690195 0.059436 -0.026858 56977.000000 0 0 1
24.880315 -3.320309 28.631623 38.076559 -0.132667 0.719783 0.055176 -0.020325 324110.000000 0 0 1
25.298215 -2.200209 29.339213 38.802448 -0.086753 0.713436 0.047830 -0.029632 -504010.000000 0 0 1
26.146415 -1.191909 28.486323 38.684961 -0.045554 0.743112 0.049094 -0.026701 682519.000000 0 0 1
27.477115 -1.670609 28.246283 39.441542 -0.060725 0.772518 0.053572 -0.026972 247115.000000 0 0 1
28.134115 -0.777909 27.406203 39.284011 -0.027643 0.798694 0.046514 -0.005302 -576019.000000 0 0 1
29.622715 -0.705909 27.731483 40.583724 -0.023825 0.818502 0.046033 -0.013442 -528757.000000 0 0 1
29.942715 0.180691 28.799383 41.545195 0.006034 0.804868 0.029830 -0.006462 71585.000000 0 0 1
31.344515 0.154691 28.990713 42.696182 0.004935 0.824397 0.026774 -0.010810 193653.000000 0 0 1
31.845915 1.288191 29.935343 43.725810 0.040429 0.816721 0.033854 -0.016115 -76444.600000 0 0 1
32.069615 2.508891 29.293983 43.507380 0.078074 0.832119 0.028829 -0.010635 92529.100000 0 0 1
32.340515 3.467891 30.279093 44.438256 0.106822 0.821157 0.027635 -0.005318 -248696.000000 0 0 1
32.751615 4.820291 29.717053 44.486028 0.146128 0.839267 0.031062 -0.005681 -30193.000000 0 0 1
32.607415 5.910791 30.639343 45.132585 0.179324 0.824568 0.032703 -0.002677 119518.000000 0 0 1
31.273215 6.323291 30.842303 44.376183 0.199505 0.802350 0.032269 -0.004830 -147614.000000 0 0 1
31.095315 7.181991 32.072693 45.245521 0.226987 0.782917 0.023401 -0.003844 -324827.000000 0 0 1
31.470315 6.476091 33.180762 46.187481 0.202951 0.769307 0.021478 0.000895 78239.100000 0 0 1
31.414915 7.442391 34.226538 47.050419 0.232618 0.756207 0.029871 -0.004119 -77565.300000 0 0 1
31.619715 6.870891 -33.168769 46.337703 0.213971 2.368573 0.031778 0.003939 33050.500000 0 0 1
30.658815 5.978091 -32.611229 45.157422 0.192571 2.377727 0.029658 0.008342 221393.000000 0 0 1
30.770415 4.633091 -33.016649 45.369407 0.149447 2.385802 0.028139 -0.003973 119872.000000 0 0 1
31.740015 3.740091 -32.161809 45.340917 0.117294 2.359348 0.029630 -0.008803 109933.000000 0 0 1
31.650815 2.349791 -32.423919 45.371865 0.074105 2.366886 0.032321 -0.016794 96548.800000 0 0 1
32.024915 1.536891 -31.312919 44.815802 0.047954 2.344379 0.018242 -0.011256 -10425.900000 0 0 1
31.955715 0.031591 -31.627429 44.960683 0.000989 2.351031 0.014158 -0.021285 -902798.000000 0 0 1
32.870115 -0.285009 -32.685489 46.355872 -0.008671 2.353359 0.014304 -0.023376 294218.000000 0 0 1
33.386715 -1.639309 -32.647409 46.724869 -0.049061 2.344397 0.006695 -0.016201 465482.000000 0 0 1
34.367415 -2.001709 -31.516789 46.673698 -0.058179 2.312111 0.012166 -0.013137 -720568.000000 0 0 1
33.737915 -1.606709 -30.334029 45.398037 -0.047587 2.302555 0.012193 -0.016337 -673611.000000 0 0 1
34.570015 -1.588209 -29.181019 45.267430 -0.045910 2.271344 0.021592 -0.017445 -162551.000000 0 0 1
33.874815 -0.970009 -27.914839 43.905378 -0.028627 2.259835 0.023396 -0.014615 -51448.500000 0 0 1
33.643215 0.413591 -28.021879 43.786558 0.012293 2.265249 0.023046 -0.004621 217347.000000 0 0 1
33.039115 0.784691 -26.801579 42.550247 0.023746 2.252196 0.020596 -0.001028 -52052.900000 0 0 1
32.396015 2.216991 -26.758199 42.076336 0.068328 2.260028 0.020970 -0.005967 -201203.000000 0 0 1
31.335715 2.344991 -27.648549 41.855326 0.074695 2.292380 0.027405 -0.011269 -118499.000000 0 0 1
30.819615 3.624491 -27.766869 41.641141 0.117066 2.300721 0.028302 -0.000827 222094.000000 0 0 1
29.655415 3.815691 -28.782889 41.502504 0.127965 2.337162 0.032123 -0.006517 -49916.800000 0 0 1
29.014515 5.055091 -28.769509 41.171357 0.172495 2.344480 0.028233 -0.002949 228133.000000 0 0 1
28.091615 5.229391 -29.834339 41.310690 0.184048 2.377766 0.026992 -0.002451 370455.000000 0 0 1
26.852215 6.057291 -29.371529 40.254428 0.221865 2.388602 0.020951 -0.004480 562767.000000 0 0 1
25.823915 5.324991 -28.680079 38.958658 0.203354 2.398186 0.028059 -0.009922 767242.000000 0 0 1
24.789215 6.195891 -28.282989 38.115898 0.244925 2.406884 0.024837 -0.012446 371290.000000 0 0 1
23.376615 5.614691 -27.961589 36.876027 0.235719 2.431435 0.038553 -0.012710 629485.000000 0 0 1
22.565115 5.151391 -29.051779 37.144678 0.224444 2.468865 0.029444 -0.016058 493448.000000 0 0 1
21.310715 4.716391 -28.568239 35.951846 0.217805 2.489186 0.035896 -0.013660 -173369.000000 0 0 1
20.447415 4.049691 -29.665929 36.256918 0.195524 2.529094 0.033281 -0.013760 -298729.000000 0 0 1
20.804215 2.786691 -30.150179 36.737097 0.133156 2.533433 0.036885 -0.019112 -134728.000000 0 0 1
20.172515 2.383491 -31.365299 37.368347 0.117610 2.566891 0.018786 -0.014869 -366075.000000 0 0 1
20.322115 3.237991 -32.673339 38.613729 0.158005 2.579532 0.022384 -0.016509 813009.000000 0 0 1
21.582015 2.908191 -33.317469 39.803200 0.133944 2.562675 0.023596 -0.014835 963491.000000 0 0 1
21.683615 3.620291 34.300237 40.740543 0.165434 0.569967 0.028582 -0.018274 682126.000000 0 0 1
23.112415 3.344991 33.689002 40.991726 0.143729 0.606148 0.039085 -0.013164 937770.000000 0 0 1
23.276515 2.018391 33.224457 40.616924 0.086497 0.612879 0.047988 -0.022206 -390076.000000 0 0 1
24.649915 1.730791 33.216468 41.399851 0.070100 0.639603 0.044818 -0.026420 -406029.000000 0 0 1
24.906915 0.204791 33.058937 41.391903 0.008222 0.645696 0.035028 -0.022077 -504870.000000 0 0 1
24.539815 -0.434109 31.822643 40.187953 -0.017688 0.656972 0.039837 -0.023784 1951950.000000 0 0 1
23.109315 -0.500209 31.487023 39.060507 -0.021642 0.633249 0.052412 -0.034145 1470410.000000 0 0 1
22.272315 -1.498409 32.330283 39.288019 -0.067176 0.604292 0.050698 -0.031345 -728969.000000 0 0 1
22.431515 -2.901509 32.060903 39.236375 -0.128635 0.614396 0.047683 -0.034634 81982.800000 0 0 1
21.907015 -3.759209 33.053204 39.831686 -0.169943 0.592008 0.049378 -0.028817 -324163.000000 0 0 1
21.824415 -5.223609 32.626013 39.598584 -0.234928 0.602505 0.045788 -0.028442 575070.000000 0 0 1
23.102615 -5.869509 32.566863 40.358177 -0.248799 0.631834 0.048005 -0.028157 753900.000000 0 0 1
22.894715 -7.242709 32.432063 40.354225 -0.306387 0.637335 0.054767 -0.028891 -267828.000000 0 0 1
24.213215 -7.951709 32.131173 41.011239 -0.317307 0.670562 0.051606 -0.027368 -269558.000000 0 0 1
24.735715 -7.639709 30.862903 40.283241 -0.299559 0.697971 0.067758 -0.029826 685662.000000 0 0 1
26.118715 -8.048109 30.799883 41.177568 -0.298904 0.725787 0.068974 -0.030735 835051.000000 0 0 1
26.558415 -7.723809 29.352783 40.331036 -0.283017 0.755693 0.068322 -0.025511 66746.700000 0 0 1
25.901415 -8.521009 28.326463 39.317673 -0.317826 0.766344 0.062767 -0.019215 232893.000000 0 0 1
26.257015 -8.224609 26.993403 38.545023 -0.303554 0.794967 0.074315 -0.015063 12070.000000 0 0 1
25.376715 -9.088409 26.062043 37.494092 -0.343908 0.802241 0.057912 -0.014826 25191.800000 0 0 1
24.047115 -8.616609 25.986703 36.439243 -0.344069 0.776813 0.062116 -0.022099 -31516.200000 0 0 1
23.429815 -9.494209 25.027643 35.573573 -0.384998 0.790421 0.073064 -0.023420 397880.000000 0 0 1
22.034915 -9.126509 24.459223 34.162614 -0.392674 0.772792 0.050797 -0.001229 1052820.000000 0 0 1
20.875915 -9.320509 25.276253 34.081735 -0.419916 0.735290 0.039347 -0.001737 696888.000000 0 0 1
19.669915 -8.820509 24.712833 32.793765 -0.421545 0.717300 0.047863 0.002384 858141.000000 0 0 1
18.552715 -8.672809 25.814043 32.951262 -0.437285 0.670678 0.041353 -0.002323 64896.100000 0 0 1
17.985815 -9.860709 26.307653 33.358892 -0.501498 0.662227 0.052436 -0.010082 300650.000000 0 0 1
18.806415 -10.619809 27.205493 34.736154 -0.514052 0.670994 0.051248 -0.012456 221537.000000 0 0 1
17.965515 -11.742709 27.892303 35.194197 -0.578919 0.655857 0.047192 -0.011804 292570.000000 0 0 1
17.378715 -12.737009 27.080493 34.606419 -0.632473 0.672080 0.052273 -0.011817 263310.000000 0 0 1
16.507115 -13.659109 27.690853 35.011990 -0.691267 0.658524 0.052219 -0.012260 -23521.800000 0 0 1
17.206115 -14.720909 28.565143 36.451652 -0.707715 0.670285 0.055031 -0.009241 438412.000000 0 0 1
16.232115 -15.700009 28.936273 36.705309 -0.768736 0.662690 0.045964 -0.010211 913198.000000 0 0 1
16.844515 -16.431809 30.004883 38.131811 -0.772996 0.665071 0.057275 -0.015597 165815.000000 0 0 1
17.293415 -17.836609 29.512803 38.577355 -0.800859 0.699710 0.050162 -0.003217 113748.000000 0 0 1
18.244015 -17.759209 28.457233 38.184391 -0.771933 0.729874 0.050127 -0.005721 317201.000000 0 0 1
18.592715 -19.025209 27.831813 38.500096 -0.796895 0.762803 0.037812 -0.002409 -143866.000000 0 0 1
19.416915 -18.732209 26.571633 37.867716 -0.767452 0.793021 0.045400 -0.004868 1074560.000000 0 0 1
20.782215 -18.334509 26.854573 38.590449 -0.722905 0.801143 0.054895 -0.013201 815059.000000 0 0 1
21.446715 -17.825809 25.744833 37.954149 -0.693459 0.825331 0.045176 -0.007489 -721890.000000 0 0 1
22.862915 -17.484209 26.146683 38.885209 -0.652869 0.833341 0.039944 -0.005192 -799183.000000 0 0 1
23.731515 -18.528509 26.506793 40.113595 -0.662896 0.848921 0.034523 -0.009936 -417794.000000 0 0 1
25.053115 -18.111909 26.641023 40.809851 -0.625957 0.859510 0.030282 -0.009155 -626865.000000 0 0 1
26.023315 -19.277009 26.843473 42.064094 -0.637561 0.878695 0.019673 -0.006393 -312990.000000 0 0 1
25.883415 -19.941009 28.064503 43.072164 -0.656440 0.861145 0.029408 -0.014495 253952.000000 0 0 1
26.526315 -21.230109 28.008163 44.032035 -0.674949 0.881381 0.034691 -0.008144 -1692.910000 0 0 1
25.818615 -22.254909 28.880123 44.675982 -0.711403 0.867894 0.039305 -0.006719 -169877.000000 0 0 1
25.788215 -21.879209 30.267373 45.385523 -0.703575 0.840762 0.036376 -0.011948 -21313.200000 0 0 1
25.356715 -23.023509 30.982413 46.183924 -0.737209 0.835444 0.029258 -0.007952 -324383.000000 0 0 1
25.019215 -22.810409 32.473033 46.912405 -0.739250 0.806256 0.030995 -0.011490 -23542.300000 0 0 1
24.625015 -23.997409 33.083970 47.715994 -0.772491 0.804666 0.019950 -0.002038 38354.200000 0 0 1
24.346415 -23.787609 -34.371242 48.373346 -0.773789 2.361063 0.034212 0.003201 -439985.000000 0 0 1
24.189815 -25.101599 -33.559609 48.388891 -0.803894 2.337187 0.026281 0.006432 -80164.100000 0 0 1
23.000915 -25.826659 -33.756099 48.327349 -0.843206 2.344080 0.032782 0.005371 -387799.000000 0 0 1
22.764815 -26.312159 33.762519 48.481690 -0.857554 0.800431 0.020210 -0.004174 -499043.000000 0 0 1
21.473115 -27.110409 33.556068 48.187951 -0.900915 0.800486 0.027077 -0.008199 -167197.000000 0 0 1
21.490715 -28.356589 34.086852 49.273324 -0.922275 0.806830 0.024453 0.002090 1205840.000000 0 0 1
20.246815 -29.119699 33.953137 49.098940 -0.963234 0.807198 0.045876 0.003514 1175320.000000 0 0 1
20.362815 -30.623819 34.164445 50.196333 -0.983994 0.822193 0.032730 0.004773 -90225.900000 0 0 1
20.936315 -31.026969 -33.434159 50.188097 -0.977199 2.299867 0.022342 -0.000674 342880.000000 0 0 1
21.367015 -32.369359 -33.446259 51.215008 -0.987354 2.282409 -0.001266 0.013252 -100522.000000 0 0 1
22.275715 -32.698309 -32.236439 51.035036 -0.972766 2.254480 0.007092 0.015138 -1329530.000000 0 0 1
22.958515 -33.887089 -32.404589 52.206184 -0.975331 2.240437 -0.000154 0.012908 237593.000000 0 0 1
23.676115 -34.362872 -31.245229 52.130891 -0.967489 2.213499 0.009358 0.019329 -228189.000000 0 0 1
24.756715 -33.465029 -30.683149 51.713236 -0.933869 2.205989 0.015797 0.020888 -1553550.000000 0 0 1
25.295615 -33.885179 -29.474959 51.544609 -0.929533 2.179536 0.024343 0.023548 -177633.000000 0 0 1
26.151315 -32.836639 -29.010819 51.027089 -0.898250 2.175523 0.029274 0.018350 -8070.310000 0 0 1
26.481215 -33.036279 -27.539429 50.508125 -0.895093 2.147481 0.029607 0.010502 364855.000000 0 0 1
27.498415 -34.013709 -27.298629 51.558805 -0.890924 2.128767 0.027639 0.014162 496032.000000 0 0 1
28.177215 -33.722039 -26.032829 51.076801 -0.874738 2.105609 0.029661 0.007133 653836.000000 0 0 1
-26.667335 -31.004948 8.855591 41.843459 0.860468 1.357548 0.044511 -0.008660 -42474.600000 0 0 1
-26.739435 -32.078848 9.761991 42.887601 0.875928 1.341166 0.042194 -0.003383 1110960.000000 0 0 1
-25.409565 -32.416448 10.215391 42.436144 0.905982 1.327685 0.038815 -0.006050 825489.000000 0 0 1
-25.383685 -33.661448 11.171391 43.614499 0.924684 1.311770 0.026109 -0.003868 -46891.800000 0 0 1
-25.800245 34.043891 10.479891 43.982579 -0.922289 1.330208 0.030334 -0.000303 59776.000000 0 0 1
-25.783615 32.973691 11.354291 43.370255 -0.907162 1.305911 0.029862 0.001252 -98884.200000 0 0 1
-25.618635 31.643791 10.621491 42.076835 -0.890232 1.315605 0.037519 0.001309 -329728.000000 0 0 1
-26.657365 31.214191 9.782691 42.197652 -0.863976 1.336838 0.038107 -0.005023 -329500.000000 0 0 1
-26.581035 29.897491 9.237391 41.057773 -0.844051 1.343868 0.040547 -0.005435 -207042.000000 0 0 1
-25.800535 29.735491 7.910291 40.155195 -0.856134 1.372506 0.041336 -0.002802 65914.700000 0 0 1
-24.402385 29.689091 8.048091 39.264364 -0.882825 1.364361 0.039509 -0.004984 -274868.000000 0 0 1
-23.703285 29.713691 6.847991 38.621809 -0.897446 1.392545 0.028312 -0.004323 432484.000000 0 0 1
-22.318585 28.973191 6.858791 37.210321 -0.914418 1.385411 0.058770 -0.003214 378127.000000 0 0 1
-22.266185 27.511491 7.104991 36.099114 -0.890385 1.372684 0.053355 -0.009305 66810.200000 0 0 1
-22.846885 26.776491 6.038291 35.713045 -0.864422 1.400902 0.040620 -0.015337 -359891.000000 0 0 1
-23.139285 25.264691 6.395491 34.851591 -0.829280 1.386244 0.042742 -0.012351 -383166.000000 0 0 1
-24.247885 25.039791 7.256091 35.603397 -0.801464 1.365555 0.041649 -0.016084 535222.000000 0 0 1
-24.578885 23.665691 7.398791 34.913158 -0.766472 1.357257 0.044296 -0.024617 29489.900000 0 0 1
-25.004685 22.896291 6.055091 34.440362 -0.741411 1.394064 0.038500 -0.033095 -1330620.000000 0 0 1
-26.304565 23.208091 5.658291 35.532547 -0.722940 1.410873 0.041017 -0.030410 -366291.000000 0 0 1
-26.714155 22.584991 4.471791 35.266483 -0.701836 1.443654 0.036212 -0.024726 -112352.000000 0 0 1
-26.411395 23.454491 3.235291 35.470298 -0.726170 1.479458 0.027503 -0.022469 -633309.000000 0 0 1
-25.063485 23.830491 3.208491 34.732765 -0.760186 1.478288 0.032366 -0.022955 -240444.000000 0 0 1
-24.793785 24.572891 2.042591 34.967569 -0.780924 1.512349 0.030105 -0.019024 -701882.000000 0 0 1
-23.419385 25.199991 2.076191 34.464731 -0.822005 1.510519 0.036471 -0.012782 -768882.000000 0 0 1
-23.017885 25.756691 0.841991 34.553424 -0.841492 1.546426 0.021412 -0.020962 125671.000000 0 0 1
-21.864285 26.586191 0.960591 34.435378 -0.882550 1.542897 0.030093 -0.022221 6620.920000 0 0 1
-21.300485 27.028791 -0.391309 34.415393 -0.903374 1.582167 0.035312 -0.016398 109742.000000 0 0 1
-20.901685 26.133591 -1.437809 33.494959 -0.896176 1.613736 0.030605 -0.022376 1058900.000000 0 0 1
-19.790585 25.256491 -1.071909 32.104619 -0.906146 1.604191 0.032268 -0.028104 678154.000000 0 0 1
-19.449185 24.236391 -2.164709 31.150592 -0.894546 1.640344 0.038569 -0.028702 -962101.000000 0 0 1
-20.547285 23.526791 -2.611509 31.345188 -0.852898 1.654208 0.034061 -0.024035 -815520.000000 0 0 1
-20.251685 22.562591 -3.619809 30.533658 -0.839321 1.689627 0.038507 -0.018896 -231325.000000 0 0 1
-21.462085 22.033591 -4.415609 31.074070 -0.798537 1.713378 0.036965 -0.011994 100707.000000 0 0 1
-21.964285 22.887291 -5.438109 32.184327 -0.805974 1.740578 0.028632 -0.011347 -291540.000000 0 0 1
-23.115085 22.505691 -6.119509 32.836895 -0.772041 1.758253 0.022063 -0.002526 -290156.000000 0 0 1
-23.248685 23.242491 -7.470009 33.712250 -0.785265 1.794232 0.016473 -0.001524 311154.000000 0 0 1
-22.420485 22.664991 -8.492809 32.992541 -0.790821 1.831143 0.019850 -0.003652 501382.000000 0 0 1
-22.147185 23.432191 -9.599209 33.640900 -0.813583 1.860161 0.022076 -0.005202 -86435.700000 0 0 1
-21.404585 22.718391 -10.760009 33.016047 -0.815165 1.902762 0.026471 -0.004866 414487.000000 0 0 1
-22.284085 22.036291 -11.685109 33.447277 -0.779807 1.927683 0.011758 -0.005108 673120.000000 0 0 1
-21.555385 21.545791 -12.785609 33.050379 -0.785176 1.968012 0.009395 -0.000754 454721.000000 0 0 1
-22.514485 21.144491 -13.965909 33.897465 -0.754029 1.995449 -0.003253 -0.009038 248933.000000 0 0 1
-23.363385 20.050391 -13.782909 33.731803 -0.709234 1.991719 -0.001543 0.004564 -190052.000000 0 0 1
-24.460485 20.191691 -14.648309 34.936981 -0.690087 2.003446 0.008606 -0.007058 -45315.700000 0 0 1
-25.214165 18.837691 -14.823209 34.789945 -0.641647 2.010949 0.048868 -0.014246 167466.000000 0 0 1
-24.576885 18.016691 -15.799109 34.325446 -0.632581 2.049100 0.045203 -0.013028 188934.000000 0 0 1
-25.234165 16.799291 -15.844409 34.205622 -0.587358 2.052411 0.048555 -0.021556 -287386.000000 0 0 1
-24.816285 15.877191 -17.018209 34.022825 -0.569164 2.094626 0.054052 -0.015321 -278857.000000 0 0 1
-23.718785 15.062891 -16.740009 32.706259 -0.565802 2.108109 0.065728 -0.020637 -134686.000000 0 0 1
-23.240485 14.390291 -17.891709 32.669770 -0.554411 2.150353 0.071979 -0.028751 -25818.600000 0 0 1
-22.391985 13.119291 -17.673209 31.398393 -0.529982 2.168650 0.081336 -0.018660 -30596.900000 0 0 1
-21.207585 13.451691 -16.981909 30.316578 -0.565250 2.165366 0.076281 -0.025863 -199639.000000 0 0 1
-20.485185 12.271491 -16.739209 29.162192 -0.539715 2.182183 0.077092 -0.024441 -695300.000000 0 0 1
-19.214085 12.490891 -15.934809 27.912749 -0.576439 2.178373 0.066273 -0.021016 -677242.000000 0 0 1
-18.293885 13.332991 -16.568109 28.052399 -0.629809 2.202614 0.052538 -0.015017 -490589.000000 0 0 1
-17.332985 13.756091 -15.665109 27.111954 -0.670849 2.186819 0.046144 -0.003426 -556072.000000 0 0 1
-16.461785 14.943791 -16.104709 27.453031 -0.737101 2.197685 0.025371 -0.000267 -266304.000000 0 0 1
-15.432485 14.618291 -17.006109 27.222486 -0.758311 2.245554 0.048906 -0.002989 -83308.900000 0 0 1
-14.585385 15.713191 -17.291309 27.543188 -0.822604 2.249506 0.038831 0.000162 328484.000000 0 0 1
-13.804785 15.513291 -18.657609 27.916674 -0.843607 2.302761 0.036680 -0.003220 696402.000000 0 0 1
-13.038585 14.312491 -18.630109 26.868812 -0.831941 2.336956 0.038417 -0.003166 -153370.000000 0 0 1
-11.958185 14.295391 -19.522109 26.990167 -0.874188 2.379372 0.049351 -0.003558 -391297.000000 0 0 1
-11.197485 13.036591 -19.552509 26.031461 -0.861142 2.420539 0.042067 -0.008803 -422974.000000 0 0 1
-11.893585 11.986291 -20.188609 26.319355 -0.789280 2.445047 0.049579 -0.002524 -33572.400000 0 0 1
-11.214085 10.769591 -20.112509 25.421503 -0.765182 2.483502 0.028438 0.014409 -283455.000000 0 0 1
-11.734685 9.754891 -21.109309 26.047335 -0.693529 2.515667 0.042387 0.005289 319346.000000 0 0 1
-11.116285 9.964491 -22.400709 26.919410 -0.730815 2.553751 0.053336 -0.005523 532028.000000 0 0 1
-11.861585 9.249691 -23.405709 27.822315 -0.662303 2.570400 0.042448 0.013186 287765.000000 0 0 1
-11.347285 9.378491 -24.869009 28.899560 -0.690690 2.607110 0.049093 -0.012601 311387.000000 0 0 1
-9.939085 9.141691 -25.002309 28.416041 -0.743632 2.646377 0.053978 -0.013352 627137.000000 0 0 1
-9.615385 8.661291 -26.322499 29.331682 -0.733243 2.684656 0.032205 -0.019226 -425618.000000 0 0 1
-9.571485 9.706891 -27.471759 30.668137 -0.792422 2.680969 0.059043 -0.020498 -678920.000000 0 0 1
-8.365985 10.364391 -27.692079 30.728839 -0.891689 2.693270 0.046508 -0.023192 -185965.000000 0 0 1
-7.775585 11.149491 -26.670229 29.934462 -0.961822 2.670238 0.040817 -0.015039 -61800.900000 0 0 1
-6.283085 11.512491 -26.874819 29.904356 -1.071212 2.687575 0.036690 -0.009854 94658.400000 0 0 1
-6.119685 12.444491 -27.966649 31.216171 -1.113764 2.681255 0.029756 -0.018978 22502.800000 0 0 1
-4.808685 12.944791 -28.022579 31.240295 -1.215118 2.683734 0.039439 -0.010325 -30009.900000 0 0 1
-4.009685 12.510591 -29.308139 32.117900 -1.260637 2.720193 0.046758 -0.006353 823928.000000 0 0 1
-2.610385 12.804091 -29.192329 31.983604 -1.369681 2.720708 0.053317 -0.011108 549167.000000 0 0 1
-2.014785 12.643191 -30.463009 33.043979 -1.412768 2.743734 0.058011 -0.011288 2743.200000 0 0 1
-0.477085 12.701291 -30.489089 33.032332 -1.533252 2.746621 0.055019 -0.011449 -247911.000000 0 0 1
0.158115 11.753691 -29.606249 31.854423 1.557345 2.763644 0.035874 0.006718 110209.000000 0 0 1
1.508715 11.445891 -29.859779 32.013920 1.439739 2.772659 0.046651 0.000874 -77096.000000 0 0 1
1.762815 10.559691 -31.100169 32.891262 1.405384 2.810061 0.049910 -0.003016 -609005.000000 0 0 1
1.617715 11.294091 -32.326549 34.280888 1.428528 2.802300 0.057345 -0.012501 254874.000000 0 0 1
1.671515 10.445591 -33.444459 35.077574 1.412120 2.835250 0.061526 -0.012022 -57302.600000 0 0 1
1.796515 11.245091 34.094889 35.946362 1.412375 0.322350 0.061257 -0.019104 -84928.600000 0 0 1
3.030215 11.927691 33.949958 36.111655 1.322011 0.347760 0.053113 -0.020989 39069.000000 0 0 1
2.945015 12.902991 32.851544 35.417287 1.346397 0.382976 0.063073 -0.013414 -12053.700000 0 0 1
4.335415 13.369291 32.366903 35.286685 1.257214 0.409662 0.075728 -0.008049 311574.000000 0 0 1
5.104715 12.323591 31.794553 34.479306 1.178089 0.397235 0.059336 -0.010384 -190956.000000 0 0 1
6.407515 12.707891 31.453153 34.523145 1.103782 0.424914 0.066886 -0.003862 -160386.000000 0 0 1
7.306315 11.551991 30.964493 33.847164 1.006842 0.415703 0.052452 -0.000866 -98176.500000 0 0 1
6.943315 11.011391 29.697303 32.425146 1.008211 0.413120 0.040720 -0.004687 506209.000000 0 0 1
7.852215 9.991591 29.216273 31.860316 0.904723 0.410274 0.027871 -0.004899 649871.000000 0 0 1
7.210215 9.156391 28.066163 30.389738 0.903754 0.393583 0.024703 -0.004818 698637.000000 0 0 1
6.250215 8.202191 28.578873 30.382447 0.919648 0.346292 0.028178 -0.011631 504773.000000 0 0 1
5.718615 7.396391 27.511993 29.057166 0.912635 0.327582 0.037559 -0.017738 23558.000000 0 0 1
4.902315 6.157591 27.951753 29.038751 0.898412 0.274476 0.051403 -0.023143 117164.000000 0 0 1
5.702415 5.160591 28.557363 29.574857 0.735562 0.263071 0.036922 -0.020281 -473663.000000 0 0 1
4.933615 4.391291 29.397743 30.130570 0.727305 0.221002 0.040380 -0.012387 -923368.000000 0 0 1
5.548015 3.157791 30.138353 30.807019 0.517446 0.208729 0.047113 -0.008597 -212454.000000 0 0 1
5.659015 1.923491 29.434383 30.035098 0.327648 0.200337 0.046169 -0.004175 445992.000000 0 0 1
6.456415 1.936991 28.208053 29.002266 0.291466 0.234565 0.049655 -0.011264 191236.000000 0 0 1
6.606415 0.503091 27.660203 28.442655 0.076005 0.235104 0.054328 -0.007134 -143959.000000 0 0 1
7.463915 -0.298109 28.428273 29.393291 -0.039919 0.256953 0.053316 0.003396 81624.500000 0 0 1
7.445715 -1.623209 27.928433 28.949453 -0.214647 0.266377 0.061543 -0.001883 -125638.000000 0 0 1
8.031115 -2.723109 28.840523 30.061435 -0.326905 0.285978 0.054072 0.005034 749046.000000 0 0 1
9.438415 -2.578509 29.059823 30.662773 -0.266686 0.324773 0.051895 -0.005517 637520.000000 0 0 1
10.201815 -3.639909 28.506583 30.495101 -0.342711 0.363123 0.052807 0.000144 930397.000000 0 0 1
11.732515 -3.572209 28.895763 31.390726 -0.295553 0.401389 0.041773 0.003671 1750810.000000 0 0 1
12.601015 -4.723709 28.635403 31.639932 -0.358654 0.439323 0.035878 0.003816 858450.000000 0 0 1
12.477015 -5.831509 29.550723 32.602571 -0.437213 0.436132 0.041285 0.004870 -671634.000000 0 0 1
11.839615 -7.090709 28.977013 32.095512 -0.539608 0.444474 0.054584 0.001076 352708.000000 0 0 1
10.457815 -6.906909 28.647203 31.268730 -0.583689 0.412400 0.058933 0.002816 381564.000000 0 0 1
9.845915 -8.115909 28.323453 31.064900 -0.689379 0.423269 0.059332 -0.007947 -352575.000000 0 0 1
8.317515 -8.086409 28.309633 30.594221 -0.771311 0.388901 0.056403 -0.005157 -415428.000000 0 0 1
7.704415 -7.941809 29.557383 31.560564 -0.800570 0.358201 0.062098 -0.000218 344885.000000 0 0 1
6.288115 -7.893609 29.402513 31.086286 -0.898127 0.330638 0.052233 0.008092 338377.000000 0 0 1
5.563615 -6.984409 30.411213 31.695073 -0.898147 0.285598 0.041799 -0.002321 -137822.000000 0 0 1
5.314715 -7.637109 31.638473 32.978244 -0.962823 0.286021 0.046099 -0.011458 393276.000000 0 0 1
4.735015 -6.830709 32.733213 33.771914 -0.964652 0.248658 0.045774 -0.004320 115072.000000 0 0 1
5.677215 -5.760709 33.285842 34.254398 -0.792698 0.238368 0.052743 0.002034 -122969.000000 0 0 1
5.915515 -4.609309 32.528953 33.382208 -0.661922 0.226583 0.051771 0.002268 39210.300000 0 0 1
6.405115 -3.477309 33.249341 34.038740 -0.497373 0.215784 0.050758 0.008152 -162744.000000 0 0 1
6.278315 -2.252709 32.323533 33.004586 -0.344500 0.203502 0.057592 0.008746 -603359.000000 0 0 1
4.982915 -1.857909 32.035273 32.473681 -0.356890 0.164505 0.054884 0.007420 -751710.000000 0 0 1
5.033915 -0.554709 31.460223 31.865241 -0.109752 0.159608 0.048336 0.000867 -252407.000000 0 0 1
3.694115 0.129891 31.198393 31.416605 0.035147 0.117931 0.054255 -0.002247 -74108.800000 0 0 1
2.912215 0.419491 32.379143 32.512549 0.143061 0.090620 0.048203 -0.000874 227871.000000 0 0 1
1.622415 0.896091 32.022643 32.076235 0.504622 0.057814 0.053999 -0.003909 229464.000000 0 0 1
0.766615 0.899791 33.308789 33.329757 0.865147 0.035474 0.044735 -0.001766 -276313.000000 0 0 1
1.178315 1.917791 34.166661 34.240722 1.019847 0.065784 0.039836 0.000653 583756.000000 0 0 1
0.320215 1.962791 -33.511709 33.570668 1.409078 3.082318 0.028786 -0.001280 205795.000000 0 0 1
0.814915 3.102691 -32.645509 32.802745 1.313950 3.043642 0.031622 -0.004243 -685808.000000 0 0 1
2.043215 2.870191 -32.051269 32.244326 0.952145 3.032109 0.021739 0.004163 -487811.000000 0 0 1
2.536215 3.956591 -31.293829 31.644759 1.000767 2.992528 0.022765 0.004595 -463420.000000 0 0 1
3.645615 3.642591 -30.319899 30.754760 0.784983 2.973230 0.026637 0.007505 -415673.000000 0 0 1
3.194115 2.915691 -29.194899 29.513484 0.739860 2.994528 0.030880 0.006598 450304.000000 0 0 1
4.260715 2.813991 -28.260069 28.717656 0.583687 2.962839 0.042231 -0.001746 136091.000000 0 0 1
3.835715 2.077291 -26.998279 27.348399 0.496344 2.981408 0.038634 -0.006416 26018.100000 0 0 1
3.641115 0.676891 -27.104159 27.356011 0.183804 3.005794 0.046001 -0.007137 -180776.000000 0 0 1
3.315715 0.149691 -25.819129 26.031593 0.045115 3.013742 0.061064 -0.016293 -7693.760000 0 0 1
3.742215 -1.325709 -25.538259 25.845007 -0.340463 2.987370 0.056223 -0.014611 669200.000000 0 0 1
5.157815 -1.433109 -25.410929 25.968677 -0.271016 2.933963 0.046250 -0.015110 303191.000000 0 0 1
5.554415 -2.751309 -25.098269 25.852357 -0.459911 2.899469 0.048892 -0.015593 625408.000000 0 0 1
6.985815 -3.027409 -24.521909 25.676660 -0.408935 2.840548 0.048946 -0.018994 806225.000000 0 0 1
8.033415 -2.787409 -25.395579 26.781353 -0.333979 2.818494 0.041277 -0.014123 -325918.000000 0 0 1
9.353415 -3.069309 -24.971209 26.841541 -0.317077 2.766079 0.036094 -0.013899 444358.000000 0 0 1
-28.833955 -3.860009 17.774773 34.091629 0.133079 1.022326 0.050100 -0.019211 -72691.400000 0 0 1
-30.232215 -3.981909 17.679373 35.247733 0.130957 1.045378 0.040664 -0.006047 -164675.000000 0 0 1
-30.648675 -4.955009 18.635673 36.210243 0.160284 1.030195 0.038333 -0.010538 1544290.000000 0 0 1
-32.137255 -4.773309 19.204573 37.741267 0.147451 1.036950 0.035620 -0.009209 1586310.000000 0 0 1
-33.106895 -4.934209 18.176373 38.089283 0.147950 1.073326 0.020876 -0.007597 48850.700000 0 0 1
-34.408046 -4.842709 18.723073 39.470482 0.139825 1.076564 0.011660 0.001530 -308636.000000 0 0 1
-35.468731 -4.927509 17.639973 39.918415 0.138042 1.113080 0.002801 -0.001650 -621025.000000 0 0 1
34.574706 -5.258909 18.068473 39.364148 -0.150946 1.093918 0.012947 -0.002673 -419894.000000 0 0 1
33.679146 -5.242909 16.964073 38.072993 -0.154433 1.108989 0.007884 -0.003347 111345.000000 0 0 1
32.265206 -5.660309 17.394373 37.089713 -0.173664 1.082660 0.018347 -0.000619 93129.100000 0 0 1
31.515056 -4.787909 18.258473 36.735469 -0.150772 1.050629 0.039345 -0.003774 127434.000000 0 0 1
30.305266 -5.342009 18.657773 35.986924 -0.174481 1.025748 0.052907 -0.010609 -449831.000000 0 0 1
29.682576 -4.805209 19.962373 36.092128 -0.160494 0.984722 0.055254 -0.007459 218499.000000 0 0 1
28.874556 -3.619209 19.831373 35.215366 -0.124692 0.972609 0.057545 -0.007958 584120.000000 0 0 1
29.569076 -2.407009 19.581173 35.546396 -0.081224 0.987399 0.056909 -0.008126 274485.000000 0 0 1
28.566256 -1.211009 19.850473 34.807166 -0.042368 0.963927 0.035064 0.002589 345687.000000 0 0 1
29.093466 0.080891 19.764973 35.172297 0.002780 0.974058 0.033337 -0.000103 -527212.000000 0 0 1
28.066146 0.975191 19.952873 34.449625 0.034732 0.953062 0.022642 -0.006010 -424038.000000 0 0 1
28.357256 2.328691 19.326773 34.395943 0.081936 0.974126 0.020643 0.000323 88506.500000 0 0 1
28.334356 2.280991 17.926873 33.606717 0.080329 1.008144 0.009742 -0.003880 55809.100000 0 0 1
28.368636 3.549091 17.314073 33.423834 0.124459 1.026267 -0.003606 0.004383 86737.900000 0 0 1
28.383026 3.428891 15.764173 32.647551 0.120225 1.066879 0.000060 -0.001085 -361918.000000 0 0 1
28.131786 4.670991 15.109973 32.272695 0.164538 1.083547 -0.004620 0.006691 155501.000000 0 0 1
27.802446 4.385791 13.778273 31.337709 0.156459 1.115564 0.011314 0.007653 -506748.000000 0 0 1
27.399236 5.732291 13.077673 30.896648 0.206239 1.133743 0.013208 0.003417 965831.000000 0 0 1
26.258756 6.329891 13.769373 30.318071 0.236545 1.099363 0.010190 0.002693 1111050.000000 0 0 1
25.683356 7.389391 12.983473 29.712093 0.280145 1.118562 0.016765 -0.013288 -56635.200000 0 0 1
24.523356 8.228891 13.638073 29.242207 0.323747 1.085599 0.015493 -0.014687 910655.000000 0 0 1
23.230856 7.647291 13.738173 28.051580 0.318014 1.058997 0.012019 -0.003297 675090.000000 0 0 1
23.090356 6.388091 14.393873 27.949165 0.269905 1.029786 0.019501 -0.001502 -946615.000000 0 0 1
21.665356 5.796091 14.268673 26.581523 0.261406 1.004169 0.041766 -0.001161 -85275.600000 0 0 1
21.420156 5.406991 12.914973 25.590138 0.247260 1.041779 0.067602 -0.005999 104418.000000 0 0 1
20.405256 4.455991 12.840673 24.517610 0.214999 1.019570 0.082011 -0.003936 -618068.000000 0 1 0
19.835856 4.318291 11.431873 23.297994 0.214357 1.057926 0.082548 -0.005588 -618241.000000 0 1 0
20.786056 3.935391 10.502173 23.618702 0.187114 1.110007 0.083440 -0.015049 216292.000000 0 1 0
20.182256 3.745791 9.251573 22.515462 0.183510 1.147357 0.079829 -0.015488 461626.000000 0 1 0
21.197656 2.991791 8.304973 22.962230 0.140212 1.200727 0.066490 -0.009509 -193774.000000 0 1 0
21.526456 1.611791 8.657173 23.257963 0.074735 1.189392 0.063479 -0.005987 644767.000000 0 1 0
22.450556 1.061791 7.733373 23.768886 0.047259 1.239407 0.056533 -0.000010 -1093260.000000 0 1 0
23.924956 1.394991 7.826673 25.211234 0.058241 1.255136 0.054490 -0.001837 -979220.000000 0 0 1
24.649756 0.732691 8.875773 26.209286 0.029715 1.225315 0.040285 0.009484 515402.000000 0 0 1
24.350156 1.267091 10.126973 26.402485 0.051989 1.177147 0.038865 0.005365 -586960.000000 0 0 1
25.200856 0.648491 11.291373 27.622433 0.025727 1.149684 0.022154 0.007539 167080.000000 0 0 1
26.588916 0.915491 11.300473 28.905177 0.034418 1.169133 0.018840 0.004467 383547.000000 0 0 1
27.185356 0.170991 12.380973 29.872417 0.006290 1.143445 0.022666 -0.001674 755854.000000 0 0 1
28.744186 0.139691 12.523373 31.354148 0.004860 1.159916 0.034669 -0.004642 750384.000000 0 0 1
29.205356 1.393591 12.937073 31.972844 0.047681 1.154226 0.029589 -0.003023 245408.000000 0 0 1
30.602896 1.421791 13.185573 33.352932 0.046426 1.164364 0.019900 -0.001347 304810.000000 0 0 1
31.190056 2.858591 13.302973 34.028815 0.091395 1.169152 0.016316 -0.006180 -426418.000000 0 0 1
31.299716 3.588691 12.091373 33.745403 0.114157 1.204337 0.022547 -0.012900 159531.000000 0 0 1
31.958096 4.832391 12.299673 34.582566 0.150073 1.207175 0.020131 -0.012580 -98664.800000 0 0 1
33.395586 4.845791 11.773073 35.740063 0.144097 1.235120 0.021707 -0.010603 -190625.000000 0 0 1
34.273186 3.907591 12.377873 36.648769 0.113523 1.226278 0.023412 -0.015423 312416.000000 0 0 1
35.630426 4.286391 12.317273 37.942267 0.119726 1.240174 0.022057 -0.009604 579889.000000 0 0 1
-34.675522 3.258291 12.926673 37.149794 -0.093690 1.215401 0.035668 -0.002068 -142498.000000 0 0 1
-34.614407 1.944091 12.351273 36.803405 -0.056105 1.228553 0.019078 -0.001865 123769.000000 0 0 1
35.659330 1.051091 12.633873 37.845837 0.029467 1.230438 0.030961 0.005710 -45074.600000 0 0 1
35.249676 0.761991 14.151473 37.991900 0.021614 1.189109 0.022018 0.013047 -158350.000000 0 0 1
-35.117478 -0.038909 14.831973 38.121204 0.001108 1.171170 0.027821 0.009637 229492.000000 0 0 1
-35.453239 -0.224409 16.183773 38.973029 0.006330 1.142572 0.036320 0.004479 -575399.000000 0 0 1
-34.463601 -1.046009 17.048273 38.463977 0.030342 1.111601 0.025992 0.004379 123949.000000 0 0 1
-33.186115 -0.410009 17.181373 37.372261 0.012354 1.093098 0.029882 0.008393 315340.000000 0 0 1
-32.322275 -1.179209 17.994873 37.012639 0.036467 1.063081 0.043048 -0.001131 -139863.000000 0 0 1
-32.391425 -1.088209 19.528873 37.838677 0.033583 1.028495 0.040689 -0.004436 -504923.000000 0 0 1
-33.492115 -1.676109 20.191473 39.143667 0.050003 1.028820 0.030806 -0.011047 118173.000000 0 0 1
-33.414895 -1.434309 21.594773 39.811389 0.042898 0.997473 0.029126 -0.012038 -136229.000000 0 0 1
-34.172050 -2.499209 22.311973 40.887641 0.073006 0.993584 0.023501 -0.010890 -378489.000000 0 0 1
-33.479635 -3.713009 22.293373 40.393896 0.110452 0.986156 0.025487 -0.015211 171189.000000 0 0 1
-34.132290 -4.807809 22.972973 41.423251 0.139937 0.982925 0.014350 -0.009756 -58173.100000 0 0 1
-34.076638 -4.707409 24.528073 42.249300 0.137273 0.951385 0.014224 -0.019700 -863670.000000 0 0 1
-32.784045 -4.648909 24.988653 41.482993 0.140865 0.924313 0.019140 -0.023401 -1460440.000000 0 0 1
-32.877945 -4.494609 26.363823 42.381741 0.135864 0.899430 0.012177 -0.024962 168966.000000 0 0 1
-31.748575 -3.758109 27.143983 41.939137 0.117823 0.866860 0.015635 -0.016552 -111722.000000 0 0 1
-31.690835 -2.309209 26.966893 41.675590 0.072738 0.867065 0.014618 -0.013420 -207516.000000 0 0 1
-31.359255 -1.955209 25.622123 40.542803 0.062268 0.886695 0.022381 -0.015135 -648388.000000 0 0 1
-31.302845 -0.432609 25.383193 40.303371 0.013819 0.889496 0.027702 -0.013723 -282960.000000 0 0 1
-32.505035 0.287691 25.358993 41.227886 -0.008850 0.908292 0.034563 -0.017727 -463095.000000 0 0 1
-32.325615 1.623491 25.022233 40.910796 -0.050181 0.912678 0.035736 -0.008063 211150.000000 0 0 1
-33.674805 2.296491 24.612043 41.773425 -0.068091 0.940753 0.047853 -0.004268 458846.000000 0 0 1
-34.321182 1.547391 23.570073 41.663969 -0.045055 0.969492 0.048833 0.002543 -98713.800000 0 0 1
-35.409074 2.259291 23.002973 42.285265 -0.063719 0.995605 0.044993 0.011270 160010.000000 0 0 1
-35.137669 3.631991 22.177973 41.709827 -0.102999 1.010165 0.044800 0.010816 -125217.000000 0 0 1
-34.473360 3.518391 20.927073 40.481280 -0.101709 1.027504 0.058312 -0.001241 298296.000000 0 0 1
-35.395991 3.265091 19.866873 40.721366 -0.091984 1.061144 0.048985 0.000059 655722.000000 0 0 1
-34.633759 2.744591 18.590973 39.403735 -0.079081 1.079457 0.048104 0.004641 119239.000000 0 0 1
-33.759035 3.616691 17.944673 38.402658 -0.106725 1.084588 0.061117 0.005531 -262068.000000 0 0 1
-33.038905 2.879591 16.979773 37.258207 -0.086938 1.097601 0.054349 0.014356 -11397.300000 0 0 1
-32.047965 3.733491 16.149073 36.080515 -0.115974 1.106734 0.056615 0.013574 518825.000000 0 0 1
-32.739115 4.863591 15.600073 36.590524 -0.147477 1.130352 0.066457 0.002578 428418.000000 0 0 1
-31.785535 5.530891 14.836973 35.511220 -0.172282 1.139762 0.062438 0.001338 -65190.700000 0 0 1
-32.421135 6.796491 14.200073 36.041148 -0.206639 1.165821 0.064913 -0.018983 -32976.600000 0 0 1
-31.619095 7.504291 13.284073 35.107665 -0.233023 1.182750 0.071085 -0.016404 -344721.000000 0 0 1
-32.176665 8.709791 12.872673 35.733793 -0.264352 1.202273 0.062039 -0.022804 -473905.000000 0 0 1
-31.457305 9.436491 11.748473 34.880310 -0.291436 1.227256 0.061905 -0.021229 -75923.200000 0 0 1
-31.857655 10.769991 11.781773 35.633033 -0.326004 1.233813 0.054941 -0.019240 219330.000000 0 0 1
-31.145545 11.413391 10.739473 34.866126 -0.351257 1.257685 0.057498 -0.023971 128834.000000 0 0 1
-31.366255 12.936691 10.743673 35.589695 -0.391184 1.264137 0.051383 -0.019435 77222.400000 0 0 1
-30.510255 13.540391 9.802773 34.789541 -0.417684 1.285154 0.062149 -0.021641 124138.000000 0 0 1
-30.550925 14.997191 9.941773 35.455798 -0.456334 1.286586 0.052592 -0.023263 -319524.000000 0 0 1
-29.634505 15.737391 9.010073 34.742636 -0.488178 1.308460 0.058464 -0.020552 -248525.000000 0 0 1
-28.229365 15.714691 9.159673 33.581962 -0.507956 1.294540 0.067272 -0.013499 207652.000000 0 0 1
-27.575275 16.573891 8.279373 33.221042 -0.541185 1.318921 0.050761 -0.023335 131793.000000 0 0 1
-26.049345 16.729091 8.541273 32.115171 -0.570878 1.301599 0.055466 -0.014476 54232.600000 0 0 1
-25.711075 17.333291 9.762273 32.508527 -0.593170 1.265790 0.061972 -0.018585 117219.000000 0 0 1
-26.030765 18.661291 9.967073 33.543808 -0.621974 1.269105 0.055644 -0.025397 -476883.000000 0 0 1
-26.169595 19.027091 11.483973 34.333067 -0.628663 1.229735 0.053224 -0.015823 189595.000000 0 0 1
-24.944085 19.101491 12.191373 33.700206 -0.653519 1.200642 0.056485 -0.013881 218336.000000 0 0 1
-25.121445 19.610691 13.457173 34.594244 -0.662821 1.171250 0.057541 -0.020515 370982.000000 0 0 1
-25.695085 18.669191 14.604473 34.958071 -0.628334 1.139806 0.033769 -0.014847 517141.000000 0 0 1
-24.722085 17.662091 14.813173 33.801790 -0.620342 1.117161 0.054571 -0.017571 401274.000000 0 0 1
-25.141315 16.812891 15.833673 34.138896 -0.589434 1.088515 0.053429 -0.011488 -158176.000000 0 0 1
-24.091785 15.703991 16.069773 32.943391 -0.577668 1.061229 0.055127 -0.010266 45551.500000 0 0 1
-22.982985 16.172791 16.809473 32.746528 -0.613195 1.031747 0.047015 -0.010350 -251982.000000 0 0 1
-21.986385 15.212891 17.076273 31.724316 -0.605285 1.002412 0.039117 -0.018084 15555.800000 0 0 1
-22.283185 14.080091 18.062973 31.954034 -0.563525 0.970024 0.045663 -0.009112 -548215.000000 0 0 1
-22.465685 14.423991 19.407073 33.005954 -0.570763 0.942228 0.038651 -0.003467 135082.000000 0 0 1
-22.655785 13.291791 20.213673 33.144364 -0.530571 0.914903 0.035960 -0.008557 -248478.000000 0 0 1
-22.304285 13.511891 21.752473 33.959128 -0.544672 0.875584 0.014432 -0.002836 791255.000000 0 0 1
-20.920985 13.648791 22.119273 33.365241 -0.578059 0.846053 0.018935 0.001222 641154.000000 0 0 1
-20.560885 14.989591 22.267273 33.812265 -0.629947 0.851898 0.020547 0.000673 -609389.000000 0 0 1
-19.112285 15.160991 22.729573 33.343193 -0.670617 0.820732 0.036686 -0.007026 -270359.000000 0 0 1
-18.117185 14.908891 21.787973 32.019106 -0.688558 0.822395 0.031185 -0.010512 -576919.000000 0 0 1
-17.641385 16.040391 21.131273 31.859744 -0.737901 0.845631 0.032791 -0.016927 -1297750.000000 0 0 1
-16.478285 15.585391 20.233273 30.394467 -0.757558 0.842379 0.032502 -0.001837 1088700.000000 0 0 1
-15.277185 15.084491 20.877573 29.946741 -0.779052 0.799372 0.033411 0.005571 572670.000000 0 0 1
-14.518285 16.110791 21.423073 30.484196 -0.837345 0.791527 0.030827 -0.000528 -1457100.000000 0 0 1
-13.523185 15.638991 22.466473 30.531901 -0.857824 0.743896 0.019321 -0.009485 -486095.000000 0 0 1
-12.482585 14.860191 21.933973 29.287187 -0.872136 0.724355 -0.008464 0.012928 -294059.000000 0 0 1
-11.576085 14.522591 22.972273 29.540425 -0.897821 0.679868 0.004549 0.006523 969875.000000 0 0 1
-10.282085 13.730791 22.551073 28.333845 -0.928042 0.650294 -0.003328 0.007266 7837.660000 0 0 1
-9.562485 13.071991 23.639073 28.655258 -0.939225 0.600688 -0.002134 0.006203 311365.000000 0 0 1
-8.587585 12.187291 23.119973 27.510176 -0.956967 0.572747 0.003399 0.025780 394427.000000 0 0 1
-7.226385 12.852891 22.796573 27.149607 -1.058606 0.574130 0.009984 0.019187 -840884.000000 0 0 1
-7.391685 13.741191 21.707373 26.733263 -1.077274 0.623228 -0.000144 0.014850 -672057.000000 0 0 1
-6.470585 14.788991 21.816773 27.139533 -1.158363 0.637016 0.022860 0.004256 -349487.000000 0 0 1
-6.863685 16.002791 22.695673 28.605822 -1.165622 0.654433 0.031640 -0.006301 210241.000000 0 0 1
-7.914385 16.738591 22.054373 28.796063 -1.129126 0.698385 -0.008731 0.000970 -226320.000000 0 0 1
-7.478085 17.659391 21.069873 28.490619 -1.170229 0.738414 0.007135 0.004965 -1269690.000000 0 0 1
-8.480085 17.879291 19.896473 28.061548 -1.127922 0.782675 0.005084 0.009202 1066380.000000 0 0 1
-9.711585 18.542691 20.182973 29.077459 -1.088336 0.803613 -0.006186 0.017092 219610.000000 0 0 1
-10.547585 17.863991 21.123273 29.606863 -1.037437 0.776374 -0.004343 0.004894 -1159000.000000 0 0 1
-11.833685 18.720491 21.293973 30.723381 -1.007090 0.805034 0.005238 0.003387 -1714.980000 0 0 1
-12.699385 18.631491 20.174973 30.256179 -0.972520 0.840883 0.003640 0.009649 -341751.000000 0 0 1
-13.816485 19.456891 20.387373 31.386475 -0.953319 0.863792 0.019562 -0.001427 -217742.000000 0 0 1
-14.679585 19.623191 19.129273 31.088405 -0.928529 0.908006 0.021630 0.001516 -141581.000000 0 0 1
-15.390885 18.424191 18.818773 30.503710 -0.874861 0.905955 0.032627 0.008435 -32263.000000 0 0 1
-16.053585 18.657791 17.601973 30.259877 -0.860282 0.949987 0.043472 -0.002195 -939402.000000 0 0 1
-16.937685 17.446991 17.111173 29.733397 -0.800209 0.957597 0.035559 -0.009201 913029.000000 0 0 1
-18.096985 17.205591 17.901473 30.724517 -0.760153 0.948817 0.040258 -0.008723 122397.000000 0 0 1
-19.140985 18.148391 17.744773 31.790224 -0.758786 0.978602 0.046349 -0.012758 -672435.000000 0 0 1
34.061936 -9.618809 11.958691 37.359701 -0.275225 1.244966 -0.000220 -0.002363 -540682.000000 0 0 1
32.805326 -10.180109 11.670891 36.277180 -0.300896 1.243257 0.004133 0.000739 61682.700000 0 0 1
32.710506 -11.427709 12.319891 36.774305 -0.336104 1.229177 0.005640 -0.002511 1134790.000000 0 0 1
31.214996 -11.965009 12.378891 35.647923 -0.366036 1.216155 0.036588 0.000873 790446.000000 0 0 1
30.351336 -11.306509 13.243291 34.991792 -0.356596 1.182655 0.035709 0.009087 -918876.000000 0 0 1
29.032396 -11.621509 12.969091 33.854643 -0.380760 1.177666 0.045312 0.001501 -570659.000000 0 0 1
28.289366 -12.406909 14.081591 33.948650 -0.413309 1.143083 0.062602 -0.007990 -320501.000000 0 0 1
28.119276 -11.647909 15.274791 34.054173 -0.392715 1.105661 0.070387 -0.014125 -223588.000000 0 0 1
27.424816 -12.171209 16.354591 34.172087 -0.417688 1.071742 0.069900 -0.015286 687919.000000 0 0 1
25.882856 -11.867209 16.364391 32.841227 -0.429897 1.049173 0.060564 -0.022940 709201.000000 0 0 1
25.696456 -10.475909 16.384791 32.225982 -0.387109 1.037431 0.043578 -0.018198 -301021.000000 0 0 1
25.003756 -9.973509 15.255991 30.941945 -0.379541 1.055202 0.055376 -0.022766 -102333.000000 0 0 1
24.587756 -8.507409 15.466691 30.268008 -0.333109 1.034459 0.067209 -0.021610 -1266.880000 0 0 1
25.687656 -7.613609 15.544491 30.975053 -0.288143 1.045073 0.057308 -0.010800 -176201.000000 0 0 1
25.451056 -6.388109 16.158091 30.816361 -0.245916 1.018863 0.070256 -0.015054 195994.000000 0 0 1
26.758086 -5.576609 16.420491 31.886146 -0.205467 1.029821 0.065656 -0.014129 369563.000000 0 0 1
27.306556 -5.122009 15.185391 31.661950 -0.185420 1.070586 0.068223 -0.009026 800615.000000 0 0 1
28.507966 -4.340809 15.370391 32.677143 -0.151106 1.081085 0.055649 -0.011351 665167.000000 0 0 1
28.938176 -3.725209 14.049391 32.383339 -0.128026 1.122039 0.048435 -0.002123 -164490.000000 0 0 1
29.264906 -4.580209 12.954191 32.329926 -0.155249 1.158529 0.030275 0.000771 311526.000000 0 0 1
29.312326 -3.798009 11.838891 31.840174 -0.128853 1.189825 0.032370 -0.000508 -77633.500000 0 0 1
29.760256 -4.589209 10.589491 31.919759 -0.153001 1.232635 0.041943 -0.002125 130312.000000 0 0 1
31.116546 -5.026109 10.538991 33.235095 -0.160142 1.248122 0.033126 -0.003590 613253.000000 0 0 1
31.290956 -5.726809 9.304791 33.143618 -0.181015 1.286230 0.038453 -0.009564 462081.000000 0 0 1
32.650956 -6.466009 9.042591 34.491487 -0.195505 1.305527 0.022181 -0.012320 -259847.000000 0 0 1
33.734656 -5.608909 8.992891 35.360416 -0.164758 1.313651 0.026053 -0.014134 -1093930.000000 0 0 1
34.853336 -6.453009 8.802891 36.522422 -0.183074 1.327372 0.038946 -0.022145 138548.000000 0 0 1
-35.234334 -5.554709 8.501591 36.668653 0.156364 1.336818 0.043623 -0.024426 235764.000000 0 0 1
-35.386745 -4.998309 7.219991 36.460021 0.140320 1.371454 0.049966 -0.024112 35540.700000 0 0 1
-34.326202 -4.094609 7.036891 35.278489 0.118724 1.369982 0.054812 -0.016382 -116624.000000 0 0 1
-34.305180 -3.379709 5.620991 34.926542 0.098202 1.409156 0.059660 -0.020066 -257422.000000 0 0 1
-33.722785 -4.129509 4.610691 34.286113 0.121848 1.435911 0.063240 -0.026552 -59065.800000 0 0 1
-33.746325 -3.372209 3.459291 34.090365 0.099598 1.469147 0.063701 -0.022350 146815.000000 0 0 1
-32.897125 -3.946009 2.266391 33.210365 0.119380 1.502500 0.068926 -0.016616 -195498.000000 0 0 1
-33.271735 -5.142809 1.667591 33.708125 0.153356 1.521305 0.068029 -0.010746 -461305.000000 0 0 1
-34.432770 -5.032009 0.873191 34.809471 0.145113 1.545709 0.056821 -0.008179 -243235.000000 0 0 1
-34.194167 -4.949809 -0.663609 34.556939 0.143757 1.590001 0.067376 -0.008695 -1506260.000000 0 0 1
-33.925795 -6.218709 -1.197709 34.511830 0.181291 1.605508 0.060751 -0.010882 131198.000000 0 0 1
-32.954645 -6.123909 -2.222909 33.592443 0.183733 1.637018 0.058722 -0.010270 561927.000000 0 0 1
-31.497095 -5.862109 -1.725609 32.084405 0.184010 1.624606 0.070448 -0.020638 -626816.000000 0 0 1
-30.995935 -6.914509 -0.937509 31.771644 0.219484 1.600308 0.073861 -0.016486 -1277270.000000 0 0 1
-29.739545 -6.607009 -0.496509 30.468667 0.218612 1.587093 0.060827 -0.021394 -1302340.000000 0 0 1
-29.108615 -7.638809 0.421791 30.097189 0.256638 1.556782 0.037904 -0.015815 -417255.000000 0 0 1
-28.865125 -8.887809 -0.228709 30.203326 0.298696 1.578369 0.035822 -0.007914 398940.000000 0 0 1
-28.389635 -9.860609 0.656091 30.060497 0.334295 1.548969 0.032138 -0.005339 -338228.000000 0 0 1
-28.083965 -11.157409 -0.033309 30.219166 0.378166 1.571899 0.023155 -0.006830 103191.000000 0 0 1
-27.008985 -10.998709 -0.970309 29.178732 0.386718 1.604056 0.027668 -0.012128 834255.000000 0 0 1
-26.507605 -12.259609 -1.462209 29.241908 0.433195 1.620821 0.026650 -0.001279 -261171.000000 0 0 1
-27.401905 -13.048609 -2.455409 30.449296 0.444422 1.651523 0.024202 -0.006735 -862007.000000 0 0 1
-28.470985 -13.648909 -1.821709 31.626071 0.447030 1.628430 0.032188 -0.012232 -272832.000000 0 0 1
-28.979965 -14.703509 -2.573409 32.598374 0.469525 1.649821 0.034470 -0.012193 -294837.000000 0 0 1
-29.789305 -15.772509 -1.793009 33.754846 0.486944 1.623940 0.036241 -0.011722 -20517.400000 0 0 1
-29.059925 -16.677809 -0.963809 33.519509 0.521015 1.599554 0.006771 -0.004698 153073.000000 0 0 1
-29.868235 -17.307409 0.009591 34.520400 0.525179 1.570518 0.016194 -0.000384 -59039.000000 0 0 1
-30.053205 -18.837309 -0.288009 35.470020 0.559892 1.578916 0.024814 -0.003614 -243827.000000 0 0 1
-28.893475 -19.537009 0.071991 34.878831 0.594556 1.568732 0.030560 -0.012930 88585.000000 0 0 1
-29.012585 -20.929509 -0.194609 35.774465 0.624941 1.576236 0.041542 -0.016340 -250862.000000 0 0 1
-29.788805 -21.691109 0.889591 36.860121 0.629378 1.546660 0.047363 -0.019352 -909156.000000 0 0 1
-29.226985 -21.827009 2.146491 36.540969 0.641456 1.512020 0.045760 -0.016989 -550449.000000 0 0 1
-30.181205 -22.268709 3.075291 37.633203 0.635669 1.488988 0.052228 -0.013402 -26162.300000 0 0 1
-29.593515 -22.443109 4.496591 37.412413 0.648842 1.450315 0.037995 -0.013913 -157452.000000 0 0 1
-29.053375 -21.274409 5.085991 36.367106 0.632046 1.430485 0.024642 -0.015903 90139.400000 0 0 1
-28.498505 -21.525309 6.350891 36.274475 0.646893 1.394811 0.015147 -0.014286 -136392.000000 0 0 1
-27.983955 -20.144009 6.869691 35.157866 0.623919 1.374136 0.014630 -0.007356 -11031.700000 0 0 1
-27.308065 -20.233309 8.105691 34.940227 0.637670 1.336676 0.001763 -0.009303 -187463.000000 0 0 1
-26.898145 -18.940409 8.487691 33.974847 0.613508 1.318299 0.011116 -0.011793 123884.000000 0 0 1
-25.817965 -18.944209 9.614891 33.434960 0.633027 1.279108 0.010267 -0.006305 87795.800000 0 0 1
-26.152965 -19.709209 10.776891 34.475671 0.645809 1.252874 0.011737 -0.002605 -61113.900000 0 0 1
-25.087635 -19.854709 11.712591 34.070276 0.669484 1.219860 0.026128 0.008596 160983.000000 0 0 1
-24.716085 -18.652409 12.634991 33.443090 0.646481 1.183371 0.020403 0.002407 -374394.000000 0 0 1
-24.238985 -17.540309 11.886491 32.194402 0.626416 1.192638 0.019076 -0.003712 -97151.300000 0 0 1
-24.092685 -16.347409 12.628491 31.736006 0.596165 1.161544 0.016187 0.004189 323850.000000 0 0 1
-23.068785 -16.265009 13.796991 31.417771 0.614118 1.116148 0.037151 0.012120 186726.000000 0 0 1
-23.573985 -17.089409 14.851291 32.685494 0.627260 1.099132 0.018323 -0.004813 -37662.800000 0 0 1
-22.726785 -17.057309 15.986191 32.603939 0.643845 1.058346 0.035655 -0.008534 109368.000000 0 0 1
-23.171585 -17.993009 17.176491 33.995626 0.660254 1.041118 0.028832 0.011970 -105142.000000 0 0 1
-24.246585 -17.473009 17.889991 34.831806 0.624443 1.031409 0.025158 0.007100 -199332.000000 0 0 1
-24.838085 -18.379709 18.831691 36.185312 0.637058 1.023449 0.013013 0.008966 438180.000000 0 0 1
-25.914935 -17.753609 19.770091 37.116452 0.600637 1.009067 0.012481 0.011386 195252.000000 0 0 1
-25.347335 -16.781309 20.659891 36.755011 0.584803 0.973877 0.024042 0.007167 -275790.000000 0 0 1
-26.244095 -15.851409 21.179991 37.264081 0.543355 0.966266 0.023277 0.003444 -416516.000000 0 0 1
-25.685215 -15.047309 22.377691 37.241279 0.529939 0.926190 0.029305 0.000911 330586.000000 0 0 1
-24.576185 -14.203509 22.114891 35.983287 0.524039 0.908933 0.028811 0.002572 -24797.300000 0 0 1
-23.898685 -13.748109 23.226691 36.050476 0.522034 0.870712 0.021415 -0.003017 209318.000000 0 0 1
-22.676685 -12.893809 22.766891 34.623889 0.517006 0.853236 0.025304 0.000579 386648.000000 0 0 1
-23.164385 -11.775309 21.997591 34.046155 0.470295 0.868318 0.026851 -0.000745 1207060.000000 0 0 1
-22.057785 -11.111409 21.349991 32.647074 0.466636 0.857985 0.028359 0.000353 592185.000000 0 0 1
-21.613985 -9.767309 21.988991 32.343166 0.424431 0.823218 0.021779 -0.007759 -23838.700000 0 0 1
-21.180385 -9.717409 23.311591 32.961599 0.430142 0.785217 0.029045 -0.012121 871326.000000 0 0 1
-19.753885 -9.821609 23.438491 32.187619 0.461404 0.755129 0.023416 -0.003011 680122.000000 0 0 1
-19.265985 -9.882709 24.896391 32.995097 0.473963 0.715831 0.019948 -0.008613 103944.000000 0 0 1
-19.376785 -11.172509 25.484791 33.908101 0.523030 0.720336 0.016759 -0.002306 105475.000000 0 0 1
-18.414685 -11.352709 26.507291 34.214341 0.552466 0.684489 0.019101 -0.004663 -730747.000000 0 0 1
-18.532485 -12.747109 27.152991 35.259420 0.602508 0.691811 0.021670 -0.021860 1117990.000000 0 0 1
-19.749585 -13.046109 27.878691 36.571416 0.583774 0.703924 0.027903 -0.017617 1974800.000000 0 0 1
-21.046985 -13.143609 27.237691 36.845920 0.558232 0.738867 0.012619 -0.008928 1564440.000000 0 0 1
-22.266385 -13.213009 28.198891 38.282541 0.535557 0.742768 0.013963 -0.012203 10302.500000 0 0 1
-22.428185 -14.471509 28.890291 39.333154 0.573020 0.745863 0.011997 -0.007108 117781.000000 0 0 1
-21.516185 -14.567709 30.004191 39.691508 0.595162 0.713716 0.008446 -0.004781 337146.000000 0 0 1
-21.944985 -15.562309 31.189991 41.189603 0.616841 0.711735 0.003250 -0.004902 -893598.000000 0 0 1
-21.756385 -16.919009 30.876491 41.387810 0.660968 0.728718 0.010204 -0.002945 -120649.000000 0 0 1
-22.067885 -17.878509 31.882691 42.698227 0.680905 0.727712 0.016003 0.000296 -7527.120000 0 0 1
-23.505085 -17.995709 32.438891 43.916013 0.653416 0.739720 0.010691 0.001269 -301054.000000 0 0 1
-23.852985 -17.102109 33.467091 44.513966 0.622031 0.719958 0.022600 -0.000344 -51750.100000 0 0 1
-25.189825 -17.302409 33.898091 45.639689 0.601867 0.733654 0.027879 -0.015589 119455.000000 0 0 1
-25.742735 -16.019509 -34.337991 45.808413 0.556650 2.418254 0.034588 -0.013063 -60037.500000 0 0 1
-25.094975 -15.747809 -33.094291 44.418278 0.560415 2.411421 0.042827 -0.014019 158705.000000 0 0 1
-25.697425 -14.633309 -32.419291 43.880541 0.517651 2.402096 0.050535 -0.013722 -368772.000000 0 0 1
-25.299095 -14.326809 -30.987291 42.491339 0.515269 2.388038 0.038878 -0.002556 -356756.000000 0 0 1
-25.738045 -15.288209 -30.027691 42.400926 0.535991 2.357720 0.043987 0.007990 180711.000000 0 0 1
-25.399945 -14.841809 -28.734191 41.122868 0.528814 2.344431 0.048557 0.004010 -149873.000000 0 0 1
-26.088385 -15.757909 -27.690491 41.178621 0.543370 2.308308 0.048496 0.003131 1119490.000000 0 0 1
-27.317825 -15.315209 -27.059691 41.388961 0.510968 2.283379 0.064596 0.000232 1014010.000000 0 0 1
-27.172815 -14.162709 -26.211191 40.323328 0.480470 2.278414 0.041813 -0.003913 -649598.000000 0 0 1
-26.396535 -14.130209 -24.842291 38.904747 0.491491 2.263398 0.045569 -0.011033 -163194.000000 0 0 1
-25.051885 -13.806209 -25.175391 38.105232 0.503691 2.292522 0.038439 -0.015481 562303.000000 0 0 1
-24.119985 -14.088009 -24.122091 36.906923 0.528632 2.283118 0.030767 -0.017311 113430.000000 0 0 1
-23.592185 -15.526209 -24.190691 37.186609 0.582054 2.279067 0.030340 -0.014211 -499373.000000 0 0 1
-22.564185 -15.674209 -25.181591 37.268429 0.607126 2.312685 0.032636 -0.009017 615656.000000 0 0 1
-22.144085 -17.040409 -25.245991 37.657617 0.655880 2.305556 0.033894 -0.002901 295522.000000 0 0 1
-21.235985 -17.503509 -26.438091 38.161664 0.689347 2.336150 0.030567 0.005782 448515.000000 0 0 1
-21.816385 -17.462909 -27.774891 39.399904 0.675015 2.353146 0.034046 0.002817 551254.000000 0 0 1
-22.808485 -18.447609 -28.076191 40.605588 0.680087 2.334272 0.042325 -0.000460 -13799.700000 0 0 1
-23.275585 -18.200209 -29.502291 41.753870 0.663634 2.355444 0.035035 -0.006544 -533810.000000 0 0 1
-22.397585 -18.551009 -30.516691 42.155192 0.691736 2.380254 0.035209 0.001914 11828.400000 0 0 1
-22.868585 -18.038209 -31.750491 43.086458 0.667860 2.399272 0.024297 -0.008303 131891.000000 0 0 1
-22.010685 -18.620109 -32.936791 43.772262 0.702143 2.422582 0.020724 -0.010380 740143.000000 0 0 1
-20.674285 -18.132809 -33.059491 43.001800 0.720002 2.447748 0.019969 -0.009747 1262660.000000 0 0 1
-19.558885 -18.954909 -32.649191 42.518329 0.769717 2.446329 0.012781 -0.006866 671238.000000 0 0 1
-19.276285 -20.158509 -33.592091 43.661989 0.807766 2.448646 0.020704 -0.007730 -763415.000000 0 0 1
-18.736485 -19.777509 33.967091 43.542726 0.812421 0.675992 0.030399 -0.012722 120493.000000 0 0 1
-18.761885 -20.703409 32.903391 43.165642 0.834554 0.704001 0.032168 -0.010882 -285708.000000 0 0 1
-20.102085 -21.275209 32.358291 43.632412 0.813742 0.735327 0.031733 -0.006238 172666.000000 0 0 1
-20.737585 -22.210209 33.269791 45.057961 0.819673 0.740135 0.024000 -0.003752 -65141.100000 0 0 1
-22.002885 -22.599009 32.761791 45.477215 0.798763 0.766417 0.030801 0.004004 121059.000000 0 0 1
-22.010185 -23.689409 31.653691 45.250332 0.822126 0.796065 0.038454 0.014404 -549530.000000 0 0 1
-21.761985 -24.961309 32.197791 46.188188 0.853765 0.799451 0.045809 0.015172 1478.780000 0 0 1
-21.724885 -25.994359 31.234891 46.079233 0.874631 0.825960 0.061216 0.015449 85996.700000 0 0 1
-21.211185 -27.281099 31.953491 47.065894 0.909923 0.824520 0.077894 0.005040 28888.500000 0 0 1
-22.137785 -27.611919 32.943991 48.350865 0.894991 0.821187 0.055009 0.004077 136480.000000 0 0 1
-21.531485 -28.532919 33.861791 49.237722 0.924346 0.812452 0.059573 -0.007477 6162.500000 0 0 1
-22.510685 -29.447339 -34.200991 50.433962 0.918118 2.316017 0.052545 -0.010423 -391579.000000 0 0 1
-23.381885 -30.306649 33.868891 51.110736 0.913670 0.846435 0.050850 -0.006783 2276390.000000 0 0 1
-24.709685 -29.806729 33.476991 51.183186 0.878623 0.857854 0.039253 -0.003644 1323830.000000 0 0 1
-25.608285 -29.245289 -34.274291 51.824688 0.851605 2.293414 0.026181 -0.001014 -1637860.000000 0 0 1
-26.722825 -28.640159 33.970591 51.849486 0.820016 0.856379 0.019359 0.006678 115172.000000 0 0 1
-27.611685 -28.146879 -33.843791 51.962046 0.794996 2.280116 0.018814 0.009878 1196590.000000 0 0 1
-28.845545 -27.293539 -34.357291 52.511201 0.757759 2.284033 0.005700 0.005560 491020.000000 0 0 1
-29.806535 -27.926839 33.718591 52.964906 0.752851 0.880687 -0.014441 0.008902 -416523.000000 0 0 1
-30.715655 -26.996529 33.144991 52.638907 0.721045 0.889672 -0.005776 0.005241 79040.700000 0 0 1
