# x y z rho theta phi s1 s2 stress_xx np intf bulk
-0.728540 -10.886714 -14.419096 18.082081 1.503976 2.493811 -0.007902 0.006089 -602495.000000 1 0 0
2.076360 -13.359114 -12.884796 18.676059 -1.416604 2.332161 -0.009868 0.005963 179277.000000 1 0 0
2.157160 -11.231514 -14.711996 18.634460 -1.381044 2.480798 -0.007673 0.008582 56095.700000 1 0 0
-5.374440 -6.262914 -16.493596 18.443086 0.861597 2.677654 0.010869 -0.004916 -1002010.000000 1 0 0
4.515460 -14.129214 -11.452196 18.739714 -1.261472 2.228270 -0.009183 0.008511 1740110.000000 1 0 0
14.146460 -10.570214 -7.788296 19.300500 -0.641706 1.986166 0.033820 -0.006870 -217713.000000 1 0 0
7.074960 10.837986 -10.844196 16.885307 0.992460 2.268196 0.013408 -0.009039 233484.000000 1 0 0
5.716860 -4.275314 -12.658996 14.533100 -0.642119 2.628124 -0.003289 0.001242 1468520.000000 1 0 0
13.599260 0.443686 -10.011696 16.892921 0.032614 2.205149 0.014513 -0.005729 705956.000000 1 0 0
14.179060 4.918586 -10.304696 18.205081 0.333902 2.172483 0.020511 -0.006222 922851.000000 1 0 0
4.091060 4.301286 -13.437396 14.690182 0.810443 2.725610 0.000631 -0.003969 1729750.000000 1 0 0
10.273960 -5.048214 -13.641396 17.808043 -0.456712 2.443430 0.010507 -0.004235 -276652.000000 1 0 0
2.587960 -7.675714 -12.007896 14.484602 -1.245604 2.548133 -0.005312 0.007060 672658.000000 1 0 0
-5.499940 -2.001714 -15.141296 16.233147 0.349050 2.772734 0.005728 -0.006062 649383.000000 1 0 0
10.607460 0.033286 -9.623996 14.322731 0.003138 2.307620 0.008448 -0.005517 1652870.000000 1 0 0
-1.568440 -9.638014 -16.905896 19.523336 1.409476 2.617809 0.002915 -0.003261 13942.300000 1 0 0
8.577860 1.726586 -18.053096 20.061781 0.198630 2.690279 0.013990 0.000425 -441978.000000 1 0 0
16.313960 -5.909414 -8.711196 19.415236 -0.347529 2.036082 0.033302 -0.011876 -427571.000000 1 0 0
10.109560 7.567186 -9.961096 16.083810 0.642552 2.238678 0.012569 -0.006577 199364.000000 1 0 0
13.774760 -2.353414 -10.598596 17.538894 -0.169216 2.219672 0.025210 -0.009439 -1124510.000000 1 0 0
7.185960 -1.885514 -13.679296 15.566513 -0.256604 2.644063 0.002748 -0.003225 48572.800000 1 0 0
-2.801940 6.690586 -13.840296 15.625896 -1.174199 2.658857 0.003794 -0.002558 277482.000000 1 0 0
11.201560 1.756686 -13.902796 17.940140 0.155558 2.457440 0.015112 -0.003596 -454628.000000 1 0 0
-2.369040 10.679286 -12.986896 16.979958 -1.352496 2.441584 0.006929 -0.000802 -1910940.000000 1 0 0
2.852560 -1.075414 -15.276596 15.577805 -0.360523 2.944624 -0.001390 -0.002105 -57207.800000 1 0 0
-9.008740 0.358886 -15.227196 17.696150 -0.039816 2.607009 0.004109 -0.003183 -49482.200000 1 0 0
2.387560 -1.771814 -18.014696 18.258397 -0.638428 2.978026 0.005862 -0.012385 1000400.000000 1 0 0
1.039660 7.812986 -13.229596 15.399541 1.438505 2.604286 0.004591 -0.004451 24653.500000 1 0 0
9.414160 -9.074014 -9.846596 16.368250 -0.767002 2.216257 0.012978 0.001500 139425.000000 1 0 0
3.985560 7.210986 -13.519296 15.832068 1.065877 2.594266 0.004946 -0.006038 1059410.000000 1 0 0
-2.732640 9.069986 -15.605396 18.255420 -1.278162 2.596032 0.005596 -0.000157 1798450.000000 1 0 0
5.507160 -7.642614 -15.332396 17.995020 -0.946388 2.590658 0.000959 0.002274 1581200.000000 1 0 0
4.212460 7.051986 -16.397396 18.339845 1.032332 2.677182 0.008900 -0.010627 287822.000000 1 0 0
-0.325640 5.043486 -13.499996 14.415016 -1.506319 2.783375 0.007482 -0.007457 1383210.000000 1 0 0
8.824860 4.308786 -16.667896 19.345867 0.454208 2.609159 0.015034 0.001539 -572413.000000 1 0 0
5.313860 0.314686 -14.367796 15.322196 0.059151 2.786779 -0.003497 -0.002564 1225140.000000 1 0 0
6.272660 7.961786 -11.617396 15.417529 0.903511 2.424194 0.002575 -0.004289 -1398720.000000 1 0 0
2.719960 -8.496514 -15.074296 17.516374 -1.260979 2.607210 -0.005638 0.005461 -295284.000000 1 0 0
4.014660 11.422386 -13.795896 18.355248 1.232810 2.421288 0.015109 -0.014003 -530991.000000 1 0 0
0.646360 -4.646614 -13.792696 14.568709 -1.432580 2.813735 -0.002572 0.004289 1371170.000000 1 0 0
8.478860 -0.142814 -11.601496 14.370323 -0.016842 2.510398 -0.000527 -0.002628 -1195700.000000 1 0 0
-0.874040 -5.126814 -16.313096 17.122070 1.401936 2.832969 0.000775 -0.003161 -295922.000000 1 0 0
4.464860 0.961286 -11.741896 12.598856 0.212063 2.770636 -0.001574 -0.003648 967454.000000 1 0 0
-2.776740 -7.225214 -15.618396 17.431245 1.203886 2.681474 0.000611 -0.001245 136009.000000 1 0 0
11.353460 -3.823714 -11.339296 16.495499 -0.324857 2.328724 0.013785 -0.008249 277875.000000 1 0 0
6.493760 -7.152414 -12.592596 15.871340 -0.833627 2.487199 -0.000379 0.003244 -1450980.000000 1 0 0
3.429960 -4.013914 -14.710296 15.629106 -0.863686 2.796996 -0.002972 0.002128 1991590.000000 1 0 0
-0.555040 -1.542814 -18.308896 18.382166 1.225455 3.052278 0.012121 -0.016561 887070.000000 1 0 0
14.949760 2.825086 -8.507196 17.431260 0.186770 2.080642 0.022449 -0.001347 -1178730.000000 1 0 0
6.945560 4.213386 -14.327396 16.470207 0.545280 2.625791 0.002489 -0.001817 2978960.000000 1 0 0
10.248560 -9.659614 -13.968696 19.835967 -0.755824 2.352107 0.038559 -0.008661 -998.960000 1 0 0
8.957360 -3.287514 -15.561696 18.253998 -0.351755 2.591563 0.012644 -0.009331 -538812.000000 1 0 0
-5.342640 -2.148314 -18.083396 18.978100 0.382322 2.833310 0.006485 -0.001140 -129186.000000 1 0 0
5.069960 -9.101214 -11.050996 15.187531 -1.062546 2.385666 -0.007292 0.005329 2174130.000000 1 0 0
-2.451540 3.886986 -17.158896 17.763627 -1.008105 2.879913 0.006633 -0.002207 1559030.000000 1 0 0
9.343460 9.273886 -14.470196 19.562510 0.781661 2.403406 0.022712 -0.009363 -413073.000000 1 0 0
9.805260 9.994986 -11.682496 18.235229 0.794980 2.266148 0.016815 -0.009236 -964564.000000 1 0 0
11.980960 -5.980214 -9.605296 16.479323 -0.462962 2.193052 0.022370 -0.008313 -1770150.000000 1 0 0
8.128960 6.832586 -13.625496 17.274790 0.698967 2.479570 0.008736 -0.004557 -411430.000000 1 0 0
4.073960 -4.115114 -17.576696 18.505987 -0.790424 2.823342 0.006931 -0.007768 347587.000000 1 0 0
9.297560 -7.543414 -12.364596 17.211361 -0.681613 2.372292 0.010710 -0.003344 225249.000000 1 0 0
12.060560 -8.711314 -8.753796 17.261896 -0.625535 2.102632 0.023124 -0.007976 256368.000000 1 0 0
-2.889040 -2.542014 -13.897596 14.420526 0.721588 2.871466 0.002482 -0.002260 -1471360.000000 1 0 0
-0.384240 6.062786 -17.669396 18.684555 -1.507504 2.810441 0.015654 -0.004327 934382.000000 1 0 0
1.088260 -8.628814 -17.550396 19.587168 -1.445339 2.681508 -0.000308 -0.003143 -457623.000000 1 0 0
0.061960 8.458886 -16.030696 18.125667 1.563472 2.656045 0.010524 -0.002458 -1395580.000000 1 0 0
1.715360 3.320186 -14.889096 15.350938 1.093921 2.895676 0.009054 -0.006773 1918710.000000 1 0 0
-1.889940 -0.444214 -15.780596 15.899573 0.230851 3.019181 0.005622 -0.007618 1719770.000000 1 0 0
14.006160 -4.303914 -8.381596 16.880383 -0.298129 2.090392 0.023421 -0.011788 -404351.000000 1 0 0
0.550660 0.574686 -14.466196 14.488075 0.806745 3.086629 0.005840 -0.003659 44004.200000 1 0 0
8.824960 2.675786 -12.595396 15.610373 0.294396 2.509615 0.003038 -0.002758 756864.000000 1 0 0
5.892760 1.120086 -17.105096 18.126321 0.187838 2.804320 0.006319 -0.002772 659957.000000 1 0 0
15.212060 1.426586 -12.350796 19.646477 0.093506 2.250615 0.023404 -0.008594 -1069700.000000 1 0 0
8.821060 -11.238914 -11.938396 18.618528 -0.905351 2.266871 0.027173 -0.000236 860112.000000 1 0 0
-4.563040 0.756486 -15.100896 15.793375 -0.164291 2.844371 0.007627 -0.004534 1426280.000000 1 0 0
2.337460 4.995986 -17.286696 18.145343 1.133183 2.832729 0.014532 -0.009010 347982.000000 1 0 0
5.957760 -11.760314 -12.310796 18.037616 -1.101884 2.321983 0.003225 0.004901 -934518.000000 1 0 0
12.808760 7.011986 -8.640796 16.967487 0.500873 2.105117 0.016777 -0.007349 1750380.000000 1 0 0
-5.079140 3.586486 -15.745696 16.928895 -0.614822 2.765502 0.003944 -0.002075 3120060.000000 1 0 0
-0.508140 -4.381914 -19.148096 19.649656 1.455349 2.915166 0.011720 -0.015721 -1118480.000000 1 0 0
9.716560 4.387886 -10.301696 14.825317 0.424174 2.339038 0.001040 -0.001948 846410.000000 1 0 0
13.291260 3.573986 -12.759496 18.767944 0.262684 2.318362 0.019114 -0.007958 -131676.000000 1 0 0
-6.216940 5.824086 -17.199996 19.194015 -0.752783 2.681728 -0.002303 0.004043 -85005.800000 1 0 0
-10.198040 3.071886 -15.534096 18.834666 -0.292579 2.540576 0.004788 0.000618 -276113.000000 1 0 0
10.500660 13.417686 -8.406396 18.999096 0.906757 2.029140 0.022258 -0.009669 -566529.000000 1 0 0
7.422260 13.426886 -12.416396 19.736720 1.065813 2.251193 0.028646 -0.010435 936963.000000 1 0 0
5.275960 15.167786 -11.236696 19.600021 1.236047 2.181324 0.023625 -0.011819 1186020.000000 1 0 0
14.165660 9.299186 -9.829796 19.589938 0.580903 2.096449 0.044925 -0.014026 -674143.000000 1 0 0
8.224660 -17.219514 -1.975896 19.184912 -1.125199 1.673971 0.025631 -0.002135 -611328.000000 1 0 0
0.660860 -15.928214 0.127504 15.942428 -1.529330 1.562798 0.010810 -0.010334 3357030.000000 1 0 0
-9.134240 -11.768114 7.641004 16.742395 0.910746 1.096866 0.007080 -0.002730 734879.000000 1 0 0
1.982560 -15.872714 -2.490896 16.188828 -1.446536 1.725275 0.010325 -0.005329 2670020.000000 1 0 0
-1.347440 -11.057114 -9.376596 14.560080 1.449532 2.270503 0.002832 0.004167 336930.000000 1 0 0
-4.866840 -12.745914 -13.000696 18.845757 1.206047 2.332075 0.010936 0.003492 2086370.000000 1 0 0
-8.373340 -17.707714 -1.824296 19.672418 1.129092 1.663663 -0.000386 -0.012004 369041.000000 1 0 0
-11.447240 -7.019014 -8.828696 16.070213 0.550041 2.152422 0.008997 -0.006163 2723910.000000 1 0 0
-13.456440 -11.546014 -4.721896 18.348911 0.709137 1.831064 0.002466 -0.000669 -640867.000000 1 0 0
-5.622940 -13.450114 9.750304 17.538285 1.174819 0.981298 0.001685 -0.006609 130859.000000 1 0 0
0.048260 -14.023714 -3.567596 14.470475 -1.567355 1.819908 0.011500 -0.005075 420084.000000 1 0 0
-14.704740 -11.555114 1.921204 18.800029 0.666028 1.468426 0.002762 0.004125 712264.000000 1 0 0
-3.962240 -16.506814 -7.410596 18.522721 1.335217 1.982402 -0.001938 -0.007923 251502.000000 1 0 0
0.506160 -15.384714 -9.228196 17.947291 -1.537908 2.110851 0.002265 0.008551 990126.000000 1 0 0
4.522560 -14.171014 -2.587596 15.098571 -1.261872 1.743027 0.006916 0.001390 969280.000000 1 0 0
-3.568640 -18.064014 -2.451896 18.575672 1.375753 1.703178 -0.004594 -0.014197 -80403.200000 1 0 0
-1.067340 -13.446214 0.794604 13.511894 1.491584 1.511955 0.011298 -0.008663 906083.000000 1 0 0
-8.484040 -11.401614 -10.645896 17.756995 0.931076 2.213713 0.008908 0.000721 2364570.000000 1 0 0
-3.814340 -14.073914 -0.292496 14.584574 1.306132 1.590853 0.004171 -0.006043 4832040.000000 1 0 0
-1.534140 -14.926114 -7.237996 16.659264 1.468374 2.020249 0.001088 -0.002059 659502.000000 1 0 0
-14.220040 -7.883014 -1.706396 16.348188 0.506184 1.675365 0.011494 0.000782 484593.000000 1 0 0
-10.656140 -7.392614 -11.624596 17.416524 0.606514 2.301571 0.010667 -0.008655 1058280.000000 1 0 0
-9.457440 -14.789114 6.903904 18.863323 1.001847 1.196093 0.000902 0.005569 538831.000000 1 0 0
-2.531340 -14.444314 -12.280296 19.127247 1.397310 2.267941 0.011760 0.007487 908783.000000 1 0 0
2.348260 -17.834314 -4.556296 18.556318 -1.439879 1.818872 0.009910 -0.004944 1151790.000000 1 0 0
-6.630840 -9.648614 -9.331396 14.971264 0.968691 2.243736 0.004046 -0.001831 325624.000000 1 0 0
-11.095340 -15.260214 0.480804 18.873576 0.942129 1.545319 -0.002941 -0.001973 415959.000000 1 0 0
-12.636340 -10.978714 4.076604 17.228696 0.715319 1.331914 0.008268 0.002128 1848900.000000 1 0 0
-17.045440 -8.941914 -1.591996 19.314226 0.483128 1.653316 0.012510 -0.001559 -77196.900000 1 0 0
-1.449340 -19.248914 -3.940996 19.701592 1.495643 1.772189 0.007674 -0.012428 -897738.000000 1 0 0
3.298060 -14.354314 -8.814696 17.164568 -1.344955 2.110102 -0.004575 0.008623 201848.000000 1 0 0
-4.206740 -8.064914 -13.052996 15.909752 1.090011 2.532976 0.005284 0.003095 1727790.000000 1 0 0
5.544360 -16.623414 1.331104 17.574119 -1.248871 1.494981 0.022915 -0.006870 3769660.000000 1 0 0
-2.885040 -13.785714 -3.109596 14.423556 1.364496 1.788094 0.001900 -0.007235 -1433680.000000 1 0 0
-0.435440 -13.941814 3.749304 14.443721 1.539574 1.308209 0.004808 -0.006502 -3286870.000000 1 0 0
1.216160 -16.121414 7.107504 17.660568 -1.495501 1.156604 0.010979 -0.010181 1529330.000000 1 0 0
-5.407940 -10.369614 -14.663496 18.756141 1.090083 2.468339 0.011539 -0.000813 344544.000000 1 0 0
-0.319740 -17.253714 -5.804296 18.206668 1.552267 1.895260 0.011641 -0.006852 874306.000000 1 0 0
-6.582840 -13.352314 -1.265796 14.940560 1.112755 1.655620 0.002309 -0.007868 3773180.000000 1 0 0
-1.738240 -17.632414 -0.255496 17.719729 1.472532 1.585216 0.006875 -0.014668 3239630.000000 1 0 0
-9.462640 -9.742314 -4.899096 14.437984 0.799960 1.916990 0.007311 -0.006596 1764880.000000 1 0 0
-0.808540 -16.624114 4.950604 17.364429 1.522198 1.281685 0.012294 -0.008907 2046100.000000 1 0 0
-6.851740 -9.844114 -6.363596 13.577492 0.962744 2.058600 0.004673 -0.004690 2702790.000000 1 0 0
-6.025540 -14.488614 -8.453196 17.823681 1.176675 2.064928 -0.000966 -0.006656 -892448.000000 1 0 0
-5.716640 -12.241114 -10.269296 16.970071 1.133893 2.220740 0.006646 0.000180 961092.000000 1 0 0
-10.680140 -12.105014 -8.778596 18.375541 0.847852 2.068868 0.017622 -0.012023 1081640.000000 1 0 0
3.849060 -17.280614 6.533504 18.871183 -1.351635 1.217262 0.017259 -0.005957 833884.000000 1 0 0
-6.739040 -14.361514 -4.150096 16.397898 1.132056 1.826666 -0.001932 -0.011680 -303685.000000 1 0 0
-2.864940 -12.217414 -7.099196 14.417756 1.340462 2.085633 0.003848 -0.000730 2655840.000000 1 0 0
-7.048440 -12.809214 4.423904 15.275058 1.067751 1.276971 0.002328 -0.000201 1604510.000000 1 0 0
2.575460 -16.456414 2.433604 16.833567 -1.415554 1.425719 0.014822 -0.010189 3624040.000000 1 0 0
-6.182640 -12.022414 7.206004 15.319594 1.095806 1.081077 0.000848 -0.003629 3235190.000000 1 0 0
-11.266040 -12.748814 -0.973796 17.041250 0.847064 1.627971 -0.000217 0.000397 10983.400000 1 0 0
-14.193240 -8.584514 4.610204 17.216153 0.543964 1.299704 0.013799 -0.002182 -309868.000000 1 0 0
-7.951240 -15.583014 4.441304 18.049314 1.098982 1.322178 -0.003655 0.005465 612891.000000 1 0 0
-16.472740 -9.175614 1.215504 18.894987 0.508215 1.506422 -0.001383 0.004940 -511640.000000 1 0 0
-6.650140 -17.094314 2.267404 18.481912 1.199786 1.447804 -0.008987 0.004615 1858340.000000 1 0 0
-11.574540 -15.019914 -4.637196 19.521050 0.914233 1.810638 0.017395 0.001420 -1322660.000000 1 0 0
-10.030640 -9.989214 -12.709396 19.024377 0.783329 2.302393 0.014254 -0.002399 587650.000000 1 0 0
-4.395440 -15.994014 -4.437896 17.170420 1.302599 1.832226 -0.003435 -0.009710 -142416.000000 1 0 0
-11.743340 -8.157414 0.054504 14.298686 0.607121 1.566985 0.002339 -0.000506 3730240.000000 1 0 0
-9.616340 -11.170714 3.515604 15.153162 0.860035 1.336658 0.000912 0.000989 2796570.000000 1 0 0
-14.180040 -12.897714 -0.656296 19.179554 0.738076 1.605022 0.000347 0.004138 207461.000000 1 0 0
5.551560 -14.995214 -7.088896 17.490818 -1.216221 1.988095 0.002881 0.002992 207781.000000 1 0 0
-7.509440 -10.514614 -1.264996 12.982643 0.950610 1.668389 0.000965 -0.003793 2626190.000000 1 0 0
-11.622740 -8.188914 -6.006896 15.434676 0.613780 1.970540 0.008205 -0.005666 1861970.000000 1 0 0
-14.492740 -6.673614 -9.107796 18.371952 0.431535 2.089488 0.014173 -0.007836 1918660.000000 1 0 0
-3.923040 -16.385014 1.434004 16.909030 1.335792 1.485887 0.001353 -0.008202 1419170.000000 1 0 0
-8.054940 -15.537414 0.166104 17.502025 1.092520 1.561306 -0.000561 -0.003436 1437950.000000 1 0 0
0.957160 -18.612714 3.707104 19.002418 -1.519417 1.374451 0.007433 -0.011249 1307690.000000 1 0 0
-14.168340 -8.721314 -4.549496 17.248220 0.551775 1.837721 0.014392 -0.007271 523218.000000 1 0 0
-3.232740 -14.556814 11.137104 18.611462 1.352265 0.929293 -0.007786 -0.009605 926413.000000 1 0 0
-10.780340 -12.196214 -3.820396 16.720012 0.846943 1.801325 0.010572 -0.006262 2560550.000000 1 0 0
-9.979040 -10.598314 0.607504 14.569646 0.815484 1.529088 -0.001720 0.000157 521660.000000 1 0 0
-0.160540 -13.255314 -11.106696 17.294156 1.558686 2.268191 -0.000427 0.004695 -58700.800000 1 0 0
-5.907040 -12.587414 -6.300996 15.265604 1.132024 1.996276 -0.002093 -0.009370 2701010.000000 1 0 0
1.822260 -15.892814 10.030604 18.881610 -1.456636 1.010737 0.009476 -0.004330 843060.000000 1 0 0
-9.023840 -15.681114 -5.552896 18.925160 1.048617 1.868592 0.015177 -0.006592 -1894750.000000 1 0 0
-3.292340 -15.432314 5.966904 16.870085 1.360607 1.209275 -0.002682 -0.002559 -397933.000000 1 0 0
-17.514040 -5.373614 -6.396396 19.404413 0.297700 1.906715 0.025710 -0.008103 -143581.000000 1 0 0
18.838360 5.499086 -2.796996 19.822889 0.284017 1.712368 0.009176 0.014687 -637973.000000 1 0 0
12.902660 -12.464314 -5.723396 18.830694 -0.768120 1.879622 0.030844 0.002490 -807271.000000 1 0 0
11.028860 -13.482414 -1.522396 17.485106 -0.885165 1.657975 0.023683 -0.002107 2837730.000000 1 0 0
18.691560 -2.845314 4.505604 19.436324 -0.151065 1.336855 0.032093 -0.009938 -719380.000000 1 0 0
8.656860 -17.039014 5.016504 19.759416 -1.100721 1.314108 0.030239 -0.012018 -459016.000000 1 0 0
18.078360 -1.101214 6.762104 19.333024 -0.060838 1.213471 0.052977 -0.010210 -664005.000000 1 0 0
18.004660 -4.211014 -5.033496 19.163416 -0.229755 1.836576 0.043898 -0.008547 -163273.000000 1 0 0
5.399460 -11.720614 14.723704 19.578417 -1.139096 0.719648 0.010518 -0.005979 -1776950.000000 1 0 0
15.966760 -8.863114 -0.839396 18.281050 -0.506749 1.616729 0.017692 -0.001429 629528.000000 1 0 0
13.955160 -12.644914 -1.350296 18.880245 -0.736181 1.642376 0.022668 -0.002282 71391.400000 1 0 0
11.173560 -1.991014 13.890604 17.937710 -0.176339 0.685062 0.012343 -0.000704 304811.000000 1 0 0
16.873760 -6.113414 -1.381496 18.000170 -0.347593 1.647621 0.019227 -0.004623 1147660.000000 1 0 0
17.706660 3.557586 -0.999496 18.088151 0.198278 1.626081 0.012427 0.009636 523830.000000 1 0 0
9.587660 -11.091814 9.618904 17.534961 -0.858007 0.990160 0.015674 -0.009560 -61837.300000 1 0 0
9.022160 -11.133614 4.281004 14.956060 -0.889774 1.280497 0.006661 -0.005956 -59028.700000 1 0 0
14.167160 -10.168414 6.841104 18.732479 -0.622537 1.196949 0.025528 -0.010176 1171270.000000 1 0 0
16.171960 -0.594714 -4.683396 16.846963 -0.036758 1.852504 0.018639 -0.004158 -143615.000000 1 0 0
15.779760 -0.592114 -1.657596 15.877627 -0.037506 1.675385 0.020455 -0.005804 -373624.000000 1 0 0
12.877260 -5.177914 -0.252896 13.881591 -0.382313 1.589015 0.009445 -0.006931 234625.000000 1 0 0
14.224060 -7.546514 1.063904 16.137089 -0.487785 1.504819 0.011125 -0.002377 2389130.000000 1 0 0
15.579960 2.345386 3.631804 16.168673 0.149417 1.344244 0.022605 -0.005545 1570490.000000 1 0 0
15.774360 -7.119414 5.003104 18.015203 -0.423958 1.289381 0.016657 -0.005180 -2283460.000000 1 0 0
13.619960 -12.127614 3.369704 18.545545 -0.727502 1.388083 0.017727 -0.008132 899870.000000 1 0 0
14.030760 -0.910014 9.282504 16.848003 -0.064768 0.987287 0.025454 -0.005865 850076.000000 1 0 0
14.198060 -2.913714 -1.531196 14.574608 -0.202409 1.676050 0.009471 -0.005648 -59091.800000 1 0 0
15.016860 1.903186 9.144104 17.684536 0.126065 1.027375 0.034896 -0.004411 -1462310.000000 1 0 0
14.337160 -10.105714 -2.943096 17.785989 -0.613981 1.737034 0.017712 -0.005538 -163146.000000 1 0 0
7.341760 -12.699814 6.138104 15.901668 -1.046636 1.174501 0.004342 -0.005921 -415063.000000 1 0 0
12.401560 -4.734114 7.037404 15.024499 -0.364663 1.083323 0.013070 -0.003630 3603620.000000 1 0 0
14.910260 -8.848314 -5.577396 18.213068 -0.535581 1.882027 0.029681 -0.005740 -471807.000000 1 0 0
14.260760 -4.555314 4.678004 15.684511 -0.309186 1.267931 0.010624 -0.005993 1702840.000000 1 0 0
17.170060 -4.254514 1.022704 17.718853 -0.242895 1.513046 0.022758 -0.010127 -775182.000000 1 0 0
10.245060 -14.485014 1.240904 17.785295 -0.955197 1.500968 0.026833 -0.005269 -31211.300000 1 0 0
16.417560 -2.566614 8.695804 18.754753 -0.155078 1.088676 0.042233 -0.007393 692950.000000 1 0 0
16.098660 -2.684014 3.328604 16.656842 -0.165203 1.369608 0.021289 -0.008114 154611.000000 1 0 0
7.839860 -15.276214 2.757804 17.390561 -1.096639 1.411544 0.015152 -0.006180 1917520.000000 1 0 0
16.600260 -6.984814 7.892804 19.663484 -0.398278 1.157758 0.027011 -0.008175 -808589.000000 1 0 0
10.266560 -8.591114 5.142304 14.340599 -0.696784 1.204046 0.007458 -0.007889 1958320.000000 1 0 0
10.913860 -11.839314 2.237904 16.256996 -0.826049 1.432700 0.017823 -0.005883 -546359.000000 1 0 0
12.275560 -7.399014 12.057704 18.730269 -0.542434 0.871401 0.013810 -0.011549 -288408.000000 1 0 0
15.076260 -9.859914 4.280504 18.515783 -0.579184 1.337505 0.013081 -0.009262 -1379630.000000 1 0 0
7.308360 -10.284914 7.812304 14.839935 -0.952998 1.016391 0.006148 -0.005823 120292.000000 1 0 0
15.208360 -3.387314 -4.358296 16.179087 -0.219150 1.843544 0.024102 -0.006746 1641600.000000 1 0 0
11.705260 -9.078614 9.811804 17.768113 -0.659686 0.985779 0.010363 -0.012995 -1359030.000000 1 0 0
16.909060 -6.677814 2.443104 18.343344 -0.376124 1.437212 0.016976 -0.007668 2233910.000000 1 0 0
17.568060 3.820986 2.017304 18.091605 0.214161 1.459059 0.021989 -0.000379 -261434.000000 1 0 0
14.731460 -5.049714 8.863504 17.918628 -0.330232 1.053361 0.024741 -0.006929 -111151.000000 1 0 0
12.810560 -12.662214 6.178804 19.042577 -0.779575 1.240342 0.021523 -0.008096 -355409.000000 1 0 0
18.202860 0.599286 -0.804196 18.230468 0.032911 1.614923 0.022826 -0.001124 1193520.000000 1 0 0
11.735960 -2.202514 11.037304 16.260562 -0.185514 0.824700 0.010974 -0.002010 1904730.000000 1 0 0
5.730560 -12.469214 10.485304 17.270269 -1.140007 0.918352 0.002631 -0.005970 -1556860.000000 1 0 0
10.767560 -5.056414 11.053604 16.238529 -0.439031 0.822075 0.008748 -0.002411 1548040.000000 1 0 0
17.849160 1.229286 5.108104 18.606353 0.068762 1.292690 0.046436 -0.008064 -689909.000000 1 0 0
12.284360 -7.826414 7.198704 16.247449 -0.567256 1.111780 0.015227 -0.009517 465629.000000 1 0 0
10.538560 -7.957914 14.357104 19.506821 -0.646772 0.743647 0.011141 -0.010159 -718690.000000 1 0 0
14.100960 -0.360614 3.738204 14.592507 -0.025568 1.311736 0.011161 -0.004320 1259120.000000 1 0 0
11.658060 -7.720514 2.616604 14.225446 -0.584937 1.385805 0.009800 -0.006073 -226633.000000 1 0 0
9.231560 6.080386 3.551604 11.610628 0.582433 1.259921 0.004569 -0.001718 1907740.000000 1 0 0
-3.944140 14.667386 -9.989696 18.179177 -1.308105 2.152578 0.002807 -0.008689 1210970.000000 1 0 0
8.826260 -6.429614 9.273704 14.326353 -0.629575 0.866736 0.009450 -0.004932 1416230.000000 1 0 0
5.828560 -10.625214 -8.445796 14.771552 -1.069060 2.179447 0.001441 0.002157 -130270.000000 1 0 0
5.312560 1.065286 0.580104 5.449279 0.197898 1.464139 -0.001422 0.001568 3336560.000000 1 0 0
-0.569640 9.965786 10.927104 14.800100 -1.513699 0.740231 -0.004501 -0.000284 992071.000000 1 0 0
-6.278640 -5.254414 1.065004 8.256175 0.696823 1.441441 0.004278 -0.003617 2750240.000000 1 0 0
-1.127140 3.989886 -10.852096 11.617127 -1.295471 2.776656 0.005338 -0.004017 1244000.000000 1 0 0
10.983360 5.700386 1.213304 12.433853 0.478733 1.473060 0.006097 0.000449 3263120.000000 1 0 0
-10.172140 -1.849314 -13.632296 17.109410 0.179838 2.492730 0.012991 -0.006886 1017100.000000 1 0 0
7.349460 10.908786 -6.116196 14.506000 0.977927 2.006041 -0.000492 -0.003415 329226.000000 1 0 0
-12.457640 -2.937714 -9.621096 16.012135 0.231585 2.215376 0.007921 0.000501 665180.000000 1 0 0
-3.909840 -8.645114 2.477604 9.806292 1.146064 1.315374 0.008183 -0.002719 111760.000000 1 0 0
7.896860 -6.752614 -5.889896 11.943579 -0.707448 2.086496 0.002563 -0.000993 1594020.000000 1 0 0
14.360260 3.110886 -4.251096 15.295963 0.213335 1.852427 0.020362 0.002206 1037430.000000 1 0 0
-2.541140 -4.842414 9.848004 11.264526 1.087532 0.506909 -0.003566 0.001141 3985920.000000 1 0 0
3.497260 -1.910514 -4.593296 6.081058 -0.499990 2.426977 -0.001022 0.002620 -556666.000000 1 0 0
-3.875840 8.513486 -3.406596 9.955224 -1.143578 1.920045 0.003221 0.000077 -414388.000000 1 0 0
5.816160 0.182086 11.762904 13.123520 0.031297 0.459392 -0.000311 -0.001664 1758650.000000 1 0 0
7.215460 4.794686 12.310904 15.053578 0.586502 0.613208 0.003753 -0.001491 686826.000000 1 0 0
1.231560 -14.450414 12.494104 19.142462 -1.485775 0.859666 -0.004403 -0.006412 -465122.000000 1 0 0
3.006660 8.709186 -9.086696 12.940555 1.238379 2.349262 0.004118 -0.001648 898072.000000 1 0 0
-4.431940 -8.929314 -4.517196 10.944396 1.110084 1.996257 0.005120 -0.003527 1272480.000000 1 0 0
5.605660 -6.534514 -4.038896 9.509783 -0.861760 2.009437 0.000767 -0.000954 1872810.000000 1 0 0
-3.166840 3.484086 8.635204 9.835369 -0.833061 0.499182 -0.004042 0.000574 2256820.000000 1 0 0
-3.831940 3.181686 -11.122996 12.187204 -0.692949 2.720587 0.001118 -0.004870 -551971.000000 1 0 0
2.989760 -6.135214 8.571204 10.956507 -1.117351 0.672457 -0.007797 -0.001703 -885693.000000 1 0 0
-5.089440 -8.681814 10.410904 14.479752 1.040572 0.768438 -0.000669 -0.001002 1027460.000000 1 0 0
-13.264740 -2.388114 6.521204 14.972726 0.178127 1.120160 0.013410 -0.003204 637216.000000 1 0 0
3.984160 -6.078114 -8.348896 11.068924 -0.990569 2.425330 0.001090 0.002503 2193310.000000 1 0 0
2.964060 -0.439314 12.316904 12.676149 -0.147142 0.238643 -0.002622 -0.002469 781760.000000 1 0 0
1.380560 -1.493014 -7.538496 7.807942 -0.824512 2.878118 0.002244 0.000082 -982746.000000 1 0 0
3.605060 -3.503114 3.484604 6.116431 -0.771057 0.964641 -0.003930 -0.000815 567303.000000 1 0 0
1.508460 0.304486 -11.723896 11.824462 0.199176 3.011078 0.003917 -0.004007 -506620.000000 1 0 0
4.067060 3.545686 -10.661396 11.948985 0.717018 2.673084 0.001402 -0.000580 1307550.000000 1 0 0
2.824360 3.258686 3.412804 5.499388 0.856677 0.901316 -0.008743 0.002215 -821198.000000 1 0 0
-5.327040 0.890586 2.579804 5.985473 -0.165650 1.125184 0.000811 -0.001984 1012130.000000 1 0 0
-9.458240 -9.324114 5.759904 14.476668 0.778257 1.161597 0.002040 -0.000634 596535.000000 1 0 0
-3.049240 3.834786 -0.561096 4.931357 -0.899018 1.684825 0.000255 -0.003582 1208140.000000 1 0 0
-15.813540 -6.342214 5.021804 17.762608 0.381422 1.284170 0.031282 -0.008849 812354.000000 1 0 0
0.995860 6.692786 -8.069796 10.531226 1.423084 2.443817 0.002852 -0.001727 945555.000000 1 0 0
-1.630340 6.565786 -9.529196 11.686451 -1.327410 2.524226 0.003123 -0.001990 1315180.000000 1 0 0
2.048560 -0.315214 5.241004 5.635963 -0.152674 0.376597 -0.003346 -0.001411 2149890.000000 1 0 0
-3.377740 -0.570214 -6.306496 7.176780 0.167238 2.644004 0.004271 -0.004941 -65149.400000 1 0 0
1.898360 -1.141214 -2.399796 3.265756 -0.541271 2.396222 0.001691 0.001257 885712.000000 1 0 0
2.440560 -8.712614 -7.658496 11.854052 -1.297678 2.273215 -0.001614 0.001125 3053270.000000 1 0 0
-2.433840 14.000986 -5.591796 15.271522 -1.398683 1.945674 0.001259 0.001219 2606900.000000 1 0 0
6.849260 -5.135614 -8.167196 11.831736 -0.643377 2.332671 -0.000823 -0.001459 3194650.000000 1 0 0
-14.216240 -4.934314 -2.033896 15.185048 0.334080 1.705141 0.012775 -0.003128 1333040.000000 1 0 0
-2.742140 6.914886 -6.818996 10.091268 -1.193262 2.312754 0.002821 -0.000958 -3300080.000000 1 0 0
-5.615340 -1.032214 -8.097396 9.907842 0.181791 2.527456 0.009897 -0.004825 1515540.000000 1 0 0
-5.751840 -10.637914 3.362904 12.552211 1.075127 1.299570 0.002467 -0.002602 -3210680.000000 1 0 0
8.096360 -7.609214 6.714704 12.982235 -0.754391 1.027194 0.000789 -0.007029 701812.000000 1 0 0
8.775760 -6.036014 13.129604 16.906623 -0.602495 0.681553 0.007868 -0.003567 506201.000000 1 0 0
-4.695840 9.577786 -0.685596 10.689010 -1.114951 1.634981 0.003933 0.000023 61799.100000 1 0 0
2.819360 6.596186 12.130904 14.093164 1.166875 0.534025 0.001313 -0.004878 1095290.000000 1 0 0
6.005860 -2.779114 10.930604 12.777790 -0.433393 0.544401 0.001200 -0.001854 -1034150.000000 1 0 0
-9.704640 -6.453914 -1.099396 11.706482 0.586871 1.664848 0.005410 -0.003990 -382689.000000 1 0 0
0.924060 -13.349814 6.365004 14.818390 -1.501688 1.126820 0.002624 -0.006432 156420.000000 1 0 0
-0.491440 -3.143414 8.742904 9.303813 1.415712 0.349009 -0.003873 -0.001002 772846.000000 1 0 0
4.237860 0.771786 3.460504 5.525413 0.180143 0.894013 -0.008023 0.002414 289013.000000 1 0 0
-10.181340 5.707686 8.270604 14.305253 -0.510947 0.954335 -0.007599 -0.001966 409028.000000 1 0 0
9.339660 7.947586 -0.045996 12.263583 0.705045 1.574547 0.004628 0.002691 -698814.000000 1 0 0
4.282460 2.883186 8.183304 9.675675 0.592550 0.562807 -0.004564 -0.002201 3407440.000000 1 0 0
1.272160 2.629386 -9.799296 10.225374 1.120173 2.851899 0.006315 -0.003796 3814580.000000 1 0 0
-1.387940 -10.136814 3.105604 10.692341 1.434722 1.276098 0.008396 -0.005498 -1962880.000000 1 0 0
-9.800940 9.575386 8.991204 16.388660 -0.773758 0.990079 -0.002369 -0.010176 -168591.000000 1 0 0
9.784460 -2.040214 -7.675696 12.602160 -0.205570 2.225694 0.010333 -0.001774 950237.000000 1 0 0
-5.247340 -1.850714 6.661404 8.679517 0.339074 0.695887 -0.001246 0.000375 2054520.000000 1 0 0
3.067560 -7.900114 -4.947896 9.813430 -1.200423 2.099248 -0.000622 -0.001137 3067460.000000 1 0 0
-5.096040 4.925086 -13.101296 14.895303 -0.768340 2.645731 0.000207 -0.005929 1245300.000000 1 0 0
-5.595740 9.662286 5.444404 12.422303 -1.045862 1.117116 0.001522 -0.003856 1703930.000000 1 0 0
-0.519040 -1.826314 -9.374196 9.564538 1.293896 2.941757 0.003123 -0.000752 -350750.000000 1 0 0
-16.762340 0.212886 6.349804 17.925997 -0.012700 1.208713 0.028178 -0.006876 -1176560.000000 1 0 0
-5.979540 -2.847414 4.090004 7.784009 0.444421 1.017568 -0.002229 -0.000362 2231940.000000 1 0 0
0.962460 -5.731014 -5.130396 7.751891 -1.404410 2.294047 -0.000012 -0.000145 532693.000000 1 0 0
-7.011040 1.477086 -8.427496 11.061608 -0.207643 2.436990 0.002487 -0.001085 550506.000000 1 0 0
7.956360 1.989086 4.794704 9.499963 0.244978 1.041753 0.000691 -0.002172 -1291890.000000 1 0 0
0.503060 -8.081514 -0.495896 8.112327 -1.508628 1.631963 0.002778 -0.001667 680979.000000 1 0 0
5.446360 5.497786 -3.388096 8.447939 0.790097 1.983466 -0.000043 0.002819 217850.000000 1 0 0
-0.736740 -0.383814 -1.261896 1.510789 0.480277 2.559396 0.001707 -0.000798 -153396.000000 1 0 0
9.065260 6.397986 -6.314296 12.766499 0.614588 2.088170 0.004317 -0.002021 928046.000000 1 0 0
-14.992840 -6.998114 2.478504 16.730267 0.436707 1.422104 0.008814 -0.003635 2268500.000000 1 0 0
-6.401640 6.835886 8.868504 12.898089 -0.818191 0.812642 -0.002727 -0.001276 -1086070.000000 1 0 0
-9.464140 -3.138814 -9.666596 13.887591 0.320238 2.340691 0.006656 -0.003351 1295620.000000 1 0 0
14.848960 3.443086 -1.305396 15.298709 0.227847 1.656227 0.008890 0.004393 1385840.000000 1 0 0
12.037660 1.689286 -5.794796 13.466202 0.139423 2.015645 0.013231 -0.001980 -429124.000000 1 0 0
1.652960 -9.433114 12.698104 15.904646 -1.397328 0.646180 -0.010113 -0.005090 243809.000000 1 0 0
-3.659840 6.403986 7.897604 10.806369 -1.051601 0.751261 -0.003764 -0.000621 1933540.000000 1 0 0
-4.070340 13.051486 -12.481696 18.512204 -1.268487 2.310733 0.006403 -0.005197 1254590.000000 1 0 0
-10.230540 7.839386 6.455004 14.414819 -0.653835 1.106489 -0.006777 -0.001833 761260.000000 1 0 0
8.057860 -9.310114 -7.102196 14.214377 -0.857375 2.093990 0.007467 0.000922 77520.400000 1 0 0
5.883460 -3.781114 -0.327496 7.001370 -0.571204 1.617589 0.002280 0.001047 -732714.000000 1 0 0
-1.627340 -4.469814 4.179304 6.331987 1.221639 0.849937 0.001725 -0.000650 1547980.000000 1 0 0
9.860760 -2.035314 -2.549496 10.386386 -0.203547 1.818796 0.002766 -0.000521 -2087620.000000 1 0 0
13.599360 6.987286 1.371304 15.350740 0.474623 1.481346 0.007085 0.003611 517378.000000 1 0 0
5.410660 -3.682014 -3.264796 7.313779 -0.597526 2.033523 0.001358 0.000195 -1217180.000000 1 0 0
-12.248140 -5.830814 1.984604 13.709631 0.444310 1.425526 0.005573 -0.003757 82133.800000 1 0 0
3.762360 -5.752614 -0.200096 6.876624 -0.991596 1.599898 0.000137 0.000615 170337.000000 1 0 0
-5.253740 3.765786 -8.643296 10.793030 -0.621900 2.499463 0.000588 -0.002980 674210.000000 1 0 0
-1.690140 -9.343514 7.261604 11.953607 1.391842 0.917909 0.000246 -0.006715 1882430.000000 1 0 0
-7.528640 -7.433914 2.618104 10.899448 0.779067 1.328219 0.005318 -0.003954 -2972250.000000 1 0 0
-5.799140 13.004386 -8.530396 16.598546 -1.151326 2.110550 0.004996 -0.008286 2005290.000000 1 0 0
9.239960 -13.942214 -4.029296 17.204576 -0.985522 1.807191 0.018564 0.005903 526228.000000 1 0 0
-6.516140 -5.242914 -6.749296 10.747150 0.677542 2.249787 0.006711 -0.002807 2491170.000000 1 0 0
3.357360 0.395786 -6.259996 7.114497 0.117344 2.646433 0.001526 -0.000472 2394800.000000 1 0 0
-3.590040 5.743986 4.991804 8.414266 -1.012191 0.935700 0.000739 0.000825 1142340.000000 1 0 0
-2.727640 -10.820614 -2.823696 11.510820 1.323863 1.818634 0.007147 -0.004150 1654380.000000 1 0 0
-12.489240 -0.369714 1.721804 12.612788 0.029594 1.433856 0.003222 -0.005520 913246.000000 1 0 0
8.468260 -12.042014 -5.989496 15.893256 -0.957908 1.957198 0.014042 0.001906 -131895.000000 1 0 0
6.140460 3.910386 0.956404 7.342416 0.567056 1.440168 -0.001310 0.000493 2992.170000 1 0 0
3.502060 -4.968914 -11.021896 12.587165 -0.956860 2.637567 -0.003521 0.003728 -505942.000000 1 0 0
-7.705440 4.312186 8.642804 12.355841 -0.510206 0.796111 -0.006945 0.002482 1277340.000000 1 0 0
8.241160 8.800786 4.055604 12.720789 0.818225 1.246315 0.004635 0.000015 1770800.000000 1 0 0
0.322660 10.615886 -6.370796 12.384998 1.540412 2.111100 -0.000860 0.002947 1275250.000000 1 0 0
5.399660 8.132486 3.281204 10.298541 0.984669 1.246535 -0.000916 0.001404 2980240.000000 1 0 0
8.069760 6.697486 -3.759796 11.140620 0.692737 1.915041 -0.000100 0.001194 360559.000000 1 0 0
10.454860 2.501786 -8.248596 13.549995 0.234877 2.225284 0.002559 -0.001223 880845.000000 1 0 0
3.342560 -12.478414 -0.243896 12.920643 -1.309073 1.589674 0.004638 -0.004679 -2328560.000000 1 0 0
0.590560 2.156686 5.247704 5.704248 1.303521 0.402807 -0.003304 -0.000303 1148150.000000 1 0 0
-4.849740 13.455386 1.478304 14.378900 -1.224859 1.467804 0.005718 -0.001357 2237710.000000 1 0 0
8.092260 4.121986 -8.061796 12.143640 0.471119 2.296778 -0.000827 -0.000771 1141690.000000 1 0 0
-13.953840 -0.458414 -3.519996 14.398270 0.032840 1.817773 0.005513 -0.000777 383573.000000 1 0 0
-8.533840 0.028286 -0.483096 8.547550 -0.003315 1.627345 0.001443 -0.003788 -460736.000000 1 0 0
1.806760 -3.872514 -1.085296 4.408924 -1.134257 1.819512 0.000094 0.002152 -1841530.000000 1 0 0
8.037360 -5.666714 -0.226096 9.836764 -0.614105 1.593783 0.005573 -0.002077 2024670.000000 1 0 0
-2.290240 -1.206114 7.313404 7.757950 0.484726 0.340170 -0.000185 -0.000339 1991440.000000 1 0 0
-5.869140 8.825386 -11.759796 15.831205 -0.983928 2.408075 0.000851 -0.001337 -1242270.000000 1 0 0
-6.177840 9.185686 -8.910596 14.210604 -0.978731 2.248542 0.001198 -0.000766 708079.000000 1 0 0
-1.516940 13.958586 -8.394596 16.358865 -1.462547 2.109650 0.010139 -0.005666 -659707.000000 1 0 0
-1.460440 7.265486 9.719504 12.222476 -1.372429 0.651433 -0.005982 -0.003359 1249310.000000 1 0 0
10.001960 2.307786 -3.968096 11.005038 0.226765 1.939676 0.003857 0.000680 -1191110.000000 1 0 0
-3.002040 -7.522514 -6.869696 10.620414 1.191088 2.274228 0.004322 -0.000540 222736.000000 1 0 0
-5.546340 -4.983514 -1.572796 7.620433 0.731998 1.778682 0.006900 -0.004023 1171890.000000 1 0 0
5.654060 7.436786 -8.814396 12.843977 0.920747 2.327140 -0.001189 0.000044 917575.000000 1 0 0
-9.583440 5.270786 -7.586296 13.310725 -0.502835 2.177227 -0.003937 0.002039 -737981.000000 1 0 0
-0.483940 6.157886 -5.294596 8.135509 -1.492369 2.279435 0.002347 0.001259 -763798.000000 1 0 0
-8.276840 2.864486 -6.323096 10.802449 -0.333182 2.196095 0.000185 -0.001546 1388870.000000 1 0 0
3.659660 1.475186 -1.987496 4.418079 0.383171 2.037400 -0.001943 0.000139 3645520.000000 1 0 0
-6.664940 12.505786 -3.461296 14.587552 -1.081139 1.810359 0.011569 0.002686 1376510.000000 1 0 0
-6.594440 3.165886 -2.344896 7.681668 -0.447588 1.881006 0.003862 -0.002000 -876796.000000 1 0 0
12.091360 4.028486 -0.773396 12.768235 0.321604 1.631405 0.007744 0.000088 -614169.000000 1 0 0
2.271460 12.402286 -5.549496 13.775817 1.389655 1.985418 0.002085 0.000226 616515.000000 1 0 0
-9.176240 -1.384814 -4.291296 10.224301 0.149783 2.003928 0.004082 -0.001469 710739.000000 1 0 0
-1.179540 5.753486 3.443404 6.808153 -1.368585 1.040514 -0.000576 -0.001014 19146.500000 1 0 0
11.400960 2.665386 12.019304 16.779446 0.229661 0.772295 0.010717 0.001074 -362634.000000 1 0 0
-7.048140 -2.340414 -5.812796 9.430929 0.320605 2.234901 0.008712 -0.003968 -1003260.000000 1 0 0
7.400360 -7.356614 10.888804 15.081483 -0.782434 0.764110 0.007901 -0.005432 -1065080.000000 1 0 0
-5.530040 -1.941614 -10.965496 12.433556 0.337657 2.650732 0.008301 -0.001951 -40255.400000 1 0 0
0.812460 -6.128314 4.488304 7.639450 -1.438990 0.942810 0.000065 -0.001835 -1331640.000000 1 0 0
-4.784640 -9.428614 7.329604 12.865249 1.101199 0.964630 -0.001975 -0.002233 2566350.000000 1 0 0
-8.826140 9.409686 1.618904 13.002453 -0.817387 1.445965 0.005178 -0.002658 1329800.000000 1 0 0
-8.104440 7.210586 -9.119996 14.172115 -0.727100 2.269881 -0.000796 0.001424 -1120420.000000 1 0 0
-1.269740 -10.611214 -0.061496 10.687090 1.451702 1.576551 0.007719 -0.003641 -790815.000000 1 0 0
-3.926640 10.332786 7.814504 13.537039 -1.207634 0.955417 0.004363 -0.002304 1061730.000000 1 0 0
-7.521140 12.126586 1.908404 14.396654 -1.015642 1.437846 0.006859 -0.005882 1759630.000000 1 0 0
-8.168940 -8.178814 -2.851396 11.906093 0.786002 1.812637 0.007543 -0.003514 -183872.000000 1 0 0
5.351060 4.610386 -8.079796 10.731850 0.711181 2.423224 0.002638 0.001731 536873.000000 1 0 0
-8.923640 -0.076314 -10.218996 13.567058 0.008552 2.423742 0.004279 -0.003173 -990776.000000 1 0 0
-15.233540 -2.189114 -1.538796 15.466767 0.142726 1.670452 0.012768 -0.005146 -406856.000000 1 0 0
-7.151440 -5.776914 8.783204 12.714578 0.679477 0.808204 -0.005201 0.002081 -2315290.000000 1 0 0
8.135360 3.493086 -0.987896 8.908516 0.405567 1.681918 0.003281 0.001457 1304630.000000 1 0 0
11.889560 7.132486 -5.878996 15.059767 0.540342 1.971838 0.009592 -0.004491 687909.000000 1 0 0
3.652560 13.292286 -9.592496 16.794107 1.302627 2.178742 0.007480 -0.006230 1941210.000000 1 0 0
-9.799740 5.391686 -0.583096 11.200232 -0.502986 1.622881 -0.000492 -0.001089 580833.000000 1 0 0
11.238860 -1.277314 -5.130696 12.420449 -0.113166 1.996635 0.013906 -0.003498 -672285.000000 1 0 0
10.621960 1.721686 -1.239496 10.831739 0.160690 1.685479 0.006671 0.000600 -567003.000000 1 0 0
14.593360 4.968886 4.781504 16.140593 0.328177 1.270042 0.014496 -0.005385 1726720.000000 1 0 0
0.859460 -0.751714 10.310704 10.373734 -0.718624 0.110292 -0.001943 -0.001659 996546.000000 1 0 0
-7.910440 1.345386 -12.548896 14.894963 -0.168465 2.572690 -0.005066 -0.005015 -133542.000000 1 0 0
3.104860 -11.624914 -7.813496 14.346760 -1.309802 2.146729 -0.002299 0.003353 640671.000000 1 0 0
2.842260 4.987786 -6.697196 8.820935 1.052846 2.432939 0.001617 0.002656 -1194530.000000 1 0 0
6.496560 8.038486 0.528304 10.348992 0.891086 1.519725 0.002397 -0.000847 -862086.000000 1 0 0
-9.040540 -5.426214 6.713404 12.499798 0.540573 1.003824 -0.003709 -0.000704 -1399230.000000 1 0 0
-0.261740 -6.932314 -11.839996 13.722646 1.533058 2.611593 -0.002193 0.004939 3814870.000000 1 0 0
6.418560 -13.438514 -4.605596 15.588556 -1.125209 1.870720 0.007953 0.005022 3127510.000000 1 0 0
-3.219340 -0.269414 10.005904 10.514506 0.083492 0.312303 -0.003801 0.001055 677797.000000 1 0 0
8.576960 8.467886 6.943304 13.909665 0.778999 1.048154 -0.000430 -0.000422 -2116460.000000 1 0 0
-7.943240 5.737386 -2.710396 10.166559 -0.625535 1.840659 0.003156 -0.002241 229096.000000 1 0 0
-5.373940 5.866186 -6.411196 10.217378 -0.829164 2.249108 0.001425 -0.000923 -1157930.000000 1 0 0
3.306260 -13.729314 2.625004 14.363707 -1.334478 1.387011 0.007830 -0.007300 -1765370.000000 1 0 0
-11.256140 -7.012114 6.573904 14.801576 0.557130 1.110587 0.006538 -0.002547 -499662.000000 1 0 0
-12.914140 -3.691614 -6.723396 15.020223 0.278433 2.034902 0.010375 -0.001064 83520.800000 1 0 0
6.016960 0.330886 -7.378696 9.526723 0.054937 2.456762 -0.000679 0.003709 -75992.000000 1 0 0
-1.425140 2.225886 -2.547996 3.671223 -1.001300 2.337890 0.001395 -0.003383 4338170.000000 1 0 0
7.524260 0.917786 -5.039896 9.102602 0.121377 2.157569 0.002484 0.002668 -510707.000000 1 0 0
3.607060 -4.440814 10.851104 12.266954 -0.888629 0.485203 -0.004214 -0.001962 1106540.000000 1 0 0
5.977160 -2.584414 2.120504 6.848516 -0.408106 1.255993 0.000728 -0.000171 -1381830.000000 1 0 0
-6.286640 7.738986 1.151404 10.036906 -0.888580 1.455826 0.004707 -0.002337 2642790.000000 1 0 0
6.051960 -3.393614 7.983904 10.577597 -0.511056 0.715457 0.002558 -0.005180 -507775.000000 1 0 0
6.707460 -2.273014 -7.860396 10.580285 -0.326733 2.408231 -0.000620 -0.000283 1647250.000000 1 0 0
11.991760 -8.154114 -5.777596 15.610013 -0.597161 1.949936 0.018284 -0.007077 116265.000000 1 0 0
5.536860 -9.605114 9.955004 14.900239 -1.047874 0.839130 -0.002098 -0.004085 2141810.000000 1 0 0
-6.557540 7.606286 -4.461696 10.989252 -0.859307 1.988875 0.003566 -0.001046 2931350.000000 1 0 0
-1.350940 -7.572314 9.766404 12.431718 1.394249 0.667125 -0.005785 -0.002429 -2106810.000000 1 0 0
10.059560 -9.258914 0.798604 13.695255 -0.743977 1.512451 0.005543 -0.003841 616741.000000 1 0 0
11.103760 6.075486 9.657704 15.920937 0.500657 0.919014 0.006855 -0.005098 1997660.000000 1 0 0
-15.307540 -4.202714 -4.862096 16.601915 0.267950 1.868017 0.013620 -0.005163 2245680.000000 1 0 0
-4.800140 -4.594914 7.823604 10.264666 0.763558 0.704110 -0.001121 -0.000712 -938162.000000 1 0 0
2.848160 10.869886 -11.117296 15.806983 1.314534 2.350847 0.002803 -0.003539 -309252.000000 1 0 0
9.855260 -1.311514 1.599904 10.070050 -0.132300 1.411243 0.004661 -0.001560 -628109.000000 1 0 0
-1.594240 -2.569914 0.663704 3.096218 1.015549 1.354760 0.002936 -0.003119 -482343.000000 1 0 0
1.663460 3.003286 0.884204 3.545228 1.064979 1.318729 -0.009218 0.000402 -1402760.000000 1 0 0
-8.920240 -2.385014 4.301204 10.186233 0.261260 1.134863 -0.005237 -0.002184 3022440.000000 1 0 0
9.945660 4.907986 -2.694096 11.413265 0.458418 1.809095 0.004367 0.000742 641840.000000 1 0 0
2.591460 8.499386 2.555004 9.245716 1.274851 1.290808 -0.004272 -0.000956 1593000.000000 1 0 0
-8.104940 -0.059014 2.485504 8.477692 0.007281 1.273243 -0.004148 -0.002501 315682.000000 1 0 0
6.804560 2.157486 13.732404 15.476940 0.307038 0.479379 -0.000277 -0.002473 -1745610.000000 1 0 0
6.734160 4.394086 3.756804 8.875273 0.578136 1.133724 -0.001773 -0.001124 300373.000000 1 0 0
-0.365340 3.431486 7.732804 8.467870 -1.464729 0.419744 -0.005784 -0.001551 -603663.000000 1 0 0
2.659660 -10.246514 9.185204 14.015449 -1.316834 0.856133 -0.003817 -0.006178 453995.000000 1 0 0
1.436460 -4.544914 6.862504 8.355454 -1.264673 0.607075 -0.004467 -0.001231 1055950.000000 1 0 0
-0.094640 10.809686 -1.974296 10.988909 -1.562041 1.751440 0.001016 0.000850 2893540.000000 1 0 0
8.780760 5.504786 7.937504 13.054056 0.559975 0.917196 -0.002608 -0.001110 -939724.000000 1 0 0
2.732460 11.439086 -2.934196 12.121408 1.336320 1.815292 0.001351 -0.001808 3008350.000000 1 0 0
1.495060 2.432786 -6.712296 7.294421 1.019750 2.739377 0.002393 0.000011 2735560.000000 1 0 0
-13.579840 -2.139814 3.635904 14.220080 0.156288 1.312237 0.009488 -0.007812 250625.000000 1 0 0
-0.990440 -10.724214 -5.232096 11.973495 1.478702 2.023027 0.003677 -0.001172 200122.000000 1 0 0
-5.689140 2.835086 0.392104 6.368499 -0.462313 1.509188 0.004234 -0.002582 1055290.000000 1 0 0
3.761860 7.274286 -5.041496 9.616835 1.093527 2.122615 0.000826 0.000473 -2263490.000000 1 0 0
3.025360 9.789186 -6.492796 12.130019 1.271057 2.135620 0.002505 0.001378 877547.000000 1 0 0
-12.225740 1.779886 -2.555596 12.616172 -0.144569 1.774773 -0.000921 -0.002387 596480.000000 1 0 0
-2.477240 9.615286 -5.749896 11.473960 -1.318644 2.095695 -0.002399 0.001632 1388900.000000 1 0 0
-1.251940 3.376786 1.682304 3.974944 -1.215758 1.133792 -0.002577 -0.001478 -691538.000000 1 0 0
12.813760 3.798286 9.685804 16.505581 0.288171 0.943671 0.015894 -0.000426 1497170.000000 1 0 0
-2.555540 -9.546814 11.661704 15.286196 1.309243 0.703023 -0.011595 -0.006006 1068400.000000 1 0 0
-0.451140 -8.959014 -7.475896 11.677178 1.520483 2.265574 0.003746 -0.000625 2209620.000000 1 0 0
2.365460 7.712386 -0.396996 8.076751 1.273196 1.619969 -0.003804 0.000052 2260360.000000 1 0 0
-11.888540 -1.300514 -5.486596 13.157943 0.108959 2.000916 0.004523 0.003037 -2194690.000000 1 0 0
-6.164140 -7.178714 -11.006096 14.514294 0.861291 2.431488 0.005744 -0.000506 1205190.000000 1 0 0
-4.710640 -2.275214 -1.390696 5.413018 0.449951 1.830627 0.004611 -0.004304 -574039.000000 1 0 0
-10.466840 3.718686 4.449104 11.965697 -0.341373 1.189826 -0.005972 -0.004126 2218920.000000 1 0 0
6.801260 9.360886 -3.642096 12.130465 0.942465 1.875745 0.002375 0.000019 1585890.000000 1 0 0
1.241560 -2.833714 -11.489596 11.898833 -1.157850 2.878564 0.000624 0.000408 190283.000000 1 0 0
1.338260 8.817486 7.566104 11.695509 1.420172 0.867253 -0.005178 0.002598 2865050.000000 1 0 0
10.358360 0.376186 10.420604 14.697827 0.036301 0.782732 0.004582 -0.000573 904235.000000 1 0 0
-5.288940 -0.837814 -3.957896 6.658811 0.157103 2.207297 0.005018 -0.004570 -341569.000000 1 0 0
11.673860 5.583786 5.366504 14.009176 0.446150 1.177678 0.001742 -0.000617 2492140.000000 1 0 0
9.861560 -3.508114 3.655304 11.086860 -0.341776 1.234814 0.008247 -0.005186 -1596690.000000 1 0 0
7.316460 -1.689414 -3.389396 8.238490 -0.226929 1.994797 0.002338 0.003097 -4268040.000000 1 0 0
2.312260 9.226786 10.494104 14.163556 1.325250 0.736353 -0.002352 0.001513 2472180.000000 1 0 0
2.412760 -10.828314 6.336904 12.776155 -1.351558 1.051816 -0.007147 -0.002894 796333.000000 1 0 0
5.918760 -7.570914 -1.272496 9.693797 -0.907267 1.702445 0.001461 -0.001799 1269540.000000 1 0 0
-0.257540 -5.645114 -2.290396 6.097504 1.525206 1.955871 0.001991 0.000016 1994960.000000 1 0 0
7.621760 -5.098414 2.769504 9.578893 -0.589567 1.277483 0.002542 -0.004217 1285150.000000 1 0 0
-2.682740 -12.438814 4.758704 13.585524 1.358375 1.212929 0.005428 -0.006117 129665.000000 1 0 0
4.859860 -10.306214 -1.126196 11.450092 -1.130169 1.669313 0.005863 -0.003339 1084950.000000 1 0 0
0.999460 0.202886 1.117604 1.512984 0.200274 0.739693 -0.004521 0.000036 -2411860.000000 1 0 0
-1.588440 8.567586 2.465904 9.055791 -1.387477 1.295012 -0.001176 0.000195 294168.000000 1 0 0
-7.552540 0.641486 -3.119396 8.196524 -0.084733 1.961215 0.002864 -0.002869 -839443.000000 1 0 0
4.362360 -6.372814 12.845204 14.988069 -0.970531 0.541321 -0.000675 -0.003476 -2140240.000000 1 0 0
-5.035640 13.050886 8.426404 16.330572 -1.202550 1.028634 0.009767 -0.009593 2767100.000000 1 0 0
0.679460 6.149386 8.289904 10.344038 1.460750 0.641133 -0.005295 0.001528 442918.000000 1 0 0
7.946160 -0.441414 -0.712996 7.990286 -0.055494 1.660148 0.003017 0.001501 4655190.000000 1 0 0
2.341860 -9.235414 -2.376296 9.819571 -1.322457 1.815219 0.002030 -0.000982 1609200.000000 1 0 0
-7.166340 12.177586 4.796704 14.921742 -1.038886 1.243528 0.006076 -0.008275 -93959.600000 1 0 0
-14.989940 0.364486 0.146604 14.995088 -0.024311 1.561019 0.012249 -0.008392 1793870.000000 1 0 0
6.778660 -0.549314 3.943604 7.861551 -0.080859 1.045312 0.000770 0.000673 -890776.000000 1 0 0
-4.187840 -5.018214 5.041104 8.254284 0.875353 0.913820 0.003743 -0.001837 -1294950.000000 1 0 0
2.863460 5.100486 6.810304 8.977449 1.059236 0.709633 -0.006721 -0.001126 114966.000000 1 0 0
2.096960 -7.206514 1.808904 7.720312 -1.287634 1.334293 -0.002225 -0.000983 1406940.000000 1 0 0
-2.429940 6.456686 -1.695096 7.103996 -1.210847 1.811732 0.003613 0.000014 630459.000000 1 0 0
2.645960 -3.890114 -6.583596 8.091837 -0.973500 2.521130 -0.000781 0.000445 -692722.000000 1 0 0
-5.004240 0.924886 -12.205096 13.223548 -0.182758 2.746555 0.002086 -0.002666 1014240.000000 1 0 0
-7.511740 6.366486 -11.964196 15.495173 -0.703063 2.452973 -0.002627 -0.002726 2237680.000000 1 0 0
-1.015640 11.261386 -9.025896 14.467797 -1.480852 2.244470 0.002291 0.001442 680874.000000 1 0 0
4.613260 5.890786 -0.556096 7.502850 0.906426 1.644982 -0.001508 0.001638 1341530.000000 1 0 0
-2.616340 13.432886 3.553704 14.139182 -1.378433 1.316735 0.005233 0.000764 259598.000000 1 0 0
1.378660 -7.936914 10.174304 12.977356 -1.398810 0.669706 -0.007008 -0.003445 -927096.000000 1 0 0
13.004260 -0.325914 -1.084396 13.053463 -0.025057 1.653966 0.012941 -0.003908 712158.000000 1 0 0
-1.110740 3.140586 -5.422096 6.363659 -1.230853 2.590668 0.003884 -0.003195 154419.000000 1 0 0
6.479460 1.110586 7.252904 9.788841 0.169751 0.736333 0.001272 -0.001384 -64165.300000 1 0 0
5.464860 -6.213714 6.963704 10.815179 -0.849433 0.871235 -0.003433 -0.002556 1356470.000000 1 0 0
12.217660 -4.910814 2.653904 13.432442 -0.382181 1.371914 0.007758 -0.005893 -682341.000000 1 0 0
4.368460 -9.169914 13.834104 17.162552 -1.126214 0.633326 -0.001230 -0.004552 347934.000000 1 0 0
-2.754140 -4.251914 -1.439196 5.266436 0.996011 1.847594 0.006616 -0.003828 1400330.000000 1 0 0
-9.343640 -5.104914 -7.548996 13.051862 0.500038 2.187543 0.009033 -0.003301 -476124.000000 1 0 0
-10.611440 -3.123614 7.797604 13.533745 0.286277 0.956774 -0.001176 -0.001076 -200908.000000 1 0 0
12.073860 -0.707414 1.617404 12.202234 -0.058524 1.437855 0.007899 -0.003281 286701.000000 1 0 0
-7.590840 4.738486 4.331104 9.941457 -0.558051 1.120024 -0.002619 -0.001300 2860720.000000 1 0 0
-1.075040 10.574486 7.007404 12.731032 -1.469481 0.987930 -0.003870 0.002446 2690480.000000 1 0 0
7.360860 -9.954114 1.945404 12.532009 -0.934063 1.414931 0.004953 -0.004353 2405830.000000 1 0 0
-4.291940 -1.699614 1.652404 4.903048 0.377055 1.227051 0.000354 -0.000364 1783900.000000 1 0 0
6.696560 -14.951714 -0.880696 16.406502 -1.149708 1.624502 0.017875 -0.000556 -1425060.000000 1 0 0
-10.378840 1.709986 2.326504 10.772975 -0.163290 1.353124 -0.006625 -0.000965 -341450.000000 1 0 0
-3.072340 8.267686 -11.470596 14.469571 -1.215003 2.486086 0.001765 -0.000584 -947609.000000 1 0 0
-1.323440 -5.199414 -6.858296 8.707562 1.321553 2.477742 -0.001099 0.000596 -630867.000000 1 0 0
12.851060 -0.535914 6.504104 14.413199 -0.041678 1.102619 0.011785 -0.005862 1597130.000000 1 0 0
5.910760 -13.355814 3.817804 15.096042 -1.154146 1.315119 0.006501 -0.003192 602007.000000 1 0 0
-5.587540 3.533286 -4.953296 8.260742 -0.563868 2.213821 0.001753 -0.002959 2091710.000000 1 0 0
-4.351940 8.083686 3.403204 9.791177 -1.076933 1.215809 0.004043 -0.001248 -543582.000000 1 0 0
14.085760 6.137686 -4.047996 15.889181 0.410930 1.828400 0.023876 -0.000272 1881500.000000 1 0 0
-6.727340 -8.474614 5.287404 12.042958 0.899833 1.116261 0.006077 -0.002912 -141709.000000 1 0 0
1.737060 11.419286 2.717304 11.865968 1.419837 1.339746 -0.000946 -0.000987 978201.000000 1 0 0
-7.400040 7.291686 5.925404 11.959920 -0.778023 1.052457 -0.003795 -0.002123 345372.000000 1 0 0
-17.466440 -3.999514 5.208004 18.660010 0.225102 1.287940 0.044499 -0.015094 -752954.000000 1 0 0
7.457860 -13.099614 -8.517096 17.313593 -1.053242 2.085103 0.014723 0.001766 187035.000000 1 0 0
-2.252440 12.880186 -2.813496 13.374918 -1.397671 1.782736 -0.002238 0.003437 3046350.000000 1 0 0
-5.511240 13.907986 -5.822696 16.053337 -1.193514 1.941970 0.013756 0.000876 1980480.000000 1 0 0
-5.687040 2.471686 7.512504 9.741117 -0.409988 0.690047 -0.002221 0.000782 733381.000000 1 0 0
-7.438040 5.079386 1.360804 9.109138 -0.599152 1.420846 0.002301 -0.001144 2078040.000000 1 0 0
10.664860 -5.721014 -5.050396 13.113952 -0.492370 1.966130 0.010769 -0.005091 2892650.000000 1 0 0
-9.495840 -0.769914 6.798804 11.704165 0.080902 0.950978 -0.006858 -0.000015 -150968.000000 1 0 0
-11.323340 -4.513814 -2.517096 12.447021 0.379324 1.774425 0.005126 -0.004431 829040.000000 1 0 0
6.555160 -4.305714 13.411904 15.536681 -0.581171 0.529141 0.006243 -0.006351 -584323.000000 1 0 0
0.159160 10.202986 -11.683796 15.512490 1.555198 2.423689 0.003367 -0.001066 -1323470.000000 1 0 0
-11.751740 -3.119614 1.505804 12.251646 0.259475 1.447579 0.005734 -0.004999 3678930.000000 1 0 0
5.195460 5.989086 5.395304 9.590164 0.856237 0.973284 -0.003144 -0.000469 -3630930.000000 1 0 0
-7.076940 -0.054014 8.156904 10.799124 0.007632 0.714639 -0.006990 0.002035 -592694.000000 1 0 0
1.679860 2.119786 9.616604 9.989719 0.900666 0.274171 -0.003765 -0.002635 2788800.000000 1 0 0
10.506360 -4.951414 -2.036296 11.791802 -0.440407 1.744354 0.004359 -0.004089 2259360.000000 1 0 0
-9.640740 -2.375314 -1.632296 10.062325 0.241572 1.733735 0.003348 -0.003207 -1372500.000000 1 0 0
-2.041540 -5.223814 -9.888896 11.368658 1.198234 2.625671 0.002420 0.000272 199826.000000 1 0 0
7.660360 -1.558214 6.539104 10.191615 -0.200675 0.874193 0.004542 -0.002789 1898920.000000 1 0 0
1.476560 -11.927614 -2.486596 12.273197 -1.447630 1.774812 0.006388 -0.002453 -3730090.000000 1 0 0
-0.758040 -1.496714 4.802004 5.086651 1.101986 0.336124 0.000529 -0.001287 1758170.000000 1 0 0
7.634360 1.458886 9.860404 12.555451 0.188818 0.667538 0.000298 -0.002637 1020660.000000 1 0 0
-3.831640 10.657786 -8.021496 13.878554 -1.225670 2.187045 0.000661 0.002253 2743160.000000 1 0 0
-9.531940 12.579686 6.364904 17.018178 -0.922370 1.187471 0.002168 -0.007488 2982490.000000 1 0 0
-2.598540 -2.462214 -11.057996 11.623003 0.758467 2.828511 0.006047 -0.001878 -697581.000000 1 0 0
1.197360 -11.932914 11.119804 16.354759 -1.470790 0.823153 -0.009786 -0.000265 3367430.000000 1 0 0
1.404760 3.538186 -1.979096 4.290563 1.192854 2.050219 -0.001735 0.000104 1430070.000000 1 0 0
-1.865940 -9.505814 -12.086096 15.489221 1.376966 2.465927 0.000414 0.003620 -1142380.000000 1 0 0
1.283460 -2.658114 1.629504 3.371665 -1.120966 1.066383 0.002517 0.000707 2546280.000000 1 0 0
-1.107340 -2.297014 -6.596196 7.071936 1.121589 2.772704 0.001984 -0.002657 -576354.000000 1 0 0
1.778960 5.814086 4.045804 7.303206 1.273868 0.983663 -0.008403 0.000509 -1923760.000000 1 0 0
-10.987640 8.656886 3.562104 14.434628 -0.667304 1.321446 -0.007635 -0.000780 763221.000000 1 0 0
-16.317540 -1.460614 3.930904 16.847775 0.089274 1.335307 0.026614 -0.009714 -108159.000000 1 0 0
-12.120340 0.343186 6.816204 13.909747 -0.028307 1.058671 -0.003057 -0.002453 -190960.000000 1 0 0
-5.137440 3.021486 4.697304 7.588632 -0.531646 0.903337 -0.001001 0.001800 2113780.000000 1 0 0
5.134660 -6.101314 4.060304 8.948566 -0.871219 1.099841 -0.002172 -0.003331 354207.000000 1 0 0
9.878160 3.378086 6.249504 12.167407 0.329508 1.031390 0.001967 0.000042 1414980.000000 1 0 0
-12.136040 5.853386 3.186604 13.845579 -0.449399 1.338561 -0.004371 -0.002845 1200390.000000 1 0 0
-4.759840 12.393386 -1.280596 13.337617 -1.204104 1.666958 0.000327 0.003115 429583.000000 1 0 0
-1.704140 -12.180514 10.425804 16.123474 1.431792 0.867648 -0.004907 -0.006607 1161180.000000 1 0 0
5.289360 6.439686 13.855304 16.168374 0.883161 0.541496 -0.002485 -0.004291 1531600.000000 1 0 0
12.873060 -3.690014 -5.867296 14.620432 -0.279161 1.983741 0.007566 -0.008066 1260910.000000 1 0 0
3.575660 -2.494214 6.370504 7.719441 -0.609082 0.600144 -0.006783 -0.001141 1600710.000000 1 0 0
7.220260 -11.807214 -0.586696 13.852316 -1.021955 1.613163 0.010031 -0.002456 -878049.000000 1 0 0
-6.029740 -6.575114 -4.071896 9.806642 0.828638 1.998979 0.010698 -0.003937 466088.000000 1 0 0
0.283760 -8.845514 5.118004 10.223385 -1.538728 1.046485 0.002056 -0.004136 1756240.000000 1 0 0
-10.226940 2.504686 -0.418896 10.537516 -0.240183 1.610560 -0.003700 -0.000697 -470642.000000 1 0 0
-1.840940 9.009886 -0.286996 9.200515 -1.369246 1.601995 0.003454 0.002036 1007050.000000 1 0 0
-3.567940 2.356386 -6.587996 7.853945 -0.583675 2.565897 0.004155 -0.005578 -299737.000000 1 0 0
-12.618340 3.046986 6.407304 14.476193 -0.236937 1.112289 -0.003684 -0.003451 709801.000000 1 0 0
11.359160 1.652586 7.926804 13.949759 0.144471 0.966432 0.008217 -0.004154 -1881200.000000 1 0 0
6.011860 2.606186 -3.206996 7.295169 0.409054 2.025956 -0.000200 0.003134 449799.000000 1 0 0
10.482760 -2.445514 6.384704 12.515320 -0.229190 1.035436 0.009660 -0.004672 3296130.000000 1 0 0
-0.954740 11.022786 4.041404 11.779061 -1.484397 1.220580 0.001311 0.001786 1239690.000000 1 0 0
-1.508340 -12.188714 7.513104 14.397450 1.447673 1.021795 -0.005009 -0.004234 -320194.000000 1 0 0
8.111660 8.691786 -7.777996 14.207160 0.819909 2.150134 0.002196 -0.003100 2695820.000000 1 0 0
-4.724340 -6.068614 -8.702396 11.613749 0.909311 2.417829 0.007516 0.000090 307529.000000 1 0 0
-8.537240 -5.298114 -11.724496 15.440800 0.555421 2.433063 0.011035 -0.001690 1555530.000000 1 0 0
6.049860 -0.685414 -9.984396 11.694390 -0.112813 2.593993 -0.002636 0.000916 -367460.000000 1 0 0
-11.198340 -5.433814 -5.342596 13.545202 0.451765 1.976241 0.005385 -0.006471 -423443.000000 1 0 0
3.916060 8.884186 -2.686196 10.073725 1.155628 1.840716 0.001056 -0.001401 166829.000000 1 0 0
11.703860 -10.444614 -3.949796 16.176254 -0.728605 1.817463 0.013293 -0.001833 473744.000000 1 0 0
3.959760 -11.329814 3.981804 12.645123 -1.234568 1.250457 0.000562 -0.003767 -58484.600000 1 0 0
-1.010840 0.908386 3.189304 3.466788 -0.732066 0.402820 0.000745 -0.000952 -569085.000000 1 0 0
-10.553340 -5.077814 4.505804 12.548285 0.448460 1.203517 0.003663 -0.004926 2259980.000000 1 0 0
4.549460 -8.692314 2.816904 10.207294 -1.088613 1.291198 -0.002271 -0.002747 4932680.000000 1 0 0
-3.733040 -5.722214 2.625804 7.319438 0.992752 1.203874 0.005670 -0.002650 2249680.000000 1 0 0
10.058760 5.138986 12.230204 16.648294 0.472327 0.745687 0.008252 0.001144 -312464.000000 1 0 0
1.576460 -12.387214 -5.215896 13.532697 -1.444212 1.966469 0.005408 -0.002337 1565250.000000 1 0 0
9.878060 -10.705014 -1.649196 14.659237 -0.825553 1.683537 0.011382 -0.004094 1670050.000000 1 0 0
9.634660 -4.502714 -9.179296 14.048508 -0.437184 2.282864 0.007839 -0.005394 2353990.000000 1 0 0
-7.468240 -3.025914 -13.138796 15.412941 0.384956 2.591454 0.004515 -0.002356 1711970.000000 1 0 0
0.443060 6.319786 -2.533196 6.822982 1.500804 1.951177 -0.000654 -0.000455 2194690.000000 1 0 0
-6.063840 -9.417514 0.992504 11.244768 0.998729 1.482418 0.002939 -0.002351 -180776.000000 1 0 0
-8.979740 -4.100514 0.569504 9.888088 0.428363 1.513170 -0.001578 -0.003611 3185640.000000 1 0 0
1.886060 3.808186 12.101904 12.826362 1.110944 0.337704 -0.003698 -0.005841 903155.000000 1 0 0
6.629560 4.288186 9.556304 12.396069 0.574142 0.690521 -0.003478 -0.002477 2192840.000000 1 0 0
-8.228040 9.942586 -3.594296 13.396814 -0.879478 1.842419 0.004272 0.002433 2652440.000000 1 0 0
16.395060 2.044386 -6.002796 17.578710 0.124055 1.919289 0.022451 0.000788 -720328.000000 1 0 0
-10.971640 2.660786 -5.094596 12.385943 -0.237922 1.994699 -0.002494 0.000298 437469.000000 1 0 0
-13.745440 4.014386 1.508004 14.398837 -0.284149 1.465873 -0.002008 -0.000852 106272.000000 1 0 0
-17.363140 10.479286 3.341604 20.553841 -0.543016 1.407493 0.022320 -0.002187 1381690.000000 1 0 0
-14.328240 3.022286 -1.178396 14.690858 -0.207885 1.651095 0.002868 -0.001514 367314.000000 1 0 0
-14.320140 5.122886 5.208204 16.075937 -0.343553 1.240868 -0.000642 -0.000239 1747460.000000 1 0 0
-17.344240 7.546586 3.190904 19.182166 -0.410399 1.403672 0.014987 -0.001754 -1169470.000000 1 0 0
-14.974340 12.600286 -3.424596 19.867711 -0.699514 1.744031 0.024954 -0.005536 276454.000000 1 0 0
-8.568040 12.464886 -9.579996 17.904218 -0.968594 2.135386 0.012737 -0.016219 515634.000000 1 0 0
-12.371940 8.888086 -9.990896 18.217601 -0.622973 2.151270 0.003582 -0.003886 -597377.000000 1 0 0
-13.792740 -3.578114 -12.271096 18.804850 0.253825 2.281741 0.004452 0.003739 789547.000000 1 0 0
-14.650440 5.800186 -7.687196 17.531986 -0.376971 2.024689 0.011389 0.002447 -581150.000000 1 0 0
-10.987340 13.605486 -8.504796 19.446400 -0.891458 2.023441 0.018872 -0.010999 1987640.000000 1 0 0
-10.908940 13.470586 3.891004 17.765179 -0.890088 1.349982 0.008950 -0.005504 -1348540.000000 1 0 0
-15.156640 3.225486 3.096604 15.802419 -0.209682 1.373562 0.006348 -0.005035 2474300.000000 1 0 0
-11.116640 9.441386 -12.620196 19.287012 -0.704089 2.284101 0.008156 -0.010013 1243610.000000 1 0 0
-13.087940 11.603886 -9.195096 19.760925 -0.725367 2.054789 0.008051 -0.011912 554925.000000 1 0 0
-8.845640 14.591986 -3.542096 17.427503 -1.025832 1.775470 0.014574 -0.009654 591789.000000 1 0 0
-16.649640 8.193986 -4.117096 19.007957 -0.457341 1.789125 0.017369 -0.001333 -1900300.000000 1 0 0
-16.988240 6.717386 0.387304 18.272208 -0.376547 1.549598 0.021302 0.001652 -907721.000000 1 0 0
-10.449740 2.838986 -12.625296 16.632950 -0.265277 2.432654 -0.000131 -0.003592 1418260.000000 1 0 0
-16.924640 0.924086 2.292904 17.104233 -0.054546 1.436337 0.025662 -0.008121 -60044.500000 1 0 0
-12.631640 1.180786 -7.021296 14.500041 -0.093208 2.076275 0.001459 -0.000192 1142050.000000 1 0 0
-12.262740 9.073886 -5.473296 16.207010 -0.637042 1.915281 0.003832 0.002109 -459361.000000 1 0 0
-9.625740 14.030386 1.184404 17.056067 -0.969485 1.501299 0.020053 -0.007348 94360.700000 1 0 0
-12.241440 11.127386 2.749704 16.769987 -0.737762 1.406087 0.002770 0.002166 1200690.000000 1 0 0
-12.594040 6.901486 -3.766296 14.846729 -0.501303 1.827278 -0.003499 0.002915 -654484.000000 1 0 0
-15.830740 3.734886 -9.488896 18.830849 -0.231689 2.098906 0.025165 -0.002008 -2199330.000000 1 0 0
-15.039340 5.768186 -4.743696 16.791557 -0.366237 1.857201 0.008151 0.001392 120738.000000 1 0 0
-17.882240 5.251286 7.540704 20.105043 -0.285630 1.186329 0.021799 0.001356 -1402290.000000 1 0 0
-15.701740 10.099486 -2.143296 18.791966 -0.571586 1.685099 0.012957 -0.000641 -689414.000000 1 0 0
-8.807140 9.901486 -8.391396 15.685046 -0.843826 2.135296 0.006378 -0.005090 1239630.000000 1 0 0
-16.955740 4.343886 -1.312796 17.552490 -0.250796 1.645659 0.012636 -0.001651 -648990.000000 1 0 0
-10.235040 5.468186 -4.590296 12.479100 -0.490680 1.947480 -0.002071 0.002130 523667.000000 1 0 0
-18.160340 2.760886 6.211204 19.390707 -0.150873 1.244731 0.025480 -0.000554 -1072120.000000 1 0 0
-10.322040 10.244186 -5.737896 15.633660 -0.781613 1.946602 0.002669 -0.000330 452332.000000 1 0 0
-15.402440 0.479186 -5.920596 16.508127 -0.031101 1.937615 0.013862 0.000861 1786240.000000 1 0 0
-16.358740 -4.107914 -8.831196 19.038734 0.246027 2.053137 0.013186 -0.007971 -1534900.000000 1 0 0
-10.088140 9.635486 -1.152296 13.997891 -0.762452 1.653209 0.002680 0.001064 1904720.000000 1 0 0
-17.379640 -2.890914 -3.197096 17.906164 0.164830 1.750306 0.022878 -0.005802 1476700.000000 1 0 0
-12.063840 5.035986 -11.713996 17.553208 -0.395454 2.301431 0.007479 -0.000853 568001.000000 1 0 0
-16.273940 7.080686 5.957504 18.720820 -0.410389 1.246936 0.007594 0.001913 -423382.000000 1 0 0
-12.080940 6.013886 -8.993696 16.217352 -0.461886 2.158645 0.002134 0.002050 878572.000000 1 0 0
-14.585540 8.346886 -0.089996 16.805255 -0.519781 1.576152 0.008164 0.001221 433714.000000 1 0 0
-14.854940 11.908186 3.838604 19.421870 -0.675735 1.371843 -0.001249 -0.002873 1378790.000000 1 0 0
-17.251440 4.095686 -4.085996 18.195664 -0.233096 1.797287 0.017479 -0.002578 315221.000000 1 0 0
-13.931240 13.548186 -0.822396 19.450171 -0.771459 1.613091 0.021457 -0.001108 375306.000000 1 0 0
-10.092440 6.824386 -13.269696 18.014284 -0.594565 2.398856 -0.005417 -0.005093 2209300.000000 1 0 0
-15.830640 -1.143414 -8.375196 17.946044 0.072103 2.056338 0.011875 -0.005201 -164633.000000 1 0 0
-11.522340 11.967986 -0.048996 16.613230 -0.804367 1.573746 0.016561 -0.003611 1755040.000000 1 0 0
-12.062740 7.281486 -1.008896 14.126132 -0.543088 1.642278 -0.005558 0.002750 1726930.000000 1 0 0
-11.456140 0.203386 -11.675196 16.358323 -0.017752 2.365586 0.003373 -0.005723 470730.000000 1 0 0
-19.056240 -1.164714 -4.782096 19.681598 0.061044 1.816226 0.027942 -0.006987 -235597.000000 1 0 0
-18.018140 1.494886 -5.033096 18.767528 -0.082776 1.842301 0.024825 -0.001744 584334.000000 1 0 0
-13.267340 -0.126414 -9.536296 16.339500 0.009528 2.193994 0.007659 -0.002787 -2161390.000000 1 0 0
-6.147140 11.250886 -13.360996 18.517181 -1.070745 2.376829 -0.003011 -0.002734 376551.000000 1 0 0
16.395760 5.721186 6.966104 18.710412 0.335733 1.189298 0.044264 -0.008869 -789747.000000 1 0 0
14.782860 10.123686 -5.521396 18.748540 0.600469 1.869726 0.040215 -0.011956 113562.000000 1 0 0
2.444560 16.977286 4.350504 17.695508 1.427789 1.322396 0.009180 -0.008838 2136870.000000 1 0 0
-4.057540 18.195586 -5.948996 19.568688 -1.351390 1.879691 0.004104 -0.008529 756455.000000 1 0 0
5.471860 14.627686 5.658904 16.611250 1.212836 1.223170 0.001180 -0.007106 -1306610.000000 1 0 0
9.909160 5.963386 15.032004 18.966142 0.541746 0.655783 0.017197 -0.002525 -1355440.000000 1 0 0
4.706060 12.803386 -1.140396 13.688469 1.218561 1.654204 0.001833 -0.003462 1357420.000000 1 0 0
3.656260 13.784986 12.901604 19.231366 1.311531 0.835425 0.008344 -0.007475 -1714230.000000 1 0 0
-0.719340 12.407186 9.164404 15.441567 -1.512883 0.935409 0.000675 -0.001717 -517693.000000 1 0 0
-7.756040 13.935886 8.341204 17.998354 -1.062937 1.088920 0.013688 -0.016817 949617.000000 1 0 0
11.402360 12.772186 -4.295896 17.652118 0.842002 1.816629 0.028108 -0.010794 859991.000000 1 0 0
-5.747240 16.251786 0.876504 17.260347 -1.230885 1.519993 0.005790 -0.002171 529825.000000 1 0 0
3.224360 10.642486 6.759904 13.013658 1.276617 1.024593 -0.006463 0.003399 1122240.000000 1 0 0
-1.180640 15.603986 2.455404 15.840053 -1.495277 1.415156 0.009022 -0.005601 -1416400.000000 1 0 0
9.885760 8.841086 9.417404 16.265932 0.729671 0.953338 0.005974 -0.001875 1246260.000000 1 0 0
7.257860 12.349386 6.254804 15.630305 1.039462 1.159092 0.001515 -0.001493 825209.000000 1 0 0
11.859260 13.908886 -1.670996 18.354601 0.864772 1.661962 0.022182 -0.005727 -911270.000000 1 0 0
9.677860 15.871686 -1.407996 18.642796 1.023234 1.646393 0.008425 -0.004770 1223530.000000 1 0 0
10.187760 13.814286 2.873904 17.403570 0.935356 1.404903 0.009321 0.002958 3607840.000000 1 0 0
-6.020040 14.525086 6.197704 16.900608 -1.177888 1.195321 0.001637 -0.010688 451416.000000 1 0 0
-1.091740 18.260686 -6.278196 19.340638 -1.511081 1.901397 0.020778 -0.002333 2736050.000000 1 0 0
-3.494440 15.719786 5.439804 16.997478 -1.352057 1.245029 0.005119 -0.009062 1848870.000000 1 0 0
7.152260 12.282386 10.561404 17.707486 1.043479 0.931741 0.002383 -0.004087 2605170.000000 1 0 0
1.588060 14.672686 6.248104 16.026492 1.462984 1.170316 0.002360 -0.007035 161435.000000 1 0 0
17.447060 7.664786 -1.429696 19.110020 0.413934 1.645680 0.023999 0.011127 1784260.000000 1 0 0
2.019360 16.281086 -3.331696 16.740722 1.447396 1.771152 0.000540 -0.003370 585035.000000 1 0 0
6.735760 11.205486 0.607304 13.088246 1.029559 1.524379 0.004877 -0.001858 2052900.000000 1 0 0
12.757860 9.230186 3.174604 16.063543 0.626318 1.371859 0.010586 0.003926 -608632.000000 1 0 0
6.031160 14.326086 -3.451696 15.922494 1.172326 1.789312 -0.002499 -0.002799 -578912.000000 1 0 0
3.107360 16.462786 1.548904 16.824925 1.384241 1.478606 0.007816 -0.011509 -1125390.000000 1 0 0
2.675360 18.983186 -2.702796 19.360372 1.430785 1.710858 0.011641 -0.007950 -309565.000000 1 0 0
4.041360 11.847186 10.709904 16.473932 1.242051 0.863064 0.002962 -0.008361 2955110.000000 1 0 0
8.055260 11.587186 3.374804 14.509975 0.963308 1.336062 0.000340 0.001547 432495.000000 1 0 0
0.820760 12.469286 0.265704 12.499093 1.505069 1.549537 0.002188 -0.002175 -2371510.000000 1 0 0
11.977760 9.834186 -4.682596 16.189646 0.687438 1.864223 0.020316 -0.006033 286276.000000 1 0 0
-1.240340 16.580586 9.875704 19.338661 -1.496129 1.034831 0.005287 -0.007840 -326592.000000 1 0 0
8.054760 14.862086 -8.021296 18.711011 1.074141 2.013843 0.013634 -0.001276 1204970.000000 1 0 0
14.460160 7.595686 -1.380396 16.391954 0.483669 1.655108 0.011342 0.001176 571816.000000 1 0 0
12.476660 8.234486 5.949904 16.089597 0.583367 1.192005 0.006899 -0.000185 -808366.000000 1 0 0
-2.975940 14.280386 10.191904 17.794958 -1.365343 0.960951 0.007215 -0.012452 3389920.000000 1 0 0
-4.706140 17.252386 -3.156096 18.159117 -1.304493 1.745486 0.008572 -0.003680 901437.000000 1 0 0
-7.122140 16.459186 -1.778996 18.022056 -1.162409 1.669670 0.016535 -0.007330 -309537.000000 1 0 0
8.333460 11.255586 -1.856796 14.127365 0.933478 1.702610 0.006996 -0.003459 -511837.000000 1 0 0
8.495660 12.906886 -4.216596 16.016979 0.988659 1.837194 0.011843 -0.007070 2985700.000000 1 0 0
2.549660 14.828786 -7.353596 16.747210 1.400521 2.025386 0.001814 -0.007052 499928.000000 1 0 0
11.399360 11.253086 9.658404 18.704601 0.778941 1.028195 0.020189 -0.005052 -373571.000000 1 0 0
8.646360 15.785986 1.374304 18.051194 1.069702 1.494589 0.002010 0.002902 333611.000000 1 0 0
6.074760 9.997286 7.670704 13.988857 1.024777 0.990414 0.002578 0.005312 2529870.000000 1 0 0
14.486060 11.352286 2.442204 18.565685 0.664704 1.438870 0.022725 0.006534 1977240.000000 1 0 0
12.178660 12.565086 1.038104 17.529369 0.801014 1.511541 0.017530 0.000944 2522430.000000 1 0 0
5.168560 15.925586 8.225204 18.654551 1.256977 1.114171 0.011411 -0.006293 -988645.000000 1 0 0
11.585760 15.090486 5.009204 19.673452 0.916030 1.313344 0.017944 0.000293 1116780.000000 1 0 0
5.955860 16.777186 1.698004 17.883776 1.229676 1.475706 -0.001888 -0.009741 1202230.000000 1 0 0
-0.739540 16.275886 -4.255296 16.839208 -1.525390 1.826268 0.007071 -0.002279 -138482.000000 1 0 0
16.125660 6.361186 2.590904 17.527532 0.375735 1.422434 0.010321 0.003299 271224.000000 1 0 0
7.659160 16.691786 -3.305896 18.660316 1.140601 1.748898 0.005432 -0.009203 -548004.000000 1 0 0
14.826560 8.128186 7.397404 18.455781 0.501474 1.158387 0.033045 -0.006692 -1022410.000000 1 0 0
2.124660 12.917986 8.600104 15.663662 1.407783 0.989571 -0.000517 -0.005712 1572840.000000 1 0 0
16.041360 7.505986 -5.836096 18.647388 0.437651 1.889116 0.033265 0.000075 -133705.000000 1 0 0
-3.013640 17.096686 0.685504 17.373791 -1.396318 1.531330 0.008294 -0.005925 890810.000000 1 0 0
-2.887440 18.545786 4.583304 19.320718 -1.416344 1.331291 0.014897 -0.014235 38816.600000 1 0 0
-0.852840 19.113586 0.856904 19.151783 -1.526206 1.526039 0.011336 -0.010317 1583050.000000 1 0 0
6.817660 16.891186 -6.170796 19.232040 1.187171 1.897434 0.008962 -0.003831 1407480.000000 1 0 0
11.018360 9.997586 0.787804 14.898879 0.736865 1.517895 0.007787 0.003435 -1321110.000000 1 0 0
9.179160 8.681886 14.242604 19.039009 0.757564 0.725640 0.017078 -0.008354 1429550.000000 1 0 0
6.266760 12.429086 -8.424196 16.270265 1.103793 2.115034 0.015095 -0.006150 1075700.000000 1 0 0
6.441160 9.074686 13.267904 17.316920 0.953527 0.697918 0.005502 -0.008413 1523880.000000 1 0 0
16.666160 9.334886 2.915804 19.323635 0.510572 1.419325 0.020081 0.004015 -788551.000000 1 0 0
2.554660 14.761786 -0.841496 15.004823 1.399435 1.626907 0.002406 -0.004818 1178770.000000 1 0 0
9.134960 12.877086 8.314904 17.843891 0.953792 1.086054 0.008931 -0.004609 5863.150000 1 0 0
7.204960 9.337386 10.499104 15.790168 0.913598 0.843418 0.002348 -0.004013 1371500.000000 1 0 0
4.275260 15.751686 -5.310896 17.163889 1.305765 1.885382 0.005763 -0.008861 2254870.000000 1 0 0
0.187660 16.351986 -8.143896 18.268708 1.559321 2.032846 0.007400 -0.006513 354624.000000 1 0 0
-2.524340 15.792386 -2.090796 16.128955 -1.412292 1.700792 0.003037 0.000513 -900251.000000 1 0 0
13.285660 10.417686 7.563704 18.499907 0.664989 1.149602 0.028022 -0.005093 1526290.000000 1 0 0
-0.928040 15.926386 6.987804 17.416671 -1.512592 1.157955 0.009825 -0.009831 2055340.000000 1 0 0
13.298960 13.272886 6.653204 19.932309 0.784417 1.230475 0.026912 -0.006890 -32239.600000 1 0 0
5.418660 17.449986 4.471104 18.811025 1.269712 1.330814 0.005573 -0.009374 -104328.000000 1 0 0
10.790860 9.490186 -1.930496 14.499417 0.721353 1.704336 0.005622 0.000632 2002620.000000 1 0 0
3.335760 12.740186 4.690304 13.979935 1.314715 1.228658 -0.002564 0.001516 1571430.000000 1 0 0
-0.175840 18.099786 3.553204 18.446095 -1.561082 1.376958 0.009938 -0.011339 3030370.000000 1 0 0
-7.708440 15.836586 -5.896996 18.573962 -1.117806 1.893875 0.021520 -0.015400 373483.000000 1 0 0
-12.455440 -9.055514 8.346604 17.515882 0.628639 1.074108 0.020490 -0.001414 -1119640.000000 1 0 0
-13.367540 -11.538414 6.918504 18.965543 0.712088 1.197386 0.028731 -0.001187 -425392.000000 1 0 0
-6.356940 -12.267314 12.317304 18.509826 1.092694 0.842704 0.005743 -0.006386 -1309470.000000 1 0 0
-1.855440 -10.634814 14.462504 18.047325 1.398066 0.641222 -0.008521 -0.001701 421506.000000 1 0 0
-8.807640 2.911286 11.034704 14.415783 -0.319235 0.699041 -0.006944 0.003591 750802.000000 1 0 0
0.656060 10.102786 15.163304 18.232457 1.505949 0.588696 -0.003605 -0.004298 643074.000000 1 0 0
1.079560 -6.815814 16.451004 17.839739 -1.413711 0.397181 -0.003093 -0.009943 767021.000000 1 0 0
6.050060 2.337086 17.774404 18.920746 0.368633 0.349881 0.005844 -0.004222 774289.000000 1 0 0
-5.032140 -2.969214 17.615304 18.559030 0.533071 0.320271 0.015382 -0.016261 1478870.000000 1 0 0
-4.261040 8.219986 12.988304 15.950569 -1.092557 0.619301 -0.003697 -0.004773 -1191150.000000 1 0 0
0.178060 -4.937214 18.455704 19.105517 -1.534747 0.261558 0.012705 -0.014266 -321740.000000 1 0 0
-11.554840 2.140286 11.260704 16.275706 -0.183153 0.806718 0.006937 -0.001643 826094.000000 1 0 0
-3.361040 -6.077214 14.275204 15.874841 1.065610 0.452780 0.002713 -0.010215 460162.000000 1 0 0
-7.451040 -2.159414 14.615004 16.546281 0.282086 0.487983 0.010593 -0.005358 -61773.100000 1 0 0
-6.055640 -1.159914 10.669804 12.323185 0.189251 0.523986 -0.002205 -0.001800 790603.000000 1 0 0
-3.861940 2.433486 11.164104 12.061246 -0.562273 0.388132 -0.004570 0.002024 995778.000000 1 0 0
-6.376840 6.348086 13.499304 16.223239 -0.783138 0.587919 -0.012775 -0.000928 238288.000000 1 0 0
-8.952940 5.518986 12.539004 16.365847 -0.552423 0.697938 -0.001371 -0.000113 -651538.000000 1 0 0
-12.253840 -2.417214 15.886404 20.208349 0.194761 0.666273 0.022576 -0.003199 1238950.000000 1 0 0
-3.433640 -7.517114 16.983004 18.887014 1.142321 0.452883 0.008386 -0.008458 473631.000000 1 0 0
-0.538940 -5.418514 14.373804 15.370653 1.471660 0.362126 -0.001797 -0.002943 1220870.000000 1 0 0
-14.249340 -2.275814 13.710404 19.904728 0.158376 0.810962 0.026986 -0.001764 -1980020.000000 1 0 0
-6.422540 1.538986 12.196904 13.870182 -0.235188 0.496277 -0.004171 0.000896 1727600.000000 1 0 0
2.174560 -2.226114 14.543304 14.872524 -0.797113 0.210800 -0.005945 -0.001899 569885.000000 1 0 0
-12.452940 4.058086 9.200204 16.005859 -0.315022 0.958434 -0.005078 0.003267 -2090730.000000 1 0 0
-9.023540 -2.981814 12.571304 15.759225 0.319152 0.647307 -0.002891 0.004747 730315.000000 1 0 0
-7.012740 -7.286814 15.330504 18.365743 0.804562 0.583147 0.014646 -0.007137 -816350.000000 1 0 0
-3.315240 5.860786 19.451104 20.583611 -1.056006 0.333263 0.014857 -0.003467 -142269.000000 1 0 0
0.619760 5.569286 16.163604 17.107400 1.459971 0.333718 -0.005617 -0.003435 221673.000000 1 0 0
3.453960 1.473386 16.724304 17.140684 0.403207 0.220866 -0.006821 -0.002118 2075960.000000 1 0 0
-11.701440 11.417186 7.931504 18.170982 -0.773103 1.119099 -0.000204 -0.011333 -229522.000000 1 0 0
0.597860 -9.490114 15.441904 18.134831 -1.507881 0.551947 -0.014164 -0.000193 -398001.000000 1 0 0
-2.356240 -3.634014 18.771604 19.264761 0.995557 0.226755 0.019618 -0.018893 2306570.000000 1 0 0
-12.794240 2.208486 13.825804 18.966361 -0.170931 0.753988 0.014357 -0.003618 127102.000000 1 0 0
-5.389240 -0.543514 15.816104 16.717908 0.100512 0.329953 0.009222 -0.003594 1307130.000000 1 0 0
-4.494240 -6.029414 11.677204 13.889173 0.930255 0.572145 -0.004090 -0.000281 -988787.000000 1 0 0
2.319160 1.792086 13.958704 14.263081 0.657891 0.206962 -0.003282 -0.003252 -288360.000000 1 0 0
0.021460 3.401486 14.338704 14.736655 1.564488 0.232923 -0.000544 -0.006640 128551.000000 1 0 0
-12.855740 7.215186 12.286804 19.191001 -0.511434 0.875989 0.004149 0.000084 901493.000000 1 0 0
0.879860 1.481686 18.211104 18.292453 1.034931 0.094345 0.002671 -0.001274 704258.000000 1 0 0
-1.967040 6.455786 12.389704 14.108550 -1.275039 0.498774 -0.004469 -0.004069 1697170.000000 1 0 0
-13.424740 -2.677614 10.899004 17.498044 0.196870 0.898391 0.020653 -0.004862 812359.000000 1 0 0
-2.525940 3.711986 13.444604 14.174505 -0.973290 0.322311 -0.002156 -0.004397 -803968.000000 1 0 0
3.534960 6.163186 16.264204 17.748384 1.050045 0.411863 -0.006586 -0.006418 1192530.000000 1 0 0
-3.700340 12.416886 12.287804 17.856699 -1.281167 0.811882 0.008149 -0.012419 216769.000000 1 0 0
3.736960 -1.439414 17.053404 17.517287 -0.367668 0.230648 0.002308 -0.002598 1146740.000000 1 0 0
-15.704840 0.441186 9.084304 18.148312 -0.028085 1.046552 0.018285 -0.003633 -299633.000000 1 0 0
-4.638040 4.698386 15.123904 16.502082 -0.791862 0.411593 0.001650 -0.007137 353364.000000 1 0 0
-7.965440 -8.188014 10.542504 15.544652 0.799176 0.825475 0.001582 -0.002918 3838870.000000 1 0 0
-2.679840 -0.476714 14.679704 14.929920 0.176047 0.183338 -0.000850 -0.002285 2524980.000000 1 0 0
-1.780140 0.922686 17.230004 17.346276 -0.478197 0.115849 -0.001001 -0.003695 496621.000000 1 0 0
-0.703640 -2.486414 14.450404 14.679630 1.295013 0.176952 -0.000955 -0.004409 -234590.000000 1 0 0
5.036360 -8.298814 16.468004 19.116233 -1.025336 0.532645 0.004806 -0.003924 -494982.000000 1 0 0
-4.516340 10.053386 10.635704 15.316203 -1.148578 0.803199 0.003099 -0.006860 -2409170.000000 1 0 0
-6.105240 2.220386 15.202504 16.532398 -0.348814 0.403841 0.004849 -0.002065 288707.000000 1 0 0
-4.823740 6.840486 17.242504 19.166759 -0.956606 0.451933 0.008152 -0.002668 -875506.000000 1 0 0
-4.029440 9.261186 15.758504 18.717275 -1.160411 0.569959 0.005714 -0.002975 451673.000000 1 0 0
-4.488540 -9.698114 18.527504 21.388520 1.137328 0.523178 0.023226 -0.015835 -203740.000000 1 0 0
-6.789840 -4.120714 11.162604 13.699852 0.545473 0.618417 -0.004729 0.003541 13287.900000 1 0 0
-2.241240 -0.948914 19.492004 19.643365 0.400504 0.124221 0.016453 -0.010062 458065.000000 1 0 0
-5.686440 -4.520614 15.227804 16.871798 0.671673 0.445119 0.008693 -0.011309 1982810.000000 1 0 0
-12.784540 0.054286 9.715404 16.057288 -0.004246 0.920972 0.004139 0.002829 1719640.000000 1 0 0
-14.478340 8.825986 10.527704 19.958780 -0.547448 1.015174 0.008694 -0.003225 -796919.000000 1 0 0
-8.407540 10.615086 12.723504 18.581021 -0.900930 0.816525 0.007756 -0.021628 392631.000000 1 0 0
-10.480440 7.275686 10.761204 16.690678 -0.606833 0.870109 0.001427 -0.001101 -236594.000000 1 0 0
-9.722040 -6.482614 14.836504 18.885555 0.588092 0.667130 0.020372 -0.006468 -218600.000000 1 0 0
-0.796540 -13.440114 14.524004 19.804490 1.511600 0.747532 -0.010020 -0.006508 50188.100000 1 0 0
3.844360 -5.696414 16.807204 18.157927 -0.977133 0.388146 0.005472 -0.005973 1348720.000000 1 0 0
-7.278140 9.292486 10.403304 15.733733 -0.906366 0.848366 -0.000829 -0.012627 353180.000000 1 0 0
-10.227040 -6.742414 11.869404 17.056824 0.582867 0.801160 0.014984 -0.005025 101644.000000 1 0 0
-10.863240 -3.971914 10.640404 15.716370 0.350530 0.827081 0.005823 0.001897 1443690.000000 1 0 0
-10.040540 -10.206114 9.763404 17.329203 0.793576 0.972292 0.013821 -0.008004 1080980.000000 1 0 0
-9.757940 -3.594614 15.252404 18.460078 0.352953 0.598401 0.017676 -0.010300 2490620.000000 1 0 0
5.618160 -3.390614 15.948904 17.246087 -0.542996 0.390329 0.006912 -0.005570 443893.000000 1 0 0
-11.242640 0.328586 15.386904 19.059426 -0.029218 0.631213 0.019934 -0.003566 -99888.600000 1 0 0
-3.107340 3.006386 18.765904 19.257546 -0.768887 0.226447 0.002698 -0.006398 45997.200000 1 0 0
0.531460 7.437086 13.893604 15.767844 1.499457 0.492539 -0.003878 -0.007364 306765.000000 1 0 0
-12.994940 -7.556614 12.265804 19.401568 0.526709 0.886398 0.017625 -0.003444 223184.000000 1 0 0
-1.481140 -1.074714 12.136404 12.273593 0.627701 0.149656 -0.003185 -0.003378 653469.000000 1 0 0
1.976060 -4.851614 13.097704 14.106481 -1.184013 0.380475 -0.003481 -0.005083 1476760.000000 1 0 0
-14.636040 -3.992714 8.621804 17.449669 0.266320 1.054002 0.025982 -0.011825 -1972650.000000 1 0 0
8.053560 0.967286 16.070204 18.001303 0.119534 0.467441 0.010084 -0.002042 579265.000000 1 0 0
-1.199440 11.347986 13.383204 17.587654 -1.465491 0.706031 -0.002683 -0.005671 552055.000000 1 0 0
2.864060 -12.225414 -13.707496 18.589219 -1.340675 2.399994 -0.008393 0.008207 -53300.600000 1 0 0
0.807160 -10.677914 -14.077496 17.687432 -1.495348 2.491295 -0.010429 0.008410 -2323450.000000 1 0 0
3.170460 -14.328614 -12.302196 19.149544 -1.353037 2.268458 -0.012649 0.005346 -721698.000000 1 0 0
-4.918840 -10.297814 -16.196596 19.813372 1.125181 2.527780 0.007031 -0.010766 -403127.000000 1 0 0
-0.989040 -12.355414 -15.084096 19.523433 1.490918 2.453746 -0.003423 0.002262 -118722.000000 1 0 0
5.665360 -15.075114 -12.119896 20.155576 -1.211317 2.215945 0.003644 0.010467 996416.000000 1 0 0
2.038360 -11.986214 -16.114096 20.186340 -1.402349 2.495209 -0.002701 0.008387 -656780.000000 1 0 0
1.219560 -14.316314 -13.839396 19.949262 -1.485815 2.337451 -0.001771 0.011341 -256488.000000 1 0 0
-1.087940 -10.830314 -15.981896 19.336503 1.470679 2.543683 -0.003379 0.002055 -310080.000000 1 0 0
-5.536340 -5.286314 -15.249996 17.063369 0.762300 2.676382 0.010419 -0.003293 -54213.300000 1 0 0
-6.232840 -7.577314 -16.295496 19.021230 0.882446 2.599635 0.011939 -0.013459 -41942.200000 1 0 0
5.002860 -12.602614 -11.398296 17.713714 -1.192905 2.269823 -0.006073 0.008465 -448713.000000 1 0 0
-1.879840 -15.679514 -13.102496 20.519658 1.451474 2.263388 0.005173 0.009077 192257.000000 1 0 0
15.422560 -7.243014 -8.814896 19.183821 -0.439064 2.048224 0.008706 -0.003631 318006.000000 1 0 0
19.180560 -3.581914 -4.141996 19.946932 -0.184621 1.779969 0.021296 -0.007182 342707.000000 1 0 0
14.970460 -11.551714 -8.717296 20.821816 -0.657204 2.002767 0.036157 -0.009438 -288052.000000 1 0 0
18.018760 -3.405814 -6.424796 19.430730 -0.186811 1.907790 0.059201 -0.008075 708760.000000 1 0 0
9.799760 -9.203214 -15.449096 20.479478 -0.754016 2.425490 0.047384 -0.010389 -56154.000000 1 0 0
1.284160 1.821786 -15.140096 15.303284 0.956796 2.995425 0.007143 -0.008004 -65113.600000 1 0 0
4.811360 -4.372314 -13.992796 15.429344 -0.737627 2.706652 -0.002639 0.002199 -358023.000000 1 0 0
13.062760 -5.565014 -8.535596 16.566879 -0.402735 2.112061 0.023390 -0.008116 -1614390.000000 1 0 0
2.929360 0.820486 -12.173796 12.548134 0.273093 2.896719 0.002155 -0.002639 -2158770.000000 1 0 0
0.632060 6.262786 -13.103596 14.537064 1.470214 2.693770 0.008629 -0.004180 35406.200000 1 0 0
3.226160 -1.128714 -16.793496 17.137783 -0.336553 2.940809 0.001485 -0.005203 -52479.800000 1 0 0
13.194660 4.113186 -11.280396 17.839974 0.302184 2.255328 0.012223 -0.005852 1000380.000000 1 0 0
-3.866640 9.302586 -16.725696 19.525315 -1.176870 2.599471 0.003153 -0.000592 69426.500000 1 0 0
-0.358840 -5.266114 -17.825196 18.590276 1.502760 2.853703 0.001425 -0.005629 41783.300000 1 0 0
-0.455940 -8.699814 -17.549096 19.592484 1.518436 2.680812 0.001792 -0.005911 -3471680.000000 1 0 0
5.617260 -10.204714 -12.095096 16.792294 -1.067602 2.374997 -0.000736 0.003558 348580.000000 1 0 0
1.849560 -9.958314 -18.061396 20.707557 -1.387159 2.630505 0.006020 -0.002235 -364358.000000 1 0 0
10.830460 8.625486 -14.554896 20.088376 0.672548 2.381168 0.026618 -0.012224 192637.000000 1 0 0
10.962760 -3.822014 -12.852696 17.319980 -0.335459 2.406955 0.011018 -0.008488 623584.000000 1 0 0
4.917760 7.409586 -12.231496 15.122692 0.984849 2.512935 0.000402 -0.004565 -602606.000000 1 0 0
9.606060 -6.000014 -12.602096 16.943712 -0.558317 2.409478 0.006767 -0.001996 -1272970.000000 1 0 0
-3.279940 0.326786 -15.983496 16.319833 -0.099304 2.938220 0.009809 -0.004197 -810074.000000 1 0 0
-0.808440 10.609186 -12.865496 16.695191 -1.494741 2.450596 0.003697 -0.001760 -2501600.000000 1 0 0
6.679360 -5.569914 -12.579896 15.293514 -0.695072 2.536702 -0.001595 0.001565 14285.600000 1 0 0
17.736160 -6.176414 -8.020196 20.421631 -0.335105 1.974395 0.027911 -0.014489 719590.000000 1 0 0
13.126960 4.749086 -13.831796 19.651704 0.347131 2.351595 0.023218 -0.011260 500931.000000 1 0 0
14.073360 0.752186 -11.496796 18.187951 0.053397 2.255070 0.018830 -0.007398 -448691.000000 1 0 0
14.996060 6.012786 -11.163196 19.638033 0.381332 2.175414 0.029009 -0.009970 259457.000000 1 0 0
8.286860 1.478886 -11.646096 14.369784 0.176602 2.515729 -0.002626 -0.001742 755440.000000 1 0 0
9.839460 1.179186 -8.874296 13.302578 0.119274 2.301120 -0.000545 -0.000955 232197.000000 1 0 0
-0.120340 -5.961114 -13.112696 14.404589 1.550612 2.714838 -0.004424 0.002113 789469.000000 1 0 0
10.555660 -5.810714 -8.992696 15.035123 -0.503214 2.211940 0.011981 -0.008697 -1777680.000000 1 0 0
10.156560 8.473886 -11.248796 17.363694 0.695324 2.275534 0.016439 -0.010189 546880.000000 1 0 0
8.278060 8.097586 -14.605896 18.639457 0.774378 2.471237 0.019494 -0.005616 445503.000000 1 0 0
8.649360 10.593986 -10.769596 17.407704 0.886111 2.237843 0.018272 -0.008731 -1104710.000000 1 0 0
7.011060 1.916486 -17.890896 19.310931 0.266833 2.755705 0.007831 -0.001820 -2087290.000000 1 0 0
12.095560 2.572786 -12.869396 17.847777 0.209582 2.376134 0.013574 -0.005215 -1735620.000000 1 0 0
2.627860 -0.878514 -19.336496 19.534009 -0.322627 2.999267 0.013470 -0.018992 -580125.000000 1 0 0
10.250160 -2.357514 -15.568896 18.788672 -0.226066 2.547456 0.019703 -0.006435 -231266.000000 1 0 0
8.239660 -0.899314 -13.008996 15.425133 -0.108714 2.574309 -0.000266 -0.002541 122894.000000 1 0 0
0.426060 4.199786 -14.638896 15.235387 1.469694 2.860844 0.007187 -0.006273 -296822.000000 1 0 0
3.966960 -7.758914 -15.753896 18.003410 -1.098167 2.636337 -0.000344 0.000053 -731402.000000 1 0 0
11.487960 -5.816914 -14.367696 19.293533 -0.468714 2.410866 0.024787 -0.005657 -625082.000000 1 0 0
-5.955540 4.293686 -16.924896 18.448748 -0.624653 2.732296 0.004554 -0.001683 643156.000000 1 0 0
11.414360 7.754186 -9.097996 16.528416 0.596722 2.153694 0.019546 -0.009771 -168776.000000 1 0 0
9.564460 6.151986 -13.445896 17.610166 0.571589 2.439559 0.015550 -0.004311 -556263.000000 1 0 0
12.022960 0.566686 -10.158296 15.750037 0.047099 2.271780 0.012565 -0.005924 -1258220.000000 1 0 0
5.453360 -7.340314 -13.776496 16.535150 -0.931834 2.555601 0.000397 0.004065 -855134.000000 1 0 0
8.665660 -10.248614 -10.724996 17.180026 -0.868895 2.244995 0.018571 0.000095 531267.000000 1 0 0
10.136660 4.456286 -15.788796 19.284617 0.414189 2.529983 0.030441 -0.008709 -921886.000000 1 0 0
9.864160 -0.474114 -10.949296 14.744949 -0.048027 2.407710 0.001786 -0.003645 -1612340.000000 1 0 0
-1.787340 5.478086 -13.937496 15.081705 -1.255415 2.749556 0.005634 -0.005036 -825382.000000 1 0 0
1.338060 -0.721614 -15.003696 15.080518 -0.494590 3.040613 0.005380 -0.003015 -1135320.000000 1 0 0
11.685060 -10.415814 -13.973396 20.982984 -0.728032 2.299549 0.052348 -0.015395 813222.000000 1 0 0
9.439260 -7.819114 -10.813196 16.345133 -0.691797 2.293686 0.012653 -0.003771 -248936.000000 1 0 0
14.029660 -1.081414 -9.719396 17.101680 -0.076928 2.175271 0.018190 -0.006104 1098050.000000 1 0 0
3.923560 11.151686 -12.241496 17.017892 1.232487 2.373635 0.011348 -0.010165 -776582.000000 1 0 0
-1.316240 2.794886 -16.903496 17.183482 -1.130661 2.960826 0.005535 -0.008471 -251103.000000 1 0 0
5.852760 -0.341414 -17.750296 18.693431 -0.058268 2.822585 -0.005575 0.000541 -113465.000000 1 0 0
6.352360 -6.514814 -16.174696 18.558450 -0.798023 2.629160 0.005830 0.004085 543934.000000 1 0 0
-1.601540 -5.226914 -19.978196 20.712651 1.273476 2.874494 0.015138 -0.016927 -490733.000000 1 0 0
0.098760 -4.391314 -15.246996 15.867082 -1.548310 2.861103 -0.002467 -0.000931 -382139.000000 1 0 0
0.509460 0.529586 -12.878496 12.899445 0.804766 3.084594 0.005351 -0.005785 -467627.000000 1 0 0
15.439760 0.540386 -13.693596 20.644437 0.034985 2.296025 0.019692 -0.009538 602917.000000 1 0 0
-0.179940 6.946586 -16.383396 17.796154 -1.544899 2.740447 0.014020 -0.003050 -231671.000000 1 0 0
-5.121440 -0.543314 -18.322296 19.032364 0.105691 2.867575 0.013523 -0.006025 -177976.000000 1 0 0
10.376960 -8.322614 -13.166896 18.716687 -0.675976 2.351085 0.016644 -0.009190 -453062.000000 1 0 0
4.185460 8.252386 -17.441396 19.743917 1.101420 2.653824 0.017432 -0.012529 -146386.000000 1 0 0
9.204360 0.717686 -16.962396 19.312126 0.077815 2.643151 0.013910 -0.000433 -15869.300000 1 0 0
3.270960 4.705386 -18.555096 19.419872 0.963331 2.842043 0.012791 -0.007398 -654740.000000 1 0 0
1.535460 -8.212114 -16.068996 18.111021 -1.385956 2.662144 -0.008369 0.000635 -841907.000000 1 0 0
4.566060 7.624386 -14.922996 17.368822 1.031204 2.604467 0.008709 -0.008470 356419.000000 1 0 0
-5.632840 -0.420614 -15.127696 16.147848 0.074533 2.784235 0.001891 -0.005787 -445361.000000 1 0 0
2.795060 3.450186 -13.674496 14.377343 0.889916 2.827620 0.005434 -0.004435 -173795.000000 1 0 0
-2.386640 -10.301314 -18.106096 20.967686 1.343130 2.613012 0.007590 -0.004706 -302095.000000 1 0 0
6.274860 -9.037814 -15.497596 19.006090 -0.963913 2.524219 0.003884 -0.000394 249893.000000 1 0 0
-1.802940 5.334586 -17.542996 18.424579 -1.244877 2.830997 0.009410 -0.001367 440645.000000 1 0 0
10.011760 -12.216614 -11.513596 19.545943 -0.884266 2.200683 0.039521 -0.001639 -97389.900000 1 0 0
10.823460 3.589186 -9.426196 14.794685 0.320200 2.261570 0.002188 -0.002641 -465850.000000 1 0 0
4.858460 -0.378314 -11.013196 12.043183 -0.077710 2.725006 -0.000646 -0.002960 432848.000000 1 0 0
6.314560 9.522186 -11.403496 16.142658 0.985238 2.355224 0.005804 -0.010905 326245.000000 1 0 0
10.872060 -9.537514 -9.400396 17.249154 -0.720103 2.147158 0.021195 -0.003545 -1078390.000000 1 0 0
3.335460 -2.414614 -14.543396 15.115093 -0.626602 2.865681 -0.003110 -0.000278 -146190.000000 1 0 0
9.193560 -4.598714 -14.715996 17.950773 -0.463816 2.531853 0.014510 -0.004271 182536.000000 1 0 0
-3.848140 -6.659014 -16.650896 18.341292 1.046797 2.708892 -0.001611 -0.005919 -1470320.000000 1 0 0
5.910860 -7.750614 -11.213996 14.858129 -0.919260 2.426051 -0.000860 0.002904 -6964.200000 1 0 0
5.386960 6.044686 -16.867096 18.709797 0.842870 2.694046 0.009054 -0.018854 -1040990.000000 1 0 0
8.958660 1.207086 -19.519496 21.511052 0.133933 2.707893 0.024278 -0.007357 472045.000000 1 0 0
13.078960 5.604186 -9.358996 17.031057 0.404822 2.152592 0.010001 -0.005516 1062230.000000 1 0 0
-1.508940 -0.770614 -17.279596 17.362465 0.472170 3.043851 0.007243 -0.009578 367714.000000 1 0 0
-0.449540 -0.451114 -19.512496 19.522887 0.787146 3.108966 0.015545 -0.017266 -343304.000000 1 0 0
2.811160 6.295786 -16.465996 17.851291 1.150845 2.745040 0.010276 -0.008826 -871127.000000 1 0 0
7.690360 3.739186 -15.669396 17.850858 0.452561 2.642036 0.004876 -0.001302 -80297.900000 1 0 0
3.103960 -9.995914 -14.902896 18.211238 -1.269714 2.529305 -0.004806 0.005426 -171028.000000 1 0 0
9.078660 -10.542714 -13.340196 19.275158 -0.859875 2.335181 0.033327 -0.003887 -75038.600000 1 0 0
3.764160 0.075086 -14.731996 15.205468 0.019945 2.891388 -0.002025 -0.005008 -1340920.000000 1 0 0
-1.096340 -2.946014 -18.790496 19.051607 1.214532 2.975841 0.014067 -0.010403 -146969.000000 1 0 0
9.210660 10.100286 -13.159596 18.974377 0.831434 2.337195 0.026330 -0.010367 184573.000000 1 0 0
4.682260 2.132986 -10.700096 11.872879 0.427457 2.693377 -0.000694 -0.000251 -86537.500000 1 0 0
-0.421440 7.009286 -18.956296 20.215065 -1.510743 2.786836 0.022690 -0.003982 61180.500000 1 0 0
0.862960 -1.856514 -17.664896 17.783135 -1.135680 3.026212 0.011181 -0.011150 -3104980.000000 1 0 0
-4.449540 -2.378514 -14.032996 14.912435 0.490906 2.796448 0.007922 -0.003955 -3459440.000000 1 0 0
9.976360 6.005386 -10.411296 15.620099 0.541861 2.300343 0.010628 -0.000652 234085.000000 1 0 0
8.459960 5.720886 -17.282196 20.074206 0.594595 2.607863 0.025672 -0.006888 -504437.000000 1 0 0
11.337560 0.199786 -13.589696 17.699153 0.017620 2.446222 0.010567 0.002128 592583.000000 1 0 0
6.826060 12.126886 -11.782896 18.234393 1.058113 2.273379 0.022976 -0.013113 -217378.000000 1 0 0
-0.897340 0.566786 -15.013096 15.050566 -0.563352 3.071015 0.007460 -0.005532 -1834790.000000 1 0 0
-4.286940 -3.014814 -18.924696 19.636983 0.612907 2.871429 0.008037 -0.008580 -22158.600000 1 0 0
5.796760 -12.070914 -13.873996 19.282043 -1.123093 2.373921 -0.001024 0.002664 -122961.000000 1 0 0
2.227560 -4.806314 -14.028696 14.995566 -1.136801 2.780533 -0.003214 0.005309 -860246.000000 1 0 0
11.812660 1.928386 -15.319396 19.440718 0.161820 2.478359 0.033756 -0.004415 119246.000000 1 0 0
9.652260 2.081286 -13.817296 16.982801 0.212375 2.521123 0.009802 -0.002052 -915934.000000 1 0 0
-2.115640 -4.160314 -16.496996 17.144534 1.100349 2.865877 -0.003592 -0.004461 -1863210.000000 1 0 0
-2.881840 9.989586 -14.331296 17.705448 -1.289937 2.513975 0.007503 -0.006850 63810.600000 1 0 0
3.501360 5.736586 -13.592696 15.163421 1.022797 2.682407 0.005298 -0.004890 -226788.000000 1 0 0
-5.093240 -2.553514 -16.572696 17.524720 0.464730 2.810462 0.009243 -0.005479 350174.000000 1 0 0
-4.291340 6.194686 -13.591496 15.540866 -0.964956 2.635334 0.000820 -0.002306 -744401.000000 1 0 0
5.873860 -1.137214 -14.078396 15.296952 -0.191240 2.739745 0.001005 -0.000136 -2071470.000000 1 0 0
6.655060 -3.030614 -12.694696 14.650248 -0.427323 2.618979 -0.002085 -0.003521 283744.000000 1 0 0
2.925560 -3.259414 -18.266496 18.784237 -0.839324 2.906263 0.006876 -0.013148 -521032.000000 1 0 0
7.474760 -12.079514 -12.076096 18.644538 -1.016670 2.275360 0.012843 0.005165 -1942760.000000 1 0 0
-5.959240 -5.587614 -17.792696 19.578407 0.753225 2.711176 0.026341 -0.002600 98588.600000 1 0 0
0.484760 8.637686 -11.930296 14.736912 1.514734 2.514185 0.003573 -0.002424 69180.700000 1 0 0
0.442960 8.563486 -14.510396 16.854706 1.519116 2.607853 0.007372 -0.002419 585603.000000 1 0 0
7.685960 -2.492014 -15.066396 17.096210 -0.313535 2.649341 0.004905 -0.006996 -390787.000000 1 0 0
14.289560 1.443286 -8.976196 16.936549 0.100661 2.129385 0.015747 -0.001853 430122.000000 1 0 0
2.854060 10.706886 -14.632696 18.354805 1.310291 2.493461 0.014012 -0.005668 -255397.000000 1 0 0
6.167760 1.013186 -15.524196 16.735247 0.162817 2.758826 0.002550 -0.002245 667860.000000 1 0 0
16.738060 -5.397714 -10.194496 20.327954 -0.311952 2.096130 0.056993 -0.021740 822820.000000 1 0 0
4.913460 -4.298214 -11.290196 13.041674 -0.718707 2.617346 -0.000548 0.002711 -1564400.000000 1 0 0
8.719660 -3.640114 -17.130896 19.564010 -0.395467 2.637542 0.006980 -0.004984 394934.000000 1 0 0
13.323960 -9.663514 -8.835496 18.680937 -0.627487 2.063453 0.033615 -0.004128 -162822.000000 1 0 0
2.348060 -7.981414 -13.598796 15.941883 -1.284677 2.592548 -0.006215 0.007048 1960.440000 1 0 0
-6.861340 -2.498814 -18.485896 19.875876 0.349258 2.765392 0.014775 -0.005068 -219871.000000 1 0 0
-1.397940 -6.531514 -15.792596 17.147041 1.359947 2.741462 0.000769 -0.000240 -1524840.000000 1 0 0
1.511360 -7.466014 -18.558996 20.061454 -1.371063 2.752114 0.008142 -0.004342 -122617.000000 1 0 0
5.451660 10.847186 -14.288296 18.749332 1.105081 2.437300 0.021550 -0.023681 692919.000000 1 0 0
5.482560 -3.359914 -17.432896 18.580995 -0.549805 2.788221 0.010033 -0.003742 -392103.000000 1 0 0
4.057160 12.998786 -14.117896 19.614892 1.268259 2.374244 0.017998 -0.015057 -74882.900000 1 0 0
9.200160 10.287286 -15.718396 20.917437 0.841126 2.421052 0.031034 -0.016080 217945.000000 1 0 0
2.397560 3.729786 -16.285796 16.878589 0.999489 2.875779 0.009008 -0.008727 282529.000000 1 0 0
16.530760 1.522286 -11.436996 20.159074 0.091829 2.174065 0.021937 -0.009748 -81926.800000 1 0 0
9.990560 -3.750914 -10.527096 14.990010 -0.359161 2.349383 0.007642 -0.005636 -414402.000000 1 0 0
14.734760 -2.246514 -11.886396 19.064270 -0.151298 2.243996 0.035722 -0.010868 451961.000000 1 0 0
-2.543340 -8.731014 -16.060396 18.456314 1.287341 2.626373 0.001335 -0.000965 -637764.000000 1 0 0
14.030260 7.968586 -8.934496 18.443746 0.516525 2.076495 0.038444 -0.011260 63860.600000 1 0 0
-8.184540 0.086386 -16.571296 18.482479 -0.010554 2.682816 -0.005305 -0.003142 -578596.000000 1 0 0
-3.477440 3.879686 -15.947696 16.777174 -0.840018 2.825828 0.005212 -0.003533 925502.000000 1 0 0
15.253560 3.897186 -9.627296 18.453834 0.250142 2.119634 0.032020 -0.002232 1111870.000000 1 0 0
5.390260 1.118486 -12.996496 14.114348 0.204598 2.740924 -0.001734 -0.001857 -54574.000000 1 0 0
7.839160 -7.850814 -12.964096 17.063279 -0.786141 2.433749 0.008758 0.000856 -2630430.000000 1 0 0
3.280560 -6.270514 -11.899296 13.844662 -1.088783 2.605060 -0.002491 0.004335 -1334850.000000 1 0 0
-3.320940 3.545986 -18.486696 19.114408 -0.818159 2.884606 0.011713 -0.004728 138514.000000 1 0 0
0.841960 5.075686 -17.756996 18.487358 1.406412 2.859568 0.018914 -0.014504 -2095100.000000 1 0 0
6.356360 7.288486 -10.239296 14.084336 0.853606 2.384737 -0.000657 -0.001849 193077.000000 1 0 0
9.676160 3.748986 -11.760396 15.684065 0.369637 2.418603 0.008591 -0.002778 -154146.000000 1 0 0
4.453360 1.817386 -17.405296 18.057675 0.387464 2.871974 0.008008 -0.007634 270371.000000 1 0 0
2.624560 7.983486 -13.290896 15.724894 1.253178 2.577761 0.006527 -0.005864 -1063550.000000 1 0 0
14.291560 -3.619914 -9.826596 17.717631 -0.248073 2.158706 0.026409 -0.008400 -88941.500000 1 0 0
-1.249240 9.304486 -16.237596 18.756161 -1.437332 2.617385 0.009578 -0.001311 -393991.000000 1 0 0
-5.291240 2.020286 -15.785496 16.770828 -0.364734 2.797101 0.005256 -0.004515 694677.000000 1 0 0
4.605160 4.302586 -11.964296 13.522726 0.751444 2.656764 -0.000711 -0.003969 481398.000000 1 0 0
9.177760 3.212186 -17.816096 20.296864 0.336672 2.641996 0.015363 0.005984 890346.000000 1 0 0
-4.326340 14.337386 -13.444096 20.125148 -1.277733 2.302347 0.015527 -0.009060 -376737.000000 1 0 0
15.422060 -4.856714 -7.898196 17.994696 -0.305088 2.025190 0.027087 -0.013641 84463.900000 1 0 0
1.311760 9.105986 -16.778096 19.134895 1.427726 2.640030 0.012645 -0.004280 -437875.000000 1 0 0
0.474460 -3.424114 -12.769296 13.228930 -1.433109 2.877215 -0.002874 0.001933 184881.000000 1 0 0
7.531960 3.456486 -13.070796 15.476544 0.430238 2.576530 0.001426 -0.001486 -647944.000000 1 0 0
-2.879840 7.531586 -15.161296 17.172163 -1.205581 2.652798 0.003326 -0.001357 -18301.600000 1 0 0
12.159260 -5.158414 -10.959496 17.162966 -0.401225 2.263415 0.026108 -0.010828 -1020460.000000 1 0 0
0.890960 -4.341014 -19.936296 20.422882 -1.368365 2.922866 0.022371 -0.021691 -934912.000000 1 0 0
3.510160 -4.575914 -16.181496 17.178505 -0.916444 2.799223 0.000201 -0.003352 457600.000000 1 0 0
-5.674240 4.175486 -14.386796 16.019101 -0.634394 2.686232 -0.002385 -0.001935 704434.000000 1 0 0
12.278060 -7.501314 -9.776796 17.395580 -0.548434 2.167632 0.024267 -0.006025 29623.400000 1 0 0
-2.090440 -1.840914 -15.071396 15.326640 0.722012 2.958836 0.005205 -0.000981 204111.000000 1 0 0
7.043060 5.813186 -14.181496 16.867503 0.690025 2.569479 0.007377 -0.007081 -194572.000000 1 0 0
4.298260 -5.346214 -18.596496 19.821370 -0.893632 2.788201 0.011975 -0.005968 122903.000000 1 0 0
7.577460 7.442886 -12.269896 16.228518 0.776439 2.428084 0.006922 -0.005464 -1762270.000000 1 0 0
12.256760 -2.520614 -11.047196 16.691980 -0.202823 2.294049 0.018252 -0.007138 -566406.000000 1 0 0
7.480660 -0.750114 -10.618396 13.010507 -0.099940 2.525496 -0.001902 -0.000794 -2875770.000000 1 0 0
5.350460 3.989986 -14.394896 15.866961 0.640761 2.707435 -0.003553 -0.003749 821923.000000 1 0 0
14.696060 2.805086 -12.926196 19.771930 0.188605 2.283346 0.021138 -0.009234 592915.000000 1 0 0
-6.616040 6.630386 -15.876196 18.433329 -0.786481 2.608573 -0.002099 0.004227 567740.000000 1 0 0
-11.381640 3.678786 -16.430296 20.323136 -0.312622 2.512315 0.027713 -0.013239 -945.726000 1 0 0
-4.991540 6.443686 -18.013996 19.772219 -0.911711 2.716683 0.000373 0.010111 -197036.000000 1 0 0
-10.122140 1.482786 -15.566896 18.627524 -0.145455 2.560190 0.011121 -0.007541 117074.000000 1 0 0
-7.559040 5.779486 -18.129996 20.475310 -0.652767 2.658272 -0.006298 0.005071 753740.000000 1 0 0
-8.769240 3.702486 -15.890396 18.523301 -0.399508 2.601887 -0.001130 0.011395 -731170.000000 1 0 0
9.031760 13.437286 -12.204096 20.274943 0.979013 2.216712 0.041102 -0.011656 198697.000000 1 0 0
13.724160 8.999286 -11.375496 19.968516 0.580390 2.176903 0.029128 -0.015398 483408.000000 1 0 0
8.447960 16.036586 -9.086796 20.275847 1.085945 2.035501 0.032460 -0.005407 -86456.100000 1 0 0
7.071460 13.489886 -13.976196 20.671638 1.087973 2.313260 0.034337 -0.014387 -660650.000000 1 0 0
4.691260 16.122286 -12.395396 20.870598 1.287635 2.206715 0.036159 -0.014601 -33339.100000 1 0 0
11.113860 10.822686 -11.528396 19.327502 0.772125 2.209900 0.039487 -0.014477 -1055720.000000 1 0 0
15.733260 9.684386 -9.828396 20.926542 0.551765 2.059704 0.058043 -0.007162 576642.000000 1 0 0
13.280460 10.547186 -9.252196 19.318822 0.671187 2.070222 0.061055 -0.014895 776798.000000 1 0 0
10.126060 11.883186 -8.550896 17.800703 0.865065 2.071871 0.015476 -0.003626 278961.000000 1 0 0
5.472560 16.160986 -9.998596 19.776205 1.244288 2.100859 0.023419 -0.014423 -60825.300000 1 0 0
6.765860 14.649786 -11.619496 19.884813 1.138140 2.194863 0.027798 -0.001989 717186.000000 1 0 0
10.760160 14.041686 -9.823096 20.234703 0.916944 2.077683 0.039891 0.001131 -127551.000000 1 0 0
7.982960 -18.662414 -1.334696 20.341946 -1.166594 1.636457 0.032049 0.005891 -233158.000000 1 0 0
7.368960 -17.273314 -3.329996 19.072436 -1.167563 1.746293 0.029823 0.001229 -13847.400000 1 0 0
4.350560 -18.512214 5.654104 19.839313 -1.339975 1.281795 0.025274 0.005452 -190089.000000 1 0 0
9.769760 -17.189314 -2.396696 19.916447 -1.053965 1.691426 0.033960 0.003946 -731170.000000 1 0 0
-9.657840 -12.280714 -9.979896 18.538828 0.904389 2.139243 0.015727 -0.006375 78965.900000 1 0 0
-5.073840 -7.034714 -12.166696 14.941873 0.945946 2.522264 0.002969 0.000915 29061.900000 1 0 0
-10.843040 -9.541214 -5.640796 15.505640 0.721620 1.943130 0.007163 -0.005372 -1043420.000000 1 0 0
-4.561440 -11.515514 -13.941196 18.648613 1.193646 2.415196 0.012440 -0.002974 211894.000000 1 0 0
-2.969440 -15.415014 7.524904 17.408745 1.380494 1.123812 -0.002588 -0.000711 -20859.000000 1 0 0
-4.785140 -12.078414 -11.529196 17.369745 1.193594 2.296620 0.006140 0.003393 151172.000000 1 0 0
-14.230640 -12.848214 -4.150896 19.616770 0.734391 1.784007 0.011910 -0.004880 -89001.900000 1 0 0
-3.316740 -12.251714 -3.279196 13.109477 1.306417 1.823621 0.005139 -0.006280 633835.000000 1 0 0
-2.589440 -17.242514 -1.568396 17.506266 1.421733 1.660507 -0.000239 -0.013810 -1382020.000000 1 0 0
-5.807940 -12.163714 3.667104 13.969100 1.125326 1.305168 0.000775 -0.003455 139152.000000 1 0 0
-8.891040 -10.934314 -12.114396 18.584091 0.888099 2.280843 0.015202 0.002792 172692.000000 1 0 0
-9.834840 -11.860214 -7.457596 17.117374 0.878485 2.021583 0.010709 -0.009575 -304690.000000 1 0 0
-10.896540 -15.161714 6.297904 19.704714 0.947638 1.245474 0.020001 -0.000963 -405357.000000 1 0 0
-9.557840 -15.624014 0.688804 18.328573 1.021789 1.533207 -0.001437 0.000530 -831557.000000 1 0 0
-14.835640 -7.538514 -7.836996 18.394128 0.470135 2.010929 0.006827 -0.012535 -342565.000000 1 0 0
-2.393040 -16.483514 5.139304 17.431160 1.426626 1.271514 0.005042 -0.003595 -202353.000000 1 0 0
4.365260 -15.920114 5.863604 17.518201 -1.303176 1.229494 0.013186 -0.002384 -339030.000000 1 0 0
4.181860 -14.740714 -10.063996 18.331956 -1.294365 2.151947 -0.000560 0.009729 -207635.000000 1 0 0
-7.672940 -14.087814 -0.296596 16.044578 1.072069 1.589283 0.000351 0.000345 1318170.000000 1 0 0
2.973560 -14.809114 9.673304 17.936687 -1.372639 1.001187 0.007142 -0.008572 -240128.000000 1 0 0
2.479260 -17.296014 10.438704 20.353510 -1.428423 1.032272 0.017690 -0.001863 -472912.000000 1 0 0
-8.296440 -16.974914 -6.099696 19.854091 1.116191 1.883073 0.015899 -0.008708 -627983.000000 1 0 0
-6.521440 -9.127214 -7.807296 13.667081 0.950402 2.178822 0.004333 -0.003460 280358.000000 1 0 0
-6.199740 -12.993514 -4.763796 15.164496 1.125602 1.890348 -0.001814 -0.011334 465609.000000 1 0 0
2.267860 -19.436914 -4.700196 20.125324 -1.454644 1.806520 0.007179 -0.005395 165402.000000 1 0 0
-5.339040 -12.697614 8.379104 16.122783 1.172764 1.024290 -0.000231 -0.005806 957863.000000 1 0 0
2.125060 -17.538014 3.491404 18.007990 -1.450215 1.375680 0.011332 -0.009908 187185.000000 1 0 0
-17.510740 -10.080614 -2.603996 20.372177 0.522347 1.698968 0.012352 -0.004554 353389.000000 1 0 0
-3.629940 -15.369814 2.649404 16.013338 1.338873 1.404582 0.003277 -0.006075 51180.500000 1 0 0
-10.172840 -10.139514 -14.324596 20.285228 0.783757 2.354855 0.028176 -0.006469 -115035.000000 1 0 0
5.965460 -14.600014 -5.592996 16.734059 -1.182904 1.911583 -0.000687 0.003253 695313.000000 1 0 0
-7.244540 -12.411414 -10.726196 17.932592 1.042448 2.211974 0.005027 -0.003821 -1186310.000000 1 0 0
-7.159340 -14.297614 3.961804 16.473428 1.106560 1.327919 -0.000385 0.001041 765356.000000 1 0 0
3.179160 -14.937814 -3.030796 15.570198 -1.361099 1.766701 0.007840 -0.003328 248114.000000 1 0 0
-7.578640 -11.371514 7.834604 15.752084 0.982938 1.050233 0.001194 -0.006221 1157180.000000 1 0 0
-12.759940 -12.235714 -1.026396 17.708254 0.764429 1.628790 -0.001239 0.005186 -1382260.000000 1 0 0
-1.912340 -13.630414 4.098704 14.361219 1.431407 1.281372 0.000582 -0.004842 -3570620.000000 1 0 0
-3.128540 -13.942714 5.380304 15.268749 1.350067 1.210690 -0.002997 -0.003788 194318.000000 1 0 0
-14.393040 -10.297014 -4.433796 18.244086 0.620998 1.816281 0.008652 -0.004036 475255.000000 1 0 0
-6.355840 -8.699214 -10.584596 15.103202 0.939813 2.347340 0.008143 -0.000668 247259.000000 1 0 0
0.625660 -19.445014 2.393404 19.601745 -1.538632 1.448389 0.010478 -0.012730 -60925.900000 1 0 0
6.346760 -14.138414 -8.128596 17.500005 -1.148856 2.053856 0.008252 0.004480 -2661250.000000 1 0 0
-3.956840 -16.733414 -5.796396 18.145577 1.338598 1.895933 -0.005576 -0.010044 -121491.000000 1 0 0
-3.709240 -13.840314 -13.156896 19.452935 1.308947 2.313586 0.014639 0.005561 -707846.000000 1 0 0
-8.246740 -14.729214 -4.504696 17.471427 1.060392 1.831574 0.000991 -0.008258 -1189810.000000 1 0 0
-4.484540 -14.487214 10.143204 18.244864 1.270600 0.981293 -0.000590 -0.002193 -614670.000000 1 0 0
-0.457240 -12.256314 -9.934096 15.783301 1.533507 2.251584 -0.000422 0.004327 322474.000000 1 0 0
2.256360 -17.279514 6.700104 18.669873 -1.440951 1.203737 0.008121 -0.008039 -928156.000000 1 0 0
-2.942340 -19.172014 -3.386696 19.689927 1.418514 1.743657 0.001420 -0.015854 -887490.000000 1 0 0
0.532760 -15.383414 -2.975596 15.677609 -1.536178 1.761754 0.009477 -0.005857 166223.000000 1 0 0
5.918460 -18.033514 0.597504 18.989281 -1.253680 1.539326 0.024362 -0.004926 -262975.000000 1 0 0
-7.071840 -16.779114 3.806204 18.602064 1.171922 1.364729 -0.003888 0.006852 576166.000000 1 0 0
-5.246140 -13.528214 -9.485596 17.335256 1.200858 2.149794 0.002869 -0.002533 -67921.800000 1 0 0
5.672560 -15.138114 -2.052696 16.295828 -1.212271 1.697096 0.016507 0.000589 -759723.000000 1 0 0
-8.929440 -10.176014 -0.528696 13.548642 0.850553 1.609828 -0.001468 -0.001837 354118.000000 1 0 0
-7.715640 -17.824714 -3.252696 19.693440 1.162285 1.736723 0.012076 -0.027642 23727.800000 1 0 0
7.919960 -15.961514 -1.018796 17.847511 -1.110201 1.627911 0.021084 -0.000814 -295648.000000 1 0 0
-8.112040 -10.134914 -9.689996 16.199312 0.895808 2.212016 0.008359 -0.001152 -582477.000000 1 0 0
-9.294640 -14.832914 -6.913496 18.820258 1.011031 1.946947 0.017612 -0.012136 -289356.000000 1 0 0
-11.468140 -10.537614 -12.156996 19.757331 0.743138 2.233583 0.022800 0.002745 711226.000000 1 0 0
6.633660 -16.283014 2.450904 17.752434 -1.183929 1.432294 0.020561 -0.007868 -219362.000000 1 0 0
-2.309840 -11.196214 -6.008096 12.914635 1.367345 2.054675 0.001111 -0.001129 -174433.000000 1 0 0
-12.362340 -15.409414 -3.295696 20.028458 0.894679 1.736099 0.007326 -0.001399 -313596.000000 1 0 0
-0.457440 -19.750714 -2.837196 19.958699 1.547640 1.713433 0.014389 -0.014449 -826568.000000 1 0 0
-5.886540 -15.556714 -4.710396 17.287294 1.209055 1.846763 -0.005188 -0.013425 -2685230.000000 1 0 0
1.924260 -15.800514 -0.895096 15.942403 -1.449608 1.626972 0.009792 -0.008745 1087980.000000 1 0 0
-13.333640 -11.709614 5.308404 18.522424 0.720640 1.280127 0.020134 -0.001184 235685.000000 1 0 0
2.058560 -15.323414 -8.893796 17.836600 -1.437255 2.092810 0.002446 0.008478 -1813310.000000 1 0 0
-12.033340 -16.494714 0.084704 20.417739 0.940527 1.566648 0.020523 -0.010370 384487.000000 1 0 0
-7.733640 -16.553714 -1.003996 18.298706 1.133744 1.625691 -0.003154 -0.006082 278390.000000 1 0 0
-2.983440 -14.372014 -1.629996 14.768636 1.366117 1.681390 0.003672 -0.010318 323013.000000 1 0 0
-1.822840 -10.548814 -13.338396 17.103013 1.399686 2.465280 0.000509 0.007502 -497934.000000 1 0 0
1.458560 -19.625214 4.869604 20.272875 -1.496612 1.328221 0.017230 -0.010310 -414173.000000 1 0 0
-17.430240 -9.445814 2.472104 19.978688 0.496619 1.446741 0.019281 -0.000652 -35506.400000 1 0 0
-2.711240 -15.704614 -7.973896 17.820459 1.399842 2.034717 -0.001843 -0.004512 -785699.000000 1 0 0
-10.599240 -12.016714 0.259404 16.025374 0.847992 1.554609 -0.004175 0.002747 91777.900000 1 0 0
-6.967640 -11.411414 -6.578096 14.900998 1.022630 2.028014 0.000646 -0.007655 421192.000000 1 0 0
-2.249940 -13.650014 -6.697996 15.370370 1.407435 2.021694 -0.003592 -0.001100 656336.000000 1 0 0
-14.346440 -14.420014 -1.097096 20.370586 0.787956 1.624679 0.019902 0.001222 232540.000000 1 0 0
-9.518240 -11.317114 -4.452896 15.443518 0.871522 1.863283 0.005103 -0.007367 2163460.000000 1 0 0
9.551560 -15.220414 -4.938396 18.635478 -1.010366 1.839000 0.018857 0.006598 366149.000000 1 0 0
-5.627940 -10.883614 -9.476396 15.489637 1.093561 2.229117 0.004170 0.000337 -604489.000000 1 0 0
-10.396540 -16.036514 -4.916996 19.734100 0.995614 1.822612 0.017282 -0.001920 -2679300.000000 1 0 0
2.243660 -17.345514 -3.012796 17.747614 -1.442160 1.741380 0.013496 -0.003944 660653.000000 1 0 0
-0.261340 -14.588014 -8.101296 16.688603 1.552884 2.077661 0.005281 0.003246 -614254.000000 1 0 0
-0.552040 -18.289314 -7.009096 19.594162 1.540622 1.936615 0.004187 -0.004991 202039.000000 1 0 0
-1.785740 -10.085714 -10.569996 14.718537 1.395556 2.371925 0.002656 0.003353 425907.000000 1 0 0
-5.073840 -17.333914 2.041804 18.176287 1.286039 1.458225 -0.001056 -0.001311 -85291.000000 1 0 0
0.195460 -12.819314 -2.548496 13.071643 -1.555550 1.767017 0.006983 -0.004758 -2281800.000000 1 0 0
2.570160 -15.008114 3.099704 15.538899 -1.401190 1.369969 0.011639 -0.004615 -1168340.000000 1 0 0
-9.291040 -13.188414 6.920804 17.554351 0.957067 1.165545 -0.000392 0.000759 -682806.000000 1 0 0
-0.967840 -17.818914 -4.457296 18.393420 1.516534 1.815564 0.006716 -0.010346 -268837.000000 1 0 0
-9.963840 -17.393214 -2.114096 20.156176 1.050573 1.675875 0.013811 -0.016704 1073990.000000 1 0 0
1.255860 -16.384114 1.510804 16.501482 -1.494295 1.479112 0.008623 -0.011873 877449.000000 1 0 0
-0.427940 -17.998914 4.282804 18.506389 1.547025 1.337256 0.010542 -0.011452 566040.000000 1 0 0
-17.354840 -9.294414 -0.070196 19.687091 0.491683 1.574362 0.002790 0.001004 283268.000000 1 0 0
-14.897340 -7.439714 -10.432396 19.649809 0.463167 2.130477 0.023786 -0.013498 657567.000000 1 0 0
2.823460 -12.774114 -8.901896 15.823833 -1.353264 2.168278 -0.005789 0.005922 845030.000000 1 0 0
-11.707940 -14.529814 1.752004 18.741955 0.892536 1.477179 0.003372 -0.001091 -10276.800000 1 0 0
-2.097340 -15.519314 10.517104 18.864183 1.436466 0.979404 -0.002782 -0.002729 -224605.000000 1 0 0
-7.031040 -15.860814 1.337604 17.400866 1.153531 1.493850 -0.000591 0.001007 -1426660.000000 1 0 0
-12.478840 -15.170114 -5.946596 20.523543 0.882430 1.864757 0.019557 -0.000516 -191276.000000 1 0 0
0.884760 -13.824514 -4.939396 14.707061 -1.506884 1.913306 0.009600 -0.004026 768017.000000 1 0 0
5.962260 -16.536414 -7.322396 19.042558 -1.224751 1.965493 0.013018 -0.000142 160305.000000 1 0 0
-6.572940 -12.944714 5.951204 15.690315 1.100952 1.181766 0.003303 -0.001400 -226433.000000 1 0 0
-2.654940 -13.527814 0.720404 13.804689 1.377002 1.518587 0.009071 -0.009102 479414.000000 1 0 0
-4.400140 -15.510314 0.182904 16.123416 1.294368 1.559452 0.000707 -0.007849 -131806.000000 1 0 0
-17.694340 -7.544614 -2.048496 19.344436 0.403044 1.676891 0.009663 -0.001773 511741.000000 1 0 0
1.126560 -12.699414 -11.822796 17.387431 -1.482318 2.318507 -0.003921 0.007479 -924032.000000 1 0 0
1.250560 -17.110414 -5.462596 18.004725 -1.497838 1.879053 0.014111 -0.005063 -295741.000000 1 0 0
-12.897940 -6.434814 -9.253196 17.128495 0.462769 2.141498 0.008990 -0.001433 905119.000000 1 0 0
-11.706640 -13.369614 -8.674396 19.774660 0.851618 2.024906 0.034951 -0.011145 962436.000000 1 0 0
-4.348640 -9.886214 3.420004 11.328916 1.156399 1.264129 0.005114 -0.001970 -3905180.000000 1 0 0
-7.042140 -14.204614 9.666004 18.568641 1.110543 1.023295 0.002814 -0.008328 -700019.000000 1 0 0
-5.284140 -15.740214 -7.911996 18.392286 1.246909 2.015489 -0.002776 -0.016609 -834705.000000 1 0 0
-0.355540 -13.423414 2.217404 13.609972 1.544316 1.407142 0.006916 -0.006999 635353.000000 1 0 0
-11.023040 -13.528014 -4.643196 18.057515 0.887078 1.830851 0.014974 -0.003965 -1576280.000000 1 0 0
-9.711840 -10.654914 6.659004 15.880471 0.831670 1.138100 0.005616 -0.000679 -42121.700000 1 0 0
-15.564740 -7.948614 -4.830596 18.132189 0.472156 1.840463 0.020417 -0.003955 159860.000000 1 0 0
-14.429340 -7.184614 5.410704 17.002949 0.461980 1.246943 0.019361 -0.005084 920173.000000 1 0 0
-1.651440 -19.186714 -0.074596 19.257799 1.484936 1.574670 0.008162 -0.015376 -586032.000000 1 0 0
-15.303340 -12.028314 -1.385596 19.513904 0.666141 1.641862 0.004418 0.002636 134290.000000 1 0 0
-4.417240 -12.110514 -6.692996 14.524902 1.221047 2.049687 -0.001133 -0.003578 -12640.900000 1 0 0
-7.405540 -18.389814 1.712204 19.898717 1.187966 1.484644 0.000626 0.003307 14823.900000 1 0 0
-2.585040 -11.732714 -8.614296 14.783272 1.353934 2.192850 0.002195 0.002234 63876.400000 1 0 0
-1.395840 -20.324214 -5.127996 21.007580 1.502225 1.817390 0.012135 -0.008610 -54264.900000 1 0 0
-5.204540 -8.998614 -13.889996 17.349187 1.046432 2.499115 0.006430 0.002653 362117.000000 1 0 0
-8.218140 -19.086914 -1.070596 20.808515 1.164222 1.622269 -0.004045 0.003036 148026.000000 1 0 0
-16.943440 -7.189214 5.710404 19.271058 0.401283 1.269959 0.035149 -0.008099 -1255400.000000 1 0 0
-3.556140 -14.666814 -4.214096 15.669084 1.332925 1.843092 -0.002491 -0.007706 -2042750.000000 1 0 0
-3.000240 -14.885014 -10.816196 18.642832 1.371900 2.189746 0.006921 0.000613 -484848.000000 1 0 0
-0.096440 -16.580114 6.365904 17.760468 1.564980 1.204210 0.016431 -0.010960 -1645650.000000 1 0 0
-11.152340 -11.586914 3.808404 16.526803 0.804507 1.338269 0.001489 0.001455 1095650.000000 1 0 0
-0.262640 -14.606614 0.024004 14.608995 1.552817 1.569153 0.006438 -0.008080 1138720.000000 1 0 0
-7.274740 -9.421614 -2.410596 12.144943 0.913280 1.770609 0.005540 -0.003726 -318520.000000 1 0 0
-11.160040 -14.347914 -0.796996 18.194624 0.909729 1.614614 -0.001468 -0.005090 230063.000000 1 0 0
0.239260 -14.698314 -10.592496 18.119014 -1.554520 2.195191 -0.002544 0.009374 -123262.000000 1 0 0
-1.501240 -14.015414 -3.765996 14.590006 1.464090 1.831874 0.004825 -0.006588 -4243500.000000 1 0 0
-11.422740 -7.999714 -7.562096 15.863787 0.610949 2.067681 0.009202 -0.006820 622431.000000 1 0 0
-0.211440 -17.154614 -0.430996 17.161330 1.558471 1.595913 0.009037 -0.012142 127051.000000 1 0 0
-12.819740 -9.404414 4.464904 16.514361 0.632915 1.297024 0.011656 -0.001225 -313854.000000 1 0 0
4.002760 -16.873614 1.785404 17.433548 -1.337882 1.468205 0.017853 -0.011524 1677870.000000 1 0 0
-3.974140 -17.977314 -8.032196 20.087155 1.353231 1.982168 0.003865 -0.007133 -293388.000000 1 0 0
-13.328540 -11.230314 2.697304 17.636479 0.700168 1.417255 -0.000608 0.003866 677.137000 1 0 0
-8.513840 -12.180214 4.131804 15.424490 0.960749 1.299612 0.004303 0.000883 649803.000000 1 0 0
-8.252740 -9.270714 -5.880196 13.734285 0.843425 2.013230 0.007381 -0.005759 -211534.000000 1 0 0
3.802660 -17.398914 -5.160396 18.542172 -1.355623 1.852826 0.000554 0.005485 594629.000000 1 0 0
-2.607440 -13.094714 11.331404 17.512024 1.374246 0.867069 -0.005031 -0.008930 -107142.000000 1 0 0
0.108160 -16.911814 -9.380396 19.339416 -1.564401 2.077206 0.002099 0.007680 -127484.000000 1 0 0
-7.008740 -10.580614 -14.676596 19.402946 0.985744 2.428605 0.020067 0.002959 -132189.000000 1 0 0
-4.595540 -18.833114 -1.478396 19.441986 1.331460 1.646911 0.006330 -0.016095 -477147.000000 1 0 0
-2.505040 -17.069314 1.088104 17.286431 1.425080 1.507809 0.007093 -0.014867 977793.000000 1 0 0
4.025860 -14.710514 -7.432396 16.966063 -1.303665 2.024252 0.001963 0.005197 -810815.000000 1 0 0
-1.055240 -15.910114 -6.061296 17.058270 1.504568 1.934062 0.002422 -0.005042 -740201.000000 1 0 0
-9.362840 -15.376614 8.393104 19.863213 1.023857 1.134545 0.009573 0.003421 -534239.000000 1 0 0
-7.255640 -11.965614 -1.797396 14.108539 1.025703 1.698541 -0.000785 -0.004893 831387.000000 1 0 0
-7.260440 -15.149114 -9.235696 19.170491 1.123874 2.073466 0.002793 -0.003364 -244846.000000 1 0 0
-5.105340 -13.116914 -0.562296 14.086664 1.199619 1.610724 0.004925 -0.007011 2718580.000000 1 0 0
-6.544140 -13.649114 -7.248096 16.782699 1.123719 2.017371 0.000845 -0.010018 54295.600000 1 0 0
5.698160 -15.399814 0.272204 16.422466 -1.216403 1.554220 0.017810 -0.002295 445756.000000 1 0 0
-14.372440 -12.756214 0.932904 19.239500 0.725892 1.522288 -0.005213 0.002288 886402.000000 1 0 0
0.862160 -15.239614 11.166304 18.912311 -1.514283 0.939211 0.005836 -0.008061 389045.000000 1 0 0
-9.245240 -10.840414 1.993204 14.386171 0.864650 1.431799 0.001307 0.000041 -588751.000000 1 0 0
-9.397140 -8.927014 -3.539996 13.436123 0.759748 1.837412 0.006727 -0.006051 -533496.000000 1 0 0
-12.155640 -7.391914 -12.244696 18.770524 0.546358 2.281459 0.014580 -0.009210 473221.000000 1 0 0
-13.275040 -8.323714 -0.544096 15.678232 0.560050 1.605507 0.002715 -0.002582 920342.000000 1 0 0
-11.149440 -9.555614 0.649304 14.698346 0.708572 1.526607 -0.000719 0.000610 -124624.000000 1 0 0
-15.787040 -12.139814 2.916304 20.127358 0.655534 1.425392 0.017005 0.004738 -464725.000000 1 0 0
-10.427240 -12.539114 -2.292196 16.468482 0.877095 1.710437 0.003899 -0.007319 475620.000000 1 0 0
-3.278040 -8.912614 -12.087596 15.371735 1.218355 2.475678 0.002426 0.003771 -2988210.000000 1 0 0
-0.293740 -15.494814 3.976304 15.999579 1.551841 1.319639 0.009604 -0.010945 -787194.000000 1 0 0
-15.791140 -7.694414 1.264704 17.611462 0.453405 1.498923 0.005017 -0.001086 872437.000000 1 0 0
-6.298240 -13.485414 -13.349796 19.993531 1.133862 2.301919 0.020507 0.001467 1049360.000000 1 0 0
-15.295540 -10.296514 1.140404 18.473556 0.592492 1.509025 0.001860 0.002107 567263.000000 1 0 0
-9.734340 -8.488714 -12.368096 17.882546 0.717150 2.334539 0.009638 -0.009496 581851.000000 1 0 0
-13.231540 -11.748514 -6.294096 18.780759 0.726099 1.912545 0.018252 -0.002688 -215654.000000 1 0 0
-12.131940 -11.356314 -3.858896 17.059922 0.752388 1.798968 0.004310 -0.002276 -1876030.000000 1 0 0
-11.650140 -10.808314 -9.047396 18.286629 0.747932 2.088349 0.012853 -0.013776 1275790.000000 1 0 0
-13.208940 -8.406014 -5.762496 16.683631 0.566747 1.923459 0.009444 -0.006811 -350451.000000 1 0 0
-13.586940 -8.129614 -3.169496 16.147485 0.539198 1.768363 0.015253 -0.004055 314177.000000 1 0 0
-4.390140 -16.970414 -3.210596 17.820668 1.317652 1.751947 -0.002347 -0.015396 -214390.000000 1 0 0
-15.457240 -8.859514 -1.654696 17.892884 0.520452 1.663407 0.009280 -0.000305 -2079770.000000 1 0 0
-9.366140 -15.614114 3.666204 18.573266 1.030486 1.372100 -0.002639 0.001879 -532289.000000 1 0 0
4.596160 -17.360414 7.955104 19.641597 -1.311985 1.153803 0.018640 -0.015693 82011.400000 1 0 0
-8.308440 -15.498314 5.979604 18.573734 1.078698 1.243020 0.001982 0.006440 565791.000000 1 0 0
0.963060 -16.048714 8.686704 18.274231 -1.510860 1.075432 0.008381 -0.007545 153569.000000 1 0 0
-10.779940 -7.786814 -10.059396 16.674323 0.625564 2.218412 0.010440 -0.008250 853948.000000 1 0 0
-4.835840 -15.885614 5.820304 17.595852 1.275293 1.233670 -0.001314 -0.003563 -248586.000000 1 0 0
-1.370740 -13.344114 -12.111296 18.072847 1.468433 2.305191 0.003455 0.007276 -778295.000000 1 0 0
-6.504640 -14.314414 -2.585696 15.934197 1.144280 1.733790 0.000404 -0.011004 290478.000000 1 0 0
-17.630440 -6.860214 -6.991796 20.168792 0.371085 1.924809 0.018456 -0.010707 166109.000000 1 0 0
-17.113040 -3.854014 -10.214296 20.298804 0.221514 2.098091 0.012638 -0.007379 301830.000000 1 0 0
-15.274740 -5.252814 -9.078996 18.529380 0.331220 2.082861 0.011057 -0.008247 258127.000000 1 0 0
-16.207140 -5.324314 -5.469896 17.914784 0.317409 1.881080 0.020927 -0.005407 -385561.000000 1 0 0
-15.198540 -4.392214 -12.451596 20.132795 0.281325 2.237595 0.018825 -0.002393 502010.000000 1 0 0
-18.796540 -5.154814 -5.466196 20.242563 0.267662 1.844226 0.024365 -0.007064 -678361.000000 1 0 0
-17.413440 -4.392914 -7.654896 19.522373 0.247115 1.973719 0.012461 -0.005833 737969.000000 1 0 0
12.094160 -7.914014 8.752304 16.896838 -0.579439 1.026303 0.013723 -0.010746 144180.000000 1 0 0
16.055360 -3.492914 1.923704 16.543145 -0.214216 1.454249 0.018997 -0.009591 417398.000000 1 0 0
12.062060 -2.300614 12.609004 17.600372 -0.188468 0.772160 0.012470 -0.001357 72604.200000 1 0 0
9.721760 -10.041614 5.189204 14.908872 -0.801581 1.215294 0.007646 -0.008237 352625.000000 1 0 0
16.984860 -2.079114 7.314504 18.609410 -0.121804 1.166846 0.042440 -0.011170 -486467.000000 1 0 0
5.077760 -12.744914 9.044604 16.432326 -1.191657 0.987935 0.007717 -0.006786 -353616.000000 1 0 0
15.158560 -9.010014 -2.158596 17.765749 -0.536280 1.692601 0.012820 -0.003500 -99152.400000 1 0 0
11.128260 -8.634414 6.463204 15.497234 -0.659872 1.140593 0.012664 -0.010366 -1707970.000000 1 0 0
19.973160 -2.787714 3.536304 20.474469 -0.138677 1.397208 0.042612 -0.017038 394695.000000 1 0 0
13.667260 -8.640914 6.917404 17.587207 -0.563785 1.166556 0.018327 -0.009547 -289028.000000 1 0 0
8.219860 -11.096714 8.814804 16.383038 -0.933243 1.002681 0.008988 -0.006990 -1824350.000000 1 0 0
16.786760 -0.117714 -0.530296 16.795546 -0.007012 1.602375 0.019868 -0.002860 -500435.000000 1 0 0
12.378360 -12.366014 2.425704 17.664261 -0.784899 1.433038 0.015472 -0.006937 -2746590.000000 1 0 0
10.368560 -11.652714 3.678504 16.025734 -0.843646 1.339194 0.012655 -0.006118 -942035.000000 1 0 0
16.379960 2.797186 2.330504 16.779707 0.169137 1.431458 0.015448 -0.003177 -553181.000000 1 0 0
18.428060 -3.287914 0.699604 18.732144 -0.176561 1.533440 0.028126 -0.010564 770548.000000 1 0 0
13.711260 -11.772514 -0.023196 18.071836 -0.709467 1.572080 0.022170 -0.001693 -205977.000000 1 0 0
16.925060 -7.582414 -0.807596 18.563482 -0.421189 1.614315 0.024421 -0.003626 97521.700000 1 0 0
10.208460 -5.692614 9.729704 15.208078 -0.508688 0.876595 0.011744 -0.006041 938508.000000 1 0 0
11.306060 -13.164214 6.255304 18.445930 -0.861188 1.224820 0.025921 -0.010869 -1094700.000000 1 0 0
13.110760 -1.752414 10.327404 16.781485 -0.132875 0.907897 0.018783 -0.003673 732451.000000 1 0 0
15.593460 -2.154114 -1.406696 15.804271 -0.137273 1.659922 0.015747 -0.008194 -559762.000000 1 0 0
10.365760 -12.430914 9.350204 18.692322 -0.875742 1.046948 0.026553 -0.009290 -671547.000000 1 0 0
14.546060 1.131286 3.239604 14.945323 0.077616 1.352298 0.014717 -0.004048 1718080.000000 1 0 0
14.730560 -5.965714 5.233104 16.732140 -0.384800 1.252701 0.015358 -0.007409 -1130600.000000 1 0 0
14.263360 -3.507414 -3.027296 14.996997 -0.241120 1.774053 0.008858 -0.006660 1716440.000000 1 0 0
14.090860 0.674386 9.620904 17.075389 0.047823 0.972256 0.026186 -0.004595 447403.000000 1 0 0
15.517360 -3.550614 4.545004 16.554527 -0.224943 1.292677 0.019984 -0.007206 -379061.000000 1 0 0
18.327760 4.750886 -4.115796 19.375693 0.253635 1.784848 -0.008066 0.004892 607413.000000 1 0 0
18.356960 -5.789014 -5.246796 19.950427 -0.305486 1.836918 0.066474 -0.009087 686606.000000 1 0 0
17.270960 -0.012314 5.894104 18.249018 -0.000713 1.241918 0.042718 -0.008787 888025.000000 1 0 0
16.878360 -6.664314 4.015404 18.585359 -0.376053 1.353027 0.012255 -0.006904 -700221.000000 1 0 0
9.679660 -6.650214 14.257504 18.471534 -0.601968 0.689029 0.007677 -0.007122 -985200.000000 1 0 0
8.528560 -12.304714 5.192404 15.846242 -0.964707 1.236956 0.011508 -0.007639 -2294660.000000 1 0 0
16.846660 -10.214514 -0.524196 19.708400 -0.545056 1.597397 0.024955 -0.000671 241016.000000 1 0 0
14.906960 -8.827714 0.372704 17.328730 -0.534655 1.549287 0.019610 -0.005237 393710.000000 1 0 0
10.041460 -12.986514 1.632804 16.496864 -0.912598 1.471657 0.018836 -0.007455 -214837.000000 1 0 0
16.972660 -8.228214 8.798704 20.813262 -0.451408 1.134324 0.032632 -0.014708 350923.000000 1 0 0
19.062760 -0.317514 -1.834696 19.153478 -0.016655 1.666733 0.028349 -0.001324 -79376.500000 1 0 0
13.571460 -1.281814 7.771604 15.691571 -0.094170 1.052648 0.018411 -0.006205 389154.000000 1 0 0
12.787860 -9.750914 -2.965196 16.352433 -0.651462 1.753136 0.010521 -0.005121 -1224730.000000 1 0 0
8.894060 -15.290414 1.567004 17.758282 -1.043960 1.482441 0.022752 -0.000880 -434460.000000 1 0 0
11.348660 -8.343414 11.139904 17.958343 -0.633955 0.901647 0.014432 -0.013753 96113.300000 1 0 0
13.968260 -4.033914 -0.452696 14.546122 -0.281142 1.601923 0.009881 -0.007998 -1232570.000000 1 0 0
7.075960 -13.337014 10.697504 18.503560 -1.083008 0.954359 0.010475 0.000197 -17728.200000 1 0 0
15.390560 -6.682114 1.811704 16.876085 -0.409612 1.463236 0.010242 -0.005823 1151490.000000 1 0 0
15.590060 -6.114414 -2.431296 16.921797 -0.373764 1.714974 0.017536 -0.005616 1364000.000000 1 0 0
11.249260 -8.546814 3.872204 14.648817 -0.649723 1.303281 0.011816 -0.008326 471500.000000 1 0 0
10.724660 -14.493414 -0.276896 18.032028 -0.933747 1.586153 0.033364 -0.003594 648592.000000 1 0 0
13.353460 -12.912314 4.728404 19.167695 -0.768604 1.321537 0.016482 -0.006448 281511.000000 1 0 0
12.872660 -11.138214 6.627904 18.267301 -0.713288 1.199495 0.018264 -0.009486 838187.000000 1 0 0
10.898860 -10.517114 1.354404 15.206224 -0.767575 1.481609 0.009895 -0.005563 666651.000000 1 0 0
13.830460 -7.744314 11.910604 19.827216 -0.510447 0.926395 0.013235 -0.015188 -577184.000000 1 0 0
15.283360 -1.878914 -4.914496 16.163653 -0.122325 1.879733 0.022379 -0.007673 -838147.000000 1 0 0
13.045060 -11.404314 -6.960896 18.673137 -0.718391 1.952795 0.034262 0.001525 284470.000000 1 0 0
17.686160 -5.379614 1.953404 18.589144 -0.295279 1.465519 0.025410 -0.007929 366940.000000 1 0 0
10.483260 -9.849914 9.161404 17.054350 -0.754260 1.003696 0.008987 -0.011845 -1411410.000000 1 0 0
16.459460 1.869186 9.850004 19.272525 0.113079 1.034343 0.053293 -0.004207 481354.000000 1 0 0
18.016160 3.711386 0.528904 18.402069 0.203161 1.542051 0.006432 0.005255 477831.000000 1 0 0
13.326560 -4.007814 5.903104 15.116428 -0.292134 1.169612 0.016784 -0.007415 -250142.000000 1 0 0
12.167160 -6.278814 6.661204 15.226126 -0.476402 1.117996 0.015377 -0.009686 -282937.000000 1 0 0
16.429060 -10.211914 3.515704 19.661062 -0.556134 1.391014 0.005767 -0.004208 -295636.000000 1 0 0
16.137560 -7.832014 -5.386596 18.729034 -0.451841 1.862523 0.025076 -0.010352 159461.000000 1 0 0
13.934860 -0.456914 5.352604 14.934505 -0.032778 1.204237 0.014990 -0.006480 49492.100000 1 0 0
18.475760 -4.369114 4.998304 19.632267 -0.232212 1.313366 0.049614 -0.007907 -93432.800000 1 0 0
13.725360 -13.588914 7.162704 20.599719 -0.780403 1.215670 0.038828 -0.009666 631897.000000 1 0 0
15.091860 -13.668114 -0.976896 20.384698 -0.735934 1.618738 0.025461 -0.001735 -248055.000000 1 0 0
17.785760 -5.936814 7.958904 20.369663 -0.322167 1.169379 0.037154 -0.007237 -910499.000000 1 0 0
14.318460 3.314986 9.339004 17.413340 0.227510 1.004733 0.025103 -0.002162 206940.000000 1 0 0
18.890060 3.422986 2.808004 19.401960 0.179261 1.425558 0.052360 -0.009786 -572569.000000 1 0 0
14.880160 -10.619714 8.214904 20.042009 -0.619850 1.148469 0.029125 -0.013332 -241367.000000 1 0 0
14.749160 -5.118314 10.457504 18.790802 -0.334021 0.980602 0.024771 -0.008337 197708.000000 1 0 0
17.798560 -7.951214 2.014704 19.597693 -0.420134 1.467811 0.032875 -0.007051 169135.000000 1 0 0
18.253060 -5.711114 -2.158096 19.247036 -0.303236 1.683159 0.021131 -0.004460 919154.000000 1 0 0
14.284060 -13.072314 -5.263596 20.065523 -0.741132 1.836222 0.032655 0.001031 -1481950.000000 1 0 0
15.512960 -1.442914 9.400904 18.196453 -0.092747 1.027882 0.042038 -0.010227 -1064150.000000 1 0 0
12.836460 -10.156414 10.120604 19.244585 -0.669362 1.017031 0.004758 -0.020175 -1741580.000000 1 0 0
16.565160 2.101986 4.827404 17.381792 0.126217 1.289368 0.030377 -0.006561 -1350900.000000 1 0 0
15.004960 2.411986 -0.100696 15.197915 0.159382 1.577422 0.012542 0.000748 -1821420.000000 1 0 0
15.131060 -9.725114 -6.891796 19.261975 -0.571244 1.936700 0.034722 -0.008592 791655.000000 1 0 0
16.165360 -0.142214 -3.161396 16.472204 -0.008797 1.763918 0.017954 -0.001031 -75355.200000 1 0 0
11.752160 2.635286 13.600904 18.167074 0.220589 0.724763 0.015060 -0.003896 -232740.000000 1 0 0
17.596460 -3.005814 9.681504 20.307679 -0.169186 1.073853 0.040310 -0.006635 -225501.000000 1 0 0
7.632960 -18.222814 4.591704 20.283411 -1.174131 1.342440 0.034519 -0.013703 151849.000000 1 0 0
6.742960 -11.313914 6.696504 14.775497 -1.033332 1.100426 0.004236 -0.006755 421411.000000 1 0 0
18.003060 2.072386 -1.504496 18.184291 0.114609 1.653627 0.017659 0.004377 552447.000000 1 0 0
17.525360 -2.152514 3.655004 18.031378 -0.122211 1.366679 0.021805 -0.005552 -2799980.000000 1 0 0
12.612460 -13.380114 -1.864496 18.481827 -0.814923 1.671851 0.025732 0.001111 795862.000000 1 0 0
14.964060 -8.308714 4.331804 17.655660 -0.506861 1.322916 0.017938 -0.004691 -443088.000000 1 0 0
11.622460 -2.866414 15.126904 19.290441 -0.241802 0.669446 0.007085 -0.000968 -157413.000000 1 0 0
12.002660 -13.682514 -6.357096 19.279204 -0.850707 1.906823 0.020040 -0.000850 549300.000000 1 0 0
10.717760 -11.976714 -1.123796 16.111331 -0.840815 1.640605 0.019264 -0.005881 -439880.000000 1 0 0
13.145160 -7.947314 2.178404 15.514524 -0.543781 1.429920 0.010727 -0.004260 -1906300.000000 1 0 0
8.636960 -7.869014 9.983204 15.368240 -0.738906 0.863739 0.011009 -0.007369 -896171.000000 1 0 0
15.585860 -3.878014 8.270904 18.065599 -0.243864 1.095248 0.032854 -0.009477 -759567.000000 1 0 0
10.137460 -17.562714 5.262904 20.950302 -1.047299 1.316867 0.049363 -0.011508 -726884.000000 1 0 0
15.151860 -6.422314 8.291304 18.427444 -0.400907 1.104095 0.025664 -0.005829 -281508.000000 1 0 0
16.574960 -4.892814 -0.353496 17.285655 -0.287041 1.591248 0.017364 -0.008718 -717375.000000 1 0 0
13.838860 -10.574214 3.642904 17.793223 -0.652462 1.364603 0.015945 -0.008646 -863330.000000 1 0 0
14.953260 -9.970814 -4.420896 18.508415 -0.588094 1.811987 0.027846 -0.010885 435228.000000 1 0 0
13.588460 -6.627014 -0.061796 15.118445 -0.453755 1.574884 0.010500 -0.006276 41144.100000 1 0 0
17.730160 -1.012814 -4.908496 18.424920 -0.057062 1.840458 0.017023 -0.001049 755896.000000 1 0 0
14.425960 0.181086 -1.558696 14.511052 0.012552 1.678418 0.013713 -0.003811 -2696100.000000 1 0 0
4.786460 -12.861914 11.730504 18.053912 -1.214534 0.863543 0.005929 -0.003015 -436570.000000 1 0 0
11.870160 -7.643514 13.559704 19.575228 -0.572094 0.805574 0.011523 -0.012513 -470160.000000 1 0 0
12.022660 -5.884014 11.654804 17.748251 -0.455140 0.854397 0.014065 -0.004627 838052.000000 1 0 0
13.252860 -4.736214 8.408404 16.394245 -0.343228 1.032251 0.016745 -0.007728 -1169210.000000 1 0 0
15.353760 -1.275514 3.281004 15.752138 -0.082885 1.360971 0.019212 -0.006307 483460.000000 1 0 0
15.282160 -10.396114 5.749404 19.356633 -0.597367 1.269221 0.027040 -0.011175 39605.000000 1 0 0
13.575060 -8.010714 -5.738996 16.774679 -0.533112 1.919971 0.023095 -0.005584 -1723820.000000 1 0 0
9.601660 -2.305414 13.599704 16.806509 -0.235645 0.628020 0.007472 -0.000047 505059.000000 1 0 0
9.718060 -9.167214 13.690804 19.128947 -0.756238 0.773154 0.017236 -0.009105 -237981.000000 1 0 0
20.327460 6.086586 -2.995496 21.429539 0.290931 1.711039 0.030052 0.013013 346278.000000 1 0 0
11.362360 -3.640514 10.530304 15.913637 -0.310067 0.847692 0.013350 -0.000744 814547.000000 1 0 0
10.234060 -14.073814 -2.795296 17.624469 -0.942067 1.730072 0.019386 0.002629 482844.000000 1 0 0
14.922560 -12.805214 2.673704 19.844520 -0.709184 1.435653 0.021750 -0.001711 662889.000000 1 0 0
11.280960 -0.445514 14.253004 18.182592 -0.039472 0.669903 0.019421 -0.001715 236621.000000 1 0 0
18.973160 -1.940714 5.795304 19.933206 -0.101933 1.275800 0.050174 -0.010537 190969.000000 1 0 0
19.009160 -0.437814 7.930804 20.601880 -0.023028 1.175637 0.072908 -0.007636 805504.000000 1 0 0
19.006060 0.698286 0.604204 19.028478 0.036724 1.539038 0.039930 -0.005348 119200.000000 1 0 0
18.728460 0.752986 3.830304 19.130954 0.040184 1.369219 0.052098 -0.008938 386856.000000 1 0 0
16.649060 -4.035914 -4.218696 17.643049 -0.237823 1.812249 0.027032 -0.007144 -1030900.000000 1 0 0
10.882260 -8.296414 15.846504 20.937186 -0.651377 0.712302 0.020690 -0.010773 143449.000000 1 0 0
16.475660 -7.518314 6.388404 19.203752 -0.428104 1.231669 0.017662 -0.006829 600265.000000 1 0 0
18.668260 2.141086 6.126004 19.764010 0.114192 1.255648 0.047900 -0.006875 -215474.000000 1 0 0
15.315560 1.789386 7.557104 17.172015 0.116307 1.115106 0.034797 -0.006532 354107.000000 1 0 0
8.663660 -15.794114 4.012304 18.455666 -1.069077 1.351644 0.022012 -0.010807 454616.000000 1 0 0
11.370060 -15.104214 2.199004 19.032897 -0.925522 1.455001 0.029607 -0.001629 -190051.000000 1 0 0
7.999160 -16.319414 6.287404 19.231258 -1.115050 1.237736 0.023594 -0.005511 115928.000000 1 0 0
14.524160 -11.610214 -2.424196 18.751667 -0.674358 1.700438 0.016105 -0.004605 361576.000000 1 0 0
13.710260 -4.820914 3.167704 14.874366 -0.338125 1.356189 0.008070 -0.004025 -2103800.000000 1 0 0
-0.995840 10.199186 -5.621096 11.688106 -1.473466 2.072505 -0.004469 0.003584 -1091730.000000 1 0 0
8.243060 -1.772014 -8.020896 11.637132 -0.211748 2.331250 -0.001792 -0.000026 -1339720.000000 1 0 0
2.932760 -10.089614 7.624604 12.982141 -1.287920 0.943059 -0.004920 -0.004006 796938.000000 1 0 0
-6.394540 1.351686 8.404804 10.646968 -0.208315 0.660952 -0.006055 0.000628 -229542.000000 1 0 0
7.181960 -6.326314 -7.191996 11.971951 -0.722140 2.215219 -0.001151 -0.000047 -498392.000000 1 0 0
-11.360840 -4.524714 -4.068296 12.887698 0.379017 1.891962 0.006122 -0.003510 171321.000000 1 0 0
2.127560 -3.234214 2.922104 4.850293 -0.988937 0.924218 -0.002711 0.000699 605580.000000 1 0 0
-3.667540 -4.219714 8.878904 10.492463 0.855292 0.561951 -0.004705 0.000547 -810422.000000 1 0 0
-4.944440 -1.063014 -2.414496 5.604220 0.211768 2.016215 0.001588 -0.002970 -671026.000000 1 0 0
4.949560 -5.153914 -3.658696 8.027891 -0.805622 2.044009 0.003385 0.000372 -183893.000000 1 0 0
2.564860 14.251286 -8.867496 16.979698 1.392729 2.120273 0.010451 -0.005858 313930.000000 1 0 0
5.473560 -5.502914 13.552704 15.617865 -0.788072 0.520100 0.003818 -0.005486 -661976.000000 1 0 0
-4.679140 -0.909614 9.928604 11.013579 0.192003 0.447602 -0.002163 -0.000056 -2757820.000000 1 0 0
-0.871440 12.040586 -2.555696 12.339639 -1.498547 1.779419 -0.000576 0.001707 740985.000000 1 0 0
2.982460 9.414686 -10.534096 14.439479 1.264010 2.388437 0.005627 -0.002563 -682622.000000 1 0 0
-10.533640 2.715886 1.133004 10.936970 -0.252334 1.467016 -0.006778 -0.001440 288476.000000 1 0 0
5.642560 -9.004914 -0.639096 10.645910 -1.011041 1.630865 0.002696 -0.002944 679481.000000 1 0 0
-7.023340 5.469486 9.457304 12.987809 -0.661654 0.755151 -0.007929 -0.000566 -127337.000000 1 0 0
-5.654140 -1.733214 5.166804 7.852974 0.297445 0.852713 -0.001784 -0.001182 226752.000000 1 0 0
6.577260 -3.769614 -7.322796 10.540099 -0.520427 2.338877 -0.000272 -0.000465 474010.000000 1 0 0
6.302960 4.825186 11.013404 13.575890 0.653375 0.624514 -0.000331 -0.003343 49754.600000 1 0 0
3.745960 -9.988114 3.277504 11.159600 -1.211989 1.272708 -0.004064 -0.003964 1189380.000000 1 0 0
-6.614240 6.643886 -5.762496 11.004352 -0.787634 2.121933 -0.000108 -0.001517 -72961.000000 1 0 0
-11.008940 8.470486 5.181804 14.825552 -0.655814 1.213739 -0.004477 -0.001000 220298.000000 1 0 0
-9.158940 -5.537014 5.079504 11.846775 0.543757 1.127669 -0.003498 -0.002899 -2192100.000000 1 0 0
3.326860 9.797786 -8.022696 13.093061 1.243459 2.230325 0.002007 0.000229 542064.000000 1 0 0
-8.047440 -8.606614 6.126004 13.280174 0.818961 1.091348 0.001700 -0.000345 -1032900.000000 1 0 0
-7.914940 -5.712814 -7.468696 12.290808 0.625192 2.223914 0.006066 -0.003233 -280672.000000 1 0 0
9.239860 -1.577014 6.948004 11.667765 -0.169046 0.932924 0.005256 -0.003986 1616230.000000 1 0 0
-4.017140 -0.472314 -4.837396 6.305625 0.117037 2.445192 0.004526 -0.005251 -619716.000000 1 0 0
8.989960 1.162086 -4.536796 10.136683 0.128552 2.034834 0.002350 0.001666 -2322860.000000 1 0 0
-1.831940 -10.665114 10.813704 15.298263 1.400687 0.785750 -0.012296 -0.006045 -325984.000000 1 0 0
-12.976640 0.375786 -2.588296 13.237586 -0.028951 1.767590 0.003950 -0.002879 -759090.000000 1 0 0
-9.899540 -4.913114 -6.088796 12.617965 0.460681 2.074360 0.006720 -0.006848 -1028300.000000 1 0 0
-5.560340 8.332486 -0.156996 10.018600 -0.982349 1.586467 0.004507 -0.000434 495391.000000 1 0 0
6.278060 9.669786 0.481304 11.539083 0.994952 1.529073 0.004715 -0.002053 301217.000000 1 0 0
-0.709940 -12.089014 0.032504 12.109886 1.512138 1.568112 0.010552 -0.004817 -315497.000000 1 0 0
6.165960 4.661086 2.333304 8.073976 0.647291 1.277624 0.000479 -0.002011 -134879.000000 1 0 0
3.493760 -7.607314 -8.295196 11.785070 -1.140266 2.351632 -0.000138 -0.000841 720802.000000 1 0 0
-6.597740 -9.810914 4.415904 12.620793 0.978773 1.213341 0.004364 -0.000881 -2429870.000000 1 0 0
-0.072840 6.574986 -9.228796 11.331656 -1.559718 2.522536 0.004796 -0.002155 -1333100.000000 1 0 0
-17.248840 -2.705314 4.278904 17.976380 0.155573 1.330460 0.039609 -0.011742 582583.000000 1 0 0
-8.352540 0.923286 -9.092196 12.380849 -0.110093 2.395543 0.002104 -0.001021 707313.000000 1 0 0
-9.989140 -5.924114 -11.859496 16.598967 0.535298 2.366665 0.011886 0.000257 -732359.000000 1 0 0
2.256860 9.439686 6.355804 11.601609 1.336119 0.991018 -0.006100 0.002311 472622.000000 1 0 0
-11.371940 1.693086 -1.205696 11.560332 -0.147797 1.675282 -0.001677 -0.003621 -910940.000000 1 0 0
-5.892340 -5.306014 -3.122896 8.522086 0.733088 1.945984 0.012580 -0.004291 547995.000000 1 0 0
-7.153140 -8.336414 1.347204 11.066986 0.861642 1.448762 0.004414 -0.001806 -148589.000000 1 0 0
0.070260 11.025486 -7.901296 13.564540 1.564424 2.192593 0.001456 0.000827 346224.000000 1 0 0
-2.822240 9.325886 -4.200296 10.610357 -1.276934 1.977809 0.002056 0.001312 -751462.000000 1 0 0
3.448560 -4.804314 9.321104 11.038885 -0.948221 0.565374 -0.002415 -0.004035 -1117830.000000 1 0 0
-8.901440 1.588586 -0.454196 9.053482 -0.176605 1.620986 0.000048 -0.001848 -1259030.000000 1 0 0
2.472360 3.443486 -10.555096 11.374542 0.948104 2.759692 0.003865 -0.002388 333689.000000 1 0 0
-13.669140 0.515086 1.086604 13.721932 -0.037665 1.491526 0.008988 -0.006238 1238920.000000 1 0 0
9.489860 -12.679514 -4.982096 16.602674 -0.928294 1.875571 0.019472 0.002765 -2244570.000000 1 0 0
-4.735240 9.377486 -8.245396 13.354636 -1.103190 2.236253 0.002690 0.000007 -654534.000000 1 0 0
-2.308940 7.158286 8.345604 11.234828 -1.258777 0.733504 -0.002615 0.000261 -551733.000000 1 0 0
-10.761440 -1.321314 -4.449896 11.719900 0.122171 1.960255 0.004801 -0.002163 -2700130.000000 1 0 0
2.625960 -7.106514 9.691204 12.301123 -1.216844 0.663517 -0.008720 -0.001582 -1523790.000000 1 0 0
-16.130140 -6.386114 3.444904 17.687036 0.376977 1.374773 0.023292 -0.005327 390058.000000 1 0 0
-10.712640 -0.028314 6.155104 12.355030 0.002643 1.049291 -0.003792 -0.001558 -1536860.000000 1 0 0
-8.319640 9.925686 9.352804 15.975312 -0.873197 0.945357 -0.000045 -0.012403 -1380200.000000 1 0 0
0.207360 -6.065814 -3.760496 7.139918 -1.536625 2.125494 -0.001044 0.000718 356640.000000 1 0 0
4.929860 1.479786 -2.988196 5.951689 0.291611 2.096793 -0.001991 0.003716 64496.100000 1 0 0
0.298360 5.331586 3.807004 6.558056 1.514894 0.951444 -0.004260 0.000881 -2528350.000000 1 0 0
6.036660 -11.282314 -1.513596 12.884985 -1.079499 1.688538 0.004436 -0.003279 -2166470.000000 1 0 0
6.232260 -13.546714 5.342404 15.839691 -1.139611 1.226771 0.003542 -0.004606 145347.000000 1 0 0
8.157360 -8.325414 -5.883396 13.056393 -0.795594 2.038250 0.003962 -0.002103 696786.000000 1 0 0
-13.135040 -1.243814 -4.628696 13.982174 0.094413 1.908205 0.004637 0.001588 -4093310.000000 1 0 0
-6.760540 -1.458614 -7.040596 9.869268 0.212497 2.365114 0.007901 -0.003731 301134.000000 1 0 0
-5.672240 12.901186 -4.640896 14.837548 -1.156568 1.888915 0.011122 0.002157 497510.000000 1 0 0
-4.302740 6.946086 -6.726496 10.583357 -1.016199 2.259547 0.002940 -0.000771 -3368770.000000 1 0 0
-9.313540 -3.579014 -8.122796 12.865893 0.366882 2.254081 0.006962 -0.001612 672924.000000 1 0 0
-2.101740 -6.260614 9.241904 11.358934 1.246910 0.620437 -0.004553 0.001332 -73107.400000 1 0 0
7.446560 -5.997714 10.028904 13.856505 -0.678046 0.761548 0.004572 -0.003103 828805.000000 1 0 0
9.631660 -5.079614 12.179404 16.337357 -0.485317 0.729520 0.009487 0.000621 -573240.000000 1 0 0
-6.475040 2.831186 -9.146796 11.558791 -0.412197 2.483775 -0.000056 -0.002646 32288.300000 1 0 0
7.423960 5.497786 8.817904 12.770914 0.637423 0.808661 -0.003234 -0.002053 405443.000000 1 0 0
12.652960 3.354486 11.216204 17.238132 0.259153 0.862340 0.018227 0.000297 563837.000000 1 0 0
-7.493240 -7.168914 -3.854496 11.063414 0.763282 1.926660 0.009267 -0.005021 -864942.000000 1 0 0
2.292660 1.472686 -5.725896 6.341213 0.570977 2.697418 0.001674 0.001231 179279.000000 1 0 0
12.802860 6.757786 -7.126996 16.136138 0.485666 2.028266 0.013354 -0.004357 300640.000000 1 0 0
0.804560 -7.766714 1.060204 7.879924 -1.467574 1.435842 0.001067 -0.000816 713120.000000 1 0 0
-10.393640 -5.899814 -8.475396 14.651550 0.516283 2.187641 0.007629 -0.004163 -133015.000000 1 0 0
-6.678440 0.271986 3.142804 7.385984 -0.040703 1.131272 -0.000827 -0.002486 -652746.000000 1 0 0
10.781460 -7.965314 1.332704 13.470791 -0.636293 1.471701 0.005677 -0.005545 -504016.000000 1 0 0
6.242760 1.112986 10.560504 12.318077 0.176431 0.540760 0.002341 -0.003054 -312277.000000 1 0 0
-12.958140 5.396186 1.876004 14.161625 -0.394591 1.437935 -0.004481 -0.000635 322417.000000 1 0 0
2.094760 7.359586 3.643004 8.474845 1.293499 1.126458 -0.007024 -0.000154 -164184.000000 1 0 0
10.152560 -9.378514 -0.761696 13.842369 -0.745787 1.625851 0.005598 -0.004513 850722.000000 1 0 0
6.771260 -11.735014 -9.043396 16.289369 -1.047450 2.159366 0.003840 0.000362 -503302.000000 1 0 0
10.198360 3.588186 11.815904 16.015530 0.338313 0.741024 0.005943 -0.001988 -3089220.000000 1 0 0
-11.003640 -3.060314 -2.015196 11.597700 0.271263 1.745441 0.003155 -0.002492 -1185680.000000 1 0 0
12.323760 0.941686 6.817104 14.115053 0.076264 1.066756 0.011155 -0.004348 472684.000000 1 0 0
-9.586040 9.217786 2.992604 13.631413 -0.765817 1.349456 -0.001363 -0.001968 -131685.000000 1 0 0
-6.596040 7.624686 -8.916896 13.459369 -0.857607 2.294954 0.000190 -0.000620 -1344350.000000 1 0 0
8.566060 5.543486 11.936504 15.703112 0.574366 0.707274 0.006407 -0.002679 -2922580.000000 1 0 0
1.320760 4.996086 -2.730096 5.844545 1.312350 2.056826 -0.002115 -0.000055 362435.000000 1 0 0
1.310660 0.553486 9.491504 9.597542 0.399578 0.148788 -0.002217 -0.002604 715606.000000 1 0 0
2.658760 12.627286 -4.016996 13.514940 1.363271 1.872583 0.001870 -0.002486 418424.000000 1 0 0
2.001660 0.609386 12.980504 13.148059 0.295525 0.159818 -0.003521 -0.004029 -554782.000000 1 0 0
-12.250440 -1.750414 0.868704 12.405317 0.141925 1.500712 0.001744 -0.005325 -22632.000000 1 0 0
3.249860 8.797486 -1.212996 9.456675 1.216937 1.699419 -0.000878 0.000663 -40626.500000 1 0 0
3.642160 -2.907314 -5.792996 7.434824 -0.673666 2.464138 -0.000933 0.001587 -730729.000000 1 0 0
-7.739340 -7.144214 9.319304 14.063663 0.745434 0.846443 -0.003284 -0.001403 -211632.000000 1 0 0
-7.001840 10.936486 -3.321596 13.403936 -1.001322 1.821213 0.011236 0.003245 362314.000000 1 0 0
0.400760 0.508286 2.520604 2.602385 0.903136 0.251362 -0.003932 -0.000417 -1793770.000000 1 0 0
-7.145940 4.600086 -1.997496 8.730134 -0.571958 1.801646 0.005779 -0.002740 -1307260.000000 1 0 0
-6.841440 -3.949214 -5.929396 9.877213 0.523523 2.214686 0.007078 -0.002398 78025.900000 1 0 0
2.957560 -6.113714 13.423804 15.044041 -1.120226 0.468381 -0.005966 -0.003764 -2188680.000000 1 0 0
-5.320940 -0.615914 -11.875896 13.027996 0.115240 2.717877 0.005164 -0.001980 -442616.000000 1 0 0
11.882660 2.445486 -0.645596 12.148860 0.202969 1.623962 0.008648 0.000179 -1604030.000000 1 0 0
6.009360 -10.934614 10.783304 16.491144 -1.068282 0.858089 0.003873 -0.005800 321067.000000 1 0 0
-8.151440 6.349886 -10.497796 14.729927 -0.661798 2.364115 -0.002504 -0.000296 645509.000000 1 0 0
2.699060 7.793486 11.045504 13.785010 1.237401 0.641383 0.000356 -0.002124 532983.000000 1 0 0
-6.244140 -10.090914 -0.381996 11.872732 1.016676 1.602976 0.007363 -0.003828 520708.000000 1 0 0
11.238760 4.196886 5.978304 13.403868 0.357393 1.108490 0.002915 -0.001085 260792.000000 1 0 0
-7.967440 10.744986 1.309504 13.440596 -0.932755 1.473213 0.004507 0.000129 907141.000000 1 0 0
4.325060 -2.579614 -3.476896 6.119588 -0.537794 2.175063 0.000890 0.002005 -5089010.000000 1 0 0
6.364660 6.494786 6.317104 11.072350 0.795517 0.963646 -0.000257 -0.001071 -4820120.000000 1 0 0
-0.469140 10.302386 -10.222196 14.520763 -1.525291 2.351770 0.002551 -0.000661 -222116.000000 1 0 0
14.088260 6.437386 -2.458596 15.683230 0.428604 1.728212 0.014316 0.001880 828511.000000 1 0 0
1.463260 9.522986 -6.263896 11.491944 1.418333 2.147267 -0.000170 0.001000 -1200140.000000 1 0 0
0.707160 7.382086 7.227504 10.355292 1.475294 0.798262 -0.005841 0.001407 224853.000000 1 0 0
12.360760 6.195086 1.877504 13.953225 0.464599 1.435830 0.005565 -0.000112 -960586.000000 1 0 0
-6.858540 6.782686 -3.133596 10.142181 -0.779838 1.884903 0.002354 -0.001935 70902.400000 1 0 0
1.029760 9.843086 11.186604 14.936092 1.466558 0.724298 -0.003693 -0.001088 -356373.000000 1 0 0
-3.653440 13.460386 -11.031296 17.782551 -1.305760 2.239977 0.002969 -0.007264 -69981.600000 1 0 0
-10.118540 -5.519514 -2.273196 11.748077 0.499370 1.765520 0.002909 -0.004730 -512866.000000 1 0 0
-4.063540 3.904386 -12.496396 13.708264 -0.765426 2.717946 0.001394 -0.006852 -816925.000000 1 0 0
-3.182240 8.560586 2.470704 9.461219 -1.214894 1.306593 0.003329 0.002044 -2253450.000000 1 0 0
7.068860 8.924186 7.039904 13.385444 0.900890 1.016980 0.004991 0.001948 -1523200.000000 1 0 0
-1.405640 -2.313714 -8.161396 8.598691 1.024862 2.821302 0.002574 -0.001620 -2328950.000000 1 0 0
0.840960 -1.290714 4.812604 5.053149 -0.993335 0.309792 -0.001508 -0.001753 -160046.000000 1 0 0
2.701960 -8.954614 -6.081696 11.156735 -1.277745 2.147322 -0.000855 -0.001657 254205.000000 1 0 0
5.300160 3.955286 8.739604 10.959774 0.641102 0.647780 -0.001735 -0.002718 -773991.000000 1 0 0
6.011060 -7.488014 -2.849296 10.016071 -0.894376 1.859252 0.001073 -0.002715 697613.000000 1 0 0
1.753560 2.331986 -8.286396 8.785072 0.926042 2.803039 0.003750 -0.002363 109692.000000 1 0 0
-5.381840 11.066486 -0.631996 12.321961 -1.118153 1.622109 0.003469 0.001946 695688.000000 1 0 0
-5.404440 3.346486 -3.391196 7.204662 -0.554425 2.060874 0.002167 -0.001020 348456.000000 1 0 0
1.997760 13.640486 -6.474896 15.230830 1.425372 2.009888 -0.004092 -0.002157 663530.000000 1 0 0
-5.319040 -2.533714 2.610504 6.444116 0.444548 1.153709 -0.003379 -0.001914 981345.000000 1 0 0
10.424260 -3.332614 -1.827696 11.095584 -0.309429 1.736273 0.002091 -0.000808 -71220.400000 1 0 0
2.439460 -3.315014 7.071704 8.182254 -0.936392 0.527092 -0.004214 -0.002497 -1553870.000000 1 0 0
-2.945940 9.877586 -11.709996 15.600297 -1.280950 2.419806 0.003104 0.000529 -2870120.000000 1 0 0
0.435360 -1.923214 9.280004 9.487189 -1.348177 0.209372 -0.001880 -0.002994 206521.000000 1 0 0
9.403760 2.512286 5.043604 10.962674 0.261061 1.092722 0.002452 -0.002049 -1622780.000000 1 0 0
13.384960 2.094786 -5.042896 14.456005 0.155244 1.927134 0.015154 -0.002455 -1587370.000000 1 0 0
-6.539340 3.829286 7.619604 10.746384 -0.529747 0.782662 -0.005005 0.000337 663461.000000 1 0 0
10.664060 0.077986 1.796804 10.814655 0.007313 1.403877 0.005309 -0.001263 1727450.000000 1 0 0
15.481660 6.713886 -4.578196 17.484791 0.409189 1.835723 0.032087 0.002488 255623.000000 1 0 0
8.068860 -4.907714 -9.193796 13.180214 -0.546448 2.342762 0.001520 -0.001187 764405.000000 1 0 0
4.509360 5.667286 -2.098496 7.540301 0.898694 1.852824 -0.001991 0.000686 230870.000000 1 0 0
-1.520740 -10.481414 1.544704 10.703215 1.426713 1.425969 0.006337 -0.004702 -590331.000000 1 0 0
-2.883940 12.178086 -13.061296 18.089233 -1.338266 2.377554 0.005824 -0.002710 -470056.000000 1 0 0
8.260960 4.165286 -9.666296 13.380222 0.467013 2.378109 0.000004 -0.001968 -729341.000000 1 0 0
4.100260 7.622286 -9.069596 12.536704 1.077267 2.379573 0.002557 -0.001793 -2517930.000000 1 0 0
-1.694740 -4.913214 -2.401796 5.725421 1.238641 2.003687 0.003632 -0.001802 -200469.000000 1 0 0
-3.243740 -9.250714 6.929704 12.004931 1.233545 0.955454 0.002106 -0.005001 -813468.000000 1 0 0
1.046660 7.314486 -1.330296 7.507788 1.428667 1.748926 -0.001795 0.000333 1872390.000000 1 0 0
0.334160 -1.031114 -2.201396 2.453774 -1.257400 2.684065 0.004248 0.002904 -1977050.000000 1 0 0
4.176060 -6.782414 7.733904 11.101976 -1.018899 0.800115 -0.006871 -0.002468 -315310.000000 1 0 0
-13.907040 3.906186 6.139004 15.695586 -0.273823 1.168938 -0.003925 0.001071 -859203.000000 1 0 0
4.333360 6.549886 12.590204 14.838876 0.986314 0.557726 0.000468 -0.004759 -1207970.000000 1 0 0
8.264760 10.115686 -7.137996 14.885709 0.885761 2.070904 0.007671 -0.006374 255255.000000 1 0 0
12.539760 5.353986 9.413204 16.568619 0.403530 0.966559 0.018845 0.000957 565874.000000 1 0 0
7.582960 4.093686 0.307304 8.622875 0.495020 1.535151 0.002679 0.000933 -899162.000000 1 0 0
-10.873240 -7.575914 -1.109596 13.298610 0.608540 1.654330 0.002695 -0.004473 -1216480.000000 1 0 0
10.386060 6.786686 0.193304 12.408332 0.578791 1.555217 0.007016 0.002154 -167844.000000 1 0 0
14.682160 3.537886 4.104604 15.650247 0.236457 1.305422 0.018024 -0.005201 -56279.700000 1 0 0
2.155260 5.558886 8.184104 10.125508 1.200926 0.629595 -0.006483 0.000643 -625685.000000 1 0 0
4.227460 0.323886 11.761604 12.502465 0.076465 0.345982 -0.000314 -0.002024 -1666430.000000 1 0 0
-1.565840 -1.362714 -0.399396 2.113850 0.716149 1.760882 0.005255 -0.004353 -1427860.000000 1 0 0
3.204060 -5.326714 -9.512896 11.363762 -1.029269 2.562804 -0.005160 0.001648 521115.000000 1 0 0
-3.973540 -5.270214 -1.288696 6.724948 0.924764 1.763618 0.006483 -0.005175 -363970.000000 1 0 0
-1.460940 -8.760214 8.687504 12.423704 1.405547 0.796423 -0.005874 -0.004267 127591.000000 1 0 0
3.935860 8.566686 -5.936996 11.141231 1.140122 2.132803 0.001842 0.001431 324892.000000 1 0 0
-14.224140 -1.714014 -2.668996 14.573522 0.119922 1.754976 0.006895 -0.002375 -674536.000000 1 0 0
8.854360 -10.596214 -6.565296 15.289949 -0.874713 2.014610 0.005857 0.003053 213329.000000 1 0 0
14.936960 6.073586 1.558704 16.199715 0.386196 1.474429 0.005962 0.003505 802148.000000 1 0 0
-5.760340 0.479686 -8.385396 10.184620 -0.083082 2.538066 0.005277 -0.004501 -198697.000000 1 0 0
-7.979540 -4.551314 -13.057996 15.965550 0.518350 2.528523 0.008968 -0.001972 877548.000000 1 0 0
0.840160 -10.630314 12.002304 16.055053 -1.491926 0.726398 -0.009254 -0.003221 -398855.000000 1 0 0
0.291260 11.713786 3.348604 12.186499 1.545937 1.292436 0.001083 0.000335 -821393.000000 1 0 0
5.124460 -13.207714 -3.684996 14.638408 -1.200686 1.825269 0.007266 0.001848 593751.000000 1 0 0
-7.417140 1.656186 -6.898496 10.263828 -0.219688 2.307861 0.003004 -0.001123 590534.000000 1 0 0
1.495560 2.723386 4.075704 5.124928 1.068602 0.651343 -0.005696 0.000573 -2135800.000000 1 0 0
17.340260 5.353586 2.459004 18.313716 0.299453 1.436118 0.012844 0.000202 40084.800000 1 0 0
2.363960 -8.240214 -3.574396 9.287935 -1.291418 1.965834 -0.000480 0.000259 527658.000000 1 0 0
-0.308040 -9.476814 -0.617596 9.501911 1.538303 1.635839 0.008813 -0.001503 -1442770.000000 1 0 0
0.783560 11.835286 -5.520196 13.082833 1.504687 2.006383 -0.000811 0.001583 -682602.000000 1 0 0
5.976360 -4.978314 7.842504 11.045603 -0.694542 0.781282 -0.001118 -0.002810 -1070380.000000 1 0 0
-6.011740 -1.794214 -9.453596 11.345956 0.290036 2.555689 0.008355 -0.004686 -378398.000000 1 0 0
2.135460 -1.155314 11.162404 11.423406 -0.495918 0.214175 -0.006555 -0.004061 -514025.000000 1 0 0
17.967560 2.058286 -5.714896 18.966544 0.114058 1.876867 0.012657 0.007459 -432334.000000 1 0 0
-8.903140 4.900886 7.775004 12.795908 -0.503202 0.917740 -0.005008 -0.001645 -1645840.000000 1 0 0
11.267660 -7.106714 -4.835296 14.172002 -0.562700 1.918975 0.015267 -0.005086 -520631.000000 1 0 0
10.793160 0.575686 8.923004 14.015838 0.053288 0.880667 0.006925 -0.002816 53717.300000 1 0 0
-8.500740 -7.332914 -1.578596 11.336939 0.711776 1.710494 0.005587 -0.004435 -1818150.000000 1 0 0
10.283860 -10.470414 -3.190196 15.018811 -0.794387 1.784840 0.012950 -0.000195 623530.000000 1 0 0
7.677260 -13.936214 -3.731696 16.342703 -1.067273 1.801169 0.014670 0.003196 -1157600.000000 1 0 0
1.731760 -1.300714 -11.617996 11.818151 -0.644201 2.957287 0.001543 -0.001677 219324.000000 1 0 0
-11.823740 -2.581614 -6.353196 13.668529 0.214968 2.054210 0.006508 -0.000200 88077.700000 1 0 0
2.632160 -12.210114 -6.397496 14.033642 -1.358473 2.044144 0.001864 0.001426 472720.000000 1 0 0
-5.649940 1.503986 1.160904 5.960830 -0.260162 1.374788 0.002464 -0.002026 243325.000000 1 0 0
0.073960 6.917986 -3.961796 7.972442 1.560106 2.090861 0.002505 -0.000373 966679.000000 1 0 0
5.470960 -11.796814 3.749604 13.533505 -1.136554 1.290063 -0.001841 -0.005436 -1896130.000000 1 0 0
-4.511040 -9.073314 1.074104 10.189613 1.109410 1.465189 0.006217 -0.003671 -435912.000000 1 0 0
7.012960 -6.252114 -4.708396 10.509021 -0.728104 2.035361 0.001343 -0.001340 -931949.000000 1 0 0
-6.977840 -6.052714 2.166804 9.487921 0.714520 1.340388 0.002667 -0.002611 -299341.000000 1 0 0
-6.002340 -0.624314 7.228304 9.416275 0.103639 0.695647 -0.004579 0.001570 -1355080.000000 1 0 0
4.158960 -5.055414 3.318804 7.339524 -0.882382 1.101586 -0.004809 0.000525 -497530.000000 1 0 0
-2.429140 10.587686 -8.794596 13.976578 -1.345269 2.251369 -0.002124 0.000506 -652111.000000 1 0 0
-2.376740 -4.791914 2.779504 6.028016 1.110362 1.091565 0.003020 -0.000775 613069.000000 1 0 0
15.096660 5.019286 6.305004 17.113019 0.320979 1.193473 0.024946 -0.008698 635940.000000 1 0 0
6.748660 0.332886 0.134404 6.758201 0.049286 1.550908 -0.000089 0.001771 4420350.000000 1 0 0
-9.742040 9.225686 0.345004 13.421612 -0.758182 1.545088 0.000906 -0.001882 -1321340.000000 1 0 0
7.273460 10.313986 -2.493396 12.864624 0.956587 1.765849 0.001919 -0.002040 -849553.000000 1 0 0
1.692460 -4.358614 -5.416096 7.155141 -1.200415 2.429432 -0.000502 0.000559 -755868.000000 1 0 0
0.906560 -8.157414 -7.781196 11.309831 -1.460117 2.329530 -0.001513 0.001928 1125170.000000 1 0 0
-10.418040 0.349186 -10.477896 14.779845 -0.033505 2.358778 0.000491 -0.002194 -3728160.000000 1 0 0
5.830660 -2.471114 0.526604 6.354550 -0.400866 1.487831 0.001618 0.001270 160050.000000 1 0 0
-3.364740 5.352086 -1.085596 6.414423 -1.009556 1.740858 0.004025 -0.002847 855557.000000 1 0 0
-0.452340 4.537786 -5.048796 6.803415 -1.471441 2.406990 0.002558 -0.001123 -1075490.000000 1 0 0
3.931560 -9.705114 9.943004 14.439866 -1.185900 0.811267 -0.005186 -0.004234 -1632480.000000 1 0 0
7.308060 -13.459114 -0.632496 15.328260 -1.073357 1.612071 0.017086 -0.001834 884535.000000 1 0 0
13.023360 -0.209514 0.489604 13.034243 -0.016086 1.533225 0.007761 -0.003583 76732.900000 1 0 0
9.337260 2.484486 -0.701896 9.687608 0.260057 1.643313 0.005249 0.000912 -1102130.000000 1 0 0
-0.701240 -5.755514 4.427004 7.294933 1.449556 0.918692 0.000745 -0.000523 -1634190.000000 1 0 0
11.380160 -3.779014 3.327704 12.444380 -0.320613 1.300096 0.010111 -0.005444 -1736830.000000 1 0 0
1.611860 -8.200514 11.739904 14.410824 -1.376715 0.618656 -0.006231 -0.004386 291696.000000 1 0 0
9.297660 -5.953214 -5.896296 12.516131 -0.569520 2.061329 -0.001958 -0.003188 480282.000000 1 0 0
3.164260 6.349486 -0.075596 7.094662 1.108470 1.581452 -0.004509 0.000745 -786143.000000 1 0 0
6.355360 -1.307714 11.475404 13.182777 -0.202933 0.514610 0.002303 -0.002492 493337.000000 1 0 0
-4.883640 -7.623014 -3.721796 9.788363 1.001026 1.960838 0.008115 -0.004532 31486.200000 1 0 0
-3.370240 -8.487614 -5.628696 10.727550 1.192812 2.123154 0.006963 -0.001032 -593130.000000 1 0 0
9.765660 5.446086 2.234204 11.402615 0.508718 1.373583 0.006385 -0.001007 918411.000000 1 0 0
8.839560 -1.340414 0.313604 8.946109 -0.150492 1.535734 0.004481 0.000835 887463.000000 1 0 0
-3.934540 9.696486 9.242504 13.961602 -1.185326 0.847320 0.001402 -0.003248 -151153.000000 1 0 0
-14.368340 -3.586714 -6.037696 15.992733 0.244627 1.957921 0.011157 0.000513 135950.000000 1 0 0
10.611060 6.156586 -6.036996 13.672727 0.525737 2.028106 0.006618 -0.003381 -701385.000000 1 0 0
-1.753840 4.545286 2.600604 5.522564 -1.202539 1.080480 -0.001040 -0.000640 161884.000000 1 0 0
6.836960 -3.741014 2.769304 8.270928 -0.500672 1.229378 0.003068 -0.001907 -2146210.000000 1 0 0
8.374060 -11.250614 -1.544396 14.109796 -0.930940 1.680472 0.012480 -0.003389 -1316520.000000 1 0 0
4.449360 0.571486 1.874204 4.861691 0.127743 1.175042 -0.003926 0.001664 -75158.100000 1 0 0
-10.760940 2.299086 3.743604 11.623175 -0.210486 1.242870 -0.006700 -0.002196 135798.000000 1 0 0
-0.821240 -3.086814 4.413304 5.447945 1.310772 0.626498 0.000154 -0.000551 596195.000000 1 0 0
8.611660 -8.743914 -8.495396 14.926100 -0.793018 2.176285 0.007200 -0.001622 -444109.000000 1 0 0
12.093160 -4.812014 1.059004 13.058387 -0.378705 1.489610 0.004717 -0.004651 -36678.600000 1 0 0
2.867760 4.841386 3.492004 6.622473 1.036026 1.015381 -0.008283 0.000155 -1159250.000000 1 0 0
6.157760 7.513386 1.978904 9.913881 0.884235 1.369837 -0.001584 0.000145 167740.000000 1 0 0
-1.676340 -1.346614 -10.361596 10.582352 0.676754 2.936978 0.004906 -0.003063 1070480.000000 1 0 0
-0.902940 -8.544914 6.126604 10.553015 1.465517 0.951386 -0.000172 -0.004216 -470487.000000 1 0 0
-4.225440 -0.216914 2.192804 4.765479 0.051290 1.092640 -0.000178 -0.000645 931176.000000 1 0 0
-8.440040 6.199886 -8.033096 13.198617 -0.633559 2.225131 -0.002484 0.000668 -1498650.000000 1 0 0
6.429560 11.199186 -9.447296 16.000388 1.049631 2.202402 0.007661 -0.005219 226109.000000 1 0 0
-11.180840 -5.743414 3.198404 12.970265 0.474534 1.321631 0.003947 -0.004505 283818.000000 1 0 0
1.535060 -6.381214 3.086804 7.252907 -1.334723 1.131177 -0.003430 -0.001161 435148.000000 1 0 0
10.042360 2.221186 7.336204 12.633390 0.217677 0.951209 0.004097 -0.001786 -2028230.000000 1 0 0
-4.128540 -2.602814 -10.630996 11.697759 0.562505 2.711210 0.006013 -0.002377 -1444480.000000 1 0 0
-8.272540 11.726686 5.798204 15.478025 -0.956425 1.186822 0.005417 -0.006086 -323689.000000 1 0 0
6.890260 6.030686 -2.999296 9.635384 0.718970 1.887335 0.002517 0.001138 -3605130.000000 1 0 0
3.838960 -9.858714 -2.270896 10.820759 -1.199463 1.782233 0.001164 -0.002543 -248377.000000 1 0 0
8.480360 -12.940414 -7.284096 17.100552 -0.990677 2.010815 0.012442 0.003387 783370.000000 1 0 0
-1.154440 9.448686 3.720504 10.220203 -1.449219 1.198201 -0.000942 -0.000368 -63052.800000 1 0 0
0.541060 -13.178514 4.799504 14.035712 -1.529763 1.221806 0.004695 -0.006631 -863898.000000 1 0 0
-11.057740 -6.988414 -5.177196 14.068224 0.563612 1.947660 0.006526 -0.004500 151785.000000 1 0 0
3.732460 10.323186 -3.379596 11.485691 1.223860 1.869461 0.004709 -0.000468 -792380.000000 1 0 0
11.513560 -8.208614 -7.302996 15.914684 -0.619366 2.047535 0.022511 -0.006603 575611.000000 1 0 0
11.597060 -4.691614 -5.869396 13.818569 -0.384424 2.009479 0.010972 -0.008787 426364.000000 1 0 0
1.283660 -10.373714 -2.653196 10.784302 -1.447681 1.819372 0.000044 -0.000192 -1387400.000000 1 0 0
2.325760 -12.046514 -3.869196 12.864616 -1.380078 1.876289 0.004978 -0.001340 -1298270.000000 1 0 0
-7.581240 -5.707514 7.237404 11.934443 0.645321 0.919233 -0.002342 0.001778 -2564520.000000 1 0 0
-7.166440 -0.911814 9.536404 11.963790 0.126554 0.648310 -0.004116 0.000549 233289.000000 1 0 0
16.185560 2.394386 -7.563796 18.025439 0.146868 2.003821 0.024441 -0.001814 178624.000000 1 0 0
-2.054440 6.325986 -5.502896 8.632537 -1.256780 2.261993 0.002877 0.000363 -812000.000000 1 0 0
7.623560 1.195086 8.292204 11.327291 0.155497 0.749462 0.001210 -0.002238 -1520720.000000 1 0 0
7.953660 8.290186 -3.824196 12.108359 0.806112 1.892129 0.003426 0.001405 -139897.000000 1 0 0
7.825460 0.591886 4.043804 8.828391 0.075492 1.095001 -0.001738 -0.001959 -478484.000000 1 0 0
-6.952640 5.895286 5.267204 10.527917 -0.703286 1.046842 -0.001415 -0.003401 76976.700000 1 0 0
-6.093540 -2.040614 -4.572596 7.886950 0.323143 2.189240 0.005730 -0.004302 -1213120.000000 1 0 0
-15.076840 -2.144914 3.152004 15.551428 0.141317 1.366700 0.018623 -0.008097 -1207890.000000 1 0 0
1.093360 1.180286 -10.433796 10.557112 0.823612 2.988598 0.003897 -0.004071 406830.000000 1 0 0
1.430560 -9.279814 9.342704 13.245662 -1.417842 0.787893 -0.005375 -0.005269 -1133280.000000 1 0 0
-0.256440 -6.847114 -1.208596 6.957689 1.533361 1.745389 0.003325 -0.000809 578923.000000 1 0 0
-0.402740 -10.290214 -8.355496 13.261411 1.531678 2.252428 0.002439 0.000728 -589821.000000 1 0 0
-4.220940 6.517486 3.712804 8.606908 -0.996087 1.124780 0.002212 0.000023 -718780.000000 1 0 0
10.747660 -1.129514 -8.517296 13.759808 -0.104710 2.238263 0.013316 -0.004816 45005.600000 1 0 0
3.003060 -1.019514 6.283804 7.038747 -0.327283 0.467396 -0.006304 -0.000729 233484.000000 1 0 0
2.039560 -12.339014 6.761604 14.217256 -1.406984 1.075160 -0.000971 -0.005750 -508786.000000 1 0 0
2.874660 -5.032914 -1.281196 5.935938 -1.051844 1.788346 0.002207 0.002337 -1318190.000000 1 0 0
-1.039440 9.542286 -1.586996 9.729040 -1.462294 1.734648 0.000918 0.000402 547206.000000 1 0 0
4.473960 -2.593814 2.571304 5.775447 -0.525403 1.109384 -0.000801 0.000964 -2398320.000000 1 0 0
17.754460 6.617786 -2.590096 19.123925 0.356787 1.706651 0.016768 0.012811 -63429.700000 1 0 0
-7.137140 3.593586 -5.436896 9.665013 -0.466448 2.168244 0.001966 -0.002847 693611.000000 1 0 0
-13.805640 -5.916514 2.263804 15.189656 0.404880 1.421203 0.009378 -0.003825 272652.000000 1 0 0
6.620760 -6.101114 3.490404 9.656136 -0.744574 1.200952 0.000482 -0.003948 -552033.000000 1 0 0
-4.632340 1.951986 3.616704 6.192687 -0.398802 0.947114 0.000318 -0.001201 933284.000000 1 0 0
6.978960 -12.137614 -5.354196 14.989829 -1.048972 1.936053 0.008851 0.002952 261978.000000 1 0 0
2.931560 -12.401714 3.433004 13.197806 -1.338674 1.307651 0.002817 -0.006531 -1139690.000000 1 0 0
3.370160 11.349886 -6.097896 13.317741 1.282155 2.046403 0.000332 0.002245 -84158.200000 1 0 0
-5.509040 -8.355914 6.329004 11.841753 0.987912 1.006922 0.003558 0.001475 182831.000000 1 0 0
-4.069740 6.531786 6.356504 9.981591 -1.013588 0.880426 -0.000618 -0.000727 114327.000000 1 0 0
4.258360 4.369886 -6.948596 9.247298 0.798323 2.421007 0.002145 0.002687 -2038680.000000 1 0 0
-0.321740 -2.759314 1.612004 3.211836 1.454719 1.045008 0.001091 -0.000783 -617143.000000 1 0 0
-13.113440 -0.807514 6.526404 14.669981 0.061501 1.109754 0.007256 -0.004770 -778512.000000 1 0 0
-0.534840 -9.382414 -5.931696 11.113090 1.513853 2.133834 0.001239 0.001602 281066.000000 1 0 0
2.043260 -1.621214 -3.924396 4.712126 -0.670731 2.554996 0.001110 0.002565 262188.000000 1 0 0
11.223860 -2.020114 1.105104 11.457624 -0.178077 1.474195 0.006395 -0.003494 1152310.000000 1 0 0
0.511960 -4.309714 -1.835496 4.712195 -1.452558 1.970907 0.000937 0.000003 -2209540.000000 1 0 0
1.190060 -7.417614 -11.246496 13.524826 -1.411715 2.552679 -0.007490 0.005662 1026690.000000 1 0 0
-4.495740 4.156086 -9.994696 11.720865 -0.746160 2.591980 0.000577 -0.003535 162059.000000 1 0 0
-1.010140 5.878286 -2.020596 6.297415 -1.400616 1.897435 0.002769 -0.002071 -1870570.000000 1 0 0
-11.285840 1.742186 -3.827996 12.044043 -0.153160 1.894240 -0.001499 -0.000808 -36427.800000 1 0 0
-1.737540 -11.236814 4.211704 12.125324 1.417382 1.216055 0.009676 -0.004692 -273551.000000 1 0 0
-3.541140 -5.597314 -9.661196 11.713595 1.006715 2.540618 0.002511 0.002287 -2126290.000000 1 0 0
-12.809140 -3.783314 -8.308896 15.729758 0.287195 2.127308 0.009692 0.001388 -269804.000000 1 0 0
11.427560 4.351486 0.568804 12.241245 0.363836 1.524313 0.009168 0.001568 59025.300000 1 0 0
-8.878440 -2.273914 -2.993396 9.641463 0.250727 1.886485 0.006099 -0.003621 -370658.000000 1 0 0
-2.570740 -6.065214 -6.380596 9.171016 1.169900 2.340239 0.003592 -0.000719 -414389.000000 1 0 0
0.026460 2.762986 -1.998796 3.410275 1.561220 2.197046 0.000927 -0.001246 316605.000000 1 0 0
8.044660 5.958786 -5.202696 11.282363 0.637531 2.050071 0.001884 0.000519 -636120.000000 1 0 0
-9.726640 -0.950814 -0.899696 9.814328 0.097444 1.662597 -0.000136 -0.004239 -573652.000000 1 0 0
6.212660 0.504786 -8.932896 10.892593 0.081073 2.532363 -0.001674 0.002436 518460.000000 1 0 0
-4.196540 2.516186 7.997704 9.375788 -0.540115 0.549058 -0.003303 0.002829 -2537360.000000 1 0 0
-10.109840 -3.319614 1.422604 10.735572 0.317263 1.437892 -0.000718 -0.004327 2119820.000000 1 0 0
-1.816240 -8.164114 -7.753896 11.405016 1.351895 2.318378 0.002195 -0.000596 -61571.400000 1 0 0
-9.414640 -9.811114 4.242104 14.243906 0.806017 1.268389 0.003022 -0.000840 -742238.000000 1 0 0
-0.980740 -10.745014 7.343404 13.051542 1.479775 0.973213 0.000351 -0.004877 -147658.000000 1 0 0
9.515960 3.785286 -3.765396 10.911466 0.378594 1.923127 0.003392 0.001020 -537852.000000 1 0 0
12.814760 -0.879614 3.014804 13.193969 -0.068533 1.340261 0.008990 -0.004167 -1235170.000000 1 0 0
6.459960 11.985386 -6.922796 15.274346 1.076448 2.041182 0.005691 -0.001891 359910.000000 1 0 0
-11.853740 -0.127514 -6.565596 13.551180 0.010757 2.076592 0.002677 0.002374 362514.000000 1 0 0
-7.520740 -6.548914 -11.559696 15.266840 0.716435 2.429776 0.011784 -0.001572 -794044.000000 1 0 0
4.074160 6.112386 6.524404 9.824860 0.982880 0.844546 -0.005053 -0.000213 -1757220.000000 1 0 0
-4.182040 -1.381814 -7.444296 8.649649 0.319123 2.607336 0.004525 -0.006045 -477223.000000 1 0 0
9.584660 9.288586 0.807604 13.371453 0.769712 1.510362 0.008176 0.001876 -1279450.000000 1 0 0
-8.935140 3.979386 4.864304 10.923996 -0.418992 1.109303 -0.004678 -0.001643 1075270.000000 1 0 0
-7.100240 7.929186 -12.194796 16.186366 -0.840497 2.424013 -0.000271 -0.003769 -574990.000000 1 0 0
11.053460 -3.775714 7.158204 13.699448 -0.329160 1.020995 0.010742 -0.002395 1555050.000000 1 0 0
11.833160 6.816586 6.417104 15.088695 0.522629 1.131512 0.007622 -0.000986 71116.400000 1 0 0
-9.879840 -0.914414 -14.915596 17.914308 0.092291 2.554596 0.005263 -0.000539 183832.000000 1 0 0
1.823560 -12.961614 12.151704 17.860367 -1.431024 0.822525 -0.004085 -0.002447 144086.000000 1 0 0
2.897660 2.975186 13.048904 13.693869 0.798598 0.308134 -0.004167 -0.004367 -641786.000000 1 0 0
-2.499840 -1.359214 10.945604 11.309417 0.498009 0.254334 -0.002887 -0.000922 -552304.000000 1 0 0
2.493660 -10.223514 -8.283096 13.392097 -1.331554 2.237637 -0.006933 0.003257 -1078370.000000 1 0 0
13.972460 3.520586 -7.507496 16.247666 0.246828 2.051120 0.021725 -0.003372 -3561530.000000 1 0 0
7.345660 -1.600414 4.998604 9.028072 -0.214520 0.984027 0.001900 -0.000678 189472.000000 1 0 0
-1.294240 8.784886 10.090504 13.441263 -1.424523 0.721659 -0.002071 -0.002176 -23247.900000 1 0 0
-12.294740 -4.542414 1.034704 13.147805 0.353905 1.492017 0.005793 -0.004716 177012.000000 1 0 0
-4.841140 4.911186 -5.284596 8.688115 -0.792580 2.224658 0.002754 -0.002445 -303939.000000 1 0 0
-11.117540 0.374386 1.919704 11.288274 -0.033663 1.399904 -0.008390 -0.002577 -2855290.000000 1 0 0
-1.477340 2.305686 -4.100496 4.930800 -1.000960 2.552794 0.002683 -0.003627 812531.000000 1 0 0
3.124960 -9.831714 13.117404 16.688147 -1.263050 0.666434 -0.004112 -0.003935 -2361360.000000 1 0 0
8.814560 4.728786 -1.567696 10.124996 0.492400 1.726256 0.002916 -0.000952 -751219.000000 1 0 0
4.075860 2.321186 3.817804 6.047823 0.517688 0.887608 -0.008637 0.002018 311043.000000 1 0 0
-5.587640 -3.223314 7.417304 9.829948 0.523235 0.715810 -0.000806 0.000370 97727.400000 1 0 0
1.772160 -5.862414 7.677604 9.821102 -1.277238 0.673336 -0.005786 -0.002407 -1742530.000000 1 0 0
-5.866240 -6.429514 -9.676096 13.014541 0.831177 2.409061 0.006922 -0.003505 -1265860.000000 1 0 0
-11.670140 -5.797514 5.550604 14.163776 0.461070 1.168114 0.005718 -0.003920 -1108480.000000 1 0 0
10.534560 6.105986 4.433404 12.958205 0.525295 1.221613 0.002237 -0.000962 -1660750.000000 1 0 0
1.415560 -3.691614 0.448504 3.979068 -1.204636 1.457841 0.004734 0.000820 -516371.000000 1 0 0
8.737760 4.391886 6.814504 11.919504 0.465752 0.962207 -0.000008 -0.000218 415412.000000 1 0 0
-7.974940 12.166086 3.400104 14.939010 -0.990560 1.341185 0.007780 -0.006013 -221825.000000 1 0 0
-6.289040 13.313786 -7.043696 16.322456 -1.129496 2.016989 0.012661 -0.004153 171761.000000 1 0 0
4.484360 -7.056314 -0.797996 8.398681 -1.004675 1.665954 0.003152 0.000420 -112071.000000 1 0 0
-1.879340 -8.170914 11.167804 13.964799 1.344724 0.643983 -0.009866 -0.003224 -397387.000000 1 0 0
11.618060 8.738186 -5.852296 15.671138 0.644857 1.953515 0.017405 -0.006714 285941.000000 1 0 0
-3.299840 -2.843514 -1.950596 4.772771 0.711255 1.991817 0.006426 -0.003667 -978278.000000 1 0 0
-2.003240 5.941686 4.784304 7.887088 -1.245615 0.919020 -0.001691 -0.000183 -110811.000000 1 0 0
0.290760 -11.550714 -5.597296 12.838741 -1.545629 2.021911 0.001366 -0.003904 -906463.000000 1 0 0
-9.064040 6.268886 -1.704996 11.151806 -0.605081 1.724288 0.002982 0.000650 -529434.000000 1 0 0
2.881060 0.101186 3.947804 4.888343 0.035107 0.630733 -0.007560 0.001798 -1167810.000000 1 0 0
-10.008940 3.879786 -1.121296 10.793004 -0.369799 1.674875 0.002019 -0.001592 -193045.000000 1 0 0
6.562760 5.493786 13.609804 16.077259 0.696966 0.561373 0.004567 -0.001455 -25218.100000 1 0 0
-8.705540 -1.660914 5.746204 10.562383 0.188523 0.995569 -0.005499 -0.000857 -143982.000000 1 0 0
12.986560 -1.846614 -1.492696 13.201851 -0.141247 1.684106 0.010638 -0.004176 -1527170.000000 1 0 0
5.047260 -5.618514 5.560004 9.378495 -0.838907 0.936208 -0.001575 -0.004296 169654.000000 1 0 0
-9.006240 -1.204314 3.208704 9.636312 0.132931 1.231334 -0.006049 -0.000721 521232.000000 1 0 0
1.921660 5.482486 5.587504 8.060436 1.233668 0.804875 -0.005405 0.000067 -1204800.000000 1 0 0
9.182360 3.080086 -7.461096 12.225818 0.323641 2.227203 0.003074 -0.001667 218190.000000 1 0 0
2.306360 -2.411314 -1.513396 3.663891 -0.807642 1.996605 -0.000682 0.002219 -228452.000000 1 0 0
-6.275440 0.353286 -4.031596 7.467244 -0.056237 2.141120 0.001438 -0.001403 -2001300.000000 1 0 0
-4.046240 4.179386 5.060004 7.709926 -0.801583 0.854896 -0.000294 -0.000192 792071.000000 1 0 0
-6.390740 1.734986 -12.401496 14.058764 -0.265095 2.651137 0.000621 -0.004709 -1704580.000000 1 0 0
-0.056640 3.204386 6.206504 6.985126 -1.553122 0.476662 -0.004609 -0.001149 961726.000000 1 0 0
-8.837940 9.501686 -2.170696 13.156867 -0.821574 1.736540 0.004269 0.002676 672798.000000 1 0 0
-1.390140 -3.787014 -6.075196 7.292597 1.218986 2.555419 0.000761 -0.000382 421153.000000 1 0 0
-3.255040 7.075286 -2.963196 8.332796 -1.139610 1.934359 0.004977 0.000791 1265630.000000 1 0 0
7.057360 -0.428114 -4.303696 8.277162 -0.060588 2.117587 0.002197 0.003447 -114580.000000 1 0 0
-5.183340 -10.861914 6.782904 13.815063 1.125552 1.057583 0.000728 -0.004131 327158.000000 1 0 0
9.702960 8.385486 -1.479596 12.909415 0.712691 1.685662 0.006453 0.002605 140843.000000 1 0 0
13.794760 4.607986 -4.372996 15.187232 0.322385 1.862870 0.012171 0.000145 737967.000000 1 0 0
4.669260 1.029486 -6.935796 8.424197 0.217010 2.538029 -0.000474 0.002355 -639433.000000 1 0 0
8.934260 -4.778114 3.579604 10.745461 -0.491105 1.231178 0.004289 -0.004460 -1047530.000000 1 0 0
-8.724640 -3.372014 -0.807096 9.388356 0.368809 1.656870 0.000567 -0.003377 24422.800000 1 0 0
-8.598640 -4.258214 -10.502796 14.225953 0.459816 2.401319 0.006067 -0.003627 317247.000000 1 0 0
10.514260 -1.174414 10.739304 15.075196 -0.111236 0.777909 0.008279 -0.000722 1121160.000000 1 0 0
2.214060 -11.633414 9.839004 15.396246 -1.382727 0.877531 -0.006254 -0.007207 1096140.000000 1 0 0
-6.492740 -10.577314 1.955304 12.564174 1.020265 1.414536 0.006884 -0.001575 -862915.000000 1 0 0
-3.649540 -1.597414 6.571204 7.684504 0.412581 0.545006 0.001493 -0.001430 -57906.100000 1 0 0
4.656460 -7.652114 4.002104 9.810928 -1.024136 1.150618 -0.004208 -0.002669 412471.000000 1 0 0
11.559660 -9.608614 -5.274696 15.930274 -0.693489 1.908278 0.015811 -0.003003 352164.000000 1 0 0
11.299260 1.148786 11.495904 16.160098 0.101321 0.779342 0.007710 -0.001028 197534.000000 1 0 0
-10.192140 -3.462814 4.408504 11.632098 0.327517 1.182087 0.001894 -0.003647 932054.000000 1 0 0
2.140860 8.829586 8.963004 12.762457 1.332923 0.792181 -0.004134 0.000922 -351527.000000 1 0 0
6.616960 8.843586 4.064404 11.769135 0.928435 1.218191 0.000951 0.001139 984485.000000 1 0 0
-4.233540 3.495886 0.451104 5.508863 -0.690252 1.488818 0.004077 -0.001807 -496269.000000 1 0 0
4.834760 6.945086 4.207304 9.450424 0.962665 1.109402 -0.002715 -0.000314 -1555050.000000 1 0 0
-8.237340 13.258786 1.027504 15.643048 -1.014881 1.505065 0.010036 -0.002118 -49751.500000 1 0 0
8.870660 8.180586 -9.156396 15.147613 0.744950 2.219907 0.003958 -0.008254 -617030.000000 1 0 0
6.955760 1.940386 6.029004 9.407262 0.272045 0.875141 -0.003079 -0.000639 -606212.000000 1 0 0
11.640160 -6.268314 3.158404 13.592667 -0.493977 1.336292 0.008526 -0.005997 66293.700000 1 0 0
11.367160 4.775086 -2.042696 12.497455 0.397694 1.734982 0.008069 0.002504 -848824.000000 1 0 0
-3.967440 14.302986 -5.992596 16.007098 -1.300214 1.954515 0.004873 0.001516 -8618.760000 1 0 0
7.253360 -2.959814 7.081004 10.559940 -0.387436 0.835842 0.004222 -0.004979 -1236350.000000 1 0 0
-7.978840 -0.477414 0.936204 8.047751 0.059764 1.454201 0.000927 -0.002375 99521.700000 1 0 0
-3.104540 1.158086 10.741304 11.240771 -0.357042 0.299221 -0.003539 0.000669 -660854.000000 1 0 0
7.104960 -1.218214 -1.850396 7.442343 -0.169809 1.822063 0.002088 0.002393 -1978100.000000 1 0 0
-7.912140 5.393786 2.888404 10.001888 -0.598345 1.277838 -0.001130 -0.000553 1055640.000000 1 0 0
9.434160 -2.132414 2.914504 10.101727 -0.222296 1.278120 0.005091 -0.002661 -1467940.000000 1 0 0
0.308660 3.446086 1.591904 3.808535 1.481467 1.139572 -0.002826 0.000238 -3878660.000000 1 0 0
-7.557240 -3.140814 3.948904 9.086828 0.393885 1.121231 -0.003016 -0.001829 -107015.000000 1 0 0
-2.259340 8.365886 -6.713196 10.961737 -1.307023 2.229916 -0.001043 -0.000312 -787771.000000 1 0 0
4.500460 9.928186 7.375904 13.161572 1.145200 0.975913 -0.002579 0.004562 -340484.000000 1 0 0
-11.867640 -3.126914 6.833904 14.047089 0.257627 1.062718 0.004362 -0.003252 -794114.000000 1 0 0
-4.797340 2.322186 -5.602496 7.732722 -0.450812 2.381131 0.003445 -0.004176 -1009330.000000 1 0 0
-2.722940 2.968686 -1.872896 4.442436 -0.828548 2.005997 0.002974 -0.002828 1838710.000000 1 0 0
2.434260 5.199586 11.551804 12.899825 1.132940 0.461241 -0.002133 -0.006108 305365.000000 1 0 0
-0.775140 1.727686 4.529304 4.909209 -1.149059 0.395994 0.000275 -0.001381 602416.000000 1 0 0
5.030560 1.574486 7.675104 9.310894 0.303326 0.601806 -0.005788 -0.000650 -700864.000000 1 0 0
3.340560 -8.241314 1.835704 9.080110 -1.185692 1.367226 -0.001218 -0.001844 2172700.000000 1 0 0
5.091660 6.497786 -4.618796 9.459360 0.906136 2.080912 0.001848 0.000495 -2292600.000000 1 0 0
-4.113640 2.897686 -7.976296 9.430797 -0.613679 2.578805 0.003508 -0.006704 -416227.000000 1 0 0
-8.777940 -2.129414 -12.906196 15.752985 0.237990 2.530961 0.006848 -0.005332 -664806.000000 1 0 0
-7.803840 8.211886 1.367504 11.410743 -0.810870 1.450664 0.005184 -0.001748 -381555.000000 1 0 0
7.329060 0.884186 -6.646196 9.933218 0.120061 2.303777 0.000277 0.003343 344985.000000 1 0 0
8.946860 8.898486 5.484404 13.758925 0.782687 1.160799 0.001880 0.001359 306082.000000 1 0 0
9.426160 -0.992214 -1.350396 9.573951 -0.104876 1.712317 0.004713 0.001254 1843090.000000 1 0 0
5.356860 0.062386 4.328104 6.887112 0.011645 0.891256 -0.007515 0.001132 -1968210.000000 1 0 0
-4.192940 -7.329914 -7.838696 11.521873 1.051196 2.319012 0.005614 -0.000679 -1637810.000000 1 0 0
-2.221940 7.441286 -0.504296 7.782292 -1.280628 1.635642 0.002944 -0.000996 323224.000000 1 0 0
13.284460 -3.343214 -7.398396 15.568886 -0.246544 2.065992 0.013136 -0.009787 489739.000000 1 0 0
-4.770440 -5.088914 1.584804 7.153024 0.817689 1.347385 0.006300 -0.003638 -116413.000000 1 0 0
-8.845740 1.349386 2.461104 9.280355 -0.151379 1.302390 -0.003330 -0.001054 -1632150.000000 1 0 0
-1.047540 11.260386 10.179104 15.215380 -1.478034 0.837932 -0.003618 -0.001557 155430.000000 1 0 0
-8.443840 0.243386 7.386704 11.221456 -0.028816 0.852283 -0.007223 -0.000453 -570799.000000 1 0 0
-5.942640 13.028586 -2.135696 14.478267 -1.142862 1.718847 0.004390 0.001804 530594.000000 1 0 0
-13.010040 -0.676314 3.230804 13.422244 0.051937 1.327704 0.007492 -0.005691 973451.000000 1 0 0
-6.627140 12.812586 8.720704 16.856216 -1.093455 1.027035 0.010035 -0.009931 2137770.000000 1 0 0
-8.022040 0.824686 -14.029196 16.181829 -0.102443 2.619891 -0.002645 -0.002052 311704.000000 1 0 0
7.285160 2.897986 3.770404 8.699874 0.378602 1.122550 0.000360 -0.000462 -397486.000000 1 0 0
-1.555940 0.682386 -2.134796 2.728361 -0.413307 2.469381 0.000806 -0.003187 707352.000000 1 0 0
-6.196940 9.666286 -10.440896 15.519390 -1.000712 2.308735 0.002995 -0.002828 -114152.000000 1 0 0
-10.108540 13.611686 5.274504 17.756153 -0.932024 1.269192 0.002834 -0.007247 367654.000000 1 0 0
-5.642240 8.200286 2.516104 10.266954 -0.968133 1.323206 0.004295 -0.001642 -1629370.000000 1 0 0
-2.445640 -10.680714 -1.185196 11.021048 1.345700 1.678544 0.006814 -0.002257 191014.000000 1 0 0
-2.245240 -12.340614 8.917304 15.389937 1.390826 0.952774 -0.004527 -0.004250 625160.000000 1 0 0
-14.746840 -6.372414 -1.513296 16.135893 0.407886 1.664719 0.016475 -0.003961 713728.000000 1 0 0
-2.792940 -9.443114 3.243404 10.367863 1.283230 1.252623 0.006916 -0.004062 -1689950.000000 1 0 0
4.763960 -2.597414 7.475604 9.237236 -0.499167 0.627854 -0.002470 -0.001108 -1237930.000000 1 0 0
-14.994740 -1.188114 -0.323796 15.045222 0.079070 1.592320 0.010853 -0.007159 274343.000000 1 0 0
5.472860 8.746086 -2.883996 10.712779 1.011658 1.843370 -0.000044 0.000317 -808739.000000 1 0 0
-5.625940 -5.729814 8.548904 11.728842 0.794545 0.754114 0.000959 0.000240 -4147560.000000 1 0 0
3.440860 3.566186 6.965404 8.548336 0.803282 0.618368 -0.005141 -0.001100 665230.000000 1 0 0
3.256760 2.424786 9.370804 10.212641 0.639997 0.408874 -0.003065 -0.004351 1330420.000000 1 0 0
9.867260 -3.259814 5.170904 11.607215 -0.319078 1.109074 0.007431 -0.004210 -166984.000000 1 0 0
6.471360 10.101786 -5.016896 13.003608 1.001047 1.966880 0.002157 -0.000704 374387.000000 1 0 0
-4.551440 11.999286 -8.468796 15.375922 -1.208253 2.154098 0.000004 -0.004482 -140916.000000 1 0 0
-3.300740 -7.213214 2.161504 8.221766 1.141643 1.304769 0.007962 -0.004757 940499.000000 1 0 0
-7.441840 -4.079414 1.155204 8.564876 0.501439 1.435507 0.001985 -0.003905 3979170.000000 1 0 0
-2.050340 -3.982714 -10.899796 11.784374 1.095371 2.751665 0.002896 0.000608 -1052720.000000 1 0 0
-5.107640 8.339886 -4.355896 10.705864 -1.021283 1.989821 0.007624 -0.001668 -645510.000000 1 0 0
-10.979940 -3.249714 -10.153596 15.304093 0.287754 2.296225 0.011790 0.000446 -802324.000000 1 0 0
4.658260 -11.329214 -7.668596 14.451915 -1.180696 2.130138 0.001727 0.000376 -2202000.000000 1 0 0
-9.375240 -3.996914 7.307004 12.540445 0.402994 0.948780 -0.005563 -0.000116 -241637.000000 1 0 0
-5.759140 -9.579514 -5.171096 12.315642 1.029500 2.004110 0.005959 -0.003947 1035930.000000 1 0 0
4.806860 4.351686 -9.548796 11.542209 0.735740 2.545069 0.002591 0.003485 89274.200000 1 0 0
-3.297440 -7.183214 -14.074696 16.142142 1.140444 2.629911 0.002135 0.002544 358208.000000 1 0 0
0.573560 -0.852914 -8.776796 8.836775 -0.978786 3.025016 0.004063 -0.003578 -199931.000000 1 0 0
-7.740540 2.227486 -2.939896 8.574418 -0.280198 1.920765 0.003593 -0.003344 -293803.000000 1 0 0
-2.296140 7.555186 -12.623196 14.889533 -1.275751 2.582600 0.002628 -0.003798 -389578.000000 1 0 0
-9.685640 8.970986 7.508904 15.187951 -0.747111 1.053653 -0.009022 -0.006083 -237501.000000 1 0 0
-10.639240 -3.238614 -14.216796 18.049913 0.295491 2.477762 0.015404 -0.004359 -803744.000000 1 0 0
-3.387140 4.844286 7.942204 9.900425 -0.960605 0.639811 -0.002998 -0.000307 -90835.700000 1 0 0
8.682760 -2.356614 -3.562796 9.676645 -0.265028 1.947853 0.002089 0.002584 -5516820.000000 1 0 0
1.927760 -8.327914 -1.129296 8.622397 -1.343321 1.702146 0.000456 0.000154 -1530630.000000 1 0 0
-13.624140 -2.846914 5.063604 14.810881 0.205997 1.221875 0.018119 -0.010608 229545.000000 1 0 0
7.061360 2.721886 -1.971896 7.820476 0.367911 1.825693 0.000774 0.002129 1038940.000000 1 0 0
-10.996440 4.485986 8.871604 14.824005 -0.387340 0.929216 -0.006967 0.000891 -3590680.000000 1 0 0
-1.702240 -2.502514 7.972504 8.527662 0.973475 0.362822 -0.002880 -0.000890 -1069250.000000 1 0 0
2.937660 11.900086 -9.896496 15.753810 1.328775 2.250030 0.001882 -0.005517 690506.000000 1 0 0
3.561660 -5.085814 -7.178296 9.490989 -0.959861 2.428477 -0.000541 -0.000847 262898.000000 1 0 0
8.259660 -13.858314 -9.694596 18.821797 -1.033318 2.111889 0.018632 0.008955 309685.000000 1 0 0
-6.290840 -5.804914 -0.443796 8.571386 0.745246 1.622596 0.007274 -0.003960 -549628.000000 1 0 0
-1.156840 -3.947914 9.935904 10.753906 1.285750 0.392556 -0.005877 -0.000503 2127920.000000 1 0 0
2.815160 3.317686 1.852004 4.728856 0.867156 1.168384 -0.009176 0.002046 -1504430.000000 1 0 0
-9.100140 13.379086 7.713604 17.925183 -0.973499 1.125947 0.008317 -0.017395 -451482.000000 1 0 0
4.034160 -11.087914 -0.005396 11.798996 -1.221851 1.571254 0.002518 -0.002381 -469780.000000 1 0 0
-12.498540 -1.421014 -9.133896 15.545445 0.113208 2.198838 0.009318 0.000756 -409795.000000 1 0 0
-4.205540 1.041286 -13.605796 14.278954 -0.242717 2.833312 0.005098 -0.002984 235906.000000 1 0 0
4.021760 -3.073714 4.934904 7.069338 -0.652572 0.798096 -0.004751 0.000679 108812.000000 1 0 0
1.685860 -1.238214 1.117004 2.371285 -0.633488 1.080311 -0.001336 0.000493 -120030.000000 1 0 0
8.135260 -9.037514 7.319904 14.192960 -0.837890 1.028923 0.009071 -0.007034 -1415290.000000 1 0 0
-0.110740 2.345386 -6.440596 6.855245 -1.523615 2.792004 0.002409 -0.003069 1309850.000000 1 0 0
-3.823340 -9.715314 -3.257496 10.936935 1.195873 1.873229 0.006773 -0.002632 532324.000000 1 0 0
-9.526640 2.278186 -5.588096 11.277137 -0.234730 2.089235 -0.001741 0.000089 -2004390.000000 1 0 0
8.912560 -7.684914 5.314304 12.912531 -0.711567 1.146629 0.004778 -0.006186 1855270.000000 1 0 0
-5.493140 -4.210414 4.653004 8.339821 0.653969 0.978912 -0.000226 -0.001008 -821675.000000 1 0 0
-0.156740 -12.590914 10.483904 16.384991 1.558348 0.876496 -0.004337 -0.002904 -186387.000000 1 0 0
-14.170140 -8.226114 3.091104 16.673834 0.525976 1.384331 0.004247 -0.003427 -572405.000000 1 0 0
10.837160 -1.242114 -3.555996 11.473098 -0.114118 1.885928 0.008786 -0.000146 -454620.000000 1 0 0
-13.558140 2.996686 2.750304 14.155122 -0.217528 1.375255 -0.002604 -0.002792 546830.000000 1 0 0
-6.377040 6.142486 0.977804 8.908023 -0.766665 1.460808 0.003617 -0.000939 -439970.000000 1 0 0
7.214260 -6.971214 -0.580696 10.048909 -0.768266 1.628616 0.005195 -0.003410 -548693.000000 1 0 0
-6.910740 7.797586 10.009004 14.447866 -0.845621 0.805478 -0.001352 -0.005666 74783.500000 1 0 0
-12.633040 -5.052114 -1.784596 13.722330 0.380431 1.701216 0.007621 -0.006055 -1097410.000000 1 0 0
-9.438140 -5.618214 0.244704 10.986478 0.536932 1.548521 0.002764 -0.003637 -1106780.000000 1 0 0
-1.727840 1.879286 2.122104 3.319710 -0.827359 0.877282 0.001659 -0.001276 98077.800000 1 0 0
-6.944640 7.378086 7.468904 12.587641 -0.815652 0.935579 -0.003483 -0.003883 -136656.000000 1 0 0
5.525760 7.227786 -0.394696 9.106629 0.918069 1.614152 -0.000221 -0.000457 -2125670.000000 1 0 0
0.073160 -4.067614 7.584004 8.606274 -1.552812 0.492364 -0.003728 -0.000220 -260859.000000 1 0 0
6.461160 0.718486 13.101604 14.625827 0.110746 0.460601 0.001126 -0.001529 294037.000000 1 0 0
5.746560 6.143786 -7.929696 11.560672 0.818793 2.326664 -0.002221 0.001365 -601131.000000 1 0 0
9.967260 5.272386 8.915304 14.374525 0.486554 0.901779 0.001295 -0.000467 -2890210.000000 1 0 0
-1.259740 -5.067814 -8.474896 9.954575 1.327158 2.589363 0.002867 0.000394 724211.000000 1 0 0
10.025660 -3.541414 -8.001296 13.306998 -0.339554 2.215904 0.009396 -0.007393 391699.000000 1 0 0
8.213360 -5.620314 1.366604 10.045637 -0.600104 1.434334 0.003571 -0.003750 1255060.000000 1 0 0
15.800260 3.115686 -4.936996 16.844276 0.194694 1.868260 0.027099 0.003829 -652443.000000 1 0 0
-6.931240 3.608386 1.020804 7.880646 -0.479989 1.440898 0.002991 -0.002637 326343.000000 1 0 0
-1.671440 3.770686 0.248804 4.132032 -1.153551 1.510546 0.002182 -0.003960 -269498.000000 1 0 0
-2.603640 9.997986 6.981504 12.469164 -1.316038 0.976529 -0.000058 -0.000154 560948.000000 1 0 0
5.534160 -5.881914 -8.709796 11.877895 -0.815851 2.393927 -0.000727 -0.000133 -657012.000000 1 0 0
-1.136440 -0.959514 6.265804 6.439911 0.701185 0.233060 -0.002001 -0.001403 -205421.000000 1 0 0
-5.719640 5.040986 -7.755496 10.875364 -0.722413 2.364742 -0.000471 -0.001487 -175407.000000 1 0 0
6.691560 -1.283214 2.546604 7.273843 -0.189466 1.213114 -0.001323 0.001559 -1415220.000000 1 0 0
8.732160 7.558686 3.251604 11.998219 0.713490 1.296357 0.005680 -0.001593 -344286.000000 1 0 0
-5.300940 -4.924614 -7.738296 10.594009 0.748612 2.389763 0.007792 -0.003577 815123.000000 1 0 0
-2.317640 7.917186 -10.121896 13.057797 -1.286018 2.457766 0.001932 -0.002185 553189.000000 1 0 0
-2.802140 -2.264314 1.658704 3.966158 0.679640 1.139318 -0.000100 0.000016 -507533.000000 1 0 0
5.999260 -2.114514 -9.286296 11.256002 -0.338867 2.541013 -0.003585 0.001376 851460.000000 1 0 0
1.125560 -7.495414 5.243004 9.216138 -1.421744 0.965636 -0.004121 -0.001799 569736.000000 1 0 0
1.852560 11.827586 1.228404 12.034647 1.415428 1.468546 0.002280 -0.001858 -344606.000000 1 0 0
-1.078740 7.068786 2.560604 7.595269 -1.419359 1.226928 -0.000642 -0.000127 469190.000000 1 0 0
8.819560 7.890486 -6.610896 13.555381 0.729856 2.080244 0.004483 -0.004427 -258424.000000 1 0 0
3.742960 -11.085314 5.537604 12.944458 -1.245166 1.128742 0.001577 -0.002571 -313870.000000 1 0 0
7.883460 -7.193214 12.383904 16.347854 -0.739648 0.711283 0.008921 -0.006090 375404.000000 1 0 0
-8.703940 0.105786 -4.037896 9.595539 -0.012153 2.005134 0.004020 -0.002060 -1391600.000000 1 0 0
-3.329840 -5.003714 11.253404 12.757903 0.983620 0.490552 -0.005428 -0.001182 670221.000000 1 0 0
-8.113640 0.179286 -11.560696 14.124907 -0.022093 2.529525 0.000408 -0.005506 -1142980.000000 1 0 0
1.422260 -4.957114 5.358104 7.436738 -1.291389 0.766286 -0.002884 -0.001030 -907179.000000 1 0 0
6.602260 3.760586 -7.708196 10.823499 0.517760 2.363384 0.000243 0.001030 -2273460.000000 1 0 0
16.274360 4.155786 -1.410696 16.855723 0.250015 1.654587 0.011652 0.012167 -767414.000000 1 0 0
7.893960 7.468786 0.165404 10.868520 0.757730 1.555577 0.004786 -0.001775 -4434200.000000 1 0 0
5.466760 -10.339814 13.874204 18.146370 -1.084446 0.700420 0.009876 -0.008547 236159.000000 1 0 0
-5.216040 -9.230114 8.860604 13.817105 1.056426 0.874634 -0.001794 -0.006505 420983.000000 1 0 0
-12.456840 -3.037414 2.954904 13.157895 0.239168 1.344292 0.009139 -0.005440 -295228.000000 1 0 0
-2.149640 -1.409814 -5.863696 6.402458 0.580468 2.728418 0.002749 -0.004172 -2313970.000000 1 0 0
-2.411540 12.930686 -4.421196 13.876784 -1.386417 1.895053 0.001475 0.004292 511568.000000 1 0 0
3.968760 -0.485414 -5.095496 6.476941 -0.121704 2.476263 -0.000575 0.003035 -492649.000000 1 0 0
-8.873640 3.849786 -7.440296 12.203293 -0.409339 2.226473 -0.001305 0.000188 587429.000000 1 0 0
-4.620840 7.915686 -11.391096 14.620784 -1.042406 2.464030 0.002004 -0.000804 -1968280.000000 1 0 0
-10.089740 -6.384814 7.463404 14.080877 0.564191 1.012151 -0.001929 -0.000568 -1360110.000000 1 0 0
8.001560 5.278086 4.139604 10.441239 0.583117 1.163131 0.000939 -0.001529 -1605980.000000 1 0 0
-6.808440 -7.519014 4.033004 10.915840 0.834953 1.192365 0.004778 -0.002335 -615237.000000 1 0 0
-4.019140 11.863486 8.144304 14.940732 -1.244150 0.994279 0.003604 -0.004525 -260601.000000 1 0 0
-7.242740 9.965686 -7.989696 14.683577 -0.942330 2.146142 0.008118 -0.004051 -156859.000000 1 0 0
13.075560 5.411086 4.593904 14.877972 0.392373 1.256894 0.006247 -0.002510 -360109.000000 1 0 0
5.384560 3.944986 -3.763596 7.662966 0.632303 2.084195 0.000225 0.003082 289289.000000 1 0 0
-2.856240 -4.212014 5.152004 7.241707 0.974908 0.779258 0.002133 -0.000454 -1991910.000000 1 0 0
12.387060 -2.369314 -5.129496 13.614868 -0.188991 1.957089 0.010493 -0.006750 -1681430.000000 1 0 0
-5.220640 9.910286 6.986704 13.201624 -1.085947 1.013103 0.000448 -0.001184 -234691.000000 1 0 0
1.744260 3.840986 -0.442196 4.241598 1.144523 1.675238 -0.003568 -0.000211 387625.000000 1 0 0
-0.119840 9.543286 7.704204 12.265538 -1.558239 0.891664 -0.006005 0.002551 683084.000000 1 0 0
-5.608040 2.128086 5.971604 8.463978 -0.362684 0.787623 -0.002176 0.000846 799910.000000 1 0 0
8.887460 0.924986 10.688404 13.931422 0.103704 0.696308 0.003903 -0.000322 -1365760.000000 1 0 0
0.349660 -2.951014 -10.150596 10.576642 -1.452858 2.856794 0.001112 0.001809 -2047700.000000 1 0 0
1.287860 10.646286 -2.779896 11.078349 1.450413 1.824438 -0.001218 0.000421 1370010.000000 1 0 0
2.204560 -4.309114 11.627304 12.594552 -1.097909 0.394468 -0.004615 -0.004292 9499.750000 1 0 0
6.471660 -2.978714 9.442904 11.828928 -0.431362 0.646347 0.002740 -0.002250 274877.000000 1 0 0
-10.659040 -8.245814 5.755604 14.653858 0.658434 1.167154 0.001586 -0.001676 -661030.000000 1 0 0
-2.929140 0.890886 -6.862496 7.514479 -0.295256 2.721955 0.004221 -0.005559 694059.000000 1 0 0
11.015560 2.600586 -5.051996 12.394687 0.231838 1.990614 0.007952 -0.000870 -3094990.000000 1 0 0
-2.049040 -3.977714 -0.033096 4.474581 1.095118 1.578193 0.003096 -0.002694 939659.000000 1 0 0
-1.323140 -6.418314 -10.728396 12.571553 1.367494 2.593244 -0.000759 0.002134 1305420.000000 1 0 0
0.225260 6.830886 -6.653596 9.538453 1.537832 2.342776 0.003674 0.000964 -3104120.000000 1 0 0
1.869960 3.832186 -6.190496 7.516957 1.116826 2.538416 0.001262 0.001241 -1979660.000000 1 0 0
1.736360 -14.686014 6.571104 16.182502 -1.453110 1.152655 0.004185 -0.007892 278405.000000 1 0 0
-1.812040 5.419486 -10.573096 12.018514 -1.248125 2.646099 0.004539 -0.003164 -343793.000000 1 0 0
13.649660 4.327886 -0.721396 14.337511 0.307042 1.621133 0.010440 0.001574 -618030.000000 1 0 0
-2.462040 3.399186 -6.165496 7.458515 -0.943945 2.543904 0.002602 -0.003944 -2047880.000000 1 0 0
5.816860 7.888086 14.163504 17.223896 0.935393 0.605325 0.004338 -0.005531 483331.000000 1 0 0
15.775960 0.557986 -5.736296 16.795754 0.035355 1.919343 0.011701 -0.000989 533484.000000 1 0 0
6.107560 -8.217814 10.558704 14.707854 -0.931655 0.770022 0.001103 -0.001333 -216587.000000 1 0 0
0.005560 -5.905314 -6.376196 8.690722 -1.569855 2.394516 0.000103 0.000217 -1465370.000000 1 0 0
8.609960 5.561186 -7.621396 12.772779 0.573489 2.210167 0.003707 -0.001796 -85980.500000 1 0 0
-16.002740 -0.744614 5.306204 16.875958 0.046497 1.250947 0.024437 -0.009419 -177353.000000 1 0 0
-0.430340 4.047086 -12.282896 12.939615 -1.464861 2.821631 0.005328 -0.004915 507503.000000 1 0 0
-11.286040 3.734286 5.797204 13.226003 -0.319538 1.117069 -0.004315 -0.003118 -278266.000000 1 0 0
5.264460 -9.588114 -9.520696 14.501384 -1.068674 2.287015 -0.003183 0.003797 -5109.380000 1 0 0
1.429360 11.156386 -11.771396 16.281087 1.443370 2.378946 0.002324 -0.001039 -1934860.000000 1 0 0
5.907860 2.354786 1.258204 6.483124 0.379286 1.375483 -0.001543 0.000741 -251697.000000 1 0 0
5.671060 4.563786 4.953104 8.804675 0.677631 0.973325 -0.004583 -0.000849 -316076.000000 1 0 0
0.316960 -1.585514 -6.363096 6.565311 -1.373488 2.892756 0.002522 -0.000638 -718852.000000 1 0 0
12.709560 6.814986 -4.568296 15.127666 0.492194 1.877568 0.012774 -0.003914 883883.000000 1 0 0
7.361560 3.234486 12.715704 15.044719 0.413983 0.563869 0.002181 -0.002940 -372130.000000 1 0 0
-2.486640 -0.168614 8.549404 8.905286 0.067704 0.283662 -0.003016 0.000455 814890.000000 1 0 0
2.321160 -15.157914 13.386704 20.355687 -1.418845 0.853115 0.006474 -0.002350 -429878.000000 1 0 0
18.909160 4.427186 -1.652596 19.490699 0.229987 1.655687 0.015531 0.011176 1485220.000000 1 0 0
-0.281440 -13.177914 7.386804 15.109649 1.549443 1.059991 -0.005976 -0.006714 -1279190.000000 1 0 0
4.411560 1.698286 -0.582996 4.762974 0.367476 1.693506 -0.000938 -0.000315 -64746.200000 1 0 0
2.655660 -0.555014 -7.349396 7.834168 -0.206028 2.787960 0.001350 0.000534 -40242.500000 1 0 0
7.101560 -11.262614 0.959704 13.349144 -1.008221 1.498842 0.005439 -0.001419 307636.000000 1 0 0
-11.835640 -7.176414 1.272504 13.899733 0.545068 1.479119 0.004170 -0.002884 -13824.000000 1 0 0
0.103760 -7.066814 9.954904 12.208634 -1.556115 0.617379 -0.006958 -0.002462 -4177720.000000 1 0 0
-4.607740 -7.163514 10.559404 13.566437 0.999200 0.678767 -0.003889 0.001653 -1314270.000000 1 0 0
11.845760 0.688686 -1.612896 11.974880 0.058072 1.705897 0.009191 -0.000133 1074760.000000 1 0 0
6.556360 -9.767314 -7.339496 13.865586 -0.979624 2.128609 0.001130 -0.000658 -1355860.000000 1 0 0
-10.956840 4.870186 3.471504 12.482884 -0.418261 1.288980 -0.006090 -0.003342 -756960.000000 1 0 0
6.024060 -9.050314 2.203704 11.092961 -0.983519 1.370808 0.000466 -0.004431 2464550.000000 1 0 0
11.639660 -1.407114 5.955404 13.150227 -0.120306 1.100809 0.010061 -0.005207 -424209.000000 1 0 0
-6.474740 3.640786 4.069704 8.469951 -0.512242 1.069586 -0.003380 -0.000225 -563461.000000 1 0 0
9.542360 6.324386 -3.213896 11.890484 0.585300 1.844492 0.006772 0.001508 756544.000000 1 0 0
-2.277040 6.509786 10.835704 12.844248 -1.234311 0.566801 -0.008012 -0.003937 -43331.900000 1 0 0
1.909260 9.860286 2.982004 10.476777 1.379532 1.282176 -0.004812 -0.000338 -206722.000000 1 0 0
2.848260 6.182386 -5.613096 8.822773 1.139075 2.260366 -0.000573 0.002342 -2258650.000000 1 0 0
11.875660 0.071586 -5.751796 13.195438 0.006028 2.021826 0.013442 -0.005173 526470.000000 1 0 0
-2.600040 -12.408014 6.352404 14.179988 1.364240 1.106288 0.001769 -0.005251 326266.000000 1 0 0
10.900860 1.865486 -2.776596 11.402555 0.169490 1.816776 0.007794 0.000628 349686.000000 1 0 0
-8.905940 5.410286 0.731504 10.446151 -0.545910 1.500713 0.001618 -0.002194 1121130.000000 1 0 0
1.245760 -10.092814 5.505204 11.563913 -1.447987 1.074619 -0.003358 -0.003708 189969.000000 1 0 0
9.444060 -5.696314 -1.021496 11.076178 -0.542743 1.663152 0.006795 -0.003623 1164160.000000 1 0 0
-7.709440 8.721586 -4.479296 12.472595 -0.846920 1.938133 0.002043 0.000783 30972.200000 1 0 0
-7.474940 -0.073114 -1.671696 7.659938 0.009781 1.790806 0.001715 -0.003550 -2094840.000000 1 0 0
4.156360 8.916886 2.725904 10.208659 1.134616 1.300498 -0.001056 -0.001734 -172357.000000 1 0 0
-1.398040 -10.573014 -3.695996 11.287317 1.439332 1.904396 0.007201 -0.001989 -537755.000000 1 0 0
3.195660 7.810886 -3.655496 9.197001 1.182445 1.979550 0.001487 -0.001250 -315955.000000 1 0 0
-4.287540 1.682086 -11.050396 11.971787 -0.373868 2.746697 0.002129 -0.004960 -663724.000000 1 0 0
1.231460 2.802386 11.022004 11.439162 1.156765 0.270893 -0.002932 -0.002786 791970.000000 1 0 0
2.124960 5.543786 -7.989796 9.954188 1.204765 2.502533 0.002930 0.000775 291301.000000 1 0 0
15.412360 6.102686 4.002704 17.053013 0.377019 1.333865 0.010200 -0.005448 119238.000000 1 0 0
-4.350240 9.086386 4.662904 11.100886 -1.124281 1.137298 0.002940 -0.001888 -533243.000000 1 0 0
-0.858940 -8.323914 -12.403596 14.962437 1.467971 2.548082 -0.001203 0.004718 -373140.000000 1 0 0
14.146560 -4.304514 -5.141796 15.655416 -0.295379 1.905443 0.015300 -0.005923 722595.000000 1 0 0
-5.925240 -6.228814 -5.633796 10.278437 0.810370 2.150909 0.008644 -0.003991 356844.000000 1 0 0
-8.886640 2.590386 -12.279596 15.377612 -0.283633 2.495658 -0.003915 -0.004417 597135.000000 1 0 0
10.560560 5.464186 13.700504 18.140743 0.477482 0.714785 0.018514 0.000311 350862.000000 1 0 0
-0.470640 10.882686 5.543304 12.222216 -1.527577 1.100059 -0.003109 0.003767 884482.000000 1 0 0
0.481960 11.243386 -0.602196 11.269811 1.527956 1.624256 0.001137 -0.000213 -60118.200000 1 0 0
-1.417740 -0.562514 3.640104 3.946741 0.377717 0.396790 0.000687 -0.001138 247774.000000 1 0 0
-4.839140 6.787986 8.926804 12.214002 -0.951466 0.751206 -0.000648 -0.002798 -1966050.000000 1 0 0
3.514260 -8.779714 -11.417096 14.825097 -1.190057 2.449825 -0.010826 0.006869 361921.000000 1 0 0
6.741960 -3.789514 11.928404 14.216232 -0.512070 0.575226 0.006474 -0.000554 -174590.000000 1 0 0
-2.438440 -1.909814 -12.518296 12.895779 0.664420 2.899041 0.004027 -0.003672 910884.000000 1 0 0
-16.075540 -4.795314 5.380304 17.617199 0.289895 1.260437 0.031956 -0.011818 690139.000000 1 0 0
-8.979640 7.287186 5.684304 12.885974 -0.681728 1.113946 -0.009832 0.000811 -2549950.000000 1 0 0
-12.811640 1.509786 6.033604 14.241557 -0.117304 1.133312 -0.003033 -0.003631 367336.000000 1 0 0
-3.536940 3.650186 10.197604 11.394074 -0.801154 0.462383 -0.003485 0.000528 584797.000000 1 0 0
2.030360 -12.274814 -1.071896 12.487689 -1.406872 1.656738 0.006634 -0.003567 -2992170.000000 1 0 0
10.250560 -5.254414 -3.615096 12.072769 -0.473675 1.874904 0.010836 -0.003012 490570.000000 1 0 0
3.180060 -13.425214 1.067704 13.837960 -1.338211 1.493562 0.008421 -0.004467 452582.000000 1 0 0
10.060760 -1.735114 -6.105896 11.895860 -0.170784 2.109798 0.010994 -0.001548 -79158.700000 1 0 0
11.966860 -5.368914 -1.536796 13.205783 -0.421729 1.687434 0.010583 -0.005301 -1105550.000000 1 0 0
1.373960 0.956486 5.952304 6.183247 0.608139 0.274171 -0.004097 -0.002142 474532.000000 1 0 0
-10.814040 11.635586 6.623704 17.210572 -0.821977 1.175737 -0.003444 -0.007563 319448.000000 1 0 0
4.755060 -14.150914 3.121704 15.251361 -1.246625 1.364656 0.006575 -0.002752 -3557090.000000 1 0 0
5.224960 -3.453414 -1.718296 6.494522 -0.584031 1.838561 0.002158 0.002155 -1134440.000000 1 0 0
1.912760 -2.996314 -7.675896 8.459074 -1.002640 2.707889 0.000121 0.001807 -735752.000000 1 0 0
-2.835440 14.695286 -8.839396 17.381774 -1.380190 2.104289 0.006989 -0.010963 -1733490.000000 1 0 0
-2.377440 6.141686 -8.184496 10.505166 -1.201461 2.464013 0.004377 -0.002632 -110588.000000 1 0 0
2.544060 -3.748614 -11.303896 12.177948 -0.974532 2.760414 -0.003294 0.003568 -1122440.000000 1 0 0
14.430260 2.764486 -2.676296 14.934435 0.189282 1.750973 0.012640 0.001569 367927.000000 1 0 0
-3.443940 13.228286 2.226904 13.849454 -1.316104 1.409302 0.003674 0.000679 -584214.000000 1 0 0
7.863360 -5.000114 13.911804 16.744308 -0.566381 0.590185 0.005138 -0.004962 -1894050.000000 1 0 0
-11.416340 7.267886 2.812704 13.822673 -0.566913 1.365880 -0.006627 -0.000775 1267330.000000 1 0 0
-2.279940 11.937786 4.017304 12.800296 -1.382084 1.251557 0.001800 0.000669 373284.000000 1 0 0
1.774660 1.466986 0.679904 2.400778 0.690769 1.283666 -0.004858 0.000530 -1868850.000000 1 0 0
-6.813840 8.614686 5.252704 12.175062 -0.901594 1.124718 -0.001438 -0.003606 -457852.000000 1 0 0
-1.080940 9.168886 1.091104 9.296634 -1.453446 1.453160 0.000283 0.001038 55435.400000 1 0 0
4.782260 12.918386 -8.530596 16.202647 1.216249 2.125268 0.009109 -0.010591 -2489830.000000 1 0 0
8.924360 6.886586 7.148804 13.348208 0.657221 1.005622 -0.003952 -0.001260 -1608920.000000 1 0 0
7.250960 -13.808314 3.039604 15.889781 -1.087259 1.378317 0.013362 -0.005082 303665.000000 1 0 0
4.167960 -13.324514 -1.283296 14.020036 -1.267635 1.662458 0.004324 0.000768 -2974150.000000 1 0 0
12.121560 -11.891214 -4.439096 17.551033 -0.775806 1.826499 0.017055 0.001086 -1090310.000000 1 0 0
2.799060 0.124886 -1.884296 3.376522 0.044587 2.162840 -0.000219 -0.000460 1230220.000000 1 0 0
-13.581740 -3.140614 -10.754796 17.606612 0.227244 2.227916 0.010396 -0.004440 333094.000000 1 0 0
-6.649640 13.696286 4.971904 16.016422 -1.118810 1.255156 0.010509 -0.009364 267046.000000 1 0 0
7.343660 -4.306314 -0.593196 8.533789 -0.530359 1.640364 0.003757 0.001001 -1745310.000000 1 0 0
11.714560 2.184086 -7.332396 13.991611 0.184326 2.122403 0.014269 -0.001236 -1409440.000000 1 0 0
-7.462240 -4.513614 9.757304 13.086738 0.543986 0.729381 -0.001948 0.002904 94682.700000 1 0 0
0.870960 2.891286 8.533504 9.052005 1.278206 0.340105 -0.001705 -0.001949 -1662740.000000 1 0 0
1.602060 8.003386 -8.702196 11.931010 1.373235 2.388206 0.003630 -0.001479 100047.000000 1 0 0
-8.574140 -2.138714 -5.594696 10.458997 0.244449 2.135206 0.008407 -0.002644 -1830620.000000 1 0 0
6.683160 -0.455214 7.179304 9.819075 -0.068009 0.750777 0.001775 -0.001810 313534.000000 1 0 0
-10.937440 6.609386 7.156704 14.646842 -0.543568 1.060292 -0.005332 -0.000986 388021.000000 1 0 0
-5.982340 11.104086 4.800204 13.495595 -1.076630 1.207148 0.000453 -0.003380 110682.000000 1 0 0
5.995660 -1.217514 -6.906496 9.226590 -0.200342 2.416658 -0.000408 0.002794 -984558.000000 1 0 0
4.377860 -5.772014 11.374204 13.485337 -0.921901 0.567124 -0.002474 -0.002814 -1415950.000000 1 0 0
-9.107440 -7.348614 2.749404 12.021099 0.678922 1.340039 0.000467 -0.003943 -2446920.000000 1 0 0
-1.174140 12.777986 -9.375696 15.892112 -1.479166 2.201805 0.009063 -0.000301 567592.000000 1 0 0
-4.475440 9.376886 -2.230296 10.626842 -1.125486 1.782242 0.002917 -0.000651 179643.000000 1 0 0
-3.270540 9.720886 -0.080196 10.256631 -1.246248 1.578615 0.004569 0.001325 -1928230.000000 1 0 0
-3.468340 10.672986 -6.440296 12.939066 -1.256597 2.091788 0.002104 0.002384 702388.000000 1 0 0
4.892760 -4.821414 0.331004 6.877114 -0.778054 1.522647 -0.000134 0.000439 -1652740.000000 1 0 0
-2.295340 2.911386 -10.893196 11.506802 -0.903168 2.813549 0.004851 -0.003275 -1685010.000000 1 0 0
-3.447540 12.067186 -2.101396 12.724715 -1.292514 1.736699 0.000137 0.003366 -1039420.000000 1 0 0
-0.022240 0.382886 -0.078596 0.391502 -1.512775 1.772926 -0.004683 -0.000956 -1865750.000000 1 0 0
-4.809340 -1.678714 0.110304 5.095096 0.335831 1.549146 0.000808 -0.002341 266692.000000 1 0 0
2.627760 2.647686 -2.483496 4.481419 0.789175 2.158169 -0.007610 0.001829 1087550.000000 1 0 0
6.031160 -9.675414 8.478904 14.208460 -1.013385 0.931351 0.000058 -0.003625 -1158100.000000 1 0 0
-4.309540 -5.398414 6.581604 9.541096 0.897094 0.809561 0.001099 -0.001814 18540.600000 1 0 0
-6.268540 5.345686 -12.111396 14.647760 -0.706106 2.544267 -0.001758 -0.003899 119378.000000 1 0 0
-12.765640 3.120286 7.957104 15.362723 -0.239728 1.026345 -0.004340 -0.000850 609997.000000 1 0 0
4.641860 -7.442514 -4.966096 10.079682 -1.013136 2.085968 -0.000305 -0.001636 1453810.000000 1 0 0
-5.994140 2.415886 -1.090696 6.554071 -0.383125 1.737989 0.003876 -0.003401 -486345.000000 1 0 0
-6.854940 -2.670214 -14.578896 16.329864 0.371449 2.674264 0.005786 -0.005075 10321.100000 1 0 0
2.745360 -6.096914 0.994204 6.760015 -1.147704 1.423190 -0.001479 0.000122 97799.000000 1 0 0
4.786160 -7.909814 12.960304 15.919860 -1.026642 0.619625 0.000355 -0.004059 -207893.000000 1 0 0
-10.000140 -1.714314 7.973504 12.904202 0.169779 0.904728 -0.001732 0.001724 -397755.000000 1 0 0
-4.427440 13.323886 -0.067296 14.040395 -1.249982 1.575589 0.001089 0.000652 587029.000000 1 0 0
6.718860 2.104186 -4.490096 8.350547 0.303501 2.138504 0.000674 0.004309 -1691540.000000 1 0 0
4.992660 4.509786 0.069204 6.728269 0.734626 1.560511 -0.003084 0.000911 -1224060.000000 1 0 0
-5.925740 12.338886 1.858504 13.813636 -1.123074 1.435846 0.004290 -0.002844 -30200.300000 1 0 0
6.545060 -7.309614 6.593504 11.821276 -0.840526 0.979105 -0.000873 -0.006250 -1856510.000000 1 0 0
-0.378240 5.027386 7.848704 9.328442 -1.495702 0.570977 -0.007565 -0.000960 -638468.000000 1 0 0
-5.835640 -3.417014 -1.497996 6.926376 0.529721 1.788793 0.004085 -0.004767 -458373.000000 1 0 0
2.223060 -6.641014 -5.252496 8.754072 -1.247774 2.214305 0.000259 -0.000186 -1330240.000000 1 0 0
-14.377840 -4.796714 -3.661696 15.592908 0.322007 1.807841 0.010104 -0.004323 93020.100000 1 0 0
-12.494340 -5.107214 -6.178096 14.844563 0.388037 2.000043 0.007907 -0.004541 -1577150.000000 1 0 0
-14.950540 -3.745414 -1.203696 15.459485 0.245468 1.648737 0.014584 -0.004290 369081.000000 1 0 0
11.915460 2.915986 8.685704 15.030722 0.240006 0.954688 0.009087 -0.004146 -1333480.000000 1 0 0
8.709860 -6.590014 7.719804 13.374801 -0.647722 0.955513 0.007377 -0.007946 -299303.000000 1 0 0
-8.833540 -1.637114 -9.799596 13.294498 0.183250 2.399590 0.004188 -0.001895 89661.400000 1 0 0
-8.806240 5.184886 -3.895196 10.936428 -0.532124 1.934959 0.001354 -0.001270 -335417.000000 1 0 0
-4.205440 -6.249714 4.099304 8.576068 0.978490 1.072428 0.003627 -0.001732 -1007770.000000 1 0 0
-0.295740 -9.097914 3.630604 9.800040 1.538301 1.191283 0.003561 -0.004732 171437.000000 1 0 0
7.899660 -10.408314 3.368904 13.493967 -0.921575 1.318467 0.004247 -0.006187 40968.500000 1 0 0
0.055360 6.679786 9.655904 11.741341 1.562509 0.605206 -0.005265 -0.007037 499643.000000 1 0 0
-0.096740 3.518686 -9.759596 10.374981 -1.543310 2.795442 0.005673 -0.003529 394447.000000 1 0 0
4.489260 -3.113214 11.109404 12.380000 -0.606337 0.457030 0.000210 -0.004388 -2592270.000000 1 0 0
8.537760 -9.177814 1.231004 12.595276 -0.821512 1.472905 0.005147 -0.004148 -1237110.000000 1 0 0
-0.257340 -0.379914 11.388904 11.398144 0.975424 0.040269 -0.001134 -0.001528 -1977860.000000 1 0 0
10.858860 6.052586 11.220704 16.746726 0.508497 0.836556 0.013586 -0.001372 -238326.000000 1 0 0
-6.451240 -2.874314 -11.887896 13.827591 0.419142 2.605523 0.008071 -0.001523 -328168.000000 1 0 0
-1.719740 2.834286 8.278004 8.917176 -1.025419 0.380925 -0.004706 0.000108 -164776.000000 1 0 0
-1.665940 13.505386 -6.852696 15.235821 -1.448063 2.037310 0.006848 -0.000912 125811.000000 1 0 0
7.633060 3.040086 9.742804 12.744722 0.379022 0.700596 0.003190 -0.001659 693578.000000 1 0 0
6.517060 8.466086 -7.934296 13.307882 0.914753 2.209569 0.002621 -0.000906 857002.000000 1 0 0
6.721360 -3.017214 -3.847796 8.311786 -0.421938 2.052097 0.001322 0.002647 -2267760.000000 1 0 0
1.976360 8.296186 1.052404 8.593035 1.336930 1.448016 -0.004034 0.002106 921691.000000 1 0 0
-17.613940 6.314186 6.395204 19.774187 -0.344206 1.241464 0.021104 0.004258 284509.000000 1 0 0
-14.751540 3.007186 -10.363696 18.277235 -0.201100 2.173689 0.027479 -0.001382 -825104.000000 1 0 0
-18.407140 0.193086 -4.256496 18.893858 -0.010489 1.798032 0.041306 -0.005334 527251.000000 1 0 0
-13.113540 7.778886 0.047304 15.247237 -0.535401 1.567694 -0.004681 0.001508 -1508360.000000 1 0 0
-12.619840 -4.639514 -12.674996 18.478122 0.352299 2.326699 0.011245 0.002345 28068.200000 1 0 0
-17.304040 -0.647614 -8.741996 19.397725 0.037408 2.038313 0.021572 -0.004963 -279028.000000 1 0 0
-16.709440 -1.944714 -2.046296 16.946228 0.115863 1.691844 0.021957 -0.005440 -508174.000000 1 0 0
-15.330340 4.007586 1.742204 15.940996 -0.255693 1.461287 0.005684 -0.000911 -1039340.000000 1 0 0
-13.117240 5.917686 4.469504 15.068426 -0.423800 1.269651 -0.003730 -0.001069 448132.000000 1 0 0
-10.047240 14.171786 2.739304 17.586652 -0.954082 1.414399 0.021929 -0.009947 -100896.000000 1 0 0
-11.872340 2.443786 -6.385896 13.700519 -0.203003 2.055681 -0.000352 0.001993 -203727.000000 1 0 0
-15.828340 10.660086 3.868604 19.471515 -0.592705 1.370785 0.002632 0.000323 972025.000000 1 0 0
-12.783440 1.119086 -8.627996 15.463215 -0.087319 2.162733 0.004311 -0.001103 595627.000000 1 0 0
-12.269840 14.305286 3.969804 19.260050 -0.861841 1.363192 0.013984 -0.005117 -418798.000000 1 0 0
-10.639540 11.140086 -1.085996 15.442821 -0.808376 1.641178 0.008839 -0.000995 59643.600000 1 0 0
-16.960340 5.662986 8.803204 19.930352 -0.322257 1.113306 0.015491 -0.001808 399523.000000 1 0 0
-11.864840 12.622786 -9.408596 19.713722 -0.816340 2.068332 0.014707 -0.008463 -296870.000000 1 0 0
-17.178640 -0.444614 3.076604 17.457630 0.025876 1.393638 0.029699 -0.007782 634352.000000 1 0 0
-13.187140 14.997286 -0.647496 19.980954 -0.849535 1.603208 0.031901 -0.005746 414463.000000 1 0 0
-16.448440 4.875286 -10.424696 20.074708 -0.288149 2.116822 0.036503 -0.007505 315584.000000 1 0 0
-11.853740 7.573386 -9.150796 16.781073 -0.568534 2.147549 -0.000283 0.001683 -18086.200000 1 0 0
-14.819440 13.502386 -2.120796 20.160060 -0.738928 1.676189 0.030130 -0.011119 144493.000000 1 0 0
-11.860440 10.611286 -5.428296 16.814750 -0.729867 1.899514 0.007584 -0.004037 923871.000000 1 0 0
-17.576940 2.913586 -1.029496 17.846503 -0.164268 1.628515 0.013816 -0.002314 -431081.000000 1 0 0
-9.546540 15.439186 0.410604 18.156913 -1.017006 1.548180 0.026148 -0.013264 -95698.800000 1 0 0
-8.044240 13.242986 -3.782196 15.949655 -1.024929 1.810210 0.007415 -0.001134 -449751.000000 1 0 0
-17.787840 11.464286 2.141404 21.270231 -0.572500 1.469949 0.050111 0.003101 -107237.000000 1 0 0
-8.239840 15.524386 -7.341696 19.047363 -1.082839 1.966486 0.032746 -0.025227 -216271.000000 1 0 0
-6.262840 15.278386 -5.456596 17.390419 -1.181772 1.889958 0.008983 -0.004387 -23183.700000 1 0 0
-17.404440 5.242986 -0.084796 18.177201 -0.292598 1.575461 0.027672 -0.000631 614509.000000 1 0 0
-5.456140 12.236086 -12.286996 18.178601 -1.151352 2.312987 -0.000899 -0.008353 287890.000000 1 0 0
-11.088140 3.807686 -11.551796 16.458716 -0.330785 2.348809 -0.000040 -0.003639 -248601.000000 1 0 0
-11.800440 11.089286 1.222804 16.239394 -0.754339 1.495426 0.008524 0.000005 -47461.600000 1 0 0
-12.957740 0.196786 -11.077596 17.048604 -0.015186 2.278072 0.010219 -0.004823 994516.000000 1 0 0
-13.838140 -2.333814 -13.305496 19.338486 0.167079 2.329570 0.000601 0.005632 -60807.200000 1 0 0
-18.805040 -2.320914 -3.714296 19.308345 0.122799 1.764370 0.029310 -0.004724 1579150.000000 1 0 0
-18.198440 4.784386 -5.166096 19.513127 -0.257083 1.838741 0.028724 -0.010860 -157006.000000 1 0 0
-8.147640 15.348086 -2.302196 17.528488 -1.082769 1.702517 0.018807 -0.012826 114874.000000 1 0 0
-15.985840 9.053386 -5.238296 19.103681 -0.515300 1.848558 0.011808 -0.002151 -507888.000000 1 0 0
-18.282840 1.757686 2.197204 18.498092 -0.095844 1.451735 0.031191 -0.008309 -418946.000000 1 0 0
-15.593340 -2.728114 -8.568696 18.000484 0.173201 2.066927 0.005938 -0.006122 -798694.000000 1 0 0
-9.833240 10.471886 -7.255196 16.093194 -0.816840 2.038484 0.009971 -0.006501 618980.000000 1 0 0
-13.966440 11.984486 -7.920496 20.035559 -0.709173 1.977215 0.013698 -0.011642 -114994.000000 1 0 0
-11.047240 6.624186 -3.890796 13.455841 -0.540143 1.864138 -0.003858 0.002624 -1919220.000000 1 0 0
-13.238840 4.645186 -12.772596 18.973241 -0.337455 2.309311 0.025241 -0.011686 650658.000000 1 0 0
-17.591540 9.023086 2.709004 19.955377 -0.473932 1.434623 0.020927 -0.002211 798439.000000 1 0 0
-13.290640 8.657686 -6.645596 17.197692 -0.577367 1.967547 -0.003869 -0.000897 -67943.300000 1 0 0
-15.782640 6.906086 -3.851796 17.652821 -0.412473 1.790763 0.008848 0.001980 -1158600.000000 1 0 0
-14.807840 -0.331714 -9.358096 17.520164 0.022398 2.134278 0.015981 -0.006315 -1228990.000000 1 0 0
-10.061740 5.854986 -6.161796 13.171454 -0.527009 2.057613 -0.003282 0.002082 510016.000000 1 0 0
-12.891940 12.327486 -0.840996 17.857108 -0.763020 1.617910 0.017634 -0.003851 233669.000000 1 0 0
-10.534940 3.521386 -14.069196 17.925608 -0.322582 2.473276 -0.003978 -0.001478 210344.000000 1 0 0
-11.230340 6.323586 -12.252296 17.782774 -0.512830 2.330902 0.006578 0.000335 412730.000000 1 0 0
-5.845140 11.548486 -14.944696 19.770613 -1.102249 2.427831 0.001074 -0.007063 -275669.000000 1 0 0
-15.708940 13.256486 3.489404 20.849009 -0.700931 1.402640 0.008325 -0.003319 493342.000000 1 0 0
-14.995640 11.034386 -3.224196 18.895035 -0.634377 1.742273 0.019401 -0.000047 600506.000000 1 0 0
-18.051340 7.787386 -4.755196 20.226373 -0.407281 1.808117 0.020241 -0.001937 -620264.000000 1 0 0
-4.030140 16.068086 -10.692196 19.716706 -1.325049 2.143958 0.012576 -0.013516 -102004.000000 1 0 0
-15.696440 4.348386 -4.494196 16.896287 -0.270253 1.840024 0.012393 -0.001990 855502.000000 1 0 0
-18.521540 -1.561514 -6.236996 19.605762 0.084109 1.894543 0.017736 -0.004486 7223.960000 1 0 0
-10.720040 8.685786 -5.758196 14.950551 -0.680953 1.966166 -0.000324 0.002652 553722.000000 1 0 0
-11.667040 13.609786 -7.029696 19.255200 -0.862106 1.944516 0.019876 -0.005762 40977.900000 1 0 0
-9.378040 10.620886 -4.510896 14.869400 -0.847464 1.879021 0.001027 0.001343 -131258.000000 1 0 0
-11.144140 6.169886 -0.324496 12.742239 -0.505637 1.596265 -0.005757 0.001221 -1446420.000000 1 0 0
-14.582140 9.425986 -1.224596 17.406541 -0.573845 1.641207 0.011273 0.002559 130621.000000 1 0 0
-18.762540 3.454186 4.919704 19.701975 -0.182062 1.318420 0.036639 0.000808 459481.000000 1 0 0
-14.872940 13.299186 0.461404 19.957094 -0.729594 1.547674 0.013227 0.001228 198782.000000 1 0 0
-16.975140 2.718886 -9.077396 19.440855 -0.158820 2.056605 0.036434 -0.005927 -672719.000000 1 0 0
-9.125740 8.423086 -8.909796 15.284371 -0.745380 2.193133 0.001725 0.002101 -2198810.000000 1 0 0
-17.576040 4.813586 -2.674896 18.418547 -0.267317 1.716540 0.015797 -0.001173 683507.000000 1 0 0
-13.486540 5.849686 -4.571296 15.394881 -0.409252 1.872279 -0.000642 0.003562 -2348680.000000 1 0 0
-12.199640 9.601186 3.253704 15.861922 -0.666767 1.364203 -0.004012 0.000798 -136185.000000 1 0 0
-17.594040 2.570686 -3.991896 18.223444 -0.145085 1.791640 0.028345 -0.002136 800817.000000 1 0 0
-11.266940 1.469586 -12.624796 16.984967 -0.129701 2.408775 0.005632 -0.003061 24272.200000 1 0 0
-11.136540 11.942286 3.633804 16.728576 -0.820297 1.351829 0.005253 -0.002531 565172.000000 1 0 0
-16.373940 13.092086 -4.131896 21.367761 -0.674478 1.765393 0.031228 -0.005982 1064520.000000 1 0 0
-11.076440 4.139686 -4.547696 12.669099 -0.357664 1.937949 -0.006292 0.000344 -391777.000000 1 0 0
-11.179840 15.078586 -9.141996 20.878905 -0.932797 2.024011 0.029372 -0.016227 305978.000000 1 0 0
-15.625640 7.207686 -0.293696 17.210393 -0.432189 1.587862 0.014607 0.003462 -1384690.000000 1 0 0
-12.777940 8.447686 -4.085996 15.853533 -0.584149 1.831473 -0.001834 0.002863 748580.000000 1 0 0
-19.366540 1.959986 -5.773296 20.303581 -0.100861 1.859123 0.051924 -0.009897 581803.000000 1 0 0
-12.540440 10.092986 -8.970696 18.428359 -0.677682 2.079205 0.003181 -0.007445 500227.000000 1 0 0
-16.673740 10.952986 -1.210496 19.986166 -0.581211 1.631400 0.020204 -0.000783 254972.000000 1 0 0
-10.686740 6.468886 -14.700896 19.291689 -0.544321 2.437243 0.004240 -0.010008 -4362.980000 1 0 0
-13.799940 12.989786 -4.440396 19.465097 -0.755166 1.800944 0.021573 -0.004967 222732.000000 1 0 0
-18.067640 7.718486 -0.121196 19.647629 -0.403732 1.576965 0.042425 0.002599 -1047620.000000 1 0 0
-12.832740 6.596086 -2.245596 14.602407 -0.474788 1.725192 -0.007165 0.002943 597625.000000 1 0 0
-13.731340 8.435486 -10.752096 19.373041 -0.550885 2.159163 0.009665 -0.008185 -425490.000000 1 0 0
-14.915940 1.539086 -0.969296 15.026430 -0.102820 1.635347 0.004506 -0.003184 -1680080.000000 1 0 0
-13.337040 2.927186 -2.413896 13.866216 -0.216052 1.745773 -0.001850 -0.000074 136361.000000 1 0 0
-11.249140 9.201286 -11.051396 18.257606 -0.685593 2.220944 0.002448 -0.007807 -491226.000000 1 0 0
-15.103740 4.354886 -8.163696 17.712536 -0.280718 2.049805 0.004950 -0.001887 1030280.000000 1 0 0
-18.442840 10.623686 4.538904 21.762415 -0.522610 1.360688 0.048531 -0.008878 650812.000000 1 0 0
-15.312440 6.012786 -6.273396 17.606247 -0.374174 1.935119 0.011041 0.001236 609574.000000 1 0 0
-7.729240 11.269586 -12.974996 18.843971 -0.969631 2.330283 -0.000363 -0.006993 24863.200000 1 0 0
-16.683640 8.986986 -2.728896 19.145669 -0.494103 1.713817 0.014888 -0.001525 664483.000000 1 0 0
-20.662640 -0.948914 -4.872396 21.250539 0.045892 1.802138 0.039094 -0.009006 985954.000000 1 0 0
-15.368840 4.319486 4.248104 16.519855 -0.273987 1.310723 0.006648 0.000817 677176.000000 1 0 0
-7.005140 12.484986 -9.446496 17.151768 -1.059482 2.154070 0.009368 -0.012021 -1536130.000000 1 0 0
-17.166440 1.638586 5.753904 18.179083 -0.095165 1.248746 0.026356 -0.004983 -372925.000000 1 0 0
-10.353240 14.304886 -3.101996 17.928796 -0.944304 1.744689 0.028331 -0.014175 -232030.000000 1 0 0
-10.018940 8.421186 -13.191996 18.582904 -0.698968 2.360152 -0.005985 -0.005111 -24538.400000 1 0 0
-13.710540 11.771486 2.750304 18.278703 -0.709450 1.419758 0.004148 0.000863 -426253.000000 1 0 0
-16.774040 6.705786 1.964004 18.171222 -0.380310 1.462502 0.011819 0.001687 611426.000000 1 0 0
-9.400040 13.240986 -8.421496 18.292241 -0.953444 2.049227 0.021725 -0.017436 1322550.000000 1 0 0
-5.576040 9.784886 -13.006296 17.204649 -1.052832 2.427940 -0.001377 -0.002080 -662376.000000 1 0 0
-15.883640 1.782686 3.134004 16.287725 -0.111766 1.377174 0.012133 -0.006225 -530649.000000 1 0 0
-18.636140 -4.842714 4.515304 19.777401 0.254233 1.340459 0.047820 -0.009671 -1640.400000 1 0 0
-5.310840 14.336886 -9.213796 17.850640 -1.216037 2.113158 0.003928 -0.010043 39414.300000 1 0 0
-15.471040 -0.815314 -6.866196 16.945869 0.052651 1.987976 0.016332 -0.001160 607254.000000 1 0 0
-8.988240 10.927286 -9.626596 17.113311 -0.882456 2.168228 0.006333 -0.011778 536386.000000 1 0 0
-16.775540 1.286186 -6.061596 17.883400 -0.076521 1.916598 0.019711 -0.001389 816020.000000 1 0 0
-11.245140 8.606986 -1.525796 14.242944 -0.653282 1.678129 -0.002552 -0.000391 -547236.000000 1 0 0
-10.704340 10.986586 -12.803996 19.980748 -0.798410 2.266358 0.009267 -0.009442 -476344.000000 1 0 0
-14.015640 11.757986 -10.546496 21.116747 -0.698026 2.093746 0.023092 -0.015841 481790.000000 1 0 0
-13.076840 5.938586 -7.769696 16.329076 -0.426283 2.066692 0.002683 0.002333 -1577830.000000 1 0 0
-8.874240 15.497686 -4.837096 18.502106 -1.050755 1.835305 0.020763 -0.013520 884618.000000 1 0 0
-8.679840 6.092586 -12.983996 16.764349 -0.612016 2.456721 -0.003540 -0.005300 -118552.000000 1 0 0
-16.261040 7.544986 4.399304 18.458118 -0.434428 1.330140 0.011523 0.002489 545939.000000 1 0 0
-12.710040 5.469486 -10.331496 17.268475 -0.406375 2.212157 0.008388 0.002087 66120.100000 1 0 0
-12.526240 9.105886 -13.382796 20.467611 -0.628582 2.283461 0.028061 -0.017367 132281.000000 1 0 0
-10.767640 5.183686 -8.595696 14.720689 -0.448668 2.194345 -0.002985 0.005477 -1353910.000000 1 0 0
-17.684740 -4.346914 -2.579796 18.392962 0.241022 1.711520 0.014902 -0.008017 165049.000000 1 0 0
-8.922240 13.223586 -10.999896 19.376979 -0.977238 2.174480 0.021931 -0.016332 52280.200000 1 0 0
-15.064440 6.130386 6.183904 17.399990 -0.386478 1.207458 0.002250 -0.001351 -1778950.000000 1 0 0
-16.306940 -3.013814 -4.419496 17.161915 0.182756 1.831249 0.013722 -0.004957 349920.000000 1 0 0
-11.172940 -1.150314 -12.554796 16.845793 0.102594 2.411748 0.008858 -0.002841 412066.000000 1 0 0
-15.310940 6.914786 -8.638596 18.890858 -0.424203 2.045742 0.007501 0.001780 -236935.000000 1 0 0
-14.849140 9.189986 1.222504 17.505637 -0.554194 1.500905 0.005826 0.000217 -230440.000000 1 0 0
-19.413840 5.239786 7.958004 21.625965 -0.263618 1.193957 0.037201 -0.004934 -701128.000000 1 0 0
-16.393140 0.610586 0.836604 16.425826 -0.037229 1.519842 0.023147 -0.007739 -229236.000000 1 0 0
-17.414740 3.823486 7.105604 19.193276 -0.216125 1.191558 0.015937 0.004725 532126.000000 1 0 0
-15.364940 4.240786 -1.367996 15.998033 -0.269299 1.656411 0.007944 -0.000125 -1095450.000000 1 0 0
-10.765640 13.303586 0.410104 17.118779 -0.890454 1.546838 0.020774 -0.008407 -1180540.000000 1 0 0
-13.417740 3.378486 0.091704 13.836847 -0.246665 1.564169 -0.001396 -0.000944 -259890.000000 1 0 0
-15.161440 0.142686 -4.348796 15.773448 -0.009411 1.850118 0.012952 0.000784 -507493.000000 1 0 0
-18.719540 6.862186 3.638704 20.266992 -0.351367 1.390279 0.022378 -0.000157 98439.500000 1 0 0
-14.092640 1.306986 -6.398096 15.532107 -0.092478 1.995364 0.005409 0.001268 98645.000000 1 0 0
-14.173940 12.116286 5.261804 19.375024 -0.707290 1.295765 -0.002153 -0.006087 -2027.610000 1 0 0
17.663960 5.324386 6.134304 19.442074 0.292765 1.249795 0.042528 -0.010934 -1324750.000000 1 0 0
18.595360 7.703186 -0.292596 20.129880 0.392733 1.585332 0.030035 0.012820 798418.000000 1 0 0
16.488960 5.116786 8.428304 19.212069 0.300894 1.116647 0.047444 -0.008474 242394.000000 1 0 0
11.859960 12.143286 10.887204 20.165546 0.797201 1.000488 0.031922 -0.010564 343219.000000 1 0 0
-2.449040 16.369786 -0.608696 16.563158 -1.422290 1.607555 0.003771 -0.001990 37400.500000 1 0 0
15.264060 12.566586 3.155904 20.021746 0.688775 1.412512 0.031110 0.003955 606258.000000 1 0 0
13.383660 11.669786 6.635104 18.956024 0.717096 1.213197 0.022584 -0.001811 620265.000000 1 0 0
-0.595440 15.900086 8.577204 18.075832 -1.533365 1.076386 0.004999 -0.007315 121203.000000 1 0 0
0.760060 12.889086 9.403604 15.972914 1.511895 0.941320 -0.002735 -0.006032 -2036570.000000 1 0 0
0.652860 15.698286 -3.818396 16.169185 1.529232 1.809201 -0.001182 -0.003605 -2099220.000000 1 0 0
5.486760 10.339586 13.598404 17.942356 1.082926 0.710718 0.009629 -0.009514 254674.000000 1 0 0
-1.507840 16.653286 -2.931996 16.976517 -1.480499 1.744376 0.001687 0.002636 -1073910.000000 1 0 0
8.700060 10.161986 3.317804 13.782772 0.862750 1.327688 0.003974 0.001992 449739.000000 1 0 0
12.615860 13.565286 -4.948896 19.174683 0.821646 1.831847 0.045809 -0.016894 -124786.000000 1 0 0
2.324360 11.678186 7.630204 14.142230 1.374329 1.000914 -0.002254 0.000667 465501.000000 1 0 0
-0.332540 14.953586 -8.690296 17.298600 -1.548562 2.097134 0.008562 -0.005563 -1464680.000000 1 0 0
2.358660 15.909186 0.248204 16.084995 1.423611 1.555365 0.006130 -0.007116 -701679.000000 1 0 0
2.036660 13.503586 5.236104 14.625717 1.421101 1.204664 0.002527 -0.001833 350875.000000 1 0 0
17.524460 9.120386 -2.110596 19.868134 0.479864 1.677227 0.019182 0.007099 627184.000000 1 0 0
-7.177440 14.941886 7.275204 18.102602 -1.122986 1.157219 0.011186 -0.012699 -216619.000000 1 0 0
8.606360 15.915286 -0.212396 18.094498 1.075074 1.582535 0.004059 -0.004682 74497.500000 1 0 0
15.627260 10.237386 2.043204 18.793350 0.579951 1.461862 0.020066 0.001248 929550.000000 1 0 0
14.154860 7.444786 8.703404 18.208078 0.484194 1.072424 0.027391 -0.005538 -1106550.000000 1 0 0
4.174460 18.701286 -2.174896 19.284563 1.351179 1.683816 0.018300 -0.006864 -327119.000000 1 0 0
-0.501140 17.641686 -4.961596 18.332966 -1.542397 1.844852 0.013864 -0.001224 608218.000000 1 0 0
1.341460 13.685086 -0.663496 13.766674 1.473085 1.619011 0.001659 -0.003550 589468.000000 1 0 0
10.248160 14.875686 4.113504 18.526514 0.967545 1.346897 0.009919 -0.001746 962913.000000 1 0 0
-1.707740 15.371286 -5.129296 16.294247 -1.460151 1.891034 0.005567 -0.003292 444789.000000 1 0 0
15.073660 8.749086 -6.228496 18.508265 0.525900 1.914021 0.035916 -0.006468 888787.000000 1 0 0
-2.380140 18.542986 0.937104 18.718588 -1.443136 1.520713 0.009736 -0.008236 684319.000000 1 0 0
-3.786740 19.207886 3.499904 19.887976 -1.376147 1.393894 0.027236 -0.023748 -730037.000000 1 0 0
1.784860 17.682986 -2.646896 17.968856 1.470200 1.718639 0.004606 -0.006490 -348447.000000 1 0 0
2.914860 12.289586 3.273404 13.047816 1.337918 1.317210 -0.000857 -0.000102 -283539.000000 1 0 0
-2.562240 16.141686 1.897804 16.453594 -1.413375 1.455196 0.010302 -0.008488 -1339150.000000 1 0 0
11.795360 12.720886 -2.725896 17.560807 0.823132 1.726653 0.016050 -0.003072 384021.000000 1 0 0
7.304760 11.637986 4.801104 14.555165 1.010283 1.234646 -0.001989 0.001532 -81817.800000 1 0 0
7.140560 15.695386 1.879304 17.345446 1.143837 1.462238 -0.000723 -0.002367 -501544.000000 1 0 0
5.576660 12.113386 10.242104 16.814694 1.139351 0.915851 0.006442 -0.002902 834730.000000 1 0 0
-1.311940 14.203986 3.158904 14.610033 -1.478693 1.352861 0.004213 -0.001976 -1258100.000000 1 0 0
4.607760 15.957986 1.592604 16.686076 1.289699 1.475206 0.001871 -0.009704 -2346600.000000 1 0 0
7.531660 13.099486 11.904504 19.236414 1.048993 0.903515 0.016578 -0.007539 274344.000000 1 0 0
0.764060 17.231486 -9.363996 19.626317 1.526484 2.068165 0.016112 -0.007091 298622.000000 1 0 0
9.851960 9.516886 15.486504 20.675203 0.768100 0.724188 0.021234 -0.010103 183879.000000 1 0 0
13.472160 7.492386 -0.117996 15.415864 0.507544 1.578451 0.002152 0.003110 210554.000000 1 0 0
12.423160 13.599086 -0.183496 18.420198 0.830557 1.580758 0.019269 0.001119 375343.000000 1 0 0
9.343160 12.523586 3.438504 15.998692 0.929831 1.354182 0.002238 0.004633 708264.000000 1 0 0
-0.573640 12.870486 0.880404 12.913310 -1.526256 1.502565 0.005842 -0.000160 -1406790.000000 1 0 0
15.958660 7.393686 -0.866096 17.609530 0.433861 1.620000 0.016065 0.006497 -353170.000000 1 0 0
-4.185340 18.626686 -2.452096 19.247942 -1.349771 1.698539 0.005458 -0.002783 59639.400000 1 0 0
11.521760 9.183686 -3.319896 15.103402 0.672954 1.792417 0.011578 -0.001416 -7348.530000 1 0 0
14.731660 9.690586 7.622504 19.210201 0.581844 1.162774 0.031488 -0.006674 242121.000000 1 0 0
4.573360 13.757386 4.667504 15.230459 1.249860 1.259326 0.000878 0.000150 -413277.000000 1 0 0
2.318360 16.026686 5.660404 17.154289 1.427137 1.234524 0.002332 -0.003932 420123.000000 1 0 0
6.175860 18.553786 5.342404 20.271297 1.249470 1.304101 0.012562 -0.012758 -277779.000000 1 0 0
10.772160 17.053486 -1.187996 20.205745 1.007416 1.629625 0.024208 -0.012559 -68572.100000 1 0 0
9.984860 13.547186 -4.478696 17.415005 0.935639 1.830894 0.022206 -0.009702 2061990.000000 1 0 0
16.717360 7.828486 2.371204 18.611231 0.437955 1.443042 0.019227 0.002880 474605.000000 1 0 0
3.994960 14.121786 -0.644496 14.690130 1.295107 1.614683 0.001917 -0.004235 -188022.000000 1 0 0
5.704960 13.200186 -2.352696 14.571433 1.162853 1.732966 -0.000530 -0.003633 -865311.000000 1 0 0
-6.290040 17.038286 -2.974996 18.404304 -1.217146 1.733155 0.015153 -0.004820 -715158.000000 1 0 0
18.145560 9.959686 2.739004 20.879627 0.501981 1.439236 0.032028 0.002237 633749.000000 1 0 0
7.960360 12.934486 9.384804 17.853369 1.019103 1.017305 0.005671 -0.001035 -582846.000000 1 0 0
-2.493440 15.764286 6.733804 17.322646 -1.413926 1.171545 0.006154 -0.008896 287848.000000 1 0 0
11.259760 16.026186 6.281604 20.568893 0.958337 1.260445 0.018338 -0.000605 -45323.100000 1 0 0
13.607060 11.781686 1.199504 18.038819 0.713625 1.504252 0.023827 0.001634 612488.000000 1 0 0
17.555360 7.933686 -5.507696 20.036685 0.424453 1.849262 0.030775 0.011854 -14111.200000 1 0 0
9.405760 9.292286 7.976204 15.441331 0.779329 1.027981 0.002251 0.001241 -989371.000000 1 0 0
-1.995740 14.291186 -2.045796 14.574164 -1.432045 1.711633 -0.000351 -0.001683 644164.000000 1 0 0
10.980960 11.576586 0.774604 15.974944 0.811797 1.522289 0.008338 0.004762 -359635.000000 1 0 0
11.769660 9.701986 -0.627296 15.265874 0.689396 1.611899 0.004654 0.004494 -694267.000000 1 0 0
-0.209040 16.454886 11.089904 19.844216 -1.558093 0.977800 0.004712 -0.004727 -262251.000000 1 0 0
2.081560 20.157286 -1.758596 20.340642 1.467895 1.657362 0.022337 -0.010095 -270176.000000 1 0 0
9.416160 14.410286 1.638004 17.291716 0.992011 1.475926 0.004012 0.005052 -478339.000000 1 0 0
8.415860 11.652286 -5.211696 15.289350 0.945293 1.918640 0.009738 -0.006448 -697639.000000 1 0 0
10.627360 10.018686 10.233204 17.833488 0.755925 0.959634 0.005364 -0.003136 115399.000000 1 0 0
-5.037840 15.735186 5.818904 17.516722 -1.260945 1.232170 0.000026 -0.011423 -369975.000000 1 0 0
14.311760 9.040986 -2.032696 17.049860 0.563415 1.690301 0.020822 0.001232 -467398.000000 1 0 0
12.171060 9.434686 6.941304 16.891705 0.659419 1.147323 0.006626 -0.001926 -1769790.000000 1 0 0
3.251660 12.840986 9.748604 16.446868 1.322785 0.936348 0.000242 -0.007442 -131230.000000 1 0 0
8.407460 12.631686 -2.666996 15.406419 0.983543 1.744782 0.005325 -0.004089 -1661890.000000 1 0 0
9.382460 17.023286 1.987804 19.539042 1.067067 1.468885 -0.002762 0.001152 -423246.000000 1 0 0
9.385460 14.143986 -7.503496 18.559139 0.984944 1.987012 0.026953 -0.017490 -206879.000000 1 0 0
6.407760 11.504086 7.306804 15.059640 1.062596 1.064215 0.000477 0.001880 -1099460.000000 1 0 0
5.309360 16.942986 -5.568396 18.608092 1.267122 1.874699 0.012562 -0.006113 -101354.000000 1 0 0
-4.328140 17.296786 -4.694296 18.437679 -1.325603 1.828234 0.004538 -0.002705 186314.000000 1 0 0
-0.148840 18.511586 -0.440196 18.517417 -1.562756 1.594571 0.008398 -0.011107 -526014.000000 1 0 0
6.458460 15.728586 -2.868996 17.243296 1.181169 1.737957 0.001976 -0.000690 -111845.000000 1 0 0
-0.771840 20.729386 0.792104 20.758868 -1.533579 1.532630 0.015900 -0.007613 -33792.600000 1 0 0
-1.350540 18.946486 4.294204 19.473918 -1.499635 1.348458 0.012864 -0.011812 468258.000000 1 0 0
7.211660 13.796686 -4.376996 16.171415 1.089147 1.844878 0.007708 -0.005086 -1226150.000000 1 0 0
-1.003640 11.996186 7.664604 14.271017 -1.487327 1.003831 -0.000866 0.002589 242068.000000 1 0 0
7.706060 10.816586 10.881704 17.169547 0.951777 0.884367 0.003016 -0.004534 129605.000000 1 0 0
1.445660 15.997886 -7.245196 17.621440 1.480675 1.994520 0.006479 -0.009622 120849.000000 1 0 0
8.936560 7.195186 14.672004 18.625265 0.677868 0.663653 0.016050 -0.007964 109071.000000 1 0 0
11.383460 11.297986 -4.989796 16.796598 0.781630 1.872421 0.028105 -0.010375 224031.000000 1 0 0
-3.266840 17.023686 4.529404 17.916295 -1.381202 1.315214 0.008644 -0.010626 -633585.000000 1 0 0
3.992460 15.298286 -6.802296 17.211871 1.315516 1.977092 0.012288 -0.011816 189023.000000 1 0 0
-4.346040 14.177986 9.311204 17.510050 -1.273356 1.010115 0.013990 -0.014615 640515.000000 1 0 0
6.136460 17.628586 0.327504 18.668970 1.235818 1.553253 -0.000728 -0.012708 -154791.000000 1 0 0
9.829560 10.752386 -2.158596 14.727307 0.830205 1.717897 0.008096 -0.000237 -273432.000000 1 0 0
7.391660 18.073986 -2.516896 19.688585 1.182584 1.698982 0.011441 -0.004260 108301.000000 1 0 0
3.539360 10.329586 10.621904 15.233261 1.240691 0.799195 0.000435 0.000993 1493270.000000 1 0 0
0.021560 18.630786 2.090704 18.747738 1.569639 1.459046 0.010807 -0.014098 237166.000000 1 0 0
-1.006640 17.137286 -7.417296 18.700700 -1.512124 1.978641 0.017057 -0.006160 294858.000000 1 0 0
10.322560 8.722086 13.082704 18.809231 0.701557 0.801615 0.022985 -0.007931 150329.000000 1 0 0
3.725660 11.395786 5.472604 13.179297 1.254817 1.142587 -0.003657 0.001572 593943.000000 1 0 0
12.970760 13.758686 8.152504 20.591390 0.814867 1.163729 0.025296 -0.011894 -353536.000000 1 0 0
-0.386640 17.402286 6.705904 18.653637 -1.548582 1.203069 0.005507 -0.012528 -492817.000000 1 0 0
12.147660 13.736886 5.666604 19.193178 0.846718 1.271089 0.015252 -0.002431 -411569.000000 1 0 0
4.840960 14.539286 -4.447296 15.956321 1.249384 1.853254 0.000421 -0.004602 -1462580.000000 1 0 0
3.863460 17.732986 4.528304 18.705364 1.356280 1.326281 0.010208 -0.008204 -912380.000000 1 0 0
7.122360 11.775586 2.086604 13.919280 1.026825 1.420322 0.003248 0.001782 360159.000000 1 0 0
6.386660 8.728386 11.709104 15.939801 0.939103 0.745745 0.003707 -0.004114 201378.000000 1 0 0
-5.409140 14.937386 1.760504 15.983856 -1.223364 1.460430 0.008919 -0.002125 -75681.100000 1 0 0
6.824060 13.868886 6.001804 16.581177 1.113536 1.200421 -0.000586 -0.001492 -537916.000000 1 0 0
5.841160 15.957286 4.967604 17.703988 1.219895 1.286385 -0.001265 -0.007162 497424.000000 1 0 0
1.262860 18.053186 4.282504 18.597101 1.500958 1.338433 0.013156 -0.009934 243163.000000 1 0 0
7.074660 18.182786 -7.089996 20.758915 1.199734 1.919351 0.012950 -0.000498 237134.000000 1 0 0
-2.594640 18.817686 -5.934096 19.901029 -1.433777 1.873582 0.013273 -0.001374 -50531.500000 1 0 0
13.552560 9.976586 -4.548496 17.432526 0.634572 1.834772 0.028788 -0.006232 -1866130.000000 1 0 0
-1.581040 18.099886 9.638004 20.566883 -1.483667 1.083071 0.013443 -0.017522 -304927.000000 1 0 0
3.509160 11.872586 -1.595896 12.482763 1.283410 1.698995 0.003007 -0.004508 -123373.000000 1 0 0
4.294860 13.951086 -10.890496 18.212126 1.272152 2.211775 0.012887 -0.015790 -63523.400000 1 0 0
11.658860 13.368686 2.318604 17.889290 0.853610 1.440822 0.016776 0.000480 1119660.000000 1 0 0
15.997460 6.447186 -7.056196 18.635311 0.383101 1.959130 0.027690 -0.000247 406270.000000 1 0 0
2.510460 16.115186 2.981304 16.579801 1.416256 1.389998 0.007601 -0.008171 -89566.600000 1 0 0
13.486060 10.610186 3.460004 17.504899 0.666611 1.371827 0.014181 0.007213 -394588.000000 1 0 0
-5.076340 19.455486 -6.002596 20.983716 -1.315566 1.860909 0.003617 -0.008258 244295.000000 1 0 0
5.490960 12.092586 0.048304 13.280949 1.144558 1.567159 -0.000080 -0.001491 770005.000000 1 0 0
4.400460 15.580086 9.531904 18.787238 1.295525 1.038677 0.003520 -0.002144 -687886.000000 1 0 0
7.898960 9.503986 13.768404 18.501034 0.877365 0.731465 0.010422 -0.011538 -1158910.000000 1 0 0
-5.091040 13.520586 6.912004 16.015640 -1.210676 1.124555 0.004281 -0.006660 -2282450.000000 1 0 0
-4.576540 17.219086 0.497504 17.823837 -1.311019 1.542880 0.010912 -0.006601 -2746170.000000 1 0 0
-0.625040 16.583686 3.584804 16.978225 -1.533124 1.358054 0.009879 -0.010255 -1705750.000000 1 0 0
7.794160 16.959386 -4.889196 19.294402 1.140006 1.826989 0.006580 -0.004795 606482.000000 1 0 0
2.938560 16.402186 -4.641396 17.297670 1.393520 1.842450 -0.000171 -0.005044 836509.000000 1 0 0
9.510660 14.376786 8.139704 19.063037 0.986359 1.129636 0.012128 -0.004626 261054.000000 1 0 0
12.752660 10.793186 8.993304 18.973737 0.702370 1.076983 0.025231 -0.009622 -356534.000000 1 0 0
3.889860 12.373486 12.203604 17.809045 1.266208 0.815853 0.008178 -0.003738 815314.000000 1 0 0
-3.257640 19.185586 5.978604 20.357864 -1.402604 1.272727 0.018263 -0.016128 77836.700000 1 0 0
-2.621140 15.853686 10.212704 19.039670 -1.406945 1.004642 0.009653 -0.010487 -54750.400000 1 0 0
2.081260 14.278086 7.707704 16.358608 1.426050 1.080178 0.001249 -0.004895 -350421.000000 1 0 0
4.609760 17.353286 7.741004 19.552738 1.311151 1.163744 0.015670 -0.013958 -24019.600000 1 0 0
-1.776940 13.507986 9.422004 16.564943 -1.440000 0.965760 0.005437 -0.005981 -779283.000000 1 0 0
5.916760 17.726986 2.960604 18.921396 1.248652 1.413682 -0.000584 -0.012995 638520.000000 1 0 0
7.141760 15.517486 -6.895096 18.421169 1.139460 1.954441 0.013352 -0.004372 -323756.000000 1 0 0
10.930660 7.656386 9.370804 16.306794 0.611028 0.958612 0.002196 -0.002082 -197815.000000 1 0 0
9.017260 16.040486 -2.818196 18.615864 1.058668 1.722767 0.010337 -0.019612 -982320.000000 1 0 0
14.500560 11.254586 -6.658796 19.526175 0.660027 1.918797 0.049417 -0.012294 401669.000000 1 0 0
11.084660 6.355586 16.020304 20.491786 0.520607 0.673263 0.026044 -0.010717 -499204.000000 1 0 0
8.549360 8.486286 10.241304 15.811164 0.781696 0.866200 0.002499 -0.001494 186686.000000 1 0 0
16.185260 9.451586 4.438204 19.261172 0.528544 1.338285 0.020049 0.001887 26865.600000 1 0 0
-3.280640 14.237186 4.752104 15.363676 -1.344322 1.256331 0.002562 -0.004093 -1291050.000000 1 0 0
4.969360 14.626686 12.614304 19.943799 1.243285 0.886029 0.013680 -0.006733 -938517.000000 1 0 0
16.102460 10.640886 -4.751596 19.877005 0.583947 1.812184 0.049362 -0.010294 623487.000000 1 0 0
14.716960 13.831886 6.093604 21.096018 0.754406 1.277770 0.030939 -0.003968 437059.000000 1 0 0
6.229060 9.513186 9.213404 14.635187 0.991067 0.889838 0.001401 -0.001975 906524.000000 1 0 0
10.471760 12.148686 8.722404 18.257290 0.859396 1.072706 0.014235 -0.003964 -530386.000000 1 0 0
8.003360 11.479286 -0.328996 13.997714 0.961952 1.594302 0.005610 -0.001160 -165136.000000 1 0 0
7.233460 13.692786 -8.806096 17.814675 1.084791 2.087845 0.015798 -0.003553 29544.600000 1 0 0
2.753760 15.356386 -2.263496 15.764682 1.393359 1.714874 0.002982 -0.004111 532196.000000 1 0 0
11.915260 13.496786 -7.688796 19.576880 0.847553 1.974415 0.023088 -0.019477 -416829.000000 1 0 0
-8.052440 14.701786 9.727404 19.380575 -1.069706 1.044985 0.025517 -0.023160 237236.000000 1 0 0
11.576760 9.526686 2.137204 15.144198 0.688558 1.429200 0.012962 0.004328 -1444410.000000 1 0 0
12.065160 8.567386 4.477504 15.460149 0.617468 1.276971 0.006706 0.000949 512309.000000 1 0 0
14.031660 7.906886 6.037404 17.200481 0.513151 1.212155 0.011430 -0.002846 -2451910.000000 1 0 0
16.180160 7.314286 7.185304 19.155285 0.424560 1.186283 0.049423 -0.006462 -430840.000000 1 0 0
13.688560 8.196486 2.384904 16.132167 0.539525 1.422417 0.005589 0.006000 -2275290.000000 1 0 0
-4.222240 17.375486 -7.314696 19.319410 -1.332417 1.959100 0.003180 -0.012866 -43801.000000 1 0 0
2.756960 19.546086 -4.214396 20.184435 1.430672 1.781138 0.012015 -0.008197 472401.000000 1 0 0
0.006860 14.868086 6.206804 16.111624 1.570335 1.175331 0.006834 -0.005599 -235561.000000 1 0 0
6.756260 16.049686 8.484304 19.370670 1.172353 1.117426 0.015902 -0.010328 -177168.000000 1 0 0
12.826060 15.079686 -2.219996 19.920670 0.865982 1.682470 0.041379 -0.011406 -263814.000000 1 0 0
12.725760 15.899886 4.201404 20.794305 0.895831 1.367350 0.024911 0.004975 345876.000000 1 0 0
2.997560 18.078086 1.322204 18.372555 1.406480 1.498768 0.013860 -0.013011 -510276.000000 1 0 0
10.420360 14.466286 -1.408296 17.884088 0.946562 1.649624 0.013611 0.001567 -1929000.000000 1 0 0
-6.316240 15.773186 -0.582596 17.000815 -1.189909 1.605072 0.007116 -0.006857 -396961.000000 1 0 0
-3.978240 15.942486 -2.658596 16.645041 -1.326253 1.731206 0.007304 -0.003616 -2103030.000000 1 0 0
-6.851840 17.106586 1.709304 18.506883 -1.189826 1.478304 0.014100 -0.005352 426896.000000 1 0 0
-0.075940 19.461986 -6.632096 20.561113 -1.566894 1.899224 0.022162 -0.006585 346997.000000 1 0 0
4.828860 14.886586 7.055504 17.167075 1.257128 1.147256 0.007745 -0.007058 -1036690.000000 1 0 0
8.739960 12.343786 6.875304 16.614022 0.954691 1.144144 0.006622 -0.001703 -75608.000000 1 0 0
-7.565040 17.433986 -5.783096 19.864992 -1.161391 1.866194 0.023896 -0.017842 224204.000000 1 0 0
-7.965140 17.638086 -1.158996 19.387852 -1.146623 1.630612 0.034297 -0.017839 -448682.000000 1 0 0
-13.738040 -9.087314 9.285404 18.908510 0.584397 1.057479 0.036583 -0.004396 -360082.000000 1 0 0
-12.734340 -12.842114 7.601704 19.618084 0.789612 1.172895 0.033018 -0.002336 274774.000000 1 0 0
-3.784040 -15.156114 12.526904 20.023738 1.326127 0.894893 -0.003794 -0.004383 322770.000000 1 0 0
-2.157340 -14.181014 14.914704 20.693083 1.419825 0.765901 0.007610 -0.007836 -1470840.000000 1 0 0
-7.111340 -13.627014 12.737204 19.962541 1.089817 0.878826 0.011255 -0.012226 174970.000000 1 0 0
-9.885840 -11.619814 9.004204 17.715124 0.865853 1.037613 0.011380 -0.001393 192115.000000 1 0 0
-10.511940 -10.641514 11.274204 18.731001 0.791524 0.924917 0.030358 -0.007989 326980.000000 1 0 0
-5.788340 -12.325114 10.846704 17.408742 1.131732 0.898147 0.005353 -0.002737 549026.000000 1 0 0
-12.524340 -10.266414 7.324604 17.773806 0.686648 1.146038 0.017533 -0.002714 -348272.000000 1 0 0
-7.428340 -11.083214 12.505804 18.286963 0.980329 0.817750 0.002223 -0.009027 80293.000000 1 0 0
-14.884040 -11.322214 7.472204 20.138546 0.650311 1.190668 0.045965 0.005314 661421.000000 1 0 0
-11.114540 -9.187314 9.153504 17.079999 0.690753 1.005200 0.014506 -0.003811 -1046000.000000 1 0 0
-5.161740 -12.013214 13.321704 18.666244 1.164975 0.776060 0.003744 -0.005637 -938195.000000 1 0 0
3.961360 -12.394614 14.837404 19.734928 -1.261453 0.719956 0.001642 -0.004964 -639479.000000 1 0 0
6.510560 -12.697714 14.227104 20.150181 -1.097013 0.786887 0.015336 -0.004822 -681724.000000 1 0 0
6.587260 -8.546514 16.118004 19.396519 -0.914144 0.589940 0.005513 -0.002942 -129607.000000 1 0 0
0.670460 -1.721514 14.536504 14.653432 -1.199410 0.126414 -0.005326 -0.005067 -2324540.000000 1 0 0
-0.127740 -6.434114 15.515004 16.796710 1.550945 0.393186 -0.002587 -0.007038 -862999.000000 1 0 0
-1.371140 -4.766214 18.226904 18.889596 1.290681 0.265667 0.012531 -0.020323 -2105070.000000 1 0 0
-5.117340 12.719286 12.920804 18.839176 -1.188284 0.815029 0.014735 -0.012491 -1141210.000000 1 0 0
-3.981940 8.880086 11.562704 15.113169 -1.149263 0.699639 -0.003750 -0.004241 -140268.000000 1 0 0
-0.642940 -3.970214 15.056204 15.584134 1.410249 0.261033 -0.002355 -0.003810 -359010.000000 1 0 0
-4.356040 9.288386 14.189504 17.509746 -1.132274 0.626000 -0.000106 -0.006260 270297.000000 1 0 0
-13.452840 -2.663814 16.930204 21.787763 0.195483 0.680829 0.034674 -0.004370 -256124.000000 1 0 0
-0.192640 0.814186 17.269204 17.289459 -1.338464 0.048411 0.001133 -0.001319 -1680890.000000 1 0 0
-3.316240 -7.181114 15.447504 17.354862 1.138173 0.473239 0.003608 -0.007096 122737.000000 1 0 0
-7.390040 5.606886 12.559604 15.613888 -0.649051 0.636154 -0.008551 0.000410 -2589210.000000 1 0 0
-9.917840 10.346186 13.266004 19.529311 -0.806533 0.824006 0.016498 -0.017556 810215.000000 1 0 0
-5.467440 2.259486 11.172804 12.642378 -0.391887 0.486963 -0.003407 0.000877 -600481.000000 1 0 0
-6.972740 -7.325714 16.916604 19.709304 0.810079 0.538838 0.019258 -0.016309 -355822.000000 1 0 0
-4.636440 2.540186 18.566904 19.304897 -0.501210 0.277396 0.003501 -0.005563 -303541.000000 1 0 0
1.149160 -8.397014 16.447804 18.502991 -1.434788 0.475800 -0.001675 -0.006251 354813.000000 1 0 0
-15.044140 -3.630614 13.791404 20.729456 0.236803 0.842894 0.040776 -0.013297 -404014.000000 1 0 0
-14.225240 2.083486 13.082704 19.438506 -0.145430 0.832498 0.009456 -0.001333 -183449.000000 1 0 0
-5.454640 1.020686 16.087804 17.018000 -0.184983 0.332159 0.009160 -0.005470 680267.000000 1 0 0
4.504060 5.746486 15.041804 16.720183 0.906016 0.451899 -0.003268 -0.005890 305681.000000 1 0 0
-1.233740 -12.007514 13.919704 18.424458 1.468408 0.714377 -0.008170 -0.002637 286533.000000 1 0 0
-5.878240 -4.032314 16.728504 18.183952 0.601250 0.402819 0.019581 -0.015801 452765.000000 1 0 0
-12.800140 -1.533314 9.891504 16.249200 0.119221 0.916328 0.006558 0.000343 -542197.000000 1 0 0
-14.559040 10.432686 10.282004 20.652510 -0.621766 1.049670 0.005346 -0.002783 335225.000000 1 0 0
-3.458140 -3.308214 17.628204 18.266269 0.763244 0.265091 0.012235 -0.016796 -11438.700000 1 0 0
-7.918640 9.395386 11.847404 17.068659 -0.870484 0.803624 -0.000125 -0.012845 -70994.400000 1 0 0
-4.255440 10.773686 16.263104 19.966713 -1.194621 0.618911 0.010138 -0.005414 196804.000000 1 0 0
-12.492540 12.707186 8.417404 19.707583 -0.793916 1.129497 0.005314 -0.012018 -204760.000000 1 0 0
-12.546140 3.236086 10.576004 16.725123 -0.252433 0.886223 0.001836 0.004056 843761.000000 1 0 0
-10.062540 -3.465214 13.695904 17.344746 0.331648 0.660593 0.009609 -0.001147 -1090940.000000 1 0 0
-4.131140 -6.268314 17.812904 19.330226 0.988084 0.398858 0.014948 -0.010428 -309749.000000 1 0 0
0.954360 -3.726014 17.726904 18.139380 -1.320053 0.213663 0.002574 -0.012384 -787950.000000 1 0 0
-5.823340 1.827986 13.675404 14.975630 -0.304166 0.419784 -0.000680 0.001456 -864601.000000 1 0 0
-10.432940 8.717986 10.171904 16.979904 -0.696087 0.928475 -0.001501 -0.012296 -618958.000000 1 0 0
4.640760 2.495686 17.083404 17.877578 0.493409 0.299185 -0.002061 -0.005562 -1169800.000000 1 0 0
0.462560 -5.329314 13.170004 14.214941 -1.484218 0.385820 -0.003285 -0.003764 -1642520.000000 1 0 0
-4.383140 5.611286 20.639704 21.833365 -0.907668 0.332196 0.034475 -0.004293 -120772.000000 1 0 0
-10.688340 10.878086 9.031004 17.723781 -0.794196 1.036144 0.001943 -0.015494 4753.050000 1 0 0
0.680860 4.179986 13.073804 13.742641 1.409329 0.313269 -0.001850 -0.004473 -2587760.000000 1 0 0
-3.123540 7.158886 13.242504 15.374331 -1.159380 0.532898 -0.001819 -0.003895 -1277230.000000 1 0 0
0.843960 8.957086 14.061004 16.692917 1.476851 0.569198 -0.002484 -0.003870 -9181.710000 1 0 0
-4.185540 -6.697414 13.081004 15.280274 1.012234 0.543176 0.000733 -0.004041 -415981.000000 1 0 0
-4.982940 8.300986 16.595904 19.213539 -1.030169 0.528110 0.008875 0.000710 44977.400000 1 0 0
1.394660 -10.853714 15.743604 19.173139 -1.443001 0.607411 -0.011582 0.001029 -599166.000000 1 0 0
-14.971640 -1.021414 14.372104 20.778611 0.068118 0.806987 0.025692 -0.004766 -54669.200000 1 0 0
-13.640840 -5.165914 8.335104 16.799796 0.362019 1.051645 0.025046 -0.009669 -1434500.000000 1 0 0
-14.046840 -1.971514 12.207704 18.714396 0.139442 0.860160 0.020067 -0.003378 557519.000000 1 0 0
9.441760 1.282986 16.856404 19.363141 0.135057 0.514496 0.018642 -0.002096 236069.000000 1 0 0
4.993160 -6.737414 16.550204 18.553534 -0.933010 0.468992 0.004883 -0.011544 -78859.200000 1 0 0
-6.068540 -2.692914 11.154004 12.980399 0.417644 0.536905 -0.002184 0.000973 -147870.000000 1 0 0
0.610760 -6.381214 17.925604 19.037337 -1.475375 0.343438 0.003239 -0.010903 -31260.500000 1 0 0
-8.295740 12.024286 11.999604 18.904847 -0.966871 0.883128 0.008267 -0.021893 197327.000000 1 0 0
-6.489340 -5.835814 14.823504 17.201876 0.732424 0.532112 0.014336 -0.008799 -1694830.000000 1 0 0
-4.262340 -8.841514 17.212704 19.814568 1.121585 0.518246 0.016565 -0.011829 -323771.000000 1 0 0
2.467060 -6.133714 16.093504 17.398554 -1.188384 0.389785 -0.000368 -0.007549 -884594.000000 1 0 0
2.173560 5.343886 16.126504 17.127335 1.184495 0.343549 -0.005733 -0.003490 -2411920.000000 1 0 0
0.833360 -8.901414 13.978304 16.592849 -1.477447 0.569020 -0.008360 -0.005073 -187290.000000 1 0 0
-9.940540 -2.789814 11.278804 15.290808 0.273611 0.741258 -0.005355 0.002434 296299.000000 1 0 0
-1.206340 10.131586 12.357704 16.025515 -1.452287 0.690187 -0.003716 -0.005201 -474838.000000 1 0 0
-12.330840 -3.802514 11.335704 17.175765 0.299122 0.850001 0.017038 -0.000784 532819.000000 1 0 0
-1.901240 6.299786 20.041904 21.094547 -1.277694 0.317244 0.002992 -0.000596 -673288.000000 1 0 0
0.064460 -13.421614 15.864504 20.780432 -1.565994 0.702182 -0.010504 -0.001506 -878983.000000 1 0 0
4.047460 -8.723114 15.333004 18.099051 -1.136367 0.560157 -0.000396 -0.005189 -810477.000000 1 0 0
4.381160 -4.389014 16.120304 17.272006 -0.786294 0.367246 0.002891 -0.001756 -540420.000000 1 0 0
7.938160 1.952486 14.826304 16.930619 0.241175 0.503893 0.001392 -0.001260 137136.000000 1 0 0
-6.237240 -0.044014 11.841704 13.383985 0.007057 0.484803 -0.001146 0.001861 353280.000000 1 0 0
-3.397140 -10.855914 18.621704 21.821074 1.267520 0.548358 0.019164 -0.008745 -467708.000000 1 0 0
3.179460 -1.520914 13.482904 13.935955 -0.446183 0.255684 -0.001932 -0.003680 641136.000000 1 0 0
-2.467040 8.877986 15.999904 18.463527 -1.299752 0.522512 0.003482 0.004399 -357221.000000 1 0 0
-3.197040 4.139286 14.781904 15.679905 -0.913134 0.340077 -0.003162 -0.003837 -1397750.000000 1 0 0
-4.500540 -8.751814 19.836304 22.143352 1.095821 0.460539 0.029334 -0.018214 -77968.000000 1 0 0
-5.667340 -2.992614 19.104504 20.150845 0.485832 0.323670 0.023752 -0.021165 -556951.000000 1 0 0
-6.534240 -8.681314 11.121604 15.548363 0.925583 0.773756 0.001349 -0.003051 -8098.100000 1 0 0
-11.585640 2.446186 12.818704 17.450789 -0.208083 0.745774 0.011460 -0.002637 -327176.000000 1 0 0
-11.489540 -7.662014 11.707704 18.104870 0.588142 0.867598 0.020033 -0.002784 -1651030.000000 1 0 0
-10.778940 -7.191214 15.851504 20.473624 0.588340 0.685283 0.020252 -0.014491 107601.000000 1 0 0
0.308860 5.881886 17.691304 18.646024 1.518334 0.321389 -0.006708 0.000775 -174142.000000 1 0 0
-2.218540 -0.109514 13.184304 13.370108 0.049323 0.166909 -0.002210 -0.001982 134317.000000 1 0 0
-5.951740 -10.423014 18.491704 22.045533 1.051959 0.575728 0.036195 -0.009255 612229.000000 1 0 0
0.446760 2.741286 19.138804 19.339288 1.409242 0.144115 0.007250 -0.006194 -756206.000000 1 0 0
-0.656740 10.958386 14.810504 18.435524 -1.510938 0.637867 0.001370 -0.002489 8815.400000 1 0 0
-12.852040 -2.490914 14.396004 19.458276 0.191441 0.737964 0.026591 -0.001119 -1315800.000000 1 0 0
-13.640040 8.536386 11.880304 20.001555 -0.559198 0.934813 0.005546 -0.005430 510034.000000 1 0 0
-18.037240 -0.583314 6.879904 19.313606 0.032328 1.206576 0.046334 -0.012387 -517009.000000 1 0 0
-1.943640 -7.842114 17.614204 19.378768 1.327846 0.430054 0.007054 -0.012033 -23744.900000 1 0 0
5.525960 2.736086 14.382104 15.648236 0.459747 0.405037 0.000731 -0.001496 -3515340.000000 1 0 0
-13.821240 -6.677114 11.186104 18.993142 0.450041 0.941031 0.019316 -0.009563 534585.000000 1 0 0
3.319460 7.756386 16.107404 18.183201 1.166417 0.482495 -0.002404 -0.012983 -346203.000000 1 0 0
0.937060 2.130286 14.638304 14.822150 1.156394 0.157666 -0.002477 -0.007947 -1898740.000000 1 0 0
-14.271640 0.644086 9.682004 17.257919 -0.045100 0.975181 0.008731 -0.001537 -2144040.000000 1 0 0
-9.219640 -5.092514 15.505504 18.744496 0.504649 0.596685 0.013843 -0.005241 -608600.000000 1 0 0
-2.409140 -0.170414 18.112704 18.273014 0.070619 0.132559 0.004791 -0.007510 -232063.000000 1 0 0
6.777560 3.732986 17.492704 19.127603 0.503447 0.416460 0.010397 -0.006203 -743068.000000 1 0 0
-4.249340 -0.829614 14.717504 15.341123 0.192808 0.286107 0.005745 -0.001454 -248913.000000 1 0 0
4.587760 -8.959314 17.878804 20.517516 -1.097543 0.512763 0.001695 -0.001657 -66696.200000 1 0 0
1.863360 6.776186 13.400404 15.131412 1.302443 0.483008 -0.002695 -0.004627 -1641090.000000 1 0 0
-3.673740 -0.905414 20.258404 20.608713 0.241640 0.184643 0.020408 -0.014170 -283720.000000 1 0 0
-10.496440 1.321786 16.368104 19.489412 -0.125268 0.573797 0.023914 -0.012056 98594.300000 1 0 0
-3.807640 6.970886 18.432904 20.071455 -1.070860 0.406870 0.010479 -0.002945 -617432.000000 1 0 0
-12.576840 0.948486 14.792504 19.439514 -0.075273 0.706020 0.026725 -0.005512 -206602.000000 1 0 0
-16.054740 -4.682814 8.412504 18.720407 0.283805 1.104730 0.045911 -0.012801 -1094690.000000 1 0 0
-2.320740 0.696786 15.736104 15.921567 -0.291680 0.152783 -0.003796 0.000124 179533.000000 1 0 0
-13.469040 -9.086414 12.368204 20.419364 0.593485 0.920139 0.024850 -0.012788 314866.000000 1 0 0
6.102760 -3.200914 14.439004 15.999199 -0.483057 0.445297 0.006837 -0.003952 537817.000000 1 0 0
-15.683940 0.458286 7.476104 17.380683 -0.029212 1.126150 0.020299 -0.005094 148538.000000 1 0 0
-13.935640 6.061386 12.591404 19.735398 -0.410273 0.878884 0.007430 -0.001840 9969.210000 1 0 0
0.512860 9.430686 16.599004 19.097848 1.516468 0.517304 -0.002611 -0.007153 -790293.000000 1 0 0
-10.301840 -5.492314 10.842704 15.932911 0.489806 0.822321 0.006771 -0.002749 239966.000000 1 0 0
-3.155240 -11.090314 15.273904 19.137470 1.293616 0.646636 0.003738 -0.002173 -969260.000000 1 0 0
-3.473340 2.748186 12.638104 13.391724 -0.669366 0.337079 -0.002809 -0.000929 -2061910.000000 1 0 0
-12.369440 -7.664114 7.577704 16.406197 0.554707 1.090682 0.017669 -0.000208 857638.000000 1 0 0
-8.168740 -1.820414 13.204204 15.633081 0.219268 0.564919 0.001443 0.000877 -768891.000000 1 0 0
-9.826540 6.487486 9.592904 15.187895 -0.583513 0.887162 -0.004346 -0.001940 -1156070.000000 1 0 0
-18.073140 -3.461814 6.596004 19.548141 0.189252 1.226618 0.056341 -0.016678 620652.000000 1 0 0
-1.230240 -0.071714 20.451404 20.488498 0.058227 0.060184 0.011946 -0.006814 -383107.000000 1 0 0
-2.570740 2.541986 20.205104 20.525998 -0.779774 0.177056 0.005852 -0.003654 -732664.000000 1 0 0
-3.784740 11.371086 11.059004 16.307281 -1.249491 0.825535 0.003704 -0.010999 -809793.000000 1 0 0
-4.133840 -4.765914 14.818504 16.105608 0.856301 0.402503 0.004014 -0.011258 996035.000000 1 0 0
-0.094540 -14.249514 13.348704 19.525508 1.564162 0.818038 -0.004556 -0.012367 -734273.000000 1 0 0
-11.965240 0.475786 8.400204 14.627261 -0.039743 0.959067 -0.002848 0.001414 -441829.000000 1 0 0
-7.710640 2.267286 15.308004 17.289579 -0.285986 0.483466 0.003450 -0.004701 -225525.000000 1 0 0
3.531460 -2.150614 18.473404 18.930478 -0.547002 0.220194 0.003106 -0.000285 -78350.800000 1 0 0
-2.006740 4.910186 12.576804 13.649649 -1.182822 0.399125 -0.003384 -0.003028 -1048840.000000 1 0 0
-10.271040 -6.184214 13.357704 17.949012 0.541964 0.731456 0.009616 -0.006786 -489332.000000 1 0 0
2.230260 -3.775514 14.289504 14.947190 -1.037231 0.297749 -0.004221 -0.003592 -1163480.000000 1 0 0
6.838260 1.105886 17.056004 18.409021 0.160332 0.385787 0.003325 0.001264 -1027000.000000 1 0 0
-1.910840 -5.814514 13.702604 15.007373 1.253282 0.420076 -0.004883 -0.005281 -2472220.000000 1 0 0
-12.828340 3.569486 14.644404 19.793082 -0.271385 0.737912 0.014909 -0.005098 323074.000000 1 0 0
-13.179140 -6.803714 13.672004 20.171860 0.476562 0.826063 0.019234 -0.004145 -181835.000000 1 0 0
-9.519140 6.950486 12.089404 16.884222 -0.630681 0.772715 0.003313 -0.001539 322676.000000 1 0 0
-1.014140 -2.476514 12.863904 13.139316 1.182125 0.205108 -0.001649 -0.002651 548823.000000 1 0 0
0.116660 6.788086 15.294204 16.733332 1.553612 0.417769 -0.003753 -0.005038 445231.000000 1 0 0
-16.274840 -0.942014 9.662304 18.950407 0.057817 1.035759 0.031165 -0.003242 -35515.300000 1 0 0
-1.309640 2.770486 13.822404 14.158022 -1.129217 0.218172 -0.003728 -0.005157 -2800050.000000 1 0 0
-11.105240 -3.481114 16.154704 19.910273 0.303765 0.624295 0.018511 -0.008436 367355.000000 1 0 0
-5.160640 -1.451914 17.121304 17.940995 0.274254 0.303448 0.017522 -0.007068 388458.000000 1 0 0
-11.896840 6.677486 11.125804 17.604179 -0.511464 0.886668 0.006541 0.000164 -2074350.000000 1 0 0
-3.003840 4.574586 18.629104 19.416318 -0.989770 0.285730 0.010803 -0.004320 187835.000000 1 0 0
5.150060 -1.909214 16.415704 17.310215 -0.355010 0.322883 0.002129 -0.000745 438217.000000 1 0 0
-7.962640 -4.134714 12.210304 15.152261 0.478940 0.633703 0.003084 0.001656 -1670740.000000 1 0 0
-11.664140 -0.972114 16.173804 19.964696 0.083150 0.626439 0.040188 -0.012341 260246.000000 1 0 0
2.094560 2.039486 17.339504 17.584228 0.772077 0.167031 -0.001966 -0.006309 -926116.000000 1 0 0
-8.906140 -7.563514 11.670704 16.514582 0.704057 0.785986 0.007965 -0.004432 -908017.000000 1 0 0
-7.056640 7.116486 14.709604 17.799241 -0.789621 0.598081 -0.004747 -0.004329 -791058.000000 1 0 0
-5.468540 3.540786 15.830604 17.118706 -0.574604 0.390406 0.001344 -0.002989 -172046.000000 1 0 0
-9.325940 4.340986 11.532704 15.453821 -0.435648 0.728357 -0.005313 -0.000952 -256198.000000 1 0 0
-10.130040 0.016986 14.233704 17.470441 -0.001677 0.618532 0.007360 0.000404 392303.000000 1 0 0
8.033360 -0.614214 15.574304 17.534853 -0.076309 0.477403 0.001828 -0.003537 160910.000000 1 0 0
-8.497440 -7.460314 14.841804 18.658561 0.720497 0.651060 0.022626 -0.006400 -2697200.000000 1 0 0
-0.120340 4.253786 15.692304 16.259077 -1.542514 0.264814 -0.002027 -0.006528 -209344.000000 1 0 0
-8.052440 3.103986 9.621204 12.924554 -0.367919 0.731141 -0.008128 0.004042 -944093.000000 1 0 0
-2.338240 -9.691214 13.223604 16.560516 1.334047 0.645994 -0.011301 -0.001501 704594.000000 1 0 0
-6.045240 10.283386 10.465404 15.868763 -1.039348 0.850647 0.007696 -0.013440 -3448780.000000 1 0 0
-8.605040 -2.522014 15.649704 18.036643 0.285101 0.520317 0.017797 -0.015084 327735.000000 1 0 0
4.174660 5.753386 17.692504 19.067090 0.943095 0.382035 -0.003383 -0.000044 32443.800000 1 0 0
-6.778040 -0.880614 15.113704 16.587385 0.129198 0.424714 0.008005 -0.004603 -985780.000000 1 0 0
-0.909840 -9.945914 15.541204 18.473712 1.479571 0.571186 -0.012896 -0.000448 -1788720.000000 1 0 0
-4.256640 5.885786 16.066004 17.631731 -0.944665 0.424613 0.004273 -0.008554 439206.000000 1 0 0
3.778860 0.078786 17.449704 17.854359 0.020846 0.213309 -0.000210 -0.001449 -629018.000000 1 0 0
1.430060 0.319186 19.234704 19.290432 0.219598 0.076030 0.001718 -0.000936 -366992.000000 1 0 0
-6.281440 6.381586 17.742504 19.874043 -0.793306 0.467389 0.010381 -0.006586 -559636.000000 1 0 0
-12.087140 0.689386 10.966904 16.335458 -0.056973 0.834760 0.004968 0.000112 -357371.000000 1 0 0
-5.290640 5.273386 13.829504 15.717972 -0.783765 0.495244 -0.007994 0.000608 -1980660.000000 1 0 0
-8.620140 -9.533314 9.931404 16.242650 0.835659 0.912917 0.007545 -0.001990 -842029.000000 1 0 0
6.874960 -3.701314 16.915004 18.630141 -0.493875 0.432460 0.005882 -0.005529 112233.000000 1 0 0
-16.600540 1.687586 9.607204 19.254201 -0.101310 1.048390 0.023563 -0.003431 383135.000000 1 0 0
-4.132840 -9.558214 11.318304 15.379981 1.162686 0.743785 -0.003900 -0.003454 -60614.900000 1 0 0
-11.094940 -3.827914 9.103804 14.853615 0.332226 0.911069 0.002874 0.000714 -475924.000000 1 0 0
3.740460 -5.437414 18.404104 19.551663 -0.968230 0.344317 0.001099 -0.004244 -77138.900000 1 0 0
2.546160 -1.908314 16.071104 16.383069 -0.643173 0.195462 -0.000908 -0.003266 -134107.000000 1 0 0
-3.048440 -4.280914 20.077404 20.753827 0.951995 0.256013 0.021632 -0.022259 -756457.000000 1 0 0
-6.374040 -3.315314 14.380804 16.075671 0.479620 0.463330 0.010706 -0.004158 -335425.000000 1 0 0
-9.614140 5.179686 13.974404 17.735411 -0.494170 0.663343 0.011324 -0.004024 529761.000000 1 0 0
-5.864540 -5.281614 11.741504 14.147480 0.733147 0.591803 -0.002553 0.002561 -1703180.000000 1 0 0
5.903760 1.989886 19.304504 20.284918 0.325095 0.312175 0.005940 -0.007011 -149862.000000 1 0 0
-2.682140 11.903686 13.443104 18.155127 -1.349177 0.737045 0.009300 -0.017296 -636618.000000 1 0 0
3.292760 1.300186 15.116304 15.525314 0.376069 0.230049 -0.002858 -0.001776 -747188.000000 1 0 0
-5.621140 7.530686 12.731504 15.824021 -0.929583 0.635848 -0.013586 -0.008159 -2032860.000000 1 0 0
-1.861440 -1.737914 15.256704 15.467783 0.751093 0.165394 -0.000661 -0.004067 183014.000000 1 0 0
-7.354640 10.612086 13.981904 19.031572 -0.964754 0.745618 0.023810 -0.022690 859025.000000 1 0 0
-10.104740 2.152586 10.619404 14.815908 -0.209890 0.771656 -0.006429 0.003421 -2548770.000000 1 0 0
-13.524340 5.204086 9.091204 17.106732 -0.367329 1.010497 -0.007354 0.001461 -707402.000000 1 0 0
0.571760 -4.958414 20.030204 20.642719 -1.455992 0.244214 0.019345 -0.016616 -97452.100000 1 0 0
-14.412340 -2.861014 7.526604 16.509110 0.195964 1.097406 0.022213 -0.007933 538191.000000 1 0 0
-2.247440 2.389786 17.568204 17.871873 -0.816085 0.184607 -0.003225 -0.004990 -531854.000000 1 0 0
-6.066540 -8.482714 14.730704 18.048628 0.949965 0.616049 0.004989 -0.003533 346208.000000 1 0 0
-7.941840 2.049686 12.047604 14.574594 -0.252575 0.597727 -0.007959 0.001118 240874.000000 1 0 0
-14.579240 -3.430214 10.113404 18.072121 0.231078 0.976877 0.026538 -0.009750 52283.800000 1 0 0
-0.555140 7.116386 12.783504 14.641349 -1.492945 0.509251 -0.001916 -0.004424 -674318.000000 1 0 0
-1.603340 -2.302114 19.140704 19.345205 0.962447 0.145533 0.018163 -0.018718 -629372.000000 1 0 0
-12.691940 10.297486 7.405204 17.943261 -0.681618 1.145379 -0.005168 -0.011484 -632841.000000 1 0 0
-19.409440 2.058286 6.990104 20.732208 -0.105651 1.226896 0.032041 -0.004954 959276.000000 1 0 0
-15.972340 8.386086 6.864204 19.301797 -0.483477 1.207214 0.004951 0.001825 359593.000000 1 0 0
-12.066640 7.458286 13.702204 19.722582 -0.553616 0.802728 0.008059 -0.008912 -158262.000000 1 0 0
-15.957240 8.224186 10.610004 20.852888 -0.475883 1.037003 0.007209 -0.002253 -507748.000000 1 0 0
1.960160 11.042386 14.991504 18.722225 1.395114 0.642278 -0.000107 -0.008180 -17996.800000 1 0 0
2.331360 14.485386 12.397404 19.208260 1.411219 0.869223 -0.002575 -0.008555 -1085790.000000 1 0 0
-3.096840 13.758886 11.726604 18.341499 -1.349406 0.877146 0.000892 -0.006764 165304.000000 1 0 0
9.023660 4.823486 15.718504 18.755367 0.490894 0.577042 0.014533 0.000348 -106608.000000 1 0 0
-0.170240 12.492286 12.921704 17.973776 -1.557170 0.768549 -0.004965 -0.005423 236539.000000 1 0 0
3.552960 13.595686 14.486704 20.182437 1.315183 0.770177 0.001319 -0.003297 -217492.000000 1 0 0
-2.678840 -4.123614 -13.818796 14.667635 0.994678 2.799720 -0.000934 -0.003284 -643033.000000 1 0 0
5.830760 -11.384214 16.214204 20.651840 -1.097453 0.667904 0.007423 -0.014487 85835.200000 1 0 0
7.890060 -13.676614 7.299504 17.394987 -1.047534 1.137756 0.004947 -0.004341 -2393.170000 1 0 0
-0.131240 15.719386 1.259004 15.770270 -1.562448 1.490877 0.003926 -0.003161 -2563020.000000 1 0 0
-13.715640 8.256986 9.238904 18.483883 -0.541898 1.047387 -0.001724 0.004475 365220.000000 1 0 0
-15.419840 -9.618914 4.883704 18.818755 0.557737 1.308279 0.029143 -0.001955 -633119.000000 1 0 0
9.298560 -11.032114 11.236204 18.287237 -0.870460 0.909135 0.011738 -0.009802 35500.300000 1 0 0
-5.656740 -10.563514 -16.732796 20.580890 1.079155 2.520127 0.018452 -0.006742 164858.000000 1 0 0
-1.651940 -12.836214 -14.602496 19.512309 1.442806 2.416403 0.003527 0.000155 -45989.000000 1 0 0
5.160760 -15.768414 -12.528596 20.790432 -1.254499 2.217568 -0.009327 0.004878 291637.000000 1 0 0
2.650760 -11.714714 -16.787596 20.641813 -1.348268 2.520565 0.002630 0.005244 190623.000000 1 0 0
1.767560 -14.623514 -14.551996 20.705845 -1.450509 2.350117 0.044621 0.031108 303218.000000 1 0 0
-6.059040 -5.738914 -14.598596 16.815651 0.758271 2.622269 0.003686 -0.004035 36882.300000 1 0 0
-6.103840 -8.208514 -16.993696 19.834876 0.931405 2.599747 0.006869 -0.016313 55522.000000 1 0 0
-2.277840 -16.506014 -12.855396 21.045149 1.433662 2.227928 0.009223 0.000898 210861.000000 1 0 0
16.012460 -7.983914 -8.889596 19.979156 -0.462532 2.031908 0.018381 -0.008891 135210.000000 1 0 0
18.929260 -2.921114 -3.507496 19.471834 -0.153110 1.751917 0.008539 -0.006935 70953.900000 1 0 0
15.872960 -11.298514 -8.872096 21.408441 -0.618608 1.998102 0.038604 -0.011706 238994.000000 1 0 0
18.763960 -2.816714 -6.430396 20.034222 -0.149000 1.897550 0.157608 -0.008815 -267125.000000 1 0 0
8.917260 -9.543814 -15.536296 20.297251 -0.819324 2.442519 0.040689 -0.007119 169142.000000 1 0 0
-4.722940 9.491586 -16.360496 19.495184 -1.109077 2.566620 0.001435 -0.002611 452998.000000 1 0 0
2.599560 -9.763614 -18.611096 21.176845 -1.310583 2.644226 0.010092 0.005483 301907.000000 1 0 0
10.806260 7.865986 -15.125096 20.184586 0.629213 2.417860 0.023780 -0.028535 467156.000000 1 0 0
18.507560 -6.403614 -8.525996 21.359510 -0.333107 1.981404 0.036411 -0.007084 300893.000000 1 0 0
12.405560 5.333886 -13.631496 19.187651 0.406064 2.360906 0.021090 -0.012600 46962.300000 1 0 0
15.817160 6.247086 -10.746796 20.117213 0.376151 2.134368 0.022873 -0.012812 217436.000000 1 0 0
3.483860 -0.525814 -19.549696 19.864652 -0.149798 2.963283 0.017651 -0.005445 140413.000000 1 0 0
10.301560 -1.712714 -14.873096 18.173181 -0.164751 2.529433 0.013607 -0.003497 184676.000000 1 0 0
12.227760 -5.872614 -13.774196 19.332206 -0.447739 2.363851 0.025133 -0.007276 73630.300000 1 0 0
10.193160 6.764586 -13.082596 17.911294 0.585904 2.389719 0.018752 -0.003558 335016.000000 1 0 0
10.566360 5.293686 -15.917596 19.825260 0.464443 2.502932 0.032364 -0.025520 372585.000000 1 0 0
11.907460 -10.471114 -14.895396 21.755566 -0.721302 2.324948 0.055487 -0.009426 214504.000000 1 0 0
-1.183940 2.186586 -17.621096 17.795671 -1.074536 3.001407 0.006482 -0.007061 356387.000000 1 0 0
6.525860 -0.890914 -17.366196 18.573243 -0.135682 2.779088 0.007609 0.010346 131284.000000 1 0 0
6.456160 -5.681514 -15.730496 17.927914 -0.721663 2.641275 -0.015787 -0.000346 257951.000000 1 0 0
-2.241140 -4.686114 -20.426596 21.076722 1.124699 2.892572 0.025113 -0.027977 -38299.900000 1 0 0
15.967060 -0.234414 -13.538196 20.935250 -0.014680 2.274007 0.025300 -0.003803 -29950.300000 1 0 0
-4.187240 -0.392814 -18.406696 18.881042 0.093538 2.916965 0.011586 -0.015042 278281.000000 1 0 0
3.667860 8.999986 -17.166396 19.726584 1.183806 2.626438 0.020903 -0.028533 -182146.000000 1 0 0
8.837660 0.657086 -16.088096 18.367439 0.074214 2.638101 0.011869 -0.045644 -252087.000000 1 0 0
4.141060 4.385286 -18.347796 19.313745 0.814034 2.823989 0.012771 -0.008992 454430.000000 1 0 0
-2.768940 -11.096514 -17.753996 21.118808 1.326258 2.569320 0.015057 -0.020680 169811.000000 1 0 0
6.303360 -9.386414 -16.380796 19.903959 -0.979427 2.537454 0.016402 0.001654 269394.000000 1 0 0
9.793460 -13.140914 -11.533696 20.040500 -0.930333 2.184035 0.008738 0.042081 171679.000000 1 0 0
6.212760 6.478686 -17.046496 19.265378 0.806348 2.656916 0.016336 -0.019796 188078.000000 1 0 0
8.416360 1.539786 -20.224996 21.960340 0.180950 2.741380 0.021838 -0.010914 76996.800000 1 0 0
-0.786240 -0.768514 -20.342096 20.371786 0.773997 3.087597 0.015995 -0.012508 201196.000000 1 0 0
-1.281240 7.032286 -19.359496 20.636975 -1.390579 2.787893 0.017312 -0.011036 10176.700000 1 0 0
8.799060 5.890486 -18.153296 21.015790 0.589924 2.613547 0.032980 -0.011049 113673.000000 1 0 0
11.811060 0.025886 -12.784596 17.405393 0.002192 2.395754 -0.008262 -0.007419 -133310.000000 1 0 0
-4.271040 -2.668914 -19.809296 20.439499 0.558517 2.892625 0.005098 -0.015093 481737.000000 1 0 0
5.394260 -11.371014 -14.374596 19.105680 -1.127848 2.422453 -0.011077 -0.001487 48135.100000 1 0 0
11.140460 1.840786 -15.984896 19.570775 0.163755 2.526593 0.027260 -0.001366 -272176.000000 1 0 0
-2.727940 -4.431214 -17.170996 17.942141 1.018971 2.847344 -0.003853 -0.004277 168275.000000 1 0 0
-6.899240 -5.485014 -17.701996 19.774872 0.671695 2.679623 0.026688 -0.003420 26314.600000 1 0 0
3.062760 9.994786 -15.225896 18.469005 1.273446 2.539942 0.011192 -0.020833 -36422.700000 1 0 0
16.746860 -6.101414 -10.832596 20.857366 -0.349385 2.116905 0.036218 -0.018513 -49398.000000 1 0 0
9.562360 -3.596814 -17.567196 20.321963 -0.359772 2.614839 0.009639 -0.011250 181874.000000 1 0 0
-7.380040 -1.717214 -18.636296 20.117787 0.228616 2.755425 0.014615 -0.005846 613390.000000 1 0 0
1.840560 -7.823014 -19.375496 20.976107 -1.339724 2.748408 0.014920 -0.010008 325366.000000 1 0 0
5.351460 10.065986 -14.819496 18.697050 1.082160 2.485877 0.016080 -0.009978 317591.000000 1 0 0
6.107560 -3.647614 -18.087996 19.436640 -0.538380 2.766881 0.013722 -0.008466 539445.000000 1 0 0
4.823460 13.304786 -14.588596 20.325113 1.222998 2.371379 0.022546 -0.017993 -308889.000000 1 0 0
9.300260 11.230886 -15.671696 21.406300 0.879156 2.392206 0.043526 -0.015536 -131964.000000 1 0 0
17.029060 0.727686 -11.286096 20.442465 0.042706 2.155666 0.034371 -0.008790 194669.000000 1 0 0
15.142260 -3.080914 -12.086496 19.617937 -0.200725 2.234571 0.032102 -0.012839 90559.200000 1 0 0
-8.473140 0.541986 -17.353396 19.319115 -0.063878 2.686568 -0.001460 -0.009394 420838.000000 1 0 0
-3.309840 4.247386 -19.127396 19.870899 -0.908827 2.867176 0.014675 -0.004825 92790.200000 1 0 0
3.670860 1.375386 -17.097196 17.540839 0.358487 2.916207 0.002398 -0.002188 622418.000000 1 0 0
-5.096040 14.182586 -13.979096 20.555547 -1.225846 2.318647 0.014723 -0.011904 277555.000000 1 0 0
1.103260 9.561586 -17.585196 20.046951 1.455920 2.640796 0.017843 -0.007717 316129.000000 1 0 0
1.115460 -5.218214 -20.223496 20.915636 -1.360203 2.883616 0.015686 0.000617 607249.000000 1 0 0
3.684460 -6.035814 -18.372496 19.686415 -1.022741 2.774174 0.008789 -0.003166 320342.000000 1 0 0
-7.129240 7.396786 -16.103796 19.101591 -0.803814 2.573745 -0.002423 0.003411 13527.000000 1 0 0
-11.873240 2.993786 -16.867896 20.843764 -0.246997 2.513677 0.034801 -0.019073 303669.000000 1 0 0
-4.150340 6.530686 -17.581096 19.208595 -1.004672 2.726980 0.001963 0.013481 412528.000000 1 0 0
-8.176740 5.091186 -17.913096 20.338591 -0.556902 2.648228 -0.001325 -0.000297 325681.000000 1 0 0
-8.626940 4.373386 -15.232896 18.044161 -0.469188 2.575869 -0.010716 -0.009053 414090.000000 1 0 0
9.562760 13.636086 -12.966296 21.107204 0.959210 2.232303 0.041999 -0.017703 351587.000000 1 0 0
14.029060 9.658886 -11.987296 20.827959 0.602960 2.184059 0.052295 -0.020209 144653.000000 1 0 0
8.534560 15.631986 -9.941896 20.397034 1.071054 2.079927 0.020075 -0.006466 91409.300000 1 0 0
7.609060 13.048886 -14.623496 21.024221 1.042881 2.339988 0.040822 -0.022503 114752.000000 1 0 0
3.950760 15.667386 -12.778996 20.600442 1.323781 2.239955 0.033232 -0.021351 142613.000000 1 0 0
10.887460 11.570186 -10.987696 19.316714 0.815789 2.175864 0.037804 -0.024385 329595.000000 1 0 0
16.152860 10.219586 -9.164996 21.197924 0.564103 2.017898 0.070790 -0.039113 414284.000000 1 0 0
13.303060 11.303786 -9.826296 20.032550 0.704328 2.083479 0.062292 -0.015779 47582.700000 1 0 0
10.596760 11.270986 -7.997596 17.415165 0.816220 2.047926 0.020529 -0.011328 57603.400000 1 0 0
6.015660 16.881186 -10.296796 20.668493 1.228473 2.092304 0.055417 -0.008648 155125.000000 1 0 0
11.654960 13.975286 -10.135296 20.829569 0.875683 2.078970 0.059136 -0.013998 190274.000000 1 0 0
7.688160 -19.329814 -1.943096 20.893184 -1.192243 1.663932 0.021727 -0.001293 -166092.000000 1 0 0
7.897260 -17.248514 -4.119196 19.412515 -1.141432 1.784615 0.032025 0.011710 162595.000000 1 0 0
3.706760 -19.196114 5.511904 20.312852 -1.380045 1.296000 0.030540 -0.003962 -107103.000000 1 0 0
10.244360 -17.992414 -2.216596 20.822756 -1.053203 1.677449 0.034127 0.000272 531718.000000 1 0 0
-3.282040 -14.589414 7.875904 16.901262 1.349520 1.086037 0.013919 -0.033049 -11346.600000 1 0 0
-15.162640 -12.734214 -4.006296 20.201888 0.698567 1.770433 0.009565 -0.008322 209676.000000 1 0 0
-9.052040 -12.396614 -7.412896 17.046012 0.940086 2.020697 0.001974 -0.006484 -32305.700000 1 0 0
-11.421540 -15.656014 6.916404 20.576662 0.940525 1.227993 0.019355 0.005073 254936.000000 1 0 0
-14.894140 -7.044014 -7.027996 17.912183 0.441765 1.973991 0.037088 -0.030368 -160742.000000 1 0 0
4.632060 -15.168314 6.379404 17.094751 -1.274414 1.188363 0.011916 -0.013175 253735.000000 1 0 0
2.595160 -14.018414 9.307204 17.025711 -1.387744 0.992431 0.001917 -0.006969 394904.000000 1 0 0
3.242060 -17.592914 9.956404 20.473191 -1.388559 1.062930 0.018538 0.003657 259182.000000 1 0 0
-7.353540 -16.859014 -6.106996 19.380308 1.159496 1.891373 -0.031569 -0.009549 -138055.000000 1 0 0
1.761660 -19.822614 -3.994796 20.297731 -1.482158 1.768900 0.012874 -0.003941 -64850.800000 1 0 0
-18.388540 -10.422614 -2.481296 21.282061 0.515649 1.687653 0.017983 -0.005584 -10252.700000 1 0 0
-4.375440 -14.864414 2.951704 15.773644 1.284525 1.382558 0.004208 -0.002769 163018.000000 1 0 0
-11.015140 -9.769814 -14.562096 20.708386 0.725555 2.350682 0.034188 -0.007887 177154.000000 1 0 0
0.194360 -20.264114 2.606604 20.431997 -1.561205 1.442873 0.009987 -0.012260 319502.000000 1 0 0
5.387860 -18.761914 0.898004 19.540851 -1.291151 1.524825 0.011795 0.006333 179444.000000 1 0 0
-7.630440 -18.698514 -3.615696 20.516611 1.183346 1.747954 -0.000378 -0.028571 68049.400000 1 0 0
-9.351540 -15.314714 -7.730296 19.538405 1.022601 1.977568 0.024317 -0.012095 -68492.200000 1 0 0
-11.607140 -11.466214 -12.301396 20.433407 0.779290 2.216830 0.004647 0.004708 333671.000000 1 0 0
-13.263240 -15.109914 -3.328596 20.378975 0.850392 1.734866 0.009417 -0.001607 115686.000000 1 0 0
-0.356040 -20.687514 -2.715996 20.868077 1.553588 1.701317 0.017451 -0.012173 422505.000000 1 0 0
-12.146740 -16.703714 -0.834996 20.670138 0.942055 1.611204 0.015688 -0.004034 113591.000000 1 0 0
0.744960 -20.142214 5.224504 20.822084 -1.533828 1.317174 0.017446 -0.013861 165280.000000 1 0 0
-18.077940 -8.759514 2.581404 20.253510 0.451205 1.442994 0.027181 0.001772 130673.000000 1 0 0
-14.700540 -14.936414 -0.382596 20.960647 0.793357 1.589050 0.008079 -0.005734 -61164.100000 1 0 0
10.376760 -15.183914 -5.407596 19.169520 -0.971295 1.856772 0.024085 0.003203 -266947.000000 1 0 0
0.061560 -19.003814 -6.884496 20.212497 -1.567557 1.918358 0.011321 -0.007496 173901.000000 1 0 0
-10.007240 -16.489114 -2.402496 19.437277 1.025319 1.694716 0.007720 -0.014074 495755.000000 1 0 0
-14.595340 -6.942714 -11.183496 19.654410 0.444003 2.176094 0.017366 -0.017215 66926.300000 1 0 0
-12.471340 -15.002514 2.062304 19.617922 0.877269 1.465478 0.016799 -0.008692 209192.000000 1 0 0
-2.263640 -16.081314 9.769504 18.951938 1.430953 1.029219 -0.003809 -0.016005 386494.000000 1 0 0
-12.106140 -14.730014 -6.701496 20.209948 0.882862 1.908789 0.009962 0.005169 120805.000000 1 0 0
5.249660 -17.141514 -7.153996 19.302075 -1.273612 1.950487 0.013629 0.001031 80860.700000 1 0 0
-17.358140 -7.288814 -2.899396 19.048316 0.397549 1.723603 -0.014093 -0.003838 -32038.300000 1 0 0
-12.616540 -13.154914 -8.505496 20.113983 0.806285 2.007401 0.060179 -0.035990 478900.000000 1 0 0
-7.766440 -13.647714 9.926304 18.577115 1.053434 1.007082 0.015812 -0.007449 521949.000000 1 0 0
-15.975840 -8.343514 -5.590496 18.870489 0.481295 1.871567 0.034525 0.001538 199530.000000 1 0 0
-0.753240 -19.467514 -0.204496 19.483154 1.532123 1.581293 0.007165 -0.017643 260316.000000 1 0 0
-14.930140 -11.271514 -1.822196 18.795652 0.646662 1.667897 0.006078 0.001460 77588.600000 1 0 0
-6.990440 -18.688214 0.911504 19.973644 1.212853 1.525145 -0.002371 -0.004709 107282.000000 1 0 0
-2.239640 -20.515814 -5.520096 21.363195 1.462060 1.832154 0.013603 -0.009594 117982.000000 1 0 0
-9.076640 -19.487814 -1.001196 21.521215 1.134914 1.617334 0.003333 -0.004026 219441.000000 1 0 0
-17.739740 -7.171714 5.192604 19.826624 0.384185 1.305805 0.040268 -0.002830 60395.600000 1 0 0
-3.058440 -15.818714 -10.650696 19.313806 1.379810 2.154904 0.009292 0.003330 73291.500000 1 0 0
-3.067540 -18.257314 -7.985496 20.162031 1.404334 1.978025 0.007670 -0.004875 264647.000000 1 0 0
4.548460 -17.098714 -4.654196 18.295247 -1.310805 1.828017 0.010813 -0.011267 840909.000000 1 0 0
0.847460 -17.454714 -9.627496 19.951790 -1.522283 2.074346 0.004858 0.012159 -32819.700000 1 0 0
-7.587540 -9.882414 -14.959696 19.468575 0.916011 2.447137 0.015418 -0.003080 685355.000000 1 0 0
-5.217540 -19.338714 -1.988196 20.128624 1.307273 1.669732 0.004740 -0.019789 392073.000000 1 0 0
-9.330340 -16.325914 8.376804 20.585470 1.051593 1.151708 0.003452 0.007427 272531.000000 1 0 0
-7.078340 -15.415714 -10.129196 19.757221 1.140348 2.109103 0.001463 0.002052 273879.000000 1 0 0
-12.566740 -8.239014 -12.370896 19.463900 0.580316 2.259558 0.017612 -0.009133 235663.000000 1 0 0
-15.508340 -13.008214 3.182504 20.490256 0.697949 1.414847 0.016015 0.003252 196167.000000 1 0 0
-6.300740 -14.435114 -13.372296 20.661320 1.159236 2.274720 0.006694 0.011051 391970.000000 1 0 0
-13.665540 -11.114614 -6.852896 18.900895 0.682817 1.941820 0.014278 -0.020813 272856.000000 1 0 0
-11.068140 -10.061214 -9.122196 17.519881 0.737779 2.118440 -0.001417 -0.004665 269915.000000 1 0 0
-9.840640 -14.800614 3.790504 18.173175 0.984031 1.360677 -0.005618 0.002422 500154.000000 1 0 0
5.259660 -18.037014 7.889504 20.377492 -1.287060 1.173239 0.035902 -0.025789 209797.000000 1 0 0
-5.015740 -16.619514 5.244604 18.134822 1.277691 1.277405 -0.000115 0.005087 389724.000000 1 0 0
-18.485140 -7.265614 -6.905196 21.027870 0.374502 1.905388 0.023072 -0.009661 181436.000000 1 0 0
-17.009740 -4.615814 -10.772396 20.656271 0.264982 2.119413 0.026513 0.001703 -247332.000000 1 0 0
-15.539340 -4.296814 -13.333196 20.921468 0.269771 2.261782 0.008585 0.002166 227932.000000 1 0 0
-19.521840 -5.167114 -6.079696 21.089429 0.258750 1.863228 0.040373 -0.005981 -269757.000000 1 0 0
5.252360 -13.624114 8.730004 17.012252 -1.202835 1.031934 0.013830 -0.005808 317081.000000 1 0 0
19.855460 -3.305014 2.748204 20.315389 -0.164941 1.435103 0.034625 -0.010567 -60005.200000 1 0 0
18.130160 -2.398514 0.549104 18.296368 -0.131530 1.540780 0.029434 -0.020512 353361.000000 1 0 0
14.492660 -11.486014 0.434904 18.497428 -0.670176 1.547283 0.026818 0.001489 105182.000000 1 0 0
11.025860 -13.689014 5.514604 18.421985 -0.892739 1.266786 0.026849 -0.003682 561355.000000 1 0 0
10.935860 -12.347014 8.594904 18.598768 -0.845933 1.090410 0.065073 -0.021339 174140.000000 1 0 0
19.013260 4.272686 -4.567496 20.015542 0.221049 1.801022 0.062048 0.012763 63477.100000 1 0 0
18.713860 -6.261614 -4.503996 20.241105 -0.322888 1.795192 0.033245 -0.012630 9827.420000 1 0 0
17.742560 -9.967414 -0.327296 20.353253 -0.511842 1.586878 0.042767 -0.005244 188236.000000 1 0 0
17.340160 -8.910914 8.249804 21.169430 -0.474697 1.170487 0.045095 -0.018978 -152444.000000 1 0 0
19.932160 -0.048914 -2.107696 20.043347 -0.002454 1.676148 0.038266 0.001282 100078.000000 1 0 0
7.460460 -13.275014 11.564004 19.120948 -1.058792 0.921304 0.011580 -0.003325 420759.000000 1 0 0
15.871460 -6.649714 -3.163996 17.496651 -0.396755 1.752631 0.015130 -0.005910 519268.000000 1 0 0
14.444960 -7.127314 12.290204 20.260912 -0.458363 0.919024 0.024419 -0.019066 325844.000000 1 0 0
16.435260 1.502886 10.726204 19.683187 0.091189 0.994476 0.051685 -0.008016 371878.000000 1 0 0
16.425560 -10.224014 2.565804 19.516988 -0.556760 1.438950 0.001508 -0.004454 220452.000000 1 0 0
16.449160 -7.384214 -6.164296 19.055184 -0.421948 1.900219 0.040097 0.001992 178243.000000 1 0 0
17.915160 -4.532214 5.747704 19.352778 -0.247783 1.269251 0.054711 -0.012414 -30882.500000 1 0 0
13.146660 -13.955114 7.821104 20.706268 -0.815220 1.183467 0.032716 -0.008935 288366.000000 1 0 0
15.241460 -14.346314 -1.625096 20.994279 -0.755153 1.648280 0.025624 -0.004295 251741.000000 1 0 0
18.621760 -6.312314 7.708604 21.119607 -0.326820 1.197166 0.044344 -0.015869 286191.000000 1 0 0
19.629260 3.551386 2.225304 20.071675 0.178987 1.459700 0.053722 -0.010333 151604.000000 1 0 0
15.822560 -10.564614 8.321904 20.765802 -0.588713 1.158461 0.049539 -0.025689 315130.000000 1 0 0
14.091960 -4.556814 10.851504 18.360365 -0.312750 0.938463 0.022718 -0.006532 -173848.000000 1 0 0
18.716960 -7.710214 2.044504 20.345810 -0.390755 1.470139 0.037911 -0.007100 -14396.500000 1 0 0
18.733860 -4.937914 -1.887096 19.465396 -0.257721 1.667895 0.016804 -0.001815 394645.000000 1 0 0
14.708260 -13.641314 -5.894996 20.908595 -0.747781 1.856613 0.043801 -0.001852 252976.000000 1 0 0
13.637660 -9.870114 10.543204 19.863637 -0.626482 1.011277 0.002075 -0.006348 534003.000000 1 0 0
14.369160 2.337786 0.601204 14.570499 0.161282 1.529523 0.006430 -0.001925 -156181.000000 1 0 0
12.684460 2.522786 13.744704 18.872648 0.196326 0.754977 0.003498 -0.004263 156890.000000 1 0 0
18.326260 -3.393114 9.212604 20.790312 -0.183077 1.111720 0.043721 -0.010544 169175.000000 1 0 0
6.706460 -18.044714 4.702304 19.816659 -1.214959 1.331221 0.016921 -0.024368 454391.000000 1 0 0
12.563460 -2.995314 15.146204 19.905273 -0.234046 0.706076 0.011302 0.008436 372147.000000 1 0 0
12.510560 -14.052014 -7.069796 20.098637 -0.843364 1.930242 0.049350 0.011348 326413.000000 1 0 0
10.704260 -17.807314 4.540804 21.267358 -1.029557 1.355629 0.047191 -0.014222 684516.000000 1 0 0
18.134460 -0.577314 -5.649696 19.002920 -0.031824 1.872667 0.019655 0.000252 221366.000000 1 0 0
4.383760 -13.719514 11.660804 18.531507 -1.261522 0.890219 0.008018 -0.004242 249085.000000 1 0 0
9.184860 -2.659214 14.376604 17.266146 -0.281816 0.586926 0.008728 0.000849 350792.000000 1 0 0
9.183460 -9.561314 14.370004 19.551257 -0.805553 0.745143 0.027026 0.003400 251405.000000 1 0 0
21.050260 5.628186 -2.583396 21.942284 0.261258 1.688806 0.034687 0.015628 631132.000000 1 0 0
14.621560 -13.401314 1.998004 19.934323 -0.741881 1.470398 0.019104 -0.004727 339670.000000 1 0 0
11.180560 -0.326314 15.190104 18.864004 -0.029178 0.634711 0.018302 -0.002249 -13238.700000 1 0 0
19.231060 0.459886 7.713204 20.725314 0.023909 1.189458 0.065825 -0.011767 174193.000000 1 0 0
19.913460 0.973686 0.547104 19.944755 0.048857 1.543362 0.048919 -0.006925 -18597.100000 1 0 0
18.290860 0.336786 3.096904 18.554239 0.018411 1.403101 0.045964 -0.006932 55747.500000 1 0 0
10.174660 -8.640014 16.379004 21.129252 -0.704012 0.683794 0.019869 -0.000717 104718.000000 1 0 0
18.947660 2.917886 5.655804 19.987896 0.152797 1.283916 0.049935 -0.004280 98112.100000 1 0 0
14.878760 2.431486 7.009904 16.626135 0.161988 1.135566 0.023531 -0.009678 10176.600000 1 0 0
11.454260 -16.036514 2.037304 19.812129 -0.950563 1.467783 0.019143 0.001521 255342.000000 1 0 0
8.516360 -15.992114 7.013904 19.428611 -1.081461 1.201447 0.028309 -0.009681 63353.000000 1 0 0
6.149560 6.552186 7.240604 11.540128 0.817086 0.892550 0.002571 0.000895 -1041520.000000 1 0 0
18.549960 1.655386 -6.348096 19.675864 0.089004 1.899307 0.018764 0.007819 285945.000000 1 0 0
14.212660 4.406586 -7.262996 16.558044 0.300648 2.024879 0.025760 -0.005063 307195.000000 1 0 0
-10.498840 -4.059614 -13.759896 17.777538 0.368965 2.455938 0.013189 -0.008261 -279212.000000 1 0 0
7.682660 -14.103714 -10.408196 19.138144 -1.072011 2.145809 0.010312 0.008378 18708.400000 1 0 0
2.268260 -14.848814 14.283404 20.727950 -1.419211 0.810565 0.006430 -0.012415 249508.000000 1 0 0
-9.635640 -8.120014 2.581004 12.862417 0.700244 1.368762 0.001264 -0.002974 566127.000000 1 0 0
-13.838340 3.095186 -10.117096 17.419399 -0.220046 2.190501 0.015407 0.000133 254336.000000 1 0 0
-12.771540 -5.313714 -13.326796 19.208105 0.394273 2.337564 0.011691 0.002784 111874.000000 1 0 0
-17.371140 0.273986 -8.962596 19.548906 -0.015771 2.047070 0.018698 -0.005306 400653.000000 1 0 0
-12.102940 15.237586 4.044204 19.875129 -0.899552 1.365885 0.013524 -0.009516 470801.000000 1 0 0
-17.263340 6.472586 9.197204 20.603540 -0.358711 1.108070 0.018578 -0.003388 300590.000000 1 0 0
-13.850540 15.658686 -0.489196 20.911031 -0.846596 1.594193 0.036568 -0.006880 379783.000000 1 0 0
-15.825440 5.388486 -10.925696 19.971259 -0.328182 2.149657 0.022010 -0.003234 30006.800000 1 0 0
-17.818840 2.768986 -0.122296 18.033117 -0.154163 1.577578 0.023420 -0.001260 -94814.400000 1 0 0
-9.980540 15.426886 -0.434396 18.379029 -0.996563 1.594434 0.024002 -0.014142 89123.500000 1 0 0
-18.581240 11.967286 2.283104 22.219158 -0.572183 1.467861 0.081402 -0.012179 -373573.000000 1 0 0
-8.725240 16.219586 -7.770396 19.989593 -1.077256 1.970041 0.043323 -0.031419 108633.000000 1 0 0
-14.392240 -1.631714 -12.985496 19.453077 0.112893 2.301682 -0.012821 -0.015633 110458.000000 1 0 0
-18.614240 5.612886 -4.957996 20.064301 -0.292866 1.820488 0.024213 -0.008841 -103840.000000 1 0 0
-16.280240 9.942986 -5.394896 19.824583 -0.548279 1.846404 0.008678 0.013150 99327.900000 1 0 0
-18.872140 1.294186 2.780604 19.119737 -0.068469 1.424848 0.030282 -0.013564 -5669.280000 1 0 0
-13.431540 11.973086 -7.135496 19.356559 -0.728052 1.948336 0.006965 -0.003239 -125228.000000 1 0 0
-12.992040 4.703486 -13.688196 19.449489 -0.347350 2.351503 0.031711 -0.018600 76315.700000 1 0 0
-13.977440 9.276486 -6.864696 18.125840 -0.585929 1.959214 0.002117 -0.005246 354416.000000 1 0 0
-6.629740 11.627886 -15.474496 20.460235 -1.052608 2.428467 0.005560 -0.015054 -186340.000000 1 0 0
-15.154240 13.892086 3.052504 20.783619 -0.741972 1.423392 0.016504 -0.008304 184980.000000 1 0 0
-18.454140 8.526586 -5.195496 20.982163 -0.432823 1.821014 0.031854 -0.006068 195772.000000 1 0 0
-4.245840 16.684686 -10.002396 19.911148 -1.321610 2.097113 0.007658 -0.015281 -32955.100000 1 0 0
-19.154940 -1.374014 -6.919796 20.412820 0.071609 1.916642 0.018466 -0.006092 -119227.000000 1 0 0
-11.156740 13.720886 -6.236096 18.751652 -0.888106 1.909816 0.026895 -0.018325 33601.700000 1 0 0
-19.571440 3.030786 4.657504 20.345006 -0.153637 1.339822 0.055677 0.000617 42553.100000 1 0 0
-15.176940 12.408486 0.590704 19.612725 -0.685374 1.540673 0.008608 -0.001964 218544.000000 1 0 0
-17.234140 2.951886 -8.193596 19.309693 -0.169635 2.009013 0.012178 -0.011923 201901.000000 1 0 0
-16.774640 12.383486 -4.621696 21.356483 -0.635923 1.788929 0.027492 -0.004675 207715.000000 1 0 0
-10.870040 15.756986 -8.553496 20.966704 -0.966911 1.991011 0.037072 -0.018144 143780.000000 1 0 0
-19.457640 1.746286 -6.694396 20.651010 -0.089508 1.900928 0.066388 -0.014776 100502.000000 1 0 0
-16.957440 10.437486 -0.464696 19.917626 -0.551746 1.594129 0.014710 0.002772 62867.900000 1 0 0
-11.518340 6.921186 -14.780996 19.976307 -0.541069 2.403757 0.012294 -0.012220 253019.000000 1 0 0
-14.171140 13.031786 -5.313896 19.972134 -0.743539 1.840105 0.035053 -0.002463 249073.000000 1 0 0
-18.882140 7.268086 -0.311596 20.235053 -0.367438 1.586196 0.047399 -0.001785 108940.000000 1 0 0
-14.552940 8.693786 -10.351396 19.862563 -0.538498 2.118995 0.013461 -0.006531 644239.000000 1 0 0
-18.826840 11.461286 4.770104 22.551383 -0.546846 1.357665 0.055827 -0.009534 311635.000000 1 0 0
-8.229640 12.021986 -13.268096 19.705266 -0.970515 2.309496 -0.000123 -0.011523 485347.000000 1 0 0
-21.109240 -1.524714 -5.481796 21.862636 0.072104 1.824239 0.035748 -0.014085 336615.000000 1 0 0
-10.585540 13.403386 -2.912696 17.325941 -0.902327 1.739710 0.021464 -0.004409 450269.000000 1 0 0
-18.825540 -4.717714 3.592804 19.737427 0.245545 1.387746 0.044481 -0.013176 50534.500000 1 0 0
-11.440340 11.569986 -12.946496 20.793213 -0.791032 2.242897 0.024237 -0.011741 218648.000000 1 0 0
-14.953040 11.722986 -10.396296 21.658827 -0.664900 2.071454 0.025705 0.000665 225821.000000 1 0 0
-12.832740 9.737786 -14.022496 21.357296 -0.649124 2.287055 0.042405 -0.018208 350352.000000 1 0 0
-18.303540 -4.943714 -2.983996 19.192815 0.263801 1.726904 0.007566 -0.008193 -248771.000000 1 0 0
-9.536740 12.706886 -11.507796 19.617435 -0.926964 2.197664 0.022513 -0.014139 55771.400000 1 0 0
-15.780940 7.561986 -8.125996 19.293873 -0.446857 2.005531 0.011709 -0.000633 -44331.000000 1 0 0
-14.443340 8.835286 2.004804 17.049680 -0.548993 1.452938 0.006638 0.004044 -13703.000000 1 0 0
-19.910740 5.968986 7.606104 22.134118 -0.291262 1.220009 0.046114 -0.009950 279814.000000 1 0 0
-18.636440 5.923786 3.516404 19.868901 -0.307761 1.392879 0.012090 0.001891 209771.000000 1 0 0
-14.595440 12.832086 5.722704 20.259285 -0.721195 1.284425 0.009152 -0.007752 255749.000000 1 0 0
17.923260 6.043986 5.570904 19.718214 0.325240 1.284370 0.033789 -0.009850 250095.000000 1 0 0
18.337560 8.377086 0.325304 20.163023 0.428516 1.554662 0.030574 0.016763 149487.000000 1 0 0
16.915060 4.267786 8.415904 19.369065 0.247149 1.121311 0.051856 -0.009950 -20013.700000 1 0 0
12.547360 12.727186 10.588804 20.773547 0.792513 1.035931 0.048620 -0.018220 135818.000000 1 0 0
15.280060 12.408786 4.092604 20.104915 0.682070 1.365801 0.026515 -0.001310 183463.000000 1 0 0
5.036560 10.308186 14.434404 18.438482 1.116312 0.671577 0.008075 -0.007917 394585.000000 1 0 0
13.328960 13.099886 -5.369896 19.444895 0.776731 1.850592 0.056825 -0.014047 362243.000000 1 0 0
17.567560 9.103886 -3.059496 20.021499 0.478118 1.724208 0.013071 0.002261 -81438.600000 1 0 0
14.443460 7.713386 9.567704 18.964461 0.490507 1.041985 0.031616 -0.001716 123670.000000 1 0 0
4.663860 19.515286 -2.194996 20.184548 1.336211 1.679758 0.009979 -0.000514 496365.000000 1 0 0
-4.658240 18.835786 3.431904 19.704416 -1.328353 1.395734 0.023742 -0.033288 320835.000000 1 0 0
6.900760 12.953486 12.599604 19.343301 1.081306 0.861411 0.020389 0.000457 -22914.500000 1 0 0
0.250460 17.230386 -10.163296 20.006037 1.556261 2.103671 0.012920 0.003723 18110.800000 1 0 0
10.324960 8.957986 16.091704 21.113816 0.714626 0.704183 0.015160 -0.008387 123597.000000 1 0 0
-1.052340 12.115086 1.200904 12.219857 -1.484152 1.472363 0.002841 -0.000333 390873.000000 1 0 0
-4.807740 19.336786 -2.555596 20.088721 -1.327106 1.698357 0.011132 0.004291 119611.000000 1 0 0
6.183560 18.346386 6.269404 20.350226 1.245709 1.257627 0.017503 -0.021797 30765.700000 1 0 0
11.089960 17.466686 -1.982196 20.784644 1.005095 1.666310 0.025210 -0.002598 325078.000000 1 0 0
18.568660 10.548586 3.352604 21.617302 0.516622 1.415079 0.040735 0.001452 337239.000000 1 0 0
11.909160 16.658086 6.566904 21.504514 0.950129 1.260466 0.034660 0.003125 -171086.000000 1 0 0
18.218360 7.327086 -5.815796 20.479705 0.382385 1.858737 0.028583 0.011020 452636.000000 1 0 0
0.237160 15.617086 11.127204 19.177181 1.555612 0.951783 -0.001215 0.003875 416235.000000 1 0 0
1.197660 20.364486 -2.038296 20.501252 1.512053 1.670384 0.019552 -0.001680 282390.000000 1 0 0
14.611860 9.758986 -1.487896 17.634004 0.588843 1.655273 0.030211 0.000347 54218.700000 1 0 0
9.816060 17.652986 1.423804 20.248707 1.063315 1.500422 0.012531 -0.002025 239389.000000 1 0 0
0.606660 17.951786 -0.304696 17.964618 1.537015 1.587758 0.005985 0.002834 138658.000000 1 0 0
0.040860 20.954786 1.229504 20.990865 1.568846 1.512190 0.020023 -0.006339 290886.000000 1 0 0
6.113860 17.016486 -0.398696 18.085879 1.225869 1.592843 0.004554 -0.022032 -45692.500000 1 0 0
6.815960 18.655186 -2.999796 20.086613 1.220499 1.720700 -0.004353 -0.008878 90669.400000 1 0 0
10.737560 9.573686 13.012104 19.397564 0.728159 0.835494 0.025478 -0.001576 -119845.000000 1 0 0
12.300960 14.432386 8.144404 20.638282 0.864959 1.165135 0.015632 -0.015414 219016.000000 1 0 0
0.521260 17.611286 6.892004 18.919007 1.541207 1.197926 0.000527 -0.011435 224370.000000 1 0 0
7.276560 17.946886 -7.987796 20.948602 1.185601 1.962003 0.024733 -0.008064 70215.400000 1 0 0
-1.482640 18.376286 8.734504 20.400433 -1.490288 1.128349 0.043198 -0.034952 197799.000000 1 0 0
16.395960 6.842086 -7.822796 19.412310 0.395333 1.985568 0.061642 -0.001739 -242268.000000 1 0 0
-5.139840 19.737986 -6.907396 21.534116 -1.316050 1.897334 -0.005470 -0.009182 264239.000000 1 0 0
3.569560 16.025186 9.649604 19.043718 1.351627 1.039434 0.004451 -0.005732 271299.000000 1 0 0
8.899160 14.738986 7.509404 18.783607 1.027599 1.159514 0.007279 -0.004336 115364.000000 1 0 0
-2.568240 19.816286 6.149904 20.906993 -1.441912 1.272225 0.021364 -0.012562 89556.200000 1 0 0
4.987860 18.100986 8.188704 20.483635 1.301912 1.159532 0.016249 -0.015985 -28322.600000 1 0 0
13.588860 11.234986 -6.924896 18.942972 0.690858 1.945037 -0.038452 -0.032302 -39715.700000 1 0 0
11.940660 6.372086 15.608604 20.659413 0.490201 0.714349 0.037201 -0.015730 212626.000000 1 0 0
16.835460 9.950686 4.918404 20.165305 0.533816 1.324407 0.030042 -0.004426 163669.000000 1 0 0
5.059860 14.987586 11.740104 19.699237 1.245208 0.932326 0.002704 -0.020776 488329.000000 1 0 0
16.278560 11.563586 -4.892896 20.558416 0.617643 1.811102 0.070427 0.029272 114130.000000 1 0 0
15.045760 14.593586 6.556404 21.962105 0.770143 1.267642 0.030996 0.025438 283907.000000 1 0 0
12.543660 14.113586 -8.045396 20.524744 0.844223 1.973585 0.054300 -0.023637 327493.000000 1 0 0
-8.616540 15.464086 9.671204 20.172132 -1.062444 1.070787 0.041911 -0.019545 119817.000000 1 0 0
-3.577940 16.677386 -7.304896 18.555279 -1.359461 1.975431 -0.007452 -0.003590 -62063.700000 1 0 0
2.344760 18.946786 -4.825496 19.691724 1.447667 1.818370 0.016215 -0.028562 100137.000000 1 0 0
6.989860 15.931286 9.397504 19.773140 1.157337 1.075530 0.016687 -0.025571 573958.000000 1 0 0
13.219060 15.634086 -1.556196 20.532655 0.868904 1.646660 0.041845 -0.009570 194847.000000 1 0 0
12.422260 16.797786 4.137504 21.297819 0.934038 1.375284 0.027702 -0.002109 323406.000000 1 0 0
3.329660 18.401686 0.493004 18.706997 1.391790 1.544439 0.030938 -0.014844 159710.000000 1 0 0
-7.034840 17.899986 1.219804 19.271388 -1.196332 1.507458 -0.005470 0.011999 240115.000000 1 0 0
0.291060 19.952286 -5.905996 20.810075 1.556210 1.858556 0.027323 0.000216 268635.000000 1 0 0
-7.889040 18.001086 -6.472896 20.692376 -1.157754 1.888952 0.043479 -0.020088 132919.000000 1 0 0
-7.510840 18.441486 -0.934096 19.934233 -1.184030 1.617672 0.029199 -0.010890 17832.000000 1 0 0
-14.479840 -8.663914 8.869504 19.062982 0.539200 1.086853 0.047318 -0.008399 241131.000000 1 0 0
-13.356640 -13.324314 8.133404 20.544816 0.784187 1.163764 0.043032 -0.001511 43996.600000 1 0 0
-3.677240 -16.086414 12.687204 20.814897 1.346065 0.915335 0.010514 0.000112 97999.300000 1 0 0
-2.196540 -15.106214 15.126804 21.490525 1.426402 0.789948 0.005725 -0.009391 362434.000000 1 0 0
-7.094340 -13.760314 13.677604 20.657995 1.094774 0.847182 -0.012120 -0.001623 222058.000000 1 0 0
-9.945840 -11.222814 11.768404 19.062178 0.845649 0.905402 0.031768 0.000477 47249.600000 1 0 0
-7.516140 -10.761214 13.395304 18.754473 0.961113 0.775250 0.011144 0.008549 434136.000000 1 0 0
-15.463740 -12.071514 7.402404 20.967697 0.662820 1.209980 0.051186 0.005588 360115.000000 1 0 0
-4.294840 -12.306114 13.066504 18.455883 1.235012 0.784154 0.006026 -0.016277 342771.000000 1 0 0
3.609760 -12.664514 13.997204 19.218272 -1.293130 0.754918 0.003868 0.002402 433063.000000 1 0 0
6.909560 -13.156914 14.956804 21.084411 -1.087219 0.782182 0.034367 -0.003130 218622.000000 1 0 0
7.054960 -9.175214 16.655104 20.281753 -0.915299 0.607309 0.012636 -0.005130 538671.000000 1 0 0
-5.186340 13.531886 13.408104 19.743032 -1.204797 0.824218 0.010486 -0.008647 465110.000000 1 0 0
-13.652340 -1.785714 17.233004 22.057914 0.130061 0.674112 0.048413 -0.025806 103838.000000 1 0 0
-10.155840 10.935386 13.972104 20.443665 -0.822342 0.818326 0.010375 0.029742 493247.000000 1 0 0
-7.099440 -8.215414 17.224704 20.361373 0.858138 0.562452 0.024458 -0.012247 223821.000000 1 0 0
-4.791940 1.638886 18.309904 18.997400 -0.329538 0.269850 0.004744 -0.006392 458017.000000 1 0 0
-15.537440 -3.708214 14.599504 21.640435 0.234281 0.830319 0.045802 -0.013338 137866.000000 1 0 0
-14.589640 2.943786 12.911004 19.703236 -0.199099 0.856252 0.013505 0.011013 203366.000000 1 0 0
-13.773740 10.924886 10.490904 20.472619 -0.670561 1.032777 -0.045341 0.036163 -16772.100000 1 0 0
-3.642440 11.368686 15.847404 19.840731 -1.260737 0.645613 -0.014814 -0.003776 230776.000000 1 0 0
-13.419040 12.582986 8.248104 20.160193 -0.753256 1.149298 0.012856 -0.032255 104377.000000 1 0 0
-3.787840 -6.179814 18.694304 20.050307 1.020918 0.369882 0.018509 -0.011804 249371.000000 1 0 0
0.396260 -2.990714 17.502404 17.760505 -1.439067 0.170691 -0.001605 -0.019752 32970.400000 1 0 0
-4.585740 6.421086 21.093204 22.520715 -0.950624 0.357960 0.028713 0.001442 321907.000000 1 0 0
1.864860 -10.888914 16.568304 19.913685 -1.401180 0.588083 -0.008377 -0.000045 369545.000000 1 0 0
-14.810340 -0.256314 13.832604 20.267037 0.017305 0.819595 0.006991 -0.005926 -26690.700000 1 0 0
-13.871840 -5.684814 7.573604 16.795968 0.388934 1.103003 0.025296 -0.008009 5733.560000 1 0 0
10.153660 1.444986 16.248704 19.214712 0.141363 0.563036 0.021495 0.001293 358197.000000 1 0 0
-7.555040 12.132286 11.414704 18.291158 -1.013837 0.896874 0.013948 -0.030695 35778.200000 1 0 0
-1.758940 7.233786 20.141404 21.473185 -1.332269 0.354041 0.009737 -0.004736 607236.000000 1 0 0
0.974660 -13.208714 15.695304 20.536861 -1.497141 0.700918 -0.014459 -0.008047 387995.000000 1 0 0
-3.087640 -11.214514 17.798304 21.262137 1.302128 0.578856 0.007924 -0.022338 430764.000000 1 0 0
-2.150740 8.089486 16.425004 18.434918 -1.310939 0.471314 0.005442 -0.025288 452827.000000 1 0 0
-5.379640 -8.650714 20.181904 22.607181 1.014449 0.467448 0.075999 -0.040639 165492.000000 1 0 0
-6.610340 -3.093314 19.160104 20.503043 0.437681 0.363943 0.026003 -0.021901 365170.000000 1 0 0
-10.653140 -8.121614 15.996604 20.864835 0.651370 0.697146 0.047593 -0.018568 177401.000000 1 0 0
-0.570040 6.235686 17.761404 18.832849 -1.479634 0.338940 0.001774 -0.004200 88352.000000 1 0 0
-6.064340 -11.076814 19.171604 22.956969 1.069889 0.582463 0.046615 -0.009372 509656.000000 1 0 0
0.588860 3.615086 18.794204 19.147786 1.409325 0.192474 0.004653 -0.005947 138695.000000 1 0 0
-17.962240 -1.041414 7.708804 19.574276 0.057913 1.166009 0.016107 -0.001399 76506.500000 1 0 0
-1.768940 -8.775314 17.580304 19.728212 1.371881 0.470978 0.002973 -0.006167 139264.000000 1 0 0
5.683560 3.561786 14.824804 16.271569 0.559808 0.424885 0.001248 -0.004834 366631.000000 1 0 0
-13.326440 -6.471614 10.401604 18.101634 0.452079 0.958654 0.008902 -0.008994 12714.300000 1 0 0
3.991960 8.300786 16.499804 18.896622 1.122534 0.509145 -0.001512 -0.014313 110535.000000 1 0 0
6.286960 4.487986 17.795804 19.399961 0.619965 0.409522 0.011446 -0.013211 224406.000000 1 0 0
5.256960 -9.522614 18.249304 21.245067 -1.066381 0.537502 0.007973 0.003790 424201.000000 1 0 0
-4.352640 -0.646814 19.646204 20.132987 0.147523 0.220347 0.015669 -0.017370 676206.000000 1 0 0
-11.084340 1.676186 17.024904 20.384297 -0.150084 0.582305 0.045382 -0.018326 115186.000000 1 0 0
-16.792140 -4.158914 8.702704 19.365165 0.242785 1.104703 0.051235 -0.016608 451229.000000 1 0 0
-12.713440 -9.619114 12.149404 20.044125 0.647718 0.919607 0.021424 -0.017904 79548.900000 1 0 0
-14.525040 6.292486 13.299704 20.674968 -0.408809 0.872027 0.007894 -0.003962 416880.000000 1 0 0
1.238660 8.894386 16.895904 19.134156 1.432423 0.488531 -0.000944 -0.018977 190116.000000 1 0 0
-4.023640 -10.759514 15.076304 18.953938 1.212937 0.651099 0.009187 -0.001154 614583.000000 1 0 0
-18.766940 -2.826914 6.461704 20.048519 0.149509 1.242635 0.125210 -0.024591 -263581.000000 1 0 0
-0.711940 -0.529914 21.102504 21.121158 0.639858 0.042032 0.019809 -0.004880 498874.000000 1 0 0
-1.627740 2.431586 20.238104 20.448545 -0.980893 0.143589 0.002720 -0.012920 -15670.200000 1 0 0
-8.087840 1.816686 16.054404 18.068132 -0.220952 0.476626 0.008565 0.000973 435670.000000 1 0 0
2.589760 -2.156414 18.598304 18.901161 -0.694346 0.179255 -0.005023 -0.008728 -52116.200000 1 0 0
-12.308940 4.297386 14.323704 19.368687 -0.335897 0.738426 0.004221 -0.001963 125208.000000 1 0 0
-12.881740 -5.901514 13.673604 19.690976 0.429594 0.803197 -0.002538 0.002527 -76832.300000 1 0 0
-17.208940 -1.049314 9.797904 19.830472 0.060900 1.054016 0.035426 -0.012433 236323.000000 1 0 0
-7.483940 7.894886 14.372104 18.024870 -0.812113 0.647907 0.005921 -0.011931 17978.600000 1 0 0
-9.456240 0.683886 14.172904 17.051668 -0.072195 0.589580 0.009813 -0.002531 244641.000000 1 0 0
7.436160 -0.851614 14.874604 16.651593 -0.114027 0.466197 0.003008 -0.003153 153578.000000 1 0 0
3.752360 6.297186 18.347104 19.757302 1.033413 0.380110 -0.007708 0.001850 89781.800000 1 0 0
1.415960 0.594486 20.143904 20.202357 0.397498 0.076089 -0.001207 0.005495 209887.000000 1 0 0
-6.977140 6.658486 17.157804 19.682636 -0.762033 0.512089 0.016097 -0.019839 621944.000000 1 0 0
7.288160 -2.870914 17.120404 18.827311 -0.375250 0.429104 -0.005317 0.013257 251097.000000 1 0 0
-16.311840 2.543286 9.312404 18.954295 -0.154671 1.057205 0.022363 -0.002465 193799.000000 1 0 0
3.831260 -6.255614 18.878204 20.253341 -1.021272 0.370619 0.002477 -0.008724 119557.000000 1 0 0
-3.716340 -3.745614 20.489404 21.157894 0.789321 0.252044 0.020544 -0.021896 364044.000000 1 0 0
-9.975840 5.940786 14.412904 18.507893 -0.537117 0.678136 0.022690 -0.004540 126.463000 1 0 0
6.620960 2.362986 19.803404 21.014176 0.342804 0.341113 0.018536 -0.006745 230781.000000 1 0 0
-7.260240 11.473186 14.372004 19.771180 -1.006607 0.756975 0.021269 -0.023573 289810.000000 1 0 0
-14.379640 4.817486 8.944404 17.606379 -0.323269 1.037911 -0.002636 -0.003461 229373.000000 1 0 0
1.226160 -5.608814 20.256604 21.054507 -1.355569 0.276184 0.020541 -0.013576 319646.000000 1 0 0
-6.160040 -8.527614 13.786304 17.341524 0.945218 0.651809 0.006300 0.002897 370731.000000 1 0 0
-12.720740 10.094986 6.477504 17.483822 -0.670817 1.191265 -0.017624 -0.015810 96985.900000 1 0 0
-19.274740 2.033386 7.930204 20.941309 -0.105106 1.182419 -0.000453 -0.001741 81449.000000 1 0 0
-15.545940 9.078886 6.373604 19.097781 -0.528574 1.230533 -0.003945 -0.004841 153548.000000 1 0 0
-11.815940 8.366886 13.821004 20.016028 -0.616143 0.808621 -0.020600 -0.012986 344895.000000 1 0 0
-16.673040 8.837486 10.728804 21.707111 -0.487395 1.053821 0.020061 -0.016288 447493.000000 1 0 0
2.136260 11.050686 14.058004 18.008574 1.379837 0.675126 -0.010566 -0.045228 366083.000000 1 0 0
1.772260 14.476086 13.165404 19.647540 1.448976 0.836481 -0.000317 -0.018171 297027.000000 1 0 0
8.450260 5.169086 16.392404 19.152995 0.548983 0.543573 0.004218 -0.005715 181397.000000 1 0 0
-0.417440 13.349086 13.249204 18.812595 -1.539535 0.789398 -0.003592 0.003411 258257.000000 1 0 0
4.355160 13.299786 14.900504 20.442033 1.254340 0.754061 0.019646 0.008168 155790.000000 1 0 0
-3.480440 -4.617314 -13.945896 15.097055 0.924880 2.748554 -0.001622 -0.004290 -4394.520000 1 0 0
5.773860 -12.144114 16.781404 21.504243 -1.126985 0.675529 -0.017898 0.007542 185441.000000 1 0 0
8.809260 -13.623014 7.533504 17.886957 -0.996783 1.136058 0.016012 -0.006694 267680.000000 1 0 0
-0.385340 15.312586 0.439004 15.323723 -1.545637 1.542144 0.003414 -0.003333 -138867.000000 1 0 0
-14.299440 7.756086 8.681404 18.439025 -0.496993 1.080580 0.010133 0.001394 105608.000000 1 0 0
-15.798640 -9.530314 5.750504 19.325947 0.542796 1.268667 0.019099 0.002299 147805.000000 1 0 0
8.471560 -10.629614 11.474104 17.787947 -0.897901 0.869708 -0.012759 -0.004293 91432.200000 1 0 0
-25.771830 6.158086 30.790782 40.622427 -0.234549 0.710593 0.040379 -0.014860 543709.000000 0 0 1
-24.556840 5.422886 30.551282 39.570531 -0.217342 0.688702 0.040840 -0.018486 1007730.000000 0 0 1
-23.619540 5.499886 31.624872 39.853030 -0.228777 0.654196 0.025612 -0.008129 -286160.000000 0 0 1
-22.250740 4.898286 31.387832 38.785109 -0.216684 0.627879 0.036108 -0.013842 -588803.000000 0 0 1
-22.167140 3.487886 31.569202 38.731925 -0.156065 0.617948 0.035279 -0.015595 -102701.000000 0 0 1
-20.921040 2.999286 31.124132 37.621766 -0.142392 0.596529 0.027514 -0.011191 29982.100000 0 0 1
-20.382940 1.740686 31.742212 37.763240 -0.085192 0.572483 0.014365 -0.011658 109889.000000 0 0 1
-21.202040 0.625486 31.396592 37.890154 -0.029493 0.594156 0.021990 -0.013156 293926.000000 0 0 1
-20.616640 -0.538914 31.987002 38.059225 0.026134 0.572677 0.014748 -0.007123 209704.000000 0 0 1
-21.486040 -1.820014 32.141682 38.704653 0.084505 0.590909 0.025064 -0.020428 -313485.000000 0 0 1
-20.800840 -2.854414 31.453872 37.817572 0.136374 0.588586 0.043913 -0.035483 248872.000000 0 0 1
-21.126740 -4.215914 31.802702 38.412563 0.196966 0.595399 0.052235 -0.035586 110869.000000 0 0 1
-22.577940 -4.780614 31.596822 39.127699 0.208656 0.630843 0.039500 -0.024537 396209.000000 0 0 1
-23.570340 -4.450814 32.542112 40.427216 0.186634 0.635196 0.036533 -0.017505 125811.000000 0 0 1
-23.381340 -4.848314 33.904356 41.469249 0.204461 0.613604 0.029222 -0.010938 -452178.000000 0 0 1
-24.465140 -4.176214 -33.724206 41.872496 0.169071 2.507150 0.025603 -0.002989 283880.000000 0 0 1
-24.479740 -4.620614 -32.397036 40.867784 0.186558 2.486068 0.030834 -0.002109 405197.000000 0 0 1
-25.784040 -4.393014 -31.877716 41.234744 0.168757 2.454477 0.027948 0.004432 101389.000000 0 0 1
-25.948360 -5.119414 -30.467906 40.346241 0.194791 2.426696 0.020569 0.006629 -750752.000000 0 0 1
-26.130300 -6.521614 -30.395276 40.610305 0.244584 2.416536 0.023017 0.002188 548028.000000 0 0 1
-25.817250 -6.958314 -29.083546 39.506977 0.263266 2.398179 0.008757 0.000995 -125327.000000 0 0 1
-26.042500 -8.486114 -28.913666 39.827454 0.315006 2.383245 0.015904 -0.001618 1383860.000000 0 0 1
-27.465070 -8.811514 -28.905826 40.835275 0.310452 2.357266 0.025365 -0.003102 1418680.000000 0 0 1
-27.721080 -10.185414 -28.658356 41.152185 0.352113 2.341164 0.023749 -0.002803 -363578.000000 0 0 1
-29.196010 -10.504314 -28.465786 42.107584 0.345366 2.313151 0.046104 -0.000058 -328540.000000 0 0 1
-29.333470 -11.623114 -27.557866 41.892544 0.377261 2.288721 0.046586 -0.007825 -194821.000000 0 0 1
-30.586350 -11.683514 -26.900286 42.375167 0.364880 2.258562 0.038953 -0.001844 -52008.700000 0 0 1
-30.642350 -12.344614 -25.492446 41.727784 0.382970 2.228022 0.036935 -0.003529 -105766.000000 0 0 1
-29.888290 -11.587014 -24.564296 40.385312 0.369839 2.224648 0.033172 0.000263 260210.000000 0 0 1
-29.908370 -12.208814 -23.293396 39.826475 0.387562 2.195519 0.023449 -0.001055 -441081.000000 0 0 1
-29.475270 -11.382314 -22.125896 38.573358 0.368523 2.181697 0.032846 -0.003421 -59401.800000 0 0 1
-29.276210 -11.991114 -20.877196 37.904362 0.388742 2.154102 0.021130 0.000790 666651.000000 0 0 1
-28.188040 -12.927914 -20.830096 37.357590 0.430008 2.162272 0.025435 -0.005416 -15310.600000 0 0 1
-27.922120 -13.358514 -19.351896 36.504665 0.446235 2.129540 0.030983 -0.011353 25061.600000 0 0 1
-27.377750 -12.292214 -18.568096 35.290423 0.422010 2.124865 0.035251 -0.013322 280126.000000 0 0 1
-27.049960 -12.699714 -17.238096 34.498334 0.438944 2.094025 0.031233 -0.012089 111045.000000 0 0 1
-26.613220 -11.451414 -16.411296 33.297583 0.406343 2.086179 0.035488 -0.014950 -129191.000000 0 0 1
-25.419600 -10.789914 -16.748096 32.296704 0.401424 2.115974 0.039752 -0.017319 81383.400000 0 0 1
-25.357980 -9.513414 -16.085896 31.500608 0.358915 2.106741 0.058684 -0.018156 -197106.000000 0 0 1
-23.932340 -8.918014 -16.184596 30.236221 0.356695 2.135626 0.051202 -0.018236 -244158.000000 0 0 1
-23.057840 -9.436514 -15.250596 29.211171 0.388458 2.120085 0.034924 -0.020054 351676.000000 0 0 1
-21.755340 -8.850414 -15.387196 28.078292 0.386368 2.150780 0.037819 -0.038814 733085.000000 0 0 1
-20.838940 -9.079314 -14.152796 26.776800 0.410890 2.127684 0.026252 -0.019995 -62948.800000 0 0 1
-20.170140 -10.325114 -14.148096 26.713502 0.473123 2.128953 0.030930 -0.016539 -385446.000000 0 0 1
-19.006740 -10.260314 -13.382696 25.409187 0.494998 2.125495 0.037718 -0.014065 -189113.000000 0 0 1
-17.969940 -11.333214 -13.808896 25.338629 0.562671 2.147155 0.043845 -0.001471 186460.000000 0 0 1
-17.253440 -11.235014 -15.036296 25.495038 0.577201 2.201575 0.045438 -0.012732 712339.000000 0 0 1
-18.118540 -11.269714 -16.200196 26.790564 0.556438 2.220183 0.041568 -0.018344 256817.000000 0 0 1
-17.457640 -10.757014 -17.558196 26.995793 0.552230 2.278914 0.043759 -0.013484 -203172.000000 0 0 1
-18.310140 -10.768114 -18.657896 28.272436 0.531620 2.291525 0.023964 -0.001304 27816.700000 0 0 1
-17.637940 -10.522914 -19.886896 28.588762 0.537921 2.340078 0.028956 -0.011490 157833.000000 0 0 1
-18.460240 -11.003814 -21.114896 30.128114 0.537534 2.347367 0.054409 -0.008243 -338663.000000 0 0 1
-19.650140 -10.341414 -21.362896 30.813085 0.484447 2.336863 0.033903 -0.013581 -501436.000000 0 0 1
-20.339540 -10.788614 -22.506596 32.196863 0.487691 2.344837 0.047503 -0.005534 416520.000000 0 0 1
-21.603140 -9.979414 -22.894496 33.021846 0.432741 2.336873 0.031229 -0.007304 316801.000000 0 0 1
-21.235640 -8.704214 -23.432296 32.799212 0.389001 2.366586 0.025672 -0.012697 487942.000000 0 0 1
-22.196240 -8.421614 -24.442996 34.074283 0.362637 2.370780 0.027000 -0.016158 -108323.000000 0 0 1
-21.635740 -7.593714 -25.590766 34.360691 0.337548 2.410984 0.022882 -0.021081 -276482.000000 0 0 1
-20.668440 -8.366214 -26.267766 34.455384 0.384622 2.437765 0.040244 -0.021295 -28625.200000 0 0 1
-20.228840 -7.619814 -27.397906 34.898608 0.360243 2.473608 0.035174 -0.028856 -27047.200000 0 0 1
-18.947340 -8.225714 -28.005926 34.799368 0.409583 2.506105 0.051379 -0.023053 -113848.000000 0 0 1
-19.238640 -9.452814 -28.654656 35.785057 0.456700 2.499332 0.056218 -0.015192 -354485.000000 0 0 1
-18.105840 -9.991914 -29.245676 35.818562 0.504271 2.526110 0.039953 -0.005994 -709038.000000 0 0 1
-18.291440 -11.192914 -30.231756 37.065040 0.549139 2.524632 0.045175 -0.002247 -254528.000000 0 0 1
-18.625840 -10.877214 -31.603616 38.262570 0.528561 2.542712 0.035076 0.000120 361424.000000 0 0 1
-18.596740 -12.059414 -32.380966 39.240224 0.575298 2.541350 0.034743 0.003207 -183704.000000 0 0 1
-19.275140 -11.989914 -33.770446 40.690688 0.556468 2.549780 0.023108 0.001621 408551.000000 0 0 1
-18.598440 -11.105514 33.831874 40.172505 0.538300 0.569511 0.020815 -0.000458 441594.000000 0 0 1
-19.292640 -11.061314 32.593741 39.457707 0.520589 0.598747 0.019955 -0.005875 51153.400000 0 0 1
-18.948140 -12.226314 31.643272 38.856292 0.573030 0.619159 0.030281 -0.003774 -249013.000000 0 0 1
-17.618940 -12.236214 31.180252 37.846534 0.607020 0.602608 0.036654 -0.008842 108689.000000 0 0 1
-17.182540 -13.324814 30.319722 37.310534 0.659613 0.622143 0.040827 -0.010593 144081.000000 0 0 1
-17.206140 -14.779814 30.813432 38.261754 0.709687 0.634560 0.034576 0.004417 -1372050.000000 0 0 1
-18.418540 -15.426414 30.638802 38.935242 0.697221 0.665000 0.022012 0.002111 -650326.000000 0 0 1
-18.508740 -16.777114 31.256122 40.012376 0.736363 0.674272 0.025282 -0.004839 -305420.000000 0 0 1
-18.712140 -16.785014 32.781355 41.309783 0.731162 0.654176 0.005584 -0.006109 -856846.000000 0 0 1
-17.575640 -16.504414 33.512601 41.284298 0.753976 0.623651 0.019479 -0.002254 -725031.000000 0 0 1
-17.894840 -16.188714 -33.678836 41.431435 0.735383 2.519878 0.020047 -0.001939 247230.000000 0 0 1
-16.682740 -15.624514 -32.895426 40.056814 0.752655 2.534341 0.018890 -0.002890 124860.000000 0 0 1
-16.341440 -14.303314 -33.280006 39.738977 0.718988 2.563424 0.020901 0.001109 -483817.000000 0 0 1
-15.178140 -13.763014 -32.718306 38.604198 0.736540 2.582115 0.025333 0.000571 -208115.000000 0 0 1
-15.197040 -13.359214 -31.227086 37.209536 0.721129 2.566649 0.041813 0.000469 -336448.000000 0 0 1
-15.249140 -14.508714 -30.443776 37.011655 0.760522 2.536669 0.036362 -0.007373 -400889.000000 0 0 1
-15.764240 -14.229314 -29.187596 36.095712 0.734268 2.512593 0.040426 -0.005711 -312761.000000 0 0 1
-15.694940 -15.455414 -28.312006 35.871586 0.777709 2.480399 0.049883 -0.006705 -163701.000000 0 0 1
-14.415940 -15.945014 -28.036806 35.328817 0.835719 2.487493 0.045999 -0.012285 -306740.000000 0 0 1
-13.704540 -16.635414 -29.065706 36.185173 0.881700 2.503526 0.035739 -0.015423 -65210.400000 0 0 1
-12.254840 -16.956414 -28.624856 35.455373 0.944980 2.510442 0.023038 -0.008979 -33654.100000 0 0 1
-11.427340 -15.832814 -28.502336 34.549172 0.945621 2.540961 0.026893 -0.009886 -131466.000000 0 0 1
-10.127740 -16.272514 -28.115676 34.027299 1.014081 2.543246 0.034403 -0.014354 309346.000000 0 0 1
-9.077440 -15.181114 -28.085076 33.190927 1.031891 2.579548 0.025773 -0.017063 -404078.000000 0 0 1
-9.206640 -14.316114 -26.936666 31.863731 0.999290 2.578055 0.027153 -0.017376 242931.000000 0 0 1
-8.074440 -13.459814 -26.708086 30.978784 1.030456 2.610277 0.017145 -0.012376 406403.000000 0 0 1
-7.950940 -12.125214 -27.496686 31.085463 0.990399 2.656327 0.011017 -0.026199 -250289.000000 0 0 1
-7.458240 -12.268214 -28.798016 32.178567 1.024565 2.679102 0.019323 -0.025853 110745.000000 0 0 1
-7.576140 -11.150014 -29.608576 32.532884 0.973980 2.714351 0.017603 -0.032395 -552776.000000 0 0 1
-6.600340 -11.108714 -30.798946 33.399747 1.034683 2.744350 0.013378 -0.017740 -966816.000000 0 0 1
-5.298540 -11.131014 -30.265806 32.680163 1.126519 2.754795 0.028505 -0.015684 -366545.000000 0 0 1
-4.398540 -10.708114 -31.273196 33.347019 1.181043 2.787066 0.030627 -0.016747 -357635.000000 0 0 1
-4.201040 -9.096614 -31.330526 32.893753 1.138153 2.832061 0.017153 -0.017101 -1010600.000000 0 0 1
-3.195640 -8.719314 -32.241786 33.552516 1.219497 2.861157 0.015013 -0.018210 40116.300000 0 0 1
-3.172140 -7.309414 -32.426676 33.391307 1.161344 2.900641 0.006526 -0.013187 -160771.000000 0 0 1
-1.818940 -6.912214 -33.039516 33.803800 1.313481 2.928543 0.026597 -0.014270 -13385.200000 0 0 1
-1.483240 -7.353414 34.174528 34.988156 1.371759 0.216079 0.030700 -0.021539 -931206.000000 0 0 1
-0.240940 -6.911714 33.756680 34.457848 1.535951 0.202079 0.030184 -0.009911 -440194.000000 0 0 1
0.328860 -7.576714 32.486913 33.360370 -1.527420 0.229336 0.017474 -0.009085 -156696.000000 0 0 1
-0.301940 -7.052614 31.355662 32.140443 1.528010 0.221437 0.016173 -0.005951 111441.000000 0 0 1
0.368960 -7.525314 30.199982 31.125639 -1.521806 0.244491 0.009986 -0.008183 87260.300000 0 0 1
0.000060 -6.882314 28.828102 29.638248 -1.570788 0.234350 0.016084 -0.007983 -330304.000000 0 0 1
0.612260 -5.670614 28.578402 29.141994 -1.463242 0.196988 0.014916 -0.006301 -252080.000000 0 0 1
0.441060 -5.129614 27.275022 27.756699 -1.485024 0.186569 0.021133 0.002569 519231.000000 0 0 1
-0.870540 -4.244214 27.152342 27.495834 1.368490 0.158231 0.021708 0.010145 1336240.000000 0 0 1
-2.082740 -4.950614 26.998992 27.528022 1.172571 0.196366 0.022323 0.005945 537972.000000 0 0 1
-3.238440 -4.082214 26.989902 27.488303 0.900151 0.190717 0.026235 -0.006467 1633930.000000 0 0 1
-4.584640 -4.781614 27.417172 28.206100 0.806425 0.237072 0.029761 -0.002064 850064.000000 0 0 1
-5.007240 -5.780514 26.478142 27.560458 0.856956 0.281177 0.024850 0.000783 643531.000000 0 0 1
-6.319740 -6.285314 26.807282 28.250216 0.782667 0.320991 0.020163 -0.000755 1272770.000000 0 0 1
-6.476340 -7.820514 26.597192 28.469529 0.879141 0.364692 0.025340 -0.001340 -18978.700000 0 0 1
-5.742640 -8.507514 27.573372 29.421872 0.977041 0.356361 0.024482 -0.005398 -84602.300000 0 0 1
-6.045940 -9.893114 27.743122 30.068388 1.022236 0.395854 0.024606 -0.006812 37395.100000 0 0 1
-5.189440 -10.430014 28.911152 31.170021 1.109112 0.383045 0.020782 -0.011001 -19232.700000 0 0 1
-5.109840 -11.798214 28.833282 31.570025 1.162083 0.419453 0.033081 -0.017173 173849.000000 0 0 1
-4.734240 -12.361014 30.091952 32.874508 1.205032 0.414400 0.045671 -0.023677 -286711.000000 0 0 1
-4.743640 -13.941714 30.018702 33.436447 1.242836 0.456085 0.058510 -0.029379 987048.000000 0 0 1
-6.087940 -14.477814 30.013482 33.874463 1.172742 0.482105 0.075232 -0.031722 827913.000000 0 0 1
-6.106640 -15.903014 30.004742 34.503355 1.204165 0.516368 0.061863 -0.033298 35711.000000 0 0 1
-6.387640 -16.540114 31.387642 36.049430 1.202251 0.514206 0.067725 -0.025838 -601939.000000 0 0 1
-7.684740 -16.430114 31.860832 36.662195 1.133302 0.517542 0.070926 -0.024556 -776212.000000 0 0 1
-7.695540 -16.899914 33.175037 38.018568 1.143494 0.510294 0.066372 -0.027390 -446576.000000 0 0 1
-9.134340 -17.159314 33.620823 38.836040 1.081624 0.524225 0.058080 -0.022555 -330399.000000 0 0 1
-9.498940 -18.469514 33.169439 39.135208 1.095771 0.559426 0.050977 -0.022796 188515.000000 0 0 1
-10.523540 -18.376814 32.184292 38.526366 1.050728 0.581966 0.055523 -0.026400 -256763.000000 0 0 1
-10.936040 -19.808314 31.779562 39.011625 1.066347 0.618726 0.057945 -0.028934 12789.300000 0 0 1
-11.955340 -20.282314 32.661923 40.262932 1.038173 0.624568 0.060133 -0.023335 317982.000000 0 0 1
-12.329740 -21.613314 32.402352 40.854257 1.052373 0.654881 0.050241 -0.023565 -160195.000000 0 0 1
-11.770840 -22.632614 33.413370 42.038568 1.091212 0.652075 0.050127 -0.026840 -647713.000000 0 0 1
-10.369440 -22.556714 33.547336 41.734331 1.139901 0.637089 0.041663 -0.022311 -297154.000000 0 0 1
-9.871140 -23.365314 -33.889946 42.330908 1.171071 2.499085 0.026216 -0.028010 113300.000000 0 0 1
-10.009840 -24.908714 -33.912546 43.251610 1.188687 2.472002 0.042701 -0.019577 -429717.000000 0 0 1
-9.397140 -25.531564 33.490399 43.148277 1.218124 0.682228 0.052139 -0.014988 -72515.100000 0 0 1
-9.508840 -26.895404 33.676941 44.135215 1.230963 0.702793 0.057760 -0.011429 -729763.000000 0 0 1
-8.815240 -27.842044 32.606625 43.773050 1.264166 0.730409 0.047144 -0.012188 -256010.000000 0 0 1
-7.464440 -27.577724 32.383422 43.184891 1.306461 0.722918 0.039615 -0.016981 -872418.000000 0 0 1
-6.689840 -28.215734 33.355488 44.198079 1.337999 0.715627 0.036546 -0.015582 -857694.000000 0 0 1
-5.206640 -27.783684 33.361294 43.726630 1.385546 0.702930 0.046952 -0.023027 303196.000000 0 0 1
-4.733340 -26.599914 34.060943 43.475370 1.394694 0.670592 0.050239 -0.020452 220139.000000 0 0 1
-5.045740 -25.435484 33.320987 42.222169 1.374965 0.661320 0.055841 -0.021901 -153735.000000 0 0 1
-4.737740 -24.123314 33.999451 41.956444 1.376868 0.626045 0.054478 -0.026164 266854.000000 0 0 1
-3.348140 -23.999714 34.248583 41.954282 1.432183 0.615766 0.041523 -0.029147 45830.100000 0 0 1
-3.150340 -22.801714 -33.566326 40.700628 1.433503 2.540490 0.042434 -0.036260 27821.600000 0 0 1
34.735743 -14.783514 2.129904 37.810853 -0.402378 1.514436 0.092303 -0.025237 -152844.000000 0 0 1
35.401443 -15.359514 3.244704 38.726024 -0.409357 1.486912 0.077733 -0.026935 757605.000000 0 0 1
34.525163 -16.052314 4.165704 38.301655 -0.435213 1.461820 0.089966 -0.023084 221101.000000 0 0 1
35.240223 -16.369014 5.481904 39.241167 -0.434845 1.430640 0.085255 -0.008959 -255536.000000 0 0 1
-35.732922 -17.259714 5.258404 40.029867 0.449972 1.439054 0.088538 -0.014877 -206449.000000 0 0 1
-34.957958 -17.341114 6.438804 39.550364 0.460488 1.407268 0.080472 -0.011691 142404.000000 0 0 1
-33.698610 -18.231514 6.488904 38.859881 0.495920 1.403028 0.052821 -0.013985 40061.800000 0 0 1
-33.935580 -19.621514 6.384904 39.716425 0.524235 1.409333 0.063969 -0.014811 72471.400000 0 0 1
-32.807230 -20.308914 6.878204 39.192806 0.554300 1.394386 0.037337 -0.007225 51952.400000 0 0 1
-33.099750 -21.828514 6.992804 40.261356 0.583008 1.396226 0.038670 -0.008429 -192578.000000 0 0 1
-32.991440 -22.562414 5.790304 40.385954 0.599830 1.426926 0.049596 -0.006419 269788.000000 0 0 1
-33.357760 -23.920514 5.900504 41.469834 0.622104 1.428028 0.053473 -0.017995 -305182.000000 0 0 1
-32.602920 -24.772214 4.880804 41.236334 0.649754 1.452156 0.054945 -0.013854 22116.700000 0 0 1
-33.034680 -24.483014 3.561804 41.272201 0.637801 1.484389 0.057143 -0.015195 290259.000000 0 0 1
-32.297420 -25.282984 2.621704 41.100194 0.664176 1.506965 0.037205 -0.000967 149829.000000 0 0 1
-32.760720 -25.221084 1.144504 41.360341 0.656089 1.543121 0.051457 -0.006945 -108666.000000 0 0 1
-33.961890 -25.941804 0.881304 42.745338 0.652307 1.550177 0.059062 -0.011092 531468.000000 0 0 1
-34.594424 -25.398144 -0.307796 42.917766 0.633292 1.577968 0.046179 -0.011341 573351.000000 0 0 1
-35.641281 -24.239114 -0.042796 43.102638 0.597235 1.571789 0.060631 -0.021953 -391196.000000 0 0 1
35.038013 -24.610914 -0.003496 42.817747 -0.612339 1.570878 0.044202 -0.016710 -584224.000000 0 0 1
34.374693 -23.426114 0.348904 41.599568 -0.598197 1.562409 0.051987 -0.019108 423977.000000 0 0 1
32.813563 -23.437814 0.320604 40.325722 -0.620241 1.562846 0.037195 -0.007364 894149.000000 0 0 1
32.270603 -23.599314 -1.005996 39.991643 -0.631422 1.595954 0.036096 -0.019351 850744.000000 0 0 1
30.845443 -23.412014 -1.057496 38.738638 -0.649243 1.598098 0.033163 -0.006739 994164.000000 0 0 1
30.427823 -23.066414 -2.485096 38.263397 -0.648646 1.635789 0.030915 -0.002258 -99065.500000 0 0 1
30.898993 -21.812314 -2.884096 37.932082 -0.614690 1.646903 0.040967 -0.019641 85687.900000 0 0 1
30.819953 -21.640914 -4.304296 37.904164 -0.612182 1.684599 0.044781 -0.036967 12884.000000 0 0 1
31.025453 -20.117614 -4.608596 37.263069 -0.575266 1.694791 0.063415 -0.038559 458788.000000 0 0 1
30.012223 -19.368714 -3.925496 35.934526 -0.573107 1.680255 0.070290 -0.041005 456574.000000 0 0 1
29.999223 -17.978414 -4.303096 35.237670 -0.539902 1.693218 0.073236 -0.033440 -333930.000000 0 0 1
29.111393 -17.257914 -3.281496 34.001133 -0.535126 1.667458 0.083382 -0.029934 -391509.000000 0 0 1
29.487353 -17.080814 -1.909296 34.130684 -0.525029 1.626766 0.087591 -0.020986 -238121.000000 0 0 1
29.875523 -18.211114 -1.107296 35.005966 -0.547424 1.602433 0.071791 -0.013195 -332886.000000 0 0 1
28.960593 -19.452714 -0.926496 34.899605 -0.591476 1.597347 0.059130 -0.011644 -611465.000000 0 0 1
27.832413 -19.123114 -0.192596 33.769421 -0.602003 1.576500 0.052546 0.002996 -472652.000000 0 0 1
27.109593 -20.267414 0.203804 33.848776 -0.641970 1.564775 0.042519 0.002800 71624.300000 0 0 1
25.974383 -20.037814 1.261804 32.829479 -0.657085 1.532352 0.035066 0.008465 -763246.000000 0 0 1
25.438083 -21.291214 1.605204 33.211271 -0.696888 1.522444 0.025014 0.009973 22712.800000 0 0 1
24.510183 -21.220414 2.675704 32.530208 -0.713584 1.488450 0.018227 0.004575 286396.000000 0 0 1
23.090783 -20.757414 2.230504 31.129241 -0.732234 1.499082 0.009923 0.002843 -698810.000000 0 0 1
22.833283 -19.382214 1.912604 30.011449 -0.703831 1.507024 0.037806 -0.010043 201723.000000 0 0 1
22.955883 -18.531014 3.055304 29.659837 -0.679143 1.467602 0.049414 -0.014612 -509471.000000 0 0 1
22.894683 -17.070714 2.596304 28.676063 -0.640691 1.480133 0.041847 -0.009827 -449778.000000 0 0 1
21.615583 -16.745214 2.165204 27.428520 -0.659112 1.491774 0.046286 -0.010687 -794959.000000 0 0 1
21.564383 -15.555514 1.393704 26.625909 -0.624913 1.518429 0.060110 -0.020247 244024.000000 0 0 1
20.179283 -15.262214 0.748304 25.312025 -0.647541 1.541229 0.044295 -0.004887 452965.000000 0 0 1
19.156383 -15.084514 1.734704 24.444197 -0.667036 1.499771 0.040477 -0.009763 508295.000000 0 1 0
18.196783 -14.073514 1.530404 23.054909 -0.658314 1.504367 0.041385 -0.007831 -4438.560000 0 1 0
18.720383 -12.754514 2.140804 22.753316 -0.598077 1.476569 0.055421 -0.009102 -455456.000000 0 1 0
19.629483 -12.126914 1.306304 23.110281 -0.553398 1.514241 0.051142 -0.008204 -123543.000000 0 1 0
19.964783 -10.849614 1.766704 22.790962 -0.497791 1.493201 0.044931 -0.009432 -344426.000000 0 1 0
20.811583 -10.066414 0.797504 23.132027 -0.450517 1.536313 0.049546 -0.010068 -117706.000000 0 1 0
20.060683 -9.612714 -0.326296 22.247286 -0.446855 1.585464 0.048379 -0.000739 1068910.000000 0 1 0
20.947883 -8.973714 -1.271496 22.824505 -0.404732 1.626533 0.054253 0.007112 308010.000000 0 1 0
20.260083 -8.577714 -2.619296 22.156463 -0.400498 1.689292 0.057537 0.001137 -135811.000000 0 1 0
21.163583 -8.091814 -3.578496 22.938621 -0.365196 1.727439 0.064278 0.002864 724576.000000 0 1 0
22.179883 -8.979414 -4.088396 24.275339 -0.384676 1.740021 0.061034 0.007849 -141039.000000 0 1 0
21.801783 -10.221614 -4.927196 24.577966 -0.438413 1.772636 0.061282 -0.000959 -532075.000000 0 1 0
21.362383 -10.088814 -6.267996 24.442245 -0.441219 1.830135 0.057318 0.000959 1577610.000000 0 1 0
20.054783 -9.459714 -6.421196 23.084893 -0.440747 1.852670 0.057599 -0.002359 959229.000000 0 1 0
19.490083 -9.345514 -7.882596 23.007331 -0.447114 1.920492 0.055251 0.002443 100110.000000 0 1 0
19.285083 -10.581714 -8.573396 23.609113 -0.501844 1.942431 0.049384 -0.000073 1128270.000000 0 1 0
20.562683 -11.040014 -9.012596 25.018648 -0.492727 1.939316 0.054281 -0.001259 365656.000000 0 0 1
20.446083 -12.464914 -9.667396 25.823922 -0.547483 1.954501 0.047719 -0.006061 131785.000000 0 0 1
19.567683 -12.535114 -10.795996 25.623755 -0.569741 2.005705 0.062890 -0.005893 386443.000000 0 0 1
19.393383 -13.839514 -11.215696 26.333008 -0.619809 2.010772 0.062591 -0.010311 108576.000000 0 0 1
18.103883 -14.053714 -12.058596 25.897243 -0.660110 2.055145 0.062092 -0.018254 260255.000000 0 0 1
17.884583 -15.402214 -12.389196 26.656682 -0.710961 2.054170 0.061024 -0.021014 175246.000000 0 0 1
16.841583 -15.529014 -13.338996 26.508829 -0.744872 2.098083 0.070471 -0.026343 -64070.200000 0 0 1
16.653883 -16.996714 -13.711196 27.463376 -0.795586 2.093534 0.071488 -0.020639 -219832.000000 0 0 1
16.095283 -17.776114 -12.660696 27.117183 -0.834981 2.056565 0.060722 -0.016966 356805.000000 0 0 1
16.218583 -19.191014 -12.956596 28.270317 -0.869146 2.046890 0.066697 -0.018316 -726709.000000 0 0 1
15.259483 -20.042414 -12.152596 27.968478 -0.920065 2.020291 0.057952 -0.015549 -834482.000000 0 0 1
13.941883 -19.925114 -12.601396 27.389441 -0.960262 2.048884 0.053534 -0.017181 -656651.000000 0 0 1
13.064783 -20.492414 -11.644996 26.948720 -1.003229 2.017635 0.043029 -0.008433 242790.000000 0 0 1
11.581083 -20.503614 -12.064396 26.458823 -1.056638 2.044257 0.030789 -0.009853 36759.000000 0 0 1
10.710183 -21.078714 -11.132296 26.133278 -1.100686 2.010843 0.030295 -0.008673 -590587.000000 0 0 1
9.386383 -20.839114 -11.505896 25.588250 -1.147592 2.037176 0.023462 -0.003518 -333999.000000 0 0 1
8.282783 -21.403814 -10.604896 25.282238 -1.201567 2.003647 0.020440 -0.004911 -248565.000000 0 0 1
8.291783 -22.815014 -10.510696 26.452850 -1.222203 1.979409 0.032600 -0.008342 -326128.000000 0 0 1
7.461483 -23.375314 -9.545896 26.328752 -1.261816 1.941816 0.029361 -0.016264 -264626.000000 0 0 1
7.562083 -24.947914 -9.515196 27.751081 -1.276484 1.920774 0.041366 -0.011909 -243663.000000 0 0 1
8.804383 -25.429354 -9.114996 28.412187 -1.237485 1.897384 0.034329 -0.006606 -767182.000000 0 0 1
8.937883 -26.778124 -9.532996 29.796505 -1.248648 1.896459 0.027116 -0.006709 404354.000000 0 0 1
10.383583 -27.300624 -9.304096 30.654675 -1.207350 1.879174 0.024020 0.001345 454082.000000 0 0 1
10.690283 -27.341194 -7.901196 30.401512 -1.198077 1.833710 0.033506 -0.007122 -675365.000000 0 0 1
12.008783 -27.753974 -7.706996 31.207239 -1.162433 1.820340 0.052391 0.000932 -863129.000000 0 0 1
12.319183 -27.999644 -6.196196 31.211139 -1.156309 1.770649 0.058839 -0.014975 -193782.000000 0 0 1
11.773983 -29.043974 -5.393996 31.800539 -1.185657 1.741240 0.062404 -0.020231 -1247740.000000 0 0 1
10.405083 -29.019534 -5.279396 31.277326 -1.226521 1.740401 0.053708 -0.022913 -1256440.000000 0 0 1
9.897883 -30.200604 -4.433596 32.088960 -1.254090 1.709406 0.061621 -0.033294 -231297.000000 0 0 1
10.050183 -31.506174 -4.984796 33.443884 -1.262009 1.720403 0.077333 -0.030783 -522315.000000 0 0 1
9.183883 -31.934904 -5.985396 33.763986 -1.290771 1.749010 0.082160 -0.027297 -408998.000000 0 0 1
9.341783 -33.406424 -6.356396 35.265590 -1.298121 1.752030 0.073781 -0.023840 -207765.000000 0 0 1
8.903783 -34.269175 -5.323296 35.804905 -1.316598 1.720025 0.067416 -0.018649 -129242.000000 0 0 1
9.477083 33.182182 -5.378596 34.925659 1.292595 1.725413 0.067921 -0.017944 -244527.000000 0 0 1
8.899083 32.196818 -4.341096 33.684921 1.301132 1.700029 0.033693 -0.008033 -836999.000000 0 0 1
7.632583 31.741678 -4.636996 32.974114 1.334817 1.711889 0.031835 -0.009195 -1230230.000000 0 0 1
7.234483 30.738018 -3.685996 31.792296 1.339644 1.686998 0.014902 -0.004529 625269.000000 0 0 1
5.830383 30.052678 -3.899596 30.860390 1.379171 1.697498 0.022650 -0.007095 746033.000000 0 0 1
5.708583 29.405228 -5.122696 30.389100 1.379047 1.740175 0.031424 -0.012301 -68939.000000 0 0 1
5.350883 30.318838 -6.114196 31.388649 1.396108 1.766840 0.027006 -0.019095 -671757.000000 0 0 1
5.393083 29.660198 -7.500596 31.065603 1.390932 1.814650 0.041116 -0.026903 92369.300000 0 0 1
4.579083 28.511278 -7.743796 29.896946 1.411550 1.832800 0.038055 -0.023392 96538.700000 0 0 1
5.090983 27.312398 -7.161596 28.691003 1.386513 1.823075 0.044063 -0.015060 331944.000000 0 0 1
4.244083 25.988148 -7.511196 27.382735 1.408917 1.848662 0.046109 -0.016824 898721.000000 0 0 1
2.903883 25.946358 -6.999296 27.030283 1.459341 1.832724 0.041931 -0.013726 845174.000000 0 0 1
1.894483 26.472928 -7.880296 27.685810 1.499355 1.859420 0.042314 -0.020061 345247.000000 0 0 1
1.490783 25.571648 -9.029796 27.160060 1.512564 1.909713 0.053095 -0.020471 -982026.000000 0 0 1
2.421983 25.440208 -10.075296 27.469652 1.475879 1.946341 0.044666 -0.021533 -303914.000000 0 0 1
2.032883 24.753038 -11.254296 27.267283 1.488854 1.996256 0.051810 -0.013838 -673815.000000 0 0 1
1.901283 23.226368 -11.226996 25.867441 1.489120 2.019747 0.057065 -0.013605 309187.000000 0 0 1
0.836883 22.682968 -10.436596 24.982794 1.533918 2.001765 0.066707 -0.017148 265373.000000 0 1 0
0.833683 21.277668 -10.371796 23.685615 1.531635 2.024051 0.039887 -0.021449 -768411.000000 0 1 0
-0.220917 20.690368 -9.445396 22.745454 -1.560119 1.999031 0.049135 -0.014962 820188.000000 0 1 0
-1.511717 20.751468 -10.113396 23.134163 -1.498076 2.023238 0.052633 -0.016983 527268.000000 0 1 0
-2.526817 20.215768 -9.284896 22.389091 -1.446449 1.998416 0.042036 -0.015679 -287707.000000 0 1 0
-3.789817 19.993268 -10.118896 22.726319 -1.383464 2.032250 0.034475 -0.022383 -857856.000000 0 1 0
-4.850217 19.588668 -9.313996 22.225910 -1.328075 2.003206 0.027233 -0.023946 -352544.000000 0 1 0
-5.904317 19.174668 -10.181496 22.498705 -1.272087 2.040405 0.032097 -0.024693 -661350.000000 0 1 0
-6.749417 18.031768 -9.538796 21.486925 -1.212633 2.030782 0.028681 -0.029367 -166507.000000 0 1 0
-7.799217 18.452468 -8.701596 21.841226 -1.170905 1.980571 0.040538 -0.021656 -422898.000000 0 1 0
-8.968417 18.843768 -9.364296 22.873788 -1.126585 1.992582 0.043181 -0.023025 -974331.000000 0 1 0
-10.059517 19.122968 -8.334896 23.159281 -1.086531 1.938951 0.054011 -0.025290 -305760.000000 0 1 0
-10.416717 17.978168 -7.560896 22.110850 -1.045655 1.919792 0.055141 -0.027635 -366520.000000 0 1 0
-11.277317 18.324268 -6.502896 22.477641 -1.019108 1.864297 0.055581 -0.025648 -111153.000000 0 1 0
-11.869317 17.118168 -5.748796 21.609281 -0.964530 1.840072 0.051506 -0.026060 -356541.000000 0 1 0
-12.728617 17.518368 -4.737596 22.166546 -0.942449 1.786185 0.054970 -0.022958 -459972.000000 0 1 0
-13.220117 16.365268 -4.085696 21.430969 -0.891308 1.762615 0.054767 -0.019987 -781688.000000 0 1 0
-14.446817 16.618568 -3.247896 22.258396 -0.855194 1.717237 0.043466 -0.021618 -977496.000000 0 1 0
-15.573317 16.752568 -4.068696 23.232112 -0.821862 1.746837 0.067325 -0.028594 561585.000000 0 1 0
-16.730117 17.080268 -3.244196 24.127934 -0.795754 1.705663 0.065445 -0.024448 851663.000000 0 1 0
-18.087417 17.307368 -3.924296 25.339688 -0.763363 1.726290 0.066868 -0.026107 -93548.100000 0 0 1
-18.033617 18.213668 -5.000396 26.114230 -0.790365 1.763468 0.074735 -0.027320 1230130.000000 0 0 1
-19.343717 18.459268 -5.604996 27.319223 -0.762006 1.777430 0.063215 -0.027348 1610600.000000 0 0 1
-19.173217 19.376468 -6.847096 28.105916 -0.790671 1.816890 0.052525 -0.014716 216222.000000 0 0 1
-18.666617 20.648168 -6.415996 28.564917 -0.835758 1.797340 0.055585 -0.023997 202891.000000 0 0 1
-18.435817 21.526268 -7.522496 29.323157 -0.862579 1.830235 0.045757 -0.009087 -106058.000000 0 0 1
-18.251417 23.023268 -7.098896 30.225477 -0.900499 1.807876 0.045105 -0.008214 -543206.000000 0 0 1
-17.064017 23.322368 -6.459696 29.611505 -0.939137 1.790713 0.043370 -0.013184 -443174.000000 0 0 1
-17.295017 24.554258 -5.741996 30.577766 -0.957151 1.759701 0.029615 -0.012639 171980.000000 0 0 1
-16.051617 24.995058 -4.942196 30.113662 -0.999930 1.735660 0.044442 -0.012209 -165536.000000 0 0 1
-16.302717 26.094938 -4.043196 31.033399 -1.012379 1.701453 0.036708 -0.010705 556948.000000 0 0 1
-15.125817 26.748328 -3.532896 30.931291 -1.056141 1.685264 0.040054 -0.012240 727471.000000 0 0 1
-14.388717 27.752688 -4.415196 31.571203 -1.092488 1.711105 0.049880 -0.015211 51729.800000 0 0 1
-15.135217 28.964248 -4.443896 32.981066 -1.089273 1.705948 0.054594 -0.022490 -179685.000000 0 0 1
-14.493117 30.017308 -5.078396 33.717642 -1.120983 1.721987 0.053450 -0.018742 -627367.000000 0 0 1
-15.182917 31.325088 -4.831396 35.144339 -1.119473 1.708706 0.059736 -0.037936 -1378470.000000 0 0 1
-16.467217 31.266358 -5.298696 35.732766 -1.086037 1.719632 0.062557 -0.026049 -1354990.000000 0 0 1
-17.122117 32.511338 -5.092096 37.095599 -1.086056 1.708501 0.079846 -0.036475 -255114.000000 0 0 1
12.521160 -8.410014 18.704652 24.028562 -0.591454 0.678629 0.036318 -0.004514 52955.400000 0 1 0
13.223360 -9.547214 19.214452 25.203208 -0.625336 0.703812 0.039760 0.001535 258475.000000 0 0 1
13.311460 -10.594714 18.236152 24.939931 -0.672242 0.750713 0.038588 -0.007704 -49838.100000 0 1 0
13.592160 -12.045914 18.827252 26.159440 -0.725161 0.767409 0.063685 -0.012749 -122399.000000 0 0 1
14.854560 -12.093314 19.462552 27.307456 -0.683288 0.777429 0.057143 -0.007476 280062.000000 0 0 1
15.057360 -13.360114 20.093452 28.442285 -0.725744 0.786307 0.062040 -0.011582 -118398.000000 0 0 1
15.626760 -14.553214 19.287352 28.774878 -0.749842 0.836204 0.062762 -0.016238 -579665.000000 0 0 1
14.827360 -14.911214 18.210752 27.817735 -0.788218 0.857083 0.064819 -0.017392 80269.100000 0 0 1
15.208060 -16.224814 17.830352 28.503528 -0.817734 0.894961 0.069089 -0.019911 -153698.000000 0 0 1
14.584160 -16.694614 16.499852 27.634272 -0.852768 0.930941 0.068096 -0.026980 1947450.000000 0 0 1
13.132460 -16.916914 16.704552 27.160367 -0.910680 0.908367 0.084610 -0.025712 1826270.000000 0 0 1
12.418160 -16.625014 15.547052 25.928992 -0.929246 0.927794 0.091222 -0.025282 -88046.400000 0 0 1
11.908360 -17.853814 14.791852 26.064662 -0.982568 0.967323 0.075955 -0.014239 156713.000000 0 0 1
13.008560 -18.562614 14.203252 26.749311 -0.959538 1.011044 0.077560 -0.017921 437837.000000 0 0 1
12.706560 -19.684714 13.355752 26.968885 -0.997588 1.052699 0.073279 -0.011808 -391421.000000 0 0 1
13.985960 -20.368814 12.864452 27.856593 -0.969096 1.090762 0.079442 -0.017872 -43442.500000 0 0 1
14.711860 -21.030414 13.875952 29.176346 -0.960371 1.075163 0.064693 -0.016799 -116202.000000 0 0 1
15.128960 -22.311214 13.403352 30.105241 -0.974928 1.109380 0.053245 -0.019871 -501751.000000 0 0 1
15.936060 -23.148914 14.337252 31.549755 -0.967888 1.099061 0.041229 -0.015979 -294321.000000 0 0 1
17.217760 -22.596014 14.545852 31.915716 -0.919671 1.097572 0.021612 -0.014820 -430279.000000 0 0 1
17.907460 -23.386014 15.464452 33.267583 -0.917301 1.087331 0.013639 -0.012958 -274065.000000 0 0 1
19.365760 -22.929614 15.669852 33.857704 -0.869461 1.089628 -0.002159 -0.006908 -196211.000000 0 0 1
20.187060 -23.315514 14.599152 34.121340 -0.857189 1.128673 -0.003931 0.001806 28474.800000 0 0 1
21.524160 -22.868814 14.898552 34.759732 -0.815679 1.127837 -0.009647 0.000709 903896.000000 0 0 1
22.500660 -23.882514 14.205752 35.755525 -0.815182 1.162221 -0.017606 0.001935 -20618.200000 0 0 1
22.742960 -25.017214 14.960652 36.971940 -0.832980 1.154202 -0.013367 0.001110 414811.000000 0 0 1
23.877060 -25.795744 14.590352 38.058019 -0.824005 1.177353 -0.003774 -0.005669 97889.200000 0 0 1
24.370760 -26.844704 15.604152 39.472289 -0.833665 1.164381 0.012561 -0.004452 -97280.600000 0 0 1
25.038260 -26.283154 16.756952 39.981422 -0.809650 1.138322 0.012741 0.001369 363274.000000 0 0 1
25.288060 -27.420354 17.548352 41.222645 -0.825831 1.131064 0.031238 0.004696 -50237.900000 0 0 1
25.797760 -27.061704 18.922252 41.903602 -0.809305 1.102276 0.030586 0.007040 -213543.000000 0 0 1
24.747360 -26.675044 19.771752 41.411496 -0.822868 1.073051 0.031293 0.009912 7011.000000 0 0 1
25.195460 -26.159034 20.993952 41.950593 -0.804159 1.046684 0.037320 0.006644 23936.500000 0 0 1
24.014860 -25.988834 21.985452 41.659250 -0.824854 1.014853 0.033729 0.006712 192649.000000 0 0 1
23.518960 -27.223684 22.415152 42.387610 -0.858279 1.013594 0.039413 0.008410 -278965.000000 0 0 1
22.383560 -27.072764 23.227452 42.112621 -0.879931 0.986568 0.053411 0.002016 -268418.000000 0 0 1
21.601860 -28.404534 23.268952 42.601667 -0.920604 0.992978 0.073859 0.002657 -198409.000000 0 0 1
22.314760 -29.453734 23.930062 44.024071 -0.922436 0.996115 0.068807 0.002288 481504.000000 0 0 1
22.104360 -30.726744 23.271552 44.433103 -0.947178 1.019557 0.069265 -0.000121 -156031.000000 0 0 1
23.079960 -31.821234 23.777192 45.941597 -0.943291 1.026808 0.053348 0.008380 74688.000000 0 0 1
22.789460 -32.309524 25.142452 46.855178 -0.956490 1.004395 0.047732 0.001226 485959.000000 0 0 1
23.964160 -32.823034 25.763752 48.118639 -0.940152 1.005790 0.032862 -0.004317 -545683.000000 0 0 1
23.911260 -33.184164 27.263302 49.155109 -0.946403 0.982868 0.030640 -0.017546 -508723.000000 0 0 1
23.234060 -34.262683 27.791612 49.861074 -0.974909 0.979568 0.027482 -0.003833 -315740.000000 0 0 1
21.849760 -34.177179 27.546812 49.033850 -1.001974 0.974246 0.037584 -0.004425 -621993.000000 0 0 1
21.028960 33.309153 28.046532 48.356228 1.007660 0.952070 0.046144 -0.014161 -74436.300000 0 0 1
20.831860 33.299986 29.397652 49.061975 1.011779 0.928302 0.037050 -0.008887 128379.000000 0 0 1
20.276460 32.105538 29.949842 48.362108 1.007496 0.902967 0.041282 -0.020113 14278.000000 0 0 1
19.945260 32.211578 31.463932 49.248129 1.016382 0.877747 0.034243 -0.018549 281833.000000 0 0 1
21.168560 32.440338 32.152562 50.341541 0.992639 0.878004 0.014221 -0.005377 219215.000000 0 0 1
20.994560 32.846957 33.487069 51.391419 1.002077 0.861094 -0.000172 -0.009604 -133509.000000 0 0 1
22.259660 32.646378 -34.162517 52.233668 0.972361 2.283699 -0.014793 0.000760 38543.800000 0 0 1
22.484060 31.326838 -33.883806 51.332408 0.948273 2.291730 -0.006968 0.000755 569035.000000 0 0 1
23.804160 31.057988 -33.396206 51.444565 0.916855 2.277287 -0.011987 0.013448 586211.000000 0 0 1
24.052860 29.489688 -33.104166 50.438751 0.886594 2.286733 -0.000357 0.008845 -129925.000000 0 0 1
24.367360 28.822338 34.182930 50.921195 0.868960 0.834847 -0.001892 0.001949 337007.000000 0 0 1
23.940960 27.452328 34.194015 49.960290 0.853616 0.816983 0.005595 -0.010671 -69471.600000 0 0 1
24.173860 26.755598 32.829772 48.765064 0.836047 0.832237 0.035842 -0.021594 897962.000000 0 0 1
25.546460 26.382128 32.595254 49.102840 0.801489 0.844887 0.032291 -0.028368 1382640.000000 0 0 1
25.516460 25.555088 31.436912 47.879345 0.786155 0.854513 0.051740 -0.035987 -85040.500000 0 0 1
26.871860 24.807038 31.249922 48.104508 0.745465 0.863704 0.044773 -0.027793 162032.000000 0 0 1
27.071260 23.849908 32.309372 48.431052 0.722221 0.840459 0.056805 -0.041628 444647.000000 0 0 1
27.902160 24.306788 33.364210 49.824903 0.716642 0.837087 0.052519 -0.041022 -1019870.000000 0 0 1
27.669760 23.551068 -33.815026 49.635919 0.705160 2.320280 0.049319 -0.047073 961340.000000 0 0 1
26.512360 23.900678 -32.979486 48.598294 0.733639 2.316670 0.045867 -0.038983 1031300.000000 0 0 1
25.225760 23.735958 -33.486556 48.177631 0.754980 2.339306 0.044013 -0.036831 -624642.000000 0 0 1
24.707660 22.257968 -33.553186 47.240892 0.733286 2.360660 0.038976 -0.041096 -687077.000000 0 0 1
24.680060 21.626368 -32.287836 46.035959 0.719548 2.348102 0.022747 -0.038870 365795.000000 0 0 1
24.431660 20.255968 -32.497076 45.423234 0.692227 2.368034 0.015219 -0.023749 -117290.000000 0 0 1
24.295460 19.478168 -31.155696 44.049357 0.675789 2.356454 0.010140 -0.023459 346159.000000 0 0 1
23.104560 19.714068 -30.383926 42.961007 0.706380 2.356389 0.003919 -0.014551 641130.000000 0 0 1
23.134460 18.902268 -29.226736 41.793553 0.685058 2.345231 0.008173 -0.008095 45245.300000 0 0 1
21.837160 18.809568 -28.365966 40.438712 0.711050 2.348234 0.028221 -0.014760 -17137.200000 0 0 1
21.843660 18.189768 -27.089306 39.266317 0.694379 2.332129 0.031102 -0.007713 -16929.100000 0 0 1
22.545060 18.901868 -26.056136 39.299906 0.697723 2.295626 0.022749 0.002933 103296.000000 0 0 1
22.740860 18.097868 -24.737496 38.165734 0.672193 2.275962 0.033123 0.009742 -224767.000000 0 0 1
23.746160 17.131268 -24.808196 38.377169 0.624966 2.273694 0.035770 -0.013270 -135378.000000 0 0 1
23.752160 16.266368 -23.679196 37.275517 0.600477 2.259126 0.044468 -0.006057 112075.000000 0 0 1
24.813360 15.119468 -23.574996 37.417664 0.547250 2.252414 0.058514 -0.020376 -439940.000000 0 0 1
26.124260 15.525568 -23.337996 38.316867 0.536216 2.225695 0.077325 -0.027426 472425.000000 0 0 1
27.099960 14.456968 -23.090396 38.426269 0.490062 2.215425 0.075128 -0.038891 675985.000000 0 0 1
26.866760 13.736668 -21.726896 37.183018 0.472638 2.194842 0.064883 -0.031107 -908148.000000 0 0 1
25.878160 12.759168 -21.797496 36.160840 0.458070 2.217793 0.061097 -0.023223 -401618.000000 0 0 1
25.427160 12.380068 -20.539896 34.952738 0.453100 2.198945 0.046593 -0.032746 450119.000000 0 0 1
23.943660 11.869868 -20.523496 33.695794 0.460235 2.225699 0.046796 -0.027446 1082500.000000 0 0 1
22.951060 12.880868 -20.592296 33.417220 0.511426 2.234728 0.066645 -0.026171 235415.000000 0 0 1
21.658660 12.440968 -20.980096 32.619621 0.521391 2.269433 0.067402 -0.028359 892532.000000 0 0 1
20.581760 13.576768 -20.842396 32.285337 0.583130 2.272564 0.069614 -0.018685 -61035.300000 0 0 1
20.923760 14.608668 -21.726196 33.514840 0.609507 2.276088 0.050655 -0.005590 343641.000000 0 0 1
20.222660 15.840668 -21.520096 33.511152 0.664483 2.268131 0.035730 -0.000055 -482098.000000 0 0 1
18.972760 15.947968 -22.394196 33.403643 0.698995 2.305560 0.041234 0.006230 -693072.000000 0 0 1
17.960760 15.096868 -21.947896 32.128095 0.698981 2.322846 0.043823 -0.003450 -746076.000000 0 0 1
16.925260 14.986168 -22.868396 32.156076 0.724708 2.361956 0.050490 -0.016438 -507074.000000 0 0 1
15.810860 14.128068 -22.243696 30.730565 0.729250 2.380133 0.043475 -0.018433 -251694.000000 0 0 1
14.650660 14.015668 -23.015996 30.672738 0.763251 2.419423 0.043715 -0.017110 -54366.600000 0 0 1
13.520160 13.491968 -22.341596 29.393449 0.784355 2.434244 0.051189 -0.021083 264662.000000 0 0 1
12.221060 13.436968 -23.175696 29.445192 0.832752 2.476856 0.042011 -0.018072 -185362.000000 0 0 1
11.564660 14.677268 -23.082696 29.698054 0.903459 2.461073 0.047921 -0.018888 -52441.000000 0 0 1
11.086160 15.058968 -24.375196 30.721746 0.936197 2.487201 0.056447 -0.016752 -550328.000000 0 0 1
10.949860 16.597968 -24.532996 31.579422 0.987625 2.460470 0.052135 -0.020463 833717.000000 0 0 1
12.154660 17.387168 -24.318296 32.271178 0.960702 2.424258 0.051719 -0.011216 1481210.000000 0 0 1
13.300160 17.144668 -25.163436 33.226984 0.911011 2.429995 0.055508 -0.020150 471275.000000 0 0 1
13.045760 17.424668 -26.724126 34.467229 0.928131 2.458064 0.065235 -0.025542 -595952.000000 0 0 1
14.194460 17.318868 -27.516516 35.476535 0.884221 2.458502 0.043204 -0.027392 -219173.000000 0 0 1
13.820360 17.194168 -28.878146 36.339911 0.893754 2.489256 0.058498 -0.035190 -202100.000000 0 0 1
14.968260 17.550268 -29.830426 37.708289 0.864633 2.483375 0.044559 -0.031914 -395351.000000 0 0 1
16.059460 16.683168 -29.753926 37.703189 0.804445 2.480240 0.020162 -0.027230 -696514.000000 0 0 1
16.826160 16.832768 -30.899336 39.002958 0.785595 2.485252 0.020168 -0.022004 -193635.000000 0 0 1
18.087260 15.930368 -30.931636 39.213413 0.722078 2.479655 0.027115 -0.018116 -346234.000000 0 0 1
19.061660 16.189468 -29.921186 38.996450 0.704100 2.445385 0.023417 -0.015960 294117.000000 0 0 1
20.175360 15.354168 -30.134966 39.381618 0.650527 2.442154 0.027202 -0.013344 -1011360.000000 0 0 1
21.325460 15.892468 -30.884896 40.758099 0.640444 2.430671 0.020972 -0.017311 -1720100.000000 0 0 1
21.146860 15.915868 -32.262396 41.729687 0.645185 2.454555 0.021175 -0.010357 291107.000000 0 0 1
22.105060 16.812568 -32.823086 42.995943 0.650235 2.439356 0.010692 -0.008290 217572.000000 0 0 1
21.838060 17.135168 34.183571 44.034434 0.665309 0.682035 0.012073 -0.002407 -335854.000000 0 0 1
22.670660 18.186368 33.816445 44.589851 0.676080 0.709959 0.020645 -0.010578 30351.000000 0 0 1
22.750660 18.276968 32.442165 43.636386 0.676786 0.732558 0.041502 -0.016663 -18347.400000 0 0 1
23.492160 19.577468 31.994122 44.258137 0.694755 0.762809 0.048780 -0.024490 220984.000000 0 0 1
24.885560 19.591668 32.208332 45.171907 0.666931 0.777005 0.051304 -0.026842 147805.000000 0 0 1
25.554860 20.774068 31.774252 45.762604 0.682570 0.803311 0.074889 -0.036804 -191407.000000 0 0 1
27.073160 20.694068 31.688292 46.533303 0.652638 0.821695 0.053752 -0.037813 -503482.000000 0 0 1
27.767360 20.201168 32.790335 47.479675 0.628955 0.808453 0.041889 -0.037156 -145233.000000 0 0 1
29.161660 20.289168 32.598300 48.215163 0.607867 0.828339 0.044746 -0.029971 284195.000000 0 0 1
30.047760 19.742468 33.778104 49.331463 0.581306 0.816581 0.032642 -0.020910 92292.000000 0 0 1
30.063060 20.415068 -33.514526 49.434664 0.596544 2.315775 0.022422 -0.027686 -284296.000000 0 0 1
28.903360 20.266168 -32.756046 48.156831 0.611511 2.318825 0.023723 -0.028603 -522424.000000 0 0 1
29.160860 20.657968 -31.306946 47.510339 0.616351 2.290219 0.030698 -0.028586 504943.000000 0 0 1
30.115460 19.711068 -30.765216 47.349400 0.579544 2.278050 0.029895 -0.023673 816088.000000 0 0 1
30.635860 20.085068 -29.455806 47.006493 0.580306 2.248021 0.022198 -0.026455 132891.000000 0 0 1
31.997560 19.428168 -29.078786 47.401196 0.545680 2.231232 0.054716 -0.016112 -46965.400000 0 0 1
32.973960 20.069868 -29.842606 48.792036 0.546761 2.228914 0.021046 -0.013944 -791167.000000 0 0 1
34.250160 19.811268 -29.309886 49.240524 0.524407 2.208360 0.049072 -0.007316 419109.000000 0 0 1
35.392060 20.714268 -29.913656 50.759291 0.529526 2.201018 0.042301 0.000372 393355.000000 0 0 1
-35.956764 20.212668 -31.030016 51.616884 -0.512115 2.215748 0.023226 -0.004031 -293210.000000 0 0 1
-34.946864 21.093068 -31.430166 51.517533 -0.543044 2.226966 0.023071 -0.006239 -393886.000000 0 0 1
-34.076564 20.520868 -32.559366 51.404577 -0.542035 2.256728 0.027244 -0.016690 -50556.000000 0 0 1
-33.118064 19.567468 -32.109826 50.107214 -0.533657 2.266365 0.049629 -0.016308 567652.000000 0 0 1
-32.299964 19.202268 -33.228156 50.160992 -0.536364 2.294855 0.051833 -0.011807 459057.000000 0 0 1
-31.403064 17.956668 -32.960486 48.938615 -0.519436 2.309739 0.043890 -0.007918 627170.000000 0 0 1
-32.317764 16.869968 -32.798156 49.038278 -0.481095 2.303427 0.049928 -0.008064 858330.000000 0 0 1
-31.618164 15.629968 -32.900986 48.233589 -0.459105 2.321451 0.037392 -0.004168 3452.600000 0 0 1
-32.536464 14.417168 -33.060006 48.574070 -0.417108 2.319391 0.041476 -0.000094 -332021.000000 0 0 1
-31.850564 13.226568 -33.262726 47.914606 -0.393600 2.338116 0.048696 -0.001647 298316.000000 0 0 1
-32.791064 12.144068 -33.332286 48.309146 -0.354685 2.332256 0.059587 0.000717 111740.000000 0 0 1
-32.203364 10.723768 -33.267736 47.526815 -0.321452 2.346163 0.057408 0.005275 -9337.830000 0 0 1
-31.485064 10.337668 34.077649 47.533807 -0.317246 0.771431 0.028300 0.002376 259176.000000 0 0 1
-31.890464 9.016768 33.733354 47.288931 -0.275549 0.776536 0.053732 0.003143 389883.000000 0 0 1
-31.105364 8.399868 32.480033 45.749907 -0.263754 0.781373 0.050330 -0.001668 -68245.700000 0 0 1
-29.855564 7.921968 32.827655 45.075129 -0.259366 0.754977 0.045648 0.013263 -978846.000000 0 0 1
-29.126364 7.367468 31.775132 43.729666 -0.247752 0.757398 0.039336 0.002602 -279787.000000 0 0 1
20.569260 -4.707214 -32.288846 38.572295 -0.224973 2.562756 0.057443 -0.036554 -333268.000000 0 0 1
21.933760 -4.798114 -32.617286 39.597968 -0.215362 2.538722 0.043569 -0.034240 563296.000000 0 0 1
22.868160 -3.794414 -32.152286 39.637354 -0.164428 2.516931 0.043115 -0.031531 596345.000000 0 0 1
22.584760 -2.325314 -32.566606 39.699651 -0.102598 2.532775 0.039623 -0.033169 -504818.000000 0 0 1
23.622660 -1.462714 -32.166246 39.935410 -0.061841 2.507242 0.038781 -0.026000 378077.000000 0 0 1
23.298760 -0.107514 -32.602416 40.071952 -0.004615 2.521108 0.029825 -0.025178 -31675.800000 0 0 1
24.347660 0.853386 -32.023626 40.237413 0.035036 2.491234 0.032880 -0.016571 64301.900000 0 0 1
25.641960 0.715286 -32.588206 41.473038 0.027888 2.474734 0.028952 -0.020223 -212968.000000 0 0 1
26.503660 1.551786 -31.866996 41.477192 0.058483 2.446980 0.025354 -0.010060 -298733.000000 0 0 1
27.976360 1.590586 -32.302396 42.762735 0.056793 2.427040 0.032544 -0.017431 -98452.100000 0 0 1
28.266360 2.211386 -33.536446 43.915493 0.078075 2.439757 0.038580 -0.023605 -146462.000000 0 0 1
28.668760 1.238886 34.044683 44.524971 0.043187 0.700345 0.037832 -0.022808 -274467.000000 0 0 1
29.126760 1.878586 32.697160 43.829231 0.064408 0.728742 0.032664 -0.025525 420880.000000 0 0 1
28.203660 2.791886 32.055112 42.787513 0.098669 0.723989 0.029944 -0.019030 644470.000000 0 0 1
28.547860 4.132186 32.459520 43.424368 0.143748 0.726513 0.038608 -0.010224 158641.000000 0 0 1
27.887760 5.195886 31.554592 42.431317 0.184202 0.732264 0.045840 -0.007744 -35123.100000 0 0 1
28.121860 6.527786 31.930452 43.046542 0.228086 0.735097 0.035094 -0.006938 -248680.000000 0 0 1
27.317060 7.387086 31.202182 42.123235 0.264103 0.736632 0.028057 -0.005370 -397804.000000 0 0 1
27.759760 8.905286 31.273192 42.754192 0.310427 0.750328 0.016612 0.007237 313557.000000 0 0 1
28.967060 9.118386 30.551102 43.076738 0.304965 0.782398 0.022089 -0.000442 183531.000000 0 0 1
29.390560 10.462886 30.808542 43.845675 0.342005 0.791669 0.021752 -0.001751 98052.400000 0 0 1
30.823560 10.775786 30.289082 44.538050 0.336315 0.822935 0.018698 -0.001512 498264.000000 0 0 1
31.862960 10.146286 31.059142 45.638423 0.308283 0.822286 0.026409 0.005808 947628.000000 0 0 1
33.190560 10.605086 30.813582 46.514062 0.309269 0.846702 0.024247 -0.000536 559837.000000 0 0 1
33.608960 12.021386 31.236132 47.431760 0.343504 0.851907 0.033175 -0.002304 -819171.000000 0 0 1
33.862760 12.225086 32.601023 48.569187 0.346457 0.834931 0.044760 -0.010877 359712.000000 0 0 1
34.338260 13.570786 32.906766 49.458443 0.376369 0.842845 0.046414 0.000075 764737.000000 0 0 1
33.206860 14.672686 32.864872 48.970226 0.416062 0.835079 0.048662 -0.002443 -123219.000000 0 0 1
33.013960 15.122886 31.522612 48.086363 0.429549 0.855897 0.046391 -0.014381 351985.000000 0 0 1
32.053460 16.169086 31.406872 47.699636 0.467194 0.852065 0.051715 -0.016791 557387.000000 0 0 1
30.561660 15.776986 31.525022 46.655711 0.476551 0.828889 0.040420 -0.015134 -350242.000000 0 0 1
29.888360 15.049786 30.531722 45.298964 0.466470 0.831180 0.038479 -0.011138 -704945.000000 0 0 1
28.646260 14.613486 30.966542 44.644024 0.471723 0.804277 0.027755 -0.012152 -811868.000000 0 0 1
27.789560 14.088686 29.805532 43.117519 0.469214 0.807561 0.030781 -0.011288 -305673.000000 0 0 1
28.099760 12.855586 29.258302 42.554798 0.429072 0.812695 0.020458 -0.007338 -246873.000000 0 0 1
27.294660 12.618786 28.135772 41.180747 0.433049 0.818624 0.021838 -0.017517 -593261.000000 0 0 1
27.141560 11.086986 27.879252 40.457857 0.387802 0.810559 0.018890 -0.008526 -650257.000000 0 0 1
28.190560 10.385986 27.261182 40.567825 0.352990 0.833903 0.021099 -0.006526 -15660.100000 0 0 1
27.824660 9.016586 27.235062 39.965724 0.313373 0.821040 0.033087 -0.002960 142181.000000 0 0 1
29.027860 8.144986 26.841212 40.365928 0.273558 0.843373 0.023299 -0.001785 -69016.600000 0 0 1
29.249960 8.162286 25.456362 39.625868 0.272130 0.873147 0.023951 -0.001657 -169017.000000 0 0 1
30.211460 7.216886 25.082892 39.924519 0.234485 0.891484 0.028254 0.005936 64951.400000 0 0 1
30.870560 7.449486 23.688162 39.618371 0.236787 0.929907 0.032373 0.008195 39678.800000 0 0 1
31.443960 8.733486 23.422152 40.169560 0.270919 0.948279 0.019544 0.000094 348033.000000 0 0 1
30.552560 9.807186 23.094352 39.534654 0.310604 0.946958 0.018425 0.002711 38580.400000 0 0 1
30.179660 9.888386 21.595452 38.405151 0.316627 0.973624 0.020901 0.008450 502908.000000 0 0 1
31.293860 10.196686 20.768852 38.918161 0.314988 1.007880 0.019357 -0.002775 628875.000000 0 0 1
30.783460 10.065086 19.445352 37.776303 0.316007 1.030080 0.026459 -0.007477 -1168410.000000 0 0 1
31.621560 10.812886 18.397352 38.148448 0.329482 1.067567 0.040763 -0.017513 28578.500000 0 0 1
32.822760 10.175186 18.024452 38.803980 0.300609 1.087726 0.038115 -0.013957 566137.000000 0 0 1
33.831160 10.126486 19.061852 40.130379 0.290837 1.075834 0.045905 -0.014319 -1011940.000000 0 0 1
35.136060 9.545686 18.500452 40.840293 0.265275 1.100674 0.078112 -0.022747 -558864.000000 0 0 1
35.057660 8.183686 18.112052 40.299611 0.229328 1.104664 0.083972 -0.019755 531755.000000 0 0 1
-35.724464 7.636586 17.719352 40.602096 -0.210594 1.119186 0.089955 -0.013644 214875.000000 0 0 1
35.988760 6.116986 17.402052 40.440571 0.168360 1.125958 0.080172 -0.014082 353225.000000 0 0 1
34.835560 5.935786 16.588552 39.037544 0.168773 1.131902 0.058707 -0.007456 517805.000000 0 0 1
34.982060 4.694186 15.880952 38.703805 0.133392 1.147991 0.059028 -0.013564 -224927.000000 0 0 1
33.762360 3.793586 16.084952 37.590077 0.111892 1.128624 0.036495 -0.006062 -287585.000000 0 0 1
33.780360 3.193086 17.352752 38.110714 0.094245 1.098059 0.036444 0.000174 -479804.000000 0 0 1
32.646260 2.406986 17.480052 37.109622 0.073596 1.080329 0.030567 0.003965 -588581.000000 0 0 1
32.552360 1.444286 18.688252 37.563185 0.044339 1.050064 0.033897 -0.009239 236991.000000 0 0 1
33.225760 0.165386 18.638852 38.097051 0.004978 1.059571 0.034132 -0.003710 196913.000000 0 0 1
32.914760 -0.571714 19.786452 38.408488 -0.017368 1.029604 0.038239 -0.000480 118140.000000 0 0 1
33.613960 -1.965914 19.849852 39.086823 -0.058419 1.038121 0.035957 0.007068 374549.000000 0 0 1
33.060260 -2.724614 20.894952 39.204634 -0.082228 1.008688 0.036344 0.010874 200562.000000 0 0 1
33.683160 -3.971114 20.803852 39.788507 -0.117354 1.020593 0.029489 0.006624 -228674.000000 0 0 1
33.431260 -4.845014 22.023752 40.325785 -0.143923 0.993040 0.029822 0.010168 -121608.000000 0 0 1
34.001660 -4.391014 23.227052 41.411228 -0.128430 0.975339 0.030462 0.007364 217079.000000 0 0 1
33.458860 -5.083314 24.339942 41.686547 -0.150774 0.947296 0.027901 -0.000366 35343.800000 0 0 1
33.734660 -4.369314 25.652742 42.604945 -0.128803 0.924659 0.019729 -0.002350 -146911.000000 0 0 1
33.003660 -4.814314 26.752092 42.756211 -0.144850 0.894782 0.031599 -0.007247 -196408.000000 0 0 1
33.393260 -4.082714 27.872412 43.688096 -0.121658 0.878916 0.035284 -0.004529 -247238.000000 0 0 1
32.475560 -4.278814 29.081382 43.802934 -0.131000 0.844756 0.051195 -0.012553 -129880.000000 0 0 1
32.505160 -5.593314 29.588462 44.309679 -0.170406 0.839594 0.048409 -0.015129 -320798.000000 0 0 1
31.585360 -5.693914 30.618292 44.356910 -0.178355 0.808933 0.054176 -0.017706 -347316.000000 0 0 1
31.347860 -7.179614 31.056352 44.707183 -0.225147 0.802847 0.059857 -0.017277 303462.000000 0 0 1
32.488560 -7.652814 31.747562 46.064952 -0.231337 0.810424 0.061117 -0.022061 21592.600000 0 0 1
33.165560 -8.700314 31.114132 46.300530 -0.256549 0.833885 0.059068 -0.018847 923610.000000 0 0 1
34.507960 -9.144414 31.839892 47.835116 -0.259040 0.842475 0.054227 -0.017552 929691.000000 0 0 1
34.352760 -9.808614 33.070338 48.682320 -0.278126 0.823976 0.040277 -0.020232 175602.000000 0 0 1
35.607460 -9.900014 33.732144 50.037576 -0.271183 0.831002 0.026970 -0.016238 66976.000000 0 0 1
35.593060 -10.227714 -33.276906 49.787795 -0.279813 2.302818 0.035599 -0.016050 -342903.000000 0 0 1
35.297260 -9.198214 -32.331716 48.742626 -0.254923 2.296036 0.015360 -0.011901 330795.000000 0 0 1
-35.818364 -8.114114 -32.296696 48.906754 0.222775 2.292112 0.029935 -0.007898 -58420.100000 0 0 1
35.724960 -6.823414 -31.525576 48.132044 -0.188725 2.284954 0.025392 -0.015652 -185252.000000 0 0 1
35.718860 -7.015914 -30.111076 47.241263 -0.193951 2.261902 0.023119 -0.007855 559115.000000 0 0 1
34.843360 -6.012714 -29.579676 46.099563 -0.170881 2.267441 0.035831 -0.015112 158881.000000 0 0 1
35.153360 -5.586214 -28.140916 45.374835 -0.157592 2.239778 0.030812 -0.012056 4246.840000 0 0 1
-35.612064 -4.961614 -28.007506 45.576936 0.138433 2.232562 0.020915 -0.009521 27971.500000 0 0 1
-35.395164 -4.703514 -26.647316 44.553565 0.132112 2.211920 0.026757 -0.005638 718877.000000 0 0 1
-33.936764 -4.257814 -26.283346 43.135220 0.124811 2.226005 0.042122 0.002130 106866.000000 0 0 1
-33.747164 -3.977414 -24.886796 42.119396 0.117318 2.202925 0.047837 -0.007074 913822.000000 0 0 1
-32.438664 -4.199014 -24.321696 40.760809 0.128729 2.210170 0.058827 -0.004699 1216590.000000 0 0 1
-31.248764 -3.327514 -24.820396 40.045095 0.106085 2.239298 0.077877 -0.012546 -177132.000000 0 0 1
-30.677964 -3.706514 -26.033806 40.405876 0.120237 2.270914 0.074459 -0.003505 -164998.000000 0 0 1
-29.680464 -2.820414 -26.474896 39.872356 0.094741 2.296940 0.079023 -0.014293 -171107.000000 0 0 1
-29.077464 -3.285214 -27.811716 40.370572 0.112504 2.330781 0.076065 0.001021 -93136.400000 0 0 1
-29.937264 -3.290414 -28.952266 41.776792 0.109471 2.336470 0.073381 0.005193 -63620.900000 0 0 1
-29.337764 -3.869814 -30.072626 42.190552 0.131148 2.364252 0.065135 0.001936 -680523.000000 0 0 1
-30.398064 -4.258714 -31.139096 43.724390 0.139192 2.363378 0.045843 0.006013 -772573.000000 0 0 1
-31.296364 -5.327814 -30.931236 44.323689 0.168621 2.343186 0.037397 0.001717 681887.000000 0 0 1
-32.402964 -4.966414 -30.080866 44.491301 0.152087 2.313262 0.045800 -0.004879 360691.000000 0 0 1
-33.503964 -4.038214 -30.705016 45.624783 0.119951 2.309040 0.063660 -0.007205 -781050.000000 0 0 1
-33.125664 -2.757614 -31.183556 45.577716 0.083056 2.324281 0.072558 -0.002718 -257328.000000 0 0 1
-32.808264 -1.789114 -30.193826 44.623427 0.054478 2.313981 0.080407 -0.000917 9617.810000 0 0 1
-32.291964 -0.491914 -30.864156 44.672240 0.015232 2.333533 0.091288 -0.001628 161629.000000 0 0 1
-33.355264 0.074886 -31.596466 45.944705 -0.002245 2.329121 0.094691 0.000658 57541.600000 0 0 1
-33.008264 1.292086 -32.208056 46.136470 -0.039124 2.343542 0.097933 0.013462 -59947.100000 0 0 1
-34.231264 2.080086 -32.690396 47.378985 -0.060691 2.332253 0.097838 0.009446 -214854.000000 0 0 1
-34.781664 1.755986 -33.918576 48.613963 -0.050443 2.342996 0.084102 0.014017 -28086.800000 0 0 1
35.969960 2.354986 -34.028076 49.571100 0.065378 2.327392 0.074550 0.009747 303414.000000 0 0 1
35.065760 1.862586 33.301970 48.395227 0.053067 0.811894 0.052937 0.006871 342770.000000 0 0 1
35.556260 2.229686 31.991262 47.881729 0.062627 0.839102 0.041868 0.008841 261801.000000 0 0 1
-35.512364 1.364086 31.443482 47.451884 -0.038393 0.846459 0.046992 0.008532 -378125.000000 0 0 1
-35.442264 1.425586 29.910302 46.398411 -0.040201 0.870243 0.041307 0.004082 -66199.500000 0 0 1
-35.025064 2.762986 29.545622 45.905697 -0.078723 0.871583 0.039029 0.001128 299538.000000 0 0 1
-34.607264 2.875386 28.212962 44.742617 -0.082896 0.888520 0.025515 -0.003128 104429.000000 0 0 1
-34.161564 4.351686 27.864902 44.299011 -0.126703 0.890506 0.029482 0.000387 -278547.000000 0 0 1
-33.870364 4.574286 26.520952 43.260681 -0.134241 0.910881 0.034099 -0.000681 -91170.400000 0 0 1
-33.260964 5.812486 26.353522 42.832054 -0.173007 0.908061 0.043344 0.001449 -515333.000000 0 0 1
-32.351964 5.852486 25.097472 41.361628 -0.178965 0.918791 0.045709 -0.001484 -240463.000000 0 0 1
-31.258264 4.958486 25.307152 40.523050 -0.157319 0.896289 0.044765 -0.005520 514974.000000 0 0 1
-30.223564 5.107486 24.315352 39.125268 -0.167409 0.900173 0.045968 -0.004573 361121.000000 0 0 1
-30.517464 4.848286 22.811052 38.407884 -0.157553 0.934879 0.069631 -0.008372 -470718.000000 0 0 1
-30.893064 3.477086 22.543152 38.401370 -0.112081 0.943398 0.042565 -0.008111 -90743.800000 0 0 1
-31.579864 3.439886 21.328352 38.262504 -0.108499 0.979519 0.067239 -0.008418 -426744.000000 0 0 1
-31.839564 2.044486 20.782152 38.076707 -0.064124 0.993456 0.053508 0.004517 153206.000000 0 0 1
-30.686364 1.382686 20.259152 36.796712 -0.045028 0.987750 0.058539 0.003536 245461.000000 0 0 1
-30.294564 1.851786 18.992152 35.803513 -0.061050 1.011659 0.058190 -0.004310 -255787.000000 0 0 1
-29.030964 1.173586 18.453952 34.419798 -0.040403 1.004934 0.049260 -0.006572 -215480.000000 0 0 1
-29.327564 -0.164414 18.078452 34.452336 0.005606 1.018389 0.059664 -0.001448 517418.000000 0 0 1
-28.176364 -0.897714 17.651252 33.260789 0.031850 1.011379 0.067844 -0.001279 446042.000000 0 0 1
-27.704064 -0.665314 16.167052 32.083194 0.024010 1.042676 0.067411 0.004517 -72524.600000 0 0 1
-27.214864 0.613686 16.016352 31.583998 -0.022546 1.038976 0.072258 0.000853 -100086.000000 0 0 1
-27.441164 1.048186 14.667052 31.132597 -0.038179 1.080241 0.085575 -0.002151 -63938.600000 0 0 1
-26.954664 2.434486 14.274252 30.597956 -0.090073 1.085455 0.083401 -0.012549 205619.000000 0 0 1
-25.558264 2.551786 14.030252 29.267464 -0.099512 1.070848 0.073090 -0.019060 327895.000000 0 0 1
-25.207064 3.796086 13.511052 28.850561 -0.149473 1.083417 0.069602 -0.022833 -317653.000000 0 0 1
-23.716264 3.959886 13.185152 27.422438 -0.165443 1.069211 0.053749 -0.017829 -518232.000000 0 0 1
-22.928364 4.173186 14.301552 27.343367 -0.180039 1.020388 0.038491 -0.013605 -496231.000000 0 0 1
-21.564464 4.281586 13.988652 26.058405 -0.195999 1.004134 0.033457 -0.015341 -576552.000000 0 0 1
-20.771464 4.827586 15.134152 26.149605 -0.228360 0.953598 0.024061 -0.020023 -821443.000000 0 0 1
-21.073664 6.170886 15.404252 26.822940 -0.284861 0.959055 0.018202 -0.018959 239239.000000 0 0 1
-20.446864 6.645286 16.565852 27.141509 -0.314234 0.914292 0.017733 -0.013845 -416790.000000 0 0 1
-20.639964 8.156186 16.725052 27.789546 -0.376331 0.924985 0.009625 -0.014318 -499911.000000 0 0 1
-19.928264 8.959686 15.821852 26.976706 -0.422519 0.944065 0.024601 -0.027155 226460.000000 0 0 1
-20.185064 10.342286 15.956752 27.731167 -0.473497 0.957693 0.022302 -0.020400 -335945.000000 0 0 1
-19.460464 11.048086 17.142752 28.189427 -0.516346 0.917097 0.027976 -0.017484 -187478.000000 0 0 1
-20.084764 10.930586 18.445152 29.378548 -0.498397 0.892016 0.023218 -0.019353 438276.000000 0 0 1
-19.346364 11.516486 19.485452 29.775730 -0.536941 0.857398 0.035047 -0.009697 -492404.000000 0 0 1
-12.496240 -34.233997 -21.212796 42.167586 1.220800 2.097931 0.093534 -0.029527 -297202.000000 0 0 1
-13.192340 -34.306797 -20.028396 41.858462 1.203688 2.069718 0.112913 -0.031851 -191202.000000 0 0 1
-14.179240 -33.279297 -19.932896 41.302334 1.168021 2.074428 0.081118 -0.043303 558646.000000 0 0 1
-15.407740 -33.740797 -19.074196 41.709289 1.142426 2.045768 0.067351 -0.030419 -438492.000000 0 0 1
-16.200040 34.064686 -19.815696 42.608754 -1.126885 2.054501 0.059437 -0.033402 -72261.300000 0 0 1
-16.848540 33.128186 -18.968696 41.727227 -1.100303 2.042706 0.049596 -0.032399 -665531.000000 0 0 1
-18.132940 33.522386 -18.295696 42.276310 -1.074951 2.018354 0.055704 -0.031612 -1882810.000000 0 0 1
-18.004640 -34.248697 -17.293996 42.381867 1.086798 1.991115 0.061633 -0.028441 1941970.000000 0 0 1
-19.325240 -33.935597 -16.676296 42.463967 1.053129 1.974380 0.031720 -0.019669 1890010.000000 0 0 1
-19.470840 34.133586 -15.279296 42.162450 -1.052403 1.941628 0.035832 -0.015556 -379101.000000 0 0 1
-19.657640 32.743586 -15.274096 41.132265 -1.030119 1.951249 0.044240 -0.022308 65417.700000 0 0 1
-19.920740 32.281586 -13.964396 40.422037 -1.017903 1.923531 0.040453 -0.012823 -84872.300000 0 0 1
-20.032340 30.798186 -13.863296 39.268485 -0.994113 1.931613 0.030162 -0.010019 395210.000000 0 0 1
-18.804940 30.078286 -13.968296 38.124039 -1.012053 1.945923 0.045470 -0.022803 305930.000000 0 0 1
-19.011540 28.676586 -14.066696 37.170650 -0.985362 1.958902 0.059071 -0.018352 -841294.000000 0 0 1
-17.863540 27.917286 -13.512996 35.792206 -1.001573 1.957935 0.056185 -0.018848 114960.000000 0 0 1
-16.610040 28.060286 -14.220596 35.573845 -1.036323 1.982039 0.084560 -0.027886 419540.000000 0 0 1
-15.703240 27.035786 -13.883696 34.209392 -1.044590 1.988699 0.088630 -0.035295 -713692.000000 0 0 1
-14.314340 27.404086 -14.334896 34.078931 -1.089434 2.004945 0.077178 -0.038136 -956278.000000 0 0 1
-14.363740 27.609186 -15.740896 34.876353 -1.091079 2.039056 0.052372 -0.028699 -431527.000000 0 0 1
-13.118340 27.997086 -16.270296 34.937805 -1.132615 2.055214 0.080071 -0.039727 -251869.000000 0 0 1
-13.059640 28.254886 -17.800396 35.857313 -1.137837 2.090270 0.106600 -0.051080 -197940.000000 0 0 1
-12.720340 27.070086 -18.434496 35.134417 -1.131514 2.123141 0.076130 -0.054144 12060.500000 0 0 1
-13.211240 27.116386 -19.747896 36.052942 -1.117437 2.150465 0.063505 -0.052526 -515087.000000 0 0 1
-12.580040 26.041686 -20.632296 35.526307 -1.120782 2.190460 0.019877 -0.028057 -262578.000000 0 0 1
-11.276340 26.448386 -20.980296 35.592777 -1.167780 2.201179 0.029592 -0.026029 -287263.000000 0 0 1
-10.649940 25.455786 -21.745096 35.132143 -1.174555 2.238204 0.028955 -0.021724 312915.000000 0 0 1
-9.476540 25.922586 -22.660096 35.710856 -1.220318 2.258214 0.048595 -0.021020 210462.000000 0 0 1
-9.842940 26.754586 -23.698596 37.071752 -1.218267 2.264336 0.053500 -0.018345 942411.000000 0 0 1
-8.696340 27.015686 -24.558596 37.531297 -1.259371 2.284119 0.052641 -0.019161 990704.000000 0 0 1
-9.183340 27.626786 -25.897156 38.964545 -1.249880 2.297800 0.073742 -0.018637 -115882.000000 0 0 1
-10.001440 26.738086 -26.574046 39.001718 -1.212857 2.320410 0.066793 -0.018316 -378650.000000 0 0 1
-10.373240 27.338086 -27.851746 40.381863 -1.208136 2.331884 0.091483 -0.020202 -160265.000000 0 0 1
-11.460540 26.527386 -28.540666 40.615463 -1.162989 2.349988 0.071883 -0.017315 62759.300000 0 0 1
-12.121940 27.203886 -29.639256 42.017596 -1.151611 2.353785 0.091800 -0.014513 869879.000000 0 0 1
-13.230040 26.415986 -30.127886 42.196301 -1.106481 2.365982 0.073317 -0.016513 379849.000000 0 0 1
-13.560240 26.666886 -31.641086 43.544934 -1.100368 2.384201 0.074127 -0.015372 -121968.000000 0 0 1
-12.572440 26.278286 -32.575776 43.701210 -1.124549 2.411962 0.065070 -0.014382 133259.000000 0 0 1
-12.280440 24.901586 -32.563056 42.793117 -1.112637 2.435559 0.062836 -0.020808 -327157.000000 0 0 1
-11.435740 24.441686 -33.722356 43.189923 -1.133174 2.466729 0.046900 -0.016774 -432330.000000 0 0 1
-12.106740 24.531286 33.558146 43.295569 -1.112344 0.683932 0.045947 -0.012439 -77175.100000 0 0 1
-11.319240 24.115486 32.467808 41.998100 -1.131946 0.687117 0.044025 -0.013538 -175110.000000 0 0 1
-12.112240 24.047186 31.115552 41.147917 -1.104204 0.713329 0.039459 -0.004325 544314.000000 0 0 1
-13.209940 23.123686 31.043722 40.901346 -1.051767 0.709035 0.040074 -0.010164 295012.000000 0 0 1
-13.875640 23.258486 29.836922 40.295564 -1.032892 0.737054 0.047019 -0.004125 -1043080.000000 0 0 1
-15.110540 22.425886 29.723112 40.183482 -0.977872 0.738194 0.040200 -0.010167 -916568.000000 0 0 1
-14.835440 21.040286 29.640032 39.259590 -0.956658 0.715179 0.016843 -0.011897 -268361.000000 0 0 1
-15.934740 20.237286 29.967772 39.516213 -0.903789 0.709993 0.018360 -0.019240 -201865.000000 0 0 1
-15.590740 18.770986 29.890892 38.586093 -0.877687 0.684628 0.002544 -0.020760 -306795.000000 0 0 1
-15.361240 18.290986 28.523572 37.203791 -0.872239 0.697135 0.013177 -0.024022 156929.000000 0 0 1
-14.879140 16.943886 28.645872 36.456414 -0.850189 0.666878 -0.005849 -0.021140 -225136.000000 0 0 1
-14.484340 16.282886 27.288602 34.922719 -0.843788 0.673891 0.001286 -0.022077 173425.000000 0 0 1
-13.280040 16.792386 26.749142 34.261645 -0.901668 0.674961 -0.010344 -0.020518 -355706.000000 0 0 1
-12.991040 16.136786 25.546372 32.890426 -0.892979 0.681368 -0.010543 -0.015471 -271398.000000 0 0 1
-11.778340 16.658186 24.767462 32.088185 -0.955348 0.689041 -0.001158 -0.013035 -316795.000000 0 0 1
-11.853840 17.849286 23.965382 32.147318 -0.984568 0.729532 0.006256 -0.014758 -338918.000000 0 0 1
-12.248940 19.072886 24.560082 33.421687 -0.999912 0.745344 0.009996 -0.014006 288572.000000 0 0 1
-11.208240 19.813886 25.482022 34.169404 -1.055997 0.729128 -0.001441 -0.009500 369555.000000 0 0 1
-11.013440 19.195986 26.767622 34.731648 -1.049912 0.690860 -0.003829 -0.004365 431909.000000 0 0 1
-12.021440 19.556886 27.741762 36.008224 -1.019645 0.691283 0.009061 0.000410 469389.000000 0 0 1
-11.694740 19.091386 29.174372 36.774882 -1.021188 0.654548 0.002585 0.002906 -481243.000000 0 0 1
-10.625840 19.752786 29.770792 37.274403 -1.077258 0.645677 -0.002994 0.001182 -287680.000000 0 0 1
-10.793040 19.786086 31.144072 38.443883 -1.071425 0.626443 -0.001705 -0.009086 -267786.000000 0 0 1
-9.673840 20.605386 31.803712 39.110628 -1.131860 0.621213 0.003217 -0.011571 11938.100000 0 0 1
-8.411840 19.971086 31.814582 38.493778 -1.172148 0.597959 0.005515 -0.012678 -14395.000000 0 0 1
-7.475940 20.857386 32.403612 39.254482 -1.226630 0.599752 0.005629 -0.006940 -23872.100000 0 0 1
-6.242040 20.165686 33.013628 39.185681 -1.270612 0.568904 -0.000437 -0.002398 -657444.000000 0 0 1
-6.486340 19.409686 34.178382 39.836796 -1.248283 0.539511 0.000859 -0.009176 -76566.500000 0 0 1
-5.285140 19.039086 -33.697046 39.062904 -1.300020 2.611253 -0.001836 -0.006824 173422.000000 0 0 1
-4.423740 17.977086 34.063552 38.769456 -1.329514 0.497835 -0.002973 -0.008457 -402337.000000 0 0 1
-4.996940 16.697086 34.041461 38.243734 -1.280009 0.473191 -0.001504 -0.009903 -36183.600000 0 0 1
-4.774240 16.079486 32.806815 36.846036 -1.282172 0.472627 0.005180 -0.004096 -203353.000000 0 0 1
-5.457240 14.712086 32.641641 36.217450 -1.215593 0.448108 0.015335 -0.010474 138748.000000 0 0 1
-4.800640 13.579586 33.311665 36.292125 -1.230990 0.408102 0.022882 -0.010336 372698.000000 0 0 1
-5.608240 12.374586 33.221304 35.892030 -1.145279 0.388205 0.034282 -0.011042 500920.000000 0 0 1
-4.809540 11.135886 33.751345 35.864926 -1.163100 0.345021 0.054657 -0.018185 245456.000000 0 0 1
-4.763340 10.967786 -33.365446 35.443402 -1.161073 2.797472 0.045830 -0.015869 -750120.000000 0 0 1
-3.817040 9.985286 -33.124976 34.807180 -1.205670 2.829427 0.063613 -0.019407 -140897.000000 0 0 1
-3.603640 9.684986 -31.609276 33.255549 -1.214583 2.825626 0.062107 -0.017295 269072.000000 0 0 1
-4.776540 9.145786 -31.008826 32.680392 -1.089494 2.820373 0.058604 -0.016568 77658.900000 0 0 1
-4.585340 8.454686 -29.787006 31.301323 -1.073851 2.829266 0.067174 -0.006362 9193.450000 0 0 1
-5.861240 7.692586 -29.368706 30.920073 -0.919701 2.823477 0.053029 -0.010898 38117.400000 0 0 1
-5.688940 6.672786 -28.427846 29.749497 -0.864819 2.842397 0.050481 -0.008105 -337886.000000 0 0 1
-6.874840 5.966886 -28.207956 29.640445 -0.714812 2.829429 0.058180 -0.022232 -728643.000000 0 0 1
-6.823840 5.092486 -26.912026 28.226856 -0.641115 2.835171 0.054252 -0.026887 -365173.000000 0 0 1
-6.946740 5.937386 -25.738516 27.312652 -0.707217 2.800429 0.030774 -0.013615 -87911.300000 0 0 1
-5.892340 6.824886 -25.413836 26.965938 -0.858596 2.800657 0.034254 -0.012230 -359859.000000 0 0 1
-6.279440 7.906186 -24.337296 26.348494 -0.899575 2.748345 0.009720 0.002280 98510.800000 0 0 1
-6.434940 7.320686 -23.063596 25.038578 -0.849701 2.741751 0.002963 0.002930 -562544.000000 0 0 1
-7.641640 7.742686 -22.517596 25.007719 -0.791966 2.691544 0.001201 0.008712 -371962.000000 0 0 1
-7.503340 7.800686 -20.975196 23.603171 -0.804825 2.665211 -0.005048 0.006374 -50261.400000 0 1 0
-6.999440 9.070086 -20.571996 23.547094 -0.913547 2.633457 -0.013772 0.009842 -60857.800000 0 1 0
-6.894140 9.280786 -19.145596 22.365510 -0.931893 2.598341 -0.003586 0.007021 1193830.000000 0 1 0
-8.253940 9.478886 -18.303096 22.203156 -0.854366 2.539843 -0.001661 0.009749 627971.000000 0 1 0
-7.958740 9.386986 -16.906496 20.911400 -0.867553 2.512365 -0.006553 0.001264 361533.000000 0 1 0
-9.047940 9.822286 -16.106196 20.922526 -0.826410 2.449327 0.003746 -0.002856 252988.000000 0 1 0
-9.661740 11.274486 -16.166796 21.950594 -0.862278 2.398690 0.015218 -0.009076 -503201.000000 0 1 0
-8.793140 12.227786 -15.623696 21.701105 -0.947359 2.374526 0.008087 -0.013266 -276994.000000 0 1 0
-9.187240 13.528086 -15.878296 22.793306 -0.974219 2.341473 0.024719 -0.023857 -22307.100000 0 1 0
-7.987740 14.501386 -15.679196 22.802004 -1.067319 2.329007 0.035838 -0.019221 179773.000000 0 1 0
-7.439340 14.643086 -14.403596 21.845534 -1.100734 2.290735 0.030873 -0.020022 82523.500000 0 1 0
-8.317340 15.221486 -13.450996 21.949968 -1.070705 2.230399 0.033920 -0.034210 -1093690.000000 0 1 0
-7.585240 15.942686 -12.329396 21.534138 -1.126710 2.180411 0.025375 -0.034687 28654.300000 0 1 0
-6.977240 17.167386 -12.635296 22.428815 -1.184764 2.169232 0.032074 -0.038202 5024.510000 0 1 0
-5.994640 17.182786 -13.652696 22.750384 -1.235124 2.214433 0.038159 -0.029583 -752892.000000 0 1 0
-5.869940 18.577186 -14.283496 24.157531 -1.264748 2.203423 0.054915 -0.018910 510978.000000 0 1 0
-5.161940 19.571486 -13.491296 24.324962 -1.312921 2.158712 0.045803 -0.021051 279215.000000 0 1 0
-5.348840 20.834286 -14.037796 25.685352 -1.319491 2.149010 0.048478 -0.013496 -96868.700000 0 0 1
-4.725340 21.876586 -13.090296 25.928164 -1.358065 2.100025 0.045202 -0.016908 -756568.000000 0 0 1
-4.978640 23.267886 -13.458796 27.337165 -1.360004 2.085556 0.031648 -0.015003 47312.000000 0 0 1
-6.308740 23.749786 -13.433896 28.005751 -1.311159 2.071090 0.034264 -0.016661 58621.200000 0 0 1
-6.980840 23.693386 -11.989096 27.456276 -1.284271 2.022681 0.018879 -0.015076 -578266.000000 0 0 1
-7.287840 22.388686 -11.561496 26.230403 -1.256099 2.027249 0.022338 -0.015589 -217147.000000 0 0 1
-8.143140 22.280586 -10.432096 25.914549 -1.220397 1.985105 0.024440 -0.013659 126859.000000 0 0 1
-7.670140 22.839786 -9.038896 25.733024 -1.246806 1.929709 0.023643 -0.007511 -120660.000000 0 0 1
-7.687640 24.274486 -9.044596 27.021384 -1.264093 1.912104 0.009335 -0.000011 -3886.030000 0 0 1
-7.283540 24.835386 -7.808696 27.033721 -1.285523 1.863822 0.010229 -0.003767 -128079.000000 0 0 1
-7.432840 26.427086 -7.790796 28.536547 -1.296621 1.847318 0.033336 -0.001406 -472877.000000 0 0 1
-6.377840 27.195886 -8.266996 29.131363 -1.340444 1.858534 0.012248 -0.001948 -573351.000000 0 0 1
-6.159140 27.118286 -9.644996 29.434035 -1.347464 1.904645 0.010403 0.004596 -107354.000000 0 0 1
-5.326440 28.245386 -10.294696 30.531190 -1.384408 1.914723 0.008701 0.004885 41874.500000 0 0 1
-5.960040 29.491186 -10.422896 31.841622 -1.371387 1.904279 0.000824 0.010738 -570437.000000 0 0 1
-6.923240 29.488586 -11.434996 32.376953 -1.340196 1.931768 0.007279 -0.000085 -314915.000000 0 0 1
-7.882240 30.710886 -11.272796 33.650619 -1.319560 1.912396 0.019630 -0.002831 -20301.100000 0 0 1
-9.006740 30.362086 -10.499996 33.365065 -1.282421 1.890937 0.031648 -0.001658 -462260.000000 0 0 1
-9.938040 31.405686 -10.364896 34.532779 -1.264325 1.875643 0.034476 -0.015683 -446544.000000 0 0 1
-11.068640 30.905986 -9.485696 34.171233 -1.226889 1.852084 0.051106 -0.013874 -457059.000000 0 0 1
-11.832740 29.907686 -10.119096 33.717644 -1.194052 1.875607 0.054536 -0.018029 236556.000000 0 0 1
-13.160940 29.859486 -9.574496 34.006914 -1.155651 1.856201 0.078933 -0.010718 712898.000000 0 0 1
-13.857340 28.603186 -10.064196 33.338509 -1.119651 1.877459 0.075335 -0.009309 -98504.900000 0 0 1
-13.609640 27.382786 -9.350196 31.976014 -1.109540 1.867545 0.042571 -0.007338 87562.100000 0 0 1
-14.614340 26.443686 -9.733896 31.742656 -1.065914 1.882468 0.067011 -0.004746 308440.000000 0 0 1
-14.622740 25.081286 -8.983596 30.390795 -1.042960 1.870883 0.055508 -0.005515 79595.900000 0 0 1
-13.642240 24.101986 -9.330396 29.224523 -1.055736 1.895751 0.043760 -0.003943 242390.000000 0 0 1
-14.238240 22.845086 -9.237696 28.459804 -1.013455 1.901372 0.061032 -0.009966 -194807.000000 0 0 1
-13.304840 21.664986 -9.525296 27.149985 -1.020061 1.929264 0.056179 -0.010053 -260302.000000 0 0 1
-13.156440 21.368786 -10.873096 27.348513 -1.018924 1.979669 0.050848 -0.013574 96728.000000 0 0 1
-12.480340 20.155286 -11.130696 26.189441 -1.016372 2.009766 0.050279 -0.017200 -167093.000000 0 0 1
-12.818540 19.575286 -12.499196 26.528036 -0.991031 2.061412 0.055302 -0.016471 -77315.800000 0 0 1
-14.150140 19.200786 -12.735496 27.038667 -0.935696 2.061232 0.059036 -0.007499 -602103.000000 0 0 1
-14.243940 18.694586 -14.068596 27.391655 -0.919704 2.110182 0.059099 -0.010307 -536961.000000 0 0 1
-15.664140 18.559586 -14.589796 28.331708 -0.869801 2.111761 0.053104 0.007011 -612036.000000 0 0 1
-16.205340 19.838186 -14.776296 29.572041 -0.885849 2.094015 0.029437 0.008067 -917896.000000 0 0 1
-17.421840 19.693186 -15.429796 30.486402 -0.846519 2.101477 0.031829 0.013257 -612205.000000 0 0 1
-17.977040 20.982086 -16.076696 31.966890 -0.862379 2.097767 0.035617 0.011189 -32518.100000 0 0 1
-18.432040 21.967286 -15.192096 32.451526 -0.872683 2.057989 0.031745 -0.003065 158447.000000 0 0 1
-19.053140 23.015786 -15.889696 33.841262 -0.879315 2.059562 0.039575 -0.005549 -107150.000000 0 0 1
-19.653840 24.098486 -14.999596 34.525329 -0.886637 2.020226 0.031698 0.006142 238045.000000 0 0 1
-20.872140 23.733986 -14.358096 34.714597 -0.849468 1.997205 0.046045 0.003461 365870.000000 0 0 1
-21.261040 24.688986 -13.404396 35.231459 -0.859862 1.961097 0.048997 -0.007770 -152250.000000 0 0 1
-26.007310 -0.657714 2.978304 26.185551 0.025284 1.456811 0.094437 -0.030008 -172521.000000 0 0 1
-25.920370 0.063986 4.160704 26.252260 -0.002469 1.411636 0.072163 -0.027117 1123540.000000 0 0 1
-26.998270 -0.344814 5.055304 27.469649 0.012771 1.385709 0.080607 -0.018046 916580.000000 0 0 1
-27.113260 0.574286 6.274904 27.835824 -0.021178 1.343417 0.076849 -0.005390 -162620.000000 0 0 1
-27.684860 1.810286 5.933504 28.371378 -0.065296 1.360104 0.085785 -0.008591 -94883.500000 0 0 1
-28.024070 2.624486 7.021204 29.009201 -0.093379 1.326335 0.100526 0.000106 -429744.000000 0 0 1
-26.929010 3.165786 7.962504 28.259428 -0.117023 1.285164 0.095735 -0.000621 -333950.000000 0 0 1
-26.470350 2.095086 8.754204 27.958986 -0.078984 1.252332 0.090770 -0.006495 -9382.000000 0 0 1
-25.311500 2.466886 9.452604 27.131334 -0.097154 1.214931 0.082337 -0.018289 -484557.000000 0 0 1
-24.596540 1.399386 10.215804 26.670409 -0.056832 1.177712 0.073726 -0.014491 -631999.000000 0 0 1
-23.942340 0.434486 9.440104 25.739852 -0.018145 1.195283 0.074924 -0.020313 443365.000000 0 0 1
-24.739540 -0.645214 8.951604 26.317150 0.026074 1.223727 0.072217 -0.008886 -503472.000000 0 0 1
-23.864240 -1.605214 8.140504 25.265520 0.067163 1.242746 0.086526 -0.016036 -464195.000000 0 0 1
-22.909940 -2.096514 9.032104 24.715170 0.091257 1.196683 0.076650 -0.021780 -28870.400000 0 1 0
-21.810340 -2.654714 8.308204 23.489672 0.121122 1.209277 0.086085 -0.020579 699059.000000 0 1 0
-20.543040 -2.929014 9.196004 22.697183 0.141625 1.153642 0.086004 -0.013836 459713.000000 0 1 0
-19.828140 -1.760714 9.655804 22.124417 0.088566 1.119167 0.070436 -0.011444 774598.000000 0 1 0
-20.522240 -0.873114 10.530704 23.082903 0.042519 1.097062 0.073602 -0.020500 -504186.000000 0 1 0
-19.692540 0.381486 10.882704 22.502776 -0.019370 1.066015 0.033663 -0.010575 -197870.000000 0 1 0
-19.989240 1.523986 10.077204 22.437520 -0.076093 1.105013 0.023802 0.004176 462011.000000 0 1 0
-20.503440 2.605686 10.844704 23.340700 -0.126408 1.087584 0.033227 0.004099 -349800.000000 0 1 0
-21.206440 3.705186 10.058104 23.761460 -0.172974 1.133717 0.024301 0.004161 -562216.000000 0 1 0
-21.535540 4.778586 10.905804 24.607945 -0.218355 1.111651 0.021134 -0.003694 546823.000000 0 1 0
-22.243340 5.776986 10.191704 25.139821 -0.254103 1.153379 0.028847 -0.009793 -215589.000000 0 0 1
-22.382440 7.067286 10.986504 25.915698 -0.305844 1.133014 0.031674 -0.018286 -158822.000000 0 0 1
-23.271240 6.927786 12.065104 27.112941 -0.289343 1.109628 0.030084 -0.014635 202991.000000 0 0 1
-23.053840 7.921186 13.081604 27.665016 -0.330958 1.078266 0.028747 -0.018072 12960.500000 0 0 1
-23.902340 7.524686 14.309504 28.856623 -0.304988 1.051945 0.048894 -0.022085 -48873.800000 0 0 1
-25.288320 7.565086 14.065304 29.909237 -0.290680 1.081204 0.058661 -0.025876 -382274.000000 0 0 1
-25.995920 7.190986 15.213104 30.966703 -0.269871 1.057246 0.055926 -0.023109 183918.000000 0 0 1
-27.492960 6.867086 14.963404 32.045642 -0.244768 1.084969 0.070118 -0.022024 193793.000000 0 0 1
-27.765780 5.712086 14.199204 31.704635 -0.202893 1.106427 0.084122 -0.018446 -547272.000000 0 0 1
-28.848660 5.944086 13.364404 32.344778 -0.203200 1.144847 0.093054 -0.006781 -825093.000000 0 0 1
-29.215450 4.770986 12.409104 32.098142 -0.161875 1.173856 0.107158 -0.005483 64285.300000 0 0 1
-29.974480 3.680786 12.962004 32.863828 -0.122186 1.165365 0.096790 -0.010696 302573.000000 0 0 1
-30.333050 2.769886 11.965904 32.725358 -0.091063 1.196469 0.091621 0.004458 27392.400000 0 0 1
-31.504170 1.835286 12.360204 33.891823 -0.058190 1.197490 0.088313 0.012064 87988.700000 0 0 1
-31.162230 0.878886 13.316704 33.899729 -0.028196 1.167093 0.072779 0.020133 753516.000000 0 0 1
-32.394540 0.260586 13.739604 35.188789 -0.008044 1.169672 0.073157 0.016386 780986.000000 0 0 1
-32.198640 -0.996314 14.619404 35.376151 0.030933 1.144770 0.055447 0.001009 83874.300000 0 0 1
-31.793720 -2.216714 13.962604 34.795241 0.069609 1.157883 0.046815 0.005251 208158.000000 0 0 1
-31.845490 -3.285114 14.871004 35.299773 0.102794 1.135943 0.036886 0.008644 2903.850000 0 0 1
-31.851010 -4.699114 14.253404 35.209772 0.146478 1.154021 0.042657 0.008993 -106765.000000 0 0 1
-33.083530 -5.051214 13.679604 36.154755 0.151511 1.182770 0.032530 0.010757 -138828.000000 0 0 1
-32.969960 -6.263614 12.972104 35.979531 0.187742 1.201948 0.043070 0.001893 -557316.000000 0 0 1
-34.248639 -6.640314 12.190304 36.954926 0.191509 1.234631 0.049007 0.004848 403779.000000 0 0 1
-35.452910 -6.887714 12.901404 38.350954 0.191887 1.227701 0.038590 -0.000916 475871.000000 0 0 1
35.950033 -5.703114 13.404204 38.789213 -0.157329 1.217955 0.050414 0.002961 -1384960.000000 0 0 1
34.522963 -5.548514 12.926504 37.278888 -0.159357 1.216691 0.065074 -0.000069 -647401.000000 0 0 1
33.549923 -6.369814 13.545004 36.737433 -0.187628 1.193189 0.062135 -0.002771 1374180.000000 0 0 1
32.200763 -6.034314 13.092804 35.280640 -0.185248 1.190598 0.069461 -0.006175 1551300.000000 0 0 1
31.128743 -7.068514 13.497704 34.657619 -0.223287 1.170753 0.053984 -0.004538 -22743.300000 0 0 1
30.792263 -7.046914 14.886204 34.920216 -0.224979 1.130407 0.064768 -0.004007 696620.000000 0 0 1
29.799373 -8.082014 15.138904 34.387614 -0.264843 1.114927 0.070367 -0.006759 629174.000000 0 0 1
29.445063 -8.104214 16.664204 34.790598 -0.268582 1.071297 0.047159 -0.008023 -92810.300000 0 0 1
30.415583 -8.662914 17.498004 36.143241 -0.277471 1.065428 0.026608 -0.004793 -161674.000000 0 0 1
29.866043 -8.735514 18.805504 36.358447 -0.284553 1.027191 0.024335 -0.012785 -413629.000000 0 0 1
30.815823 -9.358314 19.833004 37.822494 -0.294834 1.018821 0.028815 -0.006350 482222.000000 0 0 1
31.954203 -8.581014 20.215804 38.773491 -0.262351 1.022327 0.032629 -0.007110 -80404.600000 0 0 1
33.076963 -8.866414 19.442804 39.379200 -0.261897 1.054419 0.006833 -0.001790 -273209.000000 0 0 1
34.396903 -8.209514 19.977304 40.615708 -0.234287 1.056570 0.001266 -0.000703 584072.000000 0 0 1
34.707223 -8.669914 21.265404 41.617017 -0.244792 1.034474 0.006677 -0.007076 -175710.000000 0 0 1
35.924353 -8.198614 21.798604 42.813030 -0.224376 1.036590 0.007685 -0.004383 -98498.900000 0 0 1
-35.825356 -8.903014 23.137804 43.566934 0.243577 1.010914 0.008452 -0.004027 -205538.000000 0 0 1
35.477653 -8.338314 24.222304 43.759700 -0.230840 0.984200 0.009708 -0.002958 230148.000000 0 0 1
35.787893 -9.026714 25.416904 44.813768 -0.247075 0.967734 0.009393 -0.007897 -686095.000000 0 0 1
35.229953 -8.493714 26.740904 45.037414 -0.236579 0.935087 0.027096 -0.010161 51464.900000 0 0 1
-35.969263 -7.469614 27.252904 45.741707 0.204756 0.932535 0.004228 -0.014815 117976.000000 0 0 1
35.481033 -7.026014 28.475004 46.033623 -0.195493 0.903875 0.015630 -0.018302 477736.000000 0 0 1
-35.465910 -6.574114 29.512704 46.605251 0.183284 0.885053 0.029353 -0.013318 548890.000000 0 0 1
-34.969533 -7.570614 30.328804 46.904357 0.213202 0.867665 0.028397 -0.008377 -755373.000000 0 0 1
-33.682610 -7.268814 30.765104 46.193566 0.212544 0.841957 0.021529 -0.016601 -242526.000000 0 0 1
-33.160920 -8.111714 31.978304 46.776687 0.239906 0.818061 0.012127 -0.006151 -88430.900000 0 0 1
-33.001800 -9.482914 31.777104 46.784921 0.279807 0.824101 0.011011 -0.006502 320206.000000 0 0 1
-32.516960 -9.981914 32.999104 47.391267 0.297844 0.800550 0.010944 -0.001439 -210120.000000 0 0 1
-32.587220 -11.506614 32.919504 47.728637 0.339436 0.809691 0.024082 -0.010365 -102431.000000 0 0 1
-33.895060 -11.949314 33.234404 48.950861 0.338935 0.824487 0.021048 -0.011431 154779.000000 0 0 1
-34.036275 -13.322514 33.108304 49.316500 0.373089 0.834777 0.029551 -0.014062 -153812.000000 0 0 1
-35.486947 -13.768214 33.319004 50.586986 0.370101 0.851776 0.023371 -0.013288 -271042.000000 0 0 1
-35.903411 -15.102514 33.295704 51.242021 0.398174 0.863510 0.014232 -0.009380 99546.800000 0 0 1
34.728003 -15.119214 33.562004 50.606649 -0.410614 0.845719 -0.000841 -0.004203 165943.000000 0 0 1
34.359413 -16.565914 33.961904 51.072592 -0.449255 0.843338 -0.010638 0.001744 -318723.000000 0 0 1
34.834773 -16.922814 -33.279645 51.062489 -0.452225 2.280677 -0.008242 -0.004323 155917.000000 0 0 1
34.689583 -18.354614 -33.134845 51.363187 -0.486664 2.271962 -0.017252 -0.004951 -174891.000000 0 0 1
35.329133 -18.999114 -31.870345 51.233123 -0.493409 2.242174 -0.018302 -0.005129 -256060.000000 0 0 1
34.608023 -18.801714 -30.686645 49.928848 -0.497666 2.232685 -0.019927 -0.003608 -330368.000000 0 0 1
35.159923 -19.602714 -29.630545 49.984555 -0.508606 2.205320 -0.025461 0.003320 -1063600.000000 0 0 1
34.164883 -19.643714 -28.448745 48.604998 -0.521810 2.196052 -0.008651 0.004946 1346470.000000 0 0 1
32.897603 -20.289914 -28.701645 48.142677 -0.552652 2.209529 -0.010576 0.000100 680538.000000 0 0 1
32.014763 -19.622714 -29.530445 47.770735 -0.549871 2.237209 -0.010234 0.002087 -1917730.000000 0 0 1
30.756083 -20.416714 -29.857245 47.478774 -0.586034 2.250876 0.002691 0.001420 -517825.000000 0 0 1
29.923043 -19.755414 -30.781245 47.256216 -0.583517 2.280184 0.011429 0.004328 -565434.000000 0 0 1
28.698993 -20.430914 -30.751845 46.762489 -0.618670 2.288449 0.019850 0.001181 -148793.000000 0 0 1
27.586373 -19.767414 -31.608845 46.377556 -0.621757 2.320682 0.016857 0.007938 264290.000000 0 0 1
27.772593 -20.037514 -32.970945 47.538428 -0.625000 2.337221 0.003531 0.006783 -1064320.000000 0 0 1
26.699983 -19.638314 -33.707645 47.273225 -0.634168 2.364619 0.029581 0.008324 -888354.000000 0 0 1
26.850083 -19.702814 33.256604 47.065163 -0.633058 0.786104 0.021320 0.007381 511478.000000 0 0 1
27.926783 -18.870414 32.746704 46.993024 -0.594237 0.799812 0.007314 0.009786 792206.000000 0 0 1
28.059453 -18.923914 31.302604 46.100981 -0.593353 0.824396 0.010400 0.008789 -50344.100000 0 0 1
26.925783 -18.244414 30.466904 44.565555 -0.595521 0.818054 0.011071 0.013610 113109.000000 0 0 1
27.077143 -16.880614 30.507904 44.145883 -0.557467 0.807828 0.022247 0.008614 255271.000000 0 0 1
26.319583 -16.134814 29.580304 42.755667 -0.549949 0.806755 0.030344 0.013286 -80041.400000 0 0 1
25.721383 -14.811514 30.075104 42.254968 -0.522469 0.778806 0.036606 0.004684 227711.000000 0 0 1
26.758383 -13.874014 30.348204 42.772804 -0.478332 0.781978 0.042160 0.008069 710825.000000 0 0 1
26.313783 -12.630214 30.927704 42.525996 -0.447508 0.756466 0.055479 0.001478 -768093.000000 0 0 1
27.591523 -11.914214 31.244904 43.353023 -0.407622 0.765972 0.066495 -0.000605 -624501.000000 0 0 1
28.109993 -11.376114 30.038504 42.683713 -0.384552 0.790139 0.067118 -0.006306 -203207.000000 0 0 1
29.372833 -10.786614 30.220804 43.501854 -0.351942 0.802791 0.070545 -0.007970 -133846.000000 0 0 1
30.079303 -10.318114 28.948704 43.002970 -0.330452 0.832297 0.063856 -0.007123 -69837.600000 0 0 1
29.947713 -8.912914 28.699304 42.425883 -0.289268 0.827855 0.066862 -0.016343 111487.000000 0 0 1
30.535823 -8.660714 27.431904 41.951803 -0.276367 0.858081 0.062185 -0.008679 54662.200000 0 0 1
30.463223 -7.190114 27.073504 41.384542 -0.231784 0.857680 0.062471 -0.008197 1139370.000000 0 0 1
29.140713 -6.634814 26.848704 40.175301 -0.223866 0.838890 0.069094 -0.008473 703577.000000 0 0 1
29.153043 -5.245414 26.650704 39.845631 -0.178022 0.838137 0.064240 -0.010179 -87069.000000 0 0 1
27.756443 -4.663714 26.400204 38.589391 -0.166468 0.817385 0.059695 -0.008738 -314920.000000 0 0 1
27.145013 -5.022014 25.174004 37.360444 -0.182938 0.831437 0.067544 -0.006231 133172.000000 0 0 1
25.886283 -4.361514 25.076504 36.303629 -0.166920 0.808279 0.071712 -0.011818 -208977.000000 0 0 1
25.123983 -4.923114 23.936004 35.048307 -0.193501 0.819012 0.071441 -0.006563 -624184.000000 0 0 1
25.557183 -4.234914 22.767604 34.488663 -0.164211 0.849781 0.076375 -0.000990 316516.000000 0 0 1
25.022683 -4.820414 21.609504 33.411700 -0.190310 0.867462 0.081548 -0.004079 7683.330000 0 0 1
25.225483 -3.894414 20.374004 32.658712 -0.153175 0.897142 0.085226 -0.005413 -261761.000000 0 0 1
24.389283 -2.784114 20.269704 31.834718 -0.113661 0.880563 0.080667 0.003961 -169549.000000 0 0 1
24.897383 -1.720414 19.456104 31.644580 -0.068991 0.908623 0.084624 -0.002403 -119908.000000 0 0 1
23.750483 -0.798914 18.997704 30.424274 -0.033625 0.896400 0.068471 -0.010281 -414815.000000 0 0 1
22.921283 -1.431414 18.096504 29.238974 -0.062368 0.903433 0.076251 -0.016690 -1370140.000000 0 0 1
21.821883 -0.647314 17.839104 28.193035 -0.029655 0.885699 0.075648 -0.018885 -584666.000000 0 0 1
20.696683 -1.472714 17.182904 26.940188 -0.071037 0.879136 0.064756 -0.016401 58073.000000 0 0 1
21.161183 -2.076214 15.949504 26.579936 -0.097801 0.927223 0.082701 -0.029431 390277.000000 0 0 1
20.131783 -2.906714 15.451804 25.543999 -0.143393 0.921144 0.076524 -0.031493 71214.700000 0 0 1
20.424983 -3.341414 14.010704 24.992895 -0.162158 0.975701 0.084404 -0.040097 -76197.200000 0 1 0
19.436183 -4.262314 13.592204 24.097314 -0.215881 0.971508 0.077627 -0.033298 572411.000000 0 1 0
19.370783 -4.525614 12.195404 23.333158 -0.229514 1.020823 0.063200 -0.029397 -498870.000000 0 1 0
18.318783 -5.599214 11.844504 22.521574 -0.296636 1.017002 0.033619 -0.022554 -293817.000000 0 1 0
18.560983 -6.912114 12.296704 23.313008 -0.356489 1.015187 0.057220 -0.031116 478042.000000 0 1 0
17.363683 -7.646214 12.145504 22.527213 -0.414806 1.001371 0.033002 -0.017130 -216429.000000 0 1 0
17.512583 -9.122914 12.431504 23.333675 -0.480255 1.008925 0.048236 -0.032194 -352490.000000 0 1 0
18.178283 -9.895314 11.461404 23.658634 -0.498494 1.065063 0.025516 -0.038088 374198.000000 0 1 0
18.142383 -11.267014 11.766304 24.383141 -0.555741 1.067222 0.047331 -0.025684 -228854.000000 0 1 0
18.803583 -11.958514 10.584504 24.670073 -0.566449 1.127364 0.049495 -0.026639 -211632.000000 0 1 0
18.139183 -11.693614 9.372704 23.529091 -0.572612 1.161084 0.044619 -0.020853 47413.600000 0 1 0
18.985483 -11.989714 8.291904 23.936530 -0.563274 1.217053 0.055128 -0.027417 -150431.000000 0 1 0
18.463883 -11.607714 6.890304 22.872042 -0.561235 1.264788 0.041518 -0.014755 -163132.000000 0 1 0
18.557883 -10.183914 6.634604 22.183893 -0.501894 1.267075 0.016799 -0.009908 792300.000000 0 1 0
19.459383 -9.903314 5.550904 22.528998 -0.470760 1.321843 0.031795 -0.006207 237272.000000 0 1 0
19.692583 -8.423714 5.347304 22.076015 -0.404207 1.326141 0.024043 -0.004664 -562888.000000 0 1 0
20.546583 -8.086614 4.300404 22.495530 -0.374955 1.378445 0.059278 -0.010248 383219.000000 0 1 0
20.547383 -6.684814 4.166204 22.005430 -0.314536 1.380320 0.043120 -0.013847 -646712.000000 0 1 0
21.268083 -6.139914 2.888104 22.324225 -0.281050 1.441062 0.060452 -0.023718 -166200.000000 0 1 0
20.579783 -6.337114 1.682704 21.599027 -0.298715 1.492811 0.038188 -0.020500 416656.000000 0 1 0
21.240183 -5.619714 0.653504 21.980756 -0.258653 1.541061 0.056410 -0.011933 223522.000000 0 1 0
-25.313880 -15.159814 -0.093096 29.506290 0.539591 1.573951 0.052242 -0.020849 -739254.000000 0 0 1
-24.301240 -14.779514 -0.991096 28.459912 0.546412 1.605628 0.032214 -0.011724 300585.000000 0 0 1
-23.026040 -15.351014 -0.721996 27.683451 0.588012 1.596880 0.033954 -0.011973 954111.000000 0 0 1
-22.220040 -14.801514 0.532604 26.703908 0.587633 1.550850 0.033911 -0.014962 -686664.000000 0 0 1
-22.809140 -15.209914 1.722504 27.469354 0.588119 1.508049 0.040472 0.000106 377078.000000 0 0 1
-21.899840 -15.060514 2.834804 26.729351 0.602423 1.464541 0.026424 0.014950 497183.000000 0 0 1
-22.486940 -15.727914 4.097104 27.745559 0.610340 1.422587 0.045550 0.017286 -176504.000000 0 0 1
-22.355740 -17.134914 4.080604 28.461127 0.653956 1.426926 0.068739 0.002145 70755.100000 0 0 1
-22.975740 -17.721714 5.195604 29.477756 0.657009 1.393616 0.063464 -0.002995 -200856.000000 0 0 1
-23.036240 -19.260214 5.065604 30.451347 0.696359 1.403669 0.044665 0.003356 -14251.900000 0 0 1
-23.429940 -19.854014 6.302804 31.350747 0.702970 1.368375 0.034512 0.003929 -122792.000000 0 0 1
-23.579940 -21.217914 6.090804 32.300331 0.732721 1.381093 0.037979 -0.004320 -232335.000000 0 0 1
-24.440040 -21.972714 7.117504 33.626992 0.732288 1.357523 0.032600 -0.004935 -130969.000000 0 0 1
-23.804840 -22.236214 8.378504 33.635085 0.751341 1.319045 0.038395 -0.004458 -42087.200000 0 0 1
-24.447540 -23.209314 9.171604 34.935266 0.759422 1.305152 0.041803 -0.004114 98952.400000 0 0 1
-23.414540 -23.724414 10.198804 34.858344 0.791972 1.273874 0.022916 -0.010010 313516.000000 0 0 1
-23.108640 -22.744414 11.148704 34.287188 0.777455 1.239619 0.030569 -0.009705 -319032.000000 0 0 1
-22.383940 -23.238014 12.232204 34.506128 0.804117 1.208424 0.035613 -0.009818 -282659.000000 0 0 1
-22.533540 -22.512414 13.568604 34.621904 0.784929 1.168092 0.023565 -0.007800 -474812.000000 0 0 1
-23.798040 -22.758314 14.112804 35.825393 0.763069 1.165890 0.028294 -0.013604 -565197.000000 0 0 1
-23.953540 -22.166014 15.399604 36.086730 0.746659 1.129913 0.020580 -0.004412 -696179.000000 0 0 1
-25.342030 -22.460314 15.985504 37.446235 0.725187 1.129743 0.007582 0.003455 -551139.000000 0 0 1
-26.374810 -22.014514 15.140504 37.543366 0.695532 1.155697 0.003408 0.001866 -118070.000000 0 0 1
-26.845170 -22.961014 14.206604 38.074912 0.707570 1.188424 -0.005873 -0.003007 -621248.000000 0 0 1
-27.928230 -23.975014 14.644804 39.613857 0.709380 1.192122 -0.011178 0.000566 -417738.000000 0 0 1
-27.467730 -24.864914 15.647804 40.219323 0.735703 1.171183 -0.005787 0.006132 195804.000000 0 0 1
-28.451490 -25.779434 16.124404 41.642081 0.736166 1.173188 -0.001026 0.007829 101434.000000 0 0 1
-28.371690 -27.047784 15.246004 42.059197 0.761514 1.199859 0.018601 0.003314 -212548.000000 0 0 1
-29.013700 -26.977214 13.977004 42.010969 0.749042 1.231632 0.023724 -0.008245 736069.000000 0 0 1
-30.202030 -27.801124 13.986204 43.366796 0.744029 1.242417 0.041597 -0.010308 585430.000000 0 0 1
-30.733120 -28.127344 12.564604 43.514842 0.741157 1.277883 0.067864 -0.022923 -127165.000000 0 0 1
-30.038430 -29.163524 11.877504 43.518887 0.770621 1.294362 0.061836 -0.027517 187444.000000 0 0 1
-30.696940 -29.556314 10.703504 43.936805 0.766470 1.324709 0.068056 -0.018716 -47380.700000 0 0 1
-30.069920 -30.805804 10.040304 44.204133 0.797486 1.341662 0.057299 -0.032012 -362119.000000 0 0 1
-30.135110 -32.014594 10.780204 45.268885 0.815630 1.330349 0.068410 -0.017911 262248.000000 0 0 1
-29.494310 -33.127474 10.150504 45.501391 0.843351 1.345822 0.073902 -0.017260 -22128.500000 0 0 1
-29.532530 34.349780 10.980404 46.611662 -0.860664 1.332989 0.086207 -0.009442 -542755.000000 0 0 1
-30.860170 33.964876 11.091104 47.212027 -0.833255 1.333659 0.091283 -0.009347 -752535.000000 0 0 1
-30.932050 32.581838 11.547604 46.386583 -0.811368 1.319208 0.079464 -0.013026 -1344500.000000 0 0 1
-32.181900 32.254688 12.337904 47.204486 -0.786528 1.306354 0.089223 -0.009304 526755.000000 0 0 1
-33.454840 32.081098 11.687704 47.801942 -0.764440 1.323790 0.061593 -0.015349 893907.000000 0 0 1
-33.899180 33.207232 10.987904 48.709432 -0.775087 1.343257 0.061292 -0.008229 -2448730.000000 0 0 1
-35.324024 33.288675 10.555204 49.672275 -0.755743 1.356667 0.043894 0.008390 -1173340.000000 0 0 1
-35.629072 32.618308 9.347504 49.201226 -0.741311 1.379649 0.029161 -0.001874 221221.000000 0 0 1
34.999203 32.683538 9.123404 48.748276 0.751198 1.382533 0.024534 0.000225 76480.800000 0 0 1
34.590523 32.014898 7.782804 47.770598 0.746748 1.407146 0.029474 -0.010388 -121322.000000 0 0 1
34.652493 30.612758 7.766204 46.885501 0.723580 1.404387 0.046584 -0.014874 80300.600000 0 0 1
34.496763 30.090568 6.451504 46.228680 0.717283 1.430783 0.065667 -0.013238 -6689.650000 0 0 1
34.902603 28.610738 6.229804 45.558495 0.686657 1.433624 0.060663 -0.002652 -425949.000000 0 0 1
34.015483 27.643488 6.708104 44.342014 0.682421 1.418932 0.054927 -0.007472 -119934.000000 0 0 1
34.310943 27.130518 7.991504 44.465379 0.669060 1.390090 0.053782 -0.007944 -33345.100000 0 0 1
33.290613 26.005078 8.355204 43.062030 0.663143 1.375531 0.046595 -0.016549 171278.000000 0 0 1
33.346013 24.931468 7.463004 42.299304 0.642002 1.393435 0.054552 -0.022995 142466.000000 0 0 1
32.360283 23.989848 7.840904 41.038768 0.637933 1.378553 0.047538 -0.022127 -472792.000000 0 0 1
32.295233 22.730068 7.011404 40.109823 0.613286 1.395088 0.048745 -0.018069 117215.000000 0 0 1
33.346073 21.783968 7.064604 40.452571 0.578670 1.395257 0.050346 -0.013760 107364.000000 0 0 1
34.601433 22.169268 6.509204 41.606554 0.569812 1.413704 0.071086 -0.018042 389966.000000 0 0 1
35.584473 20.949168 6.578504 41.813862 0.532082 1.412812 0.046715 -0.013724 -142744.000000 0 0 1
35.298803 19.932768 5.651504 40.929943 0.514049 1.432276 0.061788 -0.013462 1093.120000 0 0 1
-35.958327 18.782768 5.875704 40.991677 -0.481366 1.426962 0.062520 -0.010845 -345147.000000 0 0 1
35.622373 17.622068 5.057504 40.063314 0.459391 1.444221 0.057900 -0.009402 -364000.000000 0 0 1
-35.895592 17.599268 3.759404 40.154214 -0.455850 1.477035 0.063799 -0.010405 10023.700000 0 0 1
35.647713 16.440668 3.148604 39.382340 0.432127 1.490761 0.042747 -0.010518 -729088.000000 0 0 1
-35.548418 15.954868 1.904704 39.011226 -0.421873 1.521952 0.059309 -0.000737 838411.000000 0 0 1
-34.375356 15.163468 2.167804 37.633699 -0.415440 1.513162 0.056606 -0.007011 925761.000000 0 0 1
-33.249080 15.982168 2.494704 36.975054 -0.448073 1.503275 0.065474 -0.011522 -460316.000000 0 0 1
-31.911690 15.245868 2.572904 35.460010 -0.445691 1.498175 0.053885 -0.017457 -427238.000000 0 0 1
-31.809150 14.447768 3.710804 35.133035 -0.426343 1.464977 0.057178 -0.014819 -380716.000000 0 0 1
-30.503180 14.269368 4.163204 33.932155 -0.437557 1.447794 0.054013 -0.019880 -966970.000000 0 0 1
-30.321360 13.352968 5.400804 33.568666 -0.414827 1.409206 0.057133 -0.007832 -196906.000000 0 0 1
-30.417970 11.960968 5.272304 33.107626 -0.374648 1.410868 0.059153 -0.002356 390595.000000 0 0 1
-30.094320 11.272668 6.493504 32.785771 -0.358401 1.371419 0.040584 0.013311 -102028.000000 0 0 1
-30.216540 9.742268 6.455804 32.397971 -0.311892 1.370188 0.050403 0.001519 -1110510.000000 0 0 1
-31.515920 9.298868 6.467104 33.489485 -0.286912 1.376467 0.057094 0.011546 -1170770.000000 0 0 1
-31.588080 7.882768 6.535004 33.206191 -0.244554 1.372703 0.069924 0.000578 -439623.000000 0 0 1
-32.983720 7.275468 6.463904 34.389538 -0.217101 1.381710 0.071770 0.003861 -219854.000000 0 0 1
-33.751330 7.217068 7.657204 35.353517 -0.210658 1.352477 0.071265 0.004252 -410636.000000 0 0 1
-34.926076 6.513168 7.471804 36.305372 -0.184367 1.363511 0.054184 0.002726 -371457.000000 0 0 1
-35.657921 5.901768 8.698804 37.175091 -0.164024 1.334611 0.055916 -0.001508 -13284.300000 0 0 1
35.771353 6.831968 9.577404 37.656236 0.188717 1.313633 0.056663 0.001716 -125572.000000 0 0 1
-35.341766 7.516668 10.405704 37.600790 -0.209563 1.290395 0.071220 -0.005984 -327560.000000 0 0 1
-35.941973 8.498568 11.484804 38.677537 -0.232188 1.269313 0.053667 -0.007106 -472708.000000 0 0 1
35.514213 7.857468 12.613904 38.498178 0.217741 1.236982 0.049087 -0.015322 516475.000000 0 0 1
34.941753 8.853368 13.489204 38.487230 0.248153 1.212707 0.069042 -0.017668 305327.000000 0 0 1
34.087303 8.256568 14.680104 38.021318 0.237641 1.174394 0.048821 -0.018430 1125520.000000 0 0 1
32.687253 7.964868 14.481604 36.628029 0.239011 1.164326 0.053729 -0.024027 1151720.000000 0 0 1
32.159163 7.507068 15.722104 36.575297 0.229328 1.126463 0.038954 -0.012756 -772425.000000 0 0 1
30.661203 7.243968 15.761704 35.228053 0.232004 1.106919 0.041231 -0.009736 -1473670.000000 0 0 1
29.999223 8.479468 15.761804 34.932638 0.275470 1.102680 0.028250 -0.006741 470097.000000 0 0 1
28.570643 8.394668 15.778204 33.700205 0.285779 1.083552 0.037189 0.002177 987040.000000 0 0 1
27.851963 7.730468 16.993104 33.529950 0.270741 1.039323 0.039207 0.006393 -764879.000000 0 0 1
27.899263 8.580468 18.118504 34.355109 0.298371 1.015272 0.050242 -0.005107 192183.000000 0 0 1
27.110603 8.160368 19.232204 34.226511 0.292377 0.974104 0.052182 -0.002119 132263.000000 0 0 1
27.618423 6.894768 20.021604 34.802008 0.244643 0.957825 0.048407 -0.001798 -18090.000000 0 0 1
27.087263 6.869368 21.312804 35.144610 0.248365 0.919231 0.035129 0.004957 65160.700000 0 0 1
27.462473 5.656868 21.931804 35.597635 0.203144 0.907011 0.047010 0.005637 -309724.000000 0 0 1
26.858183 5.469168 23.400604 36.039729 0.200885 0.864132 0.048983 0.008856 765845.000000 0 0 1
25.480183 5.162068 23.493104 35.040157 0.199886 0.835965 0.045211 0.001836 575997.000000 0 0 1
24.504283 6.159568 23.181404 34.289614 0.246265 0.828411 0.045267 0.004728 -41260.600000 0 0 1
23.012683 5.858468 23.297604 33.266854 0.249280 0.794944 0.054239 -0.008286 -191844.000000 0 0 1
22.519683 4.868868 22.452604 32.170816 0.212928 0.798310 0.062794 -0.003256 150659.000000 0 0 1
21.163483 5.102468 22.113704 31.031340 0.236583 0.777564 0.059340 -0.005091 -750845.000000 0 0 1
20.514483 3.830468 21.473104 29.943458 0.184595 0.771133 0.065729 -0.006812 689488.000000 0 0 1
19.177883 3.938668 20.969204 28.688182 0.202559 0.751105 0.052583 -0.007027 907202.000000 0 0 1
18.173783 4.123768 21.944104 28.789504 0.223129 0.704052 0.066959 -0.008255 -748644.000000 0 0 1
16.740583 4.123468 21.386904 27.470889 0.241508 0.678477 0.077111 -0.007603 66599.500000 0 0 1
16.024383 2.903068 21.695604 27.127622 0.179222 0.643900 0.060560 -0.005553 1144580.000000 0 0 1
15.090583 2.597368 20.577304 25.649512 0.170448 0.639743 0.058575 -0.009649 493573.000000 0 0 1
14.051883 1.507268 20.918104 25.244689 0.106856 0.594169 0.052071 -0.005004 -456447.000000 0 0 1
14.566183 0.243568 21.221604 25.740813 0.016720 0.601595 0.032396 -0.003262 100611.000000 0 0 1
13.616483 -0.575832 21.881204 25.778426 -0.042264 0.557050 0.031915 -0.005589 -87187.900000 0 0 1
13.999683 -2.084332 21.925004 26.096769 -0.147799 0.573250 0.009934 -0.002207 -30732.500000 0 0 1
13.965883 -2.672832 20.623304 25.050161 -0.189096 0.603630 0.030474 0.004371 188598.000000 0 0 1
13.795383 -4.092232 20.772104 25.269334 -0.288369 0.605833 0.011810 0.013766 -90142.500000 0 0 1
13.477883 -4.782932 19.463304 24.152639 -0.341009 0.633694 0.017913 0.004716 -43761.000000 0 1 0
12.122283 -4.605232 19.123704 23.105712 -0.363058 0.595869 0.019204 0.001529 -230876.000000 0 1 0
11.881183 -5.212832 17.836804 22.056466 -0.413456 0.628878 0.024288 -0.000674 306624.000000 0 1 0
10.385283 -5.471532 17.536904 21.102956 -0.484900 0.589864 0.026711 -0.001159 253156.000000 0 1 0
9.786983 -6.460632 18.329804 21.760204 -0.583460 0.569159 0.025818 0.004007 -1343100.000000 0 1 0
8.428983 -6.500132 18.088804 20.988194 -0.656909 0.531878 0.021014 -0.007011 -884117.000000 0 1 0
7.706483 -7.365032 19.157304 21.923409 -0.762747 0.507775 0.022608 -0.009128 -379851.000000 0 1 0
7.733683 -8.801532 18.951404 22.280765 -0.849889 0.553724 0.018022 -0.007436 357364.000000 0 1 0
8.915483 -9.405532 19.472204 23.390523 -0.812140 0.587223 0.035190 -0.011177 382022.000000 0 1 0
9.182683 -10.782032 18.870704 23.594010 -0.865336 0.643819 0.046039 -0.020235 70295.400000 0 1 0
9.327183 -10.712832 17.506404 22.544074 -0.854432 0.681639 0.043158 -0.016742 157355.000000 0 1 0
9.782883 -11.965132 17.020904 22.990875 -0.885406 0.737231 0.043376 -0.023688 137232.000000 0 1 0
9.986383 -12.056632 15.511604 22.038604 -0.879042 0.790010 0.039972 -0.020398 359189.000000 0 1 0
10.662983 -13.169032 14.915504 22.574208 -0.890168 0.849003 0.047834 -0.018235 217378.000000 0 1 0
10.353083 -13.245632 13.522104 21.574994 -0.907362 0.893422 0.041955 -0.014857 1396.820000 0 1 0
11.205283 -14.385632 12.833504 22.298062 -0.909041 0.957528 0.067442 -0.016102 1081410.000000 0 1 0
12.552883 -14.008032 12.551804 22.612996 -0.840129 0.982349 0.059371 -0.022849 54869.000000 0 1 0
12.705583 -13.142732 11.429204 21.558987 -0.802309 1.012035 0.040525 -0.020508 -366505.000000 0 1 0
14.086183 -12.974532 10.727104 21.950621 -0.744341 1.060206 0.045612 -0.028681 420088.000000 0 1 0
14.638083 -14.124332 10.163504 22.739108 -0.767538 1.107431 0.064138 -0.023479 372792.000000 0 1 0
15.951383 -13.922532 9.636504 23.262539 -0.717588 1.143678 0.051461 -0.027700 -89010.200000 0 1 0
16.638983 -15.202532 9.212204 24.348253 -0.740316 1.182781 0.059984 -0.029784 -261292.000000 0 1 0
17.002583 -16.048632 10.252704 25.529675 -0.756543 1.157534 0.063699 -0.026694 -382078.000000 0 0 1
16.036783 -16.958432 10.658104 25.658565 -0.813324 1.142434 0.092252 -0.026300 -188794.000000 0 0 1
16.495183 -17.571032 11.996404 26.921105 -0.816969 1.108937 0.083628 -0.020013 -188773.000000 0 0 1
17.662983 -18.326632 11.990904 28.135887 -0.803836 1.130532 0.106647 -0.026693 -509827.000000 0 0 1
17.879983 -18.804732 13.262104 29.140952 -0.810601 1.098310 0.060842 -0.023026 60462.000000 0 0 1
19.171583 -19.651432 13.406504 30.552622 -0.797757 1.116533 0.019952 -0.027414 776478.000000 0 0 1
20.350983 -18.938532 13.039104 30.705842 -0.749464 1.132226 0.013414 -0.024363 10759.300000 0 0 1
21.466083 -19.781332 12.817904 31.880910 -0.744576 1.157035 -0.009552 -0.019510 -65373.800000 0 0 1
22.437683 -19.158632 11.871504 31.803072 -0.706731 1.188252 -0.006542 -0.015282 -1183850.000000 0 0 1
22.154283 -19.430232 10.490104 31.279201 -0.719985 1.228798 -0.006396 -0.017472 363741.000000 0 0 1
21.034683 -18.846432 9.789704 29.891205 -0.730584 1.237128 0.014910 -0.022111 757299.000000 0 0 1
20.754083 -17.306432 9.901104 28.779791 -0.695061 1.219591 0.053352 -0.022142 -261470.000000 0 0 1
21.782083 -16.633032 9.245304 28.923909 -0.652155 1.245444 0.043794 -0.018082 -261582.000000 0 0 1
21.591183 -15.207332 9.302004 27.999453 -0.613627 1.232139 0.056027 -0.029720 132854.000000 0 0 1
-34.688866 24.962386 7.549804 43.398591 -0.623765 1.395942 0.065836 -0.019648 414444.000000 0 0 1
-33.833550 24.243686 8.500804 42.482103 -0.621752 1.369333 0.062773 -0.025588 740439.000000 0 0 1
-32.766000 25.118386 8.867104 42.227593 -0.654040 1.359238 0.071670 -0.022577 -8753.840000 0 0 1
-31.755280 24.333586 9.751204 41.177751 -0.653842 1.331718 0.073193 -0.034273 350816.000000 0 0 1
-30.788200 23.542086 9.023504 39.794054 -0.652809 1.342052 0.076681 -0.030420 935514.000000 0 0 1
-29.900680 22.777086 9.839504 38.854371 -0.650984 1.314768 0.073615 -0.030972 281044.000000 0 0 1
-28.915730 21.952986 9.021504 37.409098 -0.649367 1.327237 0.074675 -0.037034 -539738.000000 0 0 1
-29.638140 20.946486 8.401104 37.252559 -0.615236 1.343322 0.077626 -0.037269 -114914.000000 0 0 1
-28.965410 20.230786 7.430504 36.103907 -0.609683 1.363506 0.070055 -0.037681 -111145.000000 0 0 1
-29.982540 19.586686 6.425404 36.385118 -0.578670 1.393271 0.068671 -0.037728 50141.600000 0 0 1
-30.609890 18.429086 6.940904 36.397428 -0.541935 1.378924 0.067470 -0.027698 298369.000000 0 0 1
-31.568840 17.957986 6.020804 36.814821 -0.517201 1.406515 0.058415 -0.020614 93822.200000 0 0 1
-32.269410 16.593086 6.323404 36.832469 -0.474947 1.398261 0.047083 -0.008367 -83300.500000 0 0 1
-33.098930 16.628786 7.462704 37.785548 -0.465563 1.371988 0.044881 -0.006279 245145.000000 0 0 1
-34.057211 15.581386 7.506604 38.197151 -0.429079 1.372986 0.050142 -0.002182 442944.000000 0 0 1
-35.101721 15.927886 8.640204 39.502930 -0.425979 1.350291 0.044637 -0.002008 -182688.000000 0 0 1
35.963833 16.865686 8.369804 40.594362 0.438511 1.363125 0.054350 -0.013044 -465565.000000 0 0 1
35.439403 17.475686 9.547304 40.650976 0.458124 1.333721 0.055770 -0.008490 203017.000000 0 0 1
34.379183 18.567486 9.246504 40.151931 0.495195 1.338423 0.041176 -0.008542 -712673.000000 0 0 1
33.115733 18.056986 8.950104 38.766104 0.499204 1.337820 0.042734 -0.016603 -794997.000000 0 0 1
32.390593 19.267086 8.760804 38.692671 0.536614 1.342395 0.041105 -0.016446 -1038840.000000 0 0 1
30.888023 19.153486 8.634504 37.356132 0.555064 1.337547 0.039487 -0.018945 -1057780.000000 0 0 1
30.311843 20.397886 8.367604 37.481974 0.592329 1.345656 0.033049 -0.024205 105141.000000 0 0 1
28.909863 20.335186 8.154204 36.273833 0.613004 1.344063 0.019786 -0.025255 136299.000000 0 0 1
28.405783 20.203886 6.715004 35.498969 0.618243 1.380489 0.015394 -0.019818 -772889.000000 0 0 1
28.648863 18.954086 6.086904 34.886460 0.584487 1.395421 0.024990 -0.018242 227099.000000 0 0 1
28.323223 18.871686 4.674904 34.354042 0.587747 1.434293 0.025746 -0.016030 -931862.000000 0 0 1
26.946383 19.226786 4.168504 33.363952 0.619742 1.445529 0.043206 -0.016497 -2541440.000000 0 0 1
25.985683 18.223586 4.480204 32.053502 0.611593 1.430564 0.054521 -0.025583 558234.000000 0 0 1
24.665583 18.568986 4.072004 31.141282 0.645310 1.439662 0.053105 -0.022665 447909.000000 0 0 1
24.037183 19.879786 4.658504 31.538765 0.691014 1.422547 0.056351 -0.020175 -1607850.000000 0 0 1
24.519683 21.011286 4.027204 32.540857 0.708495 1.446720 0.042521 -0.015602 -209710.000000 0 0 1
23.973583 22.188086 4.568904 32.983613 0.746738 1.431829 0.023340 -0.001278 -335295.000000 0 0 1
24.802983 23.500186 4.447104 34.456109 0.758433 1.441370 0.003520 0.007128 -109638.000000 0 0 1
26.020583 23.348786 5.165904 35.340106 0.731332 1.424094 0.013809 -0.006338 270092.000000 0 0 1
26.803683 24.499586 4.829004 36.633133 0.740517 1.438591 0.015939 0.001359 -666251.000000 0 0 1
28.090903 24.633486 5.655704 37.787490 0.719917 1.420560 0.018970 -0.005105 451299.000000 0 0 1
29.156453 23.639286 5.518704 37.939039 0.681276 1.424816 0.011684 -0.006834 1583430.000000 0 0 1
29.753883 23.457286 4.207904 38.121441 0.667614 1.460189 0.015503 -0.008553 -463811.000000 0 0 1
30.517453 24.635786 3.557504 39.381375 0.679157 1.480338 0.025659 -0.016670 -766181.000000 0 0 1
29.745773 25.754486 3.260704 39.480840 0.713607 1.488113 0.003087 -0.009906 285412.000000 0 0 1
30.608133 26.693686 2.577304 40.694633 0.717191 1.507421 0.045442 -0.004776 43780.300000 0 0 1
30.157843 28.196286 2.627604 41.369437 0.751796 1.507238 0.039714 -0.003659 255399.000000 0 0 1
28.927033 28.589286 2.066204 40.723331 0.779526 1.520037 0.060497 -0.008191 609570.000000 0 0 1
27.765913 28.277286 2.852504 39.732702 0.794523 1.498942 0.031563 0.002912 -21409.300000 0 0 1
26.451183 28.809186 2.300204 39.178121 0.828043 1.512051 -0.002271 0.002488 -433728.000000 0 0 1
26.347683 30.203186 2.562804 40.162181 0.853470 1.506942 0.001402 -0.009818 51955.500000 0 0 1
25.059383 30.696486 2.286304 39.692242 0.886159 1.513164 0.003125 0.000951 -158377.000000 0 0 1
24.869583 32.135886 2.825004 40.733180 0.912181 1.501387 0.026858 -0.015086 -291790.000000 0 0 1
24.861883 32.416586 4.201804 41.068277 0.916536 1.468304 0.022326 -0.033472 -361724.000000 0 0 1
26.082783 32.217686 4.835104 41.733309 0.890241 1.454678 0.025270 -0.032118 -632677.000000 0 0 1
25.854083 32.124486 6.378804 41.726554 0.893130 1.417323 0.030242 -0.040300 150353.000000 0 0 1
25.370283 30.903986 6.976304 40.587885 0.883418 1.398057 0.033536 -0.035631 597422.000000 0 0 1
26.243683 29.812086 6.712404 40.280860 0.848970 1.403375 0.020931 -0.028809 166923.000000 0 0 1
25.620883 28.474186 7.191204 38.973354 0.838095 1.385217 0.035396 -0.025233 -1014170.000000 0 0 1
24.530583 28.109486 6.458004 37.862891 0.853282 1.399395 0.018997 -0.027597 -932171.000000 0 0 1
24.109883 26.815786 6.900804 36.715037 0.838483 1.381716 0.032177 -0.015711 -399510.000000 0 0 1
22.762683 26.445486 6.243304 35.446894 0.860100 1.393742 0.038408 -0.003004 -287785.000000 0 0 1
22.679283 26.139286 4.866004 34.946962 0.856155 1.431103 0.019558 -0.002981 124284.000000 0 0 1
22.893683 27.238586 3.993504 35.805158 0.871851 1.459029 0.015501 0.000286 -417548.000000 0 0 1
22.947483 26.739586 2.535204 35.327322 0.861570 1.498971 0.015395 0.002227 650400.000000 0 0 1
24.173383 26.039886 2.223904 35.600194 0.822553 1.508287 -0.013517 0.023317 775899.000000 0 0 1
24.076683 25.525586 0.923204 35.101204 0.814600 1.544492 0.002426 0.022802 -358409.000000 0 0 1
25.331383 24.984986 0.226004 35.580606 0.778514 1.564444 0.013542 0.011598 -1160630.000000 0 0 1
26.307783 25.926486 -0.033596 36.936205 0.778099 1.571706 0.004629 0.013244 390329.000000 0 0 1
27.536633 25.584586 -0.662896 37.593571 0.748668 1.588430 0.010500 0.021697 869490.000000 0 0 1
28.452043 24.410886 -0.150896 37.489103 0.709101 1.574821 0.011631 0.010558 -396031.000000 0 0 1
27.937613 23.089186 -0.394596 36.246054 0.690665 1.581683 0.016647 0.002570 243855.000000 0 0 1
28.228873 22.211086 0.676704 35.925750 0.666653 1.551959 0.015461 -0.001079 -311478.000000 0 0 1
26.995183 21.493886 1.251104 34.529586 0.672427 1.534556 0.024461 -0.006951 -48668.300000 0 0 1
26.684783 20.332386 0.491504 33.551827 0.651103 1.556147 0.039500 -0.014620 659223.000000 0 0 1
25.376183 19.852286 0.788104 32.228637 0.663867 1.546340 0.039626 -0.010764 103881.000000 0 0 1
25.031583 18.488086 0.148704 31.119312 0.636159 1.566018 0.052479 -0.014341 -4394.630000 0 0 1
23.642483 18.244486 0.268404 29.864700 0.657234 1.561809 0.052998 -0.012451 -60809.400000 0 0 1
23.290783 17.068886 -0.266096 28.876950 0.632441 1.580011 0.069214 -0.026809 -425730.000000 0 0 1
21.803383 16.800186 -0.010696 27.525150 0.656512 1.571185 0.078713 -0.014399 -772111.000000 0 0 1
21.324883 15.728886 -0.808496 26.510416 0.635507 1.601298 0.085514 -0.017671 416310.000000 0 0 1
19.972783 15.390986 -0.544096 25.220835 0.656554 1.592371 0.093518 -0.018677 757622.000000 0 0 1
18.802483 16.280786 -1.097296 24.895811 0.713644 1.614886 0.089721 -0.024405 10417.600000 0 1 0
18.733283 17.532586 -0.468996 25.662179 0.752302 1.589073 0.071416 -0.015084 -105581.000000 0 0 1
17.735283 18.374686 -1.034196 25.558539 0.803103 1.611271 0.053772 -0.018783 311815.000000 0 0 1
17.856183 19.807286 -0.580596 26.674125 0.837155 1.592564 0.051182 -0.006487 -104611.000000 0 0 1
17.354083 19.953086 0.719104 26.453864 0.854951 1.543610 0.046394 -0.002002 64696.100000 0 0 1
17.556083 21.305086 1.188504 27.632142 0.881572 1.527771 0.052075 -0.002612 282806.000000 0 0 1
16.451983 22.344686 0.790904 27.759291 0.936133 1.542301 0.044377 -0.009239 694121.000000 0 0 1
15.172583 22.190786 1.380604 26.917361 0.971071 1.519483 0.025002 -0.005961 402884.000000 0 0 1
14.236283 23.201686 1.050604 27.241398 1.020445 1.532220 0.011448 -0.003152 362118.000000 0 0 1
12.850283 23.039686 1.708704 26.436274 1.062026 1.506116 0.005623 0.000419 -671.295000 0 0 1
12.774983 23.412886 3.086604 26.849405 1.071307 1.455582 0.003799 0.022696 1017400.000000 0 0 1
11.437183 23.553586 3.641104 26.435548 1.118750 1.432622 -0.006707 0.022502 1195390.000000 0 0 1
11.316083 23.965286 5.137204 26.995917 1.129646 1.379333 0.002426 0.014674 -191510.000000 0 0 1
11.854083 23.017586 6.079504 26.594904 1.095220 1.340160 0.014038 -0.000501 436177.000000 0 0 1
10.931283 22.582086 7.087404 26.070574 1.119975 1.295477 0.013092 -0.000503 -145076.000000 0 0 1
11.526283 21.348886 7.816004 25.489606 1.075740 1.259141 0.016400 -0.009526 278874.000000 0 0 1
12.570783 21.584486 8.735104 26.461607 1.043419 1.234382 0.021078 -0.005347 457163.000000 0 0 1
13.869183 21.572286 8.132304 26.904500 0.999417 1.263728 0.035704 0.002531 1005950.000000 0 0 1
15.055983 21.687286 9.182704 27.952514 0.963953 1.236070 0.035031 0.001658 568169.000000 0 0 1
15.270983 20.485986 9.936604 27.415591 0.930223 1.199908 0.038497 -0.006389 2036630.000000 0 0 1
16.662383 20.450086 10.442404 28.370492 0.887106 1.193861 0.037570 -0.003623 2060980.000000 0 0 1
17.042983 21.221886 11.726004 29.636647 0.894177 1.164011 0.027654 -0.004162 -627604.000000 0 0 1
16.388683 20.720886 12.817504 29.363795 0.901613 1.119084 0.032229 -0.006175 -279016.000000 0 0 1
16.615683 21.407886 14.011004 30.507158 0.910770 1.093624 0.036311 -0.003015 -624171.000000 0 0 1
17.857083 20.958686 14.751304 31.236883 0.865134 1.078966 0.050443 -0.006266 419663.000000 0 0 1
19.114583 21.410586 14.196504 32.020637 0.841994 1.111458 0.059874 -0.005927 -12770.700000 0 0 1
20.153383 20.989586 15.022404 32.747430 0.805720 1.094225 0.053404 -0.006766 -1427030.000000 0 0 1
21.410483 21.675386 14.581904 33.776664 0.791546 1.124403 0.055680 -0.013032 -1273430.000000 0 0 1
21.895583 21.034486 13.425604 33.198087 0.765343 1.154464 0.059613 -0.013804 400356.000000 0 0 1
23.230783 21.539786 13.276804 34.349748 0.747646 1.173943 0.050739 -0.016705 280912.000000 0 0 1
23.947583 21.035086 12.047704 34.075045 0.720741 1.209418 0.047709 -0.011760 -522613.000000 0 0 1
23.358083 21.415586 10.847604 33.494744 0.742041 1.240990 0.047189 -0.007291 -305346.000000 0 0 1
24.171683 21.172086 9.746004 33.578446 0.719342 1.276313 0.055033 -0.023994 -701592.000000 0 0 1
23.992783 21.986786 8.469404 33.627417 0.741798 1.316195 0.056923 -0.024705 -188930.000000 0 0 1
24.343483 23.376186 8.591204 34.826140 0.765131 1.321535 0.047816 -0.022364 781315.000000 0 0 1
25.740383 23.656186 8.476104 35.972584 0.743230 1.332933 0.033869 -0.030446 237546.000000 0 0 1
26.235583 24.950886 9.161604 37.346854 0.760305 1.322956 0.048527 -0.029704 -239098.000000 0 0 1
27.501723 25.443986 8.795404 38.485066 0.746553 1.340218 0.034430 -0.025604 131523.000000 0 0 1
28.067373 26.359186 9.686504 39.704061 0.754023 1.324341 0.038665 -0.025020 256840.000000 0 0 1
29.414993 26.939886 9.199404 40.934439 0.741506 1.344125 0.042564 -0.029446 327481.000000 0 0 1
29.148173 27.772586 8.075504 41.062711 0.761236 1.372843 0.047184 -0.029894 280198.000000 0 0 1
30.401313 28.185286 7.588604 42.145428 0.747591 1.389751 0.056098 -0.026818 -144022.000000 0 0 1
30.360283 29.073486 6.300204 42.505375 0.763751 1.422027 0.069493 -0.020955 -22197.400000 0 0 1
30.307533 30.464686 6.558704 43.470222 0.787984 1.419340 0.072740 -0.025465 185894.000000 0 0 1
30.266203 31.153386 5.366104 43.764958 0.799842 1.447875 0.071942 -0.012204 22968.300000 0 0 1
30.341393 32.678286 5.601904 44.942762 0.822463 1.445826 0.040846 -0.011773 704084.000000 0 0 1
29.132003 33.244486 6.131404 44.625817 0.851233 1.432964 0.044579 -0.026378 605773.000000 0 0 1
29.231183 -34.084497 6.163804 45.323365 -0.861901 1.434377 0.040863 -0.020590 14014.800000 0 0 1
27.939753 -33.452097 6.712604 44.099111 -0.874948 1.417986 0.073998 -0.036269 -118730.000000 0 0 1
26.874683 -33.426797 5.829504 43.284899 -0.893630 1.435708 0.070889 -0.038596 -799994.000000 0 0 1
25.700483 -32.788997 6.251504 42.127360 -0.906003 1.421851 0.065928 -0.045321 248709.000000 0 0 1
24.547283 -32.992997 5.227804 41.454033 -0.931137 1.444349 0.074289 -0.044708 -24490.700000 0 0 1
24.863083 -32.335697 4.033904 40.988322 -0.915305 1.472221 0.059208 -0.029087 225421.000000 0 0 1
23.930183 -32.644597 2.997504 40.587047 -0.938231 1.496875 0.060285 -0.027323 161919.000000 0 0 1
24.346283 -31.955797 1.660304 40.207848 -0.919739 1.529492 0.056361 -0.013575 110837.000000 0 0 1
24.283183 -30.584697 1.933204 39.100306 -0.899746 1.521334 0.058578 -0.006508 95256.900000 0 0 1
24.949083 -29.777097 0.992704 38.860233 -0.873392 1.545248 0.049359 -0.001468 -346502.000000 0 0 1
25.088983 -28.305497 1.366004 37.848701 -0.845566 1.534697 0.045007 0.005425 867269.000000 0 0 1
23.847283 -27.577297 1.293604 36.481141 -0.857805 1.535329 0.024790 0.003053 794193.000000 0 0 1
23.292983 -27.350597 -0.015896 35.925179 -0.865348 1.571239 0.019721 0.008917 -410291.000000 0 0 1
22.226383 -26.271997 -0.095896 34.412775 -0.868623 1.573583 0.014840 0.011085 -569244.000000 0 0 1
22.683883 -24.910297 0.121304 33.691188 -0.832143 1.567196 0.015829 -0.002353 -93562.000000 0 0 1
22.790783 -24.468997 1.466204 33.470903 -0.820894 1.526977 0.008638 0.003842 161328.000000 0 0 1
21.481183 -24.104397 2.224804 32.363759 -0.842880 1.501998 0.014499 -0.001386 48669.300000 0 0 1
21.585683 -23.455497 3.449204 32.062424 -0.826888 1.463010 0.015912 -0.002224 116740.000000 0 0 1
20.286283 -23.259197 3.990804 31.119930 -0.853564 1.442203 0.025168 -0.003567 273672.000000 0 0 1
20.392883 -22.606097 5.342404 30.910299 -0.836824 1.397088 0.022533 -0.006160 -356772.000000 0 0 1
20.509083 -21.178097 5.437604 29.978356 -0.801445 1.388402 0.037478 -0.007394 -72906.100000 0 0 1
19.511783 -20.415397 4.801704 28.645322 -0.808026 1.402375 0.033879 -0.009874 -610263.000000 0 0 1
19.560283 -18.906997 5.166004 27.690554 -0.768417 1.383135 0.036193 -0.007701 137243.000000 0 0 1
19.233383 -18.654597 6.538304 27.580182 -0.770123 1.331452 0.060020 -0.019116 -273682.000000 0 0 1
17.861383 -18.468297 6.768904 26.569250 -0.802102 1.313192 0.051501 -0.010696 -99329.000000 0 0 1
18.702760 -26.213254 -12.192096 34.432182 -0.951077 1.932737 0.097176 -0.024827 289338.000000 0 0 1
18.985160 -24.937214 -12.725296 33.826530 -0.920091 1.956480 0.104357 -0.022336 601193.000000 0 0 1
17.766260 -24.366114 -13.247696 32.937045 -0.940781 1.984729 0.075723 -0.016755 886567.000000 0 0 1
17.939060 -22.838814 -13.598096 32.067577 -0.904982 2.008703 0.074708 -0.026276 -32898.100000 0 0 1
17.907860 -21.922514 -12.525996 30.954622 -0.885853 1.987400 0.081237 -0.024387 677362.000000 0 0 1
19.076760 -21.827714 -11.653196 31.243701 -0.852550 1.953012 0.072698 -0.026678 333065.000000 0 0 1
19.106860 -22.809214 -10.468296 31.542314 -0.873497 1.909093 0.075474 -0.020375 718313.000000 0 0 1
18.173760 -22.518314 -9.385496 30.421170 -0.891762 1.884432 0.068885 -0.014799 1765230.000000 0 0 1
16.767160 -22.738414 -9.668896 29.860688 -0.935412 1.900540 0.065726 -0.004983 335746.000000 0 0 1
15.912960 -21.986514 -8.700096 28.501241 -0.944301 1.881001 0.060559 -0.004278 -1211150.000000 0 0 1
15.850760 -20.601614 -9.041696 27.521362 -0.914998 1.905547 0.048399 -0.008480 351963.000000 0 0 1
15.135960 -19.808114 -8.075096 26.204310 -0.918314 1.884054 0.043145 -0.013745 1510010.000000 0 0 1
13.552860 -19.931314 -8.050896 25.411695 -0.973635 1.893170 0.034913 0.003508 971167.000000 0 0 1
13.083560 -21.208914 -7.768096 26.102507 -1.018050 1.872974 0.035608 0.003176 -1244500.000000 0 0 1
11.716460 -21.270614 -7.987196 25.563837 -1.067317 1.888558 0.034551 -0.001152 -795766.000000 0 0 1
11.148860 -22.688514 -7.698496 26.425983 -1.114062 1.866406 0.030187 0.001849 9930.280000 0 0 1
11.368960 -23.095414 -6.372796 26.519124 -1.113359 1.813481 0.034623 0.003568 39666.600000 0 0 1
10.713260 -24.290714 -6.156196 27.252733 -1.155416 1.798656 0.015414 0.003654 -138228.000000 0 0 1
10.992060 -24.821714 -4.742196 27.557781 -1.153912 1.743739 0.044837 -0.006592 433782.000000 0 0 1
10.027060 -25.679324 -4.139796 27.876648 -1.198531 1.719852 0.042504 -0.011799 149629.000000 0 0 1
10.649160 -26.125484 -2.928596 28.364101 -1.183742 1.674231 0.047991 -0.020386 210184.000000 0 0 1
9.795860 -27.070874 -2.082596 28.863962 -1.223595 1.643011 0.050437 -0.017339 -437824.000000 0 0 1
8.771460 -26.385844 -1.445096 27.843124 -1.249859 1.622721 0.032113 -0.009943 -909214.000000 0 0 1
8.187060 -27.261024 -0.529996 28.468795 -1.279045 1.589414 0.038455 -0.016373 -236991.000000 0 0 1
7.450160 -26.443254 0.525104 27.477742 -1.296174 1.551685 0.045451 -0.007881 1114330.000000 0 0 1
6.166960 -25.885494 0.090304 26.610118 -1.336916 1.567403 0.051031 -0.014971 897253.000000 0 0 1
5.514760 -25.518684 1.267804 26.138537 -1.357963 1.522274 0.051631 -0.012888 57637.700000 0 0 1
4.080060 -24.955114 1.091904 25.310015 -1.408734 1.527642 0.040179 -0.019759 358445.000000 0 0 1
3.125760 -25.876314 0.632904 26.072103 -1.450583 1.546519 0.042639 -0.023954 -352596.000000 0 0 1
1.836460 -25.301694 0.727704 25.378689 -1.498341 1.542119 0.030210 -0.019215 486259.000000 0 0 1
0.702160 -26.257694 0.213304 26.267947 -1.544062 1.562676 0.033321 -0.013039 489453.000000 0 0 1
0.265660 -27.299824 1.060204 27.321695 -1.561065 1.531982 0.034204 -0.010952 -112348.000000 0 0 1
0.895160 -28.515594 0.758704 28.539728 -1.539415 1.544209 0.035129 -0.015591 -124624.000000 0 0 1
0.338260 -29.674874 1.621404 29.721062 -1.559398 1.516215 0.037293 -0.007378 -3550.320000 0 0 1
0.761860 -29.612474 2.935804 29.767398 -1.545074 1.472011 0.041734 -0.004087 72317.200000 0 0 1
0.149560 -30.644534 3.667604 30.863590 -1.565916 1.451682 0.036770 -0.003335 -258454.000000 0 0 1
0.368960 -30.549174 5.183604 30.988029 -1.558719 1.402729 0.042954 -0.008466 555371.000000 0 0 1
1.717560 -30.651844 5.668604 31.218883 -1.514820 1.388207 0.040047 0.003756 595368.000000 0 0 1
1.814060 -30.561484 7.107104 31.429382 -1.511508 1.342694 0.042363 0.003081 708169.000000 0 0 1
3.239460 -30.978214 7.614404 32.064357 -1.466603 1.331033 0.042811 0.002717 770156.000000 0 0 1
3.470160 -32.379324 7.498904 33.417005 -1.464032 1.344465 0.029852 -0.003043 -593227.000000 0 0 1
4.654260 -32.926454 7.980404 34.197958 -1.430373 1.335266 0.030139 0.001207 -524079.000000 0 0 1
4.860160 34.272748 7.789204 35.481180 1.429927 1.349463 0.031216 0.000635 -284755.000000 0 0 1
4.799460 33.881069 6.397804 34.812262 1.430077 1.385966 0.029837 0.003159 147119.000000 0 0 1
4.800760 32.483158 6.300304 33.434962 1.424066 1.381228 0.019299 -0.000556 -211526.000000 0 0 1
5.253260 32.077348 4.882604 32.869330 1.408469 1.421699 0.019912 -0.004685 664278.000000 0 0 1
6.621360 32.336208 4.549704 33.319252 1.368822 1.433820 0.024454 -0.004335 651163.000000 0 0 1
7.320260 31.128298 4.215804 32.254150 1.339829 1.439715 0.015322 0.004081 -112921.000000 0 0 1
8.763760 31.265898 3.740104 32.685597 1.297512 1.456118 -0.006551 0.010230 -20719.000000 0 0 1
9.687660 31.602248 4.786204 33.398512 1.273342 1.426995 -0.005972 0.001929 -319553.000000 0 0 1
10.917160 31.875128 4.162304 33.948976 1.240821 1.447882 -0.000336 -0.000037 -255657.000000 0 0 1
12.036860 32.315438 5.129704 34.863841 1.214237 1.423125 0.009596 -0.011993 55636.000000 0 0 1
12.548460 31.211618 5.858604 34.146042 1.188529 1.398368 0.020678 -0.005068 -602668.000000 0 0 1
13.672860 31.483428 6.617404 34.956307 1.161085 1.380342 0.031522 -0.009134 -835850.000000 0 0 1
14.138260 30.335238 7.510004 34.300397 1.134662 1.350060 0.035897 -0.010900 -180298.000000 0 0 1
13.561660 30.207178 8.815204 34.265143 1.148812 1.310606 0.033914 -0.009156 433143.000000 0 0 1
14.101760 29.064948 9.543704 33.685503 1.119074 1.283544 0.031909 -0.007861 289381.000000 0 0 1
13.719460 29.075518 11.037204 33.991605 1.129916 1.240098 0.020330 -0.008187 -352342.000000 0 0 1
14.526560 29.999948 11.719904 35.332336 1.119853 1.232686 0.032539 -0.019086 -64936.700000 0 0 1
14.141660 30.347958 13.057004 35.937035 1.134730 1.198957 0.037246 -0.020917 -544337.000000 0 0 1
15.085060 31.289318 13.884004 37.407834 1.121559 1.190547 0.033051 -0.015858 6462.990000 0 0 1
16.184860 30.567738 14.375304 37.456450 1.083848 1.176902 0.035225 -0.021229 204652.000000 0 0 1
17.055560 31.407108 15.166004 38.824042 1.073306 1.169476 0.037692 -0.013761 319039.000000 0 0 1
18.200760 30.646728 15.869204 39.016935 1.034882 1.151929 0.044055 -0.024469 883529.000000 0 0 1
19.416560 30.469888 15.111504 39.163432 1.003445 1.174659 0.035724 -0.014814 834447.000000 0 0 1
19.679660 29.110278 14.784904 38.122050 0.976334 1.172519 0.033655 -0.011815 -313054.000000 0 0 1
21.085960 28.997068 14.138404 38.540137 0.942064 1.195177 0.061702 -0.012380 477157.000000 0 0 1
22.099960 29.146988 15.135504 39.585839 0.922052 1.178462 0.066724 -0.018838 19503.400000 0 0 1
23.383160 29.131938 14.556204 40.091459 0.894433 1.199230 0.063335 -0.010998 259744.000000 0 0 1
24.573860 29.267738 15.548804 41.258216 0.872358 1.184386 0.058263 -0.009218 186628.000000 0 0 1
24.536460 28.108698 16.355704 40.738751 0.853149 1.157667 0.056825 -0.007627 120418.000000 0 0 1
25.263560 28.392008 17.549104 41.860777 0.843638 1.138204 0.033989 -0.001843 244006.000000 0 0 1
26.220160 27.214188 17.906804 41.818207 0.803999 1.128290 0.007497 0.001002 375630.000000 0 0 1
25.418560 26.123368 18.390204 40.825643 0.799072 1.103519 0.020613 -0.000446 410016.000000 0 0 1
25.492460 25.867078 19.751804 41.341323 0.792692 1.072677 0.045820 -0.004091 -38466.300000 0 0 1
25.012560 24.463358 20.187304 40.393208 0.774298 1.047463 0.055693 -0.001928 179369.000000 0 0 1
26.006260 23.473868 19.963804 40.322469 0.734263 1.052842 0.043179 -0.005791 392952.000000 0 0 1
25.513260 22.209168 20.430704 39.516923 0.716273 1.027440 0.052343 0.001408 266881.000000 0 0 1
26.584160 21.073568 20.427904 39.599395 0.670281 1.028780 0.035324 0.005872 122592.000000 0 0 1
26.114060 19.768168 20.857604 38.829940 0.647962 1.003739 0.024305 0.020560 709702.000000 0 0 1
27.162860 18.780868 20.987104 39.128001 0.604942 1.004666 0.036258 0.013406 140010.000000 0 0 1
27.601360 18.423068 22.399104 40.037037 0.588558 0.977063 0.031583 0.008566 -439380.000000 0 0 1
26.568260 17.948968 23.208804 39.581390 0.594148 0.944243 0.034846 0.015938 53172.200000 0 0 1
27.070560 17.569268 24.450204 40.488355 0.575684 0.922433 0.039540 0.013035 -28469.600000 0 0 1
25.953560 16.864268 25.240704 39.938502 0.576225 0.886679 0.016308 0.003251 79472.900000 0 0 1
25.646760 15.582568 24.692404 38.862418 0.545978 0.882296 0.021329 0.001269 77686.300000 0 0 1
24.585460 15.009968 25.401804 38.405672 0.548120 0.848102 0.028792 -0.006398 -260896.000000 0 0 1
23.912560 13.802568 24.654204 37.015553 0.523494 0.841896 0.026157 -0.010206 -92651.900000 0 0 1
22.806560 13.272868 25.354004 36.594176 0.527061 0.805373 0.020207 -0.012909 -81644.000000 0 0 1
22.281260 12.212168 24.621504 35.380928 0.501377 0.801127 0.037227 -0.016592 36572.400000 0 0 1
20.981260 11.663968 25.305204 34.880005 0.507379 0.759046 0.034793 -0.017157 59727.600000 0 0 1
19.888860 12.467168 24.993304 34.287932 0.559923 0.754047 0.042624 -0.022263 -441950.000000 0 0 1
18.651360 11.779968 25.060204 33.386445 0.563322 0.721811 0.049954 -0.022883 696586.000000 0 0 1
17.419760 12.738068 25.179704 33.162085 0.631388 0.708572 0.044771 -0.034010 189451.000000 0 0 1
17.218160 13.250768 26.468304 34.243525 0.655916 0.687329 0.063963 -0.024129 936847.000000 0 0 1
16.060160 14.114868 26.571204 34.105529 0.721020 0.677587 0.077918 -0.029145 523116.000000 0 0 1
15.827160 14.455568 28.084104 35.329581 0.740136 0.651925 0.064944 -0.016029 -6598.730000 0 0 1
15.299460 13.323768 28.842304 35.262937 0.716483 0.613008 0.069972 -0.013878 131172.000000 0 0 1
15.426060 13.479968 30.215704 36.505638 0.718175 0.595800 0.055142 -0.009414 -614649.000000 0 0 1
16.805260 13.163768 30.790504 37.466741 0.664482 0.606218 0.050194 -0.004386 -749531.000000 0 0 1
17.704160 14.223868 30.610104 38.114750 0.676823 0.638310 0.061845 -0.011024 -1042600.000000 0 0 1
18.994760 13.728168 30.585804 38.532517 0.625822 0.653820 0.041741 -0.002261 -969227.000000 0 0 1
20.009660 14.853168 30.207204 39.159651 0.638555 0.689780 0.035851 -0.005775 -144973.000000 0 0 1
19.803460 15.441168 28.902904 38.288177 0.662253 0.715328 0.056113 -0.013136 323993.000000 0 0 1
20.081860 14.543368 27.824504 37.269205 0.626786 0.727887 0.051865 -0.014111 -454557.000000 0 0 1
19.917360 15.189868 26.431904 36.415366 0.651545 0.758535 0.051879 -0.017922 -247557.000000 0 0 1
20.821160 16.241368 26.147404 37.161666 0.662452 0.790328 0.054666 -0.010319 223424.000000 0 0 1
20.992760 16.505368 24.764104 36.419555 0.666295 0.823078 0.057498 -0.008213 -35867.500000 0 0 1
21.840160 17.767268 24.463304 37.297743 0.682927 0.855432 0.046030 -0.006803 -98064.700000 0 0 1
22.041560 17.958968 23.020204 36.582573 0.683687 0.890187 0.053253 -0.003318 323883.000000 0 0 1
23.065760 18.855368 22.584504 37.384676 0.685298 0.922146 0.041233 0.005907 256730.000000 0 0 1
23.170160 20.304468 23.092704 38.501957 0.719577 0.927570 0.054390 -0.000997 188390.000000 0 0 1
22.188360 21.234368 22.588404 38.124240 0.763432 0.936644 0.064701 -0.001588 582956.000000 0 0 1
22.226960 22.509668 23.277304 39.275384 0.791717 0.936428 0.071935 -0.008811 -25560.400000 0 0 1
21.329060 23.692518 22.835404 39.213772 0.837846 0.949203 0.074103 -0.013429 -186002.000000 0 0 1
21.811360 24.385528 21.695804 39.256812 0.841062 0.985240 0.078065 -0.008085 321064.000000 0 0 1
21.099860 25.589368 21.359404 39.449258 0.881261 0.998647 0.071168 -0.016587 -151730.000000 0 0 1
21.712660 26.316078 20.136604 39.616390 0.880953 1.037599 0.074875 -0.019170 -194467.000000 0 0 1
21.393360 25.750768 18.888504 38.438958 0.877564 1.057112 0.071887 -0.016695 49198.500000 0 0 1
21.648660 26.689588 17.901904 38.748894 0.889307 1.090550 0.060103 -0.026095 -85643.800000 0 0 1
21.700760 26.110298 16.455804 37.728824 0.877366 1.119469 0.044649 -0.011529 -406797.000000 0 0 1
20.421760 25.746328 16.008504 36.553986 0.900221 1.117489 0.041403 -0.011573 -467774.000000 0 0 1
20.428760 25.158748 14.753704 35.608547 0.888784 1.143589 0.044975 -0.005710 -213034.000000 0 0 1
18.987560 24.904228 14.233704 34.399801 0.919392 1.144202 0.048946 -0.005964 203799.000000 0 0 1
18.283260 26.096198 14.087604 34.838911 0.959661 1.154513 0.044685 -0.001251 -157553.000000 0 0 1
17.479460 26.445118 15.226704 35.167148 0.986747 1.122999 0.046341 -0.000071 -190927.000000 0 0 1
15.955260 26.611798 14.897504 34.419380 1.030703 1.123174 0.022734 -0.001244 87637.200000 0 0 1
15.376260 25.415748 14.405204 33.013626 1.026716 1.119268 0.016279 -0.002850 -29147.500000 0 0 1
14.998460 24.459308 15.347104 32.538364 1.020727 1.079622 0.032521 -0.014952 850477.000000 0 0 1
13.677660 24.876438 16.154504 32.663183 1.068088 1.053447 0.047201 -0.025151 509135.000000 0 0 1
14.046560 25.740628 17.241304 34.016883 1.071263 1.039275 0.051874 -0.018119 -691668.000000 0 0 1
13.035460 26.457018 17.810204 34.454323 1.113003 1.027545 0.044973 -0.025419 -750004.000000 0 0 1
13.601260 27.695898 18.604404 36.030277 1.114300 1.028208 0.050504 -0.032810 -92984.300000 0 0 1
13.767760 28.869278 17.827504 36.617022 1.125799 1.062301 0.043828 -0.024088 176615.000000 0 0 1
14.531360 29.809258 18.609404 38.027125 1.117216 1.059427 0.055074 -0.025524 -5399.360000 0 0 1
14.533160 31.167738 17.921304 38.779038 1.134480 1.090391 0.048213 -0.026053 -126855.000000 0 0 1
13.258260 31.782308 17.870704 38.797663 1.175586 1.092111 0.040235 -0.020362 87246.000000 0 0 1
13.261660 33.061752 17.339404 39.618254 1.189327 1.117800 0.038141 -0.016067 354101.000000 0 0 1
11.826360 33.649744 17.543904 39.748668 1.232826 1.113671 0.052674 -0.018001 408570.000000 0 0 1
11.502160 -33.786534 16.865504 39.474989 -1.242667 1.129353 0.060084 -0.011313 131999.000000 0 0 1
12.159260 -32.583504 17.324604 38.854527 -1.213629 1.108635 0.048794 -0.012068 9767.600000 0 0 1
12.040260 -32.194414 18.875604 39.213984 -1.212915 1.068603 0.054088 -0.014303 281953.000000 0 0 1
13.019160 -32.864904 19.693204 40.465080 -1.193620 1.062521 0.057178 -0.012070 725874.000000 0 0 1
12.636960 -32.768914 20.988704 40.914792 -1.202731 1.032137 0.047948 -0.008822 -48906.600000 0 0 1
13.741860 -33.477904 21.780804 42.237568 -1.181292 1.029003 0.048396 -0.005472 497826.000000 0 0 1
15.009060 -32.830374 21.761804 42.150699 -1.141996 1.028288 0.050470 -0.004709 -121308.000000 0 0 1
15.935260 -33.432494 22.626904 43.400932 -1.126011 1.022369 0.052343 -0.008284 161154.000000 0 0 1
17.313160 -32.736084 22.406804 43.283502 -1.084320 1.026665 0.067039 -0.006094 131043.000000 0 0 1
17.360160 -31.399774 22.895304 42.561907 -1.065748 1.002817 0.059413 -0.008801 293246.000000 0 0 1
18.424760 -30.663914 22.308704 42.159526 -1.029744 1.013198 0.072310 -0.006471 -263763.000000 0 0 1
-4.520240 13.052486 18.394852 23.003707 -1.237410 0.644089 0.019425 0.006180 -266581.000000 0 1 0
-4.273440 14.181986 17.555652 22.969370 -1.278121 0.700830 0.020115 -0.003741 -392533.000000 0 1 0
-5.452040 14.877586 17.309652 23.466814 -1.219534 0.741254 0.015810 -0.007696 -627381.000000 0 1 0
-5.270340 16.416586 17.135152 24.308316 -1.260152 0.788501 0.018081 -0.015208 -112108.000000 0 1 0
-4.741640 16.951786 18.346152 25.424939 -1.298053 0.764713 0.017535 -0.005412 397003.000000 0 0 1
-4.418440 18.322086 18.197352 26.198570 -1.334161 0.802942 0.011329 0.000716 -220259.000000 0 0 1
-3.920940 19.135786 19.439952 27.558371 -1.368693 0.787795 0.016593 -0.005283 516726.000000 0 0 1
-4.925440 19.225486 20.446352 28.494431 -1.319997 0.770509 0.010126 -0.004556 461854.000000 0 0 1
-4.305440 19.938086 21.449952 29.600077 -1.358121 0.760257 0.013410 0.001761 -157521.000000 0 0 1
-5.264840 20.319686 22.572952 30.824444 -1.317271 0.749093 0.000692 0.001699 -171929.000000 0 0 1
-5.844940 19.220286 23.231752 30.713141 -1.275580 0.712988 0.006231 -0.005929 -146677.000000 0 0 1
-6.579240 19.476286 24.403162 31.908094 -1.245024 0.700073 0.001666 -0.008906 376597.000000 0 0 1
-5.735740 19.900286 25.690612 32.998904 -1.290178 0.678477 -0.001526 -0.007119 3588.770000 0 0 1
-5.467640 21.319786 25.529012 33.706955 -1.319748 0.711503 -0.001300 -0.008564 289410.000000 0 0 1
-4.524340 21.859786 26.453492 34.613684 -1.366707 0.700919 0.011369 0.003590 -130633.000000 0 0 1
-3.042440 21.618586 26.222012 34.120575 -1.430982 0.694287 0.030060 0.005412 -728644.000000 0 0 1
-2.540640 20.319186 26.485082 33.478109 -1.446405 0.658164 0.033341 0.008402 900689.000000 0 0 1
-1.153740 20.237886 26.091312 33.040274 -1.513849 0.660506 0.035848 0.010757 1209000.000000 0 0 1
-0.420240 18.920986 26.539762 32.596615 -1.548590 0.619468 0.034725 0.019296 -73940.100000 0 0 1
-0.900340 17.779786 25.855402 31.391611 -1.520201 0.602996 0.035763 0.012202 -217769.000000 0 0 1
-0.454940 16.476386 26.280892 31.021985 -1.543192 0.560160 0.029811 0.011141 424587.000000 0 0 1
1.069960 16.108786 26.152762 30.734423 1.504473 0.553048 0.027325 0.013139 747492.000000 0 0 1
1.598660 15.735186 24.904942 29.502677 1.469546 0.565802 0.017506 0.019468 -92316.200000 0 0 1
1.202760 14.428386 24.541132 28.493721 1.487628 0.533009 0.031054 0.017620 -379372.000000 0 0 1
1.525660 14.010086 23.099052 27.058758 1.462327 0.547819 0.025765 0.016556 175916.000000 0 0 1
2.881060 13.745586 22.807152 26.784470 1.364188 0.551944 0.016351 0.013873 -140936.000000 0 0 1
3.047860 13.051886 21.585552 25.408212 1.341389 0.555664 0.015805 0.003059 274910.000000 0 0 1
4.477760 12.875086 21.007552 25.042672 1.236096 0.575592 0.015444 -0.000155 286014.000000 0 0 1
4.858960 14.064286 20.358652 25.216827 1.238152 0.631159 0.008822 0.012925 -673041.000000 0 0 1
6.237860 14.159386 20.180752 25.429547 1.155832 0.654102 0.030077 0.009205 -633114.000000 0 0 1
6.735560 15.380986 19.371152 25.635601 1.158038 0.714174 0.040419 -0.006966 -174494.000000 0 0 1
6.575660 15.207486 17.951852 24.428998 1.162678 0.745339 0.037914 -0.019924 108165.000000 0 1 0
6.954860 16.339286 17.139452 24.680015 1.168373 0.803118 0.041598 -0.011353 -8966.230000 0 1 0
6.761960 16.021886 15.651552 23.396496 1.171431 0.837974 0.035091 -0.011678 52024.900000 0 1 0
7.659960 15.082086 15.094052 22.671010 1.100861 0.842249 0.028192 -0.014043 34853.200000 0 1 0
7.844260 13.795786 15.682752 22.311540 1.053786 0.791332 0.023039 -0.011637 -53128.800000 0 1 0
8.960760 13.059786 14.876652 21.729427 0.969437 0.816698 0.025254 -0.019548 -432047.000000 0 1 0
10.227360 13.565786 15.131952 22.750943 0.924799 0.843151 0.030482 -0.026563 -631629.000000 0 1 0
11.163460 12.918286 14.265452 22.248777 0.858139 0.874762 0.029119 -0.020654 -317327.000000 0 1 0
12.580760 13.444186 14.397052 23.372992 0.818563 0.907180 0.036909 -0.010438 -1141910.000000 0 1 0
13.236960 12.951786 15.572052 24.196171 0.774509 0.871636 0.032992 -0.022739 1164840.000000 0 1 0
14.545760 13.557686 15.723052 25.349642 0.750254 0.901738 0.037456 -0.019375 99795.300000 0 0 1
15.671960 12.968986 14.938352 25.238052 0.691302 0.937385 0.045117 -0.021012 -1589170.000000 0 0 1
16.836560 13.747986 15.192952 26.519854 0.684755 0.960769 0.045499 -0.029456 231137.000000 0 0 1
17.856760 13.202886 14.370552 26.451708 0.636668 0.996463 0.046615 -0.021374 -971135.000000 0 0 1
19.205460 13.883386 14.373652 27.716420 0.625922 1.025587 0.044799 -0.022876 -644172.000000 0 0 1
19.931260 13.328686 15.442052 28.519571 0.589432 0.998630 0.033039 -0.028948 137050.000000 0 0 1
21.290560 13.744086 15.468352 29.689354 0.573239 1.022766 0.053018 -0.016705 106868.000000 0 0 1
22.105460 13.249686 16.642552 30.678658 0.539967 0.997410 0.059724 -0.020162 -343788.000000 0 0 1
22.369960 11.846386 16.694352 30.322489 0.487020 0.987761 0.054568 -0.018381 268256.000000 0 0 1
23.224260 11.658486 17.792052 31.493549 0.465243 0.970432 0.042864 -0.016134 -141725.000000 0 0 1
23.568860 10.146186 17.977652 31.331010 0.406513 0.959661 0.055973 -0.016477 -1095390.000000 0 0 1
22.501960 9.496686 18.494552 30.636150 0.399359 0.922682 0.044980 -0.024075 -701968.000000 0 0 1
22.268460 8.219186 17.845852 29.697033 0.353584 0.926132 0.045036 -0.007481 65921.800000 0 0 1
21.033260 7.504686 18.440052 28.961247 0.342721 0.880566 0.058379 -0.010298 -86969.500000 0 0 1
20.867060 6.215086 17.893752 28.182403 0.289476 0.882883 0.064394 -0.012714 366403.000000 0 0 1
19.653660 5.624686 18.324552 27.453463 0.278740 0.839981 0.061711 -0.007358 -175084.000000 0 0 1
19.464360 4.211886 17.765152 26.687111 0.213104 0.842388 0.066969 -0.000456 -718319.000000 0 0 1
18.915960 4.225086 16.453252 25.423894 0.219754 0.866947 0.064672 -0.013760 495849.000000 0 0 1
18.647060 2.885786 15.921852 24.688985 0.153540 0.869908 0.056571 -0.021725 -72495.100000 0 1 0
17.713260 1.896386 16.676152 24.401842 0.106654 0.818390 0.054395 -0.011158 -281487.000000 0 1 0
18.210460 1.336186 17.876252 25.553212 0.073243 0.796001 0.064857 -0.011998 147884.000000 0 0 1
17.202960 0.571086 18.532952 25.293048 0.033185 0.748473 0.056339 -0.008340 -134276.000000 0 0 1
17.696260 -0.328814 19.664052 26.456392 -0.018579 0.732862 0.056135 -0.009487 -133186.000000 0 0 1
18.203360 -1.573814 19.191452 26.498133 -0.086243 0.760840 0.063579 -0.007099 172828.000000 0 0 1
17.260460 -2.598714 19.449652 26.133614 -0.149436 0.731402 0.047066 -0.001826 182704.000000 0 0 1
17.600460 -3.945514 18.727852 26.001456 -0.220525 0.766617 0.036807 -0.000997 39890.600000 0 0 1
17.345960 -3.751014 17.361152 24.826640 -0.212968 0.796385 0.044097 -0.011528 253253.000000 0 1 0
17.257860 -5.036814 16.750652 24.572089 -0.283969 0.820720 0.054656 -0.015430 -290147.000000 0 1 0
16.757760 -4.959614 15.314552 23.236949 -0.287746 0.851228 0.035555 -0.022923 75975.300000 0 1 0
15.389060 -4.635714 15.090652 22.046333 -0.292589 0.816883 0.025580 -0.024793 489649.000000 0 1 0
15.159460 -4.485814 13.669752 20.899614 -0.287699 0.857848 0.025861 -0.023661 -33584.500000 0 1 0
15.607560 -3.146014 13.099852 20.617940 -0.198905 0.882319 0.024894 -0.020009 -32666.300000 0 1 0
14.892360 -2.014014 13.623552 20.283979 -0.134423 0.834375 0.027043 -0.009621 423477.000000 0 1 0
15.444260 -0.825614 13.069552 20.248950 -0.053407 0.869193 0.025553 -0.010979 -81140.900000 0 1 0
14.416760 0.316986 13.103152 19.484251 0.021984 0.833215 0.025429 -0.007104 -540780.000000 0 1 0
14.808460 1.672586 12.764352 19.621843 0.112471 0.862531 0.030717 -0.005322 7556.420000 0 1 0
15.847060 2.231486 13.538452 20.961835 0.139894 0.868645 0.046310 -0.009542 14937.400000 0 1 0
16.262460 3.618286 13.006152 21.135742 0.218927 0.907950 0.052850 -0.009238 -199448.000000 0 1 0
15.215560 4.506886 13.299252 20.704960 0.287969 0.873272 0.049616 -0.005223 326157.000000 0 1 0
15.229460 5.634686 12.477352 20.478536 0.354368 0.915632 0.048460 -0.011332 351653.000000 0 1 0
14.071060 6.628086 12.801352 20.144500 0.440216 0.882171 0.039199 -0.009931 336761.000000 0 1 0
14.358560 7.952786 12.240652 20.475561 0.505810 0.930020 0.034887 -0.011104 2947.420000 0 1 0
13.429960 8.941286 12.589052 20.464473 0.587383 0.908200 0.024776 0.005109 -1195120.000000 0 1 0
13.581660 9.630386 13.914252 21.698208 0.616789 0.874654 0.032114 -0.005774 -219016.000000 0 1 0
13.232460 8.857386 15.102952 21.946536 0.589870 0.811832 0.036685 -0.015651 558432.000000 0 1 0
13.706960 9.502186 16.273952 23.302657 0.606173 0.797674 0.050937 -0.020486 -113625.000000 0 1 0
13.044660 8.829886 17.485252 23.534317 0.595051 0.733302 0.050095 -0.028166 244329.000000 0 1 0
11.762360 9.338686 17.835852 23.316985 0.671039 0.699864 0.026637 -0.022368 112832.000000 0 1 0
11.075660 8.712186 18.893552 23.569869 0.666521 0.640834 0.031501 -0.014051 -129895.000000 0 1 0
11.448160 8.928286 20.384252 25.025834 0.662357 0.618881 0.048465 -0.015670 -276566.000000 0 0 1
12.811160 8.566886 20.568152 25.701483 0.589412 0.643049 0.068844 -0.017633 80918.400000 0 0 1
13.312460 9.211286 21.691652 27.066532 0.605289 0.641131 0.073187 -0.011800 -283958.000000 0 0 1
14.813460 8.841086 21.765352 27.772899 0.538084 0.670211 0.078972 -0.015787 148621.000000 0 0 1
15.548660 9.606686 20.811652 27.697908 0.553439 0.720646 0.067829 -0.017213 -197648.000000 0 0 1
16.649260 8.917086 20.293452 27.722490 0.491708 0.749512 0.063729 -0.024605 152404.000000 0 0 1
17.663260 9.667786 19.364652 27.936474 0.500798 0.804922 0.060380 -0.023561 84690.100000 0 0 1
18.472560 10.541986 20.074152 29.246205 0.518584 0.814290 0.054860 -0.027886 -171003.000000 0 0 1
19.250860 11.411086 19.282752 29.540362 0.535077 0.859575 0.059453 -0.028156 606858.000000 0 0 1
20.342160 12.191486 20.115752 31.097898 0.539920 0.867346 0.049876 -0.026129 110461.000000 0 0 1
19.786160 13.278286 20.853952 31.665317 0.591058 0.851874 0.040360 -0.025419 558505.000000 0 0 1
20.667360 13.953386 21.756452 33.093503 0.593847 0.853402 0.040177 -0.016289 -44508.000000 0 0 1
21.939360 14.731686 21.374152 33.988416 0.591323 0.890703 0.023670 -0.012328 -277597.000000 0 0 1
23.047160 13.929886 21.069652 34.192741 0.543654 0.906884 0.000900 -0.000535 312369.000000 0 0 1
24.201760 14.801286 21.037752 35.318412 0.548890 0.932710 0.002203 0.002818 1391500.000000 0 0 1
25.586060 14.056486 21.054452 35.993349 0.502368 0.945973 0.001402 0.003565 700181.000000 0 0 1
25.945460 13.302586 19.864652 35.280732 0.473767 0.972730 0.007839 0.002839 385650.000000 0 0 1
27.308360 12.914586 19.831452 36.136125 0.441747 0.989870 0.025120 -0.007018 219193.000000 0 0 1
27.745360 12.237786 18.523752 35.534459 0.415407 1.022435 0.035402 -0.008231 -271309.000000 0 0 1
27.854360 13.125286 17.421752 35.378750 0.440352 1.055910 0.036836 -0.008267 6742.700000 0 0 1
28.175560 12.348186 16.306752 34.817381 0.413047 1.083373 0.051879 -0.015132 -307787.000000 0 0 1
27.003160 11.812386 15.465652 33.284974 0.412364 1.087564 0.054243 -0.024509 49005.500000 0 0 1
26.421660 12.886586 14.695752 32.865382 0.453782 1.107220 0.060558 -0.020440 -355522.000000 0 0 1
25.299060 12.456986 13.995352 31.481563 0.457541 1.110117 0.059418 -0.015623 -323715.000000 0 0 1
24.713260 13.456486 12.993652 30.994471 0.498614 1.138205 0.059646 -0.016298 87289.200000 0 0 1
23.928560 14.497986 13.553552 31.088042 0.544736 1.119677 0.046685 -0.022119 317098.000000 0 0 1
23.899460 15.474786 12.582352 31.128263 0.574612 1.154681 0.048061 -0.022474 -288359.000000 0 0 1
23.157660 16.709186 13.069052 31.405003 0.625037 1.141594 0.042631 -0.020917 -433815.000000 0 0 1
21.775860 16.445186 13.179452 30.303963 0.646822 1.120860 0.051693 -0.021625 -124242.000000 0 0 1
21.039160 17.572686 13.550652 30.578844 0.695861 1.111700 0.046336 -0.016114 -826503.000000 0 0 1
20.290860 18.209086 12.415052 29.957024 0.731379 1.143481 0.058518 -0.011048 351145.000000 0 0 1
19.189560 17.467886 11.832652 28.519781 0.738466 1.142971 0.050709 -0.010246 2267430.000000 0 0 1
17.923160 17.454786 12.569852 27.998400 0.772160 1.105208 0.029499 -0.002243 1382830.000000 0 0 1
16.673160 16.996186 11.783052 26.565107 0.794992 1.111236 0.035501 -0.001633 -31575.300000 0 0 1
16.559160 15.573886 11.630252 25.534574 0.754745 1.097895 0.041194 -0.008631 1510320.000000 0 0 1
15.326760 15.099686 10.980052 24.155157 0.777935 1.098914 0.039453 -0.014576 1443650.000000 0 1 0
15.461160 13.722386 10.387552 23.135526 0.725888 1.105165 0.045948 -0.015685 -141529.000000 0 1 0
15.599460 12.643986 11.231552 23.007853 0.681135 1.060814 0.040762 -0.009000 430266.000000 0 1 0
16.164360 11.567086 10.501752 22.480454 0.621114 1.084731 0.052868 -0.000267 130423.000000 0 1 0
16.688660 10.349386 11.384052 22.698409 0.555100 1.045424 0.067642 -0.002033 -870861.000000 0 1 0
17.532760 9.558886 10.575152 22.596544 0.499152 1.083772 0.077391 -0.002390 344517.000000 0 1 0
18.221460 8.533086 11.268152 23.060928 0.437966 1.060283 0.095250 -0.003645 316192.000000 0 1 0
19.389160 8.985086 12.177552 24.596017 0.433948 1.052843 0.081236 -0.011705 -834663.000000 0 1 0
18.964460 9.688986 13.338452 25.128499 0.472331 1.011241 0.062166 -0.015168 -323925.000000 0 0 1
19.951560 9.769786 14.320452 26.430830 0.455354 0.998209 0.068519 -0.010930 -1275640.000000 0 0 1
19.361660 10.184386 15.747252 26.954991 0.484237 0.946896 0.048858 -0.018590 614380.000000 0 0 1
18.631460 9.066386 16.361452 26.401283 0.452884 0.902408 0.055261 -0.015239 1244500.000000 0 0 1
17.456260 8.641686 15.652952 24.988290 0.459678 0.893855 0.057604 -0.019320 -639902.000000 0 1 0
16.871960 7.347986 16.180852 24.504610 0.410743 0.849553 0.053432 -0.009232 -494030.000000 0 1 0
16.216760 7.357586 17.453052 24.934442 0.425929 0.795458 0.070661 -0.017484 320082.000000 0 1 0
15.686460 6.104786 17.906252 24.575746 0.371140 0.754499 0.073002 0.004188 570672.000000 0 1 0
14.549360 5.404086 17.071152 23.071893 0.355638 0.737858 0.083122 -0.020374 -32404.900000 0 1 0
14.121660 4.199186 17.631652 22.976719 0.289031 0.696066 0.083037 -0.007858 33308.900000 0 1 0
13.314760 3.506886 16.713052 21.654265 0.257535 0.689108 0.050843 -0.004888 -148796.000000 0 1 0
13.078560 2.002386 17.014952 21.553813 0.151925 0.660937 0.039626 -0.001474 -446358.000000 0 1 0
14.207760 1.170086 16.980852 22.171578 0.082170 0.698382 0.039214 -0.002963 -197809.000000 0 1 0
13.948460 -0.210814 16.790652 21.829566 -0.015113 0.693255 0.031799 0.003890 -209960.000000 0 1 0
13.046460 -0.985714 17.793252 22.085778 -0.075411 0.634036 0.020245 0.003923 -581497.000000 0 1 0
11.708460 -0.684614 17.651752 21.192949 -0.058405 0.586457 0.014763 0.005205 -1068300.000000 0 1 0
10.876460 -1.599414 18.355052 21.395407 -0.146006 0.539634 0.012159 -0.001587 148357.000000 0 1 0
-25.259370 14.468486 29.006352 41.094298 -0.520177 0.787176 0.069120 0.000801 -97328.800000 0 0 1
-24.140840 14.447886 29.884362 41.043839 -0.539303 0.755238 0.070663 -0.003768 488087.000000 0 0 1
-23.642640 13.128886 29.978432 40.373859 -0.506907 0.733970 0.058941 0.002593 -78324.800000 0 0 1
-22.557840 13.009586 31.073732 40.542352 -0.523127 0.697499 0.075243 -0.012607 -253993.000000 0 0 1
-23.050840 13.183386 32.364192 41.863873 -0.519521 0.687111 0.066386 -0.011416 661290.000000 0 0 1
-22.012040 13.099386 33.360368 42.059933 -0.536809 0.654812 0.051503 -0.010981 370267.000000 0 0 1
-22.592440 13.341886 -33.742656 42.743317 -0.533439 2.480669 0.049790 -0.008066 -158164.000000 0 0 1
-23.351640 12.280586 -33.254916 42.449987 -0.484151 2.470899 0.032901 -0.003871 27629.800000 0 0 1
-23.844140 12.604586 -31.970836 41.827658 -0.486284 2.440824 0.019328 -0.009075 -102970.000000 0 0 1
-24.638840 11.497086 -31.248806 41.421532 -0.436593 2.425551 0.007866 -0.007351 -111390.000000 0 0 1
-23.875640 10.425286 -30.729556 40.286951 -0.411696 2.438378 0.000806 -0.011944 161875.000000 0 0 1
-23.721240 9.308986 -31.622796 40.612261 -0.373966 2.463310 0.001470 -0.010078 214447.000000 0 0 1
-22.821040 8.205686 -30.983606 39.346118 -0.345172 2.477478 -0.000940 0.001008 93643.700000 0 0 1
-23.459540 7.433186 -29.957656 38.769362 -0.306844 2.453903 -0.002382 0.000159 -44694.000000 0 0 1
-22.575440 6.631386 -29.238166 37.529937 -0.285707 2.463965 -0.006817 0.003843 -545923.000000 0 0 1
-23.156040 5.661986 -28.171556 36.903887 -0.239809 2.439320 -0.008977 0.005261 -216206.000000 0 0 1
-23.848840 4.536986 -28.657156 37.557743 -0.187993 2.438763 0.001626 -0.000678 61131.000000 0 0 1
-24.132740 3.646486 -27.612406 36.852829 -0.149967 2.417743 0.039960 0.002003 -919110.000000 0 0 1
-24.866540 2.382186 -28.058486 37.567250 -0.095507 2.414164 0.053005 -0.000826 1920550.000000 0 0 1
-26.295780 2.557286 -28.394086 38.784429 -0.096946 2.392196 0.061308 -0.010034 2158900.000000 0 0 1
-26.563300 3.335186 -29.544796 39.870131 -0.124903 2.405393 0.053382 -0.006146 -1338430.000000 0 0 1
-27.991430 3.278286 -30.072906 41.214646 -0.116586 2.388629 0.077917 -0.008998 -211128.000000 0 0 1
-28.923910 4.050586 -29.298206 41.368886 -0.139138 2.357768 0.071164 -0.003737 -23394.600000 0 0 1
-30.225080 4.065086 -29.798436 42.638330 -0.133692 2.344606 0.083423 -0.005527 -321391.000000 0 0 1
-30.492820 5.431886 -30.510326 43.476402 -0.176287 2.348672 0.081441 -0.015990 -378577.000000 0 0 1
-29.665940 5.669086 -31.658246 43.754441 -0.188821 2.379719 0.077168 -0.010127 384118.000000 0 0 1
-29.648210 6.994586 -32.238616 44.353906 -0.231683 2.384520 0.065913 -0.011423 -489593.000000 0 0 1
-29.083750 8.174286 -31.421066 43.588610 -0.273992 2.375831 0.055021 -0.012888 345186.000000 0 0 1
-27.677240 8.156986 -31.154946 42.464064 -0.286604 2.394515 -0.004887 -0.011956 782045.000000 0 0 1
-27.280530 7.391286 -30.054986 41.257250 -0.264584 2.386894 -0.001947 -0.008148 -782085.000000 0 0 1
-27.418840 8.187586 -28.699336 40.527537 -0.290183 2.357663 0.000253 -0.005858 832546.000000 0 0 1
-28.732790 8.383886 -28.122886 41.070178 -0.283906 2.325060 0.007424 -0.005290 931092.000000 0 0 1
-29.341700 7.235186 -27.588946 40.919839 -0.241761 2.310703 0.015239 -0.001760 -1247630.000000 0 0 1
-30.696910 7.519986 -26.994766 41.564022 -0.240244 2.277689 0.030723 -0.015153 -828312.000000 0 0 1
-30.756000 8.438786 -25.946446 41.114021 -0.267788 2.253748 -0.003223 -0.007067 -83478.700000 0 0 1
-30.974570 7.747486 -24.711796 40.374750 -0.245095 2.229460 -0.007498 -0.011866 -15020.100000 0 0 1
-30.404650 8.533586 -23.457796 39.338697 -0.273627 2.209685 -0.008195 -0.006915 -424173.000000 0 0 1
-31.139480 9.659186 -22.989696 39.893524 -0.300780 2.184961 -0.006544 -0.005742 235376.000000 0 0 1
-30.323870 10.626286 -22.348196 39.139455 -0.337055 2.178506 -0.007906 -0.011152 -19992.200000 0 0 1
-31.110870 11.673886 -21.454396 39.553217 -0.358977 2.144110 -0.010772 -0.001855 -19446.900000 0 0 1
-31.486860 10.994486 -20.269596 39.027652 -0.335941 2.116904 -0.015713 -0.013519 -870.034000 0 0 1
-32.361020 11.730086 -19.456496 39.539674 -0.347746 2.085268 -0.002196 -0.008739 -213954.000000 0 0 1
-31.720520 12.814486 -18.498396 38.892070 -0.383934 2.066481 0.003013 -0.011200 -289430.000000 0 0 1
-31.067770 12.188586 -17.402796 37.638083 -0.373870 2.051465 0.020738 -0.012752 235652.000000 0 0 1
-31.911970 11.833886 -16.340896 37.754994 -0.355109 2.018408 0.017313 -0.008468 -550178.000000 0 0 1
-32.377670 13.063986 -15.460296 38.183793 -0.383509 1.987657 0.010421 -0.006050 29502.500000 0 0 1
-33.222800 14.025686 -16.117096 39.499812 -0.399472 1.991091 0.008569 -0.009309 427336.000000 0 0 1
-33.898340 14.884286 -15.235696 40.034559 -0.413741 1.961202 0.011049 -0.007082 -136488.000000 0 0 1
-34.728789 15.918386 -16.006496 41.420910 -0.429787 1.967560 0.009330 -0.002949 76293.900000 0 0 1
-35.969679 15.396086 -16.499696 42.462893 -0.404434 1.969873 0.004015 0.000030 700481.000000 0 0 1
35.222643 16.476986 -16.842396 42.376786 0.437554 1.979526 0.001752 -0.001552 -1201110.000000 0 0 1
35.033973 16.627286 -18.398396 42.922568 0.443126 2.013785 0.004946 -0.002006 -439658.000000 0 0 1
34.147373 15.691586 -18.944096 42.085006 0.430747 2.037717 0.023714 -0.007761 336794.000000 0 0 1
32.800673 16.067486 -18.675696 41.022310 0.455497 2.043457 0.048016 -0.018021 -478194.000000 0 0 1
31.831273 14.870586 -18.944096 39.915449 0.437040 2.065312 0.060913 -0.021855 -32218.700000 0 0 1
31.477283 14.734886 -20.326796 40.263071 0.437813 2.100004 0.056149 -0.021809 325639.000000 0 0 1
30.753693 13.540186 -20.611396 39.420248 0.414740 2.121003 0.039066 -0.020650 -13934.900000 0 0 1
31.495173 12.179086 -20.427096 39.465711 0.368986 2.114829 0.035874 -0.006980 -76358.200000 0 0 1
31.578623 11.823286 -19.077596 38.742150 0.358251 2.085670 0.043718 -0.009722 231609.000000 0 0 1
32.362283 10.673386 -18.796496 38.917179 0.318576 2.074859 0.037112 -0.004627 -312548.000000 0 0 1
32.373683 10.339086 -17.249096 38.111460 0.309129 2.040471 0.035251 -0.003473 201943.000000 0 0 1
31.121523 9.953186 -16.680096 36.685702 0.309537 2.042804 0.043143 -0.011269 476962.000000 0 0 1
31.263363 9.832686 -15.290996 36.164819 0.304716 2.007345 0.031704 -0.008158 -66318.000000 0 0 1
30.848703 11.070486 -14.447296 35.817908 0.344549 1.985976 0.039734 -0.011555 -352272.000000 0 0 1
29.437783 11.126486 -14.442596 34.626151 0.361369 2.001049 0.035231 -0.005164 29897.600000 0 0 1
28.984373 12.220086 -13.666496 34.295736 0.398995 1.980666 0.048514 -0.002669 82313.900000 0 0 1
27.443643 12.334786 -13.567896 33.005883 0.422404 1.994429 0.055077 -0.000177 -379413.000000 0 0 1
26.922783 11.306686 -12.771296 31.871357 0.397600 1.983092 0.045772 -0.004687 514689.000000 0 0 1
25.514383 11.111986 -12.938996 30.690024 0.410746 2.006008 0.047139 -0.000385 691867.000000 0 0 1
25.164083 10.248686 -14.223096 30.668601 0.386762 2.053039 0.046950 -0.004050 -700456.000000 0 0 1
25.739083 8.936386 -14.074996 30.667000 0.334170 2.047623 0.035787 -0.006376 275839.000000 0 0 1
26.781883 8.668986 -14.976596 31.886032 0.313045 2.059738 0.042470 -0.005178 -232769.000000 0 0 1
27.748413 7.600886 -14.400796 32.173449 0.267363 2.034875 0.045432 -0.003086 -265205.000000 0 0 1
27.261883 6.250286 -14.485096 31.497529 0.225373 2.048657 0.035182 -0.016143 561134.000000 0 0 1
26.345383 5.833086 -13.486196 30.165901 0.217893 2.034281 0.044132 -0.015420 -146220.000000 0 0 1
25.923683 4.407886 -13.737696 29.668015 0.168422 2.052227 0.046664 -0.015279 -96027.400000 0 0 1
25.068883 3.927386 -12.710596 28.380143 0.155401 2.035177 0.041243 -0.016695 556631.000000 0 0 1
24.557683 2.586686 -12.868796 27.845586 0.104944 2.051213 0.032596 -0.019591 -58739.200000 0 0 1
23.640683 2.129886 -11.714296 26.469663 0.089852 2.029243 0.016485 -0.007052 -191370.000000 0 0 1
24.223383 2.044886 -10.423396 26.449972 0.084218 1.975863 0.015993 -0.005977 466114.000000 0 0 1
23.210483 1.884786 -9.434596 25.125496 0.081026 1.955731 0.004620 0.003260 -529706.000000 0 0 1
23.778383 1.592686 -8.001096 25.138928 0.066881 1.894706 0.000062 0.009257 -141777.000000 0 0 1
24.119983 0.270986 -7.714596 25.325126 0.011234 1.880338 -0.001595 0.000091 463803.000000 0 0 1
24.897583 -0.498914 -8.582996 26.340205 -0.020036 1.902709 0.010619 -0.008721 -858500.000000 0 0 1
25.058983 -1.895214 -8.043596 26.386434 -0.075486 1.880565 0.037182 -0.016641 -415354.000000 0 0 1
25.906583 -2.124814 -6.930296 26.901578 -0.081835 1.831351 0.047957 -0.020490 587593.000000 0 0 1
25.908183 -3.502314 -6.632396 26.972001 -0.134367 1.819244 0.059676 -0.018361 -395989.000000 0 0 1
27.125143 -3.892514 -5.769896 28.003870 -0.142529 1.778322 0.063366 -0.024146 543384.000000 0 0 1
28.372373 -3.971114 -6.480496 29.372745 -0.139061 1.793256 0.069533 -0.028276 613382.000000 0 0 1
29.431173 -4.318614 -5.638096 30.275939 -0.145696 1.758113 0.084230 -0.024605 -886633.000000 0 0 1
30.748133 -4.452514 -6.370796 31.715290 -0.143806 1.773047 0.086929 -0.030322 -884246.000000 0 0 1
30.797183 -5.585614 -7.220796 32.121729 -0.179417 1.797529 0.066480 -0.025792 -16996.400000 0 0 1
31.865563 -5.618014 -8.139096 33.364968 -0.174510 1.817224 0.064024 -0.043500 -749278.000000 0 0 1
31.640443 -6.608714 -9.275296 33.627724 -0.205909 1.850242 0.054869 -0.042723 358483.000000 0 0 1
30.452333 -6.483114 -10.043596 32.714663 -0.209762 1.882842 0.078790 -0.038738 15796.500000 0 0 1
29.312173 -6.979614 -9.426296 31.571721 -0.233760 1.873988 0.080594 -0.035286 -393175.000000 0 0 1
27.991693 -6.153914 -9.390996 30.159515 -0.216405 1.887439 0.066018 -0.027063 221033.000000 0 0 1
27.161083 -6.090714 -10.537696 29.763472 -0.220595 1.932692 0.038024 -0.023241 426098.000000 0 0 1
26.050783 -5.246714 -10.384696 28.530917 -0.198745 1.943334 0.041962 -0.013044 665225.000000 0 0 1
24.685083 -5.904714 -9.989296 27.276455 -0.234790 1.945744 0.055512 -0.006645 -618317.000000 0 0 1
24.825983 -6.514214 -8.740196 27.113750 -0.256610 1.899010 0.055150 -0.010359 1038370.000000 0 0 1
23.596383 -7.070114 -8.264096 25.982130 -0.291115 1.894488 0.055219 -0.012533 478131.000000 0 0 1
22.483583 -6.086314 -7.729496 24.541798 -0.264365 1.891203 0.064820 -0.005618 -95286.700000 0 1 0
22.047183 -5.295014 -8.740096 24.300303 -0.235703 1.938711 0.054475 -0.003111 -77026.300000 0 1 0
21.491283 -4.044914 -8.333496 23.402644 -0.186036 1.934879 0.034541 -0.006873 -149435.000000 0 1 0
21.407783 -3.056514 -9.530196 23.631760 -0.141817 1.985894 0.030701 -0.002352 -406411.000000 0 1 0
22.611183 -2.917314 -10.258096 25.000097 -0.128312 1.993604 0.023762 -0.008079 487496.000000 0 0 1
22.494883 -2.173614 -11.450596 25.334966 -0.096328 2.039767 0.026014 -0.004699 -484421.000000 0 0 1
23.836783 -2.179914 -12.186096 26.859732 -0.091198 2.041702 0.027535 -0.016280 -481492.000000 0 0 1
24.877183 -1.486714 -11.542996 27.464983 -0.059691 2.004551 0.024813 -0.020048 -840963.000000 0 0 1
25.954183 -1.456914 -12.369896 28.788132 -0.056075 2.014943 0.035593 -0.022182 -1198580.000000 0 0 1
27.112463 -0.628314 -11.749896 29.555718 -0.023170 1.979642 0.040172 -0.018088 -1017690.000000 0 0 1
28.310903 -0.804514 -12.410696 30.922158 -0.028409 1.983790 0.055531 -0.023499 251469.000000 0 0 1
29.213033 0.350686 -12.267296 31.686130 0.012004 1.968335 0.064378 -0.018112 667836.000000 0 0 1
28.974843 1.519686 -13.261796 31.901821 0.052400 1.999516 0.073284 -0.020705 -380285.000000 0 0 1
29.484853 1.205686 -14.523396 32.889805 0.040869 2.028152 0.060301 -0.024356 339663.000000 0 0 1
29.702993 2.353986 -15.301996 33.495673 0.079086 2.045230 0.063099 -0.021116 -129946.000000 0 0 1
29.946393 1.989386 -16.753396 34.371796 0.066334 2.079925 0.065726 -0.030926 15838.400000 0 0 1
28.825453 1.459886 -17.442296 33.723459 0.050602 2.114391 0.057889 -0.015705 -77701.400000 0 0 1
29.073863 1.308986 -18.811296 34.653540 0.044992 2.144610 0.034870 -0.013681 -261234.000000 0 0 1
28.009613 0.549086 -19.610196 34.196487 0.019601 2.181515 0.024577 -0.009119 -432309.000000 0 0 1
27.890323 -0.815914 -19.326996 33.942136 -0.029246 2.176584 0.048094 -0.006513 333996.000000 0 0 1
27.388113 -1.544114 -20.489696 34.239169 -0.056319 2.212335 0.033832 -0.005929 117694.000000 0 0 1
27.173363 -3.130014 -20.388796 34.115856 -0.114681 2.211343 0.041096 -0.011507 -950581.000000 0 0 1
26.089683 -3.554714 -19.667596 32.865208 -0.135416 2.212339 0.046162 -0.008720 -758257.000000 0 0 1
25.859283 -4.934214 -19.545096 32.788104 -0.188544 2.209435 0.054330 -0.013691 -384748.000000 0 0 1
26.667483 -5.626714 -18.453996 32.914503 -0.207945 2.165985 0.055057 -0.015581 -254094.000000 0 0 1
28.041433 -5.599314 -18.764496 34.202056 -0.197088 2.151529 0.063243 -0.024591 49282.800000 0 0 1
28.855503 -5.553914 -17.582696 34.243791 -0.190148 2.110004 0.056834 -0.020971 -663309.000000 0 0 1
30.289793 -5.192114 -17.881596 35.555324 -0.169765 2.097774 0.075851 -0.026127 -692530.000000 0 0 1
30.964983 -6.305514 -18.548096 36.641801 -0.200887 2.101570 0.068273 -0.025960 644578.000000 0 0 1
32.306203 -5.888814 -18.805096 37.841783 -0.180302 2.090865 0.059827 -0.016737 457748.000000 0 0 1
33.194433 -6.939714 -19.534996 39.136250 -0.206094 2.093418 0.051496 -0.015503 -25803.500000 0 0 1
33.581953 -7.910214 -18.584496 39.188041 -0.231333 2.064896 0.048579 -0.017414 -77679.400000 0 0 1
34.269623 -8.923714 -19.277796 40.319637 -0.254740 2.069314 0.033601 -0.007973 -184086.000000 0 0 1
35.081263 -9.811214 -18.313596 40.771838 -0.272704 2.036635 0.029128 -0.009179 -595523.000000 0 0 1
34.228633 -10.579514 -17.499196 39.871635 -0.299770 2.025157 0.033820 -0.018128 228568.000000 0 0 1
34.859603 -11.428814 -16.558896 40.249308 -0.316810 1.994795 0.047863 -0.019470 -191554.000000 0 0 1
35.779993 -10.763414 -15.472396 40.440747 -0.292211 1.963399 0.057142 -0.025694 48029.600000 0 0 1
-35.660107 -11.593914 -14.478696 40.195706 0.314343 1.939284 0.046747 -0.028837 515396.000000 0 0 1
-34.899431 -12.761414 -14.735796 39.974588 0.350559 1.948330 0.035911 -0.023740 -265954.000000 0 0 1
-33.489490 -12.539814 -15.309496 38.899532 0.358280 1.975303 0.032357 -0.020211 -493209.000000 0 0 1
-33.471480 -12.012514 -16.604696 39.247375 0.344571 2.007636 0.036678 -0.015228 -24985.300000 0 0 1
-32.149440 -12.090214 -17.090696 38.364719 0.359702 2.032506 0.030518 -0.009470 -20542.400000 0 0 1
-31.811130 -11.094314 -18.241096 38.311479 0.335566 2.067041 0.045582 -0.005303 175373.000000 0 0 1
-31.871470 -9.686514 -17.983096 37.855131 0.295053 2.065818 0.058380 -0.006424 1082630.000000 0 0 1
-33.242100 -9.242514 -17.921396 38.879786 0.271187 2.049855 0.049955 -0.013298 562071.000000 0 0 1
-33.435930 -7.796314 -17.406896 38.493428 0.229079 2.040032 0.064046 -0.012748 -272571.000000 0 0 1
-34.775852 -7.380114 -17.336596 39.552289 0.209117 2.024526 0.060119 -0.017061 -168111.000000 0 0 1
-34.888644 -6.020214 -17.242196 39.379612 0.170872 2.023997 0.070161 -0.020175 -77926.400000 0 0 1
24.420760 27.118986 -26.954676 45.369235 0.837703 2.206965 0.023997 0.014022 -108750.000000 0 0 1
25.003060 26.280586 -26.017726 44.640164 0.810304 2.193006 0.027685 -0.000687 199926.000000 0 0 1
26.189960 25.699286 -26.578516 45.307668 0.775942 2.197679 0.020528 -0.005032 251201.000000 0 0 1
26.880860 24.738986 -25.582306 44.598794 0.743929 2.181702 0.017772 -0.013841 -620246.000000 0 0 1
27.333660 25.524886 -24.479496 44.697813 0.751192 2.150369 0.032539 -0.010080 202744.000000 0 0 1
27.636660 24.723286 -23.341696 43.816214 0.729814 2.132606 0.035668 -0.013024 -88087.000000 0 0 1
28.238960 25.547986 -22.168596 44.063421 0.735410 2.097986 0.039167 -0.008319 -130956.000000 0 0 1
27.346960 26.424586 -21.533096 43.701135 0.768246 2.086027 0.049915 -0.009366 -65930.100000 0 0 1
28.002660 27.242386 -20.596896 44.164790 0.771637 2.055973 0.034708 -0.010701 212077.000000 0 0 1
27.014560 28.203986 -19.871896 43.819442 0.806935 2.041479 0.044115 0.000546 593954.000000 0 0 1
26.047560 27.585586 -19.032596 42.446197 0.814067 2.035763 0.057412 -0.004474 1204560.000000 0 0 1
25.090260 28.468786 -18.357796 42.154497 0.848395 2.021377 0.047837 -0.000133 1076910.000000 0 0 1
24.138360 27.854886 -17.291496 40.713031 0.856758 2.009445 0.050575 -0.001204 200756.000000 0 0 1
23.104060 27.061286 -17.816596 39.793742 0.864119 2.035014 0.057529 -0.002227 647984.000000 0 0 1
21.970160 26.966586 -16.926896 38.683388 0.887145 2.023697 0.032216 0.013662 469422.000000 0 0 1
20.769360 26.220986 -17.497196 37.749944 0.900898 2.052740 0.012122 0.006113 -629439.000000 0 0 1
20.201260 26.806686 -18.639096 38.394078 0.925001 2.077695 0.014754 0.011536 -40960.100000 0 0 1
19.426460 25.788186 -19.265296 37.597467 0.925181 2.108785 0.009606 0.013794 64935.900000 0 0 1
18.950760 26.050486 -20.722596 38.303852 0.941876 2.142429 0.002274 0.015453 81445.900000 0 0 1
18.045660 27.118986 -20.730996 38.611649 0.983654 2.137567 -0.006071 0.023866 -872322.000000 0 0 1
16.884760 26.768186 -21.437296 38.225496 1.008053 2.166162 -0.010021 0.008960 -148909.000000 0 0 1
15.693360 27.694186 -21.066296 38.171171 1.055248 2.155426 0.004024 0.007950 -82469.000000 0 0 1
15.042460 27.394286 -19.851196 37.024215 1.068637 2.136687 0.016407 0.009075 -223713.000000 0 0 1
14.515160 28.587586 -19.333696 37.439708 1.100973 2.113433 0.009217 0.004315 -182159.000000 0 0 1
14.100560 28.558286 -17.892396 36.531347 1.112164 2.082636 0.012675 0.007566 -517236.000000 0 0 1
13.059660 27.688886 -17.624096 35.324749 1.130079 2.093144 0.012383 0.013682 -684524.000000 0 0 1
12.847560 27.511986 -16.229796 34.429282 1.133912 2.061668 0.030148 0.012062 155831.000000 0 0 1
11.821260 26.382486 -16.039496 33.061204 1.149547 2.077326 0.034456 0.002573 98404.900000 0 0 1
12.441460 25.135986 -16.121096 32.349613 1.111184 2.092479 0.023123 0.000497 -479596.000000 0 0 1
11.482860 24.149986 -15.993996 31.159040 1.126956 2.109824 0.048582 -0.007221 -141830.000000 0 0 1
12.142060 22.740286 -16.011196 30.346476 1.080363 2.126585 0.035172 -0.003605 162961.000000 0 0 1
12.570060 22.503386 -17.325596 31.057770 1.061386 2.162590 0.036788 0.001380 -231743.000000 0 0 1
13.691460 21.686486 -17.498596 31.047715 1.007654 2.169538 0.034486 0.003302 -248591.000000 0 0 1
13.191860 20.230986 -17.718696 29.954468 0.992973 2.203740 0.051837 -0.000500 368268.000000 0 0 1
12.575260 19.618186 -16.582996 28.600807 1.000774 2.189290 0.053323 -0.004450 -3167.660000 0 0 1
12.145760 18.279786 -16.792996 27.634666 0.984339 2.223931 0.048489 -0.009749 -332426.000000 0 0 1
13.195760 17.171986 -17.003296 27.533929 0.915593 2.236407 0.054157 -0.009412 -314164.000000 0 0 1
13.850060 16.845886 -15.816996 26.940404 0.882687 2.198281 0.058193 -0.004800 -503375.000000 0 0 1
14.923960 15.991486 -16.036296 27.122223 0.819915 2.203417 0.060097 -0.004299 -992464.000000 0 0 1
15.408460 15.271186 -14.727696 26.220884 0.780924 2.167209 0.087223 0.005108 -973286.000000 0 0 1
16.035460 16.018086 -13.734196 26.501758 0.784856 2.115585 0.053343 0.007999 803632.000000 0 0 1
17.376460 16.498286 -13.905696 27.703848 0.759480 2.096638 0.039927 0.003287 717487.000000 0 0 1
18.470360 15.474186 -14.360796 28.050616 0.697360 2.108261 0.043932 -0.004211 -834518.000000 0 0 1
18.879260 14.494086 -13.407396 27.317819 0.654749 2.083796 0.066471 -0.009572 566461.000000 0 0 1
19.654460 14.966386 -12.300796 27.597103 0.650805 2.032783 0.064536 -0.000221 -623643.000000 0 0 1
20.226460 13.741886 -11.583896 27.058007 0.596767 2.013201 0.067870 -0.006322 -1255600.000000 0 0 1
19.357060 12.895086 -10.970496 25.716352 0.587658 2.011522 0.096460 -0.015714 -329204.000000 0 0 1
20.006160 11.720986 -10.455696 25.435202 0.529964 1.994426 0.104884 -0.013097 85063.000000 0 0 1
20.398260 10.579986 -11.453196 25.674906 0.478473 2.033183 0.087897 -0.009413 -72462.100000 0 0 1
21.589260 10.767386 -12.232696 27.049429 0.462638 2.040066 0.073838 -0.002586 858313.000000 0 0 1
21.726960 9.683086 -13.161796 27.185581 0.419248 2.076183 0.062514 -0.003326 -277128.000000 0 0 1
22.363260 8.393486 -12.537396 26.976884 0.359055 2.054144 0.054085 0.005407 -643803.000000 0 0 1
21.624060 7.822586 -11.469996 25.697347 0.347107 2.033478 0.054638 -0.000370 281780.000000 0 0 1
22.277060 6.786586 -10.741296 25.645674 0.295712 2.002958 0.045664 0.012889 -840282.000000 0 0 1
22.297060 5.405286 -11.423796 25.629653 0.237833 2.032781 0.038995 -0.000076 442095.000000 0 0 1
21.011060 4.771286 -11.500996 24.423405 0.223298 2.061108 0.035063 -0.009824 779729.000000 0 1 0
20.211060 5.321386 -12.531696 24.368986 0.257448 2.110927 0.010550 -0.017066 -406384.000000 0 1 0
19.139660 4.296586 -13.009096 23.537710 0.220825 2.156387 0.014630 -0.025487 87047.300000 0 1 0
19.739060 3.261186 -13.764296 24.284185 0.163736 2.173414 0.018564 -0.024357 265666.000000 0 1 0
19.067960 2.030886 -13.738196 23.589184 0.106108 2.192467 0.029312 -0.022026 -610185.000000 0 1 0
19.808360 0.938986 -14.519696 24.577925 0.047368 2.202799 0.040443 -0.020578 -312434.000000 0 1 0
20.977860 0.446586 -13.912296 25.175822 0.021285 2.156283 0.048359 -0.016869 267128.000000 0 0 1
22.053060 0.260786 -14.816196 26.569251 0.011825 2.162342 0.032370 -0.018942 38415.100000 0 0 1
22.262260 -1.113914 -15.450596 27.121393 -0.049994 2.176916 0.030855 -0.015107 -745421.000000 0 0 1
21.226860 -1.426014 -16.328396 26.818457 -0.067079 2.225405 0.027289 -0.010883 -341996.000000 0 0 1
21.551860 -2.592014 -17.025996 27.587782 -0.119694 2.235921 0.034468 -0.015839 -742965.000000 0 0 1
20.481060 -3.335614 -17.797896 27.337982 -0.161446 2.279739 0.026999 -0.015138 -816797.000000 0 0 1
19.757060 -4.157114 -16.914596 26.338690 -0.207386 2.268156 0.037785 -0.017505 647280.000000 0 0 1
18.802460 -4.959114 -17.696496 26.292419 -0.257876 2.309141 0.036965 -0.013375 855519.000000 0 0 1
18.169460 -6.113014 -16.832496 25.511392 -0.324548 2.291353 0.038948 -0.022104 -497095.000000 0 0 1
19.071460 -7.146714 -16.648896 26.305548 -0.358537 2.256095 0.040651 -0.016986 -137927.000000 0 0 1
18.596060 -8.168414 -15.778396 25.719530 -0.413883 2.231255 0.040539 -0.011905 -313674.000000 0 0 1
19.600960 -9.253014 -15.406196 26.592608 -0.441055 2.188717 0.058305 -0.008973 -307141.000000 0 0 1
20.145660 -10.018614 -16.436996 27.863867 -0.461492 2.201736 0.063321 -0.014495 867585.000000 0 0 1
21.148960 -10.941914 -15.971196 28.671991 -0.477450 2.161603 0.066941 -0.029932 -40029.300000 0 0 1
21.680860 -11.887514 -17.069996 30.045922 -0.501534 2.175028 0.061098 -0.023672 -250694.000000 0 0 1
22.675460 -11.285614 -17.882696 31.005361 -0.461807 2.185555 0.061443 -0.023456 266538.000000 0 0 1
23.093560 -12.113914 -18.942396 32.231565 -0.483101 2.199006 0.064333 -0.026183 -532138.000000 0 0 1
22.304660 -11.827014 -20.237896 32.356584 -0.487553 2.246523 0.072192 -0.027090 761200.000000 0 0 1
20.939560 -12.246314 -20.295996 31.628545 -0.529199 2.267507 0.069553 -0.031556 479141.000000 0 0 1
20.658560 -13.597314 -20.305196 31.999438 -0.582113 2.258221 0.051433 -0.021209 -1052550.000000 0 0 1
19.166060 -13.840314 -20.108196 31.035974 -0.625422 2.275620 0.062115 -0.012286 -391910.000000 0 0 1
18.493860 -13.679714 -21.345096 31.381054 -0.636870 2.318819 0.059193 -0.008176 -363766.000000 0 0 1
17.109360 -13.940014 -21.247096 30.634838 -0.683676 2.337215 0.052032 0.003957 -31310.800000 0 0 1
16.403960 -13.484614 -22.534896 30.963628 -0.688033 2.385884 0.043902 0.003262 -241901.000000 0 0 1
16.781460 -14.151114 -23.706696 32.309114 -0.700567 2.394616 0.038943 0.007291 584128.000000 0 0 1
15.964460 -13.617414 -24.765896 32.459938 -0.706223 2.438689 0.046921 -0.000188 196202.000000 0 0 1
15.970060 -14.446914 -26.072796 33.816369 -0.735364 2.451224 0.044904 -0.012245 -556319.000000 0 0 1
15.152760 -15.558614 -25.833596 33.749834 -0.798613 2.442527 0.042112 -0.012565 -105191.000000 0 0 1
15.083960 -16.440614 -26.966176 34.999919 -0.828406 2.450365 0.052744 -0.014188 -360361.000000 0 0 1
16.179960 -17.493614 -26.996296 36.008577 -0.824390 2.418433 0.047193 -0.021300 246768.000000 0 0 1
17.527460 -17.018514 -27.074026 36.467034 -0.770667 2.407479 0.048711 -0.015635 1251410.000000 0 0 1
18.429160 -18.139814 -27.331746 37.625937 -0.777486 2.383876 0.054134 -0.016999 1215090.000000 0 0 1
19.955260 -17.846314 -27.197706 38.163052 -0.729666 2.364095 0.035639 -0.013537 484086.000000 0 0 1
20.398260 -17.622414 -25.865736 37.358731 -0.712519 2.335553 0.041314 -0.013403 1212830.000000 0 0 1
21.769260 -17.139514 -25.959006 37.967534 -0.666965 2.323639 0.046088 -0.011515 1140700.000000 0 0 1
22.332860 -16.512214 -24.626496 37.119727 -0.636662 2.296196 0.043625 -0.006150 20763.300000 0 0 1
21.999560 -15.116114 -24.376996 36.148520 -0.602022 2.310889 0.055986 -0.012921 -307387.000000 0 0 1
20.655260 -14.736414 -24.544196 35.301830 -0.619693 2.339588 0.069434 -0.009138 -302597.000000 0 0 1
20.261360 -13.443714 -23.856896 34.064757 -0.585817 2.346669 0.074225 -0.003247 -168069.000000 0 0 1
20.728360 -12.267314 -24.465196 34.332167 -0.534378 2.363997 0.085357 -0.020154 -92165.600000 0 0 1
20.277560 -11.146214 -23.787596 33.185347 -0.502599 2.370013 0.085932 -0.020991 -5260.720000 0 0 1
20.424660 -9.833814 -24.606596 33.456766 -0.448712 2.397163 0.098392 -0.022626 -121087.000000 0 0 1
20.051360 -8.684614 -23.926496 32.403036 -0.408727 2.401495 0.086085 -0.019686 20214.800000 0 0 1
19.812360 -7.595114 -24.815196 32.649798 -0.366073 2.434173 0.067384 -0.014733 -387684.000000 0 0 1
19.404660 -6.381414 -23.901596 31.441208 -0.317719 2.434417 0.051472 -0.013616 115953.000000 0 0 1
18.148260 -6.724314 -23.335996 30.317395 -0.354838 2.449203 0.045325 -0.015212 215807.000000 0 0 1
17.568160 -5.707514 -22.499796 29.111111 -0.314122 2.454185 0.027447 -0.010288 142333.000000 0 0 1
18.088860 -5.682414 -21.029196 28.314727 -0.304377 2.407882 0.037600 -0.015342 -415288.000000 0 0 1
17.679260 -6.719714 -20.140596 27.628869 -0.363226 2.387611 0.043114 -0.014091 274692.000000 0 0 1
18.271160 -8.028814 -20.379596 28.524114 -0.414025 2.366661 0.055922 -0.004150 -158189.000000 0 0 1
17.840460 -9.093714 -19.423896 27.897408 -0.471397 2.340972 0.052034 -0.006767 399693.000000 0 0 1
16.434460 -9.327614 -19.476696 27.137383 -0.516228 2.371300 0.033430 -0.001864 180907.000000 0 0 1
16.071260 -10.460814 -18.721996 26.799761 -0.577009 2.344219 0.041755 -0.005659 -366807.000000 0 0 1
14.621660 -10.438014 -18.225396 25.591212 -0.619976 2.363387 0.042659 -0.002807 -246316.000000 0 0 1
14.119260 -9.542914 -17.231096 24.234921 -0.594353 2.361720 0.054658 -0.003794 193469.000000 0 1 0
14.267360 -8.140214 -17.464596 23.975670 -0.518482 2.386824 0.060824 -0.021280 -17689.800000 0 1 0
12.998560 -7.288114 -17.222896 22.775147 -0.511011 2.428305 0.060101 -0.006431 450055.000000 0 1 0
11.830260 -7.431114 -18.016196 22.798242 -0.560857 2.482005 0.047483 -0.014087 164736.000000 0 1 0
10.802760 -6.668314 -17.426696 21.560514 -0.553028 2.512003 0.032504 -0.011389 -129594.000000 0 1 0
9.383660 -7.005114 -17.920796 21.407467 -0.641272 2.562808 0.029070 -0.004659 43793.200000 0 1 0
9.128360 -6.712814 -19.271796 22.356005 -0.634079 2.610080 0.033538 -0.010234 -1275040.000000 0 1 0
7.890060 -6.199414 -19.536796 21.962973 -0.665976 2.667119 0.035794 -0.016115 -889303.000000 0 1 0
7.658860 -5.875314 -21.063696 23.170169 -0.654372 2.711883 0.045345 -0.022468 120233.000000 0 1 0
7.658260 -7.083214 -21.785196 24.153999 -0.746409 2.695012 0.048570 -0.021741 177688.000000 0 1 0
6.861060 -6.972314 -22.962896 24.959606 -0.793440 2.738883 0.053947 -0.025946 122507.000000 0 1 0
6.900760 -8.123314 -23.928796 26.195343 -0.866592 2.722541 0.052423 -0.020943 -198346.000000 0 0 1
6.079360 -9.226914 -23.626296 26.082493 -0.988209 2.704130 0.055826 -0.018068 -96244.600000 0 0 1
5.900360 -10.030514 -24.791496 27.386927 -1.039068 2.702719 0.052967 -0.008393 -90176.300000 0 0 1
4.937160 -11.187514 -24.501296 27.383381 -1.155193 2.678669 0.063009 -0.018679 -11740.700000 0 0 1
5.576560 -12.183914 -23.708496 27.233042 -1.141559 2.627173 0.052944 -0.018992 -259932.000000 0 0 1
4.821560 -13.345314 -23.495996 27.448255 -1.224097 2.598299 0.058815 -0.023783 -468288.000000 0 0 1
5.488860 -14.424314 -22.578996 27.349579 -1.207188 2.542008 0.053232 -0.019430 924105.000000 0 0 1
6.601460 -15.240414 -23.080496 28.435168 -1.162039 2.517833 0.063529 -0.020914 1638030.000000 0 0 1
7.853260 -14.580114 -23.393796 28.662225 -1.076726 2.525581 0.070146 -0.021851 1299880.000000 0 0 1
8.637460 -14.055914 -22.127696 27.600895 -1.019778 2.500934 0.061675 -0.010913 -175322.000000 0 0 1
9.300460 -14.992814 -21.320996 27.674319 -1.015564 2.450304 0.061157 -0.003016 701453.000000 0 0 1
8.316960 -15.579114 -20.424796 27.000980 -1.080434 2.428659 0.058818 -0.008059 568205.000000 0 0 1
8.779260 -15.838214 -19.011196 26.255476 -1.064651 2.380503 0.062365 -0.003048 -84841.300000 0 0 1
9.528260 -17.033414 -18.929096 27.188888 -1.060775 2.340896 0.070947 0.000180 -348559.000000 0 0 1
10.090960 -17.261114 -17.606296 26.641231 -1.041772 2.292769 0.069860 -0.004983 -101431.000000 0 0 1
9.118760 -17.833714 -16.507896 25.955804 -1.098133 2.260100 0.050405 -0.010069 105551.000000 0 0 1
8.657860 -19.169514 -16.715796 26.867204 -1.146573 2.242300 0.060098 -0.011086 277573.000000 0 0 1
8.006260 -19.482714 -17.952296 27.676006 -1.180893 2.276618 0.053766 -0.005330 -648372.000000 0 0 1
6.510160 -19.164314 -18.076196 27.136728 -1.243325 2.299785 0.052995 0.000082 -339681.000000 0 0 1
6.203160 -17.792114 -17.879296 25.975137 -1.235328 2.329972 0.045065 -0.002344 -784212.000000 0 0 1
4.847660 -17.528114 -18.083296 25.646446 -1.300976 2.353360 0.025716 0.002136 -234146.000000 0 0 1
4.443960 -16.075114 -17.704996 24.323342 -1.301083 2.386053 0.002725 0.006577 73670.700000 0 1 0
4.549660 -15.917314 -16.311896 23.240875 -1.292389 2.348805 -0.009954 0.006502 20970.200000 0 1 0
4.513860 -14.557414 -15.941296 22.054890 -1.270124 2.378643 -0.006759 0.006289 -45579.400000 0 1 0
10.528760 30.018586 -18.108796 36.604628 1.233461 2.088301 0.036765 -0.011929 201734.000000 0 0 1
9.566560 29.499286 -19.023896 36.381803 1.257199 2.121041 0.048586 -0.019471 464823.000000 0 0 1
8.540060 28.733586 -18.351896 35.147456 1.281896 2.120155 0.052174 -0.020545 -256202.000000 0 0 1
7.589660 28.285286 -19.385296 35.120507 1.308646 2.155515 0.056111 -0.019535 -827143.000000 0 0 1
6.780560 29.337086 -19.902696 36.093738 1.343659 2.154858 0.072188 -0.027987 -10190.000000 0 0 1
6.031060 28.845686 -21.012796 36.193713 1.364685 2.190219 0.051160 -0.022792 379024.000000 0 0 1
4.967860 29.820286 -21.619596 37.166329 1.405719 2.191612 0.051753 -0.029701 358206.000000 0 0 1
3.888060 30.046986 -20.714896 36.702116 1.442112 2.170510 0.048392 -0.023628 -416947.000000 0 0 1
2.943560 30.783286 -21.428996 37.622827 1.475464 2.176784 0.042159 -0.024535 -1384510.000000 0 0 1
1.520760 30.658186 -20.833196 37.097967 1.521233 2.167081 0.044870 -0.018096 280087.000000 0 0 1
0.904560 29.350386 -21.016796 36.110512 1.539987 2.191999 0.048703 -0.035026 143505.000000 0 0 1
0.514060 29.241586 -22.360896 36.815001 1.553218 2.223562 0.066426 -0.042748 -1228680.000000 0 0 1
-0.068040 27.870386 -22.753696 35.979074 -1.568355 2.255463 0.074388 -0.032246 217070.000000 0 0 1
-1.209840 27.654586 -21.951296 35.328448 -1.527076 2.241260 0.079475 -0.032274 67656.900000 0 0 1
-1.826740 26.356186 -22.012596 34.388078 -1.501597 2.265455 0.093919 -0.039873 1019400.000000 0 0 1
-2.958440 25.984786 -20.970496 33.521981 -1.457432 2.246664 0.067769 -0.033218 652870.000000 0 0 1
-4.130140 26.761186 -21.055896 34.301165 -1.417671 2.231729 0.073687 -0.033591 84554.700000 0 0 1
-5.177840 26.100186 -20.358196 33.503521 -1.374956 2.223886 0.053236 -0.032748 176288.000000 0 0 1
-6.457540 26.978786 -20.274896 34.360241 -1.335860 2.201940 0.059864 -0.044154 -60821.600000 0 0 1
-7.503340 26.267686 -19.668296 33.662046 -1.292557 2.194798 0.056834 -0.039328 -516294.000000 0 0 1
-8.405640 27.114186 -18.986096 34.151218 -1.270182 2.160292 0.061674 -0.048749 293593.000000 0 0 1
-9.560140 26.353086 -18.283796 33.469070 -1.222790 2.148724 0.058116 -0.047626 -193948.000000 0 0 1
-9.203840 25.616986 -17.160896 32.178207 -1.225872 2.133303 0.059764 -0.043493 -26425.100000 0 0 1
-10.393440 25.066786 -16.619296 31.820879 -1.177742 2.120315 0.031518 -0.032022 155217.000000 0 0 1
-10.155540 24.440986 -15.246096 30.544070 -1.176989 2.093415 0.032606 -0.023023 -529251.000000 0 0 1
-9.453240 23.240286 -15.266896 29.369249 -1.184475 2.117443 0.040243 -0.021985 -240110.000000 0 0 1
-9.688340 22.622786 -14.036496 28.331566 -1.166171 2.089134 0.046455 -0.018450 -801492.000000 0 0 1
-9.101240 21.197086 -14.153596 27.064244 -1.165236 2.121120 0.053288 -0.014261 81151.200000 0 0 1
-9.926540 20.094686 -14.594296 26.745581 -1.111970 2.147986 0.051066 -0.013652 -158821.000000 0 0 1
-10.348340 20.180086 -15.943596 27.722234 -1.096962 2.183546 0.057386 -0.011406 -79303.500000 0 0 1
-9.303340 20.158186 -17.093896 28.019741 -1.138406 2.226940 0.055742 -0.013985 -87172.400000 0 0 1
-8.652740 18.924586 -17.131796 26.953818 -1.141953 2.259579 0.048302 -0.013559 -507920.000000 0 0 1
-7.618840 18.886186 -18.072596 27.227807 -1.187355 2.296625 0.053498 -0.011688 83244.800000 0 0 1
-6.883840 17.513786 -18.027096 26.059473 -1.196293 2.334730 0.053531 -0.006929 286786.000000 0 0 1
-7.755940 16.469986 -18.447096 25.917377 -1.130687 2.362805 0.040597 -0.010508 8643.480000 0 0 1
-7.445540 15.883186 -19.676296 26.360355 -1.132444 2.413485 0.041295 -0.012987 -470101.000000 0 0 1
-6.185640 15.053386 -19.682196 25.539292 -1.180917 2.450678 0.030394 -0.002745 -864812.000000 0 0 1
-6.391340 13.792886 -19.025996 24.353264 -1.136872 2.467463 0.020342 0.000812 -208868.000000 0 1 0
-5.263440 12.972686 -18.829896 23.464002 -1.185358 2.502272 0.020094 0.005909 -387786.000000 0 1 0
-4.537140 13.277386 -17.551296 22.470483 -1.241517 2.467194 0.022616 0.000006 -920306.000000 0 1 0
-3.765840 14.390086 -17.669796 23.097139 -1.314840 2.441870 0.032161 -0.007498 -919643.000000 0 1 0
-3.457040 14.931286 -16.394396 22.442608 -1.343275 2.389855 0.033209 -0.002204 440175.000000 0 1 0
-2.542640 16.217886 -16.432496 23.227393 -1.415282 2.356697 0.046871 -0.006245 506464.000000 0 1 0
-3.242040 17.356286 -16.802296 24.373523 -1.386131 2.331411 0.045049 -0.008226 -16579.900000 0 1 0
-2.326840 18.429086 -16.883496 25.101750 -1.445202 2.308516 0.055850 -0.012122 205095.000000 0 0 1
-3.012740 19.609286 -17.527596 26.472955 -1.418350 2.294406 0.056946 -0.016509 152822.000000 0 0 1
-3.165740 19.409886 -18.949396 27.310167 -1.409121 2.337630 0.079002 -0.021140 70751.900000 0 0 1
-3.838540 20.562886 -19.512496 28.606016 -1.386247 2.321443 0.086868 -0.021785 429829.000000 0 0 1
-2.978940 21.867186 -19.659496 29.555773 -1.435401 2.298512 0.076688 -0.019157 -627932.000000 0 0 1
-1.881540 21.707786 -20.495996 29.914111 -1.484337 2.325622 0.095817 -0.020859 -588974.000000 0 0 1
-0.975640 22.790786 -20.368296 30.581682 -1.528014 2.299669 0.074186 -0.021213 44297.300000 0 0 1
0.174160 22.575286 -19.390796 29.760323 1.563082 2.280442 0.078723 -0.018286 -671369.000000 0 0 1
-0.260840 22.666586 -18.050496 28.976932 -1.559289 2.243274 0.077032 -0.015375 -498177.000000 0 0 1
0.749260 22.321686 -17.131096 28.147709 1.537242 2.225109 0.069117 -0.012863 -131774.000000 0 0 1
0.344760 22.181186 -15.651596 27.149518 1.555255 2.185231 0.064974 -0.013422 -393090.000000 0 0 1
-0.422740 21.055386 -15.248696 26.000591 -1.550721 2.197496 0.059051 -0.009969 -18441.200000 0 0 1
-0.496340 21.024586 -13.875296 25.195305 -1.547193 2.154010 0.066452 -0.011078 158708.000000 0 0 1
-1.466740 19.910486 -13.406196 24.047970 -1.497262 2.162140 0.042560 -0.007518 286981.000000 0 1 0
-0.986540 18.582486 -13.541096 23.013981 -1.517756 2.199857 0.038442 -0.008335 79731.900000 0 1 0
-1.993040 17.805386 -12.942696 22.102429 -1.459326 2.196389 0.035046 -0.005882 204105.000000 0 1 0
-1.593640 16.350686 -12.866296 20.866868 -1.473637 2.235200 0.019891 -0.003836 -154229.000000 0 1 0
-0.522340 16.021286 -11.967196 20.004205 -1.538205 2.212092 0.012530 -0.008464 434835.000000 0 1 0
-0.220940 14.673386 -11.944696 18.921756 -1.555740 2.253983 0.008089 -0.006181 -181927.000000 0 1 0
0.454960 13.990786 -13.170996 19.220412 1.538289 2.325758 0.014318 -0.006267 81208.700000 0 1 0
-0.449640 13.714386 -14.220996 19.761662 -1.538022 2.374059 0.018594 -0.017249 244062.000000 0 1 0
0.283960 12.929286 -15.144096 19.914586 1.548837 2.434806 0.019969 -0.016685 297709.000000 0 1 0
-0.295840 12.820086 -16.609696 20.983902 -1.547724 2.484129 0.020809 -0.007590 -12792.200000 0 1 0
0.135660 13.841186 -17.440096 22.265529 1.560995 2.470717 0.030014 -0.014230 -135073.000000 0 1 0
-0.316440 13.582486 -18.790796 23.187887 -1.547503 2.515582 0.043758 -0.020101 -26162.000000 0 1 0
-0.971240 14.826386 -19.470396 24.492067 -1.505382 2.489750 0.051859 -0.010606 -111572.000000 0 1 0
-0.195640 15.993186 -19.485496 25.209221 -1.558564 2.454276 0.044056 -0.015006 -81064.200000 0 0 1
-0.910140 17.030986 -20.146796 26.396519 -1.517407 2.439104 0.070307 -0.019303 427303.000000 0 0 1
0.022660 18.270986 -20.321396 27.327433 1.569556 2.409274 0.076232 -0.021936 495794.000000 0 0 1
0.892560 18.164286 -21.437796 28.112578 1.521698 2.438072 0.087009 -0.026238 -150216.000000 0 0 1
1.767360 19.266486 -21.413496 28.859294 1.479320 2.406840 0.084410 -0.022426 37892.200000 0 0 1
2.532460 19.335186 -22.769796 29.978766 1.440561 2.433388 0.090945 -0.027475 513232.000000 0 0 1
3.418760 18.207886 -23.019096 29.548161 1.385195 2.463924 0.073007 -0.021586 415211.000000 0 0 1
3.678360 18.157186 -24.389896 30.628104 1.370917 2.491990 0.065183 -0.033837 118362.000000 0 0 1
4.434560 16.922286 -24.917096 30.444881 1.314505 2.529475 0.046493 -0.021067 1255220.000000 0 0 1
5.793160 16.763286 -24.426096 30.186133 1.238059 2.513556 0.036287 -0.017806 1505180.000000 0 0 1
6.636260 15.759386 -25.002296 30.290477 1.172235 2.541738 0.042744 -0.019745 611453.000000 0 0 1
7.082960 15.942886 -26.492596 31.720681 1.152717 2.559263 0.045094 -0.018678 -974086.000000 0 0 1
8.147960 16.858786 -26.642456 32.564219 1.120593 2.528985 0.035121 -0.016452 131640.000000 0 0 1
8.528960 16.977486 -28.005356 33.841959 1.105255 2.545496 0.045339 -0.023909 78097.800000 0 0 1
9.243060 15.752986 -28.666986 33.990981 1.040177 2.574321 0.048080 -0.025853 -589155.000000 0 0 1
10.475860 15.531886 -28.016936 33.703588 0.977408 2.552193 0.055262 -0.024166 -115919.000000 0 0 1
11.026760 14.263686 -28.270186 33.529772 0.912696 2.573887 0.056369 -0.019609 2772.340000 0 0 1
10.365260 13.156186 -27.408786 32.121105 0.903501 2.593069 0.048437 -0.018236 509077.000000 0 0 1
8.985260 12.925786 -27.709876 31.869234 0.963338 2.624959 0.054107 -0.030061 364571.000000 0 0 1
8.433060 12.211786 -26.608136 30.466984 0.966429 2.632821 0.047960 -0.027952 783303.000000 0 0 1
6.958260 11.702386 -26.771696 30.034762 1.034356 2.671126 0.041892 -0.031612 982472.000000 0 0 1
5.964460 12.711086 -26.636066 30.110239 1.132064 2.656471 0.047313 -0.028594 -960148.000000 0 0 1
4.709260 12.147186 -26.643236 29.657938 1.200953 2.686797 0.060386 -0.028893 -685564.000000 0 0 1
3.569660 13.118686 -27.017526 30.245481 1.305124 2.675375 0.067480 -0.031604 -218341.000000 0 0 1
3.373360 13.375386 -28.402186 31.574748 1.323742 2.689471 0.079416 -0.040517 -116675.000000 0 0 1
4.128660 14.422486 -28.931566 32.589714 1.291987 2.663234 0.084894 -0.047405 -310516.000000 0 0 1
4.251260 14.326986 -30.422066 33.894511 1.282341 2.684981 0.099819 -0.043766 -930830.000000 0 0 1
5.215360 13.480886 -30.889246 34.103956 1.201659 2.703914 0.102180 -0.041630 -761413.000000 0 0 1
5.196760 13.314686 -32.332166 35.350476 1.198677 2.725357 0.101423 -0.044614 -637516.000000 0 0 1
6.239260 12.292686 -32.836276 35.612632 1.101120 2.744115 0.085996 -0.036042 1965600.000000 0 0 1
7.655460 12.664686 -32.669686 35.865147 1.027094 2.716265 0.087984 -0.027295 1975860.000000 0 0 1
8.233360 12.800586 -31.358566 34.856892 0.999215 2.689735 0.079801 -0.029392 -488421.000000 0 0 1
8.171260 11.611186 -30.335396 33.493662 0.957564 2.703838 0.080209 -0.029145 64295.200000 0 0 1
9.078060 10.514686 -30.505206 33.519209 0.858592 2.714277 0.064978 -0.019480 211112.000000 0 0 1
8.932760 9.664586 -29.440286 32.247928 0.824729 2.721217 0.053734 -0.023883 434245.000000 0 0 1
9.861160 8.404786 -29.574556 32.288346 0.705835 2.728669 0.043793 -0.025518 337678.000000 0 0 1
11.250660 8.618686 -29.496096 32.724284 0.653701 2.693677 0.044371 -0.023557 -228449.000000 0 0 1
11.856360 7.509686 -28.934226 32.158329 0.564609 2.689976 0.029649 -0.000910 -231988.000000 0 0 1
13.349560 7.323686 -29.266166 32.990235 0.501774 2.661855 0.042183 -0.018638 -64686.500000 0 0 1
13.967760 6.191486 -28.707096 32.519689 0.417243 2.652502 0.066684 -0.012328 -167744.000000 0 0 1
15.053460 5.745086 -29.464926 33.582652 0.364584 2.641181 0.051191 -0.010448 -381218.000000 0 0 1
15.811460 4.553086 -28.828876 33.193930 0.280376 2.622961 0.084058 -0.013521 16374.300000 0 0 1
16.629460 4.912486 -27.743156 32.716268 0.287239 2.582983 0.043091 -0.018277 334894.000000 0 0 1
17.293160 3.764686 -27.171306 32.426935 0.214353 2.564265 0.046147 -0.001603 -46486.300000 0 0 1
18.097260 4.087286 -25.908596 31.866473 0.222124 2.520145 0.032801 -0.002807 -663583.000000 0 0 1
19.142560 4.986786 -26.166996 32.802703 0.254844 2.494282 0.052484 -0.018084 18018.500000 0 0 1
19.813860 5.253186 -24.938896 32.282093 0.259164 2.453613 0.058837 -0.020145 19648.000000 0 0 1
21.015660 6.204586 -25.143196 33.351689 0.287081 2.424745 0.041499 -0.015187 -352375.000000 0 0 1
20.565360 7.543086 -25.443776 33.574066 0.351550 2.430793 0.061134 -0.017249 790858.000000 0 0 1
21.447460 8.370386 -26.232036 34.902387 0.372094 2.421255 0.073688 -0.024198 -309805.000000 0 0 1
21.354760 8.209686 -27.819436 36.018686 0.367024 2.453347 0.049096 -0.015556 194749.000000 0 0 1
20.159360 8.620886 -28.474016 35.937293 0.404102 2.485407 0.053925 -0.010407 990174.000000 0 0 1
19.053260 7.721186 -28.410236 35.068290 0.385017 2.515188 0.051139 -0.006380 283859.000000 0 0 1
17.676860 8.172386 -28.930016 34.874132 0.433053 2.549107 0.049331 -0.002131 -121427.000000 0 0 1
17.693760 8.311686 -30.314956 36.071454 0.439158 2.568843 0.040948 0.000309 -728252.000000 0 0 1
16.576960 8.970086 -30.723456 36.044262 0.495998 2.591319 0.023933 0.000823 -1283400.000000 0 0 1
16.188960 8.853586 -32.224346 37.133232 0.500453 2.621561 0.015284 0.006995 -195474.000000 0 0 1
15.449360 7.734686 -32.506886 36.813119 0.464166 2.653064 0.030971 0.005165 144215.000000 0 0 1
14.133660 7.947786 -33.014306 36.781409 0.512261 2.685048 0.021275 0.008261 648357.000000 0 0 1
13.417160 6.637086 -33.469496 36.664401 0.459376 2.721034 0.024439 0.005314 21872.500000 0 0 1
12.938360 5.751586 -32.397976 35.356905 0.418302 2.729570 0.039505 -0.001679 340970.000000 0 0 1
12.250660 4.654786 -32.970366 35.479441 0.363114 2.763258 0.037155 -0.009881 237279.000000 0 0 1
11.634160 3.654486 -31.919056 34.169213 0.304357 2.776657 0.039258 -0.012537 -32269.300000 0 0 1
12.609060 2.838886 -31.322726 33.884522 0.221454 2.750246 0.057323 -0.020983 190314.000000 0 0 1
12.095860 1.826386 -30.456406 32.821307 0.149861 2.759660 0.053588 -0.017327 -78503.900000 0 0 1
11.332360 0.624286 -31.062156 33.070677 0.055033 2.791281 0.049300 -0.012626 136893.000000 0 0 1
12.067560 -0.507614 -31.595886 33.825785 -0.042040 2.776462 0.038016 -0.015417 230243.000000 0 0 1
12.815660 -1.254314 -30.658796 33.253214 -0.097563 2.743959 0.033271 -0.020029 490128.000000 0 0 1
13.678460 -2.356714 -31.382586 34.315027 -0.170619 2.725174 0.030396 -0.024896 77420.300000 0 0 1
12.974860 -3.536714 -31.532376 34.280404 -0.266117 2.738461 0.043867 -0.023107 -130865.000000 0 0 1
13.681360 -4.479214 -32.263216 35.329281 -0.316397 2.721901 0.050370 -0.022306 -305858.000000 0 0 1
12.944660 -5.847114 -32.316176 35.299975 -0.424267 2.727478 0.046079 -0.018337 -121261.000000 0 0 1
12.923860 -6.495714 -31.069836 34.271784 -0.465737 2.705886 0.041753 -0.018658 437357.000000 0 0 1
12.595260 -7.929114 -31.169426 34.540477 -0.561851 2.696110 0.050854 -0.022296 -13409.400000 0 0 1
12.408260 -8.530014 -29.767446 33.359060 -0.602251 2.673288 0.042042 -0.018325 270402.000000 0 0 1
13.620660 -8.598714 -28.998336 33.171731 -0.563116 2.634558 0.036118 -0.011977 795010.000000 0 0 1
13.550060 -9.339714 -27.841946 32.342052 -0.603491 2.607752 0.035885 -0.017185 -42600.700000 0 0 1
13.923560 -10.873314 -28.074046 33.169965 -0.663004 2.579928 0.040968 -0.018873 -514130.000000 0 0 1
12.787860 -11.476614 -28.578626 33.346363 -0.731411 2.600262 0.032237 -0.020029 -289359.000000 0 0 1
13.028060 -12.817114 -28.966706 34.250238 -0.777236 2.578742 0.031643 -0.019473 121752.000000 0 0 1
-10.063040 -3.544014 -17.838796 20.785752 0.338617 2.602593 0.017755 0.002202 -2875.260000 0 1 0
-10.797540 -2.990214 -18.876996 21.951520 0.270164 2.605949 0.019930 -0.004810 -607442.000000 0 1 0
-11.851040 -3.772214 -19.317596 22.974906 0.308162 2.569579 0.024730 -0.000649 -206737.000000 0 1 0
-12.755440 -3.148914 -20.435496 24.294576 0.242029 2.570211 0.024994 -0.012689 233460.000000 0 1 0
-13.547540 -2.020514 -20.094996 24.319276 0.148051 2.543301 0.014189 -0.011685 221011.000000 0 1 0
-14.298740 -1.589014 -21.234896 25.649557 0.110676 2.546124 0.018909 -0.010200 464135.000000 0 0 1
-15.039140 -0.278514 -20.909896 25.758049 0.018517 2.517992 0.028003 -0.006010 656852.000000 0 0 1
-14.150340 0.814286 -21.141796 25.453305 -0.057482 2.551000 0.033581 -0.011935 762026.000000 0 0 1
-14.912640 1.994986 -20.823096 25.689845 -0.132989 2.515900 0.032332 -0.002229 400373.000000 0 0 1
-14.554240 3.317886 -21.471796 26.150953 -0.224137 2.534082 0.052354 -0.005503 871425.000000 0 0 1
-13.277040 3.815386 -21.002896 25.138787 -0.279827 2.559798 0.044281 -0.009917 1012060.000000 0 0 1
-13.158140 5.043086 -21.582296 25.775277 -0.365999 2.563169 0.054390 -0.019792 -856305.000000 0 0 1
-11.910240 5.760386 -21.147696 24.945158 -0.450482 2.582558 0.030873 -0.016493 -832041.000000 0 1 0
-12.003340 6.219986 -19.830796 24.000602 -0.478092 2.543236 0.036235 -0.023788 121352.000000 0 1 0
-10.770440 6.605886 -19.267396 23.040674 -0.550167 2.561176 0.016575 -0.013300 -413923.000000 0 1 0
-10.823440 7.252086 -17.895296 22.135520 -0.590331 2.512297 0.010923 -0.007142 -649778.000000 0 1 0
-11.487940 8.487986 -17.813096 22.832544 -0.636334 2.465722 0.015781 -0.014404 351263.000000 0 1 0
-12.655240 8.347186 -16.982796 22.765017 -0.583083 2.412838 0.046224 -0.016876 334623.000000 0 1 0
-13.424140 9.712986 -16.909096 23.674188 -0.626355 2.366337 0.057105 -0.020461 8684.460000 0 1 0
-12.824440 10.712586 -16.057096 23.174471 -0.695913 2.336270 0.036136 -0.013202 153937.000000 0 1 0
-13.477340 11.948486 -16.243296 24.253859 -0.725340 2.304628 0.039598 -0.016507 -196080.000000 0 1 0
-12.878640 13.147886 -15.480796 24.049560 -0.795743 2.270125 0.037981 -0.007610 -433624.000000 0 1 0
-12.973940 13.055586 -14.098296 23.184767 -0.788535 2.224442 0.053002 -0.014594 20387.500000 0 1 0
-12.470240 14.216286 -13.486696 23.227153 -0.850733 2.190315 0.046576 -0.017723 -793700.000000 0 1 0
-13.118540 14.537586 -12.117496 23.027619 -0.836664 2.124941 0.037244 -0.021098 160529.000000 0 1 0
-14.466340 14.942086 -12.097596 24.060191 -0.801574 2.097638 0.029861 -0.011940 435208.000000 0 1 0
-15.420540 13.896386 -12.369496 24.164169 -0.733456 2.108185 0.030004 -0.012911 -1636090.000000 0 1 0
-16.827840 14.329586 -12.108696 25.201860 -0.705388 2.071985 0.023890 -0.002525 -1328010.000000 0 0 1
-17.831740 13.450286 -12.549496 25.619739 -0.646240 2.082699 0.030593 -0.008648 -953909.000000 0 0 1
-19.029140 13.904286 -12.021896 26.456820 -0.631024 2.042491 0.057694 -0.005730 -704549.000000 0 0 1
-20.248140 13.217286 -12.705696 27.315171 -0.578317 2.054602 0.041785 -0.007724 -109313.000000 0 0 1
-20.546040 11.874086 -12.358096 26.755490 -0.524030 2.050921 0.049751 -0.009480 188455.000000 0 0 1
-21.702440 11.405186 -13.005596 27.752833 -0.483859 2.058527 0.053243 -0.007631 -201789.000000 0 0 1
-22.324740 10.214986 -12.251696 27.438003 -0.429126 2.033672 0.047708 -0.013023 -473979.000000 0 0 1
-21.464440 9.137186 -12.291596 26.368423 -0.402454 2.055728 0.053900 -0.022968 -45700.200000 0 0 1
-22.032140 8.048986 -11.669396 26.198782 -0.350265 2.032437 0.056183 -0.017925 -627851.000000 0 0 1
-21.044240 6.865586 -11.606496 24.994141 -0.315358 2.053718 0.078654 -0.021772 29127.600000 0 1 0
-20.882440 6.168386 -12.837696 25.277099 -0.287219 2.103517 0.081394 -0.027518 614380.000000 0 0 1
-19.749940 5.305686 -12.734896 24.091244 -0.262447 2.127760 0.082625 -0.031442 295046.000000 0 1 0
-19.680240 4.222586 -13.826896 24.419770 -0.211355 2.172706 0.089840 -0.043049 53010.800000 0 1 0
-20.584640 3.147186 -13.557796 24.848462 -0.151715 2.147924 0.079565 -0.042576 601528.000000 0 1 0
-20.298640 2.064986 -14.411796 24.979969 -0.101381 2.185766 0.076014 -0.045438 -72650.400000 0 1 0
-21.236740 0.828586 -14.209296 25.565402 -0.038997 2.160123 0.088113 -0.035325 -1230860.000000 0 0 1
-22.467640 0.898486 -14.766696 26.900882 -0.039969 2.151880 0.062997 -0.036132 -1175390.000000 0 0 1
-22.950240 -0.438614 -14.940296 27.388289 0.019109 2.147781 0.067083 -0.040272 -930024.000000 0 0 1
-24.352540 -0.592814 -15.489696 28.867427 0.024338 2.137176 0.060181 -0.034125 -905050.000000 0 0 1
-25.293030 -0.041014 -14.624196 29.216540 0.001622 2.095025 0.080919 -0.043574 725353.000000 0 0 1
-26.640460 -0.132414 -15.142396 30.643496 0.004970 2.087650 0.071874 -0.036668 866979.000000 0 0 1
-27.758750 0.419086 -14.274796 31.216881 -0.015096 2.045728 0.078536 -0.030322 -339424.000000 0 0 1
-28.265370 -0.552414 -13.346396 31.262799 0.019541 2.011869 0.096807 -0.036049 800724.000000 0 0 1
-29.535440 -0.109114 -12.829796 32.201829 0.003694 1.980588 0.102206 -0.038320 869906.000000 0 0 1
-29.794940 -0.702514 -11.431496 31.920387 0.023574 1.937056 0.103901 -0.040278 11458.400000 0 0 1
-30.113420 -2.073814 -11.256696 32.215400 0.068758 1.927748 0.115746 -0.036132 364331.000000 0 0 1
-29.003070 -2.884214 -11.551596 31.351813 0.099119 1.948138 0.112174 -0.040444 -93697.500000 0 0 1
-29.133090 -4.316914 -10.934496 31.415536 0.147109 1.926297 0.112430 -0.042562 -1015.900000 0 0 1
-30.226900 -5.006314 -11.529196 32.736082 0.164134 1.930702 0.111621 -0.042341 455778.000000 0 0 1
-30.362930 -6.354014 -10.998096 32.912599 0.206292 1.911511 0.111715 -0.042843 166763.000000 0 0 1
-29.462260 -7.391714 -11.723396 32.559181 0.245814 1.939133 0.107406 -0.037429 221626.000000 0 0 1
-28.073080 -7.364514 -11.513696 31.223375 0.256553 1.948463 0.087622 -0.033789 -13064.900000 0 0 1
-27.424280 -8.449214 -12.177896 31.173411 0.298864 1.972134 0.094272 -0.030373 471830.000000 0 0 1
-25.944460 -8.722314 -11.762496 29.791779 0.324321 1.976672 0.083720 -0.033358 -63218.000000 0 0 1
-25.133990 -7.636914 -12.120696 28.930109 0.294983 2.003101 0.073441 -0.029886 642263.000000 0 0 1
-23.791140 -7.683914 -11.622596 27.570739 0.312398 2.005956 0.057329 -0.028569 533021.000000 0 0 1
-23.643440 -7.358214 -10.075596 26.733373 0.301715 1.957235 0.055001 -0.028682 -558888.000000 0 0 1
-23.966240 -6.037914 -9.677796 26.542359 0.246798 1.944018 0.069863 -0.026663 1276280.000000 0 0 1
-25.364640 -5.676214 -9.724296 27.751510 0.220157 1.928801 0.072410 -0.025803 467660.000000 0 0 1
-25.687190 -4.390814 -9.028696 27.579492 0.169298 1.904315 0.082104 -0.037549 -465140.000000 0 0 1
-25.493090 -4.383214 -7.636796 26.970927 0.170272 1.857872 0.072143 -0.035197 336853.000000 0 0 1
-25.617820 -3.048314 -7.211796 26.787589 0.118435 1.843381 0.091009 -0.039906 -62272.600000 0 0 1
-25.641670 -2.880614 -5.695596 26.424099 0.111872 1.788047 0.080493 -0.035614 -121021.000000 0 0 1
-24.391940 -3.222314 -5.154196 25.137936 0.131345 1.777297 0.057558 -0.021902 -208927.000000 0 0 1
-24.346440 -3.055714 -3.741796 24.821112 0.124857 1.722124 0.043626 -0.015657 379741.000000 0 1 0
-22.944840 -3.392714 -3.144696 23.406523 0.146800 1.705555 0.031457 -0.009822 496208.000000 0 1 0
-22.725040 -4.808814 -3.105596 23.434950 0.208532 1.703707 0.038011 -0.011694 391087.000000 0 1 0
-21.409940 -5.098114 -2.673596 22.170350 0.233766 1.691684 0.026736 -0.007729 -24676.200000 0 1 0
-21.341640 -6.689714 -2.621096 22.518615 0.303758 1.687458 0.031104 -0.007832 -96561.000000 0 1 0
-22.034140 -7.331514 -1.572596 23.275040 0.321211 1.638414 0.040840 0.000048 384465.000000 0 1 0
-22.263940 -8.664914 -2.017396 23.975689 0.371153 1.655039 0.020210 -0.010261 -8186.550000 0 1 0
-22.716240 -9.628114 -0.937096 24.690207 0.400890 1.608760 0.022126 -0.011785 -941568.000000 0 1 0
-21.699740 -9.988414 -0.100996 23.888436 0.431387 1.575024 0.012029 -0.000392 -571122.000000 0 1 0
-22.087240 -10.816314 1.007304 24.614092 0.455381 1.529861 0.000349 0.004559 -37299.000000 0 1 0
-20.843840 -11.270214 1.800004 23.763910 0.495673 1.494978 0.013505 -0.000861 134711.000000 0 1 0
-20.169640 -12.259414 1.032404 23.625695 0.546146 1.527084 0.012998 0.005193 -138703.000000 0 1 0
-19.064840 -12.747214 1.765704 23.001681 0.589357 1.493957 -0.005632 0.007894 306440.000000 0 1 0
-18.193740 -13.799914 0.982404 22.856398 0.648918 1.527802 -0.006380 0.007698 155120.000000 0 1 0
-18.945740 -14.993114 0.917404 24.178010 0.669457 1.532843 0.006626 0.005728 365728.000000 0 1 0
-18.319440 -16.089214 0.243804 24.382866 0.720673 1.560797 0.008604 -0.007129 52324.200000 0 1 0
-17.254640 -16.859714 1.084704 24.148482 0.773822 1.525863 0.013376 0.001537 477893.000000 0 1 0
-15.921840 -16.341114 0.982304 22.836417 0.798393 1.527768 0.009941 0.007015 589105.000000 0 1 0
-15.013940 -16.916014 1.889304 22.696683 0.844898 1.487458 0.022173 0.002652 -77574.100000 0 1 0
-15.150640 -16.556514 3.401804 22.698730 0.829708 1.420362 0.042971 -0.009479 -529634.000000 0 1 0
-14.818340 -15.243714 3.777404 21.592193 0.799547 1.394948 0.023268 -0.007885 15333.900000 0 1 0
-14.100640 -15.103114 4.999304 21.258531 0.819712 1.333406 0.014708 -0.004899 -183495.000000 0 1 0
-14.649640 -15.587714 6.349804 22.313870 0.816412 1.282241 0.045486 -0.000490 -1112170.000000 0 1 0
-15.695240 -14.805914 6.840304 22.635048 0.756249 1.263797 0.048236 0.005289 -300069.000000 0 1 0
-15.838040 -14.982214 8.258004 23.313191 0.757637 1.208716 0.055073 0.000928 -32042.500000 0 1 0
-16.766840 -16.149014 8.661704 24.838331 0.766631 1.214588 0.048382 0.008164 -623411.000000 0 1 0
-16.191540 -17.350614 8.331404 25.151980 0.819940 1.233176 0.046030 -0.000385 -146392.000000 0 0 1
-16.915940 -18.544614 8.636704 26.545139 0.831295 1.239405 0.043273 -0.004007 45579.200000 0 0 1
-16.674140 -19.040314 10.068704 27.238563 0.851554 1.192165 0.050899 -0.008802 30768.100000 0 0 1
-15.353440 -19.492314 10.242204 26.843643 0.903621 1.179323 0.050030 -0.008812 -262045.000000 0 0 1
-15.138740 -19.631014 11.608404 27.373586 0.913887 1.132858 0.052948 -0.010139 257118.000000 0 0 1
-13.790340 -20.304814 11.982604 27.313765 0.974190 1.116643 0.047067 -0.003670 760318.000000 0 0 1
-12.642740 -19.468214 11.832604 26.054956 0.994840 1.099389 0.034635 -0.010547 52705.200000 0 0 1
-11.465040 -20.125114 12.263504 26.208031 1.052963 1.083850 0.026584 -0.005341 64362.500000 0 0 1
-10.320640 -19.167314 12.540204 25.122863 1.076864 1.048173 0.034328 -0.014526 -24125.100000 0 0 1
-9.610640 -18.607514 11.422604 23.855395 1.094042 1.071478 0.032496 -0.010075 923431.000000 0 1 0
-8.385240 -18.055114 11.993304 23.240885 1.136012 1.028571 0.020767 -0.003954 1044870.000000 0 1 0
-7.511340 -17.250714 10.985204 21.787200 1.160131 1.042336 0.010504 -0.006366 187930.000000 0 1 0
-6.779640 -18.116914 10.136604 21.838884 1.212713 1.088117 0.008085 -0.004374 -184984.000000 0 1 0
-6.049440 -17.378714 9.192604 20.569866 1.235820 1.107503 0.005076 -0.003747 -521254.000000 0 1 0
-4.878240 -18.075914 8.540404 20.578494 1.307201 1.142836 0.003370 -0.003964 28726.700000 0 1 0
-3.699740 -18.150914 9.344604 20.747660 1.369719 1.103591 0.012089 -0.003489 -112590.000000 0 1 0
-2.672940 -18.758414 8.617004 20.815270 1.429256 1.143980 0.019384 -0.001565 -184687.000000 0 1 0
-1.314040 -18.883614 9.314204 21.096729 1.501322 1.113527 0.018148 -0.012953 413708.000000 0 1 0
-0.343440 -19.530114 8.483004 21.295649 1.553213 1.161085 0.026542 -0.004519 -173368.000000 0 1 0
0.869260 -19.792714 9.137004 21.817240 -1.526906 1.138676 0.034686 -0.008074 113549.000000 0 1 0
1.919860 -20.477514 8.212804 22.146435 -1.477315 1.190882 0.038131 -0.014402 -77359.600000 0 1 0
1.788560 -21.867314 7.834604 23.297197 -1.489187 1.227822 0.037799 -0.009836 -306724.000000 0 1 0
1.902360 -22.755514 8.963604 24.531176 -1.487390 1.196738 0.040686 -0.011543 30082.900000 0 1 0
1.754260 -24.219714 8.546404 25.743213 -1.498492 1.232387 0.044560 -0.009346 200837.000000 0 0 1
1.985260 -25.101384 9.614104 26.952769 -1.491871 1.206061 0.054999 -0.007666 -183805.000000 0 0 1
1.819360 -26.434304 9.177104 28.041072 -1.502079 1.237379 0.053872 -0.005452 -567203.000000 0 0 1
1.783460 -27.447984 10.342304 29.385980 -1.505912 1.211146 0.055451 -0.013522 197923.000000 0 0 1
0.742060 -27.274694 11.268004 29.519951 -1.543596 1.179153 0.053233 -0.016674 -38047.600000 0 0 1
-0.576240 -27.599304 10.858004 29.663949 1.549921 1.196053 0.020260 -0.011256 42625.100000 0 0 1
-1.506140 -27.908264 12.046604 30.434525 1.516881 1.163835 0.027404 -0.018491 -212832.000000 0 0 1
-1.049040 -28.997884 12.853104 31.736100 1.534636 1.153818 0.015752 -0.020276 10921.800000 0 0 1
-0.953040 -28.656224 14.235404 32.011470 1.537551 1.109960 0.018393 -0.016552 -6395.920000 0 0 1
-0.384340 -29.818624 15.094404 33.423631 1.557908 1.102229 -0.000819 -0.007699 9766.400000 0 0 1
-0.703340 -29.686854 16.445904 33.945128 1.547109 1.065022 0.008063 -0.006113 55946.500000 0 0 1
-0.110740 -30.697454 17.266204 35.220275 1.567189 1.058437 0.005269 -0.001757 -194477.000000 0 0 1
-0.708040 -30.625924 18.655404 35.867431 1.547681 1.023804 0.011683 -0.008128 741475.000000 0 0 1
-2.132440 -30.812194 18.729604 36.121139 1.501699 1.025675 0.001456 -0.009392 864825.000000 0 0 1
-2.588740 -30.412044 20.002604 36.492440 1.485879 0.990669 0.023568 -0.015763 -258486.000000 0 0 1
-4.047640 -30.629554 20.450604 37.051048 1.439409 0.986086 0.050081 -0.015790 -300331.000000 0 0 1
-4.822040 -29.523864 20.020004 35.995988 1.408899 0.981022 0.047597 -0.016171 109827.000000 0 0 1
-6.153240 -29.570974 20.497004 36.502494 1.365640 0.974571 0.054775 -0.024464 244888.000000 0 0 1
-6.362040 -28.563914 21.639604 36.395676 1.351644 0.934071 0.064681 -0.031812 -598353.000000 0 0 1
-5.556540 -28.872724 22.732304 37.165400 1.380671 0.912649 0.059380 -0.025740 -107764.000000 0 0 1
-5.419440 -27.853364 23.711404 36.978519 1.378627 0.874708 0.062501 -0.025055 10552.000000 0 0 1
-4.268840 -28.141504 24.721904 37.700660 1.420252 0.855631 0.067688 -0.021454 156451.000000 0 0 1
-4.526840 -29.240274 25.608104 39.131329 1.417200 0.857388 0.067797 -0.021384 128690.000000 0 0 1
-3.888340 -30.423214 25.222104 39.709516 1.443677 0.882574 0.064588 -0.023425 -186161.000000 0 0 1
-4.257140 -31.632014 26.140004 41.255392 1.437017 0.884580 0.071660 -0.023940 -92588.200000 0 0 1
-3.707040 -31.553614 27.450704 41.987068 1.453849 0.858215 0.076864 -0.035102 123559.000000 0 0 1
-4.106940 -32.612084 28.242104 43.336260 1.445523 0.860977 0.081374 -0.046071 -319988.000000 0 0 1
-3.498440 -32.500264 29.674104 44.148145 1.463566 0.833690 0.086676 -0.037401 141492.000000 0 0 1
-2.153740 -32.959704 29.619304 44.365345 1.505544 0.839786 0.084236 -0.043020 192736.000000 0 0 1
-1.490540 -32.820584 30.849104 45.067501 1.525413 0.816867 0.087160 -0.038631 -312002.000000 0 0 1
-28.257190 3.011286 -10.191296 30.189388 -0.106166 1.915140 0.085959 -0.027620 9344.350000 0 0 1
-29.006680 2.661086 -11.355296 31.263583 -0.091484 1.942509 0.079692 -0.039767 284598.000000 0 0 1
-29.545760 3.786286 -12.042696 32.129651 -0.127455 1.954994 0.066914 -0.036887 156954.000000 0 0 1
-30.584490 3.423986 -13.143196 33.464583 -0.111487 1.974416 0.064799 -0.036627 -21562.800000 0 0 1
-31.761720 2.801586 -12.704596 34.322916 -0.087979 1.949966 0.080464 -0.036323 451655.000000 0 0 1
-32.666490 2.586286 -13.810296 35.559988 -0.079008 1.969654 0.076773 -0.035219 1212900.000000 0 0 1
-33.893150 1.645386 -13.441896 36.498459 -0.048508 1.947962 0.065193 -0.032713 926845.000000 0 0 1
-33.440250 0.345886 -13.186696 35.948003 -0.010343 1.946392 0.084941 -0.033052 -2125.900000 0 0 1
-34.506954 -0.511914 -12.929096 36.853134 0.014834 1.929251 0.071935 -0.033454 -264616.000000 0 0 1
-33.974370 -1.886914 -12.419596 36.222433 0.055482 1.920767 0.080932 -0.036516 276769.000000 0 0 1
-33.364160 -2.730814 -13.390396 36.054504 0.081667 1.951305 0.080671 -0.032509 219711.000000 0 0 1
-33.215670 -4.025214 -12.811196 35.827501 0.120596 1.936472 0.093072 -0.036502 -94536.700000 0 0 1
-33.507850 -5.243814 -13.709096 36.581593 0.155236 1.954928 0.084452 -0.028904 91589.400000 0 0 1
-33.608260 -6.385114 -12.938496 36.574438 0.187749 1.932382 0.083260 -0.037321 56801.900000 0 0 1
-34.007510 -7.493414 -13.704596 37.422961 0.216880 1.945727 0.084907 -0.028751 -674312.000000 0 0 1
-33.582820 -8.856714 -13.170196 37.144330 0.257856 1.933248 0.080730 -0.033435 98813.500000 0 0 1
-32.191730 -9.099714 -13.000996 35.890642 0.275485 1.941465 0.082673 -0.033224 634842.000000 0 0 1
-31.527860 -9.431614 -14.222296 35.850175 0.290678 1.978732 0.068901 -0.024939 -666131.000000 0 0 1
-30.202510 -10.157214 -14.095896 34.843291 0.324421 1.987284 0.063422 -0.023519 -646009.000000 0 0 1
-30.511340 -11.472314 -13.609696 35.323926 0.359649 1.966310 0.051594 -0.021490 -114180.000000 0 0 1
-29.437720 -12.336314 -13.489696 34.651637 0.396833 1.970662 0.041981 -0.018662 -757827.000000 0 0 1
-29.810890 -13.756014 -14.008096 35.695152 0.432329 1.974076 0.039367 -0.011529 -171440.000000 0 0 1
-29.804810 -13.904514 -15.434996 36.330447 0.436506 2.009593 0.033973 -0.013419 429419.000000 0 0 1
-30.315690 -15.116214 -16.012996 37.469415 0.462548 2.012369 0.029658 -0.009994 -347919.000000 0 0 1
-29.291040 -16.306914 -15.879196 37.094870 0.507988 2.013152 0.012079 0.002034 -420718.000000 0 0 1
-28.202660 -16.074114 -16.696996 36.504204 0.518031 2.045865 0.011889 -0.003993 -865516.000000 0 0 1
-27.313040 -17.178014 -16.619996 36.294774 0.561421 2.046447 0.003917 -0.005321 -1175050.000000 0 0 1
-25.902220 -16.783314 -16.902196 35.189329 0.574932 2.071818 0.011276 -0.014942 -1234220.000000 0 0 1
-25.762820 -16.374414 -18.268096 35.574818 0.566173 2.110069 0.026123 -0.013768 -186543.000000 0 0 1
-24.424740 -16.066514 -18.596596 34.648726 0.581837 2.137339 0.027011 -0.008913 -415577.000000 0 0 1
-24.186640 -15.531814 -19.997996 35.016434 0.570848 2.178645 0.036876 -0.006082 8177.220000 0 0 1
-24.606440 -16.384114 -21.070896 36.302876 0.587435 2.190040 0.039698 -0.017302 -65369.200000 0 0 1
-25.979940 -16.326414 -21.330096 37.369535 0.561058 2.178262 0.038198 -0.021517 -679046.000000 0 0 1
-26.530350 -17.607814 -22.015096 38.711227 0.585936 2.175722 0.038839 -0.019896 -95217.500000 0 0 1
-26.148930 -17.683214 -23.363096 39.272088 0.594608 2.207942 0.043846 -0.008779 313658.000000 0 0 1
-26.781720 -18.822214 -23.955796 40.563733 0.612603 2.202564 0.033160 -0.005131 -405583.000000 0 0 1
-26.238890 -19.065814 -25.348116 41.164446 0.628372 2.234168 0.053715 -0.009357 629272.000000 0 0 1
-24.906740 -19.592614 -25.348346 40.580228 0.666541 2.245477 0.078904 -0.014385 413275.000000 0 0 1
-24.721240 -20.990314 -25.119436 41.020959 0.703960 2.229834 0.058089 -0.012824 -1430020.000000 0 0 1
-23.273940 -21.252514 -24.823996 40.119527 0.740031 2.237948 0.056207 -0.003517 -1447920.000000 0 0 1
-22.459240 -21.059514 -25.898606 40.232554 0.753246 2.270149 0.068003 -0.015512 -926791.000000 0 0 1
-21.213440 -21.679614 -25.692586 39.750783 0.796266 2.273577 0.054629 -0.010159 -343854.000000 0 0 1
-20.332240 -21.581014 -26.922846 40.049717 0.815184 2.308021 0.050491 -0.015417 -395220.000000 0 0 1
-20.725740 -22.475214 -27.973006 41.438879 0.825872 2.311819 0.079260 -0.010907 1301.030000 0 0 1
-20.903840 -21.825814 -29.216476 42.034976 0.806972 2.339288 0.083480 -0.015149 642213.000000 0 0 1
-19.748440 -22.119414 -30.263256 42.369022 0.841968 2.366388 0.070904 -0.021054 715984.000000 0 0 1
-19.802140 -23.373314 -30.872876 43.492196 0.867923 2.360080 0.061077 -0.021374 130387.000000 0 0 1
-18.850540 -23.578914 -31.929856 43.941140 0.896381 2.384230 0.054037 -0.025764 165660.000000 0 0 1
-18.792840 -24.982514 -32.589506 45.159415 0.925863 2.376986 0.062623 -0.024848 258537.000000 0 0 1
-18.032740 -25.053224 -33.791016 45.767637 0.946920 2.401368 0.057300 -0.023747 192186.000000 0 0 1
-18.920440 -24.831414 33.622937 45.881196 0.919687 0.748330 0.062328 -0.021109 -123047.000000 0 0 1
-18.291340 -24.879614 32.206912 44.618982 0.936839 0.764367 0.051201 -0.017732 -317294.000000 0 0 1
-17.435440 -23.784914 31.984502 43.505461 0.938234 0.744859 0.042383 -0.014112 -537294.000000 0 0 1
-16.886940 -23.853314 30.720032 42.401294 0.954755 0.760478 0.049373 -0.009622 -186622.000000 0 0 1
-16.126940 -22.515614 30.546862 41.232777 0.949244 0.736477 0.028307 0.004239 -111732.000000 0 0 1
-16.932540 -21.404814 30.209942 40.712622 0.901529 0.734704 0.021691 -0.001818 536672.000000 0 0 1
-16.099140 -20.215114 30.019312 39.610507 0.898260 0.710766 0.027066 -0.006869 915667.000000 0 0 1
-15.391740 -19.450514 31.203792 39.861069 0.901365 0.671621 0.028679 -0.010005 410290.000000 0 0 1
-14.917140 -18.182714 30.781712 38.738172 0.883738 0.652433 0.036000 -0.014287 -207233.000000 0 0 1
-14.529840 -17.454314 31.927962 39.181171 0.876580 0.618274 0.028063 -0.012684 -74084.700000 0 0 1
-13.978340 -16.041414 31.736312 38.208827 0.854014 0.590609 0.041267 -0.010883 -858284.000000 0 0 1
-12.715440 -16.022714 31.167262 37.280129 0.899977 0.580791 0.060282 -0.018595 -743580.000000 0 0 1
-12.361940 -14.729914 30.661862 36.193062 0.872582 0.560151 0.057486 -0.017687 346513.000000 0 0 1
-10.851640 -14.589014 30.329742 35.362278 0.931260 0.540043 0.069352 -0.023926 372049.000000 0 0 1
-10.492140 -13.255014 30.164412 34.578493 0.901223 0.510816 0.082087 -0.022037 235056.000000 0 0 1
-9.107240 -13.043114 30.446842 34.352218 0.961252 0.481473 0.069036 -0.022336 558017.000000 0 0 1
-8.708040 -11.573614 30.338892 33.618847 0.925758 0.445403 0.066911 -0.024064 -104049.000000 0 0 1
-9.243240 -10.782614 31.434482 34.493897 0.862117 0.424352 0.066918 -0.022456 205314.000000 0 0 1
-8.998640 -9.375414 31.342632 33.929847 0.805901 0.393042 0.045641 -0.020719 -421402.000000 0 0 1
-9.721540 -8.452714 32.336882 34.808486 0.715697 0.379110 0.029694 -0.026452 -229203.000000 0 0 1
-11.095540 -8.345214 32.011532 34.892575 0.644859 0.409221 0.039146 -0.025286 507464.000000 0 0 1
-11.932540 -7.695514 33.003850 35.928548 0.572795 0.406281 0.025241 -0.026972 428768.000000 0 0 1
-11.635940 -6.214514 33.272889 35.792464 0.490538 0.377454 0.004682 -0.020405 -593316.000000 0 0 1
-12.083040 -5.381814 32.245652 34.853205 0.419024 0.389274 0.015165 -0.025197 65715.600000 0 0 1
-12.263240 -4.108214 32.834515 35.289799 0.323252 0.375225 0.008760 -0.024865 -385221.000000 0 0 1
-11.904740 -2.935814 31.952602 34.224416 0.241784 0.366408 0.014421 -0.013713 488461.000000 0 0 1
-10.493340 -2.702714 31.939992 33.728000 0.252086 0.327071 0.014782 -0.016090 501981.000000 0 0 1
-10.222840 -1.578114 31.134852 32.808169 0.153162 0.320757 0.008458 -0.013893 -13055.200000 0 0 1
-8.727340 -1.195114 31.108332 32.331457 0.136093 0.275941 0.037354 -0.011431 210383.000000 0 0 1
-8.380440 -0.681814 32.408922 33.481859 0.081179 0.253842 0.035931 -0.024370 -164207.000000 0 0 1
-7.044740 -0.217614 32.427572 33.184683 0.030880 0.214020 0.051265 -0.020589 124197.000000 0 0 1
-6.690340 0.539186 33.716515 34.378115 -0.080418 0.196504 0.067341 -0.025082 -443159.000000 0 0 1
-7.262740 1.818586 33.817023 34.635902 -0.245355 0.217882 0.060498 -0.020389 -216417.000000 0 0 1
-6.713640 2.750386 32.947001 33.736367 -0.388816 0.216748 0.075008 -0.019728 -45209.400000 0 0 1
-7.507040 4.072986 32.950501 34.039395 -0.497110 0.253619 0.071360 -0.015005 544680.000000 0 0 1
-8.759440 4.044386 32.265682 33.677279 -0.432555 0.290556 0.040021 -0.006013 363425.000000 0 0 1
-9.523640 5.198486 32.461875 34.227143 -0.499652 0.322567 0.023826 0.001740 66960.800000 0 0 1
-10.927940 5.116386 31.806482 34.018372 -0.437880 0.362595 0.008967 0.013036 391122.000000 0 0 1
-11.748540 6.193886 32.248862 34.876662 -0.485174 0.390669 -0.003529 0.013854 -345933.000000 0 0 1
-12.958640 6.279386 31.547462 34.678515 -0.451229 0.428206 -0.006832 0.016307 -280332.000000 0 0 1
-13.578440 7.635986 31.867622 35.471505 -0.512284 0.454682 0.003858 0.005632 -202633.000000 0 0 1
-13.989940 7.800886 33.226594 36.886025 -0.508665 0.449209 0.006876 0.000847 108012.000000 0 0 1
-14.555940 9.100886 33.326204 37.487830 -0.558768 0.475667 0.012995 -0.000600 -203901.000000 0 0 1
-15.234240 9.282086 -33.798476 38.217486 -0.547223 2.655943 0.012250 0.005201 -26999.900000 0 0 1
-14.427940 9.427386 -32.596826 36.872675 -0.578770 2.655227 0.022730 -0.004725 -280453.000000 0 0 1
-15.095240 9.925186 -31.445556 36.265667 -0.581633 2.620125 0.026231 -0.006348 -1918460.000000 0 0 1
-14.379840 10.028986 -30.093076 34.827484 -0.609002 2.614079 0.038274 -0.010176 -82906.700000 0 0 1
-13.380040 11.000786 -30.025596 34.663803 -0.688119 2.618332 0.047463 -0.008811 -669054.000000 0 0 1
-12.262940 10.835286 -30.832236 34.905729 -0.723669 2.653652 0.029277 -0.018318 -1658400.000000 0 0 1
-11.650740 12.126986 -31.306286 35.537123 -0.805425 2.648654 0.025764 -0.010779 34558.300000 0 0 1
-12.478140 12.910886 -32.175756 36.846632 -0.802441 2.632598 0.022929 -0.011527 452846.000000 0 0 1
-11.756540 14.020786 -32.727576 37.495239 -0.873012 2.631801 0.021814 -0.022275 142171.000000 0 0 1
-11.765940 15.326086 -31.859256 37.260414 -0.916059 2.596430 0.021577 -0.021567 -822352.000000 0 0 1
-12.922240 16.057586 -31.978266 38.045235 -0.893170 2.569062 0.024696 -0.015907 -796777.000000 0 0 1
-12.910440 17.136186 -31.096196 37.779647 -0.925121 2.537634 0.012243 -0.002234 -826248.000000 0 0 1
-14.236240 17.803386 -30.828636 38.341047 -0.896277 2.504895 0.006469 -0.013917 -1057250.000000 0 0 1
-14.467340 18.679686 -31.924716 39.716774 -0.911801 2.504468 0.008648 -0.019666 -531310.000000 0 0 1
-15.773340 19.112886 -32.148096 40.590649 -0.880834 2.484886 0.007014 -0.024191 -358286.000000 0 0 1
-16.406240 20.161986 -31.184506 40.597338 -0.887744 2.446730 0.004843 -0.022838 -632554.000000 0 0 1
-15.868440 21.431286 -31.390926 41.188562 -0.933446 2.437389 0.010358 -0.018404 55423.400000 0 0 1
-16.451340 22.555786 -30.732306 41.519691 -0.940635 2.404144 -0.003523 -0.020053 185792.000000 0 0 1
-17.859440 22.992286 -31.229486 42.695265 -0.910389 2.391243 0.014537 -0.021612 53347.500000 0 0 1
-18.894740 22.075286 -31.005006 42.492821 -0.862874 2.388610 0.016807 -0.024359 -172871.000000 0 0 1
-20.015240 22.368986 -31.824996 43.747134 -0.840875 2.385433 0.040168 -0.026801 -1742260.000000 0 0 1
-21.160040 21.444586 -31.451546 43.552466 -0.792077 2.377706 0.057608 -0.032281 -1460100.000000 0 0 1
-22.016540 22.007786 -30.517036 43.593121 -0.785199 2.346253 0.076955 -0.026653 363819.000000 0 0 1
-22.891840 23.044586 -31.017036 44.912647 -0.788723 2.333126 0.074353 -0.026149 -884888.000000 0 0 1
-24.189540 22.611286 -31.701726 45.841069 -0.751688 2.334439 0.083951 -0.039853 -839585.000000 0 0 1
-23.953440 21.913986 -32.953516 46.259316 -0.740963 2.363659 0.097377 -0.037309 362561.000000 0 0 1
-25.115120 21.727386 -33.736846 47.339448 -0.713202 2.364077 0.117407 -0.040572 -26058.400000 0 0 1
-24.796540 20.684186 33.667433 46.649759 -0.695224 0.764532 0.117566 -0.038562 -131046.000000 0 0 1
-24.468540 19.399586 34.164929 46.284941 -0.670359 0.740482 0.111308 -0.039631 380259.000000 0 0 1
-24.264440 18.539386 33.124666 45.052363 -0.652436 0.744764 0.094459 -0.042513 -235948.000000 0 0 1
-23.899740 17.086186 33.571092 44.611137 -0.620663 0.718905 0.084895 -0.030686 -364369.000000 0 0 1
-25.012240 16.313586 33.981598 45.238195 -0.577937 0.720963 0.087321 -0.022565 508085.000000 0 0 1
-25.332620 15.371386 32.973507 44.331404 -0.545392 0.732065 0.079219 -0.016814 -281852.000000 0 0 1
-26.317820 14.224986 33.308600 44.770981 -0.495526 0.731793 0.052283 -0.004522 60355.700000 0 0 1
-27.655670 14.688086 33.548082 45.891718 -0.488221 0.750971 0.057103 -0.005627 659661.000000 0 0 1
-28.551840 13.557086 33.458458 46.026846 -0.443304 0.756950 0.044348 0.001002 142147.000000 0 0 1
-28.513990 12.311686 -34.143094 46.155998 -0.407597 2.403469 0.031981 0.004909 -321641.000000 0 0 1
-27.384500 11.473686 34.146060 45.249417 -0.396765 0.715723 0.018235 0.000313 -2668.590000 0 0 1
-27.863680 10.154186 34.153287 45.232060 -0.349466 0.715038 0.031358 0.006339 -285101.000000 0 0 1
-26.731030 9.048186 34.108821 44.269960 -0.326384 0.691213 0.015635 0.002027 505026.000000 0 0 1
-25.966070 9.051186 32.911262 42.887200 -0.335407 0.696034 0.014361 -0.001399 -30699.400000 0 0 1
-25.028510 10.120986 32.890424 42.551624 -0.384275 0.687313 0.007515 0.002328 -1354390.000000 0 0 1
-23.745540 9.586786 32.227522 41.162730 -0.383718 0.671435 0.020750 -0.002491 -558602.000000 0 0 1
-23.868640 9.287586 30.817692 40.071204 -0.371085 0.693406 0.038952 -0.003525 365972.000000 0 0 1
-22.647740 8.927686 30.193662 38.785061 -0.375494 0.678545 0.046163 -0.002976 389412.000000 0 0 1
-22.906040 8.969186 28.672472 37.778878 -0.373213 0.709089 0.074401 -0.010899 35858.800000 0 0 1
-23.259540 10.192886 28.127152 37.895090 -0.413018 0.734393 0.065815 -0.013026 300287.000000 0 0 1
-23.520240 10.067486 26.730332 37.000901 -0.404438 0.763495 0.060189 -0.012112 -631741.000000 0 0 1
-23.574540 11.418286 25.932392 36.859533 -0.451048 0.790421 0.055848 -0.006120 913805.000000 0 0 1
-24.710040 12.264386 26.270822 38.094059 -0.460709 0.809818 0.066183 -0.006050 345189.000000 0 0 1
-25.872430 11.862686 25.609072 38.287473 -0.429906 0.838118 0.072614 -0.007284 -1199460.000000 0 0 1
-27.004550 12.800186 25.985942 39.602521 -0.442633 0.855066 0.058729 -0.002438 -539254.000000 0 0 1
-26.944770 14.087386 25.394442 39.615058 -0.481740 0.874957 0.068577 -0.007450 -6002.660000 0 0 1
-28.167630 14.758186 25.628942 40.841916 -0.482617 0.892438 0.047985 -0.008882 288100.000000 0 0 1
-28.269930 16.125986 24.961462 41.015984 -0.518392 0.916528 0.050243 -0.012779 136499.000000 0 0 1
-27.314560 16.995586 25.551992 41.083323 -0.556596 0.899559 0.061022 -0.015833 295955.000000 0 0 1
-27.371480 18.297486 24.981682 41.328929 -0.589262 0.921709 0.043426 -0.027867 -332664.000000 0 0 1
-22.462440 -8.786314 32.317952 40.326301 0.372859 0.641145 0.025059 0.008135 -224708.000000 0 0 1
-21.694540 -8.358914 31.221672 38.927077 0.367770 0.640068 0.020574 -0.008519 -113670.000000 0 0 1
-22.285640 -8.630414 29.979182 38.339082 0.369479 0.673011 0.019462 -0.012526 -407744.000000 0 0 1
-21.290840 -8.614714 28.775712 36.817860 0.384483 0.673619 0.037199 -0.014076 127868.000000 0 0 1
-20.819440 -7.282214 28.337062 35.909175 0.336478 0.661403 0.038415 -0.023606 457261.000000 0 0 1
-19.626940 -6.850814 28.970652 35.657385 0.335830 0.622415 0.030070 -0.021035 -136776.000000 0 0 1
-18.276440 -7.226614 28.326182 34.476439 0.376540 0.606567 0.036196 -0.015258 -580930.000000 0 0 1
-17.956040 -8.603314 28.224332 34.540546 0.446814 0.614371 0.037822 -0.017884 108944.000000 0 0 1
-17.664940 -9.270414 29.466102 35.584293 0.483284 0.595149 0.051069 -0.018706 -665320.000000 0 0 1
-16.281640 -8.971414 30.053802 35.338493 0.503621 0.553946 0.052065 -0.020172 397088.000000 0 0 1
-15.104240 -9.618114 29.521942 34.528123 0.567027 0.545223 0.040355 -0.015786 -213552.000000 0 0 1
-13.941840 -9.019414 29.933592 34.230757 0.574215 0.506465 0.041551 -0.019301 70312.600000 0 0 1
-12.642540 -9.807514 29.529232 33.585662 0.659782 0.496571 0.049186 -0.022892 493738.000000 0 0 1
-12.392640 -9.793114 28.149602 32.278208 0.668759 0.511333 0.059062 -0.016637 229802.000000 0 0 1
-11.092640 -10.316314 27.883242 31.732447 0.749152 0.497668 0.068127 -0.014853 493815.000000 0 0 1
-10.551140 -9.936614 26.477862 30.185097 0.755412 0.500832 0.055217 -0.013629 276856.000000 0 0 1
-11.390540 -10.527314 25.481882 29.831109 0.746034 0.546776 0.051811 -0.013444 275332.000000 0 0 1
-10.977040 -10.182714 24.152122 28.416687 0.747876 0.554949 0.032913 -0.009846 8767.010000 0 0 1
-11.979640 -10.642214 23.083252 28.099912 0.726346 0.606811 0.033478 -0.013622 -733664.000000 0 0 1
-11.901740 -12.046814 22.845252 28.437347 0.791456 0.637890 0.034096 -0.012702 895999.000000 0 0 1
-13.113840 -12.581914 22.249552 28.728382 0.764700 0.684904 0.035702 -0.010229 672597.000000 0 0 1
-14.258340 -12.650114 23.264452 30.075911 0.725703 0.686413 0.044105 -0.007885 -287219.000000 0 0 1
-15.448240 -13.197514 22.665752 30.439429 0.706988 0.730834 0.036031 0.002482 1294450.000000 0 0 1
-16.611340 -13.155814 23.496682 31.640262 0.669830 0.733823 0.031971 0.000574 266366.000000 0 0 1
-17.918140 -13.804114 23.086452 32.320235 0.656429 0.775168 0.047068 -0.002658 -542742.000000 0 0 1
-17.941440 -15.237914 23.241252 33.079376 0.704096 0.791765 0.042489 0.000692 796232.000000 0 0 1
-19.299540 -15.686514 23.080052 33.929748 0.682492 0.822719 0.045826 0.005144 1350860.000000 0 0 1
-20.181940 -15.708214 24.382802 35.335248 0.661387 0.809249 0.040288 0.002594 23234.900000 0 0 1
-19.615040 -16.585114 25.330102 36.075337 0.701894 0.792391 0.038928 0.003791 -84202.500000 0 0 1
-20.273540 -16.526514 26.555952 37.274129 0.683927 0.777813 0.030730 0.002230 -277019.000000 0 0 1
-19.842140 -17.544014 27.623802 38.269798 0.724005 0.764372 0.024866 0.000880 -53297.600000 0 0 1
-20.026040 -18.864014 27.194392 38.683696 0.755527 0.791198 0.025502 0.005833 132349.000000 0 0 1
-19.626940 -19.772614 28.251092 39.677415 0.789095 0.778426 0.019405 0.005112 -134185.000000 0 0 1
-19.825940 -21.284214 27.967652 40.351893 0.820856 0.805024 0.028760 0.008442 -227457.000000 0 0 1
-21.126140 -21.832914 27.976142 41.299570 0.801849 0.826580 0.025379 0.011349 -335023.000000 0 0 1
-21.131840 -23.155214 27.496482 41.698623 0.831054 0.850763 0.032507 0.016866 -280728.000000 0 0 1
-22.580140 -23.575914 27.237512 42.515509 0.806969 0.875453 0.036856 0.016176 -161397.000000 0 0 1
-23.197140 -24.227914 28.335902 43.909253 0.807130 0.869343 0.032415 0.013747 -723223.000000 0 0 1
-24.438640 -24.718114 27.959062 44.608760 0.791083 0.893406 0.023758 0.013216 -692294.000000 0 0 1
-25.012640 -25.705724 28.998822 46.123184 0.799063 0.890883 0.002859 0.005612 -210229.000000 0 0 1
-25.622770 -24.986814 30.048492 46.730923 0.772833 0.872373 0.001163 0.012550 224635.000000 0 0 1
-26.321070 -25.894884 30.945582 48.176476 0.777236 0.873251 0.003478 0.018062 343828.000000 0 0 1
-27.551190 -25.190454 31.571372 48.891498 0.740668 0.868800 -0.004453 0.010229 441468.000000 0 0 1
-28.489800 -24.797514 30.540782 48.572882 0.716219 0.890836 0.008832 0.011432 310551.000000 0 0 1
-29.444450 -23.848014 31.005342 48.959521 0.680768 0.885005 0.019885 0.001701 -526403.000000 0 0 1
-30.564570 -23.867714 29.977872 49.015646 0.662982 0.912717 0.019057 -0.003134 -462310.000000 0 0 1
-31.500700 -24.946314 30.196422 50.263671 0.669800 0.926344 0.019810 0.000344 691209.000000 0 0 1
-32.622570 -24.905614 29.324332 50.442424 0.652052 0.950418 0.022473 -0.002820 252470.000000 0 0 1
-33.876040 -25.627874 29.788912 51.882110 0.647660 0.959212 0.029197 -0.006988 -262879.000000 0 0 1
-33.539860 -26.984914 29.878812 52.400871 0.677517 0.964051 0.032524 -0.010508 230572.000000 0 0 1
-34.484524 -27.769984 30.579932 53.809727 0.677957 0.966361 0.029964 -0.011692 69485.900000 0 0 1
-33.868450 -29.134894 30.866342 54.301428 0.710407 0.966205 0.032981 -0.021381 -84489.200000 0 0 1
-33.062700 -29.155394 32.004112 54.474236 0.722680 0.942819 0.042208 -0.020108 6251.660000 0 0 1
-32.361130 -30.409124 32.140172 54.817408 0.754311 0.944296 0.038539 -0.031173 134418.000000 0 0 1
-31.544480 -30.528374 33.444834 55.186889 0.769030 0.919738 0.027896 -0.023553 11400.300000 0 0 1
-32.297520 -30.593944 -33.851926 55.902345 0.758317 2.221259 0.023274 -0.011878 10495.000000 0 0 1
-31.437040 -30.609594 -32.702286 54.723617 0.772063 2.211288 0.020889 -0.016625 174764.000000 0 0 1
-32.065980 -30.234374 -31.325676 54.070717 0.756007 2.188723 0.013527 -0.017581 -66167.700000 0 0 1
-32.244640 -28.861594 -31.057936 53.266348 0.730091 2.193297 0.009463 -0.011988 -269559.000000 0 0 1
-31.016020 -28.195024 -30.876146 52.060439 0.737791 2.205679 0.017578 -0.005078 -409481.000000 0 0 1
-31.095330 -26.676774 -30.734796 51.217161 0.709064 2.214407 0.013107 0.008397 -178015.000000 0 0 1
-31.625840 -26.245224 -29.505386 50.592227 0.692689 2.193459 0.001248 -0.004266 -451.941000 0 0 1
-31.843410 -24.840614 -29.432926 49.973554 0.662480 2.200580 0.011049 -0.004567 21746.500000 0 0 1
-30.616980 -24.154414 -28.814936 48.488512 0.667950 2.207146 0.024345 -0.012079 -107068.000000 0 0 1
-30.799970 -22.769514 -28.768986 47.903481 0.636599 2.214999 0.021257 -0.002996 121943.000000 0 0 1
-29.742490 -22.096414 -28.100566 46.502786 0.638957 2.219655 0.049758 -0.005455 136052.000000 0 0 1
-29.633880 -20.562714 -28.385786 45.899291 0.606615 2.237548 0.056248 -0.010619 -239133.000000 0 0 1
-29.194090 -20.340114 -29.685986 46.338677 0.608521 2.266116 0.073769 -0.005563 216206.000000 0 0 1
-28.815870 -19.009914 -29.956386 45.706852 0.583166 2.285512 0.059714 -0.010019 -340142.000000 0 0 1
-28.505520 -18.703314 -31.437026 46.375266 0.580672 2.315676 0.085506 -0.010268 408159.000000 0 0 1
-29.607690 -18.675614 -32.347216 47.662735 0.562737 2.316745 0.073510 -0.017079 269694.000000 0 0 1
-30.424220 -17.561814 -32.275156 47.704677 0.523510 2.313880 0.040478 -0.015836 -1306440.000000 0 0 1
-30.687330 -16.814414 -33.566236 48.488442 0.501250 2.335402 0.044572 -0.018309 -229846.000000 0 0 1
-31.541990 -17.487814 34.081676 49.621381 0.506238 0.813672 0.043512 -0.019035 1363210.000000 0 0 1
-32.957130 -17.389114 -34.102256 50.512549 0.485505 2.311930 0.037934 -0.009264 1104950.000000 0 0 1
-33.981500 -17.954914 33.406562 50.922684 0.486088 0.855256 0.039960 -0.015012 -113083.000000 0 0 1
-34.133611 -19.338414 33.544331 51.616856 0.515461 0.863381 0.008588 -0.006155 -73220.900000 0 0 1
-35.225307 -19.826914 32.812909 52.063575 0.512663 0.888925 0.019057 -0.007429 -272634.000000 0 0 1
-35.486598 -21.265314 33.273726 53.090989 0.539867 0.893446 -0.002114 -0.005936 587799.000000 0 0 1
-34.348312 -22.125614 33.071181 52.564745 0.572255 0.890335 0.019146 -0.006151 452562.000000 0 0 1
-34.588546 -23.375714 33.589852 53.582364 0.594314 0.893251 0.012087 -0.002047 -355951.000000 0 0 1
-33.377060 -24.347914 33.721564 53.329101 0.630239 0.886240 0.015079 0.000585 1454480.000000 0 0 1
-32.242940 -24.237014 -33.880716 52.677728 0.644588 2.269427 -0.010873 -0.004607 896196.000000 0 0 1
-31.473770 -23.090314 -34.047226 51.797437 0.632946 2.288047 0.006803 -0.008138 -722583.000000 0 0 1
-30.156340 -23.092014 -33.240096 50.473260 0.653501 2.289711 0.028086 -0.006000 -585240.000000 0 0 1
-29.199190 -24.020814 -33.718966 50.661237 0.688402 2.299063 0.029391 -0.005460 404278.000000 0 0 1
-27.940580 -23.924914 -33.044006 49.446779 0.708128 2.302683 0.053383 -0.008792 409612.000000 0 0 1
-27.833310 -24.212614 -31.530626 48.529622 0.715943 2.278011 0.051883 0.001112 -822769.000000 0 0 1
-27.748660 -25.635234 -31.313316 49.068087 0.745830 2.262903 0.039461 -0.009266 -77738.100000 0 0 1
-27.202190 -25.906324 -30.025206 48.089602 0.761003 2.245108 0.038539 -0.011662 -20653.100000 0 0 1
-26.873300 -27.387004 -29.826786 48.598966 0.794865 2.231576 0.030772 -0.014153 416051.000000 0 0 1
-28.021130 -28.214584 -29.980636 49.800452 0.788838 2.216819 0.029686 -0.003794 387798.000000 0 0 1
-27.699010 -29.424514 -29.280836 49.903954 0.815596 2.197828 0.034912 -0.010561 233548.000000 0 0 1
-28.459380 -30.610194 -29.888766 51.383447 0.821794 2.191590 0.028714 0.000646 -31220.300000 0 0 1
-27.869790 -31.014824 -31.134326 52.038359 0.838758 2.212169 0.024651 -0.013341 408667.000000 0 0 1
-28.155800 -32.343654 -31.507716 53.212755 0.854509 2.204469 0.030398 -0.003906 -207885.000000 0 0 1
-27.851690 -32.616074 -32.983976 54.106078 0.864028 2.226373 0.033322 -0.016535 630999.000000 0 0 1
-26.439220 -32.611654 -33.224216 53.538780 0.889547 2.240258 0.024088 -0.013626 455887.000000 0 0 1
-26.131920 -33.388974 34.108250 54.415748 0.906724 0.893346 0.034963 -0.015377 600694.000000 0 0 1
-24.608940 -33.421964 33.727389 53.480505 0.936114 0.888408 0.031525 -0.014394 689270.000000 0 0 1
-24.369840 -34.083621 32.507081 53.031054 0.950073 0.910967 0.030230 -0.007678 -113740.000000 0 0 1
-23.443840 33.586443 32.623662 52.363787 -0.961404 0.898199 0.022253 0.001852 -695196.000000 0 0 1
-23.364340 32.810278 31.309342 51.016485 -0.951993 0.910045 0.033858 -0.005264 365715.000000 0 0 1
-24.598840 32.179928 30.895302 50.942815 -0.918133 0.919183 0.052347 -0.032101 804887.000000 0 0 1
-24.480940 31.224818 29.876162 49.667805 -0.905874 0.925394 0.052248 -0.024407 121982.000000 0 0 1
-25.864120 30.559538 29.611922 49.796627 -0.868424 0.933957 0.061014 -0.022708 314556.000000 0 0 1
-26.157680 29.634098 30.607172 49.992030 -0.847628 0.911904 0.058166 -0.027791 -408951.000000 0 0 1
-27.495040 29.266838 30.459932 50.401712 -0.816603 0.921855 0.050980 -0.032384 -498864.000000 0 0 1
-27.806670 28.167408 31.500372 50.585445 -0.791843 0.898587 0.044528 -0.051815 -289821.000000 0 0 1
-27.177400 26.916978 31.198092 49.360468 -0.780584 0.886606 0.054365 -0.046721 239457.000000 0 0 1
-27.882760 25.784498 31.660542 49.443691 -0.746320 0.875862 0.053717 -0.039488 1210520.000000 0 0 1
-29.107810 25.316168 30.745462 49.330077 -0.715842 0.897892 0.052777 -0.039550 896698.000000 0 0 1
-28.603130 25.053968 29.461232 48.102023 -0.719349 0.911610 0.046930 -0.032661 -117180.000000 0 0 1
-29.412330 24.200598 28.661032 47.667693 -0.688492 0.925710 0.029153 -0.023822 -41206.700000 0 0 1
-28.679620 23.921848 27.351062 46.290993 -0.695194 0.938684 0.032715 -0.027091 -88573.400000 0 0 1
-27.609350 23.006668 27.494712 45.249776 -0.694714 0.917735 0.035810 -0.027796 -30939.700000 0 0 1
-26.986860 22.788568 26.208132 43.982675 -0.701253 0.932443 0.035180 -0.019172 1165440.000000 0 0 1
-25.538340 22.157468 26.375082 42.881292 -0.714632 0.908319 0.039239 -0.025774 927407.000000 0 0 1
-25.623400 20.892768 26.981602 42.674035 -0.684048 0.886314 0.064039 -0.037062 490325.000000 0 0 1
-24.324540 20.401868 27.260222 41.845421 -0.697918 0.861302 0.071680 -0.031828 56009.500000 0 0 1
-24.384340 19.046068 28.045172 41.759795 -0.663096 0.834453 0.086364 -0.031343 1136180.000000 0 0 1
-23.109440 18.337968 28.019212 40.686651 -0.670782 0.811159 0.075571 -0.022466 1449220.000000 0 0 1
-23.013740 17.388468 29.087382 40.964215 -0.647056 0.781201 0.070549 -0.018425 -1268580.000000 0 0 1
-21.854640 16.480668 28.841852 39.762925 -0.646122 0.759260 0.072250 -0.012952 -1245770.000000 0 0 1
-20.765940 16.976568 29.574502 39.925923 -0.685333 0.736634 0.086712 -0.015763 -726404.000000 0 0 1
-19.622440 16.198368 29.445572 38.916180 -0.690099 0.712636 0.071678 -0.015688 -961146.000000 0 0 1
-18.428240 16.618468 30.252402 39.127757 -0.733805 0.686972 0.042160 -0.016153 -1131270.000000 0 0 1
-18.568940 16.266568 31.581462 40.084854 -0.719401 0.663461 0.028197 -0.014817 102291.000000 0 0 1
-17.626440 16.875268 32.409952 40.569337 -0.763630 0.645369 0.021065 -0.027052 -1188780.000000 0 0 1
-17.707840 16.282368 33.869419 41.542998 -0.743485 0.617574 0.019178 -0.025980 -41688.500000 0 0 1
-18.602440 16.791868 -33.676996 41.978062 -0.734288 2.501855 0.036520 -0.029231 -332376.000000 0 0 1
-19.949940 16.691268 -34.031726 42.834063 -0.696697 2.488983 0.059357 -0.026311 -1317800.000000 0 0 1
-20.783740 17.586568 -33.138126 42.888071 -0.702266 2.453825 0.068427 -0.041636 -647256.000000 0 0 1
-21.085340 17.116468 -31.848686 41.855751 -0.681877 2.435519 0.070624 -0.039508 277978.000000 0 0 1
-21.942440 18.048768 -31.209206 42.204778 -0.688341 2.403080 0.060309 -0.028267 -306363.000000 0 0 1
-22.129340 17.828668 -29.704546 41.108748 -0.678181 2.378330 0.065641 -0.030652 513331.000000 0 0 1
-22.814240 16.637368 -29.215246 40.630312 -0.630091 2.373231 0.069479 -0.040000 -462664.000000 0 0 1
-24.160840 16.511368 -29.527536 41.572189 -0.599494 2.360680 0.082034 -0.037594 -986727.000000 0 0 1
-24.918340 15.670768 -28.448826 40.936932 -0.561388 2.339137 0.071475 -0.023845 -42144.100000 0 0 1
-24.647540 14.281268 -28.427146 40.243739 -0.525149 2.355159 0.038555 -0.007512 74728.000000 0 0 1
-25.573170 13.585868 -27.608056 40.009594 -0.488338 2.332335 0.011333 -0.000933 -96760.000000 0 0 1
-25.470880 12.061368 -27.512936 39.385328 -0.442253 2.344177 0.016735 -0.002835 -821209.000000 0 0 1
-24.445740 11.557568 -26.751536 38.037039 -0.441639 2.350828 0.015275 -0.010780 -906470.000000 0 0 1
-23.881940 10.514968 -27.474166 37.891179 -0.414749 2.381948 0.006214 0.000833 -550427.000000 0 0 1
-22.711740 9.786868 -26.833736 36.491853 -0.406871 2.396957 0.037398 -0.000699 -257936.000000 0 0 1
-23.114040 8.997768 -25.727496 35.736854 -0.371229 2.374476 0.021345 0.005132 -439746.000000 0 0 1
-22.007540 8.389468 -25.152766 34.458332 -0.364203 2.389041 0.053452 0.006995 -952491.000000 0 0 1
-22.277140 7.217168 -24.204696 33.678269 -0.313302 2.372732 0.053880 0.008687 -36732.600000 0 0 1
-22.863240 6.142668 -24.940496 34.387330 -0.262472 2.382240 0.047911 -0.009866 327770.000000 0 0 1
-22.855740 5.056968 -24.037596 33.552404 -0.217748 2.369453 0.054300 -0.000098 -273985.000000 0 0 1
34.646673 24.748986 -10.561696 43.868596 0.620276 1.813943 0.026724 -0.000607 -528630.000000 0 0 1
35.662253 24.204086 -9.797596 44.199852 0.596289 1.794319 0.044185 -0.011528 -318664.000000 0 0 1
-35.656194 23.166386 -10.492396 43.796530 -0.576175 1.812721 0.063347 -0.012877 605198.000000 0 0 1
-34.503894 22.547686 -9.647796 42.331984 -0.578819 1.800725 0.049760 -0.021624 392703.000000 0 0 1
-35.060657 21.660186 -8.676696 42.115299 -0.553399 1.778305 0.051311 -0.016960 986195.000000 0 0 1
-33.999220 21.143386 -7.845996 40.798890 -0.556352 1.764311 0.025183 -0.010176 636070.000000 0 0 1
-34.612869 20.441586 -6.604896 40.737376 -0.533462 1.733649 0.027982 -0.006428 -302683.000000 0 0 1
-35.328429 19.333286 -6.944196 40.866805 -0.500725 1.741548 0.031844 -0.009956 -163804.000000 0 0 1
-35.981617 18.794486 -5.825396 41.010300 -0.481356 1.713326 0.027807 -0.015299 -116306.000000 0 0 1
35.257213 17.442086 -5.992196 39.789494 0.459406 1.721969 0.027604 -0.002355 -15218.900000 0 0 1
34.098933 17.678486 -6.745796 38.997075 0.478296 1.744653 0.040069 -0.013098 -263966.000000 0 0 1
33.509213 16.490186 -7.285996 38.051009 0.457315 1.763466 0.059956 -0.007329 -181944.000000 0 0 1
32.385693 16.753986 -8.272996 37.389459 0.477413 1.793908 0.057523 -0.014240 -411595.000000 0 0 1
32.083703 15.690486 -9.091596 36.853934 0.454848 1.820062 0.061555 -0.015149 -30789.600000 0 0 1
31.244663 16.140786 -10.142396 36.600849 0.476834 1.851579 0.048675 -0.019243 -445437.000000 0 0 1
30.850623 14.925386 -11.013896 35.997694 0.450600 1.881744 0.043738 -0.012093 703604.000000 0 0 1
29.625033 14.253086 -10.652096 34.558070 0.448427 1.884136 0.041589 -0.005392 812065.000000 0 0 1
29.691123 13.671786 -9.376996 34.006008 0.431524 1.850161 0.057604 -0.005772 -605718.000000 0 0 1
28.649803 12.578986 -9.117696 32.591018 0.413719 1.854342 0.040335 0.006851 12234.800000 0 0 1
29.047783 11.477086 -9.885996 32.760191 0.376284 1.877343 0.049539 0.001747 271012.000000 0 0 1
28.043763 10.502386 -9.891896 31.537317 0.358332 1.889838 0.049917 0.002054 -487591.000000 0 0 1
28.494813 9.104486 -10.449796 31.686658 0.309262 1.906873 0.057935 -0.001874 -862975.000000 0 0 1
29.469883 8.653286 -9.597096 32.178527 0.285604 1.873650 0.066600 -0.006206 -223717.000000 0 0 1
29.770883 7.231186 -9.881596 32.190705 0.238280 1.882805 0.067377 -0.005783 -64941.600000 0 0 1
30.862613 6.640586 -8.964196 32.816994 0.211935 1.847470 0.089272 -0.010467 208287.000000 0 0 1
32.166813 7.099286 -9.240196 34.212351 0.217220 1.844276 0.088848 -0.017194 -71624.600000 0 0 1
33.137223 6.709086 -8.302996 34.814180 0.199763 1.811612 0.100278 -0.018944 -677683.000000 0 0 1
34.545643 7.119986 -8.691296 36.326771 0.203258 1.812393 0.096998 -0.027717 -710245.000000 0 0 1
34.868063 6.324786 -9.812896 36.770609 0.179441 1.840938 0.100049 -0.026616 -754072.000000 0 0 1
-35.805611 6.399186 -10.084996 37.745179 -0.176853 1.841268 0.091124 -0.030447 -2076710.000000 0 0 1
-35.378429 5.179686 -10.982096 37.404129 -0.145375 1.868794 0.088251 -0.031173 502556.000000 0 0 1
-33.985230 4.934586 -11.248796 36.136982 -0.144190 1.887338 0.072084 -0.031489 1147130.000000 0 0 1
-33.384960 5.873586 -12.117796 35.998550 -0.174153 1.914120 0.054841 -0.030127 -679064.000000 0 0 1
-32.602410 7.018386 -11.451296 35.260560 -0.212036 1.901557 0.046530 -0.016210 -1228310.000000 0 0 1
-33.361380 7.984186 -10.827496 35.971706 -0.234906 1.876538 0.058595 -0.022344 -376183.000000 0 0 1
-33.494220 9.231486 -11.450896 36.581500 -0.268937 1.889172 0.063993 -0.023910 -76080.700000 0 0 1
-34.315709 10.213586 -10.578396 37.333466 -0.289286 1.858081 0.085263 -0.014899 -148626.000000 0 0 1
-33.655500 10.623386 -9.420396 36.527974 -0.305753 1.831640 0.047156 -0.006368 -309100.000000 0 0 1
-34.434544 11.446386 -8.619696 37.296873 -0.320919 1.804015 0.062705 -0.006326 -356191.000000 0 0 1
-33.613660 12.406686 -7.741396 36.656967 -0.353585 1.783583 0.077562 -0.001466 -399380.000000 0 0 1
-33.006560 13.426686 -8.477596 36.627566 -0.386345 1.804368 0.048849 -0.006474 -254909.000000 0 0 1
-32.444450 14.357786 -7.595896 36.283412 -0.416628 1.781705 0.047469 -0.004289 -93356.500000 0 0 1
-31.605150 15.500586 -8.220096 36.148633 -0.455974 1.800200 0.031767 -0.005831 379097.000000 0 0 1
-32.433860 16.393086 -8.991796 37.437160 -0.467983 1.813351 0.025233 -0.008362 364756.000000 0 0 1
-31.732330 17.596186 -9.301696 37.457818 -0.506306 1.821747 0.028010 -0.003227 222318.000000 0 0 1
-32.530200 18.529086 -10.206896 38.803630 -0.517764 1.836968 0.012006 -0.012420 -29509.900000 0 0 1
-32.471860 18.130986 -11.584796 38.953329 -0.509239 1.872767 0.001206 -0.016810 -243470.000000 0 0 1
-33.340880 18.873386 -12.387096 40.264863 -0.515100 1.883508 0.007080 -0.016974 -608121.000000 0 0 1
-32.917430 18.935886 -13.840596 40.418895 -0.522025 1.920297 -0.000598 -0.011686 381508.000000 0 0 1
-31.841630 19.873886 -14.016396 40.066446 -0.557986 1.928185 0.006806 -0.020169 496978.000000 0 0 1
-31.782470 20.145886 -15.383596 40.652640 -0.564951 1.958880 -0.000448 -0.013740 -286380.000000 0 0 1
-30.904260 21.402286 -15.657896 40.722240 -0.605698 1.965468 0.030980 -0.024188 366458.000000 0 0 1
-29.534340 21.038586 -15.398896 39.395753 -0.618962 1.972381 0.028728 -0.022896 568375.000000 0 0 1
-28.803960 22.197586 -15.038296 39.351637 -0.656583 1.962920 0.037574 -0.025368 349206.000000 0 0 1
-28.031280 22.921186 -16.226296 39.679039 -0.685441 1.992087 0.024063 -0.024573 297958.000000 0 0 1
-29.023340 23.501786 -17.100696 41.074591 -0.680661 2.000204 0.034809 -0.013551 942811.000000 0 0 1
-28.488580 24.276886 -18.201296 41.620351 -0.705748 2.023410 0.016137 -0.011754 10607.000000 0 0 1
-27.618020 25.543886 -17.912296 41.666479 -0.746403 2.015175 0.021463 -0.003146 298148.000000 0 0 1
-28.300380 26.747686 -17.590596 42.729139 -0.757199 1.995090 0.033348 0.000805 33911.400000 0 0 1
-27.426100 27.853986 -17.603096 42.870789 -0.793138 1.993917 0.036726 -0.000321 -55284.900000 0 0 1
-28.104990 29.176186 -17.230696 44.023144 -0.804097 1.972950 0.035957 0.002987 -289689.000000 0 0 1
-28.529470 29.375586 -15.895696 43.926403 -0.800009 1.941071 0.037649 -0.005501 606959.000000 0 0 1
-27.537120 29.335186 -14.844696 42.886025 -0.817003 1.924253 0.038955 -0.000791 143968.000000 0 0 1
-27.831480 30.202786 -13.611596 43.267483 -0.826236 1.890823 0.037986 -0.002710 -173034.000000 0 0 1
-27.303150 31.526486 -13.648496 43.882374 -0.857064 1.887067 0.038881 0.002582 -27899.600000 0 0 1
-27.665490 32.255986 -12.528796 44.303484 -0.861857 1.857503 0.021203 -0.001961 -82957.900000 0 0 1
-27.085440 33.740886 -12.466696 45.027625 -0.894382 1.851329 0.005767 -0.000549 14171.200000 0 0 1
-27.606400 -34.105797 -13.438396 45.890187 0.890329 1.867990 -0.014386 -0.008599 -30720.700000 0 0 1
-26.907830 -32.876397 -13.456796 44.564270 0.884904 1.877548 0.017969 -0.006786 -424583.000000 0 0 1
-27.044800 -32.178397 -14.826296 44.572295 0.871864 1.909892 0.017262 -0.009544 -53098.700000 0 0 1
-26.352270 -32.757597 -15.932596 44.959425 0.893340 1.933044 0.012565 -0.016179 130598.000000 0 0 1
-26.749320 -32.136497 -17.147496 45.192004 0.876629 1.959984 0.014911 -0.005600 -77507.700000 0 0 1
-26.098510 -32.658597 -18.469396 45.703772 0.896585 1.986803 0.013156 -0.003815 -201056.000000 0 0 1
-26.509050 -33.977397 -18.807796 47.020490 0.908248 1.982304 0.014377 -0.003892 37576.900000 0 0 1
-25.717070 33.763486 -18.198096 46.179123 -0.919860 1.975859 -0.000287 -0.008451 -559402.000000 0 0 1
-25.783610 32.343586 -18.906396 45.479159 -0.897778 1.999526 0.014471 -0.013388 908689.000000 0 0 1
-27.099360 31.765286 -18.909596 45.836465 -0.864498 1.996042 0.035082 -0.012480 875386.000000 0 0 1
-27.979050 32.200886 -19.935296 47.086520 -0.855437 2.007965 0.041557 -0.006826 515185.000000 0 0 1
-29.483670 31.818186 -19.769296 47.670839 -0.823462 1.998414 0.039714 -0.015623 580960.000000 0 0 1
-29.766470 30.530386 -20.279096 47.216406 -0.798067 2.014727 0.029674 -0.010310 -158336.000000 0 0 1
-31.157400 30.369586 -20.272196 48.000597 -0.772594 2.006813 0.035824 -0.011611 -462194.000000 0 0 1
-31.608030 29.061586 -20.910996 47.758906 -0.743450 2.023997 0.034191 -0.011307 -696607.000000 0 0 1
-32.990190 28.938586 -21.056896 48.674298 -0.720068 2.018180 0.038721 -0.016758 -468978.000000 0 0 1
-33.264000 27.677886 -21.631996 48.378739 -0.693991 2.034360 0.034711 -0.010928 587674.000000 0 0 1
-34.735351 27.187686 -21.881596 49.239407 -0.664109 2.031292 0.028061 -0.006671 905899.000000 0 0 1
-35.457308 27.928386 -22.862396 50.595500 -0.667173 2.039653 0.030638 -0.004822 -908318.000000 0 0 1
35.544813 27.210586 -23.382296 50.503282 0.653366 2.052157 0.035906 -0.010061 -523653.000000 0 0 1
34.745453 27.798486 -24.640096 50.863903 0.674778 2.076510 0.046510 -0.013244 128435.000000 0 0 1
35.522713 27.883686 -25.773696 51.996601 0.665499 2.089414 0.054472 -0.013792 -686154.000000 0 0 1
34.737083 28.228286 -26.882956 52.212971 0.682393 2.111654 0.079011 -0.010520 -72630.700000 0 0 1
35.431903 28.300386 -28.257966 53.430742 0.673964 2.128066 0.081666 -0.014757 35026.500000 0 0 1
35.880993 27.143086 -28.866946 53.455527 0.647632 2.141255 0.061322 0.000604 -560960.000000 0 0 1
-35.345692 27.510986 -29.935496 53.873057 -0.661394 2.159962 0.040680 0.000702 -705250.000000 0 0 1
-34.867910 26.236786 -30.764926 53.391205 -0.645075 2.184889 0.028750 0.001621 700070.000000 0 0 1
-33.943300 25.347786 -30.113606 51.975833 -0.641430 2.188761 0.032124 0.002781 29126.100000 0 0 1
-32.626660 25.851886 -30.180166 51.416548 -0.670062 2.198112 0.020036 0.014967 -381657.000000 0 0 1
-31.628960 25.136686 -29.261156 49.884460 -0.671523 2.197624 0.002113 0.015831 -343219.000000 0 0 1
-31.418540 23.784986 -29.626496 49.300908 -0.647989 2.215463 0.021412 0.012705 -305145.000000 0 0 1
-31.947620 22.828886 -28.802846 48.697150 -0.620439 2.203676 0.020337 0.009645 -412738.000000 0 0 1
-31.693500 21.396386 -29.295476 48.171654 -0.593821 2.224521 0.013925 0.006483 282603.000000 0 0 1
-30.298860 21.120886 -29.352156 47.176921 -0.608767 2.242310 0.049071 0.002289 377800.000000 0 0 1
-30.195900 19.840286 -29.924686 46.913923 -0.581317 2.262517 0.045842 -0.011313 -31390.800000 0 0 1
-28.766710 19.266586 -30.007826 45.816968 -0.590136 2.284913 0.072232 -0.021053 431956.000000 0 0 1
-27.923980 19.892086 -31.023936 46.237738 -0.618977 2.306307 0.088926 -0.028310 2349890.000000 0 0 1
-26.599640 19.315286 -31.315076 45.401048 -0.628061 2.331931 0.093940 -0.038087 1762110.000000 0 0 1
-26.516140 17.893986 -31.945716 45.208729 -0.593635 2.355516 0.090632 -0.033253 -566461.000000 0 0 1
-26.853340 16.794486 -31.119886 44.402747 -0.558898 2.347392 0.065407 -0.027775 135748.000000 0 0 1
-27.092090 15.565586 -31.872596 44.633297 -0.521491 2.366133 0.037211 -0.011678 -127798.000000 0 0 1
-27.583740 14.396586 -31.019416 43.935505 -0.481032 2.354661 0.035068 -0.005665 362423.000000 0 0 1
-28.980750 14.351786 -30.718536 44.603656 -0.459815 2.330491 0.023894 -0.003384 800693.000000 0 0 1
-29.572680 13.044986 -30.642526 44.538517 -0.415442 2.329527 0.019427 0.002546 61816.300000 0 0 1
-29.197640 12.096886 -29.473066 43.214563 -0.392782 2.321313 -0.004069 -0.003421 -280114.000000 0 0 1
-29.759570 12.560086 -28.259916 42.918652 -0.399371 2.289558 -0.001193 0.001507 382093.000000 0 0 1
-29.609040 11.579386 -27.260416 41.879682 -0.372790 2.279595 0.002952 0.000004 50117.100000 0 0 1
-29.642070 12.182986 -25.829226 41.160982 -0.389956 2.249157 -0.005807 -0.004397 1228870.000000 0 0 1
-28.329840 12.715886 -25.495056 40.177998 -0.421898 2.258226 -0.007375 -0.007585 1031600.000000 0 0 1
-28.219510 13.397986 -24.265596 39.555859 -0.443267 2.231220 -0.005941 0.000045 -442231.000000 0 0 1
-26.765270 13.626086 -23.855096 38.355124 -0.470898 2.242031 0.008394 0.003309 -1343320.000000 0 0 1
-26.050460 14.459286 -24.730496 38.720729 -0.506711 2.263589 0.022673 0.000985 1345090.000000 0 0 1
-24.627840 14.527286 -24.411096 37.596199 -0.532940 2.277456 0.038731 -0.006326 1638530.000000 0 0 1
-24.216240 15.035386 -22.995496 36.623517 -0.555631 2.249634 0.040363 -0.004056 -1385330.000000 0 0 1
-24.653840 16.348086 -22.873496 37.393430 -0.585533 2.229002 0.058671 -0.006765 187218.000000 0 0 1
-24.715940 16.594686 -21.473996 36.706863 -0.591284 2.195693 0.057641 -0.000139 -1324160.000000 0 0 1
-26.113830 16.869886 -21.015396 37.525619 -0.573568 2.165216 0.041072 -0.007256 -1124810.000000 0 0 1
-26.938270 15.717586 -21.158896 37.688351 -0.528174 2.166894 0.029479 -0.003314 166492.000000 0 0 1
-28.048800 15.817586 -20.284996 38.058012 -0.513476 2.132941 0.017744 -0.000902 -460584.000000 0 0 1
-29.093640 14.645686 -20.503996 38.488308 -0.466362 2.132623 -0.002254 -0.007969 273120.000000 0 0 1
-29.850360 14.626986 -21.692796 39.693452 -0.455624 2.148985 -0.011683 -0.000229 366706.000000 0 0 1
-30.548640 15.802486 -22.035296 40.847182 -0.477383 2.140588 0.000886 0.000847 -809076.000000 0 0 1
-31.024140 15.847786 -23.508496 42.027360 -0.472267 2.164412 -0.002098 0.007316 -646089.000000 0 0 1
-32.002070 14.950686 -23.870996 42.631913 -0.437048 2.165101 0.003444 0.006313 -376885.000000 0 0 1
-32.383280 15.176486 -25.270526 43.790434 -0.438256 2.185943 0.024231 -0.002896 329974.000000 0 0 1
-33.691820 14.458986 -25.728146 44.789938 -0.405384 2.182689 0.012622 0.002129 261058.000000 0 0 1
-33.733460 12.987786 -25.545796 44.263039 -0.367519 2.186014 0.027875 -0.001749 -11754.200000 0 0 1
-33.748880 12.348486 -24.275996 43.368145 -0.350763 2.164899 0.014398 0.002528 -294726.000000 0 0 1
-33.799850 10.829686 -24.437696 43.091913 -0.310071 2.173785 0.019045 0.000729 124735.000000 0 0 1
-34.998927 10.389186 -25.057396 44.280167 -0.288558 2.172300 0.034593 -0.007606 246151.000000 0 0 1
-34.726053 9.202086 -25.805896 44.232584 -0.259037 2.193722 0.034132 -0.005544 -589385.000000 0 0 1
-35.886819 8.626986 -26.587906 45.488520 -0.235918 2.195056 0.048740 -0.003371 -221672.000000 0 0 1
35.225613 7.968986 -25.686026 44.318399 0.222482 2.189009 0.024276 0.004214 -410131.000000 0 0 1
34.141903 7.471386 -26.376736 43.786109 0.215437 2.217300 0.033279 0.002704 -273378.000000 0 0 1
33.228393 6.583586 -25.404546 42.342186 0.195598 2.214275 0.030919 -0.004946 239822.000000 0 0 1
33.787173 5.370786 -24.952996 42.344662 0.157640 2.200968 0.029283 -0.010888 -289485.000000 0 0 1
32.862713 4.478886 -24.390296 41.169222 0.135456 2.204881 0.031537 -0.006021 -109836.000000 0 0 1
33.489583 3.415886 -23.409996 41.003029 0.101647 2.178439 0.027105 -0.006785 -3542.190000 0 0 1
34.149193 2.376686 -24.078096 41.851771 0.069485 2.183790 0.028398 -0.008426 28565.400000 0 0 1
35.129633 1.858386 -23.197196 42.138517 0.052852 2.153758 0.045485 -0.013739 22847.400000 0 0 1
35.946503 0.688986 -23.727496 43.076906 0.019165 2.154139 0.066807 -0.016303 180939.000000 0 0 1
35.076923 -0.348014 -24.102096 42.560812 -0.009921 2.172803 0.032440 -0.013986 270716.000000 0 0 1
35.888863 -1.493914 -24.107296 43.259727 -0.041602 2.161889 0.050599 -0.021360 410827.000000 0 0 1
-22.773340 29.660086 27.061812 46.159370 -0.915993 0.944351 0.039051 -0.017589 249203.000000 0 0 1
-24.213140 29.760486 26.963722 46.893550 -0.887817 0.958194 0.027924 -0.023236 1354670.000000 0 0 1
-24.554640 29.406386 25.650002 46.104105 -0.875069 0.980810 0.021566 -0.017164 -178132.000000 0 0 1
-24.935440 27.913486 25.539052 45.312052 -0.841689 0.972027 0.021069 -0.016983 322672.000000 0 0 1
-26.099270 27.454186 26.295582 46.112492 -0.810693 0.963988 0.020658 -0.015658 913539.000000 0 0 1
-26.059570 27.225786 27.731672 46.790921 -0.807281 0.936424 0.031096 -0.024738 -1034090.000000 0 0 1
-25.260300 25.965586 28.135252 45.868146 -0.799165 0.910445 0.030778 -0.022580 147087.000000 0 0 1
-23.885140 26.090286 28.404942 45.365666 -0.829494 0.894213 0.037825 -0.023942 -208193.000000 0 0 1
-23.657440 26.671486 29.689162 46.394924 -0.845214 0.876399 0.039665 -0.028960 -375675.000000 0 0 1
-22.299940 26.381886 30.343302 45.978334 -0.869052 0.850047 0.049324 -0.024003 -551941.000000 0 0 1
-21.140640 26.801786 29.684432 45.237461 -0.902936 0.855036 0.050642 -0.020355 276490.000000 0 0 1
-19.963540 26.200086 30.232782 44.710274 -0.919682 0.828213 0.065880 -0.021502 443323.000000 0 0 1
-19.511840 24.882786 29.603502 43.315497 -0.905795 0.818333 0.071755 -0.029057 -860938.000000 0 0 1
-18.816340 24.964686 28.427122 42.253893 -0.924920 0.832851 0.059335 -0.022759 -341484.000000 0 0 1
-19.233440 24.059186 27.419832 41.238536 -0.896408 0.843426 0.057570 -0.018449 -324578.000000 0 0 1
-19.045440 22.553886 27.631442 40.433936 -0.869538 0.818424 0.041837 -0.013690 -151467.000000 0 0 1
-19.855440 22.047086 28.672632 41.260542 -0.837654 0.802493 0.049241 -0.015837 78521.300000 0 0 1
-19.876640 20.638486 28.705932 40.559321 -0.804200 0.784486 0.055191 -0.015013 108684.000000 0 0 1
-20.285440 20.102086 30.118742 41.505802 -0.780858 0.758816 0.058278 -0.018056 -81530.500000 0 0 1
-19.319740 20.335186 31.114332 41.891214 -0.811000 0.733641 0.054183 -0.021544 -52310.900000 0 0 1
-19.801340 20.061486 32.385162 42.934311 -0.791924 0.716216 0.056339 -0.019451 -524914.000000 0 0 1
-18.983140 20.669286 33.522878 43.719130 -0.827896 0.696989 0.051855 -0.023543 -769928.000000 0 0 1
-19.061340 22.051886 33.731443 44.580608 -0.858010 0.712639 0.038112 -0.019751 107629.000000 0 0 1
-18.224840 22.813286 32.893078 43.983468 -0.896745 0.725977 0.046350 -0.010794 473369.000000 0 0 1
-16.700740 22.867786 33.256408 43.678817 -0.940012 0.705349 0.037543 -0.008232 512807.000000 0 0 1
-16.027340 21.614286 33.100886 42.658196 -0.932747 0.682567 0.039257 -0.027219 489309.000000 0 0 1
-14.715340 21.723486 33.685588 42.698594 -0.975404 0.661754 0.024130 -0.022182 262667.000000 0 0 1
-13.840440 20.496486 33.377678 41.541944 -0.976869 0.637696 0.013647 -0.018107 -45734.000000 0 0 1
-12.492340 20.477886 33.806774 41.452387 -1.023027 0.617106 0.009950 -0.016240 293614.000000 0 0 1
-12.310540 20.368686 -33.298456 40.929451 -1.027158 2.521040 0.020784 -0.019359 -935977.000000 0 0 1
-10.815940 20.345886 -32.981036 40.232927 -1.082187 2.531775 0.014922 -0.015884 -198192.000000 0 0 1
-10.123640 21.578086 -33.043436 40.742736 -1.132121 2.516701 0.025443 -0.021388 300805.000000 0 0 1
-8.745840 21.343286 -32.757006 40.063038 -1.181896 2.528090 0.012324 -0.010420 -152300.000000 0 0 1
-7.878140 22.567386 -32.864176 40.637496 -1.234929 2.512762 0.014556 -0.013553 -437381.000000 0 0 1
-7.887840 23.572186 -31.813886 40.373126 -1.247884 2.478345 0.030951 -0.013288 -156235.000000 0 0 1
-7.300340 23.189586 -30.634616 39.109226 -1.265807 2.470768 0.025305 -0.010319 -419942.000000 0 0 1
-7.033540 24.417386 -29.702446 39.088550 -1.290334 2.433918 0.044046 -0.012584 197246.000000 0 0 1
-6.090140 25.358586 -30.202346 39.904002 -1.335099 2.429315 0.032129 -0.010804 302202.000000 0 0 1
-5.776440 26.404186 -29.260166 39.833474 -1.355420 2.395818 0.053402 -0.003453 66978.500000 0 0 1
-4.455040 27.167186 -29.525276 40.368866 -1.408257 2.391150 0.034631 -0.007659 -79663.000000 0 0 1
-3.301040 26.393286 -29.249166 39.534999 -1.446371 2.403614 0.031199 -0.002025 1463180.000000 0 0 1
-2.060240 26.879186 -29.859586 40.228474 -1.494298 2.407218 0.035229 -0.002924 1750340.000000 0 0 1
-1.374840 28.127986 -29.184166 40.556002 -1.521957 2.374025 0.031867 -0.005213 -361204.000000 0 0 1
-0.681040 27.999386 -27.971626 39.583346 -1.546478 2.355551 0.046828 -0.016751 256628.000000 0 0 1
-0.034540 29.254786 -27.677836 40.272898 -1.569616 2.328503 0.043739 -0.013204 -316165.000000 0 0 1
0.591560 29.288586 -26.236196 39.325681 1.550601 2.301175 0.055264 -0.027639 52107.500000 0 0 1
1.688660 28.474986 -25.981856 38.584106 1.511562 2.309571 0.076224 -0.035320 -403530.000000 0 0 1
2.923260 28.790086 -26.570476 39.286190 1.469606 2.313567 0.066609 -0.036497 -798328.000000 0 0 1
4.074760 28.604186 -25.588376 38.594923 1.429295 2.295613 0.071903 -0.042697 -520240.000000 0 0 1
4.376960 27.259786 -25.242536 37.409081 1.411590 2.311450 0.075698 -0.032996 -90661.400000 0 0 1
5.494960 27.321086 -24.396296 37.038029 1.372319 2.289863 0.044705 -0.025804 -912712.000000 0 0 1
5.938260 25.997486 -23.785296 35.733353 1.346232 2.299138 0.053620 -0.025252 -19699.600000 0 0 1
7.014060 26.287486 -22.882496 35.550493 1.310050 2.270070 0.046725 -0.027139 -70904.300000 0 0 1
7.713260 25.117386 -22.549196 34.624322 1.272849 2.280031 0.039556 -0.021306 880167.000000 0 0 1
9.201760 25.415686 -22.124796 34.930446 1.223427 2.256730 0.032797 -0.008622 231517.000000 0 0 1
9.401860 26.082886 -20.870496 34.702875 1.224833 2.216055 0.037295 -0.009970 443984.000000 0 0 1
10.776860 26.379586 -20.601096 35.162884 1.182958 2.196757 0.047929 -0.012654 841213.000000 0 0 1
11.575060 25.153886 -20.047096 34.184588 1.139517 2.197449 0.033144 -0.001697 -342254.000000 0 0 1
11.963560 24.289886 -21.085896 34.318222 1.113140 2.232450 0.034303 -0.010730 -117725.000000 0 0 1
12.080060 22.911386 -20.603196 33.096089 1.085586 2.242763 0.028376 0.001981 -415835.000000 0 0 1
12.245160 21.854586 -21.731196 33.163410 1.060078 2.285345 0.038164 0.001914 465235.000000 0 0 1
11.021260 21.625386 -22.426296 33.046395 1.099463 2.316693 0.042376 -0.008897 495550.000000 0 0 1
11.141460 20.452786 -23.163496 32.848077 1.072000 2.353460 0.051180 -0.007138 -237436.000000 0 0 1
10.355360 20.357786 -24.477196 33.478442 1.100238 2.390778 0.060562 -0.006362 -914479.000000 0 0 1
8.987460 20.310486 -24.275296 32.902588 1.154194 2.400591 0.042538 -0.010422 -1039130.000000 0 0 1
8.360860 20.306186 -25.533446 33.677916 1.180211 2.431292 0.042965 -0.012348 550005.000000 0 0 1
6.784160 20.249886 -25.513836 33.272189 1.247527 2.444671 0.033228 -0.017638 1188040.000000 0 0 1
6.159860 21.512686 -25.134316 33.652242 1.291922 2.414160 0.048156 -0.017968 278297.000000 0 0 1
6.209860 21.789486 -23.740296 32.816851 1.293163 2.379536 0.049955 -0.016058 -741187.000000 0 0 1
4.817860 22.120786 -23.189996 32.408592 1.356347 2.368209 0.064012 -0.020117 -248.888000 0 0 1
4.262760 23.304186 -23.828596 33.601461 1.389878 2.359093 0.063891 -0.023355 -1008380.000000 0 0 1
2.938060 23.509986 -23.523696 33.387362 1.446470 2.352612 0.082503 -0.018293 -1015920.000000 0 0 1
2.381160 24.715286 -24.338096 34.768638 1.474749 2.346196 0.068915 -0.013363 -376667.000000 0 0 1
0.982860 24.626486 -24.448796 34.715608 1.530907 2.352176 0.089318 -0.032613 -292032.000000 0 0 1
0.602960 25.387786 -25.607196 36.064272 1.547051 2.360356 0.076840 -0.016062 297335.000000 0 0 1
-0.861340 25.286186 -26.101296 36.351214 -1.536746 2.371765 0.088804 -0.016817 304657.000000 0 0 1
-1.097240 23.949986 -26.512446 35.745147 -1.525015 2.406409 0.092801 -0.021878 -433906.000000 0 0 1
-2.358340 23.842586 -27.109746 36.179677 -1.472204 2.417814 0.082881 -0.009110 -181260.000000 0 0 1
-2.794640 22.387886 -27.469036 35.546806 -1.446610 2.453970 0.067673 -0.005838 -37410.500000 0 0 1
-2.071340 21.758986 -28.546356 35.953280 -1.475888 2.488132 0.071757 -0.015482 228639.000000 0 0 1
-2.620840 20.493586 -28.984966 35.594721 -1.443601 2.522327 0.056514 -0.013993 -588044.000000 0 0 1
-3.904940 20.445786 -29.799296 36.349371 -1.382079 2.531862 0.046780 -0.014959 -647465.000000 0 0 1
-3.930940 20.917686 -31.130476 37.710853 -1.385039 2.541892 0.039342 -0.013105 -156378.000000 0 0 1
-3.543240 22.284486 -31.282036 38.570956 -1.413116 2.516700 0.044466 -0.018067 -235790.000000 0 0 1
-3.392340 22.556586 -32.753846 39.913932 -1.421523 2.533277 0.036148 -0.013462 -657323.000000 0 0 1
-2.337440 21.833586 -33.271926 39.864648 -1.464145 2.558243 0.036329 -0.010194 -509239.000000 0 0 1
-2.045440 22.061286 33.895146 40.494013 -1.478344 0.578944 0.040941 -0.000153 -531398.000000 0 0 1
-0.796640 21.336986 33.416360 39.655450 -1.533478 0.568578 0.057857 0.003988 -402224.000000 0 0 1
-0.955040 19.959686 33.329305 38.860568 -1.522984 0.540087 0.043037 0.014360 -306760.000000 0 0 1
0.127160 19.391986 32.647930 37.973051 1.564239 0.535985 0.050978 0.005325 -262322.000000 0 0 1
-0.147340 17.972286 32.094732 36.784462 -1.562598 0.510485 0.047547 0.009785 9245.290000 0 0 1
-0.960440 18.041286 30.938072 35.827012 -1.517611 0.528548 0.030016 0.009483 179964.000000 0 0 1
-1.314740 16.688786 30.592982 34.873696 -1.492179 0.500691 0.029503 0.006226 454660.000000 0 0 1
-2.459840 16.543186 29.532802 33.939862 -1.423186 0.515288 0.030302 0.013155 752930.000000 0 0 1
-3.800840 16.793286 29.908382 34.510465 -1.348215 0.522355 0.016816 0.006397 401758.000000 0 0 1
-4.293240 18.097086 29.448572 34.830372 -1.337869 0.563323 0.018717 0.009232 1149550.000000 0 0 1
-5.853540 18.276786 29.616392 35.290729 -1.260847 0.574964 0.000177 0.002602 740864.000000 0 0 1
-6.499340 17.544686 28.665432 34.231045 -1.216025 0.578268 -0.003841 0.003725 -416583.000000 0 0 1
-7.869940 17.935286 28.633742 34.691521 -1.157298 0.599919 -0.006798 0.009236 -119271.000000 0 0 1
-8.632540 17.050486 27.603722 33.573878 -1.102127 0.605569 -0.006375 0.000468 -59393.100000 0 0 1
-9.011640 15.709086 28.042532 33.382161 -1.049971 0.573429 0.005271 -0.013458 524373.000000 0 0 1
-9.733640 15.601386 29.304652 34.596382 -1.012991 0.560398 -0.000579 -0.011084 -361404.000000 0 0 1
-10.356840 14.268586 29.618182 34.468731 -0.942932 0.536942 0.002931 -0.016161 -36228.700000 0 0 1
-9.444340 13.208286 29.918932 34.041106 -0.950053 0.497233 0.016887 -0.014777 694288.000000 0 0 1
-8.731040 13.212486 31.206532 34.994978 -0.986854 0.469614 0.008865 -0.012471 -7130.190000 0 0 1
-9.523240 12.849386 32.444227 36.172181 -0.932987 0.458000 0.027105 -0.021281 -764926.000000 0 0 1
-9.517940 11.414186 32.577886 35.807730 -0.875742 0.427993 0.008241 -0.015367 303066.000000 0 0 1
-10.099140 11.064886 33.812440 36.982502 -0.830998 0.417064 0.010376 -0.009028 -195555.000000 0 0 1
-10.288140 9.540486 33.991576 36.773550 -0.747710 0.391472 0.009804 0.002852 -745337.000000 0 0 1
-9.088340 8.827386 33.981221 36.266294 -0.770834 0.356879 0.013790 0.000890 -459350.000000 0 0 1
-8.817340 8.097786 -33.336636 35.421052 -0.742885 2.796823 0.039642 -0.009236 11079.200000 0 0 1
-8.091240 8.951686 -32.245066 34.428842 -0.835842 2.783512 0.043978 -0.012413 -193065.000000 0 0 1
-8.878340 9.933686 -31.607126 34.300342 -0.841439 2.742674 0.031224 -0.007134 466343.000000 0 0 1
-8.019640 10.733886 -30.786736 33.576094 -0.929133 2.731100 0.030156 -0.010451 769876.000000 0 0 1
-7.087640 11.781286 -31.451896 34.325721 -1.029200 2.729483 0.015660 -0.005914 -107935.000000 0 0 1
-7.845440 12.878586 -31.833886 35.225065 -1.023651 2.699196 0.011540 -0.010075 104597.000000 0 0 1
-6.996940 13.880486 -32.359476 35.899314 -1.103886 2.693778 0.001622 -0.011869 21235.100000 0 0 1
-7.662440 15.244086 -32.667816 36.854869 -1.105031 2.660286 -0.004534 -0.006874 -219303.000000 0 0 1
-8.373540 15.352786 -33.868356 38.116791 -1.071485 2.664953 0.008627 -0.014650 -58620.200000 0 0 1
-8.706640 16.741986 -33.927196 38.822086 -1.091239 2.633995 0.016958 -0.016233 -449059.000000 0 0 1
-9.125340 17.140986 33.129110 38.400823 -1.081590 0.530175 0.016567 -0.016033 503231.000000 0 0 1
-10.267640 16.582886 32.499670 37.903102 -1.016400 0.540521 -0.003521 -0.017274 1762300.000000 0 0 1
-11.594340 17.025086 32.965927 38.872029 -0.972926 0.558477 0.001492 -0.020053 1701980.000000 0 0 1
-12.667040 16.408986 31.989922 38.119075 -0.913390 0.574967 0.006248 -0.026877 -19400.500000 0 0 1
-12.766140 15.012886 32.233472 37.780389 -0.866102 0.548745 -0.003282 -0.026003 516351.000000 0 0 1
-13.987740 14.648586 32.876557 38.614841 -0.808471 0.552154 0.006437 -0.020335 81126.800000 0 0 1
-14.244840 13.174286 32.995238 38.277448 -0.746374 0.531590 0.005340 -0.005034 -170388.000000 0 0 1
-14.294340 12.605586 31.689632 36.979207 -0.722701 0.541458 -0.013519 -0.009327 1095670.000000 0 0 1
-13.024440 11.963786 31.378932 36.019517 -0.742977 0.513227 0.000161 0.001939 818736.000000 0 0 1
-12.864440 11.471486 29.929992 34.538287 -0.728222 0.522500 -0.000278 0.004627 -189320.000000 0 0 1
-13.540840 10.234586 29.648692 34.163519 -0.647222 0.519945 -0.011345 0.009778 17560.300000 0 0 1
-13.443040 9.829486 28.296692 32.833473 -0.631357 0.531940 -0.023131 0.012234 92982.000000 0 0 1
-14.345540 8.659986 27.805122 32.464053 -0.543114 0.542367 0.002300 0.013331 394396.000000 0 0 1
-14.035140 7.389786 28.373922 32.506516 -0.484638 0.509745 -0.027553 0.018019 88075.700000 0 0 1
-14.901240 6.517186 27.669322 32.095359 -0.412292 0.531402 -0.003357 0.024246 65837.200000 0 0 1
-14.534640 5.027786 27.709112 31.691155 -0.333033 0.506705 0.002845 0.021716 223178.000000 0 0 1
-13.467840 4.521286 26.925512 30.443521 -0.323888 0.485501 -0.002386 0.010574 -116686.000000 0 0 1
-13.798440 4.552486 25.507392 29.355564 -0.318682 0.517797 0.006804 0.004448 239115.000000 0 0 1
-12.592940 4.385786 24.516382 27.908247 -0.335136 0.498159 0.010766 0.009701 208990.000000 0 0 1
-11.953240 3.151686 24.735752 27.652677 -0.257801 0.463450 0.012287 -0.000219 -21173.800000 0 0 1
-11.128140 2.709686 23.681312 26.305559 -0.238850 0.450476 0.024414 -0.010960 57358.600000 0 0 1
-10.211840 1.481786 23.945282 26.074008 -0.144099 0.406884 0.035605 -0.011736 812093.000000 0 0 1
-8.985540 1.741186 24.646992 26.291556 -0.191404 0.355568 0.035841 -0.009072 578747.000000 0 0 1
-8.240640 0.546686 24.876742 26.211817 -0.066243 0.320538 0.031230 -0.012373 -321758.000000 0 0 1
-6.753440 0.912286 24.779142 25.699166 -0.134272 0.268386 0.043935 -0.016009 -777940.000000 0 0 1
-6.318440 1.088786 23.425952 24.287515 -0.170643 0.267152 0.036538 -0.010446 472994.000000 0 1 0
-4.918440 1.245786 23.209652 23.757757 -0.248072 0.215220 0.021789 -0.008767 449730.000000 0 1 0
-4.336440 2.642186 23.555832 24.096952 -0.547228 0.212323 0.035981 -0.008733 -567005.000000 0 1 0
-4.248240 2.953586 24.923492 25.454895 -0.607530 0.204691 0.045592 -0.011982 54130.000000 0 0 1
-3.949340 4.295886 25.237672 25.903514 -0.827403 0.227225 0.047516 -0.018914 13874.800000 0 0 1
4.169860 -23.284314 13.061704 27.021383 -1.393590 1.066280 0.054921 -0.006031 340946.000000 0 0 1
3.843560 -24.524514 13.611704 28.310832 -1.415338 1.069235 0.055999 -0.008703 -897407.000000 0 0 1
2.483860 -24.794914 13.466804 28.325115 -1.470953 1.075336 0.041888 -0.004591 -580608.000000 0 0 1
2.080660 -26.136994 13.969204 29.708757 -1.491358 1.081273 0.034633 -0.010345 -140795.000000 0 0 1
2.096960 -26.253164 15.362304 30.489773 -1.491091 1.042745 0.048548 -0.012780 36285.600000 0 0 1
2.456360 -27.562654 15.841104 31.885328 -1.481912 1.050872 0.044214 -0.013280 -426330.000000 0 0 1
2.055960 -27.881814 17.274604 32.863878 -1.497191 1.017328 0.033491 -0.011424 -190237.000000 0 0 1
2.715260 -27.097574 18.306704 32.814426 -1.470927 0.978960 0.050634 -0.010119 234905.000000 0 0 1
2.292360 -27.344244 19.626004 33.736369 -1.487159 0.949922 0.039358 -0.007466 -239831.000000 0 0 1
3.053760 -26.515564 20.663104 33.754473 -1.456133 0.912008 0.044287 -0.009814 -135765.000000 0 0 1
2.522560 -25.265674 20.850304 32.855026 -1.471285 0.883286 0.030388 -0.008083 1493.000000 0 0 1
3.503260 -24.504014 21.479504 32.773291 -1.428792 0.856089 0.052629 -0.012080 2368.120000 0 0 1
2.802060 -23.340114 22.144604 32.295448 -1.451315 0.815248 0.064268 -0.014766 1449.940000 0 0 1
2.119960 -22.404514 21.355204 31.024204 -1.476455 0.811598 0.061130 -0.015316 202513.000000 0 0 1
2.945560 -21.559514 20.543404 29.925247 -1.435012 0.814145 0.051998 -0.007202 61580.600000 0 0 1
2.146460 -20.452714 19.838904 28.574515 -1.466232 0.803368 0.030448 -0.016927 11713.700000 0 0 1
1.996660 -19.341514 20.642604 28.358383 -1.467929 0.755514 0.029147 -0.013923 1225350.000000 0 0 1
0.887060 -18.496914 20.132304 27.353836 -1.522876 0.743660 0.033670 -0.019540 1266190.000000 0 0 1
0.828660 -17.157914 20.868804 27.029385 -1.522538 0.688691 0.024790 -0.022690 -568194.000000 0 0 1
1.996760 -16.419914 20.859004 26.621395 -1.449785 0.670449 0.008375 -0.008364 -640014.000000 0 0 1
1.704060 -15.113614 21.335904 26.202022 -1.458521 0.619301 0.015997 -0.004660 -145806.000000 0 0 1
2.679260 -14.064314 20.872104 25.310632 -1.382551 0.601235 -0.009260 -0.009103 -814318.000000 0 0 1
2.671560 -13.739814 19.443204 23.957418 -1.378753 0.623956 -0.014831 -0.007585 708501.000000 0 1 0
1.421660 -13.287714 18.849204 23.105777 -1.464211 0.616722 0.000765 0.007853 1185650.000000 0 1 0
0.774160 -11.945914 19.314604 22.723514 -1.506081 0.554843 -0.011286 0.002837 533839.000000 0 1 0
1.719360 -10.848914 19.170104 22.094072 -1.413621 0.520324 -0.009126 0.009574 266425.000000 0 1 0
1.628660 -9.851614 20.220204 22.551352 -1.406959 0.458699 -0.005130 0.002567 1064790.000000 0 1 0
0.235560 -9.081114 20.360204 22.294843 -1.544863 0.419667 0.010400 0.000050 1433480.000000 0 1 0
0.039360 -8.237614 21.467204 22.993492 -1.566018 0.366406 0.016182 -0.005691 1074.290000 0 1 0
-1.275640 -7.696814 21.366604 22.746427 1.406553 0.350099 0.014801 -0.008740 567895.000000 0 1 0
-1.722740 -7.049314 22.739004 23.868870 1.331110 0.308916 0.022138 -0.004184 -34568.900000 0 1 0
-2.235540 -7.985814 23.683604 25.093504 1.297844 0.336809 0.023094 -0.003678 175171.000000 0 0 1
-2.151640 -7.372214 24.941504 26.097082 1.286826 0.298699 0.022100 0.002779 -60936.000000 0 0 1
-2.292640 -8.436314 26.040204 27.468524 1.305446 0.323899 0.028124 -0.004176 576874.000000 0 0 1
-1.120340 -9.231914 26.279504 27.876437 1.450032 0.340122 0.022409 -0.003769 504988.000000 0 0 1
-1.439840 -10.355114 27.056104 29.005763 1.432636 0.368736 0.026002 -0.007298 228574.000000 0 0 1
-0.224540 -11.310514 27.330004 29.578831 1.550947 0.392458 0.021156 -0.010114 1107310.000000 0 0 1
0.801560 -10.588314 28.069104 30.010489 -1.495238 0.361663 0.008629 -0.008016 885658.000000 0 0 1
1.846260 -11.455414 28.515004 30.785396 -1.411001 0.386455 0.024569 -0.011961 253401.000000 0 0 1
2.869260 -10.941314 29.565104 31.655021 -1.314330 0.365407 0.035906 -0.013168 101769.000000 0 0 1
2.398660 -10.830514 30.891804 32.823119 -1.352842 0.344750 0.031713 -0.012273 -450424.000000 0 0 1
3.351560 -10.316814 31.781004 33.581272 -1.256688 0.328923 0.046885 -0.010511 -625036.000000 0 0 1
2.832360 -10.080214 33.227804 34.838483 -1.296877 0.305265 0.033893 -0.010092 -276628.000000 0 0 1
2.710060 -11.234314 34.026504 35.935459 -1.334088 0.327411 0.037242 -0.017541 -9772.940000 0 0 1
2.110360 -11.129014 -33.191145 35.070795 -1.383395 2.812711 0.025508 -0.016684 -194137.000000 0 0 1
2.811860 -10.271014 -32.095645 33.816131 -1.303577 2.821233 0.028429 -0.004758 -187736.000000 0 0 1
2.782460 -8.873514 -32.379845 33.688807 -1.266938 2.861919 0.035169 -0.004601 -59062.300000 0 0 1
3.660160 -8.213914 -31.529045 32.786367 -1.151603 2.863756 0.035010 -0.005261 -248390.000000 0 0 1
3.202660 -6.784714 -31.282345 32.169465 -1.129765 2.906203 0.026120 -0.008708 35673.300000 0 0 1
3.286160 -5.920514 -32.398445 33.098498 -1.064087 2.935556 0.049774 -0.005400 19595.700000 0 0 1
3.207260 -4.551214 -32.018145 32.498641 -0.956920 2.969420 0.038849 -0.004805 -71546.100000 0 0 1
3.277660 -3.570314 -33.184045 33.536115 -0.828108 2.996564 0.034527 0.002812 -1366740.000000 0 0 1
2.106960 -3.303314 -33.832445 34.058560 -1.003023 3.026299 0.035680 -0.003361 -1144650.000000 0 0 1
2.296260 -2.278414 33.711604 33.866447 -0.781497 0.095662 0.046176 -0.009035 -124618.000000 0 0 1
1.754560 -2.728314 32.383304 32.545361 -0.999292 0.099836 0.035777 -0.015707 1079550.000000 0 0 1
0.320260 -2.816514 32.284104 32.408312 -1.457575 0.087579 0.035308 -0.014680 442945.000000 0 0 1
-0.111640 -3.650914 31.276804 31.489365 1.540227 0.116257 0.029627 -0.007218 -892163.000000 0 0 1
-1.606040 -3.769114 31.130104 31.398550 1.167990 0.130858 0.037770 -0.014092 -1140230.000000 0 0 1
-2.178740 -2.557914 30.720804 30.904006 0.865279 0.108940 0.048460 -0.018127 -63466.100000 0 0 1
-3.584640 -2.773814 30.670104 31.003209 0.658563 0.146721 0.037431 -0.014045 350149.000000 0 0 1
-4.420640 -1.696514 29.978404 30.350040 0.366438 0.156653 0.049489 -0.020523 -134096.000000 0 0 1
-4.097440 -1.614214 28.605304 28.942324 0.375286 0.152756 0.052210 -0.018994 -226760.000000 0 0 1
-4.964740 -0.851114 27.801304 28.253947 0.169781 0.179240 0.052482 -0.021370 29576.200000 0 0 1
-5.261240 0.681686 28.088704 28.585322 -0.128850 0.186675 0.060206 -0.022140 -287623.000000 0 0 1
-6.359440 0.889086 28.913204 29.617669 -0.138905 0.218541 0.057044 -0.021361 -761594.000000 0 0 1
-6.759040 2.256486 28.882704 29.748730 -0.322213 0.241883 0.063930 -0.020474 275724.000000 0 0 1
-8.185140 2.524286 29.443204 30.663835 -0.299144 0.283104 0.047715 -0.019796 442165.000000 0 0 1
-9.169540 2.177586 28.476604 29.995655 -0.233161 0.319611 0.033768 -0.008610 -938622.000000 0 0 1
-10.425640 2.581486 28.855404 30.789485 -0.242727 0.356329 0.009278 0.002187 -1057520.000000 0 0 1
-11.599240 1.972286 28.091404 30.455857 -0.168425 0.396639 -0.003072 0.005794 -193085.000000 0 0 1
-11.997340 0.723886 28.594904 31.018200 -0.060264 0.397904 0.000158 0.002196 -58050.800000 0 0 1
-12.428340 -0.089114 27.486904 30.166230 0.007170 0.424654 0.007695 0.004820 -915550.000000 0 0 1
-12.278540 -1.627814 27.751104 30.389737 0.131805 0.419792 0.004185 0.000160 99486.000000 0 0 1
-11.008940 -2.134714 28.112104 30.266221 0.191530 0.379560 0.022504 -0.008189 760149.000000 0 0 1
-9.848440 -1.909714 27.292004 29.077349 0.191533 0.352246 0.016756 -0.010288 314555.000000 0 0 1
-9.828340 -2.620914 25.896004 27.822086 0.260605 0.374279 0.016504 -0.009278 -642869.000000 0 0 1
-10.555340 -1.947514 24.890104 27.105816 0.182453 0.407140 0.011613 -0.012265 137309.000000 0 0 1
-10.610840 -2.537114 23.601004 26.000659 0.234699 0.433007 0.020436 -0.010210 6722.730000 0 0 1
-9.458540 -2.138314 22.632004 24.622022 0.222335 0.404810 0.031205 -0.020093 702046.000000 0 1 0
-8.191040 -2.644614 23.030704 24.586591 0.312301 0.357661 0.037257 -0.017455 -62979.500000 0 1 0
-7.199840 -2.303314 22.087504 23.345252 0.309623 0.329748 0.031027 -0.017841 359842.000000 0 1 0
-5.750840 -2.385814 22.670104 23.509527 0.393254 0.268031 0.032437 -0.014758 511953.000000 0 1 0
-5.110840 -3.628914 22.589604 23.443121 0.617434 0.270670 0.030624 -0.017409 -203398.000000 0 1 0
-5.495140 -4.510614 23.624004 24.670544 0.687318 0.292315 0.030646 -0.011188 -115898.000000 0 1 0
-5.620340 -5.996914 23.197904 24.610850 0.817802 0.340498 0.040336 -0.012302 106604.000000 0 1 0
-6.597640 -6.385914 22.238104 24.059136 0.769092 0.391572 0.048595 -0.017794 -65047.300000 0 1 0
-6.264140 -5.923214 20.892604 22.601434 0.757432 0.391356 0.043937 -0.019987 58585.100000 0 1 0
-7.426640 -5.784214 19.868804 21.985938 0.661709 0.442451 0.046356 -0.020777 17354.400000 0 1 0
-8.313540 -4.744814 20.188204 22.342600 0.518622 0.442756 0.047263 -0.021359 -466496.000000 0 1 0
-9.321340 -4.601314 19.223104 21.853768 0.458540 0.495725 0.049434 -0.019013 261535.000000 0 1 0
-9.978540 -3.236614 19.298304 21.965233 0.313651 0.497907 0.037876 -0.022921 656327.000000 0 1 0
-8.899040 -2.367914 18.906404 21.029789 0.260061 0.453248 0.029704 -0.021374 733529.000000 0 1 0
-9.233640 -0.987514 18.854804 21.017586 0.106542 0.457643 0.022957 -0.011322 -405749.000000 0 1 0
-8.056340 -0.045714 18.574304 20.246270 0.005674 0.409252 0.004106 -0.009881 -122653.000000 0 1 0
-7.118040 0.159386 19.619904 20.871812 -0.022388 0.348110 0.017395 0.003884 415269.000000 0 1 0
-7.623140 0.886786 20.722504 22.097982 -0.115808 0.354686 0.032280 0.005008 -471337.000000 0 1 0
-7.597140 2.409586 20.524104 22.017299 -0.307134 0.370405 0.034928 -0.001133 -105595.000000 0 1 0
-8.531140 2.718386 19.537704 21.491669 -0.308471 0.429719 0.028375 -0.009967 -69164.600000 0 1 0
-8.061140 3.826386 18.769204 20.782354 -0.443179 0.443788 0.021157 -0.021176 131376.000000 0 1 0
-9.014240 4.275586 17.635404 20.261901 -0.442889 0.514838 0.025898 -0.013247 192794.000000 0 1 0
-10.307240 4.632286 18.130204 21.363557 -0.422372 0.557367 0.020712 -0.003561 447555.000000 0 1 0
-11.195240 4.992786 17.081404 21.024644 -0.419501 0.622460 0.028276 0.000163 44654.500000 0 1 0
-11.448540 6.480486 16.919104 21.431795 -0.515085 0.660901 0.033490 -0.001418 541444.000000 0 1 0
-10.274540 7.299686 16.693504 20.917090 -0.617714 0.646695 0.026824 -0.003412 645817.000000 0 1 0
-10.599540 8.657386 16.810804 21.677262 -0.684883 0.683283 0.033423 -0.010085 288136.000000 0 1 0
-9.395240 9.615886 16.586504 21.350595 -0.797004 0.681127 0.025237 -0.011664 650529.000000 0 1 0
-8.505540 9.708286 17.726404 21.927618 -0.851337 0.629358 0.032040 -0.003269 473940.000000 0 1 0
-7.573540 10.804786 17.661404 22.046022 -0.959438 0.641640 0.033371 -0.014348 330121.000000 0 1 0
-8.162840 12.229386 17.515104 22.868509 -0.982233 0.698349 0.032406 -0.012019 -280904.000000 0 1 0
-8.481440 12.564886 16.148204 22.148943 -0.977039 0.753829 0.041463 -0.026483 -357790.000000 0 1 0
-8.899940 13.844886 16.000704 22.954571 -0.999476 0.799508 0.038046 -0.031414 -294554.000000 0 1 0
-8.841240 14.362786 14.553004 22.276603 -1.019010 0.858879 0.033129 -0.027052 312298.000000 0 1 0
-7.476040 14.515786 14.209004 21.644745 -1.095198 0.854674 0.036477 -0.024393 28790.700000 0 1 0
-7.317640 15.341986 13.079804 21.447742 -1.125743 0.914931 0.026392 -0.029010 -218224.000000 0 1 0
-6.554040 16.679986 13.316704 22.327382 -1.196401 0.931751 0.000687 -0.007269 -182152.000000 0 1 0
-5.172440 16.460386 13.391604 21.841096 -1.266331 0.910770 0.002051 -0.008148 -842114.000000 0 1 0
-4.471040 17.662686 13.415304 22.625893 -1.322869 0.936118 0.005237 -0.008521 1282850.000000 0 1 0
-2.892240 17.536386 13.244204 22.165261 -1.407340 0.930391 0.005034 -0.008498 1008310.000000 0 1 0
-2.096040 16.997186 14.249604 22.278889 -1.448099 0.876817 0.009981 -0.011520 -342587.000000 0 1 0
-2.353940 15.664186 14.629604 21.562306 -1.421637 0.825104 0.013049 -0.001419 -1067770.000000 0 1 0
-1.433740 15.147186 15.728704 21.883440 -1.476424 0.768795 0.004335 0.005696 -763062.000000 0 1 0
-0.187540 14.924186 15.115304 21.242384 -1.558231 0.779076 -0.000132 -0.002295 -227500.000000 0 1 0
0.738860 14.311886 16.036204 21.506646 1.519217 0.729302 0.004661 -0.003323 473612.000000 0 1 0
1.696460 15.220186 16.847704 22.767897 1.459793 0.737761 -0.000415 -0.000391 -190113.000000 0 1 0
1.051260 15.949286 17.907504 24.003407 1.504979 0.728701 -0.004378 0.006642 -104403.000000 0 1 0
1.849460 16.974186 18.490804 25.168498 1.462267 0.745601 0.002769 0.006076 -178448.000000 0 0 1
1.032060 18.235286 18.911804 26.291579 1.514260 0.767987 0.013525 -0.002587 437088.000000 0 0 1
0.413860 19.074286 17.916504 26.172519 1.549102 0.816805 0.010130 0.000289 -114362.000000 0 0 1
-0.672740 18.512186 17.238304 25.304401 -1.534472 0.821345 0.016776 0.002779 -942733.000000 0 0 1
-1.441940 19.647386 16.484504 25.687309 -1.497537 0.874035 0.008875 0.001402 -263611.000000 0 0 1
-1.989340 20.578286 17.383904 27.011542 -1.474424 0.871639 0.000358 -0.005994 268525.000000 0 0 1
-2.774140 21.600186 16.718204 27.454730 -1.443064 0.916076 0.010178 -0.016527 -257710.000000 0 0 1
-3.320140 22.610186 17.732004 28.925210 -1.424996 0.910907 0.006586 -0.005985 -684727.000000 0 0 1
-4.344640 22.138986 18.559604 29.214200 -1.377015 0.882407 0.015085 -0.005335 -251731.000000 0 0 1
-4.990840 23.209186 19.193704 30.528234 -1.358985 0.890891 0.020184 0.009725 29923.400000 0 0 1
-6.173140 22.801586 20.081804 31.004819 -1.306401 0.866235 0.017879 0.004398 447198.000000 0 0 1
-7.313640 22.144886 19.518804 30.411659 -1.251811 0.873927 0.011181 0.008994 6143.160000 0 0 1
-8.239040 21.758086 20.481304 30.996450 -1.208816 0.848962 -0.009535 0.002033 -172583.000000 0 0 1
-9.647440 22.177286 19.992604 31.378485 -1.160474 0.880010 0.005229 -0.003730 -109685.000000 0 0 1
-10.017040 23.598086 20.054804 32.548516 -1.169362 0.906950 0.011970 -0.003565 -191710.000000 0 0 1
-11.094640 23.920586 19.226204 32.633302 -1.136516 0.940779 0.015340 -0.004043 -292881.000000 0 0 1
-11.496740 25.361986 19.447704 33.964960 -1.145197 0.961145 0.015592 0.005616 -141549.000000 0 0 1
-12.142040 25.598986 20.665004 35.068213 -1.127905 0.940629 0.014969 0.002731 524621.000000 0 0 1
-12.892040 26.854986 20.652004 36.247762 -1.123227 0.964600 0.007105 0.005614 241438.000000 0 0 1
-13.799040 27.079386 21.909804 37.466600 -1.099516 0.946185 0.031003 -0.005142 1059700.000000 0 0 1
-15.036140 26.320786 21.957804 37.430127 -1.051774 0.943899 0.032376 -0.011202 1374400.000000 0 0 1
-15.852940 26.677686 23.090604 38.680623 -1.034623 0.931096 0.024512 -0.009629 2195940.000000 0 0 1
-17.412940 26.332486 22.960804 39.035994 -0.986538 0.941970 0.041518 -0.007245 1748700.000000 0 0 1
-17.731340 24.948186 22.958004 38.260715 -0.952907 0.927244 0.058967 -0.010519 -281723.000000 0 0 1
-19.117240 24.701486 22.981604 38.778685 -0.912155 0.936470 0.059299 -0.003980 -48555.000000 0 0 1
27.007360 24.385386 23.350052 43.235049 0.734424 1.000273 0.047921 -0.018993 -35533.700000 0 0 1
27.054860 23.723786 24.611432 43.594794 0.719892 0.970909 0.062229 -0.027945 285850.000000 0 0 1
26.669560 22.380186 24.458312 42.548175 0.698171 0.958390 0.066201 -0.018670 -361179.000000 0 0 1
26.555860 21.504286 25.720462 42.769033 0.680673 0.925568 0.080589 -0.021883 -173270.000000 0 0 1
25.502660 21.769286 26.619032 42.811918 0.706585 0.899800 0.075364 -0.016529 39794.000000 0 0 1
25.294760 20.788386 27.625382 42.838576 0.687920 0.869941 0.080085 -0.017463 -114563.000000 0 0 1
23.949860 21.095586 28.307012 42.660362 0.722118 0.845251 0.070133 -0.024031 -210472.000000 0 0 1
23.943760 22.348186 28.996602 43.744119 0.750944 0.846153 0.067578 -0.029705 361105.000000 0 0 1
22.659960 22.547886 29.575722 43.550020 0.782919 0.824232 0.065785 -0.037326 186716.000000 0 0 1
22.428560 23.894786 30.220602 44.578985 0.817040 0.825878 0.059190 -0.042271 -540046.000000 0 0 1
22.055460 24.821986 29.210692 44.224867 0.844346 0.849307 0.053437 -0.039510 145818.000000 0 0 1
21.581760 26.043786 29.823372 45.094175 0.878815 0.848169 0.060795 -0.042580 -156174.000000 0 0 1
20.198460 26.195586 30.476652 44.977915 0.913950 0.826314 0.066992 -0.039021 -263413.000000 0 0 1
19.123760 26.100586 29.534282 43.809047 0.938463 0.830970 0.068887 -0.037663 1655280.000000 0 0 1
17.834960 26.574486 30.014252 43.876468 0.979709 0.817478 0.069430 -0.036694 1032520.000000 0 0 1
16.925260 25.581986 30.695812 43.395107 0.986304 0.785045 0.064912 -0.026504 -682258.000000 0 0 1
17.368560 25.052686 31.927462 44.143706 0.964594 0.762282 0.053496 -0.032334 -723406.000000 0 0 1
16.354160 24.365486 32.538826 43.816785 0.979661 0.733836 0.042602 -0.026865 -647773.000000 0 0 1
16.631560 23.942086 33.968072 44.762285 0.963665 0.709244 0.042575 -0.018383 -228666.000000 0 0 1
16.823860 25.056386 -33.692176 45.233035 0.979496 2.411118 0.038952 -0.013450 36807.900000 0 0 1
16.921260 24.670986 -32.377626 44.082845 0.969612 2.395685 0.012455 -0.001570 -295985.000000 0 0 1
17.411360 25.820286 -31.530586 44.317271 0.977508 2.362390 0.012841 0.015535 -139259.000000 0 0 1
16.503960 26.887886 -31.240336 44.399298 1.020287 2.351279 0.023460 0.003234 42744.900000 0 0 1
17.116560 28.038486 -30.716146 44.973492 1.022716 2.322636 0.028618 0.000227 -158573.000000 0 0 1
16.681760 28.438186 -29.275286 44.091427 1.040290 2.296909 0.037298 -0.002684 -171704.000000 0 0 1
17.240460 27.641086 -28.251806 43.121081 1.013114 2.285209 0.020856 0.002119 86849.200000 0 0 1
16.877760 28.135486 -26.972506 42.473291 1.030469 2.258865 0.012446 0.005421 -388624.000000 0 0 1
17.390560 27.428586 -25.767236 41.457320 1.005730 2.241499 0.007727 0.009593 342172.000000 0 0 1
18.816860 27.400786 -25.791446 42.072271 0.969034 2.230683 0.016026 0.005854 91858.000000 0 0 1
19.343660 26.894986 -24.570796 41.246108 0.947281 2.208948 0.020605 0.006323 813998.000000 0 0 1
20.897960 26.730586 -24.529596 41.868246 0.907252 2.196757 0.023828 0.006516 691057.000000 0 0 1
21.456660 26.559586 -23.271496 41.320242 0.891276 2.169048 0.018175 0.006818 -41886.300000 0 0 1
22.840760 26.238386 -23.339996 41.891629 0.854515 2.161748 0.025767 0.006997 508832.000000 0 0 1
23.372560 26.063186 -21.891496 41.289270 0.839771 2.129631 0.038210 0.005575 113896.000000 0 0 1
22.869160 24.900686 -21.295496 39.956736 0.827900 2.132896 0.028226 0.004572 239239.000000 0 0 1
23.457560 24.905486 -20.002996 39.631555 0.815328 2.099859 0.033143 -0.003116 -159722.000000 0 0 1
23.033260 23.744086 -19.080496 38.188716 0.800593 2.093976 0.028793 -0.008157 -560970.000000 0 0 1
23.617760 22.565686 -19.556796 38.071998 0.762622 2.110264 0.029414 0.002871 291953.000000 0 0 1
23.369360 21.602986 -18.496396 36.809410 0.746141 2.097274 0.031582 0.005836 -752530.000000 0 0 1
23.642860 20.127386 -18.999196 36.401455 0.705254 2.119914 0.048546 0.000850 171151.000000 0 0 1
22.829460 19.541986 -20.027596 36.113405 0.707966 2.158649 0.029038 0.002014 547618.000000 0 0 1
21.439660 19.677886 -19.767596 35.180052 0.742577 2.167475 0.025217 0.002968 -193128.000000 0 0 1
20.502860 19.685186 -21.011496 35.346241 0.765055 2.207375 0.020847 0.006889 78732.700000 0 0 1
20.662660 20.653286 -22.069796 36.613927 0.785171 2.217765 0.016897 0.012629 -182584.000000 0 0 1
20.764760 22.070086 -21.725396 37.286147 0.815862 2.192802 0.016304 0.012494 -53037.500000 0 0 1
20.426560 23.003486 -22.904096 38.353648 0.844664 2.210779 0.022835 0.009034 326256.000000 0 0 1
19.046960 22.912986 -23.206596 37.766886 0.877275 2.232510 0.038269 0.013166 -184754.000000 0 0 1
18.593960 23.328486 -24.475696 38.587735 0.897857 2.257882 0.026633 0.008149 -544186.000000 0 0 1
17.082760 23.220286 -24.621396 37.910625 0.936522 2.277669 0.026433 0.007202 -818096.000000 0 0 1
16.385960 24.106186 -23.800396 37.630662 0.973797 2.255539 0.025176 0.002675 -595325.000000 0 0 1
15.024360 24.005986 -24.131596 37.206890 1.011580 2.276512 0.033407 0.000590 -210061.000000 0 0 1
14.158460 25.104586 -23.487096 37.179913 1.057284 2.254559 0.029310 0.001176 -226478.000000 0 0 1
14.332560 26.412186 -24.028396 38.475832 1.073614 2.245295 0.013566 0.009122 -55968.800000 0 0 1
13.287660 27.254586 -23.605896 38.426718 1.117168 2.232307 0.025760 0.005177 -70890.900000 0 0 1
13.410360 28.660586 -24.196896 39.834115 1.133155 2.223632 0.021166 -0.002872 -4625.070000 0 0 1
13.200560 28.682886 -25.608896 40.654376 1.139473 2.252243 0.024597 -0.008633 5444.610000 0 0 1
12.575360 29.902286 -26.041916 41.598891 1.172702 2.247241 0.041502 -0.020739 312064.000000 0 0 1
13.449260 31.216886 -26.020726 42.807181 1.163996 2.224158 0.046126 -0.020518 395816.000000 0 0 1
14.597360 31.149486 -26.846396 43.636021 1.132564 2.233480 0.031011 -0.005400 -239698.000000 0 0 1
15.222060 32.377686 -26.963156 44.799971 1.131320 2.216620 0.031305 -0.015896 456044.000000 0 0 1
16.682060 32.319486 -27.539406 45.620820 1.094304 2.218879 0.022733 0.006319 776564.000000 0 0 1
17.593160 31.704986 -26.621776 44.982712 1.064197 2.204114 0.007589 0.010905 -901966.000000 0 0 1
18.796860 31.565286 -27.289086 45.764434 1.033698 2.209674 0.025747 0.010802 -1462660.000000 0 0 1
19.716460 30.672786 -26.424986 45.031528 0.999499 2.197911 0.012398 0.017719 -754785.000000 0 0 1
20.191060 31.244786 -25.186856 44.925419 0.997082 2.165951 0.019092 0.013477 377490.000000 0 0 1
21.057060 32.394286 -25.161936 46.107619 0.994404 2.148047 0.017708 0.008354 1183570.000000 0 0 1
22.555760 32.149586 -25.594056 46.876581 0.959005 2.148364 0.006398 0.019839 693820.000000 0 0 1
22.536360 31.599786 -26.951596 47.252751 0.951279 2.177754 0.004924 0.026366 -874756.000000 0 0 1
23.800160 31.388486 -27.471016 48.024383 0.922039 2.179766 0.006643 0.025131 -1492790.000000 0 0 1
23.599160 30.752686 -28.862356 48.328911 0.916261 2.210811 -0.001132 0.022409 -110908.000000 0 0 1
22.828260 31.504586 -29.747106 48.975082 0.943750 2.223571 0.009188 0.020108 -1091290.000000 0 0 1
21.488660 31.195186 -29.678876 48.122114 0.967596 2.235392 0.008762 0.014631 -2089470.000000 0 0 1
20.571860 32.010686 -30.515326 48.775717 0.999601 2.246729 -0.003815 0.007594 -1465250.000000 0 0 1
20.048360 33.157386 -29.920506 48.954935 1.026970 2.228353 0.002428 0.014263 -39041.100000 0 0 1
19.241160 33.761086 -30.943176 49.674071 1.052787 2.243271 0.012163 -0.002678 1757150.000000 0 0 1
17.670160 33.437286 -30.886566 48.828953 1.084643 2.255633 0.024713 -0.009047 1233730.000000 0 0 1
17.270960 32.079986 -31.217396 47.978509 1.076925 2.279241 0.030964 -0.011761 12473.200000 0 0 1
17.631360 31.538086 -32.472836 48.579839 1.061032 2.302909 0.039031 -0.014389 -529920.000000 0 0 1
17.143960 32.172486 -33.831016 49.734514 1.081195 2.318876 0.057111 -0.021932 -321099.000000 0 0 1
17.533060 33.504486 -33.837246 50.743650 1.088679 2.300739 0.038469 -0.022179 -14692.400000 0 0 1
17.242760 34.142286 33.462169 50.820519 1.103136 0.852055 0.036089 -0.023416 -800327.000000 0 0 1
15.825360 -34.101897 33.200093 50.156032 -1.136311 0.847397 0.048383 -0.025624 -1257390.000000 0 0 1
14.948760 33.523386 32.980869 49.345927 1.151340 0.838794 0.061681 -0.028258 -153093.000000 0 0 1
13.570960 33.819486 32.855009 49.065061 1.189190 0.837098 0.050899 -0.032965 262792.000000 0 0 1
13.179760 -34.275697 31.533622 48.403500 -1.203704 0.861271 0.040566 -0.028535 -1146860.000000 0 0 1
13.576960 -32.950397 31.310442 47.438447 -1.179952 0.849948 0.044147 -0.017114 418754.000000 0 0 1
12.942260 -32.386897 30.127512 46.087744 -1.190623 0.858334 0.042181 -0.016557 -93532.500000 0 0 1
13.609560 -31.115097 29.662682 45.091508 -1.158475 0.852858 0.032073 -0.010344 -124908.000000 0 0 1
13.263860 -30.135097 30.651672 44.984209 -1.156167 0.821140 0.024718 -0.011928 322003.000000 0 0 1
13.854760 -28.910397 30.359292 44.152599 -1.123902 0.812619 0.034890 -0.015971 -433440.000000 0 0 1
13.387460 -27.786297 31.318692 43.956374 -1.121814 0.777749 0.043484 -0.013791 250582.000000 0 0 1
12.047260 -27.347497 31.150622 43.166924 -1.155850 0.764640 0.035702 -0.013213 51695.000000 0 0 1
11.873760 -26.299797 30.215192 41.780657 -1.146715 0.762392 0.030147 -0.009353 -178590.000000 0 0 1
11.970860 -24.921697 30.743602 41.346844 -1.123001 0.732427 0.035736 -0.012556 -123289.000000 0 0 1
10.996160 -24.660797 31.713902 41.651435 -1.151360 0.705308 0.038352 -0.015017 -179633.000000 0 0 1
11.331660 -23.414097 32.319672 41.487199 -1.120057 0.677683 0.046541 -0.016068 16858.500000 0 0 1
10.530960 -22.843697 33.508251 41.899147 -1.138832 0.643941 0.055162 -0.019301 -619022.000000 0 0 1
10.526660 -23.626597 -33.819186 42.576566 -1.151655 2.488675 0.059704 -0.020782 557446.000000 0 0 1
11.756860 -23.738897 -33.088746 42.386603 -1.110950 2.466488 0.057401 -0.018378 665988.000000 0 0 1
12.285460 -22.450797 -32.415336 41.300422 -1.070092 2.473278 0.071427 -0.025582 -162422.000000 0 0 1
12.743860 -21.498197 -33.361626 41.684248 -1.035697 2.498661 0.054320 -0.024103 203978.000000 0 0 1
13.575060 -20.467097 -32.847526 41.013952 -0.985154 2.499571 0.061577 -0.028670 64740.300000 0 0 1
13.803860 -19.285797 -33.824686 41.310990 -0.949576 2.530082 0.038818 -0.030009 -664038.000000 0 0 1
14.564960 -19.568997 33.521758 41.458315 -0.930961 0.629086 0.050163 -0.027416 271102.000000 0 0 1
14.566860 -18.542197 32.553708 40.196398 -0.904894 0.626872 0.020638 -0.020259 -284193.000000 0 0 1
15.575260 -17.409697 32.829304 40.292052 -0.840955 0.618440 0.022327 -0.022815 -1379290.000000 0 0 1
15.186060 -16.515697 33.885531 40.640053 -0.827316 0.584847 0.013597 -0.012692 398395.000000 0 0 1
15.786160 -15.176297 33.949591 40.399227 -0.765704 0.572863 0.029125 -0.014814 -109735.000000 0 0 1
17.300460 -15.145397 34.220388 41.227708 -0.719075 0.591628 0.036850 -0.013581 -61304.800000 0 0 1
18.060860 -15.849997 33.195597 40.980053 -0.720294 0.626571 0.037931 -0.012767 128537.000000 0 0 1
19.422960 -15.542497 33.466761 41.699456 -0.674871 0.639204 0.054687 -0.012247 -170016.000000 0 0 1
20.436160 -16.195597 32.548909 41.705701 -0.670149 0.675423 0.059072 -0.013048 -676954.000000 0 0 1
20.391760 -15.671597 31.263092 40.482141 -0.655253 0.688392 0.048376 -0.009601 -24944.100000 0 0 1
21.106460 -16.339697 30.292032 40.374194 -0.658783 0.722308 0.047532 -0.003977 -817271.000000 0 0 1
21.372060 -15.584397 29.016502 39.263160 -0.630052 0.739173 0.045496 0.003647 -195705.000000 0 0 1
22.099460 -14.374697 29.201332 39.341274 -0.576695 0.734364 0.041962 0.008181 489483.000000 0 0 1
22.121460 -13.681197 27.962972 38.189815 -0.553881 0.749235 0.038906 0.003527 -1727.410000 0 0 1
22.892060 -12.339297 28.093862 38.282760 -0.494375 0.746822 0.020050 0.009083 17392.300000 0 0 1
22.127060 -11.360097 28.728862 38.000080 -0.474312 0.713584 0.020644 0.002904 564900.000000 0 0 1
22.932860 -10.193497 28.992942 38.345979 -0.418265 0.713481 0.028716 -0.000232 549004.000000 0 0 1
22.047560 -8.932897 28.858222 37.399044 -0.384951 0.689397 0.036814 -0.000105 789502.000000 0 0 1
21.039860 -8.837797 29.880542 37.598260 -0.397671 0.652230 0.043711 -0.002565 124902.000000 0 0 1
20.154260 -7.760997 29.673002 36.700331 -0.367578 0.629161 0.038901 -0.010782 502779.000000 0 0 1
18.824160 -7.859397 30.488142 36.683047 -0.395515 0.589671 0.026286 0.004616 257389.000000 0 0 1
18.962760 -7.580497 31.849132 37.834077 -0.380297 0.570167 0.038813 -0.008558 232838.000000 0 0 1
19.417460 -8.662097 32.694580 39.000067 -0.419605 0.576600 0.042754 -0.019694 -620992.000000 0 0 1
19.583360 -8.372297 34.237330 40.321187 -0.404004 0.556489 0.057295 -0.023809 -103527.000000 0 0 1
18.360760 -8.191297 -33.595846 39.152212 -0.419631 2.602321 0.057647 -0.029939 85930.500000 0 0 1
18.582860 -7.614797 -32.313326 38.045484 -0.388905 2.585519 0.063631 -0.036392 178727.000000 0 0 1
17.271360 -7.258397 -31.560146 36.701867 -0.397846 2.605881 0.047730 -0.032665 278304.000000 0 0 1
17.555160 -6.522097 -30.408956 35.713107 -0.355716 2.589595 0.043375 -0.028245 635357.000000 0 0 1
16.352560 -6.074797 -29.786936 34.519139 -0.355689 2.611798 0.040101 -0.019090 490743.000000 0 0 1
16.679260 -4.877497 -28.817736 33.651889 -0.284496 2.598952 0.030275 -0.010899 -78347.400000 0 0 1
17.395660 -5.194797 -27.625376 33.056865 -0.290196 2.560189 0.036692 -0.003332 273120.000000 0 0 1
16.849060 -6.238097 -26.750536 32.224150 -0.354586 2.550154 0.036594 -0.006235 -37378.200000 0 0 1
15.435360 -5.993297 -26.182946 30.979293 -0.370365 2.577690 0.027398 -0.006135 -216322.000000 0 0 1
15.369360 -4.762597 -25.473356 30.129577 -0.300493 2.578223 0.018196 -0.009652 -981116.000000 0 0 1
14.239360 -4.620397 -24.695996 28.879052 -0.313762 2.596641 0.019220 -0.016350 -1193830.000000 0 0 1
14.244060 -3.451697 -23.670696 27.840785 -0.237743 2.587193 0.029534 -0.015211 -20276.800000 0 0 1
14.256660 -2.174697 -24.255996 28.219408 -0.151372 2.605185 0.026520 -0.021988 97607.500000 0 0 1
13.629160 -1.206697 -23.451796 27.151369 -0.088308 2.613446 0.036659 -0.017442 -196428.000000 0 0 1
13.956760 0.263303 -23.875496 27.656822 0.018863 2.612523 0.031616 -0.026387 -511633.000000 0 0 1
13.271760 0.750303 -25.002696 28.316733 0.056474 2.652938 0.050593 -0.028344 -1556.870000 0 0 1
13.786160 2.043303 -25.409856 28.980926 0.147143 2.639918 0.048607 -0.011470 -178237.000000 0 0 1
13.026360 2.709303 -26.570406 29.715532 0.205063 2.677345 0.046218 -0.009489 -241040.000000 0 0 1
11.806160 3.316303 -26.235506 28.960060 0.273839 2.704344 0.050896 -0.028330 160259.000000 0 0 1
11.133760 3.774303 -27.435386 29.848055 0.326839 2.736760 0.050089 -0.024183 862461.000000 0 0 1
9.759260 4.504303 -27.235936 29.280166 0.432410 2.765710 0.045559 -0.026338 605690.000000 0 0 1
9.808860 5.779303 -26.604136 28.937763 0.532435 2.737239 0.046294 -0.036031 1025980.000000 0 0 1
8.545960 6.392303 -26.969396 29.004195 0.642214 2.764787 0.053434 -0.039498 861204.000000 0 0 1
7.636060 5.574486 -30.891776 32.306132 0.630592 2.844598 0.033579 -0.012438 -46073.700000 0 0 1
7.271060 4.392686 -30.159436 31.332979 0.543453 2.867038 0.036174 -0.009314 396882.000000 0 0 1
7.631960 3.213486 -30.891076 31.981743 0.398526 2.879683 0.019055 -0.003732 -250047.000000 0 0 1
7.377760 1.944986 -30.116676 31.068127 0.257764 2.893471 0.021176 -0.010806 136552.000000 0 0 1
8.414360 1.706386 -29.169546 30.406835 0.200081 2.855341 0.038851 -0.013419 569538.000000 0 0 1
8.045660 0.623486 -28.377546 29.502653 0.077339 2.864534 0.032891 -0.022331 208586.000000 0 0 1
9.107160 0.203886 -27.310386 28.789566 0.022384 2.819645 0.037437 -0.026972 569888.000000 0 0 1
10.271460 -0.409614 -27.836826 29.674224 -0.039858 2.787845 0.049770 -0.013083 1125680.000000 0 0 1
11.256360 -0.717514 -26.785236 29.063196 -0.063657 2.743032 0.049218 -0.018476 462235.000000 0 0 1
12.251560 -1.789614 -27.195396 29.881315 -0.145047 2.714355 0.028675 -0.012886 -586103.000000 0 0 1
11.705360 -3.088414 -27.353696 29.912848 -0.257967 2.724934 0.035216 -0.011641 250646.000000 0 0 1
12.522960 -4.066914 -28.014206 30.954161 -0.314012 2.702229 0.038489 -0.018348 144932.000000 0 0 1
11.953160 -5.428214 -27.614076 30.575820 -0.426278 2.697811 0.039375 -0.011345 -6788.260000 0 0 1
11.869760 -5.552014 -26.195636 29.290398 -0.437512 2.677755 0.037536 -0.009401 -222933.000000 0 0 1
11.231560 -6.741914 -25.773546 28.911538 -0.540614 2.671359 0.035423 -0.016256 -50252.600000 0 0 1
10.787460 -6.632314 -24.310096 27.410539 -0.551243 2.661363 0.044819 -0.016803 708706.000000 0 0 1
11.904560 -6.660714 -23.375496 27.064691 -0.510115 2.613341 0.023879 -0.009393 790554.000000 0 0 1
11.491260 -6.615114 -22.049596 25.729234 -0.522334 2.600189 0.038509 -0.012493 405583.000000 0 0 1
12.739460 -6.660814 -21.107796 25.538194 -0.481759 2.543691 0.034954 -0.008786 743978.000000 0 0 1
13.400960 -5.404714 -21.040696 25.524646 -0.383355 2.539812 0.026094 -0.007770 -277663.000000 0 0 1
14.481760 -5.428214 -20.147596 25.399065 -0.358623 2.486911 0.018904 -0.003981 -204875.000000 0 0 1
14.866960 -4.020214 -19.597996 24.925290 -0.264096 2.475544 0.027553 -0.005190 -69015.000000 0 1 0
15.587360 -3.185714 -20.506596 25.954480 -0.201602 2.481766 0.023326 -0.004219 333443.000000 0 0 1
16.095560 -2.059914 -19.774896 25.580399 -0.127288 2.454430 0.028423 -0.006486 -526419.000000 0 0 1
17.182960 -1.335314 -20.516296 26.794693 -0.077556 2.442902 0.005536 -0.000294 251220.000000 0 0 1
18.434860 -2.035514 -20.608396 27.725320 -0.109971 2.408795 0.017612 -0.004064 650384.000000 0 0 1
19.394660 -1.228614 -21.270196 28.811171 -0.063264 2.401287 0.023101 -0.000064 270262.000000 0 0 1
20.627760 -2.015914 -21.791096 30.073581 -0.097419 2.381240 0.020008 -0.006701 -260843.000000 0 0 1
21.517660 -2.506114 -20.779196 30.017749 -0.115945 2.335371 0.022944 -0.011651 1483810.000000 0 0 1
22.662760 -3.265914 -21.273396 31.254188 -0.143124 2.319456 0.032080 -0.012260 1337420.000000 0 0 1
23.764660 -2.537214 -22.067096 32.529268 -0.106361 2.316347 0.037373 -0.014499 -1283010.000000 0 0 1
23.278260 -2.143414 -23.359696 33.047648 -0.091819 2.355830 0.037348 -0.010424 412798.000000 0 0 1
24.163660 -1.335514 -24.152996 34.191129 -0.055213 2.355211 0.040971 -0.004993 399486.000000 0 0 1
25.407560 -2.104514 -24.731296 35.519151 -0.082642 2.340999 0.053323 -0.013257 -99061.000000 0 0 1
26.389160 -2.334914 -23.667896 35.524764 -0.088250 2.299947 0.054116 -0.014117 997283.000000 0 0 1
27.594660 -2.975314 -24.080896 36.745167 -0.107407 2.285440 0.043647 -0.011479 750740.000000 0 0 1
28.511760 -2.199014 -25.054296 38.019388 -0.076974 2.290268 0.034810 -0.013159 -814850.000000 0 0 1
27.960960 -2.145214 -26.362946 38.489247 -0.076572 2.325322 0.033125 -0.009872 460236.000000 0 0 1
28.731260 -1.130314 -26.993006 39.438373 -0.039321 2.324625 0.036677 -0.013788 -278935.000000 0 0 1
28.135960 -0.866814 -28.415806 39.998020 -0.030798 2.360906 0.042677 -0.018959 91004.500000 0 0 1
26.829260 -0.326814 -28.464776 39.117253 -0.012181 2.385727 0.036205 -0.012187 4653.790000 0 0 1
26.610060 0.968786 -27.871966 38.547118 0.036391 2.379021 0.028139 -0.009683 -664018.000000 0 0 1
25.115260 1.282786 -28.108686 37.716310 0.051032 2.411730 0.018338 -0.002959 85036.900000 0 0 1
24.318060 0.660786 -27.081116 36.403180 0.027166 2.409716 0.022776 -0.006813 -505712.000000 0 0 1
22.986560 0.890686 -27.414936 35.787623 0.038729 2.443462 0.011039 0.003419 -763763.000000 0 0 1
22.011360 0.666386 -26.249086 34.263079 0.030265 2.443554 0.010002 0.005773 -212845.000000 0 0 1
22.090760 1.758386 -25.334706 33.659188 0.079431 2.422924 0.011652 -0.000158 567951.000000 0 0 1
21.080460 1.606986 -24.336696 32.237292 0.076084 2.426334 0.014651 -0.010314 -50685.800000 0 0 1
21.360860 2.175786 -22.922396 31.407907 0.101508 2.388868 0.020152 -0.014249 -436137.000000 0 0 1
21.184160 3.562486 -22.648296 31.215465 0.166609 2.382626 0.027445 -0.017629 512164.000000 0 0 1
21.620560 3.885986 -21.312396 30.606661 0.177837 2.341070 0.023605 -0.014795 -350574.000000 0 0 1
21.209560 5.252386 -20.747196 30.131033 0.242758 2.330306 0.038090 -0.014865 -348014.000000 0 0 1
21.867860 6.290486 -21.435296 31.260925 0.280097 2.326347 0.033866 -0.015640 379898.000000 0 0 1
21.669460 7.666986 -20.954696 31.103817 0.340070 2.310003 0.033494 -0.021064 -350498.000000 0 0 1
22.202260 7.956886 -19.509896 30.608633 0.344122 2.261914 0.033155 -0.023953 -762818.000000 0 0 1
23.579160 8.004486 -19.313496 31.512850 0.327266 2.230493 0.026458 -0.022595 -341769.000000 0 0 1
24.038660 8.370086 -18.031396 31.193697 0.335064 2.187129 0.044701 -0.027638 -66665.800000 0 0 1
23.791360 9.871686 -17.529996 31.157339 0.393308 2.168358 0.044532 -0.029920 -938885.000000 0 0 1
22.486960 10.124286 -17.136796 30.030556 0.423045 2.178088 0.053247 -0.030464 -612715.000000 0 0 1
22.308760 11.511386 -17.162596 30.409661 0.476368 2.170478 0.057120 -0.022411 -87571.600000 0 0 1
20.879360 12.084186 -16.925596 29.469493 0.524657 2.182598 0.045514 -0.022747 613515.000000 0 0 1
19.886760 11.874786 -17.910196 29.279154 0.538299 2.229010 0.047950 -0.024797 691878.000000 0 0 1
19.274660 10.552686 -17.934596 28.364087 0.500914 2.255314 0.054209 -0.027277 -300913.000000 0 0 1
18.420160 10.288086 -19.170996 28.507439 0.509363 2.308366 0.076007 -0.018834 -301398.000000 0 0 1
19.147860 10.194186 -20.351196 29.744464 0.489225 2.324304 0.080851 -0.022082 215048.000000 0 0 1
18.301160 9.747586 -21.395396 29.794477 0.489403 2.371864 0.069840 -0.029379 83394.000000 0 0 1
19.027360 9.764786 -22.791996 31.254864 0.474149 2.387993 0.081748 -0.034007 76296.500000 0 0 1
19.210860 11.089486 -23.239496 32.126438 0.523524 2.379476 0.081738 -0.032134 252131.000000 0 0 1
20.039160 11.298986 -24.353696 33.501306 0.513411 2.384663 0.079810 -0.036316 -106261.000000 0 0 1
20.120560 12.846686 -24.551696 34.244124 0.568238 2.370229 0.077359 -0.026426 183736.000000 0 0 1
20.979860 13.289486 -25.602006 35.668301 0.564646 2.371406 0.063445 -0.025564 288759.000000 0 0 1
21.000060 14.729686 -25.717356 36.322838 0.611673 2.357489 0.060254 -0.021092 209559.000000 0 0 1
19.824260 15.297286 -26.575776 36.514108 0.657210 2.385937 0.059952 -0.020716 888564.000000 0 0 1
18.524960 15.219086 -26.000726 35.367110 0.687741 2.396709 0.058623 -0.019932 193326.000000 0 0 1
17.530160 15.413086 -26.969716 35.668408 0.721222 2.428165 0.049826 -0.024935 256186.000000 0 0 1
16.092260 14.952886 -26.612326 34.507471 0.748714 2.451528 0.047640 -0.025288 167264.000000 0 0 1
15.977360 13.539586 -26.445956 33.734033 0.702996 2.471807 0.051187 -0.023771 432288.000000 0 0 1
14.613060 13.241186 -26.177386 32.773863 0.736186 2.495974 0.048435 -0.024706 207706.000000 0 0 1
14.377060 11.717586 -26.043936 31.973243 0.683832 2.522756 0.053309 -0.036331 504137.000000 0 0 1
13.016760 11.293086 -26.141816 31.310771 0.714612 2.558774 0.048366 -0.030603 550383.000000 0 0 1
12.993460 9.920686 -25.748706 30.499932 0.652094 2.575908 0.064505 -0.035128 -32536.300000 0 0 1
11.557060 9.406086 -25.538186 29.567534 0.683149 2.613409 0.051066 -0.041221 106520.000000 0 0 1
10.951660 9.906586 -24.354996 28.482365 0.735336 2.596521 0.049365 -0.042671 -335573.000000 0 0 1
9.622260 9.506086 -24.204596 27.727532 0.779325 2.632002 0.048048 -0.037275 -233342.000000 0 0 1
8.829660 10.301986 -23.108696 26.797493 0.862204 2.610680 0.045391 -0.036726 81502.400000 0 0 1
8.188560 11.483986 -23.630496 27.519717 0.951371 2.603475 0.041306 -0.029709 345695.000000 0 0 1
7.459660 12.213486 -22.591096 26.742726 1.022494 2.576907 0.045803 -0.015858 724865.000000 0 0 1
8.332360 13.161386 -21.703296 26.714853 1.006400 2.519062 0.047791 -0.020631 918811.000000 0 0 1
9.222660 12.465186 -20.799496 25.943349 0.933808 2.500976 0.050238 -0.024113 -36539.200000 0 0 1
10.177760 13.208186 -20.124496 26.135002 0.914263 2.449670 0.058969 -0.024138 -588197.000000 0 0 1
11.080160 12.341086 -19.242096 25.403358 0.839183 2.430214 0.069196 -0.030171 107398.000000 0 0 1
12.084560 11.495986 -19.836296 25.916653 0.760443 2.442440 0.076639 -0.033815 505533.000000 0 0 1
11.619360 10.532786 -20.785296 26.038004 0.736387 2.495210 0.067145 -0.031906 -1233360.000000 0 0 1
12.688660 9.858686 -21.621796 26.938780 0.660539 2.502483 0.068869 -0.033042 -162720.000000 0 0 1
13.633760 9.159086 -20.785896 26.491918 0.591544 2.472868 0.092705 -0.040283 56197.700000 0 0 1
14.603060 8.633586 -21.619196 27.480499 0.533937 2.476258 0.093358 -0.037138 -366029.000000 0 0 1
15.364960 7.328086 -21.156496 27.154745 0.445026 2.464039 0.109016 -0.037494 850601.000000 0 0 1
16.183060 7.497486 -19.955896 26.764557 0.433853 2.412245 0.096804 -0.033889 786679.000000 0 0 1
16.683460 6.243486 -19.468396 26.388206 0.358097 2.400556 0.084219 -0.028464 95666.000000 0 0 1
17.450960 6.244886 -18.147996 25.940015 0.343654 2.345653 0.082954 -0.022822 -540172.000000 0 0 1
18.749160 6.797586 -18.195296 26.996425 0.347815 2.310392 0.062818 -0.031593 290249.000000 0 0 1
19.444160 6.730386 -16.956496 26.662637 0.333231 2.260054 0.058675 -0.040945 262269.000000 0 0 1
20.021560 5.299286 -16.552296 26.512710 0.258746 2.245051 0.048503 -0.042418 -490450.000000 0 0 1
21.321560 5.104586 -17.061396 27.780514 0.234987 2.232105 0.037611 -0.036273 325570.000000 0 0 1
21.906460 3.880486 -16.563796 27.736447 0.175320 2.210784 0.045118 -0.034628 -289116.000000 0 0 1
23.403160 3.708686 -16.814796 29.055113 0.157163 2.187955 0.021186 -0.009015 -446768.000000 0 0 1
23.994860 2.630086 -16.111196 29.021394 0.109175 2.159338 0.018409 -0.011694 288818.000000 0 0 1
25.178460 2.195386 -16.766696 30.329798 0.086973 2.156532 0.025714 -0.013481 256177.000000 0 0 1
25.919760 1.019786 -16.079696 30.519347 0.039324 2.125709 0.046508 -0.026215 -78197.400000 0 0 1
25.319460 -0.234414 -16.291096 30.108633 -0.009258 2.142514 0.050193 -0.024561 370114.000000 0 0 1
26.322260 -1.247114 -16.253496 30.961150 -0.047343 2.123469 0.053455 -0.018004 186668.000000 0 0 1
25.750560 -2.683914 -16.394596 30.644372 -0.103852 2.135299 0.042127 -0.022859 -21055.700000 0 0 1
25.139060 -3.298614 -15.283196 29.604548 -0.130469 2.113257 0.040290 -0.019597 404116.000000 0 0 1
24.865460 -4.669614 -15.513296 29.677580 -0.185633 2.120844 0.035631 -0.016318 -1240360.000000 0 0 1
24.321660 -5.329314 -14.215896 28.671178 -0.215709 2.089581 0.033804 -0.018253 673880.000000 0 0 1
22.976960 -4.993614 -13.879096 27.303959 -0.214003 2.104027 0.038000 -0.008611 759180.000000 0 0 1
21.953460 -5.395414 -14.782696 27.010979 -0.240990 2.149913 0.042773 -0.006507 446996.000000 0 0 1
20.511260 -5.347714 -14.118696 25.468557 -0.255043 2.158388 0.048288 -0.016582 646969.000000 0 0 1
20.247660 -6.382214 -13.157796 24.976549 -0.305350 2.125635 0.046614 -0.011345 426321.000000 0 1 0
20.685960 -6.074414 -11.831096 24.592321 -0.285620 2.072693 0.059759 -0.008205 -450832.000000 0 1 0
20.577460 -7.261314 -10.833296 24.362242 -0.339236 2.031608 0.067624 -0.009903 1004400.000000 0 1 0
19.253360 -7.794614 -10.536796 23.291027 -0.384676 2.040248 0.072927 -0.014507 1639150.000000 0 1 0
18.749560 -8.670214 -11.511396 23.648062 -0.433136 2.079196 0.053196 -0.022076 -387034.000000 0 1 0
17.387260 -9.357414 -11.289196 22.744757 -0.493720 2.090177 0.074260 -0.025788 -265693.000000 0 1 0
16.304960 -8.502314 -11.452696 21.663456 -0.480664 2.127823 0.056321 -0.025022 303753.000000 0 1 0
15.155960 -9.160214 -12.053296 21.421825 -0.543646 2.168401 0.057135 -0.017934 699169.000000 0 1 0
14.051960 -8.159414 -12.410296 20.446248 -0.526078 2.223041 0.048472 -0.015344 -654186.000000 0 1 0
14.230760 -7.291814 -13.476496 20.911744 -0.473517 2.271095 0.042198 -0.016782 291574.000000 0 1 0
15.210960 -6.299814 -13.234596 21.123813 -0.392656 2.247883 0.035147 -0.021037 -84223.400000 0 1 0
15.091060 -5.169814 -14.282896 21.411870 -0.330045 2.301045 0.028379 -0.016860 -93558.300000 0 1 0
13.953760 -4.368214 -14.044896 20.274314 -0.303385 2.336082 0.032784 -0.019774 -42223.700000 0 1 0
13.607060 -3.411114 -15.054096 20.577016 -0.245625 2.391459 0.024308 -0.023766 -211797.000000 0 1 0
14.616760 -2.250414 -15.355096 21.318842 -0.152762 2.374973 0.034681 -0.021777 -161936.000000 0 1 0
15.639360 -2.654514 -16.254696 22.712357 -0.168131 2.368388 0.022357 -0.015174 547182.000000 0 1 0
16.792560 -1.812814 -16.294896 23.469129 -0.107537 2.338260 0.033325 -0.009316 380579.000000 0 1 0
17.865860 -2.151314 -15.251596 23.588732 -0.119838 2.273866 0.038675 -0.011868 -969312.000000 0 1 0
17.474360 -2.156914 -13.922096 22.446164 -0.122812 2.239850 0.033610 -0.008370 -128125.000000 0 1 0
18.591660 -2.523614 -13.145396 22.908948 -0.134914 2.181947 0.033712 -0.007236 11032.200000 0 1 0
18.245360 -2.702914 -11.646496 21.813752 -0.147073 2.134010 0.037340 -0.004224 -264729.000000 0 1 0
18.017760 -1.503914 -10.869096 21.095940 -0.083275 2.112063 0.032813 -0.006886 638911.000000 0 1 0
17.651760 -1.878714 -9.555496 20.159903 -0.106033 2.064608 0.042068 -0.009763 -957530.000000 0 1 0
17.644960 -0.773314 -8.493996 19.598229 -0.043798 2.019065 0.038147 -0.006877 -258445.000000 0 1 0
18.822160 -0.261414 -7.896596 20.413188 -0.013888 1.967996 0.030321 -0.000517 849079.000000 0 1 0
19.805060 0.381886 -8.734196 21.648843 0.019280 1.986079 0.025485 0.001012 66769.200000 0 1 0
19.373460 1.625086 -9.562596 21.665989 0.083686 2.027915 0.017816 0.001770 -728436.000000 0 1 0
19.406260 2.835186 -8.763196 21.481034 0.145070 1.991004 0.022300 0.007293 311806.000000 0 1 0
18.746460 3.825086 -9.479196 21.352194 0.201280 2.030793 0.015041 -0.001338 -495684.000000 0 1 0
18.776860 5.276086 -8.900896 21.439065 0.273925 1.998928 0.040374 0.001513 393009.000000 0 1 0
18.082160 6.240386 -9.767996 21.478377 0.332314 2.042925 0.042414 -0.000443 879981.000000 0 1 0
18.601860 7.510086 -9.435096 22.168708 0.383716 2.010426 0.064566 0.000442 33477.400000 0 1 0
-26.554780 -29.721454 6.198904 40.335439 0.841609 1.416501 0.058530 -0.002738 114909.000000 0 0 1
-26.415560 -28.576034 7.021404 39.543289 0.824665 1.392287 0.026634 -0.001957 898983.000000 0 0 1
-25.309960 -27.731084 6.564304 38.114265 0.831013 1.397706 0.056569 -0.006118 480446.000000 0 0 1
-25.404260 -26.337164 7.302504 37.314196 0.803426 1.373822 0.032498 0.000176 533923.000000 0 0 1
-26.589920 -25.530604 7.075304 37.535257 0.765077 1.381164 0.017847 -0.006692 1267940.000000 0 0 1
-27.845220 -25.988934 7.577104 38.835467 0.750930 1.374429 0.030887 -0.006000 422357.000000 0 0 1
-28.059790 -25.995234 9.114204 39.321403 0.747223 1.336882 0.020560 -0.006059 -322246.000000 0 0 1
-27.090480 -26.813434 9.760004 39.346055 0.780259 1.320124 0.023736 -0.011396 219384.000000 0 0 1
-27.462790 -27.056614 11.103104 40.119124 0.777948 1.290382 0.022074 -0.014991 -173973.000000 0 0 1
-26.351620 -27.890634 11.803904 40.145081 0.813764 1.272355 0.017953 -0.018733 815208.000000 0 0 1
-25.185870 -27.172824 12.194704 39.005144 0.823329 1.252822 0.018494 -0.017739 113008.000000 0 0 1
-25.405640 -26.530374 13.432604 39.111918 0.807051 1.220219 0.019735 -0.010760 -807850.000000 0 0 1
-24.166340 -25.984904 14.189904 38.217543 0.821644 1.190395 0.025799 -0.011549 -35204.000000 0 0 1
-23.417040 -27.114044 14.612404 38.691750 0.858431 1.183526 0.034144 -0.011139 298636.000000 0 0 1
-22.202240 -26.711304 15.257104 37.936954 0.877323 1.156911 0.040070 -0.012928 607107.000000 0 0 1
-21.334540 -27.884534 15.774404 38.490800 0.917699 1.148537 0.053057 -0.022745 316377.000000 0 0 1
-22.050440 -28.515704 16.855404 39.792863 0.912566 1.133404 0.060233 -0.015538 595906.000000 0 0 1
-21.269240 -29.588944 17.279204 40.329358 0.947548 1.128017 0.057680 -0.012112 -114594.000000 0 0 1
-21.970140 -30.566294 18.276004 41.844925 0.947584 1.118807 0.063241 -0.014035 -325785.000000 0 0 1
-23.121240 -31.130094 17.714804 42.632016 0.931965 1.142273 0.051351 -0.006744 -64393.900000 0 0 1
-23.488740 -32.289494 18.449004 43.985203 0.941889 1.137972 0.046601 -0.003078 250108.000000 0 0 1
-24.723040 -33.092664 17.947104 45.038336 0.929163 1.160932 0.040908 -0.002178 250422.000000 0 0 1
-24.384440 -33.713954 16.776304 44.862858 0.944620 1.187536 0.047590 -0.006995 225607.000000 0 0 1
-25.470200 34.206936 16.354004 45.676023 -0.930766 1.204625 0.045215 -0.004771 -468029.000000 0 0 1
-25.139440 33.434015 15.060504 44.459460 -0.926073 1.225212 0.039535 -0.009234 345045.000000 0 0 1
-24.020540 32.556508 14.982504 43.143806 -0.935142 1.216139 0.039107 -0.014339 977581.000000 0 0 1
-22.772140 33.253065 14.844304 42.949856 -0.970336 1.217898 0.041859 -0.009702 -290834.000000 0 0 1
-21.554840 32.348818 14.706504 41.561261 -0.983030 1.209111 0.046210 -0.017635 -420452.000000 0 0 1
-21.493040 31.664808 13.447304 40.564034 -0.974463 1.232895 0.035078 -0.012680 511821.000000 0 0 1
-20.642440 30.485678 13.444104 39.194781 -0.975592 1.220680 0.030614 -0.008511 502357.000000 0 0 1
-20.421040 29.920578 12.033204 38.171428 -0.971907 1.250086 0.028082 0.002130 14386.600000 0 0 1
-19.734740 30.739768 11.146104 38.192001 -1.000070 1.274642 0.015678 -0.000057 -167054.000000 0 0 1
-19.506240 30.032198 9.943604 37.165866 -0.994765 1.299950 0.016488 -0.001775 79109.800000 0 0 1
-19.154740 30.878668 8.706004 37.365636 -1.015568 1.335640 0.004443 0.001440 -560443.000000 0 0 1
-17.855740 31.394468 8.601604 37.127183 -1.053668 1.336993 0.013538 -0.004996 -592671.000000 0 0 1
-17.484240 31.769858 7.315204 36.993713 -1.067692 1.371743 0.018234 0.000305 58741.700000 0 0 1
-17.031240 30.757768 6.253404 35.710062 -1.065100 1.394773 0.014654 -0.000678 -430117.000000 0 0 1
-17.966440 29.755878 5.993504 35.272190 -1.027591 1.400046 0.007774 0.002974 -147766.000000 0 0 1
-17.473340 28.539518 6.551504 34.099031 -1.021418 1.377463 0.019351 0.005773 33817.600000 0 0 1
-18.388740 27.329478 6.245404 33.526873 -0.978523 1.383421 0.027896 0.008031 159588.000000 0 0 1
-18.197740 26.789068 4.945004 32.760724 -0.974100 1.419274 0.030070 0.000663 77786.700000 0 0 1
-19.347740 26.111898 4.511704 32.810391 -0.933109 1.432851 0.033656 -0.004620 -588423.000000 0 0 1
-19.188240 25.250238 3.227604 31.877587 -0.920975 1.469373 0.037190 -0.013054 -1228260.000000 0 0 1
-19.031640 25.926058 1.958904 32.221129 -0.937566 1.509963 0.039699 -0.019958 364004.000000 0 0 1
-17.830840 26.652458 1.689004 32.111449 -0.981171 1.518174 0.037300 -0.018250 291601.000000 0 0 1
-16.477740 25.898148 1.880604 30.753320 -1.004147 1.509607 0.032978 -0.015179 -635839.000000 0 0 1
-16.338840 24.788018 1.048404 29.706947 -0.988021 1.535497 0.048217 -0.014907 -105838.000000 0 0 1
-15.994540 25.046398 -0.264196 29.718970 -1.002480 1.579686 0.048120 -0.019884 -302105.000000 0 0 1
-15.567440 23.792328 -1.035296 28.451572 -0.991401 1.607192 0.053341 -0.022656 325468.000000 0 0 1
-16.690340 22.943468 -1.298696 28.401705 -0.941881 1.616538 0.059895 -0.031468 539794.000000 0 0 1
-16.350640 21.822068 -2.104796 27.349155 -0.927762 1.647833 0.059986 -0.029526 414090.000000 0 0 1
-15.428040 20.643168 -1.553996 25.818206 -0.928982 1.631023 0.059870 -0.030614 556406.000000 0 0 1
-16.093540 19.679768 -0.796496 25.434813 -0.885313 1.602117 0.072723 -0.037769 178222.000000 0 0 1
-15.133540 18.779968 -0.232396 24.119811 -0.892508 1.580432 0.084339 -0.035884 24198.100000 0 1 0
-15.700640 17.837268 0.781904 23.775820 -0.849020 1.537904 0.067242 -0.022290 -347099.000000 0 1 0
-16.408540 16.803268 0.166604 23.486545 -0.797283 1.563703 0.061433 -0.019753 183675.000000 0 1 0
-17.280440 16.255668 1.159404 23.752991 -0.754850 1.521966 0.072632 -0.025403 290214.000000 0 1 0
-18.033840 14.983868 0.643004 23.455259 -0.693286 1.543379 0.096354 -0.024714 -374280.000000 0 1 0
-19.009640 15.257268 -0.295696 24.377000 -0.676328 1.582927 0.091509 -0.024827 -349764.000000 0 1 0
-19.518140 14.035768 -0.814096 24.054591 -0.623439 1.604646 0.091859 -0.020070 -266119.000000 0 1 0
-20.541940 14.235268 -1.970096 25.069812 -0.606003 1.649462 0.086491 -0.013398 606742.000000 0 0 1
-21.510940 13.207768 -2.309396 25.347564 -0.550652 1.662032 0.093244 -0.015005 1384650.000000 0 0 1
-22.357240 12.726568 -1.261496 25.756613 -0.517492 1.619794 0.084813 -0.012292 -1226960.000000 0 0 1
-23.590040 13.541168 -0.951496 27.216881 -0.521098 1.605763 0.076170 -0.009906 -1316780.000000 0 0 1
-23.408740 14.892568 -0.607996 27.751169 -0.566611 1.592707 0.074128 -0.013700 975958.000000 0 0 1
-24.625040 15.391468 0.013604 29.039458 -0.558623 1.570328 0.075140 -0.015168 664798.000000 0 0 1
-24.552740 16.641468 0.923304 29.675377 -0.595660 1.539678 0.068179 -0.020686 -248418.000000 0 0 1
-23.808640 16.419768 2.085704 28.996729 -0.603750 1.498805 0.064276 -0.029803 92470.200000 0 0 1
-23.392540 17.543968 2.862604 29.380202 -0.643489 1.473208 0.050818 -0.030544 -173609.000000 0 0 1
-24.448940 18.539668 3.398904 30.871063 -0.648793 1.460473 0.054609 -0.037213 -251897.000000 0 0 1
-25.331620 17.917068 4.372304 31.334157 -0.615609 1.430802 0.059695 -0.036129 1418910.000000 0 0 1
-26.631230 18.546668 4.371904 32.746219 -0.608323 1.436888 0.056845 -0.042585 680378.000000 0 0 1
-27.628480 18.061468 3.308804 33.173751 -0.578990 1.470889 0.064438 -0.030822 -442796.000000 0 0 1
-28.908140 18.669168 3.465504 34.586531 -0.573424 1.470430 0.066973 -0.028256 473878.000000 0 0 1
-29.450550 18.777068 2.157804 34.993847 -0.567594 1.509095 0.077510 -0.014708 -228569.000000 0 0 1
-30.761540 19.591268 2.051504 36.528055 -0.567093 1.514604 0.081079 -0.022573 -663305.000000 0 0 1
-31.844000 18.904368 2.615104 37.124847 -0.535741 1.500297 0.086793 -0.020421 -335729.000000 0 0 1
-33.011550 19.682868 2.450604 38.512118 -0.537652 1.507121 0.073336 -0.022579 -114628.000000 0 0 1
-33.503520 20.365368 3.702704 39.382028 -0.546177 1.476637 0.068306 -0.019798 -767157.000000 0 0 1
-32.564240 21.290668 4.162104 39.128576 -0.579046 1.464225 0.078701 -0.023548 88510.300000 0 0 1
-33.025050 21.865168 5.370604 39.969775 -0.584819 1.436022 0.060044 -0.022022 -476529.000000 0 0 1
-32.059040 22.856368 5.999704 39.827027 -0.619362 1.419577 0.067432 -0.025019 -525351.000000 0 0 1
-31.848630 23.990728 5.218704 40.213495 -0.645593 1.440654 0.062414 -0.018777 133711.000000 0 0 1
-30.794090 24.755908 5.727304 39.924091 -0.677125 1.426845 0.059876 -0.017305 -332199.000000 0 0 1
-30.966670 26.233488 5.435004 40.947159 -0.702839 1.437671 0.059370 -0.010239 -101346.000000 0 0 1
-31.965260 26.764338 6.291604 42.162684 -0.697071 1.421015 0.056712 -0.003284 238743.000000 0 0 1
-32.210200 28.124358 6.138804 43.199091 -0.717782 1.428209 0.050291 0.001243 -294152.000000 0 0 1
-33.339870 28.611378 7.032704 44.492885 -0.709220 1.412067 0.044586 0.002119 -458416.000000 0 0 1
-32.799240 28.938928 8.338104 44.528370 -0.722952 1.382431 0.060752 -0.007085 1050980.000000 0 0 1
-33.772190 29.619818 9.158904 45.845174 -0.719989 1.369664 0.064323 -0.004123 518769.000000 0 0 1
-35.092419 28.970968 9.608204 46.509273 -0.690134 1.362711 0.055670 -0.006067 -508790.000000 0 0 1
-34.824652 27.798818 10.275804 45.728797 -0.673674 1.344149 0.059864 -0.016953 14980.200000 0 0 1
-35.788385 27.373348 11.219104 46.432500 -0.652948 1.326760 0.052327 -0.023829 -150151.000000 0 0 1
-35.459601 25.995718 11.865904 45.540755 -0.632602 1.307199 0.057624 -0.017738 -359352.000000 0 0 1
-34.413641 26.106518 12.774404 45.044804 -0.648989 1.283257 0.059558 -0.022898 -287899.000000 0 0 1
-34.204121 24.918878 13.548504 44.434608 -0.629621 1.260954 0.066120 -0.020112 -269718.000000 0 0 1
-33.143990 25.100448 14.625604 44.073403 -0.648166 1.232536 0.066611 -0.015214 -234448.000000 0 0 1
-33.527050 26.039368 15.618204 45.233175 -0.660351 1.218257 0.070518 -0.013799 -294178.000000 0 0 1
-32.357680 26.550368 16.201904 44.882549 -0.687133 1.201473 0.080476 -0.012067 -221290.000000 0 0 1
-32.465880 27.745508 17.204204 46.041625 -0.707162 1.187838 0.078235 -0.011058 -282499.000000 0 0 1
-32.164120 29.030168 16.690604 46.431213 -0.734230 1.203097 0.089781 -0.012556 6278.850000 0 0 1
-32.318350 30.032868 17.615804 47.505426 -0.748760 1.190908 0.075190 -0.011683 -20384.900000 0 0 1
-32.025800 31.433018 17.031904 47.997628 -0.776057 1.208044 0.066785 -0.008207 400691.000000 0 0 1
-30.677470 31.568788 16.603304 47.046416 -0.799716 1.210113 0.065470 -0.003456 28272.000000 0 0 1
-30.554210 32.553848 15.589204 47.289915 -0.817074 1.234862 0.071073 0.003739 -66317.600000 0 0 1
-29.108240 32.605198 15.004204 46.211630 -0.842002 1.240118 0.073264 -0.001142 296576.000000 0 0 1
-28.680590 31.524218 14.199204 44.921821 -0.832596 1.249194 0.062375 -0.001604 126302.000000 0 0 1
-28.647720 30.202458 14.833104 44.191643 -0.811811 1.228497 0.064228 -0.008449 -141830.000000 0 0 1
-29.802490 29.241628 14.360204 44.152879 -0.775899 1.239533 0.072446 -0.006628 457788.000000 0 0 1
-29.866190 28.990118 12.987804 43.601598 -0.770514 1.268331 0.069058 -0.016768 -766658.000000 0 0 1
-30.831830 28.073768 12.645104 43.573351 -0.738611 1.276358 0.083082 -0.011769 -472663.000000 0 0 1
-30.959500 27.965758 11.073704 43.164815 -0.734636 1.311351 0.078662 -0.008620 837264.000000 0 0 1
-29.768150 27.472468 10.408004 41.823508 -0.745314 1.319298 0.065554 -0.003897 752283.000000 0 0 1
-29.742710 27.728728 9.044404 41.657082 -0.750369 1.351938 0.060453 -0.010014 -20807.600000 0 0 1
-28.435100 27.181258 8.431304 40.230121 -0.762858 1.359654 0.053123 -0.013147 175556.000000 0 0 1
-28.245350 27.419798 7.026804 39.987762 -0.770569 1.394155 0.046343 -0.013898 156254.000000 0 0 1
-27.099910 26.694688 6.562304 38.601494 -0.777866 1.399965 0.040852 -0.012857 234561.000000 0 0 1
-26.760940 26.967248 5.082004 38.330238 -0.789238 1.437820 0.049837 -0.021141 -323754.000000 0 0 1
-25.947540 28.098468 4.910804 38.560534 -0.825175 1.443096 0.040028 -0.012308 170747.000000 0 0 1
-25.800110 28.357668 3.528404 38.500035 -0.832587 1.479021 0.042475 -0.013075 -134592.000000 0 0 1
-24.852840 29.527568 3.110404 38.719705 -0.871151 1.490378 0.039978 -0.013226 1403990.000000 0 0 1
-23.469940 29.109758 3.226504 37.531673 -0.892252 1.484723 0.031383 -0.009250 1438130.000000 0 0 1
-22.456540 30.096048 3.017004 37.671881 -0.929756 1.490624 0.018327 -0.007128 900507.000000 0 0 1
-21.019440 29.514528 3.159204 36.371759 -0.951947 1.483828 0.015008 -0.005863 767542.000000 0 0 1
-20.058540 30.521398 2.845304 36.633271 -0.989379 1.493048 0.010987 -0.000950 410072.000000 0 0 1
-18.694540 30.121728 2.975404 35.576079 -1.015343 1.487064 0.017690 -0.006212 981033.000000 0 0 1
-17.685240 31.224268 2.513704 35.972787 -1.055454 1.500861 0.020604 -0.010063 89885.500000 0 0 1
-17.529340 32.354538 3.304804 36.946118 -1.074279 1.481227 0.029928 -0.008160 397775.000000 0 0 1
-16.625340 33.324897 2.733804 37.341993 -1.108040 1.497521 0.047957 -0.011298 283507.000000 0 0 1
-16.454640 -34.080958 3.602504 38.016377 1.120995 1.475892 0.042773 -0.015265 1065980.000000 0 0 1
-17.634240 -33.220604 3.704504 37.792834 1.082796 1.472617 0.043979 -0.013317 965102.000000 0 0 1
-17.301540 -32.015354 4.372404 36.653023 1.075343 1.451220 0.033488 -0.011479 563832.000000 0 0 1
-18.510640 -30.995264 4.368604 36.365298 1.032432 1.450374 0.030426 -0.006534 619952.000000 0 0 1
-18.516240 -30.193464 3.181404 35.561465 1.020689 1.481214 0.047426 -0.013664 342482.000000 0 0 1
-19.543140 -29.220504 3.306004 35.308666 0.981307 1.477027 0.050161 -0.013788 -212367.000000 0 0 1
-19.725840 -28.235374 2.138804 34.509703 0.960996 1.508780 0.046388 -0.011989 56435.200000 0 0 1
-18.800140 -27.161234 2.070004 33.097777 0.965346 1.508213 0.053256 -0.017687 143413.000000 0 0 1
-19.210340 -26.160734 1.109704 32.475416 0.937406 1.536619 0.047493 -0.021724 -442593.000000 0 0 1
-18.274140 -24.991414 1.101304 30.979475 0.939425 1.535239 0.044344 -0.019872 -163763.000000 0 0 1
-16.976540 -25.363694 0.686904 30.528540 0.980956 1.548294 0.050391 -0.019764 -803259.000000 0 0 1
-15.992840 -24.447414 1.052204 29.232758 0.991493 1.534795 0.043372 -0.017167 43029.600000 0 0 1
-14.642040 -24.856914 0.391304 28.851493 1.038465 1.557233 0.040098 -0.015304 -45606.000000 0 0 1
-14.680740 -24.926214 -1.009296 28.945794 1.038528 1.605672 0.034451 -0.012425 -26402.900000 0 0 1
-14.756540 -23.689314 -1.685796 27.960347 1.013694 1.631125 0.041521 -0.012738 -255473.000000 0 0 1
-14.864040 -23.924214 -3.216096 28.348739 1.014864 1.684489 0.040574 -0.005223 -701409.000000 0 0 1
-13.688940 -24.387114 -3.764296 28.218582 1.059305 1.704593 0.038512 -0.002630 -764389.000000 0 0 1
-13.855740 -24.374814 -5.158996 28.508391 1.053902 1.752763 0.051977 -0.004696 -621553.000000 0 0 1
-12.647940 -24.836714 -5.920596 28.493617 1.099781 1.780108 0.045196 -0.002021 -590315.000000 0 0 1
-12.433040 -26.262904 -5.746696 29.620013 1.128649 1.766049 0.029320 -0.005670 -159007.000000 0 0 1
-11.406340 -26.838344 -6.530596 29.883942 1.168924 1.791106 0.029663 0.001611 73854.400000 0 0 1
23.482260 13.260586 28.535702 39.262526 0.514064 0.757156 0.019461 -0.013757 80833.500000 0 0 1
24.333460 12.099986 28.575172 39.434343 0.461451 0.760304 0.016546 -0.017311 41950.600000 0 0 1
23.619360 10.957186 28.993482 38.968655 0.434359 0.731729 0.025564 -0.022099 -263413.000000 0 0 1
23.380160 10.887886 30.572472 39.998175 0.435824 0.700769 0.027148 -0.005400 406714.000000 0 0 1
22.537860 11.923386 31.103942 40.219118 0.486607 0.686669 0.019293 -0.005697 387847.000000 0 0 1
22.916160 12.122686 32.428432 41.517624 0.486579 0.674409 0.019024 -0.004970 -421669.000000 0 0 1
22.123460 13.197986 33.177273 42.004354 0.537887 0.660227 0.015046 0.002046 -352430.000000 0 0 1
20.781260 12.779786 33.402089 41.362824 0.551352 0.630829 0.025271 0.003578 411002.000000 0 0 1
20.186460 13.712786 -34.184022 42.000965 0.596702 2.521607 0.021191 0.004662 -63414.400000 0 0 1
19.010860 13.201786 -33.284056 40.540453 0.606981 2.533972 0.025618 0.010039 284693.000000 0 0 1
17.921060 12.981686 -34.158002 40.699603 0.626903 2.566738 0.020982 0.008222 48795.200000 0 0 1
16.808360 12.413086 -33.464596 39.452311 0.636105 2.583429 0.022578 0.003567 35464.100000 0 0 1
15.560260 12.265986 34.178168 39.505990 0.667559 0.525369 0.019416 0.011844 -312757.000000 0 0 1
15.540060 11.186786 33.277305 38.392925 0.623936 0.522135 0.022221 0.014478 9013.640000 0 0 1
14.284860 11.015186 32.649047 37.300829 0.656875 0.504761 0.018902 0.019600 33883.900000 0 0 1
14.403860 9.967286 31.506622 36.048373 0.605328 0.507403 0.024182 0.020684 43024.900000 0 0 1
14.601060 8.671786 32.089232 36.305780 0.535933 0.486745 0.013216 0.011241 97829.900000 0 0 1
15.459360 7.842386 31.327042 35.803329 0.469463 0.505411 0.010440 0.000592 61681.900000 0 0 1
15.658860 6.404086 31.921452 36.127432 0.388220 0.487345 0.030423 -0.005545 -275084.000000 0 0 1
14.474760 5.641286 31.922372 35.501840 0.371624 0.452915 0.030023 -0.005272 1226.150000 0 0 1
14.827460 4.278486 32.276822 35.776420 0.280921 0.445996 0.048863 -0.016167 350764.000000 0 0 1
13.612660 3.336686 32.433205 35.332008 0.240377 0.407901 0.029290 -0.007870 -61212.900000 0 0 1
14.025360 2.060586 32.905153 35.828841 0.145875 0.406783 0.044523 -0.021368 632683.000000 0 0 1
12.927260 1.166986 33.228483 35.673632 0.090029 0.372397 0.045323 -0.027161 417230.000000 0 0 1
13.475060 -0.158514 33.765749 36.355580 -0.011763 0.379732 0.031471 -0.024666 -30824.200000 0 0 1
13.653260 -1.165014 32.750509 35.501614 -0.085122 0.396269 0.011676 -0.017507 44862.900000 0 0 1
14.242460 -2.344414 33.258778 36.255900 -0.163144 0.409464 0.046090 -0.022584 -375572.000000 0 0 1
14.278560 -3.483914 32.229962 35.422950 -0.239320 0.427847 0.042366 -0.023723 -814378.000000 0 0 1
14.616160 -4.770014 32.778411 36.205102 -0.315454 0.438585 0.046973 -0.026186 1228840.000000 0 0 1
15.891060 -5.020714 33.434779 37.357968 -0.306021 0.462401 0.033041 -0.016990 663725.000000 0 0 1
17.178260 -4.847214 32.630201 37.192985 -0.275021 0.500544 0.044965 -0.020808 -753811.000000 0 0 1
17.426760 -3.462614 32.428752 36.977096 -0.196141 0.501223 0.059300 -0.026951 235017.000000 0 0 1
18.502360 -3.188014 31.536512 36.702212 -0.170628 0.536987 0.088299 -0.038528 30271.400000 0 0 1
18.693760 -1.732814 31.165542 36.383380 -0.092431 0.542177 0.093530 -0.038592 -229230.000000 0 0 1
19.088960 -1.059814 32.356762 37.582864 -0.055463 0.533673 0.081372 -0.031116 83200.500000 0 0 1
19.053060 0.351386 32.312152 37.512901 0.018440 0.532853 0.072275 -0.026878 -243717.000000 0 0 1
20.284660 1.162686 31.867132 37.793298 0.057256 0.567597 0.079757 -0.028567 -444002.000000 0 0 1
20.388660 1.174486 30.445182 36.660414 0.057541 0.590855 0.086753 -0.032298 157144.000000 0 0 1
21.224960 2.224686 29.958222 36.782377 0.104433 0.618977 0.073774 -0.028393 264159.000000 0 0 1
20.494960 3.607386 29.807382 36.352945 0.174229 0.609483 0.060384 -0.015332 1953.840000 0 0 1
20.337860 4.247386 31.029852 37.343280 0.205882 0.590010 0.066256 -0.023754 624459.000000 0 0 1
19.590260 5.472586 30.889912 36.985323 0.272408 0.582311 0.051117 -0.016002 42369.700000 0 0 1
19.420360 6.092686 32.281772 38.162600 0.304002 0.562544 0.043156 -0.005441 -336728.000000 0 0 1
18.577760 5.325986 33.119023 38.345391 0.279198 0.528225 0.048131 -0.005724 182641.000000 0 0 1
18.354260 5.875986 -34.133460 39.198204 0.309833 2.627606 0.047779 -0.002218 -570990.000000 0 0 1
17.184360 5.188286 -33.450916 37.962934 0.293216 2.649078 0.061124 -0.004224 -533635.000000 0 0 1
17.440060 3.782786 -33.227836 37.716764 0.213594 2.648733 0.060636 -0.007370 -229192.000000 0 0 1
16.320460 3.149686 -32.698386 36.680545 0.190646 2.671302 0.059430 -0.014776 -375282.000000 0 0 1
16.223460 1.651286 -33.050606 36.854714 0.101435 2.683236 0.055359 -0.020535 -128131.000000 0 0 1
17.310260 0.832786 -32.659926 36.973090 0.048072 2.653744 0.046069 -0.013113 356696.000000 0 0 1
17.027460 -0.476314 -33.037966 37.170801 -0.027966 2.665549 0.054072 -0.013484 -362780.000000 0 0 1
18.013260 -1.395914 -32.331946 37.037560 -0.077339 2.632014 0.053079 -0.015265 -307862.000000 0 0 1
17.858260 -1.480314 -30.915046 35.733022 -0.082703 2.616280 0.044989 -0.017560 374983.000000 0 0 1
18.333460 -0.395514 -30.126776 35.268893 -0.021570 2.594811 0.047126 -0.004372 -354676.000000 0 0 1
18.100960 -0.456314 -28.585736 33.837809 -0.025204 2.576963 0.030284 0.003665 83738.200000 0 0 1
16.731160 -0.264714 -28.252866 32.836355 -0.015820 2.606878 0.038134 -0.010167 380730.000000 0 0 1
16.257060 -0.619714 -26.963986 31.491786 -0.038101 2.598710 0.029043 -0.013467 -256417.000000 0 0 1
16.887060 -1.773014 -26.129286 31.161771 -0.104609 2.565329 0.026947 -0.004569 -653705.000000 0 0 1
18.204360 -1.431114 -25.734376 31.554792 -0.078452 2.524468 0.031053 -0.001919 -1404.160000 0 0 1
18.961960 -2.529414 -25.274386 31.697767 -0.132611 2.493697 0.022559 0.000540 350790.000000 0 0 1
19.754360 -3.313514 -26.361086 33.107718 -0.166189 2.491821 0.029182 -0.005548 28063.400000 0 0 1
20.883460 -2.585414 -26.846016 34.110289 -0.123175 2.476785 0.039976 -0.002393 55536.400000 0 0 1
21.202460 -2.982814 -28.135096 35.355694 -0.139765 2.491079 0.047139 -0.011832 -355836.000000 0 0 1
22.551060 -2.454414 -28.627246 36.525247 -0.108411 2.471503 0.042347 -0.018420 189036.000000 0 0 1
23.639060 -3.240614 -28.145846 36.898447 -0.136238 2.438416 0.041369 -0.025770 92312.800000 0 0 1
24.890060 -2.763814 -28.586106 38.004200 -0.110588 2.422165 0.032576 -0.026174 493848.000000 0 0 1
26.100460 -3.742114 -28.335876 38.706063 -0.142403 2.392164 0.051826 -0.024084 203938.000000 0 0 1
26.048060 -4.932314 -29.132216 39.389277 -0.187139 2.403269 0.062244 -0.034107 -202123.000000 0 0 1
27.111360 -5.813314 -28.948196 40.085141 -0.211225 2.377727 0.053444 -0.031472 -454219.000000 0 0 1
27.146960 -6.824514 -27.728666 39.400639 -0.246288 2.351475 0.047409 -0.023108 -219570.000000 0 0 1
27.457760 -6.193714 -26.517556 38.671326 -0.221859 2.326384 0.052103 -0.011749 321970.000000 0 0 1
27.231960 -7.114914 -25.499826 37.979505 -0.255558 2.306906 0.040680 -0.012415 -232098.000000 0 0 1
27.343260 -6.577614 -24.052596 37.006030 -0.236072 2.278334 0.036728 -0.009429 -186580.000000 0 0 1
28.663660 -6.538214 -23.561596 37.676285 -0.224264 2.246401 0.030824 -0.006737 122047.000000 0 0 1
28.779560 -6.023214 -22.248696 36.872031 -0.206310 2.218558 0.043949 -0.011333 -891128.000000 0 0 1
30.192160 -5.709214 -21.803696 37.677086 -0.186889 2.187929 0.043648 -0.007101 -875984.000000 0 0 1
30.750460 -4.620714 -22.509396 38.387689 -0.149149 2.197367 0.034331 -0.011454 317550.000000 0 0 1
31.987060 -4.146914 -21.982196 39.033138 -0.128924 2.169010 0.028998 -0.007171 325446.000000 0 0 1
32.480860 -2.836714 -22.580996 39.660491 -0.087114 2.176520 0.042429 -0.019352 -326250.000000 0 0 1
31.662360 -1.771414 -22.193996 38.706800 -0.055889 2.181431 0.040185 -0.015243 -9031.280000 0 0 1
31.993360 -0.529714 -22.885396 39.339510 -0.016555 2.191664 0.026471 -0.015739 235072.000000 0 0 1
30.940060 0.633986 -22.761596 38.415876 0.020488 2.204961 0.029500 -0.004108 -406277.000000 0 0 1
29.843760 0.504886 -23.588196 38.043500 0.016916 2.239580 0.021869 -0.002461 -640383.000000 0 0 1
28.904260 1.505886 -23.245596 37.122522 0.052052 2.247448 0.015095 0.003125 56617.500000 0 0 1
27.596460 1.392986 -24.091396 36.659247 0.050434 2.287856 0.018565 0.003194 -253165.000000 0 0 1
26.659760 2.271386 -23.540396 35.637792 0.084994 2.292342 0.008056 0.005740 -923.252000 0 0 1
25.809160 2.799786 -24.564496 35.740257 0.108058 2.328570 0.012182 0.003561 71241.900000 0 0 1
24.802760 3.854086 -24.061696 34.770621 0.154157 2.335069 0.008795 0.005596 57946.000000 0 0 1
25.415160 5.056386 -23.633196 35.071717 0.196387 2.310208 -0.005092 0.004228 -33930.000000 0 0 1
24.406760 5.973886 -23.409596 34.342196 0.240044 2.320821 0.021214 -0.015013 -469909.000000 0 0 1
24.962660 7.299786 -22.829996 34.606791 0.284496 2.291212 0.036496 -0.015111 -145059.000000 0 0 1
25.744260 8.044886 -23.725996 35.922277 0.302878 2.292256 0.027653 -0.014892 -27185.100000 0 0 1
26.012460 9.290986 -23.057096 35.980553 0.343052 2.266364 0.036377 -0.027054 -283148.000000 0 0 1
26.938160 10.204186 -23.894996 37.426738 0.362098 2.263275 0.054596 -0.022255 -278737.000000 0 0 1
26.391860 10.697486 -25.125376 37.976980 0.385095 2.293740 0.047743 -0.016332 315181.000000 0 0 1
25.213660 11.485786 -25.036496 37.342711 0.427450 2.305614 0.057786 -0.019114 225913.000000 0 0 1
24.621260 11.703986 -26.421616 37.964345 0.443743 2.340550 0.046559 -0.019095 -247266.000000 0 0 1
24.036560 10.648586 -27.162316 37.801323 0.417031 2.372518 0.036345 -0.006730 36103.600000 0 0 1
24.907660 9.690086 -27.702776 38.493286 0.371023 2.374135 0.026985 -0.008408 -167610.000000 0 0 1
25.792660 10.058186 -28.949656 40.056348 0.371824 2.378531 0.013124 0.004871 -734829.000000 0 0 1
26.839060 10.922886 -28.573686 40.695210 0.386507 2.349193 0.004029 0.009740 343531.000000 0 0 1
27.643560 11.315886 -29.685626 42.112374 0.388540 2.353099 -0.008428 0.024279 431935.000000 0 0 1
28.660160 10.262086 -30.211326 42.888686 0.343838 2.352391 -0.001959 0.022951 -298332.000000 0 0 1
28.004160 9.323386 -31.102476 42.877996 0.321386 2.382370 -0.005629 0.018406 633331.000000 0 0 1
28.928360 8.398086 -31.627096 43.676665 0.282540 2.380552 0.003947 0.014304 -324088.000000 0 0 1
28.316460 7.519086 -32.687826 43.895928 0.259548 2.410831 0.011331 0.008331 -128681.000000 0 0 1
27.126260 6.845486 -32.310176 42.739234 0.247195 2.427952 0.013397 0.007638 205345.000000 0 0 1
26.770660 5.832386 -33.258576 43.090809 0.214513 2.452503 0.034943 0.005396 41650.400000 0 0 1
25.590160 4.917386 -32.828846 41.913841 0.189845 2.470666 0.025054 0.003568 1853480.000000 0 0 1
24.236260 5.470286 -32.801616 41.149318 0.221987 2.493334 0.027873 0.009288 1604810.000000 0 0 1
23.950260 6.169886 -31.632136 40.153138 0.252130 2.478005 0.021444 0.015406 -98058.600000 0 0 1
22.475660 6.666586 -31.591556 39.339866 0.288347 2.503178 0.027157 0.011912 380119.000000 0 0 1
22.276060 7.912386 -32.187796 39.935985 0.341297 2.508134 0.035491 0.011105 716143.000000 0 0 1
20.862460 8.135286 -32.281976 39.288053 0.371811 2.535138 0.040528 0.003807 763770.000000 0 0 1
20.485660 9.332986 -33.251036 40.154680 0.427490 2.546459 0.032477 0.005837 -243601.000000 0 0 1
19.837060 8.976686 34.076156 40.438524 0.424948 0.568581 0.034488 0.005035 99771.800000 0 0 1
19.650760 10.056286 33.138600 39.817685 0.473004 0.587627 0.032502 -0.000234 -298431.000000 0 0 1
18.631660 9.778186 32.017152 38.312527 0.483302 0.581420 0.031477 -0.000041 -329000.000000 0 0 1
18.927460 8.873386 30.953202 37.350856 0.438386 0.593989 0.037984 -0.009136 -97902.200000 0 0 1
19.957460 9.161986 30.019692 37.194410 0.430376 0.631569 0.046186 -0.012055 -882168.000000 0 0 1
19.697460 10.060386 28.797722 36.311294 0.472207 0.654949 0.050609 -0.015278 -563664.000000 0 0 1
18.675660 9.562586 27.979722 34.972677 0.473229 0.643426 0.031331 -0.010080 945264.000000 0 0 1
17.365160 10.001586 28.428892 34.781926 0.522553 0.614006 0.031277 -0.020162 1146500.000000 0 0 1
16.182360 9.344886 27.599152 33.330299 0.523691 0.595176 0.041819 -0.016923 273614.000000 0 0 1
16.018160 9.807886 26.257102 32.283300 0.549413 0.620937 0.051855 -0.019217 110174.000000 0 0 1
14.789860 9.479986 25.644222 31.084340 0.570007 0.600615 0.065449 -0.020701 84350.700000 0 0 1
14.408360 8.055386 25.194982 30.121043 0.509786 0.580009 0.059666 -0.008027 -51277.000000 0 0 1
14.359960 7.174186 26.294092 30.806763 0.463325 0.548098 0.036558 -0.005171 -104731.000000 0 0 1
13.983060 5.857986 25.952612 30.056281 0.396722 0.528693 0.036733 -0.002607 -125582.000000 0 0 1
14.051260 4.841586 27.059572 30.872306 0.331826 0.502254 0.047476 -0.002327 931221.000000 0 0 1
15.356760 4.379186 27.483732 31.786206 0.277790 0.526356 0.029659 -0.002591 944546.000000 0 0 1
15.358160 4.033586 28.850312 32.931496 0.256834 0.503145 0.016773 -0.007888 428958.000000 0 0 1
16.578960 3.156586 29.256832 33.775556 0.188145 0.523223 0.051496 -0.021106 278143.000000 0 0 1
16.388560 1.766886 28.976962 33.337233 0.107397 0.517200 0.043980 -0.016630 222239.000000 0 0 1
15.523860 1.083286 29.884832 33.693722 0.069669 0.480085 0.030583 -0.014685 209354.000000 0 0 1
15.324760 -0.453414 29.850792 33.557766 -0.029578 0.474471 0.041229 -0.019475 -334245.000000 0 0 1
14.531260 -0.976014 28.818112 32.289220 -0.067066 0.467940 0.031136 -0.011895 109404.000000 0 0 1
15.163960 -0.941814 27.565602 31.475310 -0.062029 0.503737 0.038285 -0.008887 -415322.000000 0 0 1
16.348860 -1.968414 27.343672 31.919215 -0.119824 0.542051 0.038994 -0.011398 -171994.000000 0 0 1
17.573360 -1.750714 27.924902 33.040704 -0.099296 0.563919 0.056888 -0.019859 -897840.000000 0 0 1
18.247360 -0.633714 27.374842 32.905162 -0.034715 0.588217 0.066461 -0.017458 660970.000000 0 0 1
19.820160 -0.611914 27.655922 34.030328 -0.030864 0.622052 0.089511 -0.025310 1600520.000000 0 0 1
20.711260 -1.476014 27.000792 34.061381 -0.071146 0.655555 0.067008 -0.017976 73220.800000 0 0 1
22.043060 -1.064114 27.272222 35.082801 -0.048237 0.680327 0.063310 -0.026321 56061.200000 0 0 1
23.017760 -1.525414 26.177402 34.891267 -0.066174 0.722346 0.060838 -0.013729 -702516.000000 0 0 1
22.923760 -0.978614 24.876922 33.842543 -0.042664 0.745014 0.069275 -0.007886 528061.000000 0 0 1
22.154660 -1.879214 24.036922 32.743458 -0.084620 0.746458 0.073530 0.001336 246129.000000 0 0 1
21.951560 -1.223114 22.638152 31.557137 -0.055661 0.770776 0.069918 -0.016901 -162048.000000 0 0 1
20.957760 -0.231914 22.626652 30.842290 -0.011065 0.747156 0.055056 -0.007483 -23407.200000 0 0 1
20.883960 0.284686 21.368352 29.880216 0.013631 0.773981 0.056654 -0.002661 -58304.300000 0 0 1
-30.170870 -27.184197 -10.361296 41.912032 0.733372 1.820602 -0.021572 0.018879 -161611.000000 0 0 1
-30.232200 -26.048697 -9.532596 41.029147 0.711202 1.805276 -0.009237 0.018478 -233274.000000 0 0 1
-30.844760 -26.292597 -8.302196 41.371806 0.705896 1.772841 -0.002219 0.019065 -864259.000000 0 0 1
-31.125860 -25.045997 -7.459296 40.641878 0.677581 1.755380 0.025780 0.009639 -157426.000000 0 0 1
-30.026440 -24.283997 -6.990796 39.245011 0.680056 1.749884 0.018903 0.001440 -181369.000000 0 0 1
-29.292920 -24.963497 -5.959796 38.945738 0.705771 1.724428 0.013407 0.003360 -606804.000000 0 0 1
-28.081500 -24.247397 -5.437496 37.497644 0.712260 1.716318 0.026875 -0.005026 -934834.000000 0 0 1
-28.206590 -23.104397 -4.608596 36.751382 0.686287 1.696527 0.033220 -0.012585 -185156.000000 0 0 1
-28.786770 -21.933097 -5.136696 36.553037 0.651084 1.711790 0.034924 -0.015960 -53881.700000 0 0 1
-28.863510 -20.727097 -4.157996 35.777139 0.622775 1.687279 0.041532 -0.021713 -156979.000000 0 0 1
-27.610280 -20.084997 -4.056496 34.382988 0.628910 1.689052 0.052730 -0.037594 347426.000000 0 0 1
-27.707070 -19.116897 -3.003396 33.795826 0.603959 1.659783 0.052187 -0.032377 -425768.000000 0 0 1
-26.513530 -18.185497 -3.172496 32.307032 0.601197 1.669153 0.048396 -0.031795 -318592.000000 0 0 1
-26.656470 -17.368997 -4.324096 32.108368 0.577490 1.705879 0.050554 -0.034872 709477.000000 0 0 1
-25.619510 -16.369097 -4.432696 30.723858 0.568554 1.715577 0.047280 -0.035878 476995.000000 0 0 1
-25.874140 -15.391197 -5.617196 30.625365 0.536623 1.755257 0.036898 -0.040509 -406936.000000 0 0 1
-27.012170 -14.579797 -5.500296 31.184629 0.494939 1.748102 0.040968 -0.039079 -187683.000000 0 0 1
-27.247960 -13.674497 -6.543596 31.181114 0.465130 1.782226 0.059350 -0.053429 -30434.400000 0 0 1
-28.555730 -12.856397 -6.374696 31.958621 0.423038 1.771610 0.064522 -0.038930 -221129.000000 0 0 1
-29.690110 -13.571297 -6.757696 33.336905 0.428741 1.774920 0.066890 -0.037749 -517167.000000 0 0 1
-30.817380 -12.888197 -6.283296 33.989651 0.396107 1.756725 0.066118 -0.037393 353715.000000 0 0 1
-32.236360 -13.431197 -6.673296 35.554365 0.394775 1.759609 0.048547 -0.032972 184945.000000 0 0 1
-32.574330 -14.642597 -6.067196 36.225730 0.422449 1.739072 0.049232 -0.029471 238326.000000 0 0 1
-32.871510 -15.570797 -7.116896 37.062597 0.442376 1.764020 0.052612 -0.034451 -1178080.000000 0 0 1
-33.612690 -16.862097 -6.820596 38.218632 0.464974 1.750220 0.041345 -0.028563 -1068060.000000 0 0 1
-34.972826 -16.688697 -6.684696 39.322974 0.445234 1.741621 0.031142 -0.021630 -951970.000000 0 0 1
-35.406316 -16.063997 -5.456496 39.261082 0.425930 1.710227 0.024878 -0.019935 -2089150.000000 0 0 1
35.128233 -16.021397 -5.417796 38.987568 -0.427901 1.710210 0.031874 -0.021095 -1679440.000000 0 0 1
34.500553 -15.123597 -6.335896 38.198886 -0.413130 1.737432 0.035612 -0.028888 1022660.000000 0 0 1
33.084853 -15.313197 -6.456596 37.024170 -0.433485 1.746081 0.046924 -0.024769 463141.000000 0 0 1
32.167293 -14.691697 -5.423696 35.777048 -0.428435 1.722980 0.078616 -0.032565 -991932.000000 0 0 1
32.187713 -15.349797 -4.155796 35.901752 -0.444984 1.686811 0.068030 -0.031191 442362.000000 0 0 1
31.991573 -14.470797 -3.037396 35.243304 -0.424791 1.657087 0.090275 -0.029360 -695466.000000 0 0 1
32.146023 -15.171397 -1.624496 35.583382 -0.440959 1.616465 0.084818 -0.028045 369862.000000 0 0 1
33.486063 -15.492497 -1.251496 36.917477 -0.433328 1.604703 0.091769 -0.026241 652384.000000 0 0 1
34.201133 -16.499297 -1.995996 38.025364 -0.449485 1.623312 0.075651 -0.022480 -528823.000000 0 0 1
33.565593 -17.884597 -2.298096 38.102350 -0.489562 1.631147 0.075231 -0.023218 -825734.000000 0 0 1
33.713123 -18.725597 -1.142896 38.581457 -0.507010 1.600424 0.076073 -0.025728 257758.000000 0 0 1
33.563123 -20.114397 -1.342696 39.151948 -0.539905 1.605098 0.056377 -0.025042 -104780.000000 0 0 1
34.509403 -20.812997 -2.341396 40.367832 -0.542704 1.628830 0.043673 -0.028340 -280509.000000 0 0 1
34.382623 -20.328797 -3.670796 40.111089 -0.533962 1.662440 0.034788 -0.029538 181068.000000 0 0 1
35.490213 -20.605197 -4.513596 41.285614 -0.526024 1.680341 0.030013 -0.030116 -60175.500000 0 0 1
35.302243 -19.854597 -5.861396 40.924434 -0.512327 1.714515 0.033466 -0.029663 732153.000000 0 0 1
34.237333 -20.197797 -6.787896 40.326437 -0.532986 1.739925 0.040025 -0.028148 1032380.000000 0 0 1
34.158823 -19.177197 -7.788396 39.940571 -0.511563 1.767053 0.038875 -0.031186 45298.000000 0 0 1
33.158723 -19.621997 -8.884196 39.540519 -0.534338 1.797417 0.043628 -0.036928 -64831.100000 0 0 1
33.609093 -20.705897 -9.680896 40.645111 -0.552159 1.811289 0.042761 -0.033544 457863.000000 0 0 1
32.581473 -20.968897 -10.615896 40.173925 -0.571851 1.838221 0.048851 -0.035478 39011.500000 0 0 1
32.475483 -22.479397 -10.966296 40.990730 -0.605469 1.841626 0.043516 -0.031852 -385908.000000 0 0 1
32.038413 -23.178597 -9.816996 40.744088 -0.626300 1.814134 0.036808 -0.028145 52023.400000 0 0 1
31.982563 -24.542597 -10.041296 41.545770 -0.654528 1.814906 0.021972 -0.013160 -327943.000000 0 0 1
31.034103 -25.365197 -9.137496 41.109641 -0.685221 1.794940 0.022665 -0.014592 -7543.250000 0 0 1
29.695623 -24.937797 -9.225596 39.860198 -0.698531 1.804363 0.026921 -0.020902 -155860.000000 0 0 1
28.768773 -25.839897 -8.657196 39.626880 -0.731816 1.791040 0.012881 -0.012874 706101.000000 0 0 1
27.311013 -25.284197 -8.677396 38.216217 -0.746881 1.799855 0.024685 -0.027080 507308.000000 0 0 1
26.660683 -25.206297 -9.942996 38.013321 -0.757365 1.835441 0.028803 -0.028364 -460962.000000 0 0 1
25.530383 -24.408897 -9.841296 36.666685 -0.762945 1.842527 0.052188 -0.034180 -798894.000000 0 0 1
24.791583 -24.307497 -11.168996 36.472229 -0.775539 1.882030 0.083471 -0.037513 -479780.000000 0 0 1
24.190383 -25.475097 -11.601796 36.996714 -0.811260 1.889768 0.083252 -0.029213 226523.000000 0 0 1
23.358183 -25.297897 -12.732896 36.711237 -0.825243 1.924995 0.090837 -0.016934 148721.000000 0 0 1
22.730283 -26.611697 -13.214496 37.409505 -0.863900 1.931827 0.092269 -0.013596 -318152.000000 0 0 1
23.658783 -27.335397 -13.921896 38.739916 -0.857372 1.938387 0.072009 -0.009594 -90759.900000 0 0 1
23.284783 -28.663397 -13.784596 39.418099 -0.888569 1.928050 0.090086 -0.020583 -190261.000000 0 0 1
24.183983 -29.629297 -14.581496 40.931410 -0.886244 1.935040 0.082251 -0.024999 -172183.000000 0 0 1
24.037483 -29.548697 -15.973696 41.304782 -0.887885 1.967877 0.072124 -0.017797 184034.000000 0 0 1
24.503683 -30.688197 -16.697596 42.673243 -0.896987 1.972829 0.071904 -0.018326 -189606.000000 0 0 1
24.357883 -30.706697 -18.236296 43.229275 -0.900189 2.006282 0.052976 -0.005600 -271085.000000 0 0 1
23.002883 -30.701097 -18.595796 42.632073 -0.927774 2.022160 0.055142 -0.002127 -347631.000000 0 0 1
22.896083 -30.701297 -19.987996 43.200929 -0.930008 2.051807 0.041973 0.000842 -80346.300000 0 0 1
21.425383 -30.572297 -20.427296 42.555691 -0.959527 2.071466 0.038508 0.002044 21818.400000 0 0 1
21.333083 -30.587197 -21.877296 43.235323 -0.961783 2.101343 0.032300 0.001624 103703.000000 0 0 1
20.005783 -30.266897 -22.236996 42.553500 -0.986742 2.120654 0.042174 -0.003588 -254316.000000 0 0 1
19.760583 -30.187597 -23.746696 43.193486 -0.991199 2.152891 0.039954 -0.005414 -620677.000000 0 0 1
20.360383 -29.136497 -24.399896 43.114216 -0.960881 2.172365 0.044338 -0.005107 112617.000000 0 0 1
20.555183 -29.441097 -25.736226 44.177450 -0.961293 2.192677 0.033640 -0.014576 -676143.000000 0 0 1
20.997283 -28.179397 -26.465726 43.993170 -0.930420 2.216283 0.034347 -0.016100 72818.100000 0 0 1
20.080683 -27.085697 -26.577916 42.933139 -0.932838 2.238333 0.064675 -0.026998 78152.800000 0 0 1
19.138283 -27.216897 -27.622496 43.243909 -0.957942 2.263682 0.079844 -0.031281 -87097.900000 0 0 1
18.303083 -25.921597 -27.833706 42.209563 -0.955992 2.290839 0.079661 -0.032650 -208464.000000 0 0 1
17.276283 -25.668497 -26.899536 40.999107 -0.978385 2.286436 0.070250 -0.014443 218595.000000 0 0 1
16.633283 -24.411597 -27.269246 40.202039 -0.972685 2.316250 0.058994 -0.004511 -70590.200000 0 0 1
15.359783 -24.144997 -26.493026 38.997234 -1.004221 2.317682 0.065606 0.000852 -815761.000000 0 0 1
14.263083 -25.007897 -26.669846 39.244250 -1.052469 2.317995 0.083030 -0.020442 -37230.600000 0 0 1
13.077683 -24.551997 -26.025196 38.093795 -1.081369 2.322915 0.050576 -0.008221 390514.000000 0 0 1
12.943183 -24.612197 -24.489796 37.054505 -1.086656 2.292831 0.043633 -0.004591 -938537.000000 0 0 1
13.822483 -23.712497 -23.877396 36.379577 -1.043031 2.286755 0.054939 -0.005319 -404360.000000 0 0 1
13.846883 -23.979997 -22.502196 35.680881 -1.047134 2.253189 0.061853 -0.012272 960252.000000 0 0 1
15.204783 -23.592397 -21.778496 35.525899 -0.998313 2.230688 0.025479 -0.012426 963256.000000 0 0 1
15.226083 -22.235997 -21.451096 34.444487 -0.970379 2.243078 0.020409 -0.007914 -148237.000000 0 0 1
16.387683 -21.874197 -20.754496 34.318883 -0.927821 2.220254 0.025674 -0.009768 -338529.000000 0 0 1
16.189683 -20.558397 -19.992696 32.931162 -0.903726 2.223209 0.042939 0.000379 -16987.500000 0 0 1
15.581883 -20.559897 -18.743896 31.887899 -0.922273 2.199140 0.052311 -0.010246 -137352.000000 0 0 1
14.205583 -20.264797 -18.793796 31.075189 -0.959401 2.220292 0.035112 -0.010116 196291.000000 0 0 1
13.403283 -20.282097 -17.435996 29.916975 -0.986836 2.192982 0.046604 -0.011923 146517.000000 0 0 1
13.773083 -19.167897 -16.622296 28.868786 -0.947729 2.184364 0.065144 -0.012792 284552.000000 0 0 1
12.882083 -19.137597 -15.542096 27.816406 -0.978333 2.163660 0.075215 -0.017434 -1085.180000 0 0 1
13.046883 -17.844697 -14.727896 26.562479 -0.939479 2.158513 0.072160 -0.019795 -192475.000000 0 0 1
12.580683 -16.700897 -15.465396 26.007153 -0.925190 2.207638 0.086249 -0.027054 307148.000000 0 0 1
12.640283 -15.509097 -14.728596 24.844323 -0.886961 2.205372 0.080253 -0.025794 679333.000000 0 1 0
11.204783 -15.037197 -14.299796 23.582804 -0.930414 2.222278 0.065360 -0.013396 510662.000000 0 1 0
10.326983 -14.600097 -15.296496 23.532790 -0.955173 2.278391 0.070443 -0.007316 -1099430.000000 0 1 0
9.226783 -14.015797 -14.712196 22.316469 -0.988599 2.290621 0.065598 -0.008552 -761008.000000 0 1 0
8.247783 -13.500397 -15.796896 22.356846 -1.022380 2.355450 0.053817 -0.004322 -249837.000000 0 1 0
8.607683 -12.353397 -16.564196 22.384620 -0.962230 2.403839 0.045137 -0.003820 186038.000000 0 1 0
9.777783 -12.512797 -17.373096 23.537196 -0.907486 2.401065 0.056662 -0.002012 313541.000000 0 1 0
10.039183 -11.326397 -18.311596 23.756831 -0.845573 2.450881 0.054026 -0.002147 28923.000000 0 1 0
9.312183 -11.291697 -19.528896 24.404855 -0.881179 2.498434 0.061064 -0.003247 230890.000000 0 1 0
9.579283 -10.083697 -20.174596 24.504243 -0.811046 2.538015 0.055276 -0.001316 101855.000000 0 1 0
9.155683 -10.129097 -21.655796 25.600755 -0.835831 2.579055 0.053416 -0.001045 257440.000000 0 0 1
10.112083 -10.871597 -22.408596 26.881053 -0.821578 2.556427 0.035105 -0.003636 -193141.000000 0 0 1
10.003883 -10.645697 -23.840596 27.960375 -0.816469 2.591845 0.029108 -0.001535 166939.000000 0 0 1
11.103283 -11.377897 -24.655896 29.336882 -0.797613 2.568891 0.056736 -0.005543 257992.000000 0 0 1
10.895783 -12.757697 -24.836496 29.972128 -0.863952 2.547493 0.046432 -0.004111 545248.000000 0 0 1
12.157983 -13.305397 -25.232356 31.008417 -0.830429 2.521330 0.036410 -0.004690 454870.000000 0 0 1
12.140983 -14.813497 -25.039796 31.525142 -0.884224 2.488618 0.033435 -0.011074 36452.400000 0 0 1
11.048283 -15.503897 -25.637846 31.933283 -0.951655 2.502868 0.038999 -0.017623 1917.300000 0 0 1
10.973583 -16.852297 -25.192886 32.235089 -0.993604 2.467921 0.043140 -0.018649 -63398.400000 0 0 1
9.737583 -17.640097 -25.650506 32.618124 -1.066408 2.475736 0.049442 -0.018349 -137526.000000 0 0 1
9.760783 -18.217197 -26.945426 33.958727 -1.078920 2.487295 0.050261 -0.030840 94833.900000 0 0 1
8.731183 -19.184697 -27.205546 34.415518 -1.143700 2.482425 0.049943 -0.029687 84869.100000 0 0 1
8.918083 -20.114697 -28.445226 35.961982 -1.153477 2.483206 0.051684 -0.029393 -763910.000000 0 0 1
9.777183 -21.176597 -28.155136 36.561637 -1.138257 2.449752 0.045087 -0.027804 -290715.000000 0 0 1
9.656083 -22.210397 -29.112016 37.868868 -1.160692 2.447694 0.052044 -0.021909 197831.000000 0 0 1
10.256283 -23.612997 -28.700556 38.554985 -1.161034 2.410441 0.053109 -0.019145 254469.000000 0 0 1
9.764183 -24.630497 -29.582056 39.712702 -1.193374 2.411184 0.066612 -0.023474 -114924.000000 0 0 1
10.024483 -25.962497 -29.137176 40.292885 -1.202318 2.379126 0.073883 -0.023564 432288.000000 0 0 1
9.325383 -26.516797 -27.837026 39.560123 -1.232627 2.351337 0.070542 -0.025149 409782.000000 0 0 1
10.183283 -26.139597 -26.772036 38.777825 -1.199311 2.332832 0.054995 -0.020971 -308910.000000 0 0 1
9.675683 -26.296697 -25.471796 37.867499 -1.218227 2.308589 0.045154 -0.024281 -133677.000000 0 0 1
8.847083 -25.089997 -25.028496 36.526763 -1.231795 2.325688 0.038774 -0.016650 698747.000000 0 0 1
9.813983 -24.014097 -24.883996 35.947244 -1.182833 2.335380 0.033153 -0.009194 628502.000000 0 0 1
9.144883 -22.797597 -24.927596 34.996348 -1.189313 2.363554 0.019828 -0.005817 -378465.000000 0 0 1
10.130383 -21.661897 -24.794696 34.447633 -1.133355 2.374281 0.037720 -0.012021 -94730.500000 0 0 1
10.738783 -21.531797 -23.528096 33.652802 -1.108157 2.344993 0.034534 -0.007521 42142.800000 0 0 1
11.741583 -20.541297 -23.465096 33.322971 -1.051514 2.352052 0.040171 -0.008794 -423122.000000 0 0 1
12.318183 -20.383297 -22.080896 32.477414 -1.027201 2.318402 0.032730 -0.007408 -444782.000000 0 0 1
11.493783 -19.882997 -21.052196 31.155025 -1.046657 2.312743 0.027580 0.003627 -279089.000000 0 0 1
10.987983 -18.578497 -21.240196 30.282706 -1.036698 2.348152 0.034553 0.001242 421320.000000 0 0 1
12.001083 -17.373697 -20.962996 29.754303 -0.966298 2.352566 0.031236 -0.003299 1033860.000000 0 0 1
12.917983 -17.091697 -22.031996 30.731242 -0.923591 2.370178 0.031549 0.009675 -182947.000000 0 0 1
14.236983 -17.006697 -21.562196 30.932955 -0.873816 2.342088 0.040144 -0.004453 -33286.200000 0 0 1
15.323183 -17.160997 -22.662996 32.294135 -0.841914 2.348673 0.025787 0.005242 136189.000000 0 0 1
16.635483 -17.333397 -22.164396 32.687098 -0.805941 2.315941 0.039774 0.006396 -40760.700000 0 0 1
17.530683 -17.408097 -23.235996 33.915752 -0.781890 2.325550 0.029290 0.000324 -1570280.000000 0 0 1
18.952983 -17.518697 -22.814896 34.447638 -0.746092 2.294689 0.029787 -0.001586 -1473660.000000 0 0 1
19.280383 -18.848097 -22.376096 35.038174 -0.774061 2.263501 0.035951 -0.000818 460869.000000 0 0 1
20.674683 -18.972197 -22.132296 35.738289 -0.742483 2.238632 0.041388 -0.009653 402225.000000 0 0 1
21.021083 -20.303597 -21.437096 36.244601 -0.768038 2.203660 0.037889 -0.004539 87641.700000 0 0 1
20.509183 -20.293097 -20.097596 35.161765 -0.780102 2.179221 0.049946 -0.009766 377788.000000 0 0 1
21.027483 -21.404797 -19.381296 35.720513 -0.794290 2.144304 0.054344 0.009330 89152.600000 0 0 1
-15.944840 12.980386 28.841312 35.419622 -0.683268 0.619317 0.027791 -0.014638 -53928.400000 0 0 1
-17.183540 13.574386 28.481652 35.926905 -0.668592 0.655462 0.035734 -0.016710 255866.000000 0 0 1
-17.437340 13.357486 27.103452 34.886679 -0.653680 0.681070 0.027300 -0.017734 914481.000000 0 0 1
-18.725340 14.092086 26.551512 35.414800 -0.645142 0.723143 0.043251 -0.013133 823432.000000 0 0 1
-18.465940 15.482086 26.436282 35.770979 -0.697729 0.739148 0.043537 -0.014237 248698.000000 0 0 1
-19.492140 16.144186 25.708702 36.076525 -0.691725 0.777577 0.057583 -0.015418 -390626.000000 0 0 1
-19.724340 17.647886 26.063012 37.145364 -0.729894 0.793087 0.066636 -0.015021 -205793.000000 0 0 1
-18.798140 18.592986 25.607452 36.807755 -0.779912 0.801391 0.032942 -0.017723 903358.000000 0 0 1
-17.504240 18.512386 26.270902 36.595999 -0.813382 0.770069 0.023641 -0.009662 1318820.000000 0 0 1
-16.387140 19.503886 25.754642 36.224874 -0.872020 0.779926 0.028768 -0.012113 447694.000000 0 0 1
-16.697340 20.882786 25.954792 37.263161 -0.896315 0.800251 0.038300 -0.010730 -320374.000000 0 0 1
-15.627440 21.697586 25.577902 37.003124 -0.946616 0.807598 0.055186 -0.016659 -241632.000000 0 0 1
-15.926840 23.197886 25.556062 38.012083 -0.969145 0.833466 0.054913 -0.015020 -224062.000000 0 0 1
-15.555640 23.904186 26.708042 39.073105 -0.993894 0.818194 0.054702 -0.011837 -75297.600000 0 0 1
-15.835440 25.279786 26.585082 39.957419 -1.011186 0.842853 0.053404 -0.008127 -306067.000000 0 0 1
-15.233940 26.128186 27.710022 41.019512 -1.042936 0.829109 0.049117 -0.002481 745293.000000 0 0 1
-13.800640 26.150786 27.773152 40.566849 -1.085209 0.816705 0.045130 -0.004038 549751.000000 0 0 1
-13.426640 26.966486 28.840502 41.704204 -1.108829 0.807165 0.051660 -0.002818 543145.000000 0 0 1
-11.868140 27.060186 29.030042 41.422817 -1.157477 0.794246 0.055605 -0.001680 1470310.000000 0 0 1
-11.180040 27.716486 27.948202 40.918198 -1.187387 0.818898 0.048965 -0.003288 465958.000000 0 0 1
-9.772040 27.508886 27.919662 40.394791 -1.229468 0.807690 0.043496 -0.007264 744728.000000 0 0 1
-9.035140 28.208986 26.689422 39.871116 -1.260828 0.837406 0.048030 -0.009827 1101050.000000 0 0 1
-7.608640 28.037586 26.693162 39.452789 -1.305805 0.827681 0.048321 -0.010032 1083680.000000 0 0 1
-7.051140 28.389786 25.408042 38.746189 -1.327353 0.855613 0.060770 -0.011413 -862729.000000 0 0 1
-5.561740 28.183286 25.336582 38.303694 -1.375958 0.848025 0.042970 -0.012971 -593170.000000 0 0 1
-4.738440 29.066586 26.160062 39.391218 -1.409198 0.844495 0.056570 -0.014679 -523997.000000 0 0 1
-3.404940 28.735086 26.144892 38.998130 -1.452852 0.836030 0.046657 -0.011699 -1123980.000000 0 0 1
-2.564240 29.616286 25.237482 38.995259 -1.484430 0.866899 0.034242 -0.008870 -712397.000000 0 0 1
-2.833140 29.344586 23.898202 37.950698 -1.474547 0.889607 0.021574 0.001358 -58757.700000 0 0 1
-2.412040 30.372386 23.025652 38.190057 -1.491547 0.923637 0.018441 -0.000073 -406247.000000 0 0 1
-2.743640 30.059286 21.553252 37.089499 -1.479774 0.950699 0.013409 0.009366 96611.400000 0 0 1
-4.103240 30.038586 21.193852 36.990980 -1.435038 0.960700 0.013436 0.011412 -304196.000000 0 0 1
-4.793640 28.859786 21.538852 36.328892 -1.406198 0.936160 0.016896 0.007544 611207.000000 0 0 1
-6.328140 28.849286 21.160052 36.332829 -1.354864 0.949125 0.022087 0.003835 888910.000000 0 0 1
-6.477940 28.966186 19.788852 35.673552 -1.350779 0.982769 0.001786 0.011228 145597.000000 0 0 1
-7.368740 28.029986 19.203152 34.766931 -1.313725 0.985628 0.003818 0.009687 -857242.000000 0 0 1
-6.800240 26.569586 19.047752 33.391661 -1.320234 0.963762 -0.005221 0.005388 -274408.000000 0 0 1
-5.937140 26.355386 17.999652 32.462956 -1.349223 0.983073 -0.004029 0.007210 -445204.000000 0 0 1
-4.634540 26.842086 18.219552 32.770850 -1.399823 0.981269 0.007649 0.006296 -720874.000000 0 0 1
-3.787040 26.980486 16.933452 32.078499 -1.431345 1.014699 0.006197 0.006474 -196437.000000 0 0 1
-3.308940 25.789486 16.443252 30.764057 -1.443188 1.006886 0.010339 -0.000002 -170101.000000 0 0 1
-2.649340 25.972286 15.202852 30.211014 -1.469141 1.043473 0.016667 -0.017091 -46202.400000 0 0 1
-1.800440 24.725286 14.783352 28.863971 -1.498107 1.033083 0.018171 -0.016300 -36977.000000 0 0 1
-0.695740 24.546186 15.634652 29.110851 -1.542460 1.003833 0.023823 -0.018451 -440418.000000 0 0 1
-0.033940 23.395386 15.274652 27.940298 -1.569346 0.992391 0.017515 -0.021665 -90449.900000 0 0 1
1.375460 23.153986 15.895052 28.118528 1.511461 0.970015 0.019217 -0.024602 530102.000000 0 0 1
2.363960 24.117386 15.560152 28.798523 1.473090 0.999990 0.032370 -0.030077 -402520.000000 0 0 1
3.599160 23.605786 15.956752 28.719419 1.419492 0.981702 0.045069 -0.031574 -334310.000000 0 0 1
4.812860 24.547886 15.752852 29.562048 1.377192 1.008803 0.057209 -0.029594 -70146.500000 0 0 1
6.018960 23.847486 15.727752 29.194052 1.323566 1.001866 0.050688 -0.022021 212257.000000 0 0 1
7.161760 24.725286 15.603152 30.101311 1.288859 1.025871 0.050738 -0.019124 755631.000000 0 0 1
8.513260 23.973186 15.664352 29.875762 1.229571 1.018884 0.050738 -0.015746 -13416.000000 0 0 1
8.882860 23.253286 14.527852 28.821502 1.205899 1.042500 0.047533 -0.017251 51727.400000 0 0 1
9.760760 23.929986 13.648852 29.226834 1.183508 1.084904 0.038777 -0.020675 209670.000000 0 0 1
10.369660 22.983986 12.491852 28.139649 1.146971 1.110824 0.035362 -0.014403 460600.000000 0 0 1
11.336060 22.006986 12.843952 27.888721 1.095132 1.092190 0.046427 -0.013073 313561.000000 0 0 1
12.037060 21.390586 11.785952 27.227865 1.058234 1.123129 0.070833 -0.017525 -276453.000000 0 0 1
13.027060 20.356386 12.219252 27.081301 1.001519 1.102680 0.036773 -0.008676 -628601.000000 0 0 1
12.394360 19.129486 12.696152 26.091180 0.995885 1.062595 0.045942 -0.011191 118952.000000 0 0 1
13.269160 18.165386 13.234552 26.099908 0.939916 1.039011 0.048865 -0.015283 -373651.000000 0 0 1
14.129760 18.527086 14.468352 27.426925 0.919246 1.015113 0.049732 -0.012954 -264797.000000 0 0 1
15.068860 17.513686 14.768852 27.421136 0.860293 1.002029 0.045009 -0.006358 -15679.600000 0 0 1
15.625260 17.709286 16.046852 28.552916 0.847835 0.973990 0.041061 -0.018537 -268630.000000 0 0 1
16.820060 16.746586 16.176452 28.723512 0.783209 0.972570 0.029205 -0.021994 -254061.000000 0 0 1
17.461660 16.761986 17.435652 29.830784 0.764957 0.946551 0.034684 -0.026539 208478.000000 0 0 1
18.628560 15.956586 17.310852 30.021683 0.708293 0.956221 0.031635 -0.025906 155653.000000 0 0 1
19.174860 15.552786 18.727152 30.988234 0.681474 0.921870 0.033603 -0.028233 12102.200000 0 0 1
19.751860 16.558386 19.540252 32.344050 0.697674 0.922113 0.052802 -0.024660 541763.000000 0 0 1
18.736860 17.345286 20.173452 32.540698 0.746850 0.902123 0.037720 -0.019146 163692.000000 0 0 1
19.164160 18.447986 21.157452 33.988689 0.766359 0.898882 0.050310 -0.017106 144581.000000 0 0 1
18.050160 19.198786 21.590152 34.066645 0.816225 0.884389 0.063828 -0.015178 420973.000000 0 0 1
18.627060 20.239486 22.403652 35.475735 0.826861 0.887284 0.074497 -0.013833 114929.000000 0 0 1
17.684060 21.370886 22.805552 35.910081 0.879520 0.882692 0.078265 -0.018484 -688135.000000 0 0 1
16.675260 20.922186 23.650892 35.709478 0.897879 0.846893 0.079357 -0.021138 -158509.000000 0 0 1
15.928560 22.053486 24.120752 36.357749 0.945280 0.845405 0.085143 -0.030987 154360.000000 0 0 1
14.952760 21.686786 25.250212 36.489381 0.967161 0.806557 0.092289 -0.035923 -315756.000000 0 0 1
14.056460 20.624486 25.029732 35.347432 0.972566 0.783984 0.078119 -0.037966 13391.700000 0 0 1
13.226860 20.563086 26.193332 35.831285 0.999193 0.750983 0.068157 -0.023764 512133.000000 0 0 1
12.165960 19.399886 26.006002 34.650805 1.010678 0.721953 0.053487 -0.027387 461747.000000 0 0 1
12.771660 18.090886 26.095882 34.225583 0.956074 0.703679 0.075268 -0.032906 572319.000000 0 0 1
13.501460 17.554286 24.958962 33.367532 0.915166 0.725751 0.083370 -0.033823 150042.000000 0 0 1
12.800860 17.376686 23.569532 31.958318 0.935882 0.741423 0.090783 -0.029492 -882333.000000 0 0 1
12.794160 18.534986 22.763152 32.021826 0.966630 0.780071 0.090275 -0.030862 788365.000000 0 0 1
14.054060 19.086986 22.295852 32.541276 0.936110 0.815978 0.087466 -0.028828 1013130.000000 0 0 1
14.731760 18.170386 21.253652 31.605465 0.889531 0.833258 0.085875 -0.027350 -554006.000000 0 0 1
13.931760 18.149786 20.114952 30.465061 0.916127 0.849627 0.094318 -0.031324 301134.000000 0 0 1
14.368060 17.028886 19.350852 29.510669 0.869944 0.855655 0.067668 -0.030519 374330.000000 0 0 1
13.115760 16.366286 18.722752 28.114408 0.895209 0.842032 0.059295 -0.016523 457647.000000 0 0 1
12.579160 17.152786 17.619052 27.620361 0.938030 0.879027 0.063884 -0.019436 206518.000000 0 0 1
11.591960 16.449186 16.894052 26.274669 0.956914 0.872415 0.056465 -0.016190 202516.000000 0 0 1
10.976060 17.069086 15.606552 25.600626 0.999331 0.915220 0.045330 -0.012920 -520969.000000 0 0 1
10.147260 18.145586 15.876352 26.158894 1.060907 0.918617 0.049405 -0.014604 -175507.000000 0 0 1
9.757260 18.730686 14.657052 25.707429 1.090550 0.964110 0.038959 -0.006771 -358416.000000 0 0 1
8.720360 19.883786 14.692752 26.216151 1.157491 0.975871 0.049819 -0.009721 -122861.000000 0 0 1
7.419560 19.431086 14.982252 25.633666 1.206043 0.946563 0.030876 -0.015664 -626080.000000 0 0 1
6.552160 20.535686 14.966152 26.241778 1.261944 0.963904 0.040633 -0.018349 -903101.000000 0 0 1
5.317060 20.173386 15.758352 26.145024 1.313089 0.923880 0.041912 -0.023590 -1129730.000000 0 0 1
4.371060 19.504586 14.970252 24.972855 1.350335 0.927969 0.036644 -0.023842 -1374190.000000 0 1 0
3.240060 19.346486 15.747452 25.154855 1.404861 0.894357 0.015112 -0.012400 -848588.000000 0 0 1
2.067660 18.812686 14.927652 24.104505 1.461328 0.902960 0.006160 -0.013291 -926155.000000 0 1 0
1.272560 19.705386 14.271352 24.363767 1.506307 0.944977 0.010116 -0.026683 -519234.000000 0 1 0
0.419560 19.031786 13.369852 23.262370 1.548755 0.958508 0.004990 -0.031055 -49887.600000 0 1 0
-0.393940 19.966086 12.431152 23.523038 -1.551068 1.014002 0.008750 -0.034772 197295.000000 0 1 0
-1.377840 20.796186 13.044752 24.587504 -1.504639 1.011554 0.010957 -0.023794 -62808.900000 0 1 0
-2.392740 21.073586 12.114252 24.424912 -1.457738 1.051834 0.012233 -0.024102 16708.500000 0 1 0
-3.579840 21.827386 12.749952 25.530596 -1.408237 1.047891 0.009835 -0.020014 -122768.000000 0 0 1
-4.387540 21.147586 13.666652 25.558722 -1.366226 1.006625 0.014479 -0.020973 -213055.000000 0 0 1
-5.340840 22.026786 14.238552 26.766401 -1.332917 1.009887 0.019282 -0.006882 137071.000000 0 0 1
-6.179140 21.294286 15.347352 26.966083 -1.288374 0.965342 0.012454 -0.010310 166876.000000 0 0 1
-7.049440 20.197386 14.939752 26.092627 -1.234988 0.961164 0.016765 -0.011280 442229.000000 0 0 1
-7.606840 19.445386 15.986052 26.297166 -1.197908 0.917383 0.025098 0.000325 263698.000000 0 0 1
-8.805240 20.067886 16.780552 27.601435 -1.157318 0.917308 0.026028 0.002776 360253.000000 0 0 1
-10.007040 19.946586 16.039052 27.481964 -1.105796 0.947615 0.019496 -0.010003 590103.000000 0 0 1
-11.150740 19.609886 16.872852 28.170548 -1.053764 0.928603 0.019763 -0.008080 1696130.000000 0 0 1
-12.453940 19.429486 15.999452 28.081809 -1.000787 0.964602 0.035039 -0.017525 754421.000000 0 0 1
-13.039040 20.636586 15.462452 28.895894 -1.007293 1.006160 0.030835 -0.005992 66314.700000 0 0 1
-14.069640 20.255586 14.567852 28.643775 -0.963700 1.037253 0.031542 -0.013021 -200968.000000 0 0 1
-15.006740 21.365586 14.083652 29.665464 -0.958475 1.076117 0.027086 -0.014681 121181.000000 0 0 1
-16.167540 21.436086 14.911052 30.712125 -0.924599 1.063850 0.019686 -0.013497 -373312.000000 0 0 1
-16.963740 22.535986 14.565852 31.745916 -0.925544 1.094123 0.031035 -0.010793 -455675.000000 0 0 1
-18.207040 22.406586 15.451452 32.745974 -0.888434 1.079399 0.072507 -0.020040 -1369560.000000 0 0 1
-19.093240 21.362686 15.030252 32.354670 -0.841436 1.087674 0.058313 -0.023104 526810.000000 0 0 1
-20.250240 21.242486 15.866652 33.362645 -0.809307 1.075172 0.061546 -0.016614 1070760.000000 0 0 1
-21.234840 22.489086 15.869452 34.763730 -0.814076 1.096745 0.065318 -0.017720 -957297.000000 0 0 1
-22.109540 22.448486 14.772352 34.799263 -0.793005 1.132385 0.067047 -0.014055 -157433.000000 0 0 1
-22.991140 23.503986 14.555852 35.956957 -0.796428 1.154022 0.085602 -0.020394 -271914.000000 0 0 1
-22.469340 24.702686 13.777152 36.123453 -0.832708 1.179496 0.067723 -0.014481 -138198.000000 0 0 1
-21.472440 25.454686 14.476252 36.312100 -0.870056 1.160739 0.061008 -0.011617 244718.000000 0 0 1
-21.009640 26.472786 13.634952 36.443453 -0.899951 1.187327 0.043851 -0.008490 166291.000000 0 0 1
-19.527240 26.885086 13.868752 36.006433 -0.942622 1.175400 0.044995 -0.008628 94039.700000 0 0 1
-18.604640 26.003486 13.311352 34.633885 -0.949765 1.176298 0.044089 0.003573 159688.000000 0 0 1
-17.272140 26.417286 13.648652 34.387287 -0.991741 1.162649 0.026008 0.002119 383535.000000 0 0 1
-16.238440 25.767086 12.738752 33.013716 -1.008466 1.174654 0.023414 0.002975 757780.000000 0 0 1
-14.933040 26.388286 12.709752 32.876665 -1.055830 1.173866 0.019535 0.006808 1206160.000000 0 0 1
-14.010140 25.714786 11.835552 31.585037 -1.071932 1.186701 0.022374 0.004363 625601.000000 0 0 1
-12.618840 26.374386 11.954552 31.587255 -1.124536 1.182663 0.019498 0.010562 233335.000000 0 0 1
-11.436440 25.608786 11.692352 30.386069 -1.150788 1.175813 0.012790 0.002440 692758.000000 0 0 1
-10.237240 26.236886 12.074952 30.642776 -1.198780 1.165756 0.031095 -0.005065 313147.000000 0 0 1
-9.629240 27.373986 11.168452 31.093274 -1.232549 1.203394 0.023690 -0.003357 -618382.000000 0 0 1
-8.571040 28.089586 11.720652 31.620583 -1.274638 1.191071 0.040478 -0.016333 -334463.000000 0 0 1
-8.192640 29.150786 10.896652 32.181123 -1.296820 1.225364 0.041711 -0.017193 -204190.000000 0 0 1
-6.962840 29.883586 11.467852 32.757007 -1.341882 1.213131 0.036485 -0.014655 915605.000000 0 0 1
-5.733340 29.145986 11.350752 31.799359 -1.376565 1.205797 0.038983 -0.018989 687824.000000 0 0 1
-4.632740 29.684586 12.065552 32.376140 -1.415980 1.188914 0.026173 -0.016909 365462.000000 0 0 1
-3.260740 29.255886 11.495652 31.602046 -1.459799 1.198492 0.026906 -0.024605 -48113.600000 0 0 1
-2.975840 29.881286 10.272352 31.737487 -1.471535 1.241195 0.045769 -0.028080 -731796.000000 0 0 1
-1.775940 29.484286 9.730152 31.099083 -1.510636 1.252577 0.031327 -0.026438 -758555.000000 0 0 1
-1.556940 30.236186 8.416752 31.424397 -1.519349 1.299645 0.029857 -0.029003 24045.700000 0 0 1
-2.342240 29.796486 7.300352 30.767057 -1.492350 1.331233 0.049649 -0.026190 340124.000000 0 0 1
-2.592040 30.791186 6.325952 31.540981 -1.486813 1.368864 0.047538 -0.020449 -21470.000000 0 0 1
11.078960 -33.902197 -26.730756 44.571691 -1.254945 2.213954 0.066224 -0.035418 -119778.000000 0 0 1
11.714560 -33.781597 -25.498246 43.915689 -1.236999 2.190284 0.056336 -0.032202 702930.000000 0 0 1
12.990960 -33.126797 -25.617016 43.844968 -1.197068 2.194769 0.063892 -0.027041 592285.000000 0 0 1
13.861160 -33.110097 -24.367696 43.384270 -1.174326 2.167201 0.059070 -0.015225 -582806.000000 0 0 1
13.320960 -32.310197 -23.320796 42.014954 -1.179746 2.159231 0.060261 -0.014999 219400.000000 0 0 1
13.798260 -32.434997 -21.961996 41.530113 -1.168576 2.128007 0.045685 -0.008527 1861560.000000 0 0 1
15.369260 -32.242697 -21.646196 41.765577 -1.125983 2.115633 0.032817 0.001298 2330100.000000 0 0 1
16.223360 -33.312697 -22.079296 43.132685 -1.117601 2.108183 0.035442 -0.003489 267136.000000 0 0 1
17.546160 -33.119697 -21.643996 43.280996 -1.083609 2.094488 0.032924 -0.007723 -25677.800000 0 0 1
18.563460 -34.275697 -21.855296 44.688694 -1.074431 2.081804 0.026521 0.007069 549895.000000 0 0 1
19.886060 -33.886397 -21.481796 44.779581 -1.040106 2.071135 0.017549 0.015742 978419.000000 0 0 1
20.781060 33.720586 -21.668496 45.149242 1.018498 2.071372 0.021674 0.023041 1426910.000000 0 0 1
22.330660 33.963886 -21.487196 45.977206 0.989179 2.057081 0.028977 0.028352 1036390.000000 0 0 1
22.968460 -34.138497 -22.573196 46.931187 -0.978558 2.072574 0.023757 0.028710 888297.000000 0 0 1
24.393860 -34.087497 -22.320696 47.489276 -0.949661 2.060105 0.023452 0.030116 1088190.000000 0 0 1
25.098160 -33.389997 -23.483596 47.919608 -0.926229 2.082958 0.028628 0.011960 -159294.000000 0 0 1
25.100260 -31.988597 -23.443496 46.934964 -0.905478 2.093805 0.029004 0.010468 54889.100000 0 0 1
23.906260 -31.432697 -23.986496 46.204715 -0.920575 2.116635 0.022370 0.010183 143237.000000 0 0 1
23.795860 -29.903697 -23.886396 45.066994 -0.898652 2.129420 0.023762 -0.011695 -228555.000000 0 0 1
24.588060 -29.129697 -24.754696 45.452249 -0.869744 2.146745 0.024245 -0.015490 -90815.400000 0 0 1
24.404860 -27.796797 -24.337696 44.278466 -0.850285 2.152743 0.028943 -0.007091 54381.300000 0 0 1
24.950760 -26.870397 -25.388996 44.599997 -0.822425 2.176402 0.019077 -0.008462 125272.000000 0 0 1
24.300560 -26.978897 -26.635866 45.031627 -0.837581 2.203705 0.023451 -0.015757 -452162.000000 0 0 1
24.959160 -26.181397 -27.545286 45.466119 -0.809293 2.221620 0.019744 -0.012774 -713635.000000 0 0 1
24.062960 -25.937197 -28.756056 45.592488 -0.822865 2.253276 0.019784 -0.015915 772340.000000 0 0 1
23.128960 -24.841797 -28.699906 44.449390 -0.821089 2.272705 0.035225 -0.021134 384720.000000 0 0 1
21.983460 -24.967397 -27.880756 43.404838 -0.848867 2.268347 0.028043 -0.020190 -596896.000000 0 0 1
21.273660 -23.603297 -27.707966 42.159407 -0.837263 2.287919 0.033480 -0.012711 -283065.000000 0 0 1
20.584460 -23.156697 -28.836096 42.325796 -0.844136 2.320318 0.038195 -0.020668 -119999.000000 0 0 1
20.107560 -21.868497 -28.515956 41.178937 -0.827325 2.335730 0.040689 -0.011836 -388929.000000 0 0 1
19.308360 -21.293797 -29.716446 41.343751 -0.834259 2.372821 0.066197 -0.026168 405524.000000 0 0 1
18.173160 -22.136397 -29.925846 41.422700 -0.883403 2.378136 0.069457 -0.028587 -501195.000000 0 0 1
17.146860 -21.581897 -30.644956 41.217792 -0.899417 2.409068 0.061854 -0.036228 -771365.000000 0 0 1
15.913260 -22.481497 -30.434826 41.047877 -0.954829 2.406021 0.068273 -0.036324 -415276.000000 0 0 1
15.980860 -23.719097 -31.153816 42.291178 -0.977902 2.398900 0.069655 -0.020259 -102211.000000 0 0 1
14.999560 -24.579397 -30.649846 42.054092 -1.022875 2.387393 0.082969 -0.027963 -239500.000000 0 0 1
15.314860 -26.045197 -30.965696 43.263975 -1.039239 2.368477 0.091690 -0.026660 -79539.300000 0 0 1
14.321360 -26.981597 -30.653746 43.275398 -1.082827 2.357942 0.105223 -0.025524 -406946.000000 0 0 1
14.697060 -28.269697 -31.031736 44.476376 -1.091366 2.342996 0.126877 -0.030236 226569.000000 0 0 1
14.000660 -29.415697 -30.256436 44.460698 -1.126566 2.319270 0.117135 -0.039763 -47526.300000 0 0 1
14.502760 -29.610397 -28.901336 43.845101 -1.115353 2.290510 0.127875 -0.040318 26715.200000 0 0 1
14.202360 -28.558297 -28.053006 42.476517 -1.109302 2.292195 0.106612 -0.031586 -98453.000000 0 0 1
15.200760 -28.460097 -26.868036 41.987279 -1.080236 2.265176 0.074389 -0.016477 57795.000000 0 0 1
15.110760 -29.552897 -25.961576 42.139200 -1.098140 2.234566 0.082924 -0.022669 -29710.900000 0 0 1
15.866460 -29.458597 -24.768196 41.629521 -1.076746 2.208021 0.084190 -0.023901 -963014.000000 0 0 1
15.468660 -28.320497 -23.782596 40.086679 -1.070875 2.205923 0.070193 -0.019202 1187310.000000 0 0 1
14.334060 -28.558297 -22.895696 39.309725 -1.105612 2.192528 0.056305 -0.017380 1080520.000000 0 0 1
13.091660 -28.638797 -23.595796 39.348873 -1.142029 2.213868 0.058159 -0.012582 -316316.000000 0 0 1
11.846460 -28.610797 -22.686196 38.387235 -1.178232 2.203073 0.032563 -0.005530 14434.900000 0 0 1
11.760060 -27.355897 -22.061796 37.058966 -1.164790 2.208455 0.026350 -0.010608 374583.000000 0 0 1
10.553260 -27.196497 -21.323096 36.134404 -1.200645 2.201985 0.025079 -0.011817 -335877.000000 0 0 1
10.130960 -25.705897 -21.290396 34.881377 -1.195378 2.227319 0.024013 -0.012608 -17464.900000 0 0 1
10.928160 -24.837397 -20.429096 33.965702 -1.156299 2.216127 0.017801 -0.010826 555229.000000 0 0 1
10.501860 -23.502697 -20.556196 32.942723 -1.150576 2.244645 0.019077 -0.013665 -410031.000000 0 0 1
10.905360 -22.598097 -19.367596 31.697076 -1.121183 2.228147 0.026881 -0.006388 53001.000000 0 0 1
10.363360 -23.010997 -18.066996 31.037422 -1.147638 2.192110 0.030011 -0.011595 10982.100000 0 0 1
10.575360 -22.231497 -16.880096 29.849880 -1.126783 2.171835 0.030979 -0.014496 -582472.000000 0 0 1
9.760660 -22.539197 -15.614096 29.104740 -1.162125 2.137056 0.030463 -0.011094 -76557.000000 0 0 1
10.091260 -23.831197 -15.139696 29.982826 -1.170241 2.100115 0.041522 -0.009114 -129464.000000 0 0 1
9.271260 -24.299997 -14.093496 29.581628 -1.206310 2.067383 0.040501 -0.004893 -34746.900000 0 0 1
9.360760 -25.777397 -13.798196 30.699971 -1.222465 2.036949 0.047378 -0.010457 321091.000000 0 0 1
10.679060 -26.138797 -13.415196 31.260942 -1.182939 2.014332 0.031933 -0.004560 -47945.000000 0 0 1
10.854960 -27.518997 -13.489196 32.512824 -1.195081 1.998617 0.040279 -0.013424 -1206720.000000 0 0 1
12.132260 -28.009797 -12.800796 33.099862 -1.162048 1.967882 0.044051 -0.017506 255437.000000 0 0 1
13.312960 -27.462097 -13.412096 33.335956 -1.119402 1.984858 0.041945 -0.006812 402122.000000 0 0 1
13.654860 -27.971197 -14.700896 34.423239 -1.116653 2.012039 0.050014 -0.014421 -1619570.000000 0 0 1
14.971760 -27.566997 -15.317296 34.910063 -1.073263 2.025020 0.040912 -0.014198 -964202.000000 0 0 1
16.123660 -28.123997 -14.754796 35.617911 -1.050236 1.997917 0.065329 -0.019881 -497343.000000 0 0 1
17.207760 -27.642697 -15.522396 36.071741 -1.013992 2.015644 0.083182 -0.024395 320781.000000 0 0 1
18.525760 -28.456497 -15.357196 37.266868 -0.993704 1.995540 0.075165 -0.025061 491348.000000 0 0 1
18.526760 -29.750497 -15.911796 38.490494 -1.013825 1.996976 0.069058 -0.017017 -111270.000000 0 0 1
19.870360 -30.180597 -15.946796 39.496834 -0.988551 1.986407 0.073918 -0.013135 275465.000000 0 0 1
20.231560 -31.292297 -16.927296 40.927463 -0.996861 1.997193 0.061786 -0.014045 -123798.000000 0 0 1
19.782260 -32.566297 -16.541396 41.539370 -1.024920 1.980361 0.060839 -0.002137 35167.800000 0 0 1
20.175760 -33.568397 -17.501996 42.897767 -1.029617 1.991051 0.049100 0.001549 232853.000000 0 0 1
19.812260 33.702486 -17.047296 42.649660 1.039353 1.981992 0.023008 0.011476 -124194.000000 0 0 1
20.668560 33.296086 -16.024896 42.339296 1.015259 1.958958 0.039074 -0.000959 -29271.500000 0 0 1
20.482760 31.953986 -15.659296 41.058668 1.000768 1.962094 0.027395 0.003551 -659045.000000 0 0 1
21.404660 31.471586 -14.550996 40.747413 0.973533 1.935960 0.028970 -0.006104 -39697.500000 0 0 1
22.753160 31.263486 -15.018796 41.481033 0.941664 1.941278 0.034633 -0.001993 1081600.000000 0 0 1
23.614260 30.765886 -13.952996 41.217218 0.916159 1.916144 0.043431 -0.008014 378103.000000 0 0 1
23.267660 29.494686 -13.137996 39.798586 0.902875 1.907219 0.042861 -0.002045 -1406800.000000 0 0 1
23.323460 28.269986 -13.884296 39.191192 0.880981 1.932931 0.049336 0.006116 94639.100000 0 0 1
23.069760 27.084586 -13.167196 37.936311 0.865277 1.925259 0.007925 0.005004 392805.000000 0 0 1
21.550360 26.908186 -12.823596 36.781967 0.895516 1.926914 0.013366 0.005111 641855.000000 0 0 1
20.714060 26.473986 -13.919896 36.382794 0.906861 1.963400 0.014931 0.001983 1093280.000000 0 0 1
19.324660 26.834486 -13.891096 35.867738 0.946679 1.968483 0.016060 -0.003958 716890.000000 0 0 1
18.880760 28.280186 -14.022896 36.781702 0.982126 1.961941 0.009917 -0.003757 -508467.000000 0 0 1
19.000060 28.839586 -15.334196 37.787055 0.988247 1.988656 0.012026 -0.003078 230471.000000 0 0 1
17.988160 28.358886 -16.209996 37.290270 1.005534 2.020499 0.003584 0.006941 -173849.000000 0 0 1
18.074460 28.945186 -17.611096 38.401310 1.012602 2.047223 0.005344 0.014074 -83144.800000 0 0 1
17.488360 30.272986 -17.673196 39.174459 1.046944 2.038840 0.007129 0.014683 203962.000000 0 0 1
17.469060 30.811986 -18.969696 40.179546 1.055028 2.062494 0.003785 0.016220 -557689.000000 0 0 1
16.414060 31.896186 -19.089796 40.635063 1.095530 2.059845 0.000586 0.018352 -278237.000000 0 0 1
16.736960 33.120686 -18.516496 41.472476 1.102892 2.033620 0.022802 0.008222 1088480.000000 0 0 1
15.659760 34.094486 -18.751196 41.943646 1.140232 2.034269 0.030206 0.009961 1307600.000000 0 0 1
15.955560 -33.403597 -17.795396 41.073791 -1.125180 2.018897 0.032486 0.007672 200520.000000 0 0 1
14.953260 -32.465497 -18.070196 40.051722 -1.139171 2.038874 0.029651 0.005130 -137824.000000 0 0 1
14.747260 -31.518497 -17.063696 38.756510 -1.133163 2.026706 0.039381 0.000877 -42785.400000 0 0 1
13.635060 -30.530197 -17.464096 37.722704 -1.150766 2.052128 0.049166 -0.010307 799197.000000 0 0 1
12.331560 -31.117297 -17.319296 37.687021 -1.193490 2.048292 0.036385 -0.003913 456128.000000 0 0 1
11.275660 -30.214797 -17.592296 36.736403 -1.213619 2.070174 0.021921 0.001648 734449.000000 0 0 1
9.932260 -30.953797 -17.845896 37.084543 -1.260301 2.072844 0.031176 -0.000785 -71693.300000 0 0 1
9.053560 -31.428097 -16.821296 36.778366 -1.290318 2.045831 0.039550 -0.002914 482615.000000 0 0 1
8.130960 -32.431097 -17.257296 37.625827 -1.325145 2.047278 0.050515 0.003221 690495.000000 0 0 1
6.861660 -31.833997 -17.964796 37.191661 -1.358499 2.074912 0.045930 0.005716 -314530.000000 0 0 1
7.009160 -31.285697 -19.289196 37.416524 -1.350398 2.112418 0.035121 0.008892 -178358.000000 0 0 1
6.983960 -32.321497 -20.289496 38.795857 -1.357990 2.121141 0.042205 -0.003388 -848590.000000 0 0 1
7.245960 -31.743497 -21.722596 39.141087 -1.346375 2.159138 0.047758 0.005601 -157100.000000 0 0 1
8.569360 -31.381397 -22.057396 39.303368 -1.304224 2.166642 0.039274 -0.002184 424816.000000 0 0 1
9.560460 -32.421597 -22.111396 40.391536 -1.284044 2.150082 0.047131 -0.009099 59259.500000 0 0 1
9.319260 -33.577797 -23.164296 41.843777 -1.300068 2.157465 0.051540 -0.017417 -569536.000000 0 0 1
8.392460 34.169386 -22.720196 41.883023 1.329950 2.144168 0.056792 -0.025459 -145902.000000 0 0 1
8.148160 33.212286 -23.717896 41.617148 1.330212 2.177189 0.052911 -0.034890 -1032720.000000 0 0 1
6.876360 32.426086 -23.578996 40.678058 1.361829 2.189094 0.054612 -0.040810 -150286.000000 0 0 1
5.591660 33.036986 -23.643796 41.009001 1.403131 2.185298 0.058043 -0.037953 713578.000000 0 0 1
5.225960 33.669586 -22.420896 40.787844 1.416812 2.152796 0.046440 -0.028681 -610756.000000 0 0 1
4.005860 -34.100897 -22.549296 41.077839 -1.453861 2.151893 0.053104 -0.020200 -158950.000000 0 0 1
2.804960 33.919086 -22.688296 40.903924 1.488288 2.158766 0.048353 -0.029666 19945.300000 0 0 1
1.696260 -33.998997 -23.075396 41.125211 -1.520946 2.166512 0.042520 -0.020710 177961.000000 0 0 1
0.308460 34.112186 -22.799096 41.030905 1.561754 2.159949 0.028307 -0.024276 -130521.000000 0 0 1
-0.066540 -34.326297 -21.439396 40.471555 1.568858 2.129090 0.017562 -0.020795 172102.000000 0 0 1
-1.200640 33.624386 -21.015596 39.669839 -1.535104 2.129117 0.016701 -0.019026 403681.000000 0 0 1
-1.672440 33.869986 -19.592496 39.164256 -1.521458 2.094701 0.020682 -0.018362 508838.000000 0 0 1
-0.798440 33.379286 -18.553296 38.197369 -1.546881 2.077985 0.021910 -0.019139 156615.000000 0 0 1
-1.526240 33.042286 -17.394596 37.372370 -1.524639 2.054928 0.007087 -0.010457 294969.000000 0 0 1
-0.737640 32.033886 -16.524096 36.052180 -1.547774 2.046921 0.003243 0.001490 964599.000000 0 0 1
0.471760 32.468286 -15.889596 36.150953 1.556267 2.025877 0.001028 0.000997 154740.000000 0 0 1
1.045360 31.363786 -15.244796 34.888159 1.537479 2.023015 0.014702 0.005400 222424.000000 0 0 1
1.922160 31.836786 -14.039296 34.847919 1.510494 1.985450 0.033695 -0.005056 87185.800000 0 0 1
3.144660 32.345886 -14.503096 35.587709 1.473881 1.990545 0.047449 -0.010242 -150036.000000 0 0 1
4.051960 32.739486 -13.491896 35.641599 1.447659 1.959019 0.055671 -0.015795 926100.000000 0 0 1
5.447760 33.245386 -14.016396 36.488260 1.408375 1.965066 0.061244 -0.026073 627089.000000 0 0 1
6.390660 32.230786 -14.153796 35.777004 1.375057 1.977530 0.065511 -0.020202 -680423.000000 0 0 1
7.390960 32.613686 -15.089696 36.687569 1.347939 1.994679 0.062248 -0.013428 451126.000000 0 0 1
8.423460 31.462986 -15.341396 36.003230 1.309205 2.010987 0.049219 -0.012183 258007.000000 0 0 1
9.105460 31.260286 -14.130796 35.493581 1.287360 1.980266 0.037968 -0.021191 -85950.800000 0 0 1
10.049760 30.203386 -13.972696 34.763176 1.249583 1.984430 0.037609 -0.016451 403075.000000 0 0 1
9.410760 28.774786 -13.845296 33.290283 1.254712 1.999724 0.052258 -0.027262 -63952.500000 0 0 1
8.946560 28.205886 -15.060596 33.202929 1.263647 2.041588 0.066314 -0.028109 97105.800000 0 0 1
8.320560 26.953886 -14.791796 31.851859 1.271381 2.053746 0.052011 -0.023197 -57351.600000 0 0 1
7.429960 26.331786 -15.884596 31.636808 1.295779 2.096813 0.059965 -0.023695 92557.800000 0 0 1
8.172660 25.866486 -16.994796 32.010788 1.264766 2.130468 0.055288 -0.016296 122061.000000 0 0 1
7.485960 24.818886 -17.727496 31.405108 1.277851 2.170597 0.043471 -0.009698 29184.700000 0 0 1
8.483460 23.843386 -18.297096 31.229151 1.228964 2.196784 0.042610 -0.004091 -448823.000000 0 0 1
7.905060 22.851886 -19.119296 30.826063 1.237756 2.239834 0.050075 -0.011406 -210466.000000 0 0 1
8.862160 21.945486 -19.573296 30.712475 1.186996 2.261796 0.038222 -0.008739 -495401.000000 0 0 1
8.162460 21.062686 -20.647196 30.603418 1.201084 2.311313 0.030817 -0.009629 548886.000000 0 0 1
7.200460 20.198286 -19.985496 29.312752 1.228353 2.321020 0.038080 -0.015095 506832.000000 0 0 1
6.691960 19.275086 -20.990396 29.272991 1.236634 2.370367 0.033720 -0.018835 39693.400000 0 0 1
25.481360 -13.019814 -9.602496 30.183161 -0.472373 1.894564 0.079951 -0.009404 -181371.000000 0 0 1
25.659860 -12.013314 -8.635196 29.619499 -0.437865 1.866630 0.085040 -0.015137 681117.000000 0 0 1
24.660160 -12.124414 -7.620796 28.516687 -0.456953 1.841324 0.085135 -0.005800 -235613.000000 0 0 1
25.013060 -11.427514 -6.265496 28.204568 -0.428546 1.794810 0.065563 -0.007153 -218733.000000 0 0 1
25.254960 -9.995614 -6.184696 27.856341 -0.376870 1.794683 0.064834 -0.006483 643327.000000 0 0 1
26.294460 -9.461014 -6.987896 28.805209 -0.345388 1.815832 0.056188 -0.006370 -1285890.000000 0 0 1
26.566860 -7.990414 -6.579996 28.512122 -0.292160 1.803674 0.086999 -0.006635 -554291.000000 0 0 1
27.194960 -7.816914 -5.316696 28.791270 -0.279894 1.756526 0.090105 -0.011024 777090.000000 0 0 1
28.551560 -8.264714 -5.384296 30.207411 -0.281765 1.749998 0.090516 -0.014555 -672906.000000 0 0 1
29.186260 -8.342614 -4.041896 30.623094 -0.278416 1.703171 0.100955 -0.023297 -573207.000000 0 0 1
29.532360 -7.103414 -3.509096 30.576666 -0.236046 1.685814 0.105975 -0.015763 78193.500000 0 0 1
30.040060 -7.213914 -2.233496 30.974736 -0.235680 1.642966 0.105362 -0.022010 -141447.000000 0 0 1
30.221060 -5.802414 -1.644096 30.816935 -0.189691 1.624172 0.098902 -0.031395 -266311.000000 0 0 1
28.975360 -5.224114 -1.343596 29.473176 -0.178379 1.616399 0.104467 -0.016840 -93679.900000 0 0 1
28.954860 -3.871614 -1.089696 29.232871 -0.132924 1.608081 0.103727 -0.007407 -375229.000000 0 0 1
29.587260 -3.489314 0.274104 29.793563 -0.117391 1.561596 0.100195 -0.019356 -392248.000000 0 0 1
29.021360 -3.952314 1.474804 29.326356 -0.135354 1.520486 0.093156 -0.030405 20868.500000 0 0 1
29.803260 -3.682514 2.601104 30.142345 -0.122938 1.484395 0.082211 -0.022785 -604469.000000 0 0 1
29.307760 -4.445414 3.775104 29.882401 -0.150533 1.444126 0.086553 -0.024228 -265561.000000 0 0 1
29.727060 -5.787614 3.689604 30.509142 -0.192286 1.449565 0.089096 -0.039141 241994.000000 0 0 1
29.465460 -6.374714 4.966704 30.553534 -0.213062 1.407514 0.092971 -0.047471 -115235.000000 0 0 1
30.368060 -7.587314 5.232904 31.735936 -0.244833 1.405151 0.067356 -0.040474 -612447.000000 0 0 1
31.703560 -7.264514 5.487204 32.984819 -0.225250 1.403664 0.079393 -0.034413 -910142.000000 0 0 1
32.403460 -8.469414 5.380004 33.921374 -0.255654 1.411522 0.077867 -0.035430 -1341260.000000 0 0 1
33.883260 -8.187814 5.403004 35.274751 -0.237102 1.417022 0.070903 -0.033175 -1219440.000000 0 0 1
34.405760 -7.634114 4.208004 35.492863 -0.218347 1.451958 0.084837 -0.037727 -417835.000000 0 0 1
35.688360 -7.125814 4.479004 36.667393 -0.197076 1.448338 0.090535 -0.039506 -54356.100000 0 0 1
-35.531464 -6.825614 3.184604 36.321008 0.189789 1.483004 0.081215 -0.043652 -47669.300000 0 0 1
-35.290664 -7.980814 2.460304 36.265375 0.222404 1.502903 0.099914 -0.040850 625679.000000 0 0 1
-34.331664 -7.841414 1.392204 35.243285 0.224550 1.531283 0.117978 -0.039654 418445.000000 0 0 1
-33.888664 -9.177414 0.734204 35.117026 0.264467 1.549887 0.108795 -0.034015 -203139.000000 0 0 1
-33.195364 -10.085114 1.561404 34.728658 0.294949 1.525821 0.104672 -0.030573 263203.000000 0 0 1
-33.075764 -11.367214 0.948504 34.987417 0.331026 1.543683 0.094956 -0.028903 -71391.500000 0 0 1
-32.476964 -12.611114 1.706904 34.881326 0.370388 1.521842 0.076421 -0.032759 849592.000000 0 0 1
-31.067864 -12.538414 1.919704 33.557551 0.383590 1.513559 0.081500 -0.018945 568812.000000 0 0 1
-30.353764 -13.499314 1.166304 33.240679 0.418465 1.535702 0.080060 -0.014659 270933.000000 0 0 1
-28.992864 -13.830714 1.843104 32.175640 0.445110 1.513482 0.076639 -0.012335 200109.000000 0 0 1
-28.057964 -12.790314 1.949304 30.897269 0.427711 1.507665 0.072772 -0.011216 139685.000000 0 0 1
-26.906464 -13.184314 2.664104 30.081246 0.455620 1.482117 0.068336 -0.007022 124320.000000 0 0 1
-26.062764 -12.013114 3.198804 28.875853 0.431906 1.459791 0.046951 0.003107 -153194.000000 0 0 1
-24.887664 -12.399814 3.863504 28.072724 0.462232 1.432733 0.038188 0.012834 25047.400000 0 0 1
-24.406864 -11.383814 4.740204 27.345123 0.436423 1.396569 0.048762 0.015660 430798.000000 0 0 1
-23.126464 -11.891614 5.487304 26.577327 0.474943 1.362835 0.046133 0.029238 289814.000000 0 0 1
-23.305364 -12.865514 6.449604 27.390853 0.504409 1.333099 0.052623 0.023967 -492099.000000 0 0 1
-22.096364 -13.144114 7.082604 26.667964 0.536627 1.301986 0.057505 0.024932 -294354.000000 0 0 1
-21.957964 -12.467114 8.487904 26.638799 0.516385 1.246513 0.079406 0.016708 -390249.000000 0 0 1
-21.816464 -11.087414 8.465004 25.894886 0.470197 1.237776 0.084392 0.013621 662246.000000 0 0 1
-22.967664 -10.329314 8.852804 26.694202 0.422632 1.232757 0.085342 0.010754 -344208.000000 0 0 1
-23.241164 -10.308914 10.392304 27.466805 0.417488 1.182774 0.066931 0.013601 -297023.000000 0 0 1
-23.879164 -11.436914 10.962704 28.656558 0.446666 1.178236 0.053543 0.009797 636057.000000 0 0 1
-25.259864 -11.548514 10.621504 29.736261 0.428816 1.205538 0.054221 0.011679 193338.000000 0 0 1
-26.222364 -11.269714 11.800704 30.884874 0.405908 1.178743 0.054187 0.003757 -187980.000000 0 0 1
-26.036864 -12.187914 12.854504 31.491297 0.437805 1.150323 0.046626 0.001671 -415307.000000 0 0 1
-27.074764 -12.061714 13.744804 32.671814 0.419103 1.136587 0.028971 -0.004110 -701628.000000 0 0 1
-26.815164 -12.843314 15.039504 33.319520 0.446672 1.102494 0.022349 -0.007592 -253723.000000 0 0 1
-26.888964 -14.255914 14.909804 33.890260 0.487497 1.115260 0.016938 -0.003737 438730.000000 0 0 1
-26.701464 -14.855314 16.146104 34.559300 0.507704 1.084675 -0.010365 0.004553 -731702.000000 0 0 1
-26.510064 -16.380514 15.995204 35.027864 0.553476 1.096579 -0.002927 0.002179 -653682.000000 0 0 1
-27.687164 -17.088314 15.688504 36.120890 0.552965 1.121498 -0.017011 0.010535 -199683.000000 0 0 1
-27.391364 -18.485314 15.653304 36.565278 0.593653 1.128416 -0.015157 0.012875 -131027.000000 0 0 1
-28.398264 -19.522514 16.198204 38.078494 0.602256 1.131404 -0.029036 0.017911 -82832.400000 0 0 1
-28.722064 -19.372214 17.549604 38.835914 0.593387 1.101912 -0.004249 0.020262 -94566.700000 0 0 1
-29.332164 -20.427314 18.289004 40.151446 0.608315 1.097862 0.000825 0.016727 -398485.000000 0 0 1
-28.476064 -21.673614 18.512104 40.290566 0.650578 1.093404 -0.013058 0.014992 5292.580000 0 0 1
-27.250564 -21.313914 19.154004 39.544304 0.663759 1.065155 -0.002073 0.016357 497925.000000 0 0 1
-26.598764 -22.506914 19.593604 39.974551 0.702263 1.058532 0.004187 0.009141 1273730.000000 0 0 1
-25.173064 -22.289614 20.286204 39.268818 0.724721 1.027923 0.021582 0.013420 1085180.000000 0 0 1
-24.171364 -21.885614 19.422704 37.953608 0.735810 1.033578 0.023082 0.008952 281832.000000 0 0 1
-22.873764 -21.884814 20.031704 37.462292 0.763307 1.006624 0.031403 0.013444 502573.000000 0 0 1
-21.688164 -21.676914 19.100404 36.126036 0.785139 1.013710 0.037068 0.009844 -344315.000000 0 0 1
-21.410664 -22.758114 18.227804 36.174592 0.815896 1.042707 0.032126 0.007940 1031770.000000 0 0 1
-20.148964 -22.541514 17.548804 34.957991 0.841384 1.044890 0.035324 -0.001511 964411.000000 0 0 1
-19.907364 -23.510414 16.339104 34.871321 0.868194 1.083143 0.032052 -0.008527 -698630.000000 0 0 1
-19.827064 -24.937814 16.420404 35.841829 0.899075 1.094900 0.041206 -0.014666 1215730.000000 0 0 1
-18.624764 -25.458344 17.074204 35.868336 0.939190 1.074668 0.040014 -0.009722 1195650.000000 0 0 1
-17.268364 -25.219934 16.386204 34.680674 0.970405 1.078685 0.027929 -0.006685 -349413.000000 0 0 1
-16.714364 -23.900214 16.472204 33.495129 0.960514 1.056665 0.028496 -0.008885 -321324.000000 0 0 1
-15.495464 -23.954314 15.780404 32.602756 0.996621 1.065553 0.034032 -0.014693 204809.000000 0 0 1
-14.638064 -22.615314 15.630804 31.145583 0.996347 1.045045 0.047969 -0.009760 207672.000000 0 0 1
-15.181764 -21.660014 14.753104 30.286899 0.959459 1.062017 0.042691 -0.002766 326062.000000 0 0 1
-16.356064 -20.964314 15.202904 30.629260 0.908254 1.051404 0.053088 -0.000245 378254.000000 0 0 1
-16.145064 -19.768914 16.190504 30.225907 0.885961 1.005519 0.053812 0.001900 -165828.000000 0 0 1
-15.418064 -18.690314 15.533204 28.780635 0.881042 1.000703 0.049764 0.002853 320673.000000 0 0 1
-15.487964 -17.485714 16.256904 28.458990 0.845910 0.962781 0.039771 0.003649 464138.000000 0 0 1
-14.475864 -16.344914 15.747904 26.920314 0.845967 0.945938 0.040300 0.000587 803779.000000 0 0 1
-14.948564 -15.538614 14.669604 26.078830 0.804750 0.973378 0.050206 -0.011528 47584.400000 0 0 1
-15.255664 -16.284914 13.499504 26.080075 0.818019 1.026732 0.059499 -0.010972 -196049.000000 0 0 1
-16.235864 -15.588114 12.548304 25.769216 0.765047 1.062203 0.060792 -0.003617 272559.000000 0 0 1
-17.601764 -15.736014 12.898904 26.904014 0.729491 1.070778 0.052944 -0.004822 -204334.000000 0 0 1
-18.413564 -14.678414 12.549004 26.683191 0.673002 1.081170 0.072883 -0.001383 -1138420.000000 0 0 1
-19.897264 -14.959814 12.795804 27.989815 0.644686 1.095998 0.055910 -0.004121 -326413.000000 0 0 1
-20.520064 -16.049514 12.156704 28.747963 0.663754 1.134184 0.053946 -0.001167 -31675.300000 0 0 1
-20.531364 -15.911114 10.728004 28.103212 0.659289 1.179123 0.060639 0.006526 -925023.000000 0 0 1
-21.382564 -16.946014 10.002704 29.059173 0.670161 1.219390 0.053750 0.006483 -148107.000000 0 0 1
-20.838764 -18.248114 9.826904 29.390743 0.719216 1.229877 0.058281 0.012177 -180338.000000 0 0 1
-21.731264 -19.033314 9.063704 30.276486 0.719311 1.266770 0.050583 0.011308 103134.000000 0 0 1
-21.231164 -20.449314 8.787304 30.759608 0.766642 1.281084 0.052029 0.004175 -248555.000000 0 0 1
-20.133764 -20.596414 7.918004 29.870981 0.796757 1.302516 0.050466 0.003312 -347470.000000 0 0 1
-19.781964 -21.959114 7.938804 30.603160 0.837509 1.308384 0.034881 -0.003667 -51211.600000 0 0 1
-18.443064 -22.293414 7.265704 29.831751 0.879637 1.324766 0.035980 -0.008694 357235.000000 0 0 1
-17.267964 -21.948314 8.019404 29.055497 0.904183 1.291163 0.029721 -0.007832 145992.000000 0 0 1
-16.107664 -22.289614 7.314404 28.456708 0.945028 1.310842 0.044938 -0.009242 -279430.000000 0 0 1
-14.812164 -21.913214 8.042704 27.645510 0.976397 1.275605 0.035054 -0.004634 -210631.000000 0 0 1
-13.602464 -22.255114 7.404504 27.113535 1.022178 1.294190 0.037610 0.000720 -505146.000000 0 0 1
-12.531364 -21.952414 8.227604 26.582645 1.052092 1.256118 0.045304 0.003678 -1005620.000000 0 0 1
-11.172064 -22.394814 7.749604 26.199219 1.108054 1.270508 0.047136 0.008396 -741964.000000 0 0 1
-11.115664 -23.803314 7.805404 27.405840 1.133912 1.281990 0.050756 0.007246 -698638.000000 0 0 1
-9.861164 -24.247914 7.378904 27.196546 1.184544 1.296035 0.048639 0.009192 -214099.000000 0 0 1
-9.671664 -25.767604 7.515004 28.530436 1.211726 1.304248 0.042088 0.012359 312386.000000 0 0 1
-10.560964 -26.550544 6.698204 29.348446 1.192215 1.340537 0.056391 0.002832 223310.000000 0 0 1
-10.179164 -27.921944 6.673304 30.459536 1.221212 1.349917 0.062365 -0.000948 410855.000000 0 0 1
-9.020064 -28.453274 5.780504 30.403365 1.263805 1.379505 0.064282 -0.007551 878905.000000 0 0 1
-7.695164 -28.039564 6.139104 29.717357 1.302951 1.362715 0.055548 -0.005189 520029.000000 0 0 1
-6.636364 -28.837894 5.642904 30.124871 1.344608 1.382366 0.044577 -0.001653 412082.000000 0 0 1
-6.440364 -30.306494 6.067604 31.571786 1.361404 1.377409 0.044429 -0.009738 -463742.000000 0 0 1
-6.139364 -30.484974 7.427404 31.971734 1.372065 1.336343 0.047077 -0.001172 129774.000000 0 0 1
-6.439364 -31.859184 7.706404 33.404516 1.371364 1.338000 0.060103 -0.008949 -105433.000000 0 0 1
-6.939364 -31.832524 9.163004 33.844128 1.356158 1.296633 0.049338 -0.009845 369376.000000 0 0 1
-5.921364 -31.457344 10.118804 33.571077 1.384739 1.264621 0.039163 -0.002171 529643.000000 0 0 1
-6.360364 -31.526334 11.447204 34.137991 1.371721 1.228850 0.037838 -0.005006 -469554.000000 0 0 1
-5.434364 -30.883874 12.487804 33.753388 1.396618 1.191818 0.034641 -0.002089 -100092.000000 0 0 1
-5.434364 -29.511964 12.273104 32.420941 1.388695 1.182562 0.040356 -0.006408 -79273.100000 0 0 1
-4.780364 -28.815304 13.327904 32.106178 1.406397 1.142722 0.019617 -0.007789 -220804.000000 0 0 1
-5.607364 -28.265524 14.542504 32.277961 1.374957 1.103427 0.028877 -0.011588 -382990.000000 0 0 1
-6.192364 -29.185954 15.434304 33.591413 1.361727 1.093396 0.032802 -0.014219 -195916.000000 0 0 1
-5.352364 -29.653674 16.438804 34.325245 1.392223 1.071380 0.020467 -0.012218 -194013.000000 0 0 1
-5.901364 -30.962194 17.001004 35.812256 1.382456 1.076144 0.024219 -0.015610 -134153.000000 0 0 1
-5.684364 -31.977324 16.102104 36.251055 1.394872 1.110534 0.023230 -0.007557 -90377.700000 0 0 1
-6.258364 -33.204364 16.419604 37.567277 1.384502 1.118456 0.023649 -0.009245 -87370.600000 0 0 1
-5.608364 34.282268 15.694304 38.118747 -1.408639 1.146454 0.013870 -0.013236 -3386.110000 0 0 1
-6.150364 34.072224 14.379004 37.489988 -1.392210 1.177167 0.020730 -0.012902 210432.000000 0 0 1
-5.369364 33.174380 13.646804 36.271267 -1.410335 1.185059 0.025048 -0.015196 241486.000000 0 0 1
-4.118364 33.615963 12.835504 36.218007 -1.448892 1.208529 0.027034 -0.023342 177867.000000 0 0 1
-4.434364 34.019624 11.542104 36.196942 -1.441180 1.246260 0.026530 -0.021293 8731.330000 0 0 1
-3.325364 -34.194878 10.858704 36.031364 1.473854 1.264669 0.032216 -0.023868 -655851.000000 0 0 1
-3.729364 -34.027024 9.338704 35.481797 1.461632 1.304462 0.025446 -0.018411 -629005.000000 0 0 1
-3.818364 33.499394 8.524304 34.777192 -1.457303 1.323161 0.041770 -0.031559 406938.000000 0 0 1
-4.871364 32.599048 8.794904 34.114198 -1.422461 1.310044 0.047711 -0.034772 1288440.000000 0 0 1
-6.386364 33.031328 8.978804 34.820586 -1.379810 1.309991 0.052221 -0.022515 608136.000000 0 0 1
-7.099664 33.372191 7.813404 35.002252 -1.361179 1.345674 0.057390 -0.017891 -941205.000000 0 0 1
-8.396364 33.575279 8.299004 35.590333 -1.325746 1.335448 0.057957 -0.010582 -227015.000000 0 0 1
-9.417764 33.776988 7.116304 35.780176 -1.298880 1.370572 0.068981 -0.016488 163222.000000 0 0 1
-9.247964 -33.688694 6.548504 35.543436 1.302884 1.385498 0.071811 -0.014665 192559.000000 0 0 1
-9.872864 -33.599604 5.270604 35.414490 1.285002 1.421415 0.068380 -0.008537 -389201.000000 0 0 1
-9.815864 -32.161614 4.703304 33.953522 1.274572 1.431828 0.070563 -0.008709 -179222.000000 0 0 1
-10.607264 -31.201504 5.333704 33.384073 1.243094 1.410341 0.083596 -0.014903 275659.000000 0 0 1
-11.963964 -31.273904 4.878704 33.837779 1.205419 1.426113 0.073420 -0.010243 302065.000000 0 0 1
-12.956864 -30.307174 5.542004 33.423329 1.166795 1.404215 0.072477 -0.014872 -19053.300000 0 0 1
-13.404764 -30.840664 6.847404 34.317943 1.160784 1.369920 0.070773 -0.011808 550997.000000 0 0 1
-14.574964 -30.114234 7.236404 34.229552 1.120039 1.357781 0.058385 -0.008493 525547.000000 0 0 1
33.352283 -12.654714 -12.895996 37.931824 -0.362645 1.917690 0.038744 -0.024481 -331850.000000 0 0 1
32.477463 -12.642214 -11.785396 36.790036 -0.371215 1.896887 0.049999 -0.026470 254223.000000 0 0 1
32.109343 -13.968514 -11.447796 36.839942 -0.410335 1.886772 0.051965 -0.023777 -271894.000000 0 0 1
33.045633 -14.629414 -10.443796 37.617901 -0.416770 1.852121 0.039617 -0.019089 -444178.000000 0 0 1
34.301343 -15.021214 -10.911696 39.003642 -0.412762 1.854341 0.045222 -0.026071 -472563.000000 0 0 1
35.160353 -15.346714 -9.846796 39.607215 -0.411552 1.822042 0.036906 -0.022689 3805.340000 0 0 1
-35.377718 -15.534314 -10.187296 39.958464 0.413752 1.828589 0.023388 -0.023420 -40468.500000 0 0 1
-34.718143 -14.340914 -10.463396 38.993512 0.391720 1.842462 0.021186 -0.018556 -113513.000000 0 0 1
-33.367150 -14.507314 -10.839796 37.964853 0.410124 1.860347 0.034989 -0.023617 401504.000000 0 0 1
-32.545520 -13.249614 -11.231396 36.890479 0.386621 1.880160 0.042937 -0.031513 15009.600000 0 0 1
-32.386290 -12.377314 -10.103396 36.112994 0.365048 1.854353 0.060866 -0.035614 308115.000000 0 0 1
-31.955310 -11.117914 -10.558396 35.443330 0.334821 1.873283 0.068462 -0.032966 -218860.000000 0 0 1
-32.537540 -10.044114 -9.614196 35.383733 0.299413 1.845968 0.074693 -0.042766 -262857.000000 0 0 1
-31.902910 -9.999214 -8.419296 34.477014 0.303729 1.817491 0.082669 -0.040975 100194.000000 0 0 1
-32.539490 -8.984914 -7.626296 34.607911 0.269410 1.792983 0.082735 -0.043595 100468.000000 0 0 1
-31.998230 -8.832914 -6.200896 33.769191 0.269336 1.755470 0.075518 -0.034338 -405304.000000 0 0 1
-30.833150 -8.027814 -6.090296 32.437951 0.254708 1.759669 0.087101 -0.044359 549370.000000 0 0 1
-30.154650 -8.142614 -4.812796 31.603293 0.263738 1.723679 0.090532 -0.038754 -339466.000000 0 0 1
-29.518940 -9.508414 -4.401496 31.323329 0.311618 1.711781 0.085844 -0.035370 -1030760.000000 0 0 1
-30.345030 -10.615714 -4.145496 32.414494 0.336527 1.699038 0.091136 -0.031063 31269.300000 0 0 1
-30.688070 -10.684914 -2.782396 32.613905 0.335051 1.656213 0.080407 -0.031119 -127907.000000 0 0 1
-31.363590 -12.003814 -2.303196 33.661121 0.365531 1.639273 0.075063 -0.019967 -397508.000000 0 0 1
-32.649190 -12.164114 -2.838396 34.956999 0.356639 1.652083 0.071566 -0.026723 -230792.000000 0 0 1
-33.208280 -13.338014 -2.312196 35.861383 0.381926 1.635317 0.078846 -0.036134 285110.000000 0 0 1
-34.766931 -13.350014 -2.392396 37.318708 0.366625 1.634947 0.062005 -0.027154 380337.000000 0 0 1
-35.329277 -12.386214 -1.533596 37.469028 0.337203 1.611737 0.079276 -0.034988 -182895.000000 0 0 1
35.324753 -12.581214 -1.322796 37.521659 -0.342151 1.606058 0.089828 -0.033077 -306024.000000 0 0 1
34.790623 -11.491514 -0.378696 36.641312 -0.319023 1.581132 0.089354 -0.031199 -372397.000000 0 0 1
35.161723 -11.816514 0.989904 37.107367 -0.324204 1.544116 0.104961 -0.029149 327917.000000 0 0 1
34.955613 -10.727414 1.882904 36.613080 -0.297763 1.519347 0.091680 -0.034620 -402955.000000 0 0 1
35.322073 -10.985414 3.319104 37.139529 -0.301524 1.481308 0.096520 -0.039781 404646.000000 0 0 1
34.243663 -11.632014 4.028404 36.389013 -0.327455 1.459865 0.091174 -0.037954 471498.000000 0 0 1
34.567483 -12.177614 5.282904 37.028560 -0.338709 1.427637 0.093774 -0.029924 -739359.000000 0 0 1
33.322333 -12.509614 6.091004 36.110506 -0.359132 1.401309 0.091699 -0.016335 -472296.000000 0 0 1
32.676473 -11.347614 6.572904 35.209705 -0.334242 1.383016 0.074477 -0.023800 -12652.200000 0 0 1
32.563183 -11.333114 7.979504 35.390293 -0.334923 1.343369 0.058566 -0.007221 -19123.500000 0 0 1
31.739793 -10.119214 8.524504 34.387209 -0.308630 1.320287 0.062834 -0.017685 -648836.000000 0 0 1
30.361133 -10.137914 8.399904 33.092810 -0.322270 1.314160 0.065275 -0.017585 -752944.000000 0 0 1
29.790373 -9.176814 9.239604 32.512313 -0.298822 1.282637 0.078835 -0.009853 -98092.000000 0 0 1
28.254683 -9.218514 9.447304 31.185889 -0.315376 1.263025 0.064127 -0.017393 575770.000000 0 0 1
27.458513 -8.606014 8.429304 29.984772 -0.303722 1.285836 0.084195 -0.024645 235244.000000 0 0 1
27.048083 -9.571614 7.486704 29.652408 -0.340122 1.315552 0.088896 -0.034657 -214135.000000 0 0 1
26.058883 -9.057714 6.386704 28.317796 -0.334523 1.343302 0.095097 -0.040774 460781.000000 0 0 1
24.809983 -8.642114 6.924904 27.169389 -0.335188 1.313074 0.090919 -0.032538 874579.000000 0 0 1
23.799183 -8.157014 6.036904 25.872421 -0.330196 1.335292 0.081198 -0.032881 305159.000000 0 0 1
23.969283 -6.714414 5.439404 25.479344 -0.273125 1.355658 0.077415 -0.027266 -966236.000000 0 0 1
25.037583 -6.709614 4.523004 26.312678 -0.261830 1.398044 0.077900 -0.029158 289516.000000 0 0 1
25.101683 -5.499714 3.832804 25.981373 -0.215689 1.422735 0.077772 -0.032335 -512746.000000 0 0 1
25.917983 -5.559814 2.566604 26.631576 -0.211313 1.474272 0.106756 -0.032320 -410521.000000 0 0 1
25.351983 -6.197114 1.450404 26.138687 -0.239742 1.515279 0.096716 -0.023080 -64082.100000 0 0 1
26.153883 -5.923214 0.311404 26.818036 -0.222718 1.559184 0.097154 -0.021985 70962.400000 0 0 1
25.445583 -6.165014 -1.027896 26.201940 -0.237702 1.610036 0.097198 -0.018943 543598.000000 0 0 1
24.358783 -5.320914 -1.422696 24.973716 -0.215061 1.627795 0.091869 -0.008348 631533.000000 0 1 0
23.838883 -5.533614 -2.759296 24.627768 -0.228086 1.683072 0.077735 -0.003166 385918.000000 0 1 0
22.467383 -4.826114 -2.927196 23.165560 -0.211590 1.697495 0.044192 -0.001791 -6478.400000 0 1 0
22.524683 -3.400714 -3.059596 22.984502 -0.149846 1.704308 0.028453 -0.003450 193791.000000 0 1 0
23.190883 -2.879814 -4.198196 23.743109 -0.123546 1.748548 0.039676 -0.005007 -27377.900000 0 1 0
22.375483 -1.829114 -5.063596 23.014081 -0.081565 1.792633 0.024694 0.006053 216310.000000 0 1 0
22.124383 -0.593114 -4.407796 22.566984 -0.026802 1.767381 0.020652 0.011684 513439.000000 0 1 0
21.432083 0.316986 -5.252796 22.068678 0.014789 1.811124 0.039431 0.012598 -290472.000000 0 1 0
21.231983 1.776786 -4.726096 21.824070 0.083490 1.789080 0.044600 0.020699 -100602.000000 0 1 0
22.362583 2.630286 -4.765096 23.015422 0.117082 1.779344 0.052201 0.017929 217571.000000 0 1 0
23.146883 2.464386 -3.607396 23.555566 0.106068 1.724545 0.076378 0.014194 -199833.000000 0 1 0
24.252783 3.533786 -3.433796 24.748254 0.144688 1.709994 0.046064 0.014925 -250231.000000 0 1 0
23.793683 4.881086 -3.283396 24.510101 0.202335 1.705161 0.051903 0.015589 148616.000000 0 1 0
24.776083 5.770986 -2.833596 25.596637 0.228845 1.681726 0.044097 0.012541 -434942.000000 0 0 1
24.333283 7.244786 -2.944496 25.559062 0.289374 1.686256 0.044731 0.004209 -29768.200000 0 0 1
23.212783 7.499686 -2.120496 24.486222 0.312498 1.657505 0.060456 0.000112 308533.000000 0 1 0
22.638183 8.704886 -2.482296 24.380815 0.367093 1.672787 0.050639 0.009661 -40013.700000 0 1 0
21.514283 9.204986 -1.533996 23.450997 0.404286 1.636256 0.042500 0.010577 225325.000000 0 1 0
22.033283 9.716386 -0.284396 24.082246 0.415333 1.582606 0.036764 0.003892 755263.000000 0 1 0
20.969583 10.125786 0.540104 23.292631 0.449858 1.547607 0.027981 0.003709 173086.000000 0 1 0
21.561583 10.489386 1.963304 24.057922 0.452777 1.489098 0.054563 -0.005686 -324879.000000 0 1 0
22.384283 11.622286 2.051404 25.304978 0.478902 1.489640 0.062434 -0.014248 152942.000000 0 0 1
21.882383 12.941386 1.832904 25.488776 0.534077 1.498824 0.068282 -0.007172 181306.000000 0 0 1
20.769683 13.486886 2.831504 24.925754 0.575921 1.456953 0.053533 -0.003412 1209240.000000 0 1 0
19.442083 12.941186 2.650604 23.505203 0.587283 1.457789 0.088390 -0.003860 1115640.000000 0 1 0
18.497783 13.563286 3.514504 23.205224 0.632687 1.418758 0.072573 -0.005862 -19602.000000 0 1 0
18.575283 13.277286 5.026804 23.379397 0.620578 1.354094 0.061810 -0.005118 -641765.000000 0 1 0
18.034883 12.056086 5.528504 22.386839 0.589262 1.321261 0.045102 -0.003653 337380.000000 0 1 0
18.196483 11.927086 6.893304 22.822905 0.580205 1.263970 0.040435 -0.006552 -6214.000000 0 1 0
18.221783 10.463086 7.558504 22.330260 0.521239 1.225488 0.025715 -0.010257 -931478.000000 0 1 0
19.214283 9.768686 6.935904 22.643380 0.470351 1.259482 0.016518 -0.017833 -488773.000000 0 1 0
19.403083 8.513286 7.465504 22.465293 0.413467 1.232042 0.032381 -0.010446 304859.000000 0 1 0
20.492983 7.735286 6.668904 22.896971 0.360926 1.275256 0.049792 -0.011469 394781.000000 0 1 0
19.951683 7.290186 5.446704 21.929046 0.350321 1.319790 0.029082 -0.018003 -47027.400000 0 1 0
20.920483 6.690286 4.675904 22.456416 0.309518 1.361040 0.040010 -0.024097 -647028.000000 0 1 0
20.603383 6.702886 3.166204 21.896413 0.314530 1.425688 0.042012 -0.014646 394631.000000 0 1 0
21.520783 5.820886 2.474804 22.431038 0.264157 1.460242 0.040437 -0.015518 845433.000000 0 1 0
21.297583 5.777286 1.042304 22.091864 0.264890 1.523598 0.045980 0.000812 461582.000000 0 1 0
22.279483 4.737286 0.361404 22.780427 0.209510 1.554931 0.049507 0.000346 508762.000000 0 1 0
22.122783 3.442986 0.895804 22.407011 0.154392 1.530807 0.044638 0.000828 366007.000000 0 1 0
23.140783 2.561986 0.469904 23.286915 0.110264 1.550616 0.044128 0.008624 -46369.500000 0 1 0
22.829083 1.061786 0.609904 22.861898 0.046477 1.544115 0.054277 0.001872 -470534.000000 0 1 0
22.003583 0.500286 -0.378996 22.012532 0.022733 1.588014 0.029738 -0.002422 524545.000000 0 1 0
22.511583 -0.695914 -0.980296 22.543661 -0.030904 1.614294 0.051737 -0.003160 -1025510.000000 0 1 0
22.434483 -1.939314 -0.032696 22.518171 -0.086229 1.572248 0.079912 -0.001749 201559.000000 0 1 0
23.354383 -1.982314 1.057404 23.462201 -0.084677 1.525713 0.089525 -0.007408 1471100.000000 0 1 0
24.727083 -2.151714 0.633304 24.828604 -0.086800 1.545287 0.097178 -0.014458 463968.000000 0 1 0
25.724683 -1.945914 1.795604 25.860589 -0.075500 1.501306 0.100502 -0.013901 -68432.300000 0 0 1
25.692283 -0.639314 2.288204 25.801899 -0.024878 1.481996 0.092055 -0.012747 -110883.000000 0 0 1
26.869483 -0.369514 2.969004 27.035544 -0.013751 1.460756 0.092460 -0.007104 -458466.000000 0 0 1
26.765683 0.987386 3.685204 27.036225 0.036873 1.434065 0.109792 0.001109 129107.000000 0 0 1
26.789683 2.155186 2.850804 27.027005 0.080275 1.465120 0.099760 0.002448 -327624.000000 0 0 1
28.079103 2.571186 2.529104 28.309775 0.091315 1.481340 0.106653 -0.005635 -471075.000000 0 0 1
28.014763 3.738686 1.483704 28.302051 0.132670 1.518348 0.104766 -0.014096 -24800.000000 0 0 1
27.355053 3.409586 0.265404 27.568000 0.124002 1.561169 0.102362 -0.001697 255610.000000 0 0 1
27.646343 4.265286 -0.828196 27.985690 0.153073 1.600394 0.091715 -0.000922 576515.000000 0 0 1
29.015783 3.963486 -1.578496 29.327743 0.135757 1.624645 0.086010 -0.003630 653267.000000 0 0 1
30.117743 4.270986 -0.743496 30.428154 0.140870 1.595233 0.103122 -0.014132 -331548.000000 0 0 1
31.282093 3.876786 -1.440696 31.554309 0.123301 1.616470 0.083710 -0.015569 -426322.000000 0 0 1
32.616493 4.167286 -0.763096 32.890488 0.127078 1.594000 0.056796 -0.019391 -478781.000000 0 0 1
32.873313 3.340686 0.416804 33.045251 0.101275 1.558183 0.052028 -0.016767 238033.000000 0 0 1
32.165153 3.781586 1.562804 32.424371 0.117031 1.522579 0.057901 -0.004228 -71701.000000 0 0 1
32.270423 2.785586 2.747104 32.506711 0.086107 1.486187 0.058735 0.002970 -192091.000000 0 0 1
31.437443 1.688686 2.475504 31.579940 0.053664 1.492327 0.073489 -0.001157 24651.400000 0 0 1
31.458673 0.676386 3.448904 31.654392 0.021497 1.461625 0.059302 0.001137 209836.000000 0 0 1
32.714533 -0.255214 3.520904 32.904446 -0.007801 1.463587 0.068878 -0.011417 597859.000000 0 0 1
33.819593 0.375086 4.157704 34.076268 0.011090 1.448480 0.067675 -0.008010 620479.000000 0 0 1
35.011013 -0.390914 4.024604 35.243741 -0.011165 1.456353 0.066898 -0.020017 300560.000000 0 0 1
-35.683487 0.392486 4.202904 35.932293 -0.010999 1.453561 0.089538 -0.029059 228628.000000 0 0 1
-35.472350 1.450686 3.281104 35.653300 -0.040873 1.478638 0.073887 -0.024088 274450.000000 0 0 1
-35.194024 1.077986 1.912004 35.262404 -0.030620 1.516548 0.084153 -0.029910 -765847.000000 0 0 1
-35.272255 2.335886 1.022904 35.364314 -0.066128 1.541868 0.059473 -0.027125 549493.000000 0 0 1
-34.152064 3.202486 1.113604 34.319958 -0.093498 1.538343 0.074882 -0.032376 883641.000000 0 0 1
-32.895660 2.797886 0.577604 33.019483 -0.084849 1.553303 0.099145 -0.028797 645445.000000 0 0 1
-31.698810 3.721986 1.064504 31.934322 -0.116882 1.537456 0.088893 -0.022927 447143.000000 0 0 1
-31.370170 3.389986 2.371404 31.641794 -0.107646 1.495781 0.088304 -0.029863 474386.000000 0 0 1
-30.446110 4.313386 2.982404 30.894428 -0.140736 1.474110 0.089004 -0.022004 -71328.500000 0 0 1
-30.324950 4.138386 4.531304 30.939644 -0.135630 1.423811 0.095426 -0.020823 421664.000000 0 0 1
-31.540240 4.472686 5.216204 32.280032 -0.140870 1.408492 0.096558 -0.005894 1026750.000000 0 0 1
-32.584910 3.503086 5.135904 33.172662 -0.107095 1.415348 0.090957 -0.006667 -103555.000000 0 0 1
-32.583240 2.593686 6.389804 33.305020 -0.079434 1.377742 0.088331 -0.008429 -521139.000000 0 0 1
-32.767130 3.278786 7.643504 33.806189 -0.099731 1.342726 0.083652 -0.004415 299043.000000 0 0 1
-32.902720 2.357786 8.710504 34.117753 -0.071537 1.312631 0.083976 -0.004296 -40080.400000 0 0 1
-34.213056 1.542586 8.889604 35.382734 -0.045057 1.316834 0.070047 0.001298 -187064.000000 0 0 1
-34.310223 0.464286 7.960204 35.224591 -0.013531 1.342843 0.075457 -0.001077 413894.000000 0 0 1
-35.230574 -0.607314 8.234704 36.185253 0.017237 1.341214 0.082652 0.000067 228609.000000 0 0 1
-34.874335 -1.485814 9.473504 36.168691 0.042579 1.305779 0.077100 0.003296 -888905.000000 0 0 1
-33.702220 -2.190714 9.332204 35.038963 0.064911 1.301205 0.071773 -0.007689 -582740.000000 0 0 1
-33.308070 -2.881914 10.524604 35.049968 0.086308 1.265816 0.055624 0.008296 605256.000000 0 0 1
-31.998450 -3.723214 10.307904 33.823306 0.115835 1.261113 0.069434 0.016076 438991.000000 0 0 1
-32.202500 -4.730714 9.368104 33.869486 0.145862 1.290548 0.059399 -0.002742 107652.000000 0 0 1
-31.197720 -5.724314 9.369904 33.073564 0.181467 1.283558 0.051903 -0.015025 -71129.700000 0 0 1
-31.384110 -6.652714 8.115604 33.092054 0.208885 1.323026 0.052619 0.000827 -445008.000000 0 0 1
-32.437090 -7.507414 8.323304 34.319142 0.227441 1.325827 0.061558 -0.004440 -761229.000000 0 0 1
-32.551220 -8.360314 7.210104 34.372407 0.251402 1.359462 0.056951 -0.014118 236823.000000 0 0 1
-33.715670 -9.352414 7.499704 35.783511 0.270587 1.359645 0.061557 -0.012258 371361.000000 0 0 1
-34.953746 -8.700014 7.684604 36.830799 0.243944 1.360606 0.067600 -0.021367 -187896.000000 0 0 1
-35.957975 -9.627914 7.997904 38.074128 0.261618 1.359159 0.069762 -0.023111 -293799.000000 0 0 1
7.567860 -23.889614 11.042204 27.384602 -1.264013 1.155756 0.079043 -0.013470 64827.100000 0 0 1
7.048560 -24.439614 9.837704 27.271915 -1.290009 1.201750 0.075477 -0.014491 -270909.000000 0 0 1
6.166860 -25.499314 10.117004 28.117591 -1.333508 1.202732 0.079129 -0.012923 154402.000000 0 0 1
5.863260 -26.380024 8.882104 28.446006 -1.352090 1.253242 0.069460 -0.005700 74031.100000 0 0 1
5.165660 -25.660924 7.887404 27.338219 -1.372147 1.278124 0.066767 -0.004567 -252373.000000 0 0 1
5.170060 -26.405794 6.660204 27.719195 -1.377450 1.328148 0.061140 -0.003970 -294534.000000 0 0 1
4.367760 -25.719044 5.522904 26.665502 -1.402575 1.362168 0.059594 -0.008700 482740.000000 0 0 1
2.958460 -25.743244 5.602504 26.511416 -1.456376 1.357867 0.052408 -0.016986 185719.000000 0 0 1
2.264760 -27.003384 5.339204 27.619178 -1.487123 1.376256 0.049339 -0.011294 -595325.000000 0 0 1
0.755560 -26.890794 5.273204 27.413361 -1.542706 1.377231 0.045758 -0.016387 -1376060.000000 0 0 1
0.152460 -26.451584 6.511904 27.241777 -1.565033 1.329418 0.031855 -0.012636 9894.310000 0 0 1
-1.259640 -26.350614 6.551804 27.182121 1.523030 1.327366 0.026114 -0.012178 271035.000000 0 0 1
-1.923940 -27.704964 6.477504 28.517094 1.501464 1.341652 0.028810 -0.008612 -1558380.000000 0 0 1
-1.735040 -28.443554 7.668004 29.510073 1.509872 1.307936 0.022481 -0.015289 72996.800000 0 0 1
-2.383440 -29.698144 7.543604 30.733801 1.490712 1.322813 0.022266 -0.012488 -23861.500000 0 0 1
-2.244540 -30.626084 8.788504 31.941083 1.497639 1.292053 0.017038 -0.012229 1081890.000000 0 0 1
-0.898040 -31.054444 9.095004 32.371346 1.541886 1.286004 0.013849 -0.007787 787503.000000 0 0 1
-0.859040 -31.549664 10.463104 33.250501 1.543575 1.250682 0.005460 0.000167 -568814.000000 0 0 1
0.463860 -31.926084 11.105404 33.805621 -1.556268 1.236073 0.006452 -0.004324 -820478.000000 0 0 1
1.138660 -33.037324 10.562604 34.703457 -1.536344 1.261522 0.012360 -0.005512 1184000.000000 0 0 1
2.540860 -33.102174 10.921204 34.949715 -1.494188 1.252990 0.025099 -0.002826 1077970.000000 0 0 1
2.881760 -33.640244 12.321104 35.941343 -1.485341 1.220888 0.015743 -0.005399 -832210.000000 0 0 1
2.453060 -32.852284 13.442204 35.580654 -1.496265 1.183382 0.002900 -0.000476 80654.900000 0 0 1
3.217160 -33.279744 14.521804 36.452356 -1.474426 1.161049 0.022501 -0.005533 -702014.000000 0 0 1
2.918160 -32.408374 15.785804 36.166420 -1.480995 1.119117 0.022771 -0.010736 -112847.000000 0 0 1
3.431760 -31.075684 15.807904 35.033769 -1.460810 1.102665 0.030674 -0.011130 -812770.000000 0 0 1
4.795660 -30.950254 15.957704 35.150603 -1.417071 1.099568 0.034620 -0.006959 -1433350.000000 0 0 1
5.357360 -29.684534 15.238304 33.794656 -1.392242 1.103013 0.052890 -0.009342 -565633.000000 0 0 1
5.567760 -29.760034 13.797304 33.271988 -1.385846 1.143203 0.050936 -0.006875 -45022.900000 0 0 1
4.400760 -29.744404 13.015404 32.764264 -1.423909 1.162285 0.044722 -0.002417 -511822.000000 0 0 1
4.756460 -29.725944 11.555304 32.245631 -1.412131 1.204294 0.038745 -0.000133 155595.000000 0 0 1
5.239560 -30.917034 10.943604 33.212625 -1.402920 1.235021 0.042610 0.001037 397359.000000 0 0 1
6.579760 -31.291514 11.241904 33.894432 -1.363543 1.232719 0.056455 -0.000452 213259.000000 0 0 1
6.954160 -32.775704 10.826104 35.210959 -1.361723 1.258270 0.048476 0.002132 -54051.300000 0 0 1
6.233460 -33.686454 11.627104 36.177655 -1.387822 1.243600 0.027469 -0.009977 186713.000000 0 0 1
6.584860 33.716069 11.300504 36.164003 1.377921 1.252994 0.036383 -0.008557 -16586.900000 0 0 1
6.019660 32.629138 12.235404 35.363853 1.388360 1.217507 0.039591 -0.012792 615603.000000 0 0 1
4.605460 32.430578 12.268304 34.978050 1.429730 1.212432 0.041917 -0.007564 512512.000000 0 0 1
4.315360 31.208358 12.898504 34.043433 1.433392 1.182207 0.054070 -0.005101 414382.000000 0 0 1
3.274260 31.260798 14.065704 34.435480 1.466437 1.150024 0.054791 -0.014415 263016.000000 0 0 1
3.805160 31.907668 15.197004 35.546132 1.452102 1.129039 0.066722 -0.014844 327627.000000 0 0 1
2.920860 31.689668 16.292204 35.751957 1.478885 1.097637 0.035837 -0.012495 38064.400000 0 0 1
3.482660 32.010148 17.652204 36.720278 1.462424 1.069320 0.033872 -0.007411 -214188.000000 0 0 1
3.598460 33.390441 17.840004 38.028098 1.463442 1.082494 0.038480 -0.009730 132900.000000 0 0 1
4.206760 33.553041 19.109904 38.841883 1.446071 1.056420 0.036182 -0.013227 -217706.000000 0 0 1
4.446160 -33.798424 19.624804 39.334905 -1.439998 1.048449 0.030570 -0.018500 140463.000000 0 0 1
3.269860 -33.003454 19.769804 38.610427 -1.472042 1.033247 0.017442 -0.016969 135749.000000 0 0 1
3.407360 -31.872274 20.601404 38.103409 -1.464294 0.999562 0.015264 -0.013899 440292.000000 0 0 1
1.984160 -31.350064 20.996104 37.783591 -1.507590 0.981599 0.014202 -0.012064 585346.000000 0 0 1
1.235860 -32.230004 21.815204 38.938460 -1.532470 0.976111 0.027700 -0.011320 -310516.000000 0 0 1
0.199760 -31.560014 22.477804 38.746949 -1.564467 0.951923 0.026580 -0.017677 -792580.000000 0 0 1
-0.788640 -32.486524 23.133604 39.889345 1.546525 0.952136 0.031032 -0.011440 -980486.000000 0 0 1
-1.603440 -33.100444 22.163804 39.867839 1.522393 0.981313 0.023010 -0.014676 115838.000000 0 0 1
-2.319240 -34.318575 22.507904 41.106559 1.503319 0.991363 0.030547 -0.015596 72652.900000 0 0 1
-3.622440 -34.021774 23.274004 41.379735 1.464722 0.973451 0.044404 -0.012570 -680590.000000 0 0 1
-4.557340 -33.513184 22.365604 40.547788 1.435639 0.986532 0.039697 -0.018594 -30911.100000 0 0 1
-5.803240 -33.255104 23.041404 40.871577 1.398029 0.971876 0.048959 -0.019833 848586.000000 0 0 1
-6.937140 -32.647174 22.181304 40.074582 1.361422 0.984235 0.028700 -0.011747 516083.000000 0 0 1
-7.644740 -33.631124 21.393804 40.585581 1.347283 1.015579 0.013775 -0.002004 561549.000000 0 0 1
-8.882040 -33.103014 20.891304 40.139093 1.308656 1.023392 0.011086 -0.011122 1054570.000000 0 0 1
-9.954940 -34.275411 20.908404 41.365033 1.288133 1.040880 0.029487 -0.010771 354764.000000 0 0 1
-10.336740 33.977924 22.183204 41.874122 -1.275473 1.012480 0.040837 -0.021234 178481.000000 0 0 1
-11.673140 33.491589 22.042104 41.758869 -1.235423 1.014738 0.027866 -0.010513 549771.000000 0 0 1
-12.410140 33.453425 23.406004 42.672992 -1.215565 0.990231 0.028613 -0.012739 -65425.800000 0 0 1
-12.638840 -34.080801 24.158204 43.644703 1.215670 0.984212 0.016374 -0.014802 525017.000000 0 0 1
-11.461840 -33.488154 24.719204 43.172552 1.241028 0.961162 0.009851 -0.017368 524629.000000 0 0 1
-11.841540 -32.042184 25.223104 42.463262 1.216803 0.934776 0.004310 -0.014538 -43842.000000 0 0 1
-12.538440 -32.035664 26.413704 43.372572 1.197734 0.916003 0.009476 -0.010248 -248233.000000 0 0 1
-12.943040 -30.743494 26.698604 42.725872 1.172318 0.895817 0.025561 -0.015387 36620.600000 0 0 1
-13.704040 -30.611764 28.040404 43.716645 1.149880 0.874458 0.025734 -0.016303 -567636.000000 0 0 1
-12.844040 -30.236444 29.049904 43.853265 1.169106 0.846733 0.022164 -0.009074 -383737.000000 0 0 1
-13.569940 -29.805864 30.141404 44.508842 1.143562 0.826845 0.027594 -0.013565 215561.000000 0 0 1
-12.680940 -29.468844 31.393904 44.886481 1.164431 0.796229 0.032720 -0.008127 -6262.240000 0 0 1
-13.517140 -29.081934 32.461204 45.631149 1.135707 0.779333 0.040674 -0.011606 95081.300000 0 0 1
-12.894340 -28.799554 33.669504 46.144488 1.149834 0.752981 0.042018 -0.011232 -559702.000000 0 0 1
-12.275940 -29.903464 -33.971645 46.893374 1.181255 2.381024 0.044074 -0.005666 442195.000000 0 0 1
-10.967540 -30.316374 34.174704 46.981697 1.223675 0.756264 0.035774 -0.003204 78123.600000 0 0 1
-10.455540 -31.378554 -33.549445 47.111541 1.249160 2.363321 0.036885 -0.000334 533849.000000 0 0 1
-8.918040 -31.489804 -33.738345 47.004416 1.294819 2.371390 0.043889 -0.008047 858597.000000 0 0 1
-8.055940 -30.414794 -33.300045 45.813217 1.311873 2.384543 0.061030 -0.012408 270241.000000 0 0 1
-6.804740 -30.925224 -32.900645 45.663185 1.354209 2.375330 0.053046 -0.019523 -226167.000000 0 0 1
-6.178540 -30.171314 -31.742245 44.227284 1.368807 2.371301 0.044742 -0.011203 -121842.000000 0 0 1
-6.602240 -30.551644 -30.464845 43.647443 1.357968 2.343363 0.054587 -0.021934 28500.800000 0 0 1
-5.885340 -29.804934 -29.508845 42.352606 1.375842 2.341642 0.045605 -0.015885 54717.000000 0 0 1
-6.264740 -30.260514 -28.095845 41.765083 1.366653 2.308663 0.049729 -0.029288 -213625.000000 0 0 1
-5.999640 -31.602024 -27.746445 42.479982 1.383179 2.282553 0.039382 -0.014891 -410190.000000 0 0 1
-6.784140 -32.031994 -26.662145 42.224912 1.362088 2.254194 0.047187 -0.023351 -237874.000000 0 0 1
-6.264540 -33.226294 -25.834745 42.551911 1.384442 2.223246 0.049336 -0.022990 72340.200000 0 0 1
-5.255740 -32.778854 -24.946545 41.525970 1.411810 2.215230 0.022339 -0.023967 -108901.000000 0 0 1
-4.770040 -33.874164 -24.209645 41.908462 1.430900 2.186679 0.041146 -0.025606 -420282.000000 0 0 1
-3.883840 -33.415934 -23.040045 40.774410 1.455088 2.171304 0.043818 -0.035082 -309059.000000 0 0 1
-4.478740 -32.711934 -21.932445 39.637885 1.434728 2.157141 0.057286 -0.028695 180804.000000 0 0 1
-4.996440 -31.412834 -22.326645 38.861416 1.413060 2.182813 0.045935 -0.017706 -127229.000000 0 0 1
-5.404140 -30.555004 -21.153945 37.553993 1.395741 2.169164 0.073094 -0.031774 714414.000000 0 0 1
-6.791940 -30.672804 -20.749445 37.649580 1.352881 2.154502 0.074304 -0.038241 1179300.000000 0 0 1
-7.415240 -29.468344 -20.323845 36.557185 1.324280 2.160298 0.076709 -0.034861 213327.000000 0 0 1
-7.800040 -28.437074 -21.393545 36.430641 1.303089 2.198442 0.086718 -0.040421 123531.000000 0 0 1
-6.610540 -27.981314 -22.051345 36.234169 1.338802 2.225065 0.075330 -0.020399 238766.000000 0 0 1
-6.923540 -27.079554 -23.098945 36.260156 1.320485 2.261440 0.091995 -0.036676 -871387.000000 0 0 1
-5.885440 -27.157244 -24.211345 36.855713 1.357379 2.287526 0.085091 -0.035096 -94047.700000 0 0 1
-4.584140 -26.698904 -23.984045 36.181214 1.400757 2.295464 0.094815 -0.031035 -61196.600000 0 0 1
-3.800240 -27.387394 -23.000345 35.965637 1.432918 2.264656 0.072584 -0.025702 -1212300.000000 0 0 1
-2.299840 -27.093644 -23.098745 35.677820 1.486114 2.274998 0.067753 -0.027016 -244739.000000 0 0 1
-1.694040 -25.818884 -23.081345 34.673232 1.505278 2.299204 0.070133 -0.026520 -28751.500000 0 0 1
-2.101340 -24.968514 -22.003145 33.346375 1.486835 2.291397 0.087348 -0.024971 -493825.000000 0 0 1
-1.824840 -23.443514 -22.301245 32.407930 1.493113 2.329721 0.077970 -0.020104 150837.000000 0 0 1
-2.625640 -22.957314 -23.388245 32.877686 1.456921 2.362244 0.084472 -0.023771 -483815.000000 0 0 1
-3.952140 -22.691414 -23.074345 32.602839 1.398357 2.357091 0.086634 -0.025709 -1222350.000000 0 0 1
-4.838440 -22.790514 -24.309045 33.671170 1.361602 2.377419 0.069047 -0.020257 -394675.000000 0 0 1
-4.910140 -21.709614 -25.163345 33.594803 1.348365 2.417385 0.071972 -0.015528 112944.000000 0 0 1
-5.385240 -22.074314 -26.443945 34.864859 1.331511 2.431758 0.076577 -0.017066 120445.000000 0 0 1
-5.376740 -20.874114 -27.444145 34.897265 1.318697 2.475799 0.070066 -0.015946 -78103.300000 0 0 1
-5.888440 -21.249314 -28.720845 36.209032 1.300468 2.486835 0.069583 -0.015652 -9142.230000 0 0 1
-4.977940 -21.775614 -29.639845 37.114386 1.346056 2.495775 0.064531 -0.021526 -161651.000000 0 0 1
-5.720440 -21.940914 -30.990445 38.399672 1.315754 2.509935 0.059242 -0.029225 -122562.000000 0 0 1
-6.115740 -20.823314 -31.691545 38.410503 1.285132 2.541131 0.060977 -0.037186 -342650.000000 0 0 1
-7.102140 -21.118714 -32.639145 39.519037 1.246382 2.542610 0.049069 -0.029867 -234223.000000 0 0 1
-6.840140 -20.328814 -33.906245 40.120838 1.246221 2.577554 0.046723 -0.030352 410708.000000 0 0 1
-5.763140 -20.883514 33.857104 40.195005 1.301532 0.569221 0.059679 -0.031931 -322743.000000 0 0 1
-5.534140 -20.154214 32.661204 38.775937 1.302812 0.569249 0.061334 -0.018666 -453495.000000 0 0 1
-4.361640 -20.603714 31.831804 38.168058 1.362184 0.584495 0.047596 -0.026124 -2518490.000000 0 0 1
-4.398840 -21.978714 31.346704 38.536081 1.373265 0.620758 0.056320 -0.022132 52388.500000 0 0 1
-3.227340 -22.339914 30.651604 38.065842 1.427324 0.634740 0.055172 -0.018505 414961.000000 0 0 1
-1.823340 -22.029214 31.221004 38.253914 1.488215 0.616076 0.049997 -0.028036 -1061620.000000 0 0 1
-1.384940 -20.685514 31.035404 37.322980 1.503944 0.588929 0.044852 -0.025641 -530252.000000 0 0 1
-0.344940 -20.274414 31.861104 37.766397 1.553784 0.566776 0.056290 -0.025789 -136322.000000 0 0 1
-0.901240 -19.734914 33.253304 38.678951 1.525161 0.536063 0.044405 -0.032096 194733.000000 0 0 1
-1.785640 -18.636014 33.168404 38.087170 1.475271 0.513857 0.033759 -0.033530 -104081.000000 0 0 1
-2.130940 -18.263014 -33.994345 38.648339 1.454641 2.645777 0.034972 -0.034643 -189865.000000 0 0 1
-3.156740 -17.156514 -33.861445 38.090792 1.388835 2.665880 0.040969 -0.036185 -355494.000000 0 0 1
-2.734440 -15.957514 34.229604 37.865356 1.401087 0.441803 0.041960 -0.033532 -256202.000000 0 0 1
-3.668340 -14.979714 -33.866845 37.213059 1.330635 2.714272 0.038109 -0.032080 10075.300000 0 0 1
-3.206540 -13.519214 -34.185245 36.900976 1.337916 2.755546 0.033411 -0.039519 127220.000000 0 0 1
-2.285740 -12.881614 -33.292845 35.771135 1.395182 2.767168 0.031635 -0.035741 380302.000000 0 0 1
-1.938440 -11.512014 -33.618945 35.588165 1.403977 2.807373 0.028266 -0.027891 -60104.400000 0 0 1
-1.220240 -11.122314 33.574304 35.389670 1.461522 0.321687 0.030340 -0.023876 -183823.000000 0 0 1
-2.098540 -11.193514 32.430904 34.372404 1.385469 0.337710 0.025866 -0.028251 378055.000000 0 0 1
-1.533840 -11.007514 31.132004 33.056311 1.432343 0.342890 0.027162 -0.012827 -327682.000000 0 0 1
-0.620040 -12.177114 30.688504 33.021975 1.519922 0.378186 0.017820 -0.022081 -443465.000000 0 0 1
-1.323740 -13.342914 30.267904 33.104858 1.471911 0.417010 0.037703 -0.027590 -177627.000000 0 0 1
-0.455240 -14.428014 30.155004 33.432007 1.539254 0.446463 0.029513 -0.025658 -367069.000000 0 0 1
-1.025140 -15.805314 30.488704 34.357240 1.506027 0.479116 0.031724 -0.029201 -23248.800000 0 0 1
-1.950340 -16.416114 29.623104 33.923751 1.452544 0.509013 0.048133 -0.027284 -684.861000 0 0 1
-2.498440 -17.514614 30.297004 35.084360 1.429103 0.528534 0.049192 -0.022081 -336312.000000 0 0 1
-2.995340 -18.597814 29.330604 34.858788 1.411109 0.570905 0.053240 -0.017810 -534312.000000 0 0 1
-4.253740 -18.349814 28.763304 34.382228 1.343006 0.579795 0.053175 -0.015390 -486897.000000 0 0 1
-4.717140 -19.308214 27.843704 34.210092 1.331183 0.619957 0.060469 -0.014531 332486.000000 0 0 1
-3.906840 -19.522114 26.494004 33.140739 1.373282 0.644435 0.056544 -0.018521 474082.000000 0 0 1
-4.635340 -20.285814 25.461004 32.882569 1.346152 0.685187 0.073313 -0.012508 530925.000000 0 0 1
-4.561040 -21.618714 25.727204 33.912548 1.362869 0.709583 0.068834 -0.014654 -107805.000000 0 0 1
-29.141990 34.213686 -0.492496 44.945238 -0.865279 1.581754 0.006333 0.000096 -497715.000000 0 0 1
-28.393320 -33.351897 -0.197796 43.801470 0.865533 1.575312 0.014785 0.017236 -38604.100000 0 0 1
-28.844670 -32.667297 0.949204 43.589773 0.847463 1.549019 0.013766 0.010567 -100979.000000 0 0 1
-28.057800 -31.379597 1.276504 42.113522 0.841227 1.540481 0.027865 0.008284 -525838.000000 0 0 1
-26.723250 -31.369897 1.652504 41.242373 0.865214 1.530717 0.028656 0.006160 -773698.000000 0 0 1
-26.338870 -30.029997 1.845404 39.986777 0.850786 1.524630 0.037672 -0.000967 -760636.000000 0 0 1
-24.900240 -29.856897 2.263004 38.943259 0.875673 1.512653 0.045021 -0.001400 -958625.000000 0 0 1
-24.523140 -30.387497 3.526204 39.207378 0.891793 1.480737 0.037639 0.004955 519531.000000 0 0 1
-23.112040 -30.272797 3.696104 38.265779 0.918737 1.474055 0.037746 0.002201 385114.000000 0 0 1
-22.518440 -30.852697 4.994204 38.521567 0.940304 1.440783 0.029852 0.004177 -79480.900000 0 0 1
-22.866040 -30.046297 6.111504 38.249003 0.920275 1.410326 0.021874 0.001921 -87174.300000 0 0 1
-22.349440 -30.567197 7.297704 38.563033 0.939464 1.380407 0.021831 0.000760 -273470.000000 0 0 1
-22.865940 -29.880097 8.546604 38.583881 0.917602 1.347437 0.023096 -0.009292 -159879.000000 0 0 1
-22.197640 -28.681297 8.902304 37.344384 0.912148 1.330095 0.028528 -0.008081 184921.000000 0 0 1
-22.803940 -28.117197 10.078204 37.578806 0.889365 1.299284 0.021601 -0.001561 160208.000000 0 0 1
-21.879740 -27.138297 10.806604 36.496478 0.892267 1.270189 0.031671 -0.016599 416293.000000 0 0 1
-20.751940 -27.726697 11.451804 36.476795 0.928290 1.251448 0.021527 -0.012179 23965.000000 0 0 1
-20.039440 -26.772697 12.246604 35.613702 0.928254 1.219758 0.029462 -0.017189 -130860.000000 0 0 1
-18.679540 -27.321897 12.671004 35.439605 0.971105 1.205166 0.036383 -0.016389 -196455.000000 0 0 1
-18.868740 -28.389597 13.590304 36.697342 0.984201 1.191427 0.042717 -0.021817 -736687.000000 0 0 1
-17.685740 -28.548697 14.291204 36.497288 1.016166 1.168460 0.042891 -0.019541 -512582.000000 0 0 1
-17.735040 -29.621297 15.399004 37.803204 1.031314 1.151250 0.050092 -0.025768 -30908.700000 0 0 1
-17.654140 -30.910697 14.751304 38.532335 1.051873 1.177939 0.057780 -0.023054 -191634.000000 0 0 1
-17.593740 -31.973397 15.706704 39.730824 1.067752 1.164372 0.067330 -0.018456 129127.000000 0 0 1
-17.618140 -33.337397 15.012704 40.585246 1.084625 1.191889 0.058050 -0.020724 28478.200000 0 0 1
-17.423140 34.277086 15.877104 41.600082 -1.100529 1.179204 0.063675 -0.008505 -108026.000000 0 0 1
-17.347440 33.060986 15.109504 40.277284 -1.087576 1.186252 0.046182 -0.012862 -71504.300000 0 0 1
-17.042040 31.847186 15.989604 39.501162 -1.079450 1.154049 0.052579 -0.011117 774829.000000 0 0 1
-18.035240 31.637186 17.034704 40.204012 -1.052679 1.133263 0.067644 -0.014547 1137070.000000 0 0 1
-17.537340 30.593686 17.897704 39.545666 -1.050290 1.101136 0.043488 -0.009739 635320.000000 0 0 1
-18.401840 30.528886 19.213404 40.494388 -1.028344 1.076434 0.051754 -0.008180 451575.000000 0 0 1
-17.893440 31.347186 20.250804 41.387393 -1.052113 1.059511 0.043536 -0.007837 -135454.000000 0 0 1
-18.881540 31.568086 21.221004 42.466311 -1.031759 1.047528 0.045150 -0.003921 -60701.100000 0 0 1
-18.627240 32.940286 21.881604 43.713168 -1.056142 1.046537 0.026105 -0.003223 -75214.900000 0 0 1
-17.455840 32.944086 22.643004 43.620233 -1.083545 1.025006 0.013639 -0.007075 -516519.000000 0 0 1
-17.619940 33.765886 23.797804 44.910275 -1.089840 1.012318 0.004078 -0.008135 -154316.000000 0 0 1
-18.499240 33.254986 24.944304 45.500926 -1.063141 0.990568 0.006505 -0.013800 156888.000000 0 0 1
-19.869440 33.365586 24.577804 45.957866 -1.033687 1.006537 0.027127 -0.011578 -42073.900000 0 0 1
-20.681940 32.752586 25.584504 46.422423 -1.007565 0.987086 0.035986 -0.010615 343012.000000 0 0 1
-22.165640 32.839186 25.125104 46.914801 -0.977064 1.005640 0.050033 -0.025654 -86262.600000 0 0 1
-22.349240 32.123086 23.901704 45.854908 -0.962937 1.022486 0.068773 -0.009827 989696.000000 0 0 1
-23.680940 32.362886 23.414604 46.436914 -0.939090 1.042313 0.058493 -0.014308 726621.000000 0 0 1
-23.828140 31.833386 21.953604 45.421420 -0.928239 1.066340 0.044720 -0.021105 -166789.000000 0 0 1
-23.138740 32.621186 21.016204 45.179906 -0.953845 1.086973 0.056191 -0.028444 31190.900000 0 0 1
-22.962540 31.980786 19.786204 44.062941 -0.948085 1.105101 0.034476 -0.006019 37133.800000 0 0 1
-22.359740 32.868886 18.636404 43.904865 -0.973435 1.132417 0.038957 0.000237 195164.000000 0 0 1
-21.042940 33.272886 18.977204 43.703827 -1.006868 1.121621 0.043592 -0.001824 105292.000000 0 0 1
-20.477340 34.006086 17.893404 43.542040 -1.028785 1.147305 0.066335 0.002077 798086.000000 0 0 1
-19.130840 -34.003897 18.288904 43.089883 1.058325 1.132457 0.077816 -0.013591 449364.000000 0 0 1
-19.454740 -32.896497 19.103104 42.726982 1.036730 1.107279 0.079030 -0.024120 192369.000000 0 0 1
-18.328740 -32.349797 19.726804 42.090365 1.055313 1.083003 0.054362 -0.023128 -725760.000000 0 0 1
-18.775340 -31.443397 20.866804 42.150019 1.032500 1.052892 0.048476 -0.022956 -36061.600000 0 0 1
-19.414140 -30.267197 20.369704 41.327193 1.000473 1.055390 0.068097 -0.019302 251062.000000 0 0 1
-19.650240 -29.354897 21.410604 41.306850 0.980902 1.025899 0.066087 -0.018381 -99901.700000 0 0 1
-20.548140 -28.131197 21.034804 40.694634 0.939932 1.027578 0.059531 -0.019597 40353.500000 0 0 1
-19.920540 -27.047497 20.332604 39.265886 0.935990 1.026497 0.057115 -0.014930 509319.000000 0 0 1
-20.753840 -25.890197 20.313104 38.905608 0.895074 1.021470 0.054017 -0.006078 -28508.200000 0 0 1
-21.825340 -25.745397 19.208704 38.834846 0.867617 1.053392 0.045113 -0.010647 -110303.000000 0 0 1
-23.115340 -26.162297 19.634804 40.053842 0.847152 1.058465 0.037901 -0.006592 100152.000000 0 0 1
-23.943440 -26.045297 18.488204 39.918160 0.827420 1.089247 0.027601 -0.000722 -845537.000000 0 0 1
-25.419230 -26.208897 18.864004 41.096158 0.800692 1.093903 0.009076 0.004196 -256249.000000 0 0 1
-25.903910 -27.522297 19.249804 42.415143 0.815681 1.099723 0.011184 0.001294 157482.000000 0 0 1
-25.881200 -28.481197 18.191804 42.567086 0.833189 1.129217 0.015206 0.001016 -474635.000000 0 0 1
-26.702140 -29.732397 18.640604 44.096392 0.839042 1.134347 0.028159 -0.002288 1584890.000000 0 0 1
-28.131150 -29.486797 18.727004 44.850122 0.808922 1.140053 0.024604 -0.003387 1118690.000000 0 0 1
-28.834740 -29.915497 17.576104 45.114284 0.803792 1.170609 0.024204 0.002681 404623.000000 0 0 1
-30.307890 -29.379697 17.703104 45.772641 0.769849 1.173679 0.024479 0.001770 613880.000000 0 0 1
-30.581260 -28.020897 17.408004 44.982471 0.741735 1.173426 0.029939 0.001894 -16925.100000 0 0 1
-31.949740 -27.806997 17.708404 45.908633 0.716182 1.174796 0.044871 0.019004 -98990.600000 0 0 1
-32.495650 -26.493297 17.149904 45.298800 0.683993 1.182518 0.034784 0.011353 -319826.000000 0 0 1
-32.733010 -26.539597 15.792704 45.002329 0.681286 1.212231 0.058022 -0.007459 74653.200000 0 0 1
-33.451300 -25.453797 15.256404 44.717369 0.650454 1.222631 0.063621 -0.011196 -137918.000000 0 0 1
-32.602110 -24.245097 14.815704 43.246126 0.639435 1.221124 0.035143 -0.004396 37585.600000 0 0 1
-31.914890 -23.638597 15.886604 42.775316 0.637507 1.190284 0.015960 0.001391 118454.000000 0 0 1
-31.461280 -22.304897 15.675604 41.629859 0.616716 1.184730 0.009892 0.005609 12420.900000 0 0 1
-32.584450 -21.285397 15.952004 42.062821 0.578648 1.181819 0.016096 0.000703 9329.420000 0 0 1
-32.687480 -20.839297 17.285404 42.444468 0.567560 1.151358 0.019737 0.005997 -207679.000000 0 0 1
-33.592930 -19.811597 17.527704 42.757511 0.532852 1.148416 0.025666 0.003209 -405689.000000 0 0 1
-33.844910 -19.445597 19.010104 43.416509 0.521496 1.117586 0.025332 -0.000583 101849.000000 0 0 1
-34.818424 -20.306397 19.605204 44.822276 0.527981 1.118092 0.030096 0.002264 330473.000000 0 0 1
-35.385795 -19.676397 20.695604 45.471124 0.507479 1.098270 0.027738 0.006901 46862.300000 0 0 1
35.130963 -20.044797 20.905404 45.530367 -0.518501 1.093755 0.039167 0.008251 534380.000000 0 0 1
34.732683 -21.375797 21.246304 45.985752 -0.551693 1.090526 0.047482 0.001666 246366.000000 0 0 1
35.349843 -21.792297 22.480904 47.221887 -0.552446 1.074616 0.030105 0.010289 -279847.000000 0 0 1
34.768743 -23.104097 22.910504 47.618861 -0.586506 1.068862 0.040110 0.013390 39119.800000 0 0 1
33.566423 -23.075897 23.663504 47.107995 -0.602267 1.044511 0.048782 0.002226 198499.000000 0 0 1
33.436213 -24.260597 24.428704 47.992900 -0.627687 1.036766 0.046269 -0.007372 -714117.000000 0 0 1
32.269013 -24.208297 25.392804 47.666816 -0.643631 1.008991 0.047697 -0.008499 -352609.000000 0 0 1
30.939463 -24.379397 24.978704 46.642695 -0.667363 1.005658 0.048411 -0.004037 -73116.000000 0 0 1
30.168873 -24.659297 26.130404 46.915241 -0.685246 0.980063 0.019832 -0.000306 299522.000000 0 0 1
28.709693 -25.120997 25.815004 46.062190 -0.718830 0.975882 0.021568 -0.006434 204651.000000 0 0 1
27.894323 -24.052597 25.464704 44.778028 -0.711578 0.965887 0.030762 -0.003754 85487.800000 0 0 1
26.535283 -24.487597 25.278004 44.076537 -0.745287 0.960021 0.027617 -0.000722 974101.000000 0 0 1
25.691583 -23.195797 24.980004 42.686099 -0.734391 0.945667 0.035855 -0.001355 -460570.000000 0 0 1
25.621683 -22.743297 23.645604 41.627428 -0.725954 0.966687 0.030891 0.002840 453088.000000 0 0 1
26.866383 -22.315597 23.076904 41.860863 -0.693131 0.986903 0.029230 0.009685 549899.000000 0 0 1
26.706083 -21.814697 21.639204 40.710576 -0.684927 1.010381 0.033053 -0.001644 694408.000000 0 0 1
25.866283 -20.620797 21.594904 39.504705 -0.673036 0.992448 0.031370 -0.002256 499313.000000 0 0 1
25.658083 -20.021897 20.361904 38.390372 -0.662634 1.011735 0.016387 -0.003768 -510779.000000 0 0 1
24.818583 -18.788197 20.434404 37.236048 -0.647980 0.989892 0.028970 0.004116 -588561.000000 0 0 1
25.392283 -17.632297 21.003104 37.373738 -0.606955 0.974025 0.022960 -0.012873 -24093.400000 0 0 1
25.473483 -17.695297 22.433404 38.278969 -0.607130 0.944621 0.024972 -0.005606 31341.800000 0 0 1
25.664083 -16.366597 23.150704 38.242198 -0.567697 0.920565 0.038797 -0.004991 336508.000000 0 0 1
24.520683 -15.539797 22.921904 36.988685 -0.564861 0.902435 0.027025 -0.001164 335704.000000 0 0 1
24.571483 -14.448497 23.847704 37.164900 -0.531563 0.874119 0.022100 0.002067 -693616.000000 0 0 1
23.300783 -13.637997 23.823604 36.006743 -0.529542 0.847789 0.030072 -0.005595 95803.400000 0 0 1
22.204883 -14.355797 24.428104 35.998305 -0.573922 0.824955 0.041453 0.001223 852881.000000 0 0 1
21.013683 -13.565697 24.506404 35.016665 -0.573251 0.795609 0.043403 -0.008700 -39337.200000 0 0 1
19.775683 -14.322297 24.938904 34.902074 -0.626808 0.774831 0.038688 0.004142 -528370.000000 0 0 1
19.228383 -15.191697 23.981704 34.287614 -0.668654 0.796200 0.050825 0.003757 -300865.000000 0 0 1
17.934883 -15.623397 24.284104 33.992179 -0.716627 0.775026 0.035624 0.007196 -314681.000000 0 0 1
17.503083 -16.868797 23.425304 33.758837 -0.766947 0.803903 0.046267 -0.002974 31147.800000 0 0 1
17.997783 -18.059897 23.983704 35.004258 -0.787121 0.815966 0.036590 0.000585 81691.200000 0 0 1
17.628283 -19.075297 23.078404 34.745302 -0.824802 0.844351 0.049779 -0.008398 -196497.000000 0 0 1
18.054183 -20.482197 23.485104 36.014219 -0.848321 0.860437 0.034660 -0.006864 -63812.800000 0 0 1
17.085183 -21.102397 24.306004 36.441685 -0.890210 0.840643 0.027074 -0.009111 230308.000000 0 0 1
17.435083 -22.456797 24.555504 37.566775 -0.910623 0.858400 0.039085 -0.005180 -52736.100000 0 0 1
17.058983 -23.534297 23.488404 37.370806 -0.943582 0.891144 0.032075 -0.001110 -232205.000000 0 0 1
17.829883 -23.515397 22.317504 36.999319 -0.922054 0.923306 0.033819 0.004351 -279065.000000 0 0 1
18.824583 -24.500497 22.364004 38.141682 -0.915664 0.944263 0.039525 0.001615 -172.151000 0 0 1
19.790483 -24.593597 21.122504 37.982475 -0.893196 0.981096 0.039487 0.014185 215366.000000 0 0 1
19.210183 -25.106597 19.924104 37.367663 -0.917673 1.008428 0.040761 0.001152 -104479.000000 0 0 1
20.170883 -25.434097 18.969204 37.597719 -0.900299 1.041958 0.035121 0.009401 -268264.000000 0 0 1
19.551583 -26.238497 17.797604 37.248863 -0.930407 1.072645 0.026949 0.005966 76296.600000 0 0 1
19.001983 -27.432897 18.216404 38.019423 -0.965006 1.071128 0.048277 -0.007937 140302.000000 0 0 1
18.065683 -27.954297 17.285904 37.504854 -0.997056 1.091790 0.055976 -0.009078 271279.000000 0 0 1
17.454683 -29.335297 17.835804 38.514173 -1.034057 1.089310 0.052077 -0.005154 132024.000000 0 0 1
16.779083 -29.077797 19.037504 38.593813 -1.047429 1.054941 0.056259 -0.005584 -12219.700000 0 0 1
15.926183 -30.131397 19.455904 39.243809 -1.084564 1.052075 0.059382 -0.010986 428609.000000 0 0 1
14.701383 -29.594897 20.264204 38.763727 -1.109749 1.020709 0.045075 -0.002494 27782.400000 0 0 1
13.796183 -28.933197 19.432704 37.484590 -1.125857 1.025796 0.043185 -0.003417 -762510.000000 0 0 1
12.620283 -28.599497 20.123104 37.177171 -1.155221 0.998843 0.023404 0.002133 -333517.000000 0 0 1
11.527683 -28.062697 19.212704 35.910032 -1.181029 1.006261 0.034261 -0.003605 -572750.000000 0 0 1
11.200583 -28.959297 18.238704 36.010335 -1.201747 1.039693 0.039650 -0.008200 -45272.700000 0 0 1
10.676383 -28.313197 17.067804 34.740930 -1.210202 1.057228 0.054261 -0.006104 76470.100000 0 0 1
10.480383 -29.305397 15.879604 34.940042 -1.227344 1.099006 0.056449 -0.008409 -67109.000000 0 0 1
9.382083 -30.191997 15.947804 35.410628 -1.269509 1.103619 0.064596 -0.008959 53429.700000 0 0 1
9.318283 -31.104597 14.860004 35.709187 -1.279726 1.141601 0.057966 -0.010087 162194.000000 0 0 1
7.958783 -31.857997 14.746904 35.996463 -1.325987 1.148697 0.055475 -0.005117 -445923.000000 0 0 1
7.743583 -32.863097 15.698904 37.234417 -1.339386 1.135561 0.067006 -0.012515 85896.900000 0 0 1
6.902483 -33.929897 15.265604 37.840730 -1.370101 1.155548 0.043640 -0.010261 -30590.600000 0 0 1
6.840283 33.560386 16.137504 37.861696 1.369730 1.130484 0.059569 -0.018330 -561594.000000 0 0 1
7.933483 32.730686 16.027504 37.297705 1.332996 1.126616 0.060822 -0.021434 -764687.000000 0 0 1
7.805383 31.760286 17.031504 36.874271 1.329813 1.090682 0.060761 -0.025295 -48327.000000 0 0 1
9.104983 31.033486 17.425104 36.737068 1.285413 1.076606 0.059109 -0.024490 -134500.000000 0 0 1
9.670583 30.275386 16.356204 35.744154 1.261619 1.095512 0.058632 -0.024202 -382182.000000 0 0 1
10.914283 29.754086 16.738104 35.841196 1.219220 1.084893 0.054779 -0.024892 -207014.000000 0 0 1
11.739883 29.027386 15.634104 34.997702 1.186467 1.107703 0.040475 -0.017799 84115.100000 0 0 1
11.050283 27.868086 15.093104 33.563980 1.193293 1.104388 0.046644 -0.019738 597754.000000 0 0 1
11.780783 27.302686 13.974404 32.855859 1.163443 1.131476 0.035981 -0.010599 406570.000000 0 0 1
-9.060540 -9.005614 19.407152 23.234286 0.782358 0.582153 0.029741 -0.018848 59006.100000 0 1 0
-9.529540 -9.165114 18.076952 22.396153 0.765907 0.631496 0.044026 -0.019437 143942.000000 0 1 0
-9.518340 -10.530614 17.744452 22.723517 0.835845 0.674715 0.045036 -0.020324 -36734.100000 0 1 0
-9.905240 -10.817214 16.313852 21.937814 0.829379 0.732297 0.052117 -0.014285 128751.000000 0 1 0
-11.298240 -10.598214 16.096552 22.339905 0.753439 0.766231 0.056953 -0.016871 583003.000000 0 1 0
-11.830040 -11.090714 14.874952 22.004954 0.753154 0.828500 0.068312 -0.012812 114534.000000 0 1 0
-11.754140 -12.620014 14.578052 22.581944 0.820907 0.869037 0.053664 -0.016448 -10816.000000 0 1 0
-10.425740 -13.045414 14.243352 21.948849 0.896551 0.864614 0.053503 -0.018203 554939.000000 0 1 0
-10.219440 -14.468014 14.227952 22.719926 0.955823 0.894085 0.054153 -0.017647 35311.200000 0 1 0
-9.942540 -15.035014 15.599552 23.838033 0.986524 0.857411 0.060497 -0.019959 -612682.000000 0 1 0
-10.984840 -14.878814 16.499252 24.784494 0.934834 0.842353 0.069794 -0.009302 -593554.000000 0 1 0
-10.659240 -15.287714 17.821152 25.786180 0.961924 0.807769 0.077487 -0.012777 6359.980000 0 0 1
-11.819140 -14.891014 18.768452 26.714962 0.899903 0.791829 0.049897 -0.008988 -64783.700000 0 0 1
-12.219940 -13.475314 18.736952 26.114831 0.834216 0.770614 0.053316 -0.010123 986353.000000 0 0 1
-13.429840 -13.177514 17.995152 26.035226 0.775915 0.807669 0.063755 -0.007752 1044450.000000 0 0 1
-14.741840 -13.477514 18.763552 27.405039 0.740625 0.816638 0.027924 0.001454 -296604.000000 0 0 1
-14.998840 -14.889114 18.908052 28.357810 0.781727 0.840934 0.032496 0.002026 -578875.000000 0 0 1
-15.990940 -15.004414 19.867852 29.590103 0.753581 0.834652 0.041351 0.002941 -473431.000000 0 0 1
-16.430840 -16.450814 20.172452 30.781969 0.786006 0.856172 0.045303 -0.000257 157518.000000 0 0 1
-17.473940 -16.932014 19.320552 31.069526 0.769649 0.899695 0.045620 0.006017 284515.000000 0 0 1
-17.683040 -18.282914 19.615052 32.120167 0.802076 0.913881 0.031668 0.002143 -460025.000000 0 0 1
-18.932140 -18.856814 18.967052 32.768193 0.783405 0.953509 0.040738 0.006117 -372515.000000 0 0 1
-18.814540 -18.975014 17.566952 31.978679 0.789645 0.989230 0.038927 0.005425 436638.000000 0 0 1
-19.524440 -17.855214 16.917252 31.403915 0.740772 1.001904 0.031389 -0.001312 87971.600000 0 0 1
-19.199640 -17.748214 15.383552 30.336100 0.746135 1.038975 0.035326 0.001049 -4608.910000 0 0 1
-19.834640 -18.781514 14.655052 30.998851 0.758133 1.078375 0.036045 0.003496 70544.300000 0 0 1
-19.391240 -18.681614 13.341652 30.050334 0.766762 1.110764 0.050835 -0.005336 154942.000000 0 0 1
-19.533740 -20.007714 12.572552 30.658518 0.797384 1.148251 0.041847 -0.000221 297762.000000 0 0 1
-18.639440 -21.000014 13.079852 30.975989 0.844879 1.134862 0.036333 -0.003193 44181.300000 0 0 1
-18.604540 -22.079814 12.174952 31.334910 0.870612 1.171747 0.028390 -0.003959 -87217.900000 0 0 1
-17.571040 -23.171014 12.588952 31.687838 0.921992 1.162245 0.030233 -0.005588 201247.000000 0 0 1
-17.691940 -24.334314 11.764052 32.304126 0.942154 1.198060 0.025620 -0.014565 -68842.300000 0 0 1
-17.133540 -24.187414 10.489252 31.442227 0.954478 1.230672 0.025297 -0.010199 -332730.000000 0 0 1
-17.219840 -25.473714 9.698252 32.241109 0.976371 1.265261 0.040023 -0.014977 95647.100000 0 0 1
-18.539740 -25.622284 9.219852 32.942816 0.944420 1.287133 0.031331 -0.006733 -179605.000000 0 0 1
-18.579940 -26.558394 8.188752 33.430796 0.960347 1.323332 0.042384 -0.014390 172874.000000 0 0 1
-19.824840 -26.356834 7.310052 33.780821 0.925907 1.352674 0.041911 -0.019526 100198.000000 0 0 1
-19.600740 -25.219984 6.454652 32.586794 0.910119 1.371402 0.043059 -0.018412 -250916.000000 0 0 1
-20.459740 -25.185974 5.378452 32.891671 0.888572 1.406539 0.043261 -0.018353 -468090.000000 0 0 1
-20.195340 -23.961614 4.448752 31.651258 0.870485 1.429774 0.044847 -0.017970 438888.000000 0 0 1
-21.267040 -23.773914 3.521052 32.091803 0.840998 1.460857 0.047334 -0.019564 396135.000000 0 0 1
-21.046940 -22.624714 2.729952 31.021026 0.821511 1.482679 0.045128 -0.016304 49299.500000 0 0 1
-21.794040 -22.564714 1.378152 31.401367 0.802770 1.526894 0.035828 -0.023748 -61189.900000 0 0 1
-21.314840 -23.536814 0.464752 31.757205 0.834898 1.556161 0.035569 -0.030213 31296.600000 0 0 1
-21.672240 -23.326214 -0.881448 31.852397 0.822138 1.598473 0.043416 -0.032012 -106995.000000 0 0 1
-20.876040 -24.200714 -1.920148 32.018285 0.859021 1.630803 0.044774 -0.031510 25730.400000 0 0 1
-19.502140 -23.874114 -2.034048 30.894080 0.885851 1.636683 0.057399 -0.023284 117583.000000 0 0 1
-18.790240 -24.485414 -3.089048 31.018557 0.916248 1.670549 0.055264 -0.014270 116285.000000 0 0 1
-18.606540 -26.014894 -3.140448 32.137836 0.949924 1.668671 0.063099 -0.019603 -166994.000000 0 0 1
-19.725140 -26.751994 -3.637148 33.436196 0.935451 1.679791 0.085527 -0.027104 62858.300000 0 0 1
-19.287440 -28.005854 -3.988348 34.237993 0.967699 1.687550 0.089523 -0.024455 -33549.400000 0 0 1
-20.396040 -28.934104 -4.548948 35.691368 0.956780 1.698596 0.108415 -0.023508 -3479.280000 0 0 1
-20.904340 -28.496364 -5.737448 35.804365 0.937888 1.731735 0.094649 -0.016835 -180456.000000 0 0 1
-21.949540 -29.342834 -6.180548 37.161585 0.928552 1.737888 0.085243 -0.031358 172261.000000 0 0 1
-22.620040 -28.846974 -7.493448 37.416118 0.905802 1.772433 0.075391 -0.004083 -396498.000000 0 0 1
-21.731240 -28.816604 -8.573748 37.096531 0.924662 1.804025 0.110761 -0.008597 -242459.000000 0 0 1
-22.254940 -28.662154 -9.909348 37.616441 0.910576 1.837374 0.100390 -0.008992 23268.500000 0 0 1
-22.966440 -27.280354 -10.171548 37.082819 0.871043 1.848650 0.065228 -0.000910 -64908.400000 0 0 1
-22.116840 -26.170774 -10.340748 35.790992 0.869156 1.863895 0.063997 -0.005424 69406.600000 0 0 1
-22.035440 -25.369754 -9.166148 34.831068 0.855619 1.837093 0.053094 -0.007880 157105.000000 0 0 1
-21.598540 -23.903814 -9.545948 33.600809 0.836018 1.858863 0.048090 -0.004014 -280588.000000 0 0 1
-22.620340 -23.158814 -10.116548 33.916884 0.797160 1.873681 0.040770 0.003983 -672246.000000 0 0 1
-22.231340 -21.942814 -10.574548 32.977881 0.778867 1.897218 0.025488 0.014200 -579244.000000 0 0 1
-23.345640 -20.911314 -10.723948 33.125595 0.730449 1.900472 0.015879 0.022151 -668192.000000 0 0 1
-24.272540 -21.215514 -11.756848 34.314395 0.718294 1.920502 -0.001453 0.026650 -72066.000000 0 0 1
-25.491610 -20.543914 -11.605048 34.735454 0.678334 1.911444 -0.002739 0.032783 -289292.000000 0 0 1
-25.511120 -19.004714 -11.843148 33.944905 0.640266 1.927186 -0.001425 0.013378 -1248020.000000 0 0 1
-25.345000 -18.542414 -13.208948 34.068555 0.631621 1.968950 -0.000709 0.014099 317350.000000 0 0 1
-25.315130 -17.129114 -13.348948 33.353512 0.594872 1.982560 0.015857 0.007074 374205.000000 0 0 1
-24.208240 -16.361614 -12.519548 31.788054 0.594347 1.975607 0.013390 0.012311 178331.000000 0 0 1
-24.472440 -16.231714 -11.151348 31.412122 0.585644 1.933712 0.010794 0.000884 233891.000000 0 0 1
-23.239140 -16.284314 -10.461648 30.243720 0.611214 1.924006 0.007055 0.008247 192117.000000 0 0 1
-23.496040 -16.517414 -8.931348 30.077531 0.612728 1.872287 -0.003830 -0.008085 180343.000000 0 0 1
-23.863140 -17.878714 -8.668548 31.052240 0.643001 1.853716 -0.004413 0.000174 192466.000000 0 0 1
-24.366940 -18.154914 -7.365348 31.266548 0.640334 1.808598 0.017809 -0.003675 93031.200000 0 0 1
-24.311740 -19.669514 -7.032348 32.053150 0.680237 1.791992 0.040725 -0.005274 -435813.000000 0 0 1
-25.134490 -20.511514 -7.779948 33.361541 0.684463 1.806165 0.009914 -0.012227 -10654.600000 0 0 1
-25.246860 -21.849814 -7.258848 34.168834 0.713394 1.784868 0.001975 0.004934 110948.000000 0 0 1
-25.536200 -22.862614 -8.374248 35.283490 0.730214 1.810425 -0.003080 0.014892 139357.000000 0 0 1
-26.076190 -24.131814 -7.997048 36.417920 0.746691 1.792192 0.006561 0.006174 -77838.000000 0 0 1
-26.110150 -25.174824 -8.976148 37.364193 0.767162 1.813403 0.010574 0.014966 287170.000000 0 0 1
-26.941130 -26.393544 -8.439048 38.647913 0.775132 1.790927 0.000404 0.010995 -152386.000000 0 0 1
-26.252990 -27.062174 -7.421848 38.427394 0.800574 1.765157 0.026366 0.004673 47755.300000 0 0 1
-26.930690 -28.144614 -6.835048 39.548695 0.807436 1.744495 0.001996 0.006695 -26678.900000 0 0 1
-26.188730 -28.614404 -5.551648 39.184876 0.829631 1.712953 0.019120 0.002341 99120.700000 0 0 1
-26.216810 -27.627464 -4.575348 38.360549 0.811591 1.690353 0.008385 0.000087 383022.000000 0 0 1
-25.313010 -27.951124 -3.529248 37.874390 0.834887 1.664115 0.033770 -0.005348 55657.100000 0 0 1
-25.839390 -29.016774 -2.536148 38.936863 0.843256 1.635977 0.020542 -0.000752 -366884.000000 0 0 1
-25.525280 -30.338374 -2.995148 39.760883 0.871344 1.646197 0.030791 -0.002641 63481.000000 0 0 1
-25.737340 -31.351584 -2.027448 40.613336 0.883425 1.620738 0.026352 -0.003363 55472.000000 0 0 1
-24.556740 -31.489704 -1.050148 39.946687 0.908473 1.597088 0.045736 -0.013347 -936940.000000 0 0 1
-23.395840 -32.037504 -1.603848 39.703140 0.940046 1.611203 0.052311 -0.022451 -306153.000000 0 0 1
-22.274040 -32.130604 -0.750948 39.103357 0.964625 1.590002 0.032525 -0.007987 223834.000000 0 0 1
-21.441840 -30.843684 -0.600248 37.569212 0.963314 1.586774 0.057138 -0.008681 -813622.000000 0 0 1
-22.099140 -29.708634 -0.063648 37.026734 0.931235 1.572515 0.059389 -0.013178 -55473.700000 0 0 1
-22.152040 -28.664894 -1.032248 36.241614 0.912866 1.599283 0.061145 -0.026206 -235686.000000 0 0 1
-22.803840 -27.383684 -0.472348 35.638524 0.876401 1.584051 0.051805 -0.013241 112731.000000 0 0 1
-24.178940 -27.534524 -0.148648 36.644144 0.850195 1.574853 0.049688 -0.013275 386514.000000 0 0 1
-24.915840 -26.337204 0.112752 36.255484 0.813123 1.567686 0.050210 -0.030452 271853.000000 0 0 1
-24.487240 -25.415724 1.303952 35.316912 0.804002 1.533866 0.052604 -0.017755 -444294.000000 0 0 1
-24.747840 -25.957844 2.628452 35.960729 0.809257 1.497639 0.037639 -0.014268 72256.900000 0 0 1
-24.194840 -25.130094 3.607152 35.070265 0.804357 1.467759 0.049543 -0.019391 -13145.700000 0 0 1
-25.159000 -23.980614 3.998952 34.986237 0.761422 1.456245 0.047795 -0.010848 -222.033000 0 0 1
-25.316260 -23.000914 2.924152 34.329372 0.737515 1.485514 0.043929 -0.015313 305607.000000 0 0 1
-26.324890 -22.023114 3.174552 34.468757 0.696657 1.478566 0.033844 -0.014461 92084.800000 0 0 1
-26.398770 -20.851914 2.110752 33.706864 0.668541 1.508134 0.031252 -0.014279 -92293.300000 0 0 1
-25.131520 -20.240414 2.053652 32.333963 0.678013 1.507240 0.036275 -0.010168 -91795.900000 0 0 1
-25.009440 -19.259714 1.057052 31.583636 0.656240 1.537322 0.029931 -0.018631 151372.000000 0 0 1
-23.709440 -18.419214 1.169052 30.046159 0.660479 1.531878 0.044598 -0.015651 153122.000000 0 0 1
-22.566540 -19.169014 0.812252 29.620257 0.704171 1.543371 0.047340 -0.022234 205789.000000 0 0 1
-21.384940 -18.374914 0.984152 28.212084 0.709837 1.535905 0.047786 -0.018393 830592.000000 0 0 1
-20.089640 -19.262814 0.958152 27.849016 0.764390 1.536384 0.040471 -0.019365 236965.000000 0 0 1
-19.849240 -19.790614 -0.343148 28.031741 0.783919 1.583038 0.028372 -0.019856 200509.000000 0 0 1
-18.653440 -20.563714 -0.317848 27.765414 0.834070 1.582244 0.050577 -0.014863 335620.000000 0 0 1
-18.151840 -20.958914 -1.748248 27.781680 0.857048 1.633766 0.053995 -0.015374 238271.000000 0 0 1
-17.587240 -19.763514 -2.354548 26.560335 0.843598 1.659562 0.042530 -0.012251 119314.000000 0 0 1
-17.475440 -19.922414 -3.738048 26.763158 0.850736 1.710926 0.055465 -0.008121 -70326.800000 0 0 1
-16.712840 -18.862114 -4.564248 25.611145 0.845740 1.749967 0.055697 0.002496 270870.000000 0 0 1
-15.316540 -18.936514 -4.313748 24.734518 0.890691 1.746095 0.061053 -0.004498 83732.000000 0 1 0
-14.624140 -18.292514 -5.358348 24.024851 0.896385 1.795722 0.056264 -0.000004 956082.000000 0 1 0
-13.062040 -18.307414 -5.144248 23.070362 0.951078 1.795668 0.060594 -0.007497 843169.000000 0 1 0
-12.354140 -19.502314 -5.436248 23.717458 1.006129 1.802061 0.055489 -0.013993 -927656.000000 0 1 0
-11.007540 -19.245614 -5.609548 22.869776 1.051257 1.818607 0.041558 -0.019528 -1128360.000000 0 1 0
-10.207740 -20.506014 -5.736848 23.613683 1.108916 1.816198 0.036262 -0.020714 -309800.000000 0 1 0
-10.551940 -21.379114 -6.799248 24.791929 1.112312 1.848609 0.043849 -0.015494 -542221.000000 0 1 0
-9.496940 -22.258114 -6.994248 25.189979 1.167509 1.852154 0.039156 -0.011609 -635287.000000 0 0 1
-9.761440 -23.363014 -7.968748 26.544625 1.175026 1.875701 0.049832 -0.002798 -816338.000000 0 0 1
-9.925640 -22.910114 -9.262248 26.630451 1.161965 1.926027 0.050940 -0.001169 -136615.000000 0 0 1
-10.212240 -24.006414 -10.102748 27.976120 1.168590 1.940265 0.066881 -0.001688 -194601.000000 0 0 1
-11.069940 -23.502314 -11.290748 28.326372 1.130604 1.980781 0.089674 -0.007543 25944.700000 0 0 1
-10.394940 -22.659614 -12.198448 27.754550 1.140696 2.025851 0.076578 -0.003916 -316991.000000 0 0 1
-11.280040 -22.269214 -13.204848 28.240489 1.101938 2.057354 0.077594 -0.016555 -369182.000000 0 0 1
-10.806840 -21.055614 -14.112448 27.555179 1.096603 2.108485 0.065453 -0.008283 -193517.000000 0 0 1
-10.813540 -19.823114 -13.456848 26.286408 1.071413 2.108228 0.071880 -0.006315 -118663.000000 0 0 1
-10.586040 -18.762114 -14.308248 25.861306 1.057098 2.157079 0.065295 0.004671 -151512.000000 0 0 1
-10.172540 -17.485114 -13.605448 24.378638 1.043879 2.162877 0.070146 0.001719 -456132.000000 0 1 0
-11.234140 -16.889014 -12.910448 24.044217 0.983828 2.137609 0.073128 -0.003378 -6267.300000 0 1 0
-10.805740 -15.979614 -11.867148 22.648207 0.976209 2.122310 0.055248 -0.006682 403474.000000 0 1 0
-10.277240 -14.608014 -12.404948 21.746229 0.957702 2.177839 0.052275 -0.004184 870202.000000 0 1 0
-11.396440 -13.885514 -12.943948 22.141186 0.883534 2.195195 0.051060 0.004600 732056.000000 0 1 0
-11.339540 -13.833514 -14.385748 22.954325 0.884149 2.248123 0.053670 -0.002298 -399373.000000 0 1 0
-12.619740 -13.138514 -14.885748 23.525813 0.805536 2.255884 0.055742 -0.001074 -290139.000000 0 1 0
-12.853340 -11.823014 -14.554348 22.733699 0.743669 2.265568 0.040634 0.005953 -236159.000000 0 1 0
-13.858340 -11.200014 -15.325548 23.502475 0.679708 2.281124 0.030144 0.001176 -224979.000000 0 1 0
-14.192640 -9.893314 -14.599848 22.637673 0.608759 2.271736 0.025776 -0.007045 -244496.000000 0 1 0
-13.298940 -8.790814 -14.638748 21.643317 0.584080 2.313610 0.032081 -0.010681 96489.100000 0 1 0
-13.289340 -7.971314 -15.808748 22.137410 0.540293 2.366161 0.036255 -0.012075 -805737.000000 0 1 0
-12.217940 -6.910214 -15.721048 21.075589 0.514726 2.412736 0.029603 -0.013398 -38845.900000 0 1 0
-10.960940 -7.546614 -15.933248 20.759624 0.602966 2.445746 0.031220 -0.008155 190592.000000 0 1 0
-9.841440 -6.752514 -15.623948 19.661082 0.601357 2.489250 0.019332 -0.000829 281924.000000 0 1 0
11.622160 21.832486 15.942652 29.426182 1.081618 0.998237 0.055510 -0.012602 -521527.000000 0 0 1
12.445860 21.974486 17.064752 30.479226 1.055466 0.976554 0.069596 -0.015153 -257894.000000 0 0 1
12.927060 20.741986 17.502452 30.061182 1.013470 0.949330 0.062045 -0.012668 -498366.000000 0 0 1
13.900960 20.887786 18.656652 31.266707 0.983597 0.931422 0.071420 -0.028404 841640.000000 0 0 1
15.257060 21.131286 18.196452 31.787104 0.945449 0.961308 0.059666 -0.019555 992441.000000 0 0 1
16.224060 20.910186 19.222152 32.710046 0.910929 0.942641 0.071982 -0.024156 9115.280000 0 0 1
17.618160 21.293586 18.705052 33.372074 0.879574 0.975807 0.061525 -0.009746 -1279400.000000 0 0 1
17.790160 22.699886 18.751752 34.400622 0.906067 0.994289 0.066436 -0.011498 408677.000000 0 0 1
18.988760 23.254786 18.190452 35.103427 0.886043 1.026056 0.063312 -0.004041 816727.000000 0 0 1
20.351760 22.756986 18.726852 35.815772 0.841135 1.020587 0.057282 -0.006381 -716563.000000 0 0 1
20.726660 21.437386 18.424852 35.051835 0.802253 1.017322 0.056346 -0.002146 -518620.000000 0 0 1
22.038060 21.195886 18.834052 35.911881 0.765921 1.018725 0.066218 -0.004608 -558842.000000 0 0 1
22.459560 19.772586 18.556352 35.209731 0.721860 1.015702 0.060538 -0.004590 -143093.000000 0 0 1
22.465860 19.343186 17.210652 34.279443 0.710848 1.044807 0.049601 -0.002934 118970.000000 0 0 1
22.182660 17.911886 17.104852 33.248790 0.679281 1.030430 0.052165 -0.001072 221350.000000 0 0 1
23.310360 16.921186 17.554952 33.732414 0.627903 1.023456 0.033465 0.001129 873759.000000 0 0 1
24.343460 16.738986 16.550852 33.863378 0.602367 1.060136 0.035499 0.007643 914573.000000 0 0 1
25.234660 15.664886 16.934352 34.189896 0.555551 1.052613 0.023294 0.014797 364989.000000 0 0 1
26.607560 15.835686 16.229052 34.958737 0.536851 1.088026 0.062880 -0.004481 -2096570.000000 0 0 1
27.263760 17.081586 16.544252 36.177416 0.559699 1.095830 0.057214 -0.004272 280747.000000 0 0 1
28.568660 16.950586 17.056552 37.341889 0.535499 1.096439 0.046971 -0.011123 -199501.000000 0 0 1
29.527860 16.076186 16.270152 37.350450 0.498565 1.120083 0.040140 -0.015213 -2579060.000000 0 0 1
29.706860 16.383486 14.884352 37.046728 0.503998 1.157345 0.066634 -0.021185 80252.900000 0 0 1
30.124260 15.222686 14.248652 36.636393 0.467902 1.171337 0.089892 -0.022140 -326506.000000 0 0 1
29.293560 15.083186 12.949852 35.402172 0.475495 1.196312 0.086175 -0.011229 123596.000000 0 0 1
29.835160 15.810286 11.850152 35.784466 0.487297 1.233271 0.082950 -0.017347 669914.000000 0 0 1
28.900560 15.960386 10.754552 34.722279 0.504570 1.255887 0.073758 -0.013755 1310300.000000 0 0 1
27.712560 17.002386 10.876452 34.283586 0.550306 1.247969 0.064539 -0.019288 537846.000000 0 0 1
28.131460 18.376786 10.869252 35.316086 0.578654 1.257947 0.057317 -0.015569 -23351.100000 0 0 1
28.633960 18.895786 12.084052 36.372774 0.583309 1.232132 0.065946 -0.018580 -119774.000000 0 0 1
27.752060 18.868486 13.386152 36.130121 0.597105 1.191251 0.056964 -0.018312 213139.000000 0 0 1
26.664560 19.772986 13.501752 35.836671 0.638068 1.184502 0.055430 -0.020353 151844.000000 0 0 1
25.930360 19.458286 14.668352 35.583268 0.643761 1.145900 0.060857 -0.015323 -25719.900000 0 0 1
26.526460 20.009886 16.040552 36.896448 0.646271 1.121041 0.047596 -0.002562 1469.440000 0 0 1
26.614960 21.420286 16.138052 37.783878 0.677674 1.129497 0.036964 -0.005902 -592701.000000 0 0 1
25.427660 21.991386 16.555652 37.473678 0.713059 1.113199 0.050300 -0.007861 -875260.000000 0 0 1
25.366960 23.527586 16.394852 38.286043 0.747797 1.128274 0.037917 -0.006036 -71773.300000 0 0 1
25.162060 23.911986 15.078052 37.845211 0.759930 1.161010 0.058634 -0.014588 -43095.200000 0 0 1
24.944260 25.325186 14.991352 38.578774 0.792976 1.171695 0.059569 -0.020970 -541732.000000 0 0 1
24.630560 25.752086 13.549752 38.123879 0.807655 1.207440 0.054189 -0.030895 -1441390.000000 0 0 1
23.519360 25.162486 13.041852 36.829348 0.819138 1.208828 0.057153 -0.024716 -999128.000000 0 0 1
23.265160 25.711286 11.762352 36.615445 0.835302 1.243758 0.048968 -0.030395 352873.000000 0 0 1
22.332860 24.817286 10.885252 35.116136 0.838041 1.255626 0.047913 -0.024461 -103987.000000 0 0 1
21.028560 24.520486 11.340452 34.235368 0.861911 1.233169 0.056437 -0.022996 156278.000000 0 0 1
20.585260 23.225086 10.948252 32.909296 0.845581 1.231653 0.070106 -0.015361 11630.500000 0 0 1
20.440160 22.931486 9.423052 32.131715 0.842776 1.273158 0.061390 -0.000147 -503091.000000 0 0 1
19.439760 23.783986 8.892852 31.979135 0.885567 1.288999 0.059272 0.012826 134229.000000 0 0 1
19.645260 23.959686 7.460952 31.869556 0.884021 1.334494 0.057562 -0.000356 -414718.000000 0 0 1
18.369860 24.153986 6.656052 31.067182 0.920589 1.354875 0.048312 0.007951 -674827.000000 0 0 1
17.557160 22.965086 6.487552 29.626633 0.918070 1.350030 0.053087 0.011970 1128440.000000 0 0 1
16.582360 22.988586 5.425552 28.859770 0.945898 1.381674 0.073675 0.004483 436209.000000 0 0 1
15.384460 23.935886 5.573852 28.994414 0.999544 1.377353 0.054114 0.004780 -789874.000000 0 0 1
15.616460 25.281086 5.209752 30.168670 1.017454 1.397239 0.070873 -0.003396 566125.000000 0 0 1
14.587860 26.057186 5.823952 30.425335 1.060430 1.378190 0.043893 -0.004256 238598.000000 0 0 1
14.525760 27.451686 5.142952 31.480831 1.084110 1.406693 0.041615 -0.011283 -1133.860000 0 0 1
13.849360 27.393586 3.878052 30.939499 1.102703 1.445123 0.040923 0.002690 538900.000000 0 0 1
13.476460 28.678786 3.480652 31.877934 1.131509 1.461391 0.034925 0.002113 -675479.000000 0 0 1
13.131460 28.735886 1.954852 31.654507 1.142161 1.509001 0.037550 -0.005442 -616203.000000 0 0 1
14.134160 28.443786 1.043452 31.779116 1.109619 1.537956 0.059384 -0.014663 -492758.000000 0 0 1
13.976260 27.135086 0.572752 30.528294 1.095172 1.552034 0.045916 -0.006053 145536.000000 0 0 1
15.082360 26.715086 -0.415748 30.681366 1.056841 1.584347 0.049390 -0.013855 175652.000000 0 0 1
14.882260 27.409486 -1.624148 31.231385 1.073374 1.622823 0.049840 -0.012977 -129283.000000 0 0 1
16.022760 27.378886 -2.444748 31.816804 1.041313 1.647710 0.056030 -0.006051 -706.667000 0 0 1
15.646860 27.904286 -3.833448 32.220625 1.059750 1.690054 0.069776 -0.008872 -237700.000000 0 0 1
14.744660 27.074086 -4.496348 31.154907 1.072105 1.715624 0.072054 -0.015000 -737397.000000 0 0 1
14.731560 27.545886 -5.851948 31.781126 1.079697 1.755986 0.058854 -0.006303 -196146.000000 0 0 1
13.555760 27.091786 -6.701648 31.026369 1.106857 1.788511 0.070151 -0.020874 -181158.000000 0 0 1
13.514160 25.710886 -6.907748 29.856308 1.086863 1.804278 0.061249 -0.022448 815858.000000 0 0 1
12.230360 25.438786 -7.522048 29.211209 1.122646 1.831236 0.048253 -0.016993 996386.000000 0 0 1
12.064460 24.012186 -8.023948 28.044964 1.105206 1.860961 0.051382 -0.010417 23561.000000 0 0 1
12.846060 23.638986 -9.135548 28.412693 1.073014 1.898142 0.051775 -0.011827 298066.000000 0 0 1
12.147360 22.556686 -9.746348 27.410832 1.076805 1.934315 0.055344 -0.003195 538462.000000 0 0 1
12.501460 22.299986 -11.284048 27.944688 1.059848 1.986462 0.058092 -0.000202 -34786.200000 0 0 1
11.727960 21.182086 -11.580548 26.839055 1.065137 2.016930 0.063068 0.002923 -251418.000000 0 0 1
11.811360 20.602986 -12.872748 27.012939 1.050253 2.067511 0.060282 -0.005642 203858.000000 0 0 1
13.106260 19.779986 -13.158548 27.132439 0.985613 2.077131 0.055725 0.002214 215172.000000 0 0 1
14.244060 20.588586 -13.260348 28.330547 0.965566 2.057889 0.039875 -0.000542 -501042.000000 0 0 1
15.355160 19.867286 -13.789648 28.646891 0.912808 2.073009 0.027875 0.004197 590926.000000 0 0 1
16.695460 20.542686 -13.387048 29.664008 0.888347 2.039006 0.031108 0.009357 200982.000000 0 0 1
17.127560 21.736786 -14.108048 31.062488 0.903445 2.042251 0.024829 0.004801 71973.100000 0 0 1
16.226960 22.869486 -14.099248 31.386564 0.953692 2.036680 0.029278 0.002179 27289.100000 0 0 1
16.762760 24.220086 -14.617748 32.882841 0.965391 2.031457 0.016524 -0.006438 -450740.000000 0 0 1
16.854760 24.428986 -16.050848 33.741488 0.966848 2.066557 0.010821 -0.003928 -3916.660000 0 0 1
15.601660 24.650886 -16.692348 33.611195 1.006533 2.090509 0.023851 -0.000870 222880.000000 0 0 1
15.572960 24.593086 -18.313248 34.390580 1.006304 2.132357 0.015264 0.012730 -50586.500000 0 0 1
15.972160 23.337386 -18.843448 33.982628 0.970616 2.158561 0.017089 0.015439 -89764.900000 0 0 1
16.164560 23.361686 -20.247948 34.886111 0.965510 2.190018 0.014540 0.017135 106208.000000 0 0 1
16.706960 22.022386 -20.838248 34.617056 0.921791 2.216756 0.024074 0.016851 -152855.000000 0 0 1
15.688960 21.065786 -20.937548 33.590053 0.930657 2.243785 0.047051 0.016141 21480.900000 0 0 1
16.086960 19.913086 -21.647248 33.524985 0.891282 2.272742 0.032730 0.013669 25629.500000 0 0 1
14.917660 18.918986 -21.884148 32.548126 0.903106 2.308192 0.044331 0.006428 -338152.000000 0 0 1
14.683160 18.232386 -20.674248 31.232028 0.892811 2.294223 0.044687 -0.000159 610204.000000 0 0 1
13.743360 17.165286 -20.849048 30.301976 0.895660 2.329584 0.048704 -0.005982 1392600.000000 0 0 1
12.196660 17.428886 -20.992348 29.886506 0.960207 2.349563 0.051088 -0.009025 621482.000000 0 0 1
11.473260 17.436086 -19.760348 28.742375 0.988805 2.328835 0.040536 -0.014767 -298169.000000 0 0 1
10.135560 17.718886 -20.087048 28.638749 1.051204 2.348148 0.039258 -0.015226 -246989.000000 0 0 1
9.158160 17.263486 -18.972648 27.237129 1.083053 2.341406 0.034986 -0.020922 -274587.000000 0 0 1
8.991660 15.853386 -18.848648 26.219293 1.054862 2.372993 0.035616 -0.033521 760192.000000 0 0 1
7.650960 15.406786 -18.550448 25.298722 1.109875 2.393895 0.044538 -0.022942 858508.000000 0 0 1
7.153060 15.499686 -17.118648 24.175496 1.138423 2.357599 0.040147 -0.023919 -97547.600000 0 1 0
6.998460 16.792686 -16.604248 24.630749 1.175929 2.310578 0.048770 -0.024541 -363812.000000 0 1 0
6.631160 16.846886 -15.240548 23.665674 1.195808 2.270504 0.045940 -0.030429 -109186.000000 0 1 0
6.195160 18.325686 -14.970748 24.460868 1.244799 2.229419 0.046774 -0.024454 -264474.000000 0 1 0
7.195660 19.315286 -14.863148 25.412024 1.214187 2.195536 0.039803 -0.020057 -196450.000000 0 0 1
7.621360 20.047186 -16.026448 26.773528 1.207500 2.212540 0.048278 -0.012553 633973.000000 0 0 1
8.821460 21.032686 -15.718248 27.699374 1.173664 2.174212 0.050734 -0.007799 397410.000000 0 0 1
8.566960 22.276886 -15.063148 28.223233 1.203664 2.133783 0.045432 -0.017647 -42450.700000 0 0 1
8.177260 22.129386 -13.680748 27.271600 1.216838 2.096299 0.037434 -0.009550 44248.000000 0 0 1
7.942160 23.509986 -12.999748 28.014117 1.245013 2.053350 0.048050 -0.019181 37183.500000 0 0 1
6.739860 24.221986 -13.328148 28.456455 1.299408 2.058241 0.037026 -0.012037 357795.000000 0 0 1
6.240660 25.104986 -12.333748 28.658812 1.327152 2.015693 0.039446 -0.014226 378394.000000 0 0 1
5.617960 24.365486 -11.110848 27.362188 1.344186 1.988941 0.037556 -0.015145 -1055490.000000 0 0 1
6.636360 23.972086 -10.262548 26.907658 1.300723 1.962105 0.025024 -0.015576 -200093.000000 0 0 1
6.096660 23.154186 -9.197048 25.649001 1.313333 1.937535 0.034890 -0.015968 235816.000000 0 0 1
7.037560 23.078886 -7.999648 25.419610 1.274818 1.890941 0.024929 -0.016717 -9030.510000 0 0 1
7.235960 24.255286 -7.193048 26.313835 1.280877 1.847677 0.020100 -0.018809 -840087.000000 0 0 1
8.384060 24.236286 -6.451348 26.444468 1.237752 1.817242 0.030265 -0.016862 -1009280.000000 0 0 1
8.686960 25.427086 -5.556748 27.438612 1.241587 1.774722 0.020923 -0.018404 -124326.000000 0 0 1
9.080260 26.549086 -6.282248 28.753638 1.241250 1.791058 0.037655 -0.019435 -61683.200000 0 0 1
9.176960 27.756786 -5.502748 29.747874 1.251489 1.756847 0.024459 -0.010838 111794.000000 0 0 1
9.446560 28.939586 -6.475948 31.123544 1.255277 1.780400 0.031003 -0.012995 78392.200000 0 0 1
10.719360 28.813686 -7.064148 31.544181 1.214638 1.796656 0.049392 -0.021277 -333593.000000 0 0 1
10.968660 30.031886 -7.765948 32.901909 1.220615 1.809078 0.050655 -0.017779 -288285.000000 0 0 1
12.259460 30.298886 -8.528848 33.779551 1.186316 1.826044 0.057921 -0.018146 -286108.000000 0 0 1
13.439460 30.490386 -7.810748 34.224121 1.155639 1.801049 0.052663 -0.010436 -206789.000000 0 0 1
14.461260 31.083386 -8.620448 35.349923 1.135341 1.817141 0.045478 -0.007989 781568.000000 0 0 1
15.763560 31.453186 -7.849748 36.047347 1.106209 1.790317 0.043812 -0.003075 83161.900000 0 0 1
16.464960 30.338286 -7.398248 35.302132 1.073566 1.781931 0.044501 -0.000282 -837155.000000 0 0 1
17.448960 30.777086 -6.521248 35.975295 1.055036 1.753074 0.049426 0.005495 -453310.000000 0 0 1
18.613460 29.819186 -6.311648 35.713886 1.012765 1.748458 0.049703 0.005318 -359402.000000 0 0 1
18.364860 28.934986 -5.250448 34.670862 1.005256 1.722818 0.068351 -0.004551 -197618.000000 0 0 1
19.410960 28.031186 -5.006048 34.461475 0.965137 1.716577 0.056993 0.003964 -268559.000000 0 0 1
19.691560 26.830086 -5.884048 33.796938 0.937656 1.745788 0.046207 0.012660 32786.000000 0 0 1
20.192660 27.159086 -7.192348 34.598978 0.931471 1.780201 0.036472 0.014642 332780.000000 0 0 1
19.999760 26.089786 -8.015848 33.836683 0.916772 1.809968 0.023687 0.007024 -771098.000000 0 0 1
20.492660 26.416086 -9.458348 34.745058 0.911009 1.846497 0.023638 0.003467 -797269.000000 0 0 1
21.851860 26.625886 -9.595348 35.756290 0.883560 1.842480 0.011116 0.007425 -823080.000000 0 0 1
22.597560 25.434186 -9.610048 35.353932 0.844387 1.846084 0.013661 0.007972 -472976.000000 0 0 1
24.134660 25.610486 -9.561548 36.466450 0.815057 1.836099 -0.008751 0.012978 324187.000000 0 0 1
24.711160 25.982086 -10.824148 37.454938 0.810464 1.863969 -0.000144 0.009810 -1302860.000000 0 0 1
26.078060 26.030686 -10.800548 38.396792 0.784489 1.855932 0.000457 0.023902 -1136650.000000 0 0 1
26.746060 26.085686 -12.205348 39.303756 0.772899 1.886556 0.013260 0.008464 88816.100000 0 0 1
26.682160 27.391086 -12.700248 40.292748 0.798508 1.891463 0.018802 0.010127 -158464.000000 0 0 1
27.282260 27.386386 -13.961848 41.100718 0.787303 1.917393 0.014806 0.015597 103073.000000 0 0 1
27.093360 28.671386 -14.777948 42.124651 0.813689 1.929237 0.027656 0.001865 164462.000000 0 0 1
27.719960 29.829786 -14.225948 43.134555 0.822043 1.906892 0.036077 -0.010255 132971.000000 0 0 1
27.821760 30.843886 -15.202748 44.232557 0.836867 1.921651 0.055365 -0.003628 87587.600000 0 0 1
28.374160 32.220586 -14.697648 45.379290 0.848791 1.900629 0.054188 -0.013870 1171200.000000 0 0 1
29.806560 32.207886 -14.490148 46.214103 0.824101 1.889719 0.051914 -0.018338 1053680.000000 0 0 1
30.190560 33.431786 -13.976448 47.164555 0.836299 1.871648 0.051824 -0.026964 -425507.000000 0 0 1
15.345860 -32.782697 -28.850966 46.287999 -1.132986 2.243743 0.064482 -0.032627 -632690.000000 0 0 1
16.337660 -33.251397 -28.032676 46.458642 -1.114103 2.218542 0.037569 -0.024593 -510246.000000 0 0 1
16.634860 -32.321397 -27.035096 45.302182 -1.095482 2.210269 0.055626 -0.030245 -359384.000000 0 0 1
17.798560 -32.694597 -26.073446 45.448322 -1.072272 2.181806 0.024814 -0.019513 739530.000000 0 0 1
19.150660 -32.389097 -26.379056 45.952758 -1.036822 2.182236 0.026464 -0.021223 678209.000000 0 0 1
19.736560 -33.134097 -27.436406 47.330292 -1.033576 2.189132 0.021112 -0.015494 -150964.000000 0 0 1
21.275660 -32.967497 -27.564396 47.951074 -0.997695 2.183210 0.032745 -0.006010 307964.000000 0 0 1
21.558460 -31.709597 -28.119446 47.549648 -0.973707 2.203553 0.036116 -0.018377 827135.000000 0 0 1
22.918760 -31.319997 -27.847926 47.767340 -0.939071 2.193201 0.019628 -0.006559 668029.000000 0 0 1
23.421360 -30.082397 -28.626916 47.676105 -0.909257 2.214855 0.013101 -0.002350 -110267.000000 0 0 1
23.624460 -30.383697 -30.025306 48.813965 -0.909903 2.233305 0.006444 -0.005470 -121794.000000 0 0 1
24.111760 -29.242297 -30.706296 48.778740 -0.881264 2.251708 0.009332 -0.015561 -52321.000000 0 0 1
24.435960 -29.340197 -32.190046 49.941589 -0.876344 2.271236 0.012268 -0.004927 -40960.300000 0 0 1
25.701460 -29.892797 -32.456246 51.064197 -0.860647 2.259578 0.021812 -0.021549 -477992.000000 0 0 1
25.821060 -30.677697 -33.611816 52.322102 -0.871147 2.268425 0.016050 -0.020509 361941.000000 0 0 1
27.239860 -31.285397 -33.823536 53.523991 -0.854413 2.254840 0.008530 -0.022497 763011.000000 0 0 1
28.278760 -30.335297 -33.987116 53.619423 -0.820470 2.257328 0.027390 -0.029000 119005.000000 0 0 1
29.559860 -30.935597 -34.119240 54.725853 -0.808135 2.243953 0.030829 -0.029935 558617.000000 0 0 1
30.685560 -29.878097 -34.226579 54.824839 -0.772066 2.245018 0.038147 -0.035468 13858.700000 0 0 1
30.791660 -29.319497 32.967630 53.801709 -0.760912 0.911246 0.030379 -0.030356 -317388.000000 0 0 1
31.789260 -28.350097 33.011985 53.889481 -0.728274 0.911467 0.043774 -0.030841 -218533.000000 0 0 1
31.987960 -27.693097 31.608242 52.813049 -0.713558 0.929178 0.035368 -0.027317 -895921.000000 0 0 1
33.018960 -26.779897 31.495912 52.909423 -0.681440 0.933182 0.034880 -0.022590 -424088.000000 0 0 1
33.175560 -26.120197 30.197442 51.911155 -0.666969 0.949962 0.033232 -0.017803 -189412.000000 0 0 1
33.784360 -26.993097 29.037072 52.088020 -0.674120 0.979471 0.042210 -0.013781 248499.000000 0 0 1
32.958360 -28.029797 28.441112 51.776634 -0.704762 0.989265 0.035973 -0.020753 713731.000000 0 0 1
31.930560 -27.571097 27.589402 50.407352 -0.712263 0.991627 0.037537 -0.017378 -66751.500000 0 0 1
31.271460 -28.649597 26.680722 50.105534 -0.741671 1.009256 0.025152 -0.010482 -71574.800000 0 0 1
30.174260 -28.146197 25.958272 48.749628 -0.750638 1.009267 0.019850 -0.004321 -50308.000000 0 0 1
29.670960 -29.140097 25.075642 48.562320 -0.776372 1.028201 0.012177 0.001460 158441.000000 0 0 1
28.341860 -28.702697 24.370762 47.127910 -0.791724 1.027314 0.012497 -0.002141 685969.000000 0 0 1
27.275960 -28.843597 25.289082 47.068766 -0.813325 1.003588 0.022387 0.000022 177610.000000 0 0 1
25.946460 -28.663697 24.841942 45.955940 -0.835114 0.999694 0.028449 0.009719 684433.000000 0 0 1
24.879560 -28.663697 25.957242 45.982371 -0.855955 0.970964 0.045059 0.009454 -79689.400000 0 0 1
24.924760 -27.608097 26.891522 45.897763 -0.836433 0.944806 0.039541 0.007274 657601.000000 0 0 1
23.771860 -27.527897 27.759452 45.754493 -0.858485 0.918888 0.038679 0.006980 518133.000000 0 0 1
23.521160 -26.048997 28.267002 45.064605 -0.836349 0.892773 0.041203 0.008094 187846.000000 0 0 1
22.356960 -25.990397 29.099652 44.968035 -0.860410 0.866997 0.038484 0.008927 499090.000000 0 0 1
22.346460 -24.914297 30.054182 44.981555 -0.839678 0.839084 0.028632 0.006576 -55287.100000 0 0 1
21.873060 -23.514497 29.575852 43.658829 -0.821547 0.826532 0.042431 0.000918 -38520.400000 0 0 1
22.804960 -22.915097 28.686002 43.220997 -0.787807 0.845035 0.057395 -0.004228 265852.000000 0 0 1
22.511660 -21.540397 28.538272 42.251586 -0.763354 0.829240 0.058533 0.002336 -7707.960000 0 0 1
23.158960 -20.499597 29.483062 42.729637 -0.724561 0.809320 0.051702 0.001272 -58307.800000 0 0 1
22.708260 -20.502897 30.815692 43.423965 -0.734406 0.781799 0.052900 -0.001634 -246922.000000 0 0 1
23.332760 -19.513997 31.532202 43.812025 -0.696507 0.767404 0.046820 -0.005193 -399541.000000 0 0 1
22.770660 -19.303497 32.940236 44.454326 -0.703178 0.736252 0.048914 -0.003700 -83176.000000 0 0 1
23.067860 -20.324097 33.821859 45.706818 -0.722250 0.737765 0.037137 -0.008182 24232.300000 0 0 1
22.340460 -20.063797 -33.511106 44.996070 -0.731760 2.410966 0.048257 -0.012362 -195607.000000 0 0 1
22.664660 -21.059397 -32.352756 44.764783 -0.748701 2.378537 0.023198 -0.006963 270429.000000 0 0 1
23.976160 -21.171097 -31.827816 45.122959 -0.723347 2.353724 0.024772 -0.008492 -17087.900000 0 0 1
23.863060 -22.224997 -30.935006 44.948534 -0.749871 2.329845 0.026159 -0.014445 503158.000000 0 0 1
25.140560 -22.597297 -30.110606 45.269572 -0.732173 2.298478 0.030834 -0.009261 291071.000000 0 0 1
26.070160 -23.308497 -30.881786 46.654303 -0.729528 2.294184 0.030408 -0.004386 -935233.000000 0 0 1
26.978160 -23.965497 -30.055596 46.962805 -0.726330 2.265278 0.034362 -0.014959 -197185.000000 0 0 1
27.950460 -24.893797 -30.844456 48.500617 -0.727620 2.260048 0.023030 -0.017196 427866.000000 0 0 1
29.004560 -24.209697 -31.553296 49.223820 -0.695536 2.266619 0.021165 -0.013079 376511.000000 0 0 1
28.736660 -23.690397 -32.874886 49.676842 -0.689441 2.293980 0.023778 -0.004623 -194338.000000 0 0 1
28.688560 -24.835697 -33.926096 50.900150 -0.713539 2.300331 0.027491 -0.005297 198069.000000 0 0 1
27.699760 -25.814497 -33.607146 50.627119 -0.750184 2.296707 0.030818 -0.020347 -102275.000000 0 0 1
27.994260 -27.051797 -34.197243 51.816308 -0.768278 2.291576 0.036724 -0.017601 51370.400000 0 0 1
27.698560 -27.206997 32.766648 50.804371 -0.776446 0.869829 0.023956 -0.019997 138091.000000 0 0 1
28.706660 -26.658397 31.957762 50.557304 -0.748419 0.886524 0.016952 -0.019426 119618.000000 0 0 1
28.226060 -26.751697 30.600952 49.485170 -0.758587 0.904109 0.011063 -0.008852 -3482.980000 0 0 1
29.172260 -26.035497 29.600582 49.041435 -0.728642 0.922809 0.017873 -0.010494 -86149.000000 0 0 1
29.344260 -24.596897 29.639682 48.421108 -0.697614 0.912054 0.013347 -0.011306 87052.400000 0 0 1
29.901060 -24.092097 30.852322 49.258180 -0.678223 0.893948 0.018768 -0.006929 -960310.000000 0 0 1
30.375860 -22.610197 30.804932 48.814524 -0.639874 0.887876 -0.003707 0.006231 415020.000000 0 0 1
31.645760 -22.380697 30.210992 49.143196 -0.615559 0.908722 -0.007275 0.003252 -389066.000000 0 0 1
32.673860 -22.501597 31.134162 50.430537 -0.603083 0.905405 0.000747 0.003011 -1048050.000000 0 0 1
34.011860 -21.985497 30.576202 50.745175 -0.573845 0.924111 0.002321 0.002194 -208064.000000 0 0 1
34.522960 -22.709397 29.464362 50.751356 -0.581843 0.951376 0.006681 -0.006556 -1015870.000000 0 0 1
35.679060 -22.129297 29.034962 51.046353 -0.555163 0.965755 0.002419 -0.003786 -1117270.000000 0 0 1
-35.976064 -22.357597 27.582772 50.546500 0.556048 0.993583 0.025655 0.000808 -144967.000000 0 0 1
-35.464164 -23.662497 27.374162 50.665229 0.588387 1.000009 0.031446 0.003023 236292.000000 0 0 1
-35.370264 -23.919097 25.989332 49.986240 0.594607 1.024028 0.036380 0.010053 -484236.000000 0 0 1
-35.273864 -25.483597 25.671982 50.524349 0.625635 1.037806 0.036894 -0.004546 578889.000000 0 0 1
35.569160 -26.290897 25.958402 51.285622 -0.636520 1.040077 0.049695 -0.001750 1065280.000000 0 0 1
35.693160 -27.643897 25.580572 51.889810 -0.658990 1.055286 0.052850 -0.006116 483208.000000 0 0 1
-35.282064 -28.470697 26.438902 52.482570 0.678962 1.042844 0.043029 -0.011348 289012.000000 0 0 1
-35.020464 -29.729597 25.802542 52.688262 0.703867 1.059027 0.048054 -0.011404 601984.000000 0 0 1
-33.905164 -30.444897 26.314422 52.620345 0.731677 1.047104 0.051864 -0.025237 897675.000000 0 0 1
-32.430964 -29.970297 26.202062 51.347192 0.745986 1.035272 0.054296 -0.017781 -214312.000000 0 0 1
-31.879064 -30.067697 24.946062 50.424668 0.756166 1.053284 0.051444 -0.012766 -498957.000000 0 0 1
-30.554164 -29.612497 24.931552 49.315709 0.769748 1.040777 0.030891 -0.009760 -286700.000000 0 0 1
-30.011264 -29.510497 23.490582 48.201170 0.776985 1.061750 0.029895 -0.005783 -268616.000000 0 0 1
-29.893064 -30.815197 22.927452 48.670727 0.800587 1.080290 0.041101 -0.007603 305835.000000 0 0 1
-29.691564 -30.858397 21.533952 47.932669 0.804666 1.104866 0.028747 -0.004489 -436401.000000 0 0 1
-29.642064 -32.301997 20.980752 48.603116 0.828313 1.124447 0.046051 -0.005765 -193644.000000 0 0 1
-28.701764 -33.152697 21.558652 48.863770 0.857233 1.113862 0.047694 -0.017749 236274.000000 0 0 1
-27.396564 -33.071997 20.986952 47.799381 0.878982 1.116241 0.060862 -0.010941 317599.000000 0 0 1
-26.635364 34.282386 21.039952 48.243177 -0.910275 1.119511 0.059405 -0.011310 -216988.000000 0 0 1
-27.085564 33.347986 20.083952 47.424477 -0.888655 1.133498 0.052336 -0.010519 533462.000000 0 0 1
-28.317764 32.663186 20.332852 47.772422 -0.856537 1.131150 0.059985 -0.013107 460048.000000 0 0 1
-28.323264 31.640186 21.487152 47.592083 -0.840658 1.102366 0.062529 -0.012776 -640729.000000 0 0 1
-27.402464 30.648686 21.215252 46.263635 -0.841260 1.094408 0.057068 -0.011305 -401420.000000 0 0 1
-27.203164 29.731986 22.235852 46.026473 -0.829785 1.066593 0.054567 -0.014919 -441260.000000 0 0 1
-26.319164 28.577986 21.770752 44.534990 -0.826521 1.060030 0.049768 -0.013219 203314.000000 0 0 1
-24.952864 28.991186 21.858552 44.055994 -0.860120 1.051633 0.058205 -0.012597 -634537.000000 0 0 1
-24.126064 28.031186 21.380352 42.719244 -0.860131 1.046637 0.050990 -0.013894 -1443540.000000 0 0 1
-22.696164 28.522586 21.448452 42.292905 -0.898667 1.038932 0.038617 -0.007201 -961867.000000 0 0 1
-22.236164 28.640286 22.773052 42.817343 -0.910616 1.009995 0.037382 -0.006594 1469810.000000 0 0 1
-20.812964 28.909286 22.857452 42.324808 -0.946813 1.000302 0.043543 -0.001377 1048780.000000 0 0 1
-20.356564 28.866786 24.311982 42.880689 -0.956596 0.967976 0.029819 -0.006281 -814091.000000 0 0 1
-20.139964 27.537686 24.836952 42.199721 -0.939332 0.941523 0.038717 -0.015338 329346.000000 0 0 1
-19.883464 27.516586 26.208342 42.888132 -0.945064 0.913364 0.039765 -0.021508 702998.000000 0 0 1
-18.547964 28.175586 26.764852 43.060979 -0.988609 0.900068 0.054637 -0.013809 191324.000000 0 0 1
-18.322264 29.511486 26.461092 43.667179 -1.015185 0.919809 0.028672 -0.007327 73773.900000 0 0 1
-17.053364 30.054186 26.788442 43.722899 -1.054677 0.911341 0.031189 -0.002685 152686.000000 0 0 1
-16.660264 30.237986 28.286592 44.632180 -1.067208 0.884377 0.017993 0.009177 -465954.000000 0 0 1
-16.431964 29.027886 28.972602 44.181888 -1.055695 0.855611 0.031272 0.007091 140311.000000 0 0 1
-16.568564 29.111086 30.372312 45.215594 -1.053370 0.834265 0.016977 0.007831 -111850.000000 0 0 1
-16.435764 27.749386 31.150232 44.838596 -1.036063 0.802767 0.023628 0.003766 -983114.000000 0 0 1
-15.146964 27.243786 31.205262 44.106947 -1.063375 0.784855 0.037428 0.005423 -697540.000000 0 0 1
-14.925264 26.116286 32.019222 43.932385 -1.051602 0.754185 0.046337 -0.000061 -400947.000000 0 0 1
-15.032164 26.308186 33.543454 45.202322 -1.051681 0.734638 0.056211 -0.000351 -728674.000000 0 0 1
-16.384164 26.112686 33.813894 45.756886 -1.010444 0.739226 0.055555 -0.001922 -922892.000000 0 0 1
-16.857264 26.893286 -33.674116 46.274856 -1.010889 2.385756 0.050648 -0.002532 274648.000000 0 0 1
-18.248964 26.500386 -33.092776 46.156549 -0.967742 2.370240 0.025003 -0.002126 567024.000000 0 0 1
-19.343364 26.593186 -33.987806 47.292010 -0.941930 2.372698 0.009602 0.004168 96146.600000 0 0 1
-20.489664 26.008486 -33.382206 47.017437 -0.903535 2.360289 0.017941 -0.004712 -14284.400000 0 0 1
-21.692064 26.162586 34.139492 48.171895 -0.878547 0.783140 0.043031 -0.020361 -453088.000000 0 0 1
-21.713064 25.240886 33.070495 46.927786 -0.860391 0.788782 0.055820 -0.019916 35847.300000 0 0 1
-22.003464 23.966086 33.477059 46.682322 -0.828066 0.771128 0.059953 -0.030057 -576330.000000 0 0 1
-22.337664 23.000786 32.275442 45.494083 -0.800023 0.782089 0.069059 -0.036376 637850.000000 0 0 1
-23.713364 23.061586 31.867692 45.931581 -0.771465 0.804033 0.075445 -0.040355 630061.000000 0 0 1
-23.870264 22.656186 30.531912 44.891981 -0.759310 0.822871 0.077397 -0.034453 70553.400000 0 0 1
-25.365664 22.474386 30.208152 45.398760 -0.725035 0.842772 0.065151 -0.034485 -12218.600000 0 0 1
-25.840564 21.276286 30.754192 45.455862 -0.688828 0.827698 0.075799 -0.038041 123377.000000 0 0 1
-27.175964 21.022186 30.364182 45.852468 -0.658409 0.847026 0.062524 -0.034078 11197.600000 0 0 1
-27.872864 19.765186 30.888302 46.061332 -0.616820 0.835792 0.079936 -0.033882 -355259.000000 0 0 1
-28.106164 19.755586 32.300322 47.154538 -0.612664 0.816208 0.083004 -0.029417 145097.000000 0 0 1
-28.246464 18.493686 33.016613 47.222620 -0.579690 0.796561 0.076882 -0.017925 53589.800000 0 0 1
-29.174764 17.407786 32.432281 46.968614 -0.537969 0.808603 0.054508 -0.016457 1561060.000000 0 0 1
-30.607064 17.637086 32.281032 47.853152 -0.522767 0.830394 0.052765 -0.018644 1465930.000000 0 0 1
-31.249664 16.463086 31.865072 47.570553 -0.484876 0.836791 0.051070 -0.002662 -1326530.000000 0 0 1
-32.721464 16.643886 31.660132 48.477594 -0.470546 0.859141 0.029545 0.000336 -1293360.000000 0 0 1
-33.379164 16.801786 32.909507 49.794621 -0.466333 0.848772 0.036633 -0.002804 -133990.000000 0 0 1
-34.773064 16.723586 32.823068 50.657656 -0.448280 0.865921 0.037848 -0.003923 -411460.000000 0 0 1
-35.407564 17.162386 34.173865 52.116179 -0.451341 0.855654 0.047337 0.001595 1395490.000000 0 0 1
35.177160 17.346486 34.086386 51.963592 0.458127 0.855334 0.034554 -0.004911 1378650.000000 0 0 1
34.643060 17.865886 -33.209046 51.207150 0.476139 2.276440 0.027017 -0.008012 763036.000000 0 0 1
33.084660 17.961986 -33.105656 50.131947 0.497383 2.292108 0.026524 -0.003114 643999.000000 0 0 1
32.498260 16.689786 -33.150466 49.331929 0.474436 2.307686 0.029511 0.011303 -219085.000000 0 0 1
31.327660 16.616886 -32.367876 48.012733 0.487688 2.310612 0.015231 0.012748 -207077.000000 0 0 1
30.700860 15.213386 -32.445346 47.187820 0.460070 2.328946 0.002821 0.019147 -146550.000000 0 0 1
30.166460 14.985686 -33.771366 47.697917 0.461057 2.357495 0.016045 0.005627 26692.000000 0 0 1
29.455160 13.791286 -33.948486 47.013889 0.437896 2.377622 0.004171 0.005102 26470.100000 0 0 1
30.324660 12.485286 -33.943406 47.197693 0.390569 2.373411 -0.001556 0.009143 443127.000000 0 0 1
30.926560 12.286086 -32.636326 46.610404 0.378148 2.346466 0.009594 0.013617 -307103.000000 0 0 1
31.837460 11.269686 -32.699626 47.009523 0.340212 2.340045 0.032592 0.002884 -896752.000000 0 0 1
17.509760 -21.244714 10.176004 29.350990 -0.881476 1.216745 0.034599 -0.023740 81999.300000 0 0 1
17.419460 -22.404114 11.035504 30.449372 -0.909919 1.199932 0.031227 -0.021531 193070.000000 0 0 1
18.551460 -23.237214 10.820004 31.641701 -0.897062 1.221801 0.018467 -0.022150 -98551.300000 0 0 1
18.499160 -24.634314 11.504504 32.884981 -0.926687 1.213395 0.031993 -0.014990 595359.000000 0 0 1
17.590260 -25.614024 10.917404 32.934559 -0.969023 1.232916 0.027305 -0.017168 -63395.900000 0 0 1
16.251960 -25.494544 11.266104 32.264889 -1.003281 1.214105 0.031306 -0.013806 -1320880.000000 0 0 1
15.398460 -26.403364 10.461504 32.306242 -1.042821 1.241029 0.030363 -0.008329 -666014.000000 0 0 1
15.119360 -25.805914 9.238204 31.303109 -1.040818 1.271214 0.025275 -0.014344 101239.000000 0 0 1
14.137960 -26.530484 8.515904 31.245305 -1.081180 1.294754 0.028988 -0.006888 34060.500000 0 0 1
13.787860 -25.984354 7.138504 30.269621 -1.082953 1.332723 0.030772 -0.009522 -109100.000000 0 0 1
13.028960 -24.805114 7.083404 28.900209 -1.087151 1.323175 0.040961 -0.017686 -182210.000000 0 0 1
12.904560 -24.279214 5.758504 28.092139 -1.082262 1.364347 0.048887 -0.008347 157620.000000 0 0 1
12.159960 -22.912214 5.934104 26.609167 -1.082876 1.345895 0.065732 -0.012132 76070.600000 0 0 1
11.714760 -22.357614 4.693604 25.673496 -1.088156 1.386943 0.078515 -0.015289 -80118.100000 0 0 1
10.678860 -21.415714 4.878104 24.422669 -1.108233 1.369707 0.069518 -0.013555 17187.400000 0 1 0
10.171160 -20.950314 3.481604 23.547605 -1.118824 1.422398 0.064781 -0.014926 -98084.600000 0 1 0
11.019660 -20.109214 2.738804 23.093602 -1.069497 1.451921 0.065397 -0.012280 -17844.700000 0 1 0
10.229660 -19.501814 1.729404 22.089761 -1.087703 1.492426 0.041228 -0.003941 574598.000000 0 1 0
11.093760 -19.114114 0.506204 22.106042 -1.044916 1.547895 0.040784 -0.001864 991025.000000 0 1 0
11.966260 -17.966814 0.736504 21.599542 -0.983241 1.536692 0.042414 -0.004097 259242.000000 0 1 0
12.752460 -17.628114 -0.378496 21.760489 -0.944527 1.588191 0.056951 -0.005429 -516522.000000 0 1 0
13.860060 -16.644114 -0.009396 21.659360 -0.876414 1.571230 0.045200 -0.004770 -45759.100000 0 1 0
14.894160 -17.373214 0.640504 22.892680 -0.862076 1.542814 0.053799 -0.011427 38418.000000 0 1 0
16.182660 -16.834514 0.440104 23.355364 -0.805138 1.551951 0.048748 -0.013272 21600.000000 0 1 0
17.357260 -17.520514 1.135204 24.688693 -0.790079 1.524799 0.048200 -0.012803 -214389.000000 0 1 0
17.864160 -18.743014 0.601404 25.899623 -0.809401 1.547574 0.046426 -0.019704 93074.100000 0 0 1
19.007160 -19.190114 1.309504 27.041586 -0.790188 1.522352 0.041978 -0.013082 269769.000000 0 0 1
19.461460 -20.474414 0.677804 28.256140 -0.810757 1.546806 0.032741 -0.012127 -328020.000000 0 0 1
18.659660 -21.550014 1.064204 28.525752 -0.857157 1.533481 0.038666 -0.007775 -178070.000000 0 0 1
18.738960 -22.632314 0.181504 29.383723 -0.879229 1.564619 0.039432 -0.006911 -281254.000000 0 0 1
17.622460 -23.676314 0.347504 29.516770 -0.930948 1.559023 0.044074 -0.004470 -198239.000000 0 0 1
17.781360 -24.443114 1.505504 30.263991 -0.941878 1.521030 0.031315 0.000380 -102489.000000 0 0 1
16.608060 -25.170714 1.768904 30.207971 -0.987551 1.512205 0.033282 -0.001923 -628432.000000 0 0 1
16.523960 -25.896324 3.106704 30.875758 -1.002846 1.470006 0.022492 0.000504 68800.700000 0 0 1
17.457860 -26.926094 3.321204 32.261770 -0.995573 1.467668 0.015743 0.000183 -945412.000000 0 0 1
18.707260 -26.449694 3.688704 32.606049 -0.955203 1.457424 0.017141 0.004363 -1240610.000000 0 0 1
19.715660 -27.614864 3.763104 34.138672 -0.950769 1.460342 0.032264 0.005122 -117826.000000 0 0 1
20.191260 -28.029184 2.471304 34.632780 -0.946533 1.499378 0.026655 0.004518 -238047.000000 0 0 1
21.076860 -29.114174 2.431704 36.024746 -0.944185 1.503244 0.051901 0.001753 -370903.000000 0 0 1
20.559260 -30.482804 2.843004 36.877733 -0.977422 1.493627 0.058179 -0.002402 -171598.000000 0 0 1
20.349560 -30.591894 4.203404 36.981579 -0.983814 1.456888 0.078521 -0.011764 -222000.000000 0 0 1
19.703660 -31.828294 4.390304 37.690175 -1.016479 1.454047 0.064228 -0.020818 -549905.000000 0 0 1
19.398060 -32.199324 5.839204 38.041786 -1.028587 1.416693 0.073111 -0.027543 -851626.000000 0 0 1
20.447760 -32.722124 6.562404 39.139666 -1.012275 1.402334 0.074547 -0.041650 -552598.000000 0 0 1
19.998060 -33.668184 7.554804 39.881626 -1.034819 1.380214 0.066723 -0.032831 174750.000000 0 0 1
21.176660 34.223256 8.114304 41.055135 1.016682 1.371842 0.073602 -0.041932 -654300.000000 0 0 1
22.079360 -33.817264 8.853804 41.346044 -0.992384 1.354986 0.079536 -0.043605 -977566.000000 0 0 1
23.109060 34.017964 9.228404 42.147526 0.974085 1.350053 0.097573 -0.045936 29264.300000 0 0 1
24.183460 -34.037444 10.140504 42.967629 -0.953061 1.332545 0.092815 -0.037910 275625.000000 0 0 1
25.135960 -33.189554 9.505404 42.704984 -0.922611 1.346333 0.081895 -0.034507 276032.000000 0 0 1
25.908760 -32.395454 10.351104 42.753650 -0.896199 1.326256 0.060992 -0.024715 -406921.000000 0 0 1
26.767660 -31.442824 9.552204 42.383999 -0.865541 1.343471 0.063428 -0.029150 -753735.000000 0 0 1
26.040060 -30.403904 8.992604 41.028637 -0.862558 1.349824 0.052055 -0.029350 82202.200000 0 0 1
26.822060 -29.520714 8.172004 40.714581 -0.833259 1.368709 0.061028 -0.027531 145791.000000 0 0 1
26.193160 -28.116894 8.045704 39.260345 -0.820805 1.364402 0.050362 -0.021912 -33742.300000 0 0 1
26.286160 -27.405104 9.265404 39.087717 -0.806235 1.331477 0.041055 -0.028991 130264.000000 0 0 1
25.743660 -26.095914 9.140704 37.779428 -0.792193 1.326422 0.028444 -0.015861 -372208.000000 0 0 1
26.302560 -25.104234 10.143204 37.748269 -0.762092 1.298746 0.028938 -0.028071 136580.000000 0 0 1
27.640960 -24.769914 9.835304 38.396673 -0.730673 1.311759 0.049828 -0.017591 -15197.500000 0 0 1
28.296960 -23.930414 10.795604 38.599582 -0.701986 1.287334 0.032543 -0.022540 748670.000000 0 0 1
29.750460 -23.545814 10.379604 39.334862 -0.669502 1.303756 0.051416 -0.025680 542485.000000 0 0 1
29.828360 -22.579714 9.320304 38.554411 -0.647959 1.326633 0.069312 -0.027399 247615.000000 0 0 1
31.179860 -22.259214 8.971504 39.346463 -0.619992 1.340760 0.068752 -0.027747 708314.000000 0 0 1
31.295160 -21.691714 7.559904 38.820995 -0.606102 1.374807 0.063758 -0.005625 -541316.000000 0 0 1
30.880460 -20.355414 7.635404 37.765660 -0.582793 1.367214 0.061381 -0.002987 -109699.000000 0 0 1
30.996560 -19.735014 6.326504 37.286487 -0.566957 1.400299 0.040851 0.004115 -109604.000000 0 0 1
30.802860 -18.230714 6.309504 36.345356 -0.534406 1.396314 0.057209 0.007287 292987.000000 0 0 1
31.756860 -17.416514 6.999704 36.889415 -0.501639 1.379891 0.072305 0.011457 378083.000000 0 0 1
31.212860 -16.090514 7.262604 35.859346 -0.475978 1.366855 0.071420 0.007818 343750.000000 0 0 1
31.754660 -15.498014 8.601204 36.366572 -0.454046 1.332020 0.073314 -0.014479 223374.000000 0 0 1
33.135160 -15.200314 8.489204 37.430668 -0.430096 1.342007 0.082159 -0.009051 -157469.000000 0 0 1
33.531660 -14.651414 9.743004 37.867694 -0.411943 1.310579 0.077989 -0.018577 -449336.000000 0 0 1
35.052460 -14.729614 9.868004 39.281216 -0.397812 1.316862 0.067475 -0.022901 -415543.000000 0 0 1
35.700760 -13.761814 9.021404 39.310526 -0.367924 1.339242 0.066371 -0.010127 -320528.000000 0 0 1
-35.042664 -14.271814 8.770404 38.840609 0.386758 1.343027 0.057796 -0.011876 -200467.000000 0 0 1
-34.163964 -13.267614 8.011704 37.515242 0.370424 1.355580 0.060823 -0.012153 -472437.000000 0 0 1
-34.629064 -13.068514 6.673404 37.609739 0.360861 1.392414 0.083681 -0.017924 262070.000000 0 0 1
-33.669564 -12.710314 5.676804 36.433744 0.360962 1.414347 0.077239 -0.015047 296690.000000 0 0 1
-32.738764 -13.872114 5.153304 35.927966 0.400787 1.426866 0.064837 -0.000942 485030.000000 0 0 1
-31.800764 -14.207814 6.167604 35.372163 0.420170 1.395537 0.053806 -0.005964 3117.340000 0 0 1
-30.844564 -15.125214 5.679604 34.819780 0.455913 1.406950 0.051853 0.001995 -83991.100000 0 0 1
-30.075464 -15.809714 6.763004 34.644174 0.483971 1.374321 0.032319 -0.003717 -620857.000000 0 0 1
-30.952464 -16.565014 7.521404 35.903011 0.491391 1.359741 0.035003 -0.011331 -261707.000000 0 0 1
-30.494164 -16.739414 8.837804 35.891625 0.502028 1.322002 0.016923 -0.005921 -405832.000000 0 0 1
-31.463264 -17.532414 9.729404 37.309299 0.508381 1.306969 -0.000240 -0.009875 -1373190.000000 0 0 1
-32.678264 -16.889314 9.887404 38.090400 0.477026 1.308212 0.021478 -0.008175 -885760.000000 0 0 1
-33.642764 -17.426714 10.712504 39.373642 0.477938 1.295250 0.040804 -0.017471 -478900.000000 0 0 1
-34.317764 -18.753414 10.246104 40.427492 0.500124 1.314558 0.062555 -0.021297 -1095530.000000 0 0 1
-33.487064 -19.874114 10.006804 40.205721 0.535616 1.319262 0.048257 -0.021472 -270184.000000 0 0 1
-32.761764 -20.473414 11.089404 40.192894 0.558540 1.291266 0.033605 -0.026109 -453025.000000 0 0 1
-33.545264 -21.232614 12.220304 41.538469 0.564299 1.272186 0.105162 -0.033556 169694.000000 0 0 1
-34.108164 -22.483614 11.858504 42.538263 0.582806 1.288280 0.077383 -0.035225 331815.000000 0 0 1
-35.382764 -22.406214 11.209404 43.354690 0.564512 1.309274 0.092435 -0.036906 425046.000000 0 0 1
-35.981464 -23.862114 11.024104 44.560039 0.585583 1.320802 0.085853 -0.028795 84122.500000 0 0 1
35.790260 -24.416514 12.304004 45.038843 -0.598687 1.294092 0.120941 -0.024269 143440.000000 0 0 1
35.301260 -25.771254 12.233404 45.387142 -0.630602 1.297887 0.089738 -0.012073 -104078.000000 0 0 1
34.251160 -26.048494 13.331104 45.048688 -0.650196 1.270371 0.094774 -0.026005 120567.000000 0 0 1
32.995660 -25.465244 12.988604 43.656569 -0.657292 1.268705 0.085543 -0.027449 33782.400000 0 0 1
32.100560 -25.420564 14.073304 43.297909 -0.669785 1.239748 0.080491 -0.007047 -309340.000000 0 0 1
31.993160 -24.008414 14.711304 42.619112 -0.643772 1.218365 0.096856 -0.017647 374705.000000 0 0 1
33.154260 -23.439714 15.362404 43.412309 -0.615402 1.209088 0.106293 -0.022226 241245.000000 0 0 1
33.881860 -22.617414 14.475704 43.232787 -0.588605 1.229370 0.107656 -0.027688 -982258.000000 0 0 1
35.124460 -22.115714 15.153204 44.186560 -0.561928 1.220755 0.091940 -0.024351 -1107230.000000 0 0 1
35.133260 -20.927414 15.973004 43.902613 -0.537221 1.198422 0.086566 -0.010177 352268.000000 0 0 1
34.164660 -20.839714 17.047704 43.498757 -0.547724 1.168087 0.084782 -0.013387 605562.000000 0 0 1
34.134660 -19.444714 17.661604 43.072081 -0.517802 1.148290 0.066183 -0.003009 -105814.000000 0 0 1
33.923060 -18.355114 16.800004 42.070468 -0.495970 1.160010 0.068347 -0.011768 185770.000000 0 0 1
33.649360 -17.069914 17.334804 41.522967 -0.469461 1.140131 0.062288 -0.011659 -175033.000000 0 0 1
34.896360 -16.270614 17.760104 42.401770 -0.436289 1.138615 0.038088 -0.017048 -188772.000000 0 0 1
35.475560 -16.774914 18.940104 43.573393 -0.441699 1.121123 0.029772 0.002148 20525.200000 0 0 1
-35.694364 -15.779614 19.438404 43.599717 0.416245 1.108686 0.020934 -0.007752 -263101.000000 0 0 1
-35.356464 -15.798514 20.912104 44.011233 0.420219 1.075658 0.015583 0.004165 -549151.000000 0 0 1
-34.534764 -16.816614 21.347204 43.944869 0.453151 1.063550 0.016151 0.008055 -243384.000000 0 0 1
-34.147164 -16.543714 22.682104 44.206347 0.451157 1.032008 0.011922 0.010776 258412.000000 0 0 1
-33.124064 -17.564314 23.238104 44.110296 0.487560 1.015944 0.009831 0.014955 -400068.000000 0 0 1
-33.744264 -18.857714 23.399304 45.186460 0.509606 1.026474 0.007637 0.007875 519909.000000 0 0 1
-32.922464 -19.982914 23.724504 45.233368 0.545528 1.018679 0.002098 0.010166 -481489.000000 0 0 1
-31.876564 -20.418914 22.699104 44.139514 0.569712 1.030654 -0.004306 0.015961 -910238.000000 0 0 1
-30.688164 -19.699214 22.753204 42.982912 0.570671 1.012957 -0.007481 0.021448 -1447760.000000 0 0 1
-29.742664 -20.485914 22.156904 42.370120 0.603151 1.020503 0.000156 0.014893 -1523210.000000 0 0 1
-28.413664 -19.750014 22.080004 41.047849 0.607422 1.002842 0.002516 0.014927 -519693.000000 0 0 1
-27.833564 -19.665614 23.393704 41.336534 0.615104 0.969232 -0.000123 0.017193 316562.000000 0 0 1
-26.748464 -18.759514 23.496804 40.243005 0.611618 0.947305 0.016431 0.014229 72417.400000 0 0 1
-26.424364 -18.102614 24.857004 40.544078 0.600637 0.910835 0.018468 0.003171 -599104.000000 0 0 1
-25.396964 -17.113014 24.747504 39.373849 0.592939 0.891139 0.023660 0.000128 399464.000000 0 0 1
-25.096164 -16.579814 26.015904 39.768517 0.583827 0.857694 0.015305 -0.000450 -375496.000000 0 0 1
-24.052964 -17.325314 26.808904 39.967848 0.624220 0.835561 0.011855 0.004248 -962594.000000 0 0 1
-24.453964 -18.580614 27.254604 41.061527 0.649756 0.844974 0.020114 0.009301 -142375.000000 0 0 1
-23.423264 -19.167114 28.048304 41.264208 0.685797 0.823409 0.025316 0.009742 95683.900000 0 0 1
-23.785964 -20.488014 28.801404 42.603423 0.711046 0.828428 0.023254 0.011322 640908.000000 0 0 1
-24.926864 -20.354914 29.703604 43.794693 0.684773 0.825422 0.030075 0.001602 993041.000000 0 0 1
-25.145164 -21.531214 30.467504 44.990457 0.708127 0.826847 0.028877 0.000008 -773017.000000 0 0 1
-26.375064 -21.481814 31.351704 46.260584 0.683505 0.826139 0.042088 -0.004236 -967851.000000 0 0 1
-26.286164 -20.616714 32.534004 46.631242 0.665105 0.798633 0.059605 -0.013689 -277614.000000 0 0 1
-27.281564 -20.882714 33.461704 47.958910 0.653317 0.798592 0.071152 -0.013039 224455.000000 0 0 1
-28.637164 -20.131614 33.231804 48.267192 0.612729 0.811382 0.054227 -0.017072 266393.000000 0 0 1
-29.379164 -20.500014 32.097804 48.100466 0.609230 0.840209 0.050936 -0.015807 398494.000000 0 0 1
-30.671064 -19.908314 32.149404 48.689211 0.575736 0.849580 0.047012 -0.019106 653898.000000 0 0 1
-31.760164 -20.460814 31.183404 48.987321 0.572307 0.880766 0.040284 0.001819 146417.000000 0 0 1
-31.811264 -19.832814 29.893404 47.946977 0.557486 0.897626 0.027373 -0.008998 519852.000000 0 0 1
-32.922964 -20.335514 29.150104 48.447737 0.553311 0.925192 0.027021 -0.008223 261294.000000 0 0 1
-33.218564 -19.352914 27.933204 47.521281 0.527522 0.942454 0.023622 -0.003402 -125941.000000 0 0 1
-34.460764 -19.617114 27.318504 48.152633 0.517509 0.967535 0.009414 0.000253 101197.000000 0 0 1
-34.828864 -18.499514 26.480804 47.502787 0.488260 0.979476 0.010301 0.001830 500537.000000 0 0 1
35.879260 -18.877514 25.715104 48.009878 -0.484340 1.005553 0.002458 0.003204 581964.000000 0 0 1
34.720960 -19.038114 26.522604 47.659661 -0.501551 0.980629 0.006331 -0.001672 524776.000000 0 0 1
33.706460 -19.594914 25.645004 46.666394 -0.526586 0.988984 0.032219 0.004548 809316.000000 0 0 1
32.511760 -20.267614 26.387204 46.519622 -0.557443 0.967661 0.026220 0.000021 600187.000000 0 0 1
31.662560 -19.349114 27.090304 45.943340 -0.548544 0.940176 0.017113 -0.005784 492840.000000 0 0 1
30.733860 -19.964714 27.964404 46.099542 -0.576094 0.919008 0.015200 0.003065 -21273.700000 0 0 1
-30.516830 -6.312414 34.066154 46.169540 0.203974 0.740918 0.019120 0.006196 98436.200000 0 0 1
-31.101480 -5.789514 32.872277 45.622442 0.184043 0.766232 0.026940 0.006484 445289.000000 0 0 1
-30.159440 -4.974914 32.243152 44.429298 0.163482 0.758719 0.034263 0.005776 -47273.100000 0 0 1
-30.622530 -4.665714 30.780992 43.668956 0.151199 0.788555 0.031456 -0.007608 170715.000000 0 0 1
-30.547710 -5.754314 29.852432 43.098056 0.186190 0.805622 0.031519 -0.008669 568235.000000 0 0 1
-29.252400 -5.853014 29.246482 41.776996 0.197479 0.795312 0.038690 -0.013594 423583.000000 0 0 1
-29.073650 -6.782014 28.024162 40.946630 0.229172 0.817006 0.042190 -0.019417 -111166.000000 0 0 1
-29.705560 -6.233914 26.898602 40.556341 0.206855 0.845656 0.046715 -0.025331 -220916.000000 0 0 1
-29.479250 -7.035714 25.853602 39.836368 0.234284 0.864534 0.054839 -0.023882 -231537.000000 0 0 1
-30.140970 -6.577814 24.534052 39.416563 0.214866 0.898953 0.068941 -0.025656 -139096.000000 0 0 1
-29.711930 -5.304814 24.129102 38.641344 0.176680 0.896385 0.069383 -0.021246 -86178.300000 0 0 1
-30.326250 -4.944114 22.908852 38.326769 0.161609 0.930136 0.061156 -0.016152 14031.800000 0 0 1
-29.776500 -3.644114 22.314652 37.388009 0.121777 0.931240 0.060283 -0.009852 45935.000000 0 0 1
-28.538440 -3.837414 21.663552 36.034398 0.133663 0.925806 0.071484 -0.008631 -149120.000000 0 0 1
-28.180770 -2.612414 21.027252 35.257990 0.092438 0.931809 0.068217 -0.003815 314418.000000 0 0 1
-26.718290 -2.713314 20.522452 33.799411 0.101206 0.918285 0.068707 -0.004533 32231.900000 0 0 1
-26.549670 -3.534114 19.354352 33.044908 0.132335 0.945055 0.072044 -0.004995 607075.000000 0 0 1
-25.364020 -3.235514 18.574752 31.604169 0.126878 0.942545 0.073655 -0.010861 404671.000000 0 0 1
-25.321600 -4.046514 17.232352 30.895173 0.158465 0.979102 0.070261 -0.010466 -864022.000000 0 0 1
-26.235770 -3.764614 16.276352 31.103177 0.142519 1.020075 0.058227 -0.004876 -886202.000000 0 0 1
-25.972180 -4.456514 15.104352 30.373609 0.169933 1.050329 0.066194 -0.007074 -652800.000000 0 0 1
-27.046680 -4.305314 14.069452 30.789741 0.157856 1.096230 0.070093 -0.009980 -443076.000000 0 0 1
-27.162810 -3.032614 13.484752 30.477099 0.111185 1.112462 0.064027 -0.007291 -921918.000000 0 0 1
-28.407520 -2.931914 12.913552 31.342354 0.102845 1.146131 0.060479 -0.005596 -848226.000000 0 0 1
-28.781750 -1.625914 12.169052 31.290871 0.056431 1.171358 0.061210 0.005423 -114299.000000 0 0 1
-27.956380 -1.472914 11.037052 30.092278 0.052637 1.195258 0.066707 0.008624 136683.000000 0 0 1
-28.241780 -0.327214 10.278852 30.055948 0.011586 1.221762 0.068187 0.013776 -72219.000000 0 0 1
-29.601710 -0.421114 9.538852 31.103509 0.014225 1.259092 0.054748 0.011898 118952.000000 0 0 1
-29.552330 -1.162714 8.327552 30.725238 0.039324 1.296330 0.049504 -0.003848 -37799.500000 0 0 1
-30.823420 -1.431014 7.776252 31.821394 0.046393 1.323925 0.062553 -0.009245 -117033.000000 0 0 1
-30.827260 -2.308514 6.540752 31.597953 0.074746 1.362290 0.069325 -0.020151 -325899.000000 0 0 1
-30.473630 -1.682714 5.308452 30.978272 0.055163 1.398586 0.080114 -0.025649 406885.000000 0 0 1
-31.431250 -0.783314 4.791652 31.804041 0.024916 1.419559 0.081016 -0.021826 -167307.000000 0 0 1
-30.985960 -0.136814 3.449552 31.177682 0.004415 1.459928 0.072013 -0.022274 1743.650000 0 0 1
-31.344360 -0.896714 2.328952 31.443553 0.028601 1.496661 0.071376 -0.038056 567812.000000 0 0 1
-30.682890 -0.378114 1.184752 30.708083 0.012323 1.532206 0.068410 -0.042737 -223496.000000 0 0 1
-31.298390 -0.983114 -0.066348 31.313897 0.031401 1.572915 0.071977 -0.040189 -709921.000000 0 0 1
-32.571030 -0.487314 -0.290548 32.575971 0.014960 1.579716 0.074443 -0.042337 -514060.000000 0 0 1
-33.242060 -1.006314 -1.405848 33.286989 0.030263 1.613043 0.076050 -0.039376 4455.880000 0 0 1
-34.763117 -0.733514 -1.397648 34.798934 0.021097 1.610971 0.089796 -0.041968 131029.000000 0 0 1
-35.517294 -1.586814 -0.510348 35.556387 0.044648 1.585150 0.082678 -0.034837 -77986.200000 0 0 1
35.188663 -1.151314 -0.393548 35.209692 -0.032707 1.581974 0.092134 -0.030406 -432400.000000 0 0 1
34.204253 -2.297314 -0.038848 34.281337 -0.067064 1.571930 0.090184 -0.032606 -275884.000000 0 0 1
34.322883 -2.731814 1.299252 34.455931 -0.079424 1.533080 0.080176 -0.035116 661683.000000 0 0 1
33.425333 -3.831814 1.587452 33.681682 -0.114140 1.523648 0.086754 -0.031965 329432.000000 0 0 1
33.501943 -4.318714 3.072152 33.918573 -0.128202 1.480098 0.090209 -0.033895 -119723.000000 0 0 1
33.133683 -3.338914 4.046752 33.546468 -0.100432 1.449871 0.082834 -0.032388 284682.000000 0 0 1
33.050623 -3.942114 5.364252 33.714376 -0.118714 1.411008 0.078986 -0.029462 -2809.800000 0 0 1
32.477023 -2.882514 6.364752 33.220114 -0.088524 1.378011 0.086139 -0.014910 655899.000000 0 0 1
31.082103 -2.613114 6.218552 31.805595 -0.083874 1.374011 0.090305 -0.015632 399885.000000 0 0 1
30.640663 -1.582114 7.082852 31.488412 -0.051589 1.343920 0.084844 -0.003417 274581.000000 0 0 1
29.122873 -1.587414 7.412452 30.093289 -0.054454 1.321919 0.077477 -0.002224 -253081.000000 0 0 1
28.355673 -1.542514 6.249452 29.077125 -0.054345 1.354179 0.075250 -0.000457 -297305.000000 0 0 1
26.967983 -1.631414 6.485852 27.784886 -0.060421 1.335192 0.081413 0.005221 210474.000000 0 0 1
26.364183 -3.060614 6.589852 27.347096 -0.115573 1.327430 0.099915 -0.010441 -620037.000000 0 0 1
26.733783 -3.738114 7.828752 28.106192 -0.138927 1.288521 0.089271 -0.011906 526291.000000 0 0 1
26.350083 -5.086414 7.679552 27.913688 -0.190687 1.292084 0.098001 -0.025609 -280587.000000 0 0 1
26.417483 -5.753314 9.051052 28.511499 -0.214436 1.247754 0.081834 -0.022911 -800455.000000 0 0 1
25.363783 -5.590714 9.923352 27.803786 -0.216952 1.205842 0.093864 -0.012398 -220904.000000 0 0 1
25.706383 -6.251614 11.098952 28.689502 -0.238562 1.173567 0.087118 -0.014621 -524750.000000 0 0 1
24.641983 -6.217014 12.177452 28.181003 -0.247136 1.123959 0.061924 -0.016856 -963165.000000 0 0 1
23.639783 -7.130314 11.924652 27.420395 -0.292946 1.120888 0.065535 -0.026409 -596378.000000 0 0 1
22.552683 -6.894614 12.799052 26.832349 -0.296688 1.073557 0.070657 -0.028640 -124635.000000 0 0 1
21.516783 -8.001114 12.785952 26.276803 -0.356010 1.062617 0.066157 -0.027946 -451093.000000 0 0 1
22.027583 -9.115414 13.450152 27.371733 -0.392362 1.057113 0.056243 -0.027881 -364289.000000 0 0 1
21.031583 -10.038114 13.692152 27.028989 -0.445313 1.039591 0.067476 -0.042826 -977356.000000 0 0 1
21.385483 -11.194614 14.648852 28.235565 -0.482245 1.025340 0.062809 -0.039162 -377039.000000 0 0 1
21.597583 -10.809314 15.977652 28.958284 -0.464037 0.986339 0.066448 -0.033994 273803.000000 0 0 1
21.914883 -11.934414 16.774052 30.067610 -0.498673 0.978970 0.058003 -0.030181 -245706.000000 0 0 1
21.776583 -11.678414 18.253352 30.721162 -0.492251 0.934573 0.074714 -0.023044 -322189.000000 0 0 1
20.411683 -11.510414 18.551352 29.887775 -0.513462 0.901161 0.069833 -0.023286 -120854.000000 0 0 1
20.047683 -11.950414 19.878052 30.657119 -0.537547 0.865316 0.067705 -0.013445 209331.000000 0 0 1
20.419783 -10.960414 20.998952 31.273858 -0.492617 0.834627 0.059573 -0.012725 -112545.000000 0 0 1
19.607083 -9.769214 21.120752 30.429614 -0.462246 0.803648 0.052850 -0.007823 180471.000000 0 0 1
19.832283 -8.659514 20.277452 29.656057 -0.411686 0.817901 0.068357 -0.007575 -798111.000000 0 0 1
20.998283 -7.732414 20.739452 30.509720 -0.352831 0.823354 0.065929 -0.002619 1783170.000000 0 0 1
22.322183 -8.315814 20.897052 31.687843 -0.356609 0.850688 0.068382 -0.007427 1361930.000000 0 0 1
22.967983 -8.722414 19.718952 31.503108 -0.362941 0.894464 0.068889 -0.012750 242737.000000 0 0 1
24.460083 -9.248314 19.758752 32.775528 -0.361484 0.923727 0.067902 -0.019899 934268.000000 0 0 1
24.499983 -10.485014 20.336352 33.522409 -0.404375 0.918957 0.045855 -0.025907 131754.000000 0 0 1
25.719283 -11.088314 19.970352 34.398360 -0.407050 0.951379 0.045000 -0.029107 53960.100000 0 0 1
25.565883 -12.549214 20.251452 34.945936 -0.456307 0.952671 0.023546 -0.024246 252983.000000 0 0 1
24.517983 -13.101514 19.469252 33.938664 -0.490759 0.959829 0.047699 -0.028836 333235.000000 0 0 1
24.488983 -14.487114 19.832152 34.682864 -0.534203 0.962081 0.039575 -0.025938 26448.800000 0 0 1
23.329083 -15.163314 19.076952 33.735772 -0.576357 0.969779 0.048396 -0.019279 -433951.000000 0 0 1
23.529283 -15.142014 17.683252 33.099927 -0.571820 1.007190 0.032840 -0.023176 52348.100000 0 0 1
22.511083 -15.678814 16.878452 32.209567 -0.608368 1.019232 0.021808 -0.017078 -489117.000000 0 0 1
22.382583 -17.228114 16.995152 32.963967 -0.655997 1.029126 0.012238 -0.016702 -194930.000000 0 0 1
23.456383 -17.976314 16.420152 33.807857 -0.653897 1.063643 0.026396 -0.015355 562576.000000 0 0 1
23.070883 -19.357914 16.504352 34.342221 -0.698110 1.069475 0.019283 -0.009240 125806.000000 0 0 1
24.220783 -20.341114 16.213252 35.542605 -0.698555 1.097117 0.015311 -0.002020 -209563.000000 0 0 1
24.672583 -20.289814 14.896052 35.246351 -0.688229 1.134455 0.005080 -0.010316 253845.000000 0 0 1
25.648683 -21.319514 14.698652 36.447593 -0.693486 1.155696 0.010145 -0.008456 229830.000000 0 0 1
26.244883 -21.261214 13.257252 36.284816 -0.680875 1.196770 0.013549 -0.019651 -389163.000000 0 0 1
25.320183 -21.577114 12.263452 35.455265 -0.705753 1.217614 -0.002695 -0.015448 -204661.000000 0 0 1
25.800583 -21.197514 10.999852 35.156812 -0.687768 1.252573 0.009821 -0.019005 28923.700000 0 0 1
24.720083 -21.185014 9.873152 34.020089 -0.708542 1.276344 -0.006485 -0.017727 132221.000000 0 0 1
24.263183 -22.438614 9.419552 34.364537 -0.746350 1.293136 -0.005749 -0.019443 -30684.100000 0 0 1
22.852483 -22.499814 9.348252 33.404602 -0.777622 1.287159 -0.013499 -0.011624 72968.800000 0 0 1
22.426883 -23.567214 8.324452 33.580875 -0.810186 1.320292 -0.005160 -0.012528 -523429.000000 0 0 1
22.606583 -24.935014 8.729252 34.770855 -0.834336 1.317031 0.001692 -0.006993 66691.000000 0 0 1
22.144983 -25.892924 7.809452 34.954704 -0.863261 1.345478 0.018458 -0.006999 635297.000000 0 0 1
20.628183 -26.309004 7.851852 34.341480 -0.905843 1.340115 0.019899 0.003228 1016140.000000 0 0 1
19.751783 -25.360074 7.295652 32.961991 -0.909083 1.347613 0.019669 -0.003009 -358139.000000 0 0 1
18.386983 -25.636344 7.470052 32.420749 -0.948604 1.338298 0.022133 -0.013383 -147636.000000 0 0 1
17.504783 -24.397314 7.470052 30.942657 -0.948430 1.326972 0.027096 -0.012223 -371461.000000 0 0 1
17.426183 -23.777714 6.223152 30.129374 -0.938343 1.362751 0.036185 -0.011181 -141085.000000 0 0 1
16.708883 -22.593614 6.370052 28.813812 -0.934023 1.347878 0.061847 -0.016536 -223276.000000 0 0 1
16.231183 -22.001814 5.026652 27.799251 -0.935201 1.388976 0.058080 -0.009389 -348524.000000 0 0 1
15.340283 -20.942414 5.208052 26.477024 -0.938591 1.372804 0.083680 -0.013416 -190714.000000 0 0 1
14.670483 -20.579414 4.019052 25.590782 -0.951484 1.413093 0.056815 -0.012283 -11324.100000 0 0 1
14.020583 -19.230714 4.152252 24.158607 -0.940824 1.398064 0.075722 -0.005469 -118699.000000 0 1 0
14.975383 -18.189414 4.191752 23.930894 -0.882007 1.394727 0.062106 -0.008346 -157854.000000 0 1 0
14.423083 -16.916614 4.066552 22.599425 -0.864796 1.389870 0.038873 -0.007087 -583045.000000 0 1 0
15.386983 -15.760314 4.154352 22.414401 -0.797384 1.384375 0.026473 -0.009900 -478141.000000 0 1 0
16.176983 -15.744314 5.336852 23.196125 -0.771845 1.338641 0.054350 -0.018900 285832.000000 0 1 0
17.091783 -14.657214 5.345452 23.141669 -0.708866 1.337703 0.051089 -0.026577 -599696.000000 0 1 0
18.528583 -15.082114 5.251752 24.461387 -0.683214 1.354416 0.065939 -0.028967 -797646.000000 0 1 0
19.554283 -14.113214 5.461252 24.726061 -0.625172 1.348090 0.070134 -0.023090 1247860.000000 0 1 0
20.853283 -14.681414 5.130652 26.013976 -0.613428 1.372268 0.065195 -0.019879 1337170.000000 0 0 1
21.963883 -13.596914 5.301752 26.370377 -0.554315 1.368367 0.057962 -0.021229 20059.200000 0 0 1
22.051383 -12.966314 6.596452 26.417834 -0.531553 1.318429 0.073333 -0.023833 184989.000000 0 0 1
23.112383 -12.036214 6.558252 26.871237 -0.480124 1.324244 0.077827 -0.025259 48865.600000 0 0 1
23.004983 -11.303614 7.934652 26.832064 -0.456708 1.270592 0.075831 -0.029636 -107631.000000 0 0 1
23.479983 -11.940214 9.095352 27.867611 -0.470446 1.238328 0.060616 -0.025612 270843.000000 0 0 1
23.193483 -11.266014 10.296952 27.764869 -0.452175 1.190859 0.073890 -0.034202 -239725.000000 0 0 1
23.585983 -12.036714 11.512652 28.874249 -0.471880 1.160679 0.053083 -0.021129 -140752.000000 0 0 1
22.644883 -13.011414 11.880152 28.691909 -0.521522 1.143887 0.047514 -0.023351 1042570.000000 0 0 1
23.297083 -13.882814 12.894152 30.029082 -0.537402 1.126980 0.042475 -0.024264 872680.000000 0 0 1
22.345083 -15.086814 13.186552 30.013328 -0.593869 1.115914 0.024738 -0.027952 229540.000000 0 0 1
21.129683 -14.658814 13.747052 29.160346 -0.606522 1.079885 0.028952 -0.033299 -12958.600000 0 0 1
20.217783 -15.774214 13.872652 29.155361 -0.662560 1.074902 0.021508 -0.035380 912793.000000 0 0 1
18.857983 -15.270714 14.481252 28.258183 -0.680673 1.032747 0.026749 -0.035905 -91758.200000 0 0 1
18.920183 -14.893614 15.844952 28.824566 -0.666876 0.988788 0.027480 -0.022846 13270.700000 0 0 1
18.510983 -13.590914 15.994252 27.985452 -0.633317 0.962439 0.039295 -0.028089 -616064.000000 0 0 1
17.036183 -13.219514 15.895752 26.789215 -0.659914 0.935565 0.046800 -0.032465 -996891.000000 0 0 1
16.526283 -13.203114 14.566452 25.683103 -0.674080 0.967742 0.058072 -0.044439 915161.000000 0 0 1
15.083183 -13.243214 14.594252 24.816876 -0.720533 0.942116 0.079468 -0.041531 1064290.000000 0 1 0
14.435983 -11.887514 14.307752 23.546175 -0.688885 0.917702 0.055514 -0.033919 -413545.000000 0 1 0
14.864483 -10.941214 15.254752 23.945156 -0.634522 0.880105 0.045057 -0.019906 134917.000000 0 1 0
14.415583 -9.627214 14.969052 22.903380 -0.588810 0.858499 0.036298 -0.017822 -773741.000000 0 1 0
15.056683 -8.498814 15.763752 23.397210 -0.513873 0.831531 0.040804 -0.019906 -1176740.000000 0 1 0
16.399783 -8.347114 15.503452 24.062091 -0.470803 0.870675 0.041691 -0.025763 -717351.000000 0 1 0
17.186083 -8.873814 16.563352 25.464694 -0.476632 0.862628 0.058774 -0.022774 1727160.000000 0 0 1
18.790783 -8.813614 16.492752 26.510077 -0.438574 0.899334 0.060546 -0.023419 1922450.000000 0 0 1
19.276883 -7.511514 16.778352 26.637083 -0.371565 0.889389 0.056161 -0.018059 587796.000000 0 0 1
20.683783 -7.481614 16.547552 27.524805 -0.347072 0.925811 0.053750 -0.018728 63303.800000 0 0 1
21.341383 -6.157514 16.837152 27.872196 -0.280896 0.922180 0.063100 -0.007785 -474215.000000 0 0 1
21.576783 -5.951314 18.220052 28.860804 -0.269129 0.887558 0.073406 -0.011407 203206.000000 0 0 1
21.977183 -4.644314 18.442752 29.063746 -0.208260 0.883355 0.074177 -0.009255 -143326.000000 0 0 1
-5.388740 -33.200097 -6.245196 34.209464 1.409889 1.754383 -0.001036 -0.004631 -175856.000000 0 0 1
-5.922340 -31.943697 -6.637096 33.159085 1.387478 1.772317 -0.000112 -0.004388 -175425.000000 0 0 1
-5.499540 -30.893697 -5.811196 31.912936 1.394627 1.753913 0.007756 -0.010819 -1320240.000000 0 0 1
-6.262340 -29.552397 -6.001896 30.799088 1.361979 1.766924 0.010811 -0.015837 2028240.000000 0 0 1
-7.662740 -29.523197 -5.540996 31.000635 1.316850 1.750500 0.011976 -0.012778 1990140.000000 0 0 1
-8.483940 -30.391597 -6.344396 32.185055 1.298572 1.769218 0.011116 -0.006855 -1208810.000000 0 0 1
-9.970340 -30.153797 -6.005696 32.322245 1.251463 1.757689 0.033148 -0.004197 111817.000000 0 0 1
-10.865240 -30.941997 -6.795496 33.490885 1.233099 1.775121 0.028196 -0.007312 256674.000000 0 0 1
-12.192140 -30.650597 -6.343196 33.590825 1.192207 1.760774 0.034400 -0.010912 346714.000000 0 0 1
-13.270240 -31.221297 -7.259696 34.692533 1.168893 1.781613 0.053255 -0.024347 -263561.000000 0 0 1
-13.400940 -30.429197 -8.423896 34.299902 1.155957 1.818930 0.072841 -0.026180 460852.000000 0 0 1
-14.481340 -30.892797 -9.258096 35.352319 1.132451 1.835767 0.083537 -0.032124 690455.000000 0 0 1
-14.675440 -30.043297 -10.526296 35.053832 1.116410 1.875792 0.092691 -0.026615 -300012.000000 0 0 1
-15.136840 -28.692997 -10.294696 34.035170 1.085356 1.878082 0.100055 -0.029805 60643.200000 0 0 1
-14.130940 -27.729497 -9.994596 32.687925 1.099499 1.881531 0.082354 -0.024384 -281744.000000 0 0 1
-14.531940 -26.336997 -9.548896 31.559406 1.066596 1.878183 0.074532 -0.010699 -297025.000000 0 0 1
-14.868440 -25.506197 -10.670596 31.392646 1.043020 1.917615 0.097256 -0.026975 196922.000000 0 0 1
-15.229840 -24.225897 -10.206096 30.381022 1.009570 1.913396 0.096114 -0.006415 -222535.000000 0 0 1
-15.841340 -23.344497 -11.320396 30.398437 0.974585 1.952391 0.098767 -0.006513 68616.500000 0 0 1
-17.161240 -23.735497 -11.649296 31.521232 0.944787 1.949342 0.102041 -0.018675 -169575.000000 0 0 1
-17.702640 -23.149697 -12.799896 31.829692 0.917952 1.984646 0.103426 -0.025123 -333194.000000 0 0 1
-19.153140 -23.626797 -12.990996 33.073166 0.889593 1.974466 0.084250 -0.018118 -251567.000000 0 0 1
-19.367440 -24.940097 -13.358696 34.286454 0.910513 1.971016 0.106430 -0.023110 -125960.000000 0 0 1
-19.297040 -25.819797 -12.270896 34.490761 0.928978 1.934538 0.120745 -0.030465 -1303180.000000 0 0 1
-19.377040 -27.279397 -12.743196 35.805366 0.953179 1.934675 0.115631 -0.029545 227568.000000 0 0 1
-18.383640 -27.883597 -13.559596 36.046024 0.987911 1.956460 0.106212 -0.029752 1490870.000000 0 0 1
-16.986540 -27.560497 -13.241096 34.977853 1.018451 1.959033 0.109872 -0.030812 506328.000000 0 0 1
-16.223740 -28.760197 -13.712096 35.754444 1.057189 1.964388 0.096782 -0.032008 -767713.000000 0 0 1
-16.201140 -28.957897 -15.136896 36.471391 1.060710 1.998777 0.093968 -0.035738 57866.900000 0 0 1
-15.507140 -30.196997 -15.433196 37.289591 1.096381 1.997502 0.103126 -0.031646 162947.000000 0 0 1
-16.292140 -31.523997 -15.375096 38.672856 1.093786 1.979661 0.092378 -0.036484 -249097.000000 0 0 1
-16.491640 -31.960297 -14.053396 38.612598 1.094428 1.943311 0.101735 -0.038545 -18768.100000 0 0 1
-16.469040 -33.392197 -13.785996 39.702919 1.112603 1.925411 0.074382 -0.028232 -1340500.000000 0 0 1
-17.008940 -33.602697 -12.349296 39.635217 1.102219 1.887645 0.102525 -0.044463 1367920.000000 0 0 1
-18.457040 -33.480397 -12.230296 40.139500 1.066972 1.880414 0.117862 -0.036735 1897890.000000 0 0 1
-19.118540 -32.194297 -12.428396 39.451950 1.034912 1.891281 0.117164 -0.040199 3931.620000 0 0 1
-18.564140 -30.972197 -11.571296 37.918323 1.030832 1.880907 0.143897 -0.041176 -236853.000000 0 0 1
-18.592940 -31.204097 -10.164996 37.718964 1.033434 1.843663 0.138227 -0.040108 146053.000000 0 0 1
-18.313540 -29.981197 -9.491196 36.391493 1.022449 1.834656 0.142950 -0.034663 -140305.000000 0 0 1
-18.433040 -30.182397 -7.941096 36.246587 1.022531 1.791673 0.143412 -0.037722 38607.100000 0 0 1
-17.493240 -31.065197 -7.366996 36.405117 1.057941 1.774565 0.135305 -0.043408 -136161.000000 0 0 1
-17.813840 -31.425197 -6.081996 36.631497 1.055097 1.737601 0.114277 -0.043507 -285919.000000 0 0 1
-16.895140 -32.536597 -5.539696 37.077812 1.091855 1.720765 0.114430 -0.043373 -124884.000000 0 0 1
-15.647840 -32.129097 -5.052896 36.092458 1.117578 1.711256 0.105803 -0.039156 -204711.000000 0 0 1
-15.639140 -31.899297 -3.686696 35.717497 1.114966 1.674199 0.079336 -0.038076 896171.000000 0 0 1
-14.311340 -31.225797 -3.113596 34.489989 1.141047 1.661195 0.062312 -0.027751 1160040.000000 0 0 1
-13.141840 -32.019997 -3.110296 34.751433 1.181334 1.660417 0.036866 -0.018449 -763363.000000 0 0 1
-12.060740 -31.237097 -2.751496 33.597447 1.202327 1.652784 0.028326 -0.012180 -687675.000000 0 0 1
-10.715840 -31.946397 -2.639496 33.798942 1.247158 1.648970 0.028241 -0.011524 -897450.000000 0 0 1
-10.784840 -33.034797 -1.769896 34.795734 1.255236 1.621684 0.032526 -0.008285 1390300.000000 0 0 1
-9.507440 -33.773897 -1.635396 35.124664 1.296395 1.617373 0.030129 -0.004095 1546480.000000 0 0 1
-8.440840 -33.023297 -0.846996 34.095503 1.320552 1.595641 0.027160 -0.000879 -839506.000000 0 0 1
-8.807340 -32.891797 0.526104 34.054608 1.309167 1.555347 0.040220 0.000658 395925.000000 0 0 1
-7.704340 -32.360397 1.265704 33.288949 1.337068 1.532765 0.041790 -0.002761 401717.000000 0 0 1
-6.822140 -33.473597 1.818404 34.210084 1.369743 1.517617 0.040217 -0.001022 -387649.000000 0 0 1
-7.568840 -34.337997 2.710404 35.266580 1.353844 1.493866 0.056840 -0.012990 375462.000000 0 0 1
-6.852440 33.258986 3.215904 34.109502 -1.367607 1.476374 0.055825 -0.007663 -240386.000000 0 0 1
-6.102340 33.607986 4.507704 34.453660 -1.391179 1.439586 0.052944 -0.010456 -183935.000000 0 0 1
-4.963040 -34.302397 4.362804 34.933083 1.427108 1.445579 0.042383 -0.007373 -532825.000000 0 0 1
-4.383740 -33.953997 5.563304 34.684888 1.442398 1.409705 0.029326 -0.009714 -87883.700000 0 0 1
-3.135340 -33.057197 5.415904 33.644325 1.476233 1.409118 0.033960 -0.006823 -79003.800000 0 0 1
-3.439140 -31.871697 4.751304 32.406907 1.463306 1.423652 0.031831 -0.004085 95393.500000 0 0 1
-3.331840 -31.878897 3.350004 32.227128 1.466659 1.466658 0.041964 -0.012794 -308292.000000 0 0 1
-3.913140 -30.613197 2.673104 30.977830 1.443660 1.484398 0.032793 -0.012968 27036.900000 0 0 1
-3.216840 -29.472697 3.100104 29.809370 1.462080 1.466610 0.032466 -0.009041 157710.000000 0 0 1
-3.456540 -28.483397 2.118904 28.770494 1.450034 1.497081 0.034432 -0.012298 213973.000000 0 0 1
-2.995540 -27.126397 2.647404 27.419399 1.460813 1.474093 0.036519 -0.012921 41997.500000 0 0 1
-3.027840 -26.051897 1.699804 26.282285 1.455092 1.506076 0.035691 -0.017610 -490922.000000 0 0 1
-2.943740 -24.735397 2.196504 25.006601 1.452344 1.482846 0.025848 -0.015250 160825.000000 0 0 1
-3.997140 -24.212897 3.233504 24.752718 1.407189 1.439790 0.014722 -0.006253 159306.000000 0 1 0
-3.937440 -24.827097 4.487004 25.534709 1.413512 1.394157 0.028142 -0.004933 -184059.000000 0 0 1
-4.910040 -24.316097 5.360904 25.379526 1.371550 1.357964 0.020873 0.004339 251097.000000 0 0 1
-5.501940 -25.401897 6.376104 26.761585 1.357496 1.330227 0.043067 0.001715 434435.000000 0 0 1
-4.543240 -25.744097 7.379404 27.163489 1.396118 1.295672 0.020902 -0.002237 -7158.690000 0 0 1
-5.048340 -26.684897 8.247004 28.382786 1.383823 1.275981 0.026546 -0.005716 -481860.000000 0 0 1
-4.205040 -27.016697 9.466504 28.934391 1.416389 1.237488 0.029759 -0.005320 -575822.000000 0 0 1
-4.151740 -26.085197 10.526004 28.433628 1.412959 1.191577 0.024947 -0.009132 447293.000000 0 0 1
-5.376840 -25.835397 11.241204 28.683494 1.365606 1.168095 0.038397 -0.008318 634944.000000 0 0 1
-5.118540 -24.873197 12.417704 28.267910 1.367844 1.115992 0.028347 -0.006895 -44881.600000 0 0 1
-4.145840 -25.477797 13.195804 28.990263 1.409487 1.098221 0.023944 -0.007105 -655430.000000 0 0 1
-3.351540 -24.566297 13.914304 28.431384 1.435205 1.059395 0.023267 -0.009975 -581978.000000 0 0 1
-2.319740 -25.298397 14.734004 29.368026 1.479357 1.045231 0.039909 -0.018920 -411773.000000 0 0 1
-2.841040 -25.665497 15.962004 30.357450 1.460550 1.017139 0.026856 -0.011121 17206.200000 0 0 1
-1.758740 -26.046497 16.772004 31.029233 1.503376 0.999738 0.025309 -0.010570 219391.000000 0 0 1
-2.213240 -26.614597 18.158804 32.295160 1.487828 0.973660 0.021076 -0.012269 195211.000000 0 0 1
-2.759240 -25.659597 19.057404 32.081349 1.463675 0.934732 0.036305 -0.010960 -9138.700000 0 0 1
-2.851740 -26.226797 20.366204 33.328059 1.462488 0.913369 0.053880 -0.014194 160943.000000 0 0 1
-3.202040 -25.151697 21.416304 33.189139 1.444168 0.869406 0.060806 -0.013389 -163287.000000 0 0 1
-2.673640 -25.492497 22.693704 34.234777 1.466299 0.846132 0.044727 -0.016557 154294.000000 0 0 1
-2.591940 -24.408997 23.643404 34.081195 1.465005 0.804131 0.042198 -0.013322 188454.000000 0 0 1
-1.763340 -23.172197 23.205504 32.841368 1.494845 0.786124 0.043075 -0.020468 123812.000000 0 0 1
-2.509640 -22.285697 22.436304 31.722836 1.458657 0.785181 0.059593 -0.013328 153958.000000 0 0 1
-1.583840 -21.261997 22.090404 30.701254 1.496442 0.767674 0.046750 -0.018083 646951.000000 0 0 1
-2.257040 -20.017397 21.351904 29.354628 1.458517 0.756303 0.042389 -0.003127 -139197.000000 0 0 1
-3.170340 -19.186697 22.045904 29.397317 1.407040 0.722841 0.060393 -0.015516 384118.000000 0 0 1
-4.482440 -19.677097 22.275604 30.057993 1.346819 0.736108 0.059675 -0.018801 135794.000000 0 0 1
-5.447440 -19.670397 21.050104 29.320743 1.300631 0.769979 0.041864 -0.025082 -727045.000000 0 0 1
-5.162340 -20.483197 19.953104 29.057485 1.323910 0.813888 0.058605 -0.025399 -300080.000000 0 0 1
-5.589340 -21.826797 20.113704 30.202829 1.320106 0.842024 0.053697 -0.010194 50546.900000 0 0 1
-5.490040 -22.682997 18.807904 29.973257 1.333330 0.892472 0.034179 -0.005610 141370.000000 0 0 1
-6.065440 -23.963197 19.038404 31.200724 1.322888 0.914495 0.040314 -0.008305 -155769.000000 0 0 1
-5.890140 -24.757597 17.864704 31.093086 1.337226 0.958735 0.044127 -0.006860 -111767.000000 0 0 1
-6.592540 -26.107597 18.017204 32.398886 1.323453 0.981104 0.047112 -0.014729 931524.000000 0 0 1
-7.998940 -25.817397 18.151404 32.557556 1.270348 0.979404 0.044615 -0.017349 143712.000000 0 0 1
-8.674140 -27.028497 18.369804 33.811685 1.260254 0.996436 0.039984 -0.017202 -408171.000000 0 0 1
-10.187840 -26.899897 18.534904 34.218989 1.208758 0.998391 0.054757 -0.017526 -1019410.000000 0 0 1
-10.843540 -26.317397 17.390804 33.356076 1.179963 1.022343 0.061169 -0.018982 50364.500000 0 0 1
-12.251440 -26.383997 17.526104 33.961410 1.136072 1.028552 0.044330 -0.017790 306573.000000 0 0 1
-12.810840 -25.301997 18.493804 33.857487 1.102108 0.992946 0.045588 -0.023895 -1256860.000000 0 0 1
-12.866940 -23.943197 18.040704 32.623639 1.077683 0.984842 0.044324 -0.016558 -10650.100000 0 0 1
-13.017640 -22.903197 18.965304 32.460717 1.053954 0.946836 0.042908 -0.019333 830960.000000 0 0 1
-11.620940 -22.426097 19.526204 31.925675 1.092704 0.912697 0.035205 -0.019375 707592.000000 0 0 1
-10.961940 -23.253397 20.418104 32.829614 1.130279 0.899577 0.037010 -0.014051 -1330350.000000 0 0 1
-9.619240 -23.213397 20.113904 32.186343 1.177953 0.895767 0.052464 -0.026440 -1119830.000000 0 0 1
-8.751640 -24.081897 21.013704 33.137663 1.222224 0.883909 0.050817 -0.022045 -250102.000000 0 0 1
-8.634040 -23.596897 22.317004 33.606679 1.220030 0.844554 0.052148 -0.023627 20370.600000 0 0 1
-7.724840 -24.398097 23.039604 34.434919 1.264166 0.837831 0.050121 -0.018599 90325.800000 0 0 1
-7.651240 -24.101697 24.498604 35.208165 1.263402 0.801233 0.050452 -0.011511 -154778.000000 0 0 1
-6.796440 -24.971997 25.185804 36.112559 1.305070 0.798998 0.063836 -0.009850 -281237.000000 0 0 1
-6.673640 -24.596697 26.541404 36.796482 1.305852 0.765115 0.065725 -0.008003 275915.000000 0 0 1
-5.421740 -25.168697 27.256704 37.493819 1.358623 0.756904 0.066189 -0.009265 663686.000000 0 0 1
-4.146040 -24.685997 26.867004 36.720893 1.404398 0.750051 0.069334 -0.010454 213376.000000 0 0 1
-3.148140 -24.933097 27.835204 37.501582 1.445197 0.734388 0.064296 -0.009896 -386214.000000 0 0 1
-1.846340 -24.247997 27.487004 36.700268 1.494799 0.724306 0.062024 -0.015750 -1016120.000000 0 0 1
-2.008340 -22.842197 27.582704 35.869276 1.483099 0.693555 0.063291 -0.018359 414941.000000 0 0 1
-0.888740 -22.101697 27.092504 34.975400 1.530607 0.684689 0.068541 -0.025991 523208.000000 0 0 1
0.334060 -21.869797 28.014104 35.541379 -1.555523 0.662900 0.069465 -0.027424 -130196.000000 0 0 1
0.909760 -23.042297 28.431604 36.607802 -1.531335 0.681459 0.073107 -0.023054 -253411.000000 0 0 1
1.871960 -22.827597 29.449304 37.307706 -1.488975 0.661026 0.068432 -0.036166 41229.500000 0 0 1
2.697660 -23.974097 30.036704 38.525813 -1.458744 0.676687 0.076224 -0.045444 -759191.000000 0 0 1
3.688160 -24.456397 29.159404 38.235961 -1.421119 0.703447 0.069917 -0.048034 -377662.000000 0 0 1
4.305960 -25.545597 29.762704 39.458045 -1.403806 0.716228 0.055242 -0.037794 -932399.000000 0 0 1
5.586160 -25.142397 30.565804 39.970160 -1.352167 0.700197 0.051777 -0.037292 -762203.000000 0 0 1
6.667660 -24.767897 29.801604 39.319740 -1.307825 0.710663 0.049388 -0.028558 -775018.000000 0 0 1
7.286060 -25.724497 28.984704 39.432847 -1.294791 0.745071 0.044621 -0.017239 -647158.000000 0 0 1
8.475960 -25.075097 28.200804 38.676707 -1.244831 0.753729 0.035562 -0.014563 365143.000000 0 0 1
8.082560 -24.082997 27.278604 37.275203 -1.246996 0.749813 0.049209 -0.016510 24425.200000 0 0 1
9.174160 -23.822497 26.436604 36.750110 -1.203196 0.767914 0.030349 -0.010394 49432.100000 0 0 1
8.847860 -22.532697 25.560804 35.204570 -1.196627 0.758214 0.048261 -0.009794 550619.000000 0 0 1
7.984160 -22.726597 24.421904 34.302688 -1.232952 0.778521 0.046043 -0.000375 289559.000000 0 0 1
7.765560 -21.493797 23.815604 33.007123 -1.224097 0.764788 0.043396 0.010415 -43583.500000 0 0 1
6.939760 -21.703397 22.508004 32.028236 -1.261316 0.791534 0.048338 0.012960 -206770.000000 0 0 1
7.592660 -22.489797 21.532104 32.047947 -1.245207 0.834064 0.038143 0.019014 120064.000000 0 0 1
6.943560 -22.723497 20.259904 31.225535 -1.274240 0.864757 0.034192 0.013798 -46614.100000 0 0 1
7.832460 -23.643497 19.378304 31.557583 -1.250901 0.909600 0.058880 -0.004845 773406.000000 0 0 1
9.096560 -23.017497 19.139904 31.287193 -1.194433 0.912527 0.063526 -0.008939 161704.000000 0 0 1
10.064960 -24.005097 18.796304 32.106839 -1.173777 0.945386 0.066058 -0.005932 263988.000000 0 0 1
11.348060 -23.425197 18.186904 31.753453 -1.119676 0.960935 0.049968 -0.013068 -40968.200000 0 0 1
10.978660 -22.686097 17.019604 30.411459 -1.120081 0.976840 0.057689 -0.014270 -816566.000000 0 0 1
12.015560 -22.382397 16.167404 30.111963 -1.078120 1.004027 0.060499 -0.021952 -597644.000000 0 0 1
-12.099240 22.236186 11.397104 27.762088 -1.072476 1.147764 0.034759 -0.009241 534639.000000 0 0 1
-13.275240 21.408286 11.277004 27.599230 -1.015730 1.149878 0.028833 -0.015468 525050.000000 0 0 1
-12.992640 20.335886 10.414604 26.283472 -1.002262 1.163377 0.044352 -0.020241 312362.000000 0 0 1
-14.102240 19.849786 9.425004 26.109728 -0.953093 1.201481 0.041426 -0.012614 -665110.000000 0 0 1
-14.291540 20.680586 8.311004 26.476547 -0.966095 1.251498 0.045123 -0.006850 -22529.000000 0 0 1
-14.998540 20.122886 7.192204 26.107749 -0.930280 1.291706 0.045945 0.001084 1047020.000000 0 0 1
-16.547540 20.116186 7.485304 27.101878 -0.882427 1.290967 0.029319 -0.002488 85374.500000 0 0 1
-16.876640 19.144386 8.464604 26.888250 -0.848271 1.250543 0.028956 -0.009852 -1441910.000000 0 0 1
-18.226440 19.179686 8.726304 27.860579 -0.810876 1.252222 0.047490 -0.010186 -1203020.000000 0 0 1
-18.651540 18.030386 9.635504 27.673411 -0.768466 1.215161 0.028095 -0.015391 -222050.000000 0 0 1
-18.595040 16.732586 9.052704 26.602752 -0.732727 1.223569 0.026012 -0.013235 288540.000000 0 0 1
-19.066540 15.758286 9.982004 26.673900 -0.690685 1.187237 0.036412 -0.023681 204292.000000 0 0 1
-17.948140 15.164986 10.896504 25.900701 -0.701545 1.136576 0.039008 -0.018646 671663.000000 0 0 1
-16.981340 14.300486 10.274404 24.462894 -0.699907 1.137352 0.015947 -0.004534 585696.000000 0 1 0
-16.265940 13.363386 11.094804 23.796125 -0.687748 1.085756 0.018027 -0.014949 288905.000000 0 1 0
-17.112340 12.346386 11.938104 24.244252 -0.625004 1.055940 0.027593 -0.018587 -349640.000000 0 1 0
-17.880140 11.529086 11.105204 23.998850 -0.572710 1.089714 0.012465 -0.014421 -416159.000000 0 1 0
-18.678440 10.741986 11.972304 24.649756 -0.521910 1.063636 0.025020 -0.015025 151616.000000 0 1 0
-19.735740 9.940286 11.123304 24.739374 -0.466579 1.104457 0.026437 -0.017510 8387.110000 0 1 0
-19.241240 8.959486 10.215104 23.555171 -0.435784 1.122238 0.021419 -0.015382 195211.000000 0 1 0
-18.759640 9.470786 8.949304 22.840970 -0.467519 1.168199 0.027499 -0.004247 -495047.000000 0 1 0
-19.769540 9.721686 7.812304 23.374730 -0.457026 1.230019 0.035123 -0.007480 3847.230000 0 1 0
-20.320240 8.537386 7.211404 23.190590 -0.397749 1.254591 0.026085 -0.011584 24555.200000 0 1 0
-21.237240 8.882786 6.236804 23.849989 -0.396152 1.306219 0.044641 -0.003140 -420664.000000 0 1 0
-21.608440 7.702586 5.329304 23.551136 -0.342420 1.342533 0.061250 -0.002798 -282243.000000 0 1 0
-22.295140 6.688586 6.015504 24.041563 -0.291459 1.317896 0.052884 -0.004186 300279.000000 0 1 0
-22.093140 5.387886 5.396004 23.372056 -0.239202 1.337820 0.060222 0.000279 -92062.700000 0 1 0
-23.292740 4.444686 5.614404 24.368597 -0.188552 1.338313 0.091024 0.001059 -159308.000000 0 1 0
-24.463240 4.617786 4.861604 25.365513 -0.186569 1.377941 0.099790 0.001976 125115.000000 0 0 1
-24.930640 3.325486 4.575904 25.564322 -0.132607 1.390831 0.085128 -0.004183 -997775.000000 0 0 1
-26.004060 3.259586 3.528904 26.444077 -0.124699 1.436949 0.082354 -0.020043 -473309.000000 0 0 1
-25.503260 3.637286 2.270404 25.861185 -0.141665 1.482891 0.084738 -0.013194 -233294.000000 0 0 1
-26.536690 3.418786 1.422304 26.793786 -0.128127 1.517688 0.078432 -0.024270 -911155.000000 0 0 1
-26.091720 3.392486 -0.039396 26.311374 -0.129296 1.572294 0.087656 -0.024000 -253347.000000 0 0 1
-25.704160 4.667186 -0.469496 26.128661 -0.179616 1.588766 0.098193 -0.021531 387333.000000 0 0 1
-25.691810 4.829686 -1.847996 26.207062 -0.185817 1.641370 0.113580 -0.017913 561998.000000 0 0 1
-27.062510 5.359886 -2.428696 27.694881 -0.195525 1.658604 0.107501 -0.030515 546061.000000 0 0 1
-28.002010 4.342886 -2.432596 28.441005 -0.153866 1.656432 0.083704 -0.031584 -303251.000000 0 0 1
-29.350910 4.763186 -2.493296 29.839243 -0.160882 1.654451 0.071989 -0.018705 569830.000000 0 0 1
-30.362310 3.538886 -2.434296 30.664628 -0.116032 1.650264 0.060492 -0.016965 69259.800000 0 0 1
-30.206880 2.715286 -3.547096 30.535394 -0.089649 1.687223 0.068021 -0.022391 85819.100000 0 0 1
-31.261840 1.799686 -3.651896 31.525829 -0.057505 1.686895 0.082336 -0.030944 -438003.000000 0 0 1
-31.431640 1.124586 -5.054196 31.855260 -0.035764 1.730131 0.083818 -0.035398 -341464.000000 0 0 1
-30.289160 0.451086 -5.531396 30.793393 -0.014892 1.751406 0.094056 -0.032826 122235.000000 0 0 1
-30.488450 -0.220314 -6.793296 31.236886 0.007226 1.790025 0.101131 -0.034793 -126814.000000 0 0 1
-30.828640 0.552986 -8.139596 31.889871 -0.017935 1.828893 0.098782 -0.037581 -464422.000000 0 0 1
-32.157980 0.970886 -8.252496 33.214184 -0.030182 1.821890 0.084212 -0.038575 -86263.700000 0 0 1
-32.505750 1.589386 -9.440096 33.886065 -0.048857 1.853115 0.095098 -0.032060 -925484.000000 0 0 1
-33.975330 1.941986 -9.479596 35.326437 -0.057097 1.842469 0.121820 -0.035260 -797283.000000 0 0 1
-34.468319 2.835586 -8.510996 35.616606 -0.082082 1.812093 0.097019 -0.029772 835157.000000 0 0 1
-35.862759 2.678686 -8.248796 36.896551 -0.074554 1.796267 0.106853 -0.027877 627315.000000 0 0 1
35.551693 3.612586 -7.139496 36.440994 0.101267 1.767991 0.120378 -0.025409 -486871.000000 0 0 1
34.165913 3.552686 -7.025196 35.061155 0.103611 1.772532 0.121488 -0.029557 -307887.000000 0 0 1
33.618833 4.227586 -5.903296 34.394001 0.125094 1.743288 0.115075 -0.031264 -182717.000000 0 0 1
32.207213 3.713186 -5.592096 32.899299 0.114784 1.741602 0.102445 -0.029997 -258516.000000 0 0 1
32.107293 2.595586 -4.766696 32.562812 0.080666 1.717709 0.121499 -0.035497 -153430.000000 0 0 1
31.023463 1.789686 -5.135096 31.496467 0.057624 1.734565 0.117981 -0.036138 -235627.000000 0 0 1
30.964713 0.536286 -4.194396 31.252104 0.017318 1.705414 0.121055 -0.018198 -529608.000000 0 0 1
32.018603 -0.296714 -4.505696 32.335434 -0.009267 1.710594 0.123133 -0.034045 -167315.000000 0 0 1
31.791283 -1.546314 -3.804996 32.055495 -0.048601 1.689777 0.117252 -0.027703 23761.500000 0 0 1
33.136793 -2.266614 -3.661696 33.415455 -0.068295 1.680598 0.117237 -0.032992 -155625.000000 0 0 1
32.986353 -3.626914 -3.360496 33.354864 -0.109512 1.671717 0.090912 -0.031534 99158.700000 0 0 1
34.170473 -4.383314 -3.536896 34.631551 -0.127581 1.673104 0.099128 -0.040052 48661.900000 0 0 1
33.984663 -5.807614 -3.020096 34.609344 -0.169254 1.658170 0.093524 -0.038853 -50414.200000 0 0 1
33.882013 -5.857414 -1.631196 34.423261 -0.171185 1.618201 0.095369 -0.033908 -55800.400000 0 0 1
34.104903 -7.179314 -1.175496 34.872177 -0.207478 1.604511 0.103530 -0.034839 101227.000000 0 0 1
33.575773 -7.452014 0.295504 34.394075 -0.218406 1.562205 0.090117 -0.030081 571903.000000 0 0 1
32.157373 -7.313014 0.424404 32.981160 -0.223610 1.557928 0.084007 -0.032986 445522.000000 0 0 1
31.749743 -7.708714 1.746204 32.718797 -0.238187 1.517401 0.074527 -0.031097 -476832.000000 0 0 1
31.637973 -9.240014 2.046704 33.023146 -0.284152 1.508779 0.092937 -0.034258 -227182.000000 0 0 1
30.468063 -9.948814 1.678804 32.095173 -0.315617 1.518465 0.090247 -0.039544 101529.000000 0 0 1
29.278243 -9.618414 2.355904 30.907599 -0.317410 1.494498 0.081979 -0.041989 -197012.000000 0 0 1
28.125803 -10.665414 2.018404 30.147733 -0.362451 1.503796 0.093114 -0.040436 288724.000000 0 0 1
26.873883 -10.427614 2.635804 28.946298 -0.370137 1.479612 0.103550 -0.037091 1098540.000000 0 0 1
26.068983 -9.326414 2.072904 27.764560 -0.343570 1.496067 0.108863 -0.031330 112304.000000 0 0 1
25.433183 -9.571814 0.666404 27.182908 -0.359955 1.546278 0.100765 -0.024066 82307.700000 0 0 1
26.360283 -9.580114 -0.464596 28.051006 -0.348589 1.587360 0.104234 -0.029117 814288.000000 0 0 1
25.704983 -9.834514 -1.664696 27.572360 -0.365410 1.631209 0.100146 -0.007705 185404.000000 0 0 1
25.015883 -11.229614 -2.014396 27.494662 -0.421938 1.644127 0.103912 -0.008672 18427.200000 0 0 1
23.744283 -11.430214 -1.456896 26.392486 -0.448647 1.626026 0.086840 0.004201 -81763.500000 0 0 1
23.237983 -12.705514 -1.855096 26.549488 -0.500349 1.640726 0.074690 0.000783 -155600.000000 0 0 1
21.756483 -12.933014 -1.533896 25.356661 -0.536324 1.631326 0.064194 0.004855 281030.000000 0 0 1
20.795783 -12.296514 -2.394696 24.277632 -0.533997 1.669595 0.055735 0.004064 719263.000000 0 1 0
19.465983 -12.617414 -2.033196 23.286423 -0.575093 1.658220 0.051565 0.000051 175128.000000 0 1 0
18.401583 -12.061914 -2.999296 22.205941 -0.580220 1.706278 0.039057 0.001396 -153445.000000 0 1 0
18.339783 -12.806514 -4.163696 22.752820 -0.609578 1.754830 0.031154 -0.005842 414912.000000 0 1 0
17.630483 -12.098014 -5.179896 22.000618 -0.601403 1.808471 0.039002 -0.010855 -160431.000000 0 1 0
17.632083 -12.777514 -6.586296 22.749385 -0.627095 1.864517 0.043612 -0.013033 -364147.000000 0 1 0
16.763883 -13.858714 -6.792396 22.786583 -0.690811 1.873485 0.033661 -0.008175 -49971.600000 0 1 0
16.993183 -14.501514 -8.031896 23.739704 -0.706449 1.915940 0.045293 -0.011397 -242033.000000 0 1 0
16.107583 -15.731814 -8.295796 23.995092 -0.773597 1.923812 0.046069 -0.012260 -350791.000000 0 1 0
14.726283 -15.456114 -8.270796 22.894562 -0.809574 1.940411 0.051060 -0.005149 155418.000000 0 1 0
13.910783 -16.340714 -8.994896 23.268798 -0.865550 1.967700 0.052498 -0.006087 -38080.000000 0 1 0
13.928583 -16.118014 -10.601996 23.794918 -0.858137 2.032593 0.063903 -0.018552 -639862.000000 0 1 0
13.185183 -15.015514 -11.090596 22.854235 -0.850211 2.077474 0.059722 -0.018031 199598.000000 0 1 0
13.603383 -13.669214 -10.774796 22.090624 -0.787812 2.080312 0.054467 -0.010000 -54509.600000 0 1 0
13.538883 -12.657414 -11.949896 22.052472 -0.751762 2.143474 0.066081 -0.006948 -225415.000000 0 1 0
14.604283 -12.969014 -12.807296 23.356097 -0.726161 2.151185 0.069640 -0.006635 -57923.200000 0 1 0
14.446883 -12.309214 -14.065296 23.623330 -0.705673 2.208558 0.080280 -0.008441 -740920.000000 0 1 0
15.717583 -11.970814 -14.823096 24.699534 -0.650896 2.214468 0.074830 -0.017162 -492116.000000 0 1 0
16.510883 -13.045514 -15.270596 25.999727 -0.668685 2.198561 0.081475 -0.016592 -731499.000000 0 0 1
17.491283 -12.605414 -16.132496 26.927660 -0.624463 2.213179 0.078267 -0.017958 -825009.000000 0 0 1
18.567683 -13.706314 -16.242896 28.221509 -0.635894 2.184073 0.073598 -0.016576 -849320.000000 0 0 1
19.389683 -13.848014 -15.128196 28.223919 -0.620189 2.136496 0.064720 -0.030123 -399771.000000 0 0 1
20.365383 -14.814414 -15.433496 29.536562 -0.628900 2.120602 0.053647 -0.023580 -660550.000000 0 0 1
21.478083 -14.783814 -14.383596 29.778466 -0.602845 2.074897 0.044286 -0.030315 -326628.000000 0 0 1
22.276083 -13.609014 -14.421596 29.823004 -0.548414 2.075528 0.044225 -0.026950 -436084.000000 0 0 1
23.201283 -13.483314 -13.414796 30.000934 -0.526440 2.034368 0.042906 -0.026140 -453308.000000 0 0 1
23.793083 -12.096314 -13.427596 29.878620 -0.470342 2.036895 0.056244 -0.029382 -117998.000000 0 0 1
22.860883 -11.078914 -12.998796 28.536486 -0.451271 2.043747 0.042440 -0.017866 557642.000000 0 0 1
23.411783 -9.788014 -12.811196 28.426107 -0.395995 2.038328 0.055636 -0.027075 207327.000000 0 0 1
24.370883 -9.523514 -11.586296 28.616071 -0.372528 1.987652 0.064157 -0.027441 1182280.000000 0 0 1
25.624283 -10.221814 -11.736696 29.980650 -0.379567 1.973031 0.065727 -0.025269 534179.000000 0 0 1
26.590383 -9.706814 -10.865696 30.320522 -0.350019 1.937308 0.057926 -0.022624 364938.000000 0 0 1
27.983483 -10.399614 -11.111296 31.854171 -0.355816 1.927106 0.074390 -0.022179 652941.000000 0 0 1
28.577673 -10.115214 -12.354696 32.735905 -0.340194 1.957789 0.061121 -0.021134 -299480.000000 0 0 1
29.926063 -10.500514 -12.400996 34.053117 -0.337460 1.943534 0.046849 -0.018683 45763.200000 0 0 1
30.645683 -9.969714 -13.704796 35.019631 -0.314523 1.972890 0.037200 -0.017426 -64966.600000 0 0 1
30.361213 -10.671914 -14.932796 35.477900 -0.338009 2.005238 0.053721 -0.025576 -30523.500000 0 0 1
31.017473 -10.133814 -16.008196 36.346116 -0.315781 2.026882 0.052256 -0.026801 -407504.000000 0 0 1
30.603603 -10.888214 -17.328796 36.816041 -0.341817 2.060864 0.030102 -0.012780 359590.000000 0 0 1
29.298043 -10.589214 -17.799296 35.879266 -0.346822 2.089885 0.043993 -0.016145 399634.000000 0 0 1
29.217433 -9.373514 -18.540496 35.850679 -0.310446 2.114324 0.035713 -0.013014 -868645.000000 0 0 1
27.810233 -9.136214 -19.054996 34.928103 -0.317412 2.147841 0.019134 -0.021512 -647847.000000 0 0 1
27.493063 -9.622214 -20.350796 35.533230 -0.336663 2.180623 0.019571 -0.013809 650432.000000 0 0 1
26.124983 -9.366414 -20.659996 34.598842 -0.344248 2.210714 0.057568 -0.014748 451105.000000 0 0 1
25.725883 -9.963914 -22.049096 35.316615 -0.369520 2.245065 0.073615 -0.021334 -67792.600000 0 0 1
25.523783 -11.342214 -22.102596 35.617890 -0.418169 2.240237 0.068237 -0.018795 119306.000000 0 0 1
24.878383 -11.667214 -23.333896 36.048974 -0.438517 2.274811 0.069570 -0.022977 -666746.000000 0 0 1
25.007483 -13.164214 -23.784096 36.937163 -0.484552 2.270390 0.058726 -0.012340 1331060.000000 0 0 1
26.296383 -13.674214 -24.200896 38.264439 -0.479522 2.255527 0.049565 -0.003932 1438080.000000 0 0 1
27.436933 -13.450514 -23.360796 38.463339 -0.455804 2.223520 0.035477 0.003404 -599638.000000 0 0 1
28.777813 -13.801214 -23.956996 39.907063 -0.447177 2.214697 0.031643 0.008224 -565989.000000 0 0 1
29.154033 -13.197714 -25.193706 40.729107 -0.425088 2.237715 0.020678 -0.005081 945531.000000 0 0 1
30.570463 -13.391514 -25.376136 41.926533 -0.412875 2.220879 0.003649 -0.000016 877748.000000 0 0 1
31.047593 -12.981114 -26.773686 43.003403 -0.396015 2.242850 0.007323 0.000472 -60742.000000 0 0 1
30.632733 -13.813614 -27.825706 43.628548 -0.423638 2.262418 0.005679 -0.004163 181415.000000 0 0 1
31.183863 -13.287014 -29.046306 44.639287 -0.402790 2.279288 0.001933 0.002370 166833.000000 0 0 1
31.001783 -14.086114 -30.342776 45.609355 -0.426478 2.298659 0.006346 -0.008201 -101836.000000 0 0 1
31.707063 -15.282314 -30.218696 46.390264 -0.449132 2.280227 0.009010 -0.013681 -131567.000000 0 0 1
32.030513 -15.950014 -31.411486 47.613424 -0.462017 2.291241 -0.015374 -0.006852 -75686.400000 0 0 1
30.875213 -16.728614 -32.073166 47.558525 -0.496536 2.310939 -0.008524 0.003590 17442.300000 0 0 1
30.028983 -15.913114 -32.844476 47.262317 -0.487300 2.339133 0.004758 -0.007732 -894704.000000 0 0 1
28.966433 -16.628014 -33.342276 47.193776 -0.521116 2.355333 0.007790 -0.001108 -411464.000000 0 0 1
27.961383 -15.718014 -34.123033 46.832428 -0.512111 2.387101 0.018641 0.001379 13832.100000 0 0 1
27.371343 -14.624914 -33.457896 45.634519 -0.490721 2.393769 0.031337 -0.008239 160258.000000 0 0 1
28.178913 -13.443114 -33.414636 45.730803 -0.445130 2.390115 0.029842 -0.002335 -268068.000000 0 0 1
27.421683 -12.144514 -33.080066 44.651189 -0.416917 2.405139 0.038128 -0.009511 -529241.000000 0 0 1
26.716183 -11.641114 -34.107354 44.861805 -0.410926 2.434534 0.060612 -0.007961 -445537.000000 0 0 1
26.131183 -10.360814 -33.850006 44.000092 -0.377479 2.448567 0.047337 -0.019289 221004.000000 0 0 1
20.172060 -30.049797 8.996304 37.293911 -0.979601 1.327166 0.032924 -0.017712 -487970.000000 0 0 1
20.756260 -29.522697 7.871104 36.937328 -0.958019 1.356056 0.037395 -0.018196 -988522.000000 0 0 1
21.975760 -30.141497 7.719004 38.092346 -0.940815 1.366744 0.064548 -0.021052 -790109.000000 0 0 1
22.683760 -29.879997 6.357504 38.049770 -0.921457 1.402925 0.065748 -0.024425 184684.000000 0 0 1
23.231160 -28.526397 6.257104 37.317468 -0.887352 1.402328 0.058308 -0.014934 170188.000000 0 0 1
23.964660 -28.352297 5.084604 37.470133 -0.869069 1.434679 0.053894 -0.008880 -171348.000000 0 0 1
24.031660 -26.829097 4.727504 36.327268 -0.840345 1.440290 0.042748 -0.010512 -112148.000000 0 0 1
24.898860 -26.022997 5.495004 36.432741 -0.807470 1.419393 0.037498 -0.004048 -66062.800000 0 0 1
24.613960 -24.615197 5.397804 35.226286 -0.785423 1.416958 0.032093 0.000267 150510.000000 0 0 1
25.487660 -23.651197 6.285104 35.334154 -0.748043 1.391969 0.019886 0.002150 -322875.000000 0 0 1
26.849260 -23.635797 5.962404 36.264085 -0.721832 1.405630 0.023148 0.006380 162934.000000 0 0 1
27.699760 -22.744697 6.737004 36.468961 -0.687484 1.384997 0.024816 -0.001473 420256.000000 0 0 1
27.393160 -21.223997 6.782004 35.310605 -0.659180 1.377528 0.015610 0.002020 -541048.000000 0 0 1
27.558360 -20.477297 5.597404 34.786690 -0.639040 1.409187 0.023217 0.009568 67468.400000 0 0 1
27.016860 -19.188497 5.722004 33.628120 -0.617566 1.399809 0.021979 -0.000233 -566118.000000 0 0 1
27.030760 -18.491097 4.396104 33.044037 -0.599959 1.437363 0.028983 0.008456 -281411.000000 0 0 1
28.284260 -17.956397 4.059604 33.747769 -0.565655 1.450212 0.063372 0.014708 38326.900000 0 0 1
28.162460 -17.415197 2.774504 33.228167 -0.553827 1.487200 0.056402 0.012602 -108023.000000 0 0 1
29.308060 -16.426797 2.570804 33.695861 -0.510859 1.494428 0.060813 -0.007115 -151899.000000 0 0 1
29.113960 -15.155397 3.208804 32.978859 -0.479956 1.473343 0.060864 -0.015807 -508302.000000 0 0 1
30.280060 -14.591097 3.704804 33.815791 -0.449040 1.461018 0.070095 -0.019317 -449959.000000 0 0 1
29.930060 -13.392397 4.593804 33.109935 -0.420737 1.431603 0.069113 -0.028919 68538.800000 0 0 1
29.409560 -13.792397 5.852004 33.006035 -0.438522 1.392553 0.060283 -0.018304 85220.100000 0 0 1
29.119560 -12.656797 6.645604 32.439286 -0.410015 1.364473 0.062641 -0.022890 -168548.000000 0 0 1
28.827860 -12.945197 8.140404 32.632649 -0.422065 1.318678 0.050325 -0.008677 25083.700000 0 0 1
27.464760 -13.307597 8.294504 31.626001 -0.451198 1.305424 0.037957 -0.002653 88705.900000 0 0 1
26.923060 -13.285597 9.593504 31.518146 -0.458406 1.261509 0.032034 0.001223 179701.000000 0 0 1
27.412460 -14.399297 10.569004 32.718290 -0.483669 1.241866 0.038682 0.001080 1572210.000000 0 0 1
28.787660 -14.426597 11.088804 34.056095 -0.464558 1.239146 0.043175 0.002015 1645560.000000 0 0 1
28.945060 -15.573597 11.882204 34.950539 -0.493614 1.223909 0.048964 -0.001053 244799.000000 0 0 1
29.764360 -15.382697 13.210004 36.014562 -0.477010 1.195234 0.071066 -0.001799 -720201.000000 0 0 1
31.117960 -15.212997 13.052404 37.015239 -0.454713 1.210424 0.076974 0.000065 -1060710.000000 0 0 1
31.791160 -15.380897 14.304404 38.103357 -0.450612 1.185957 0.087149 -0.002776 1506130.000000 0 0 1
33.367760 -15.238397 14.170004 39.324358 -0.428395 1.202168 0.079308 -0.010412 1323330.000000 0 0 1
33.833360 -13.952097 13.846404 39.129019 -0.391130 1.209096 0.073215 -0.008829 -472852.000000 0 0 1
35.176660 -13.883997 13.490304 40.151601 -0.375923 1.228146 0.064376 -0.014506 -367536.000000 0 0 1
35.877160 -12.490997 13.674104 40.375447 -0.335035 1.225289 0.052925 -0.013424 389573.000000 0 0 1
-34.984564 -12.317897 12.862804 39.256872 0.338540 1.236973 0.059427 -0.009493 760541.000000 0 0 1
-34.325064 -11.036897 13.030904 38.338330 0.311100 1.223994 0.058600 -0.004939 980941.000000 0 0 1
-33.110964 -10.791097 12.040704 36.847825 0.315052 1.237914 0.052981 -0.004194 284513.000000 0 0 1
-32.016164 -11.640397 12.085604 36.146859 0.348720 1.229884 0.036922 0.000065 -362807.000000 0 0 1
-32.180864 -13.028597 11.719404 36.642827 0.384685 1.245248 0.029445 0.000018 -526605.000000 0 0 1
-31.008564 -13.918797 12.192004 36.109678 0.421913 1.226390 0.011897 0.003668 -161493.000000 0 0 1
-29.789264 -13.837897 11.517404 34.807157 0.434868 1.233548 0.019978 0.000086 -306108.000000 0 0 1
-29.003664 -14.977497 11.917804 34.750136 0.476681 1.220733 0.010490 0.003101 -115715.000000 0 0 1
-27.588364 -15.045297 11.348104 33.410451 0.499266 1.224244 0.018495 0.012883 -357904.000000 0 0 1
-27.640464 -15.199997 9.975504 33.083921 0.502780 1.264509 0.015396 0.016429 -91819.800000 0 0 1
-26.366164 -15.153897 9.379004 31.824219 0.521645 1.271641 0.013522 0.020576 -170106.000000 0 0 1
-26.214864 -14.636197 7.912404 31.049049 0.509206 1.313119 0.043296 0.021522 -64444.100000 0 0 1
-26.489364 -15.659997 6.948704 31.546892 0.533909 1.348709 0.042668 0.021826 194935.000000 0 0 1
-26.268464 -15.289597 5.590404 30.903990 0.527117 1.388899 0.043378 0.018999 -144920.000000 0 0 1
-26.509564 -16.367397 4.553904 31.486294 0.553126 1.425656 0.040831 0.012687 -188294.000000 0 0 1
-27.869164 -16.700697 4.413104 32.788398 0.539871 1.435793 0.038365 0.003758 -91460.200000 0 0 1
-28.039364 -17.397197 3.197804 33.152591 0.555325 1.474189 0.046747 -0.008922 -548935.000000 0 0 1
-29.338964 -18.185897 3.212504 34.667302 0.554891 1.477997 0.051580 -0.013751 -119680.000000 0 0 1
-30.477264 -17.323797 3.060004 35.190072 0.516873 1.483730 0.050654 -0.011732 331495.000000 0 0 1
-31.657664 -18.046597 3.360604 36.594822 0.518110 1.478834 0.048931 -0.015666 103493.000000 0 0 1
-32.940564 -17.313397 2.918804 37.327655 0.483913 1.492522 0.060386 -0.011961 44072.400000 0 0 1
-33.069364 -17.353397 1.501104 37.376149 0.483257 1.530623 0.058223 -0.015795 -661672.000000 0 0 1
-34.145664 -16.573297 1.120604 37.971783 0.451876 1.541281 0.085657 -0.021252 -692158.000000 0 0 1
-34.665964 -17.070197 -0.254596 38.641758 0.457565 1.577385 0.072000 -0.023925 -202448.000000 0 0 1
-33.781764 -16.863597 -1.355496 37.781289 0.463001 1.606681 0.074794 -0.025586 155825.000000 0 0 1
-34.117764 -17.707597 -2.445596 38.517032 0.478743 1.634333 0.057223 -0.023112 -407414.000000 0 0 1
-32.966264 -18.323897 -3.253796 37.856663 0.507314 1.656853 0.048154 -0.023453 -414464.000000 0 0 1
-33.414164 -19.226097 -4.217096 38.780576 0.522126 1.679754 0.046060 -0.030507 -627937.000000 0 0 1
-32.371564 -19.927497 -4.765296 38.310982 0.551801 1.695504 0.047224 -0.023689 -1190100.000000 0 0 1
-32.771264 -21.104197 -5.669596 39.388922 0.572135 1.715237 0.060302 -0.023052 -289857.000000 0 0 1
-33.255564 -22.193597 -4.944696 40.285708 0.588486 1.693847 0.065279 -0.033173 -153266.000000 0 0 1
-33.785664 -23.095197 -5.863896 41.343010 0.599620 1.713111 0.052213 -0.017167 -25703.400000 0 0 1
-34.304964 -24.435897 -5.202096 42.438254 0.618942 1.693686 0.044419 -0.018876 679627.000000 0 0 1
-33.253564 -25.297497 -4.713896 42.047398 0.650343 1.683142 0.046625 -0.013668 442013.000000 0 0 1
-33.780564 -26.596097 -4.653796 43.245077 0.666961 1.678620 0.042293 -0.010045 -151499.000000 0 0 1
-32.759764 -27.589797 -4.154796 43.030935 0.699940 1.667501 0.031490 -0.006804 -923111.000000 0 0 1
-31.797764 -27.871997 -5.158396 42.597594 0.719701 1.692190 0.017985 0.002045 698017.000000 0 0 1
-30.829264 -28.855097 -4.718896 42.489153 0.752333 1.682087 0.009324 0.008410 1337710.000000 0 0 1
-29.798464 -28.595197 -3.523596 41.449360 0.764795 1.655909 0.007398 0.003955 142747.000000 0 0 1
-30.429464 -28.476297 -2.259496 41.736759 0.752253 1.624960 0.020671 0.003313 371874.000000 0 0 1
-29.471764 -28.424997 -1.202596 40.963539 0.767320 1.600158 0.021454 -0.000312 130069.000000 0 0 1
-30.180064 -28.150897 0.112304 41.271320 0.750625 1.568075 0.032318 0.003017 -76075.100000 0 0 1
-30.766564 -29.324697 0.558104 42.506832 0.761408 1.557666 0.025265 0.002681 325856.000000 0 0 1
-31.652364 -29.148697 1.696604 43.062711 0.744243 1.531388 0.029301 0.001634 365878.000000 0 0 1
-32.266364 -30.487297 2.157104 44.443746 0.757056 1.522242 0.008089 0.003964 10781.700000 0 0 1
-33.375064 -30.332397 3.073204 45.203913 0.737674 1.502759 0.006844 -0.000570 667732.000000 0 0 1
-33.771764 -31.519197 3.716604 46.344416 0.750911 1.490515 0.015236 0.005157 167337.000000 0 0 1
-34.805564 -32.298897 2.839804 47.567957 0.748061 1.511061 0.011388 0.006540 -369259.000000 0 0 1
-35.234764 -33.528297 3.329304 48.751610 0.760587 1.502452 0.013821 0.011765 -61390.900000 0 0 1
35.837760 -34.170097 2.507804 49.580537 -0.761582 1.520194 0.016988 0.013721 -408673.000000 0 0 1
34.787060 33.670386 3.314204 48.526471 0.769088 1.502446 0.017325 0.010576 99452.100000 0 0 1
33.979560 -34.312697 4.252004 48.477326 -0.790276 1.482972 0.000348 0.005301 1019790.000000 0 0 1
33.251160 -33.130597 3.818204 47.094105 -0.783582 1.489631 0.001567 0.007055 -652267.000000 0 0 1
32.140460 -33.249697 2.784904 46.328255 -0.802360 1.510648 0.031369 -0.004589 -931824.000000 0 0 1
32.531160 -33.586797 1.498004 46.782404 -0.801363 1.538770 0.037156 -0.004725 -554369.000000 0 0 1
31.602960 -33.200697 0.520704 45.839988 -0.810048 1.559437 0.054373 -0.010302 -935392.000000 0 0 1
31.916960 -33.689697 -0.907596 46.416718 -0.812412 1.590351 0.058913 -0.014276 829719.000000 0 0 1
33.128360 -33.308097 -1.580996 47.004437 -0.788104 1.604438 0.038748 -0.008555 597661.000000 0 0 1
34.396260 -33.438397 -0.986896 47.981278 -0.771279 1.591366 0.021267 0.003201 -454088.000000 0 0 1
35.566760 -33.212497 -1.942796 48.701528 -0.751182 1.610699 0.017004 -0.000193 -330918.000000 0 0 1
35.904960 34.311786 -2.612196 49.732166 0.762713 1.623346 0.011983 -0.006931 122449.000000 0 0 1
-35.017164 -34.086397 -3.423996 48.987835 0.771930 1.640748 0.011317 -0.005683 -613910.000000 0 0 1
-34.405064 33.527186 -4.291196 48.230643 -0.772476 1.659887 0.016656 -0.007190 -801870.000000 0 0 1
-33.406964 32.782986 -3.675796 46.949557 -0.775971 1.649169 0.007489 -0.001498 -507309.000000 0 0 1
-32.874564 31.919186 -4.623996 46.053802 -0.770654 1.671370 0.012806 -0.005027 493264.000000 0 0 1
-31.611664 31.057886 -4.203596 44.514714 -0.776562 1.665369 0.020282 -0.009816 364911.000000 0 0 1
-30.515464 31.914286 -3.993996 44.335845 -0.807801 1.661004 0.015544 -0.003349 -360882.000000 0 0 1
-29.302964 31.260086 -3.705096 43.006795 -0.817702 1.657055 0.032483 -0.021737 220893.000000 0 0 1
-29.064564 31.017286 -2.187996 42.562991 -0.817888 1.622225 0.029672 -0.013126 145629.000000 0 0 1
-30.030464 30.124886 -1.594496 42.566183 -0.786968 1.608264 0.045518 -0.012354 309908.000000 0 0 1
-29.874264 30.069386 -0.214796 42.387330 -0.788653 1.575864 0.037365 -0.004795 350445.000000 0 0 1
-31.168664 29.581286 0.524604 42.974565 -0.759274 1.558589 0.029215 0.001409 370914.000000 0 0 1
-31.647264 28.292586 0.238704 42.450874 -0.729489 1.565173 0.046692 -0.001513 19412.800000 0 0 1
-32.742964 28.322186 -0.655796 43.297551 -0.713130 1.585943 0.050598 -0.003189 19322.100000 0 0 1
-33.171364 26.963186 -1.287196 42.766922 -0.682524 1.600899 0.058142 -0.004016 222528.000000 0 0 1
-33.617664 25.975386 -0.358496 42.485250 -0.657853 1.579235 0.056774 0.001072 149669.000000 0 0 1
-33.842064 24.660086 -0.925596 41.883909 -0.629717 1.592897 0.069541 0.001981 -211658.000000 0 0 1
-33.910864 23.411586 0.057604 41.207431 -0.604244 1.569398 0.065643 -0.000645 -1210720.000000 0 0 1
-32.737064 23.058186 0.647404 40.047652 -0.613636 1.554630 0.085249 -0.013325 -1106730.000000 0 0 1
-32.358164 23.829186 1.792804 40.225552 -0.634753 1.526213 0.077561 -0.015893 847529.000000 0 0 1
-30.813164 23.720086 2.125404 38.943688 -0.656055 1.516193 0.080671 -0.028033 1805060.000000 0 0 1
-29.817864 24.459586 1.393904 38.591700 -0.686997 1.534669 0.083255 -0.022687 649243.000000 0 0 1
-29.651164 25.758386 1.797204 39.318137 -0.715259 1.525071 0.053058 -0.017622 -63000.400000 0 0 1
-28.925264 26.691186 0.771604 39.366047 -0.745250 1.551194 0.052650 -0.015853 521600.000000 0 0 1
-27.537664 26.409486 0.618204 38.159744 -0.764489 1.554595 0.058636 -0.023545 265730.000000 0 0 1
-26.993864 27.274886 -0.403796 38.376440 -0.790576 1.581319 0.061887 -0.021374 1054030.000000 0 0 1
-25.641864 26.675586 -0.962396 37.013758 -0.805154 1.596800 0.061081 -0.023958 498823.000000 0 0 1
-25.796764 25.524486 -1.786996 36.334085 -0.780093 1.619999 0.085876 -0.030644 -495654.000000 0 0 1
-24.632364 25.043686 -2.387696 35.208531 -0.793678 1.638664 0.071026 -0.027314 -359678.000000 0 0 1
-23.750064 24.021186 -1.687196 33.822027 -0.791074 1.620702 0.053225 -0.024370 -89037.200000 0 0 1
-24.277464 22.701286 -1.513096 33.272107 -0.751860 1.616288 0.064942 -0.021317 472983.000000 0 0 1
-23.297764 21.900686 -0.815996 31.985804 -0.754498 1.596310 0.045962 -0.024640 46192.200000 0 0 1
-23.859764 20.468686 -0.444696 31.439675 -0.709048 1.584941 0.045764 -0.019733 765102.000000 0 0 1
-24.872864 20.409486 0.609904 32.180405 -0.687148 1.551843 0.050553 -0.024792 1498940.000000 0 0 1
-26.148264 21.021286 0.436804 33.553196 -0.677131 1.557778 0.044877 -0.022072 377839.000000 0 0 1
-27.056764 20.616686 -0.734796 34.024346 -0.651124 1.592394 0.051343 -0.027711 -477219.000000 0 0 1
-27.460664 19.237086 -0.773196 33.537313 -0.611083 1.593853 0.053367 -0.020979 415675.000000 0 0 1
-28.520064 19.046586 -1.704196 34.337600 -0.588808 1.620447 0.062755 -0.023737 40118.900000 0 0 1
-28.979964 17.584486 -1.693196 33.939937 -0.545390 1.620705 0.044433 -0.001538 8818.250000 0 0 1
-29.676264 17.187686 -0.502996 34.297962 -0.524965 1.585462 0.051209 -0.007130 547468.000000 0 0 1
-29.861064 15.755686 -0.521196 33.766794 -0.485509 1.586232 0.054624 -0.013024 -167765.000000 0 0 1
-28.669264 14.970686 0.051904 32.342709 -0.481238 1.569192 0.071447 -0.008367 -360305.000000 0 0 1
-28.692464 15.001986 1.465904 32.410892 -0.481764 1.525552 0.078137 -0.007787 860867.000000 0 0 1
-27.510364 14.512286 2.134204 31.176616 -0.485421 1.502287 0.081453 -0.007529 302397.000000 0 0 1
-27.237764 12.962486 2.148504 30.241327 -0.444183 1.499691 0.092536 -0.007436 -114664.000000 0 0 1
-27.059564 12.401386 0.870604 29.778722 -0.429734 1.541556 0.090183 -0.009471 326173.000000 0 0 1
-26.865864 11.027986 0.946104 29.056604 -0.389511 1.538230 0.128245 -0.015577 -41092.600000 0 0 1
-26.586564 10.215786 -0.365096 28.484047 -0.366852 1.583614 0.123055 -0.014292 162626.000000 0 0 1
-27.754864 9.976686 -1.130496 29.515161 -0.345075 1.609108 0.102319 -0.012678 427657.000000 0 0 1
-27.387464 9.292786 -2.320196 29.014003 -0.327118 1.650850 0.102018 -0.020413 237367.000000 0 0 1
-28.652164 8.886986 -3.109996 30.159527 -0.300759 1.674098 0.096141 -0.019952 103695.000000 0 0 1
-28.392164 8.173886 -4.289796 29.855146 -0.280312 1.714982 0.095807 -0.016982 -835890.000000 0 0 1
-29.556264 7.950186 -4.970196 31.007758 -0.262765 1.731780 0.069002 -0.023976 -930314.000000 0 0 1
-11.654240 18.254186 -19.835796 29.368273 -1.002589 2.312325 0.056770 -0.001019 278766.000000 0 0 1
-11.896040 17.485686 -20.932296 29.756109 -0.973394 2.351053 0.023711 0.004572 315276.000000 0 0 1
-10.732240 17.531286 -21.784196 29.951263 -1.021472 2.385207 0.027586 0.000648 670318.000000 0 0 1
-10.790240 16.384386 -22.860496 30.124403 -0.988421 2.432372 0.020561 0.002184 17878.400000 0 0 1
-10.194640 15.197286 -22.383596 28.912170 -0.979924 2.456235 0.026042 0.005862 -64940.800000 0 0 1
-10.242240 14.161186 -23.347696 29.164321 -0.944629 2.499020 0.011186 0.007951 -37220.500000 0 0 1
-9.548240 12.866186 -22.865496 27.920218 -0.932358 2.530390 0.006893 0.005918 -637131.000000 0 0 1
-8.168940 12.854686 -23.050896 27.628217 -1.004694 2.557703 0.012134 0.004249 -701744.000000 0 0 1
-7.727440 11.640386 -22.409696 26.408453 -0.984748 2.584093 0.010654 0.004606 973014.000000 0 0 1
-6.173440 11.488986 -22.243896 25.785637 -1.077728 2.611276 0.019836 0.002527 1220670.000000 0 0 1
-5.418840 11.241986 -23.422696 26.539947 -1.121637 2.652044 0.009470 -0.000772 -734252.000000 0 0 1
-4.042040 11.360686 -23.329096 26.261188 -1.228971 2.664533 0.019581 -0.001533 -359921.000000 0 0 1
-3.274440 11.087386 -24.654596 27.230520 -1.283629 2.703125 0.036321 -0.009306 -419149.000000 0 0 1
-3.434640 9.751786 -24.966996 27.023046 -1.232157 2.748986 0.031758 -0.011704 41588.400000 0 0 1
-2.873240 9.414186 -26.224986 28.011289 -1.274573 2.782537 0.034500 -0.016055 -402172.000000 0 0 1
-2.432440 7.891286 -26.362316 27.625367 -1.271794 2.838036 0.046192 -0.010683 772515.000000 0 0 1
-1.079740 7.591786 -25.972726 27.081055 -1.429519 2.854509 0.047149 -0.014305 843192.000000 0 0 1
-0.811740 6.217086 -25.740816 26.493409 -1.440965 2.902669 0.056867 -0.016191 -401800.000000 0 0 1
0.499860 5.735486 -25.119966 25.771270 1.483864 2.916294 0.039669 -0.013363 -369059.000000 0 0 1
0.530260 5.850486 -23.708496 24.425441 1.480408 2.898705 0.024796 -0.017325 -121384.000000 0 1 0
1.707660 5.549986 -22.989796 23.711794 1.272302 2.894187 0.032026 -0.012376 6853.400000 0 1 0
1.779560 6.233186 -21.636996 22.587143 1.292697 2.850512 0.035009 -0.011594 149353.000000 0 1 0
2.069060 7.600686 -21.723196 23.107330 1.305016 2.793719 0.010799 -0.012668 -122963.000000 0 1 0
2.231760 8.169386 -20.425496 22.111547 1.304118 2.748550 0.026063 -0.015573 59820.300000 0 1 0
2.764060 9.655786 -20.363396 22.705553 1.291993 2.683384 0.019807 -0.015982 33577.100000 0 1 0
2.933560 10.217486 -19.087996 21.848441 1.291205 2.633461 0.034008 -0.028160 -236859.000000 0 1 0
3.447560 11.506186 -19.143696 22.599980 1.279682 2.581239 0.042855 -0.019155 -615340.000000 0 1 0
4.731260 11.566586 -18.336696 22.190204 1.182517 2.543377 0.033678 -0.033223 -892354.000000 0 1 0
5.835360 11.061986 -19.021896 22.765138 1.085380 2.559968 0.035579 -0.018647 -521789.000000 0 1 0
6.848060 10.729186 -18.073396 22.105633 1.002715 2.528013 0.035462 -0.021711 425399.000000 0 1 0
7.951460 9.763686 -18.634396 22.489909 0.887342 2.547340 0.045605 -0.027703 139919.000000 0 1 0
7.593760 8.411786 -18.968096 22.095520 0.836463 2.603054 0.036718 -0.015845 53721.200000 0 1 0
6.910260 8.212386 -20.230696 22.901442 0.871291 2.653824 0.034133 -0.004462 244715.000000 0 1 0
6.478860 6.752286 -20.337896 22.387474 0.806061 2.710357 0.028810 -0.005576 211578.000000 0 1 0
7.573460 5.828186 -20.335396 22.468943 0.655899 2.702281 0.030454 -0.007676 240142.000000 0 1 0
7.241360 4.438086 -20.550596 22.236477 0.549836 2.749690 0.031129 -0.014429 -126042.000000 0 1 0
7.373560 3.972586 -21.995896 23.536573 0.494173 2.777764 0.040148 -0.025026 -398167.000000 0 1 0
6.373760 4.626986 -22.712196 24.039086 0.627926 2.807789 0.039619 -0.022131 -243003.000000 0 1 0
6.624460 4.545386 -24.130296 25.432562 0.601371 2.820197 0.034361 -0.020578 -208564.000000 0 0 1
5.572760 5.317486 -24.912996 26.076593 0.761962 2.841732 0.018098 -0.022986 -269006.000000 0 0 1
5.845360 6.703886 -25.122236 26.650273 0.853704 2.801319 0.015724 -0.027834 184600.000000 0 0 1
5.397760 7.486286 -23.996596 25.710249 0.946102 2.774424 0.043740 -0.030075 -629456.000000 0 0 1
5.155660 8.920286 -24.408296 26.493721 1.046733 2.742171 0.049660 -0.030138 267337.000000 0 0 1
3.944660 9.189486 -25.096246 27.015340 1.165325 2.762397 0.061003 -0.024578 562350.000000 0 0 1
2.816360 9.336886 -24.227496 26.116679 1.277837 2.758903 0.049784 -0.024986 1292300.000000 0 0 1
1.433860 9.625386 -24.972196 26.801392 1.422917 2.769999 0.047707 -0.014090 1173250.000000 0 0 1
1.327760 10.972886 -25.383096 27.685172 1.450378 2.730909 0.065786 -0.024603 392163.000000 0 0 1
0.091860 11.146286 -26.067326 28.350549 1.562555 2.737513 0.078255 -0.031706 -440313.000000 0 0 1
-0.167140 12.630486 -26.472146 29.331410 -1.557564 2.696379 0.075474 -0.031906 -117498.000000 0 0 1
-0.472040 13.555786 -25.373556 28.771505 -1.535988 2.650671 0.070725 -0.032744 88999.400000 0 0 1
-0.479640 14.902686 -25.833076 29.827302 -1.538623 2.618120 0.065116 -0.038899 -244608.000000 0 0 1
-1.000840 15.938486 -24.788396 29.487313 -1.508085 2.569272 0.067502 -0.030035 581068.000000 0 0 1
-2.308340 15.515186 -24.374796 28.985861 -1.423100 2.569778 0.055125 -0.019906 281189.000000 0 0 1
-2.536540 16.082986 -23.099296 28.260820 -1.414369 2.527612 0.056972 -0.026200 -466489.000000 0 0 1
-3.797940 15.488186 -22.469096 27.553013 -1.330326 2.524365 0.057060 -0.026982 429071.000000 0 0 1
-5.088240 15.801586 -22.981296 28.349961 -1.259273 2.516022 0.051440 -0.021869 444638.000000 0 0 1
-5.464040 15.290086 -24.296796 29.222881 -1.227581 2.552474 0.041666 -0.023166 10728.600000 0 0 1
-6.908240 15.486486 -24.836596 30.073436 -1.151206 2.542531 0.025537 -0.017970 288467.000000 0 0 1
-7.285540 16.814086 -25.180316 31.142269 -1.161917 2.512493 0.023874 -0.020288 87740.200000 0 0 1
-8.569640 16.809486 -25.783166 31.949479 -1.099332 2.509847 0.014805 -0.002382 -76120.100000 0 0 1
-9.147540 18.165086 -26.096286 33.085707 -1.104290 2.479566 0.011836 -0.000082 -293026.000000 0 0 1
-9.491340 18.910386 -24.921796 32.692265 -1.105621 2.437679 0.012566 -0.006084 403969.000000 0 0 1
-10.578240 19.789186 -25.232486 33.766691 -1.079895 2.414725 0.009286 -0.003511 537488.000000 0 0 1
-10.999240 20.677186 -24.030296 33.555692 -1.081916 2.369041 0.001684 -0.005034 -373547.000000 0 0 1
-10.388340 21.873986 -23.864396 33.998504 -1.127415 2.348893 0.014121 -0.001953 -425691.000000 0 0 1
-11.041640 22.926186 -24.525096 35.341310 -1.121963 2.337757 0.015044 -0.015684 -177536.000000 0 0 1
-10.531340 23.310286 -25.966026 36.448773 -1.146455 2.363705 0.031776 -0.011292 -390626.000000 0 0 1
-10.901840 22.483586 -26.986036 36.777818 -1.119318 2.394634 0.025836 -0.014690 25474.900000 0 0 1
-10.701140 23.042286 -28.282276 38.017739 -1.136021 2.409718 0.046432 -0.010055 -323587.000000 0 0 1
-11.332540 22.188486 -29.371226 38.515248 -1.098594 2.438099 0.051913 -0.014420 -113990.000000 0 0 1
-10.553340 21.087786 -29.836766 38.030255 -1.106790 2.472772 0.024970 -0.014613 71418.500000 0 0 1
-10.360940 19.971986 -28.938926 36.656388 -1.092243 2.480733 0.012439 -0.008893 3770.860000 0 0 1
-9.411740 18.935586 -29.556346 36.341641 -1.109520 2.520583 0.010733 -0.013061 927722.000000 0 0 1
-8.006140 19.266186 -29.496546 36.129357 -1.176954 2.525972 0.015821 -0.017934 1336990.000000 0 0 1
-7.045940 18.314786 -29.972526 35.824977 -1.203537 2.561912 0.021658 -0.015502 460913.000000 0 0 1
-6.887240 16.977586 -29.199936 34.471855 -1.185414 2.581237 0.021147 -0.018178 -1233750.000000 0 0 1
-7.946340 16.095286 -29.392266 34.439917 -1.112197 2.593339 0.005982 -0.013133 -220727.000000 0 0 1
-7.708940 14.844586 -28.843716 33.342907 -1.091820 2.616072 -0.009169 -0.008773 -360981.000000 0 0 1
-9.088040 14.184886 -28.808226 33.372404 -1.000997 2.612440 -0.005052 0.003689 -427170.000000 0 0 1
-9.975940 14.806486 -27.964416 33.177703 -0.977903 2.573387 0.004977 0.004727 -1293090.000000 0 0 1
-11.230540 14.211486 -27.875796 33.243817 -0.902033 2.565368 0.031218 -0.002601 -116459.000000 0 0 1
-12.010640 14.882286 -26.705666 32.847078 -0.891776 2.520134 0.028760 0.000320 81032.500000 0 0 1
-12.534140 16.158486 -27.055716 33.914792 -0.911049 2.494360 0.016464 0.001037 -709792.000000 0 0 1
-13.382140 16.561186 -26.046426 33.641803 -0.891171 2.456291 0.009201 0.003344 -290295.000000 0 0 1
-14.328640 17.691686 -26.525316 34.955659 -0.890043 2.432307 -0.007459 0.004391 196613.000000 0 0 1
-13.703940 18.972786 -26.755336 35.547329 -0.945264 2.422901 -0.005373 -0.001805 304644.000000 0 0 1
-14.675840 19.844286 -27.268826 36.779952 -0.934017 2.405957 0.000419 -0.009613 -276306.000000 0 0 1
-14.193340 21.246486 -27.179596 37.304082 -0.981849 2.387066 0.005247 -0.006068 -7875.970000 0 0 1
-15.214940 22.143986 -27.566966 38.494002 -0.968787 2.369048 0.010830 -0.017788 598395.000000 0 0 1
-14.730140 23.549786 -27.636376 39.183399 -1.011845 2.353654 0.023767 -0.016257 171134.000000 0 0 1
-14.380540 24.227386 -26.269346 38.520705 -1.035122 2.321227 -0.003283 -0.010335 -86637.500000 0 0 1
-14.092840 25.607286 -26.439396 39.412979 -1.067688 2.306123 0.025273 -0.018904 75420.000000 0 0 1
-13.667240 26.176286 -25.187596 38.812452 -1.089607 2.277009 0.040351 -0.026033 -302571.000000 0 0 1
-13.520940 27.731986 -25.221406 39.849695 -1.117152 2.256107 0.078317 -0.027652 -483232.000000 0 0 1
-14.657340 28.389286 -25.658816 40.977604 -1.094195 2.247423 0.075881 -0.033295 -526338.000000 0 0 1
-15.341540 29.089086 -24.623996 41.083804 -1.085471 2.213498 0.066733 -0.033044 750400.000000 0 0 1
-16.843640 29.453186 -24.857296 42.060475 -1.051311 2.203081 0.056093 -0.030618 769013.000000 0 0 1
-17.723340 28.350586 -24.888696 41.681167 -1.012090 2.210703 0.040517 -0.028304 -738663.000000 0 0 1
-18.987840 28.736986 -25.348686 42.765738 -0.986904 2.205245 0.021577 -0.017000 -512375.000000 0 0 1
-20.005940 27.594386 -25.196256 42.385600 -0.943488 2.207382 0.001285 -0.011155 -529932.000000 0 0 1
-20.270540 27.528286 -23.849796 41.683499 -0.936087 2.179938 0.022356 -0.019848 -170112.000000 0 0 1
-21.031340 26.323786 -23.670596 41.177131 -0.896697 2.183215 0.036324 -0.022482 138697.000000 0 0 1
-21.707940 26.406886 -22.283196 40.805626 -0.882751 2.148476 0.036594 -0.017865 225453.000000 0 0 1
-22.879740 27.209686 -22.169296 41.896625 -0.871628 2.128386 0.025652 -0.013812 94992.900000 0 0 1
-23.162540 27.733386 -20.898596 41.742009 -0.874966 2.095159 0.013616 -0.007427 -531187.000000 0 0 1
-24.445140 28.567486 -20.864796 43.000068 -0.863004 2.077419 0.000009 0.000696 -339114.000000 0 0 1
-25.566930 27.731186 -20.975396 43.158474 -0.825982 2.078313 -0.007878 -0.004822 -185780.000000 0 0 1
-26.767730 28.499486 -21.050596 44.405627 -0.816722 2.064684 0.013476 -0.001472 1089490.000000 0 0 1
-28.015200 27.620786 -21.452596 44.810413 -0.778309 2.070017 0.012753 -0.005065 493478.000000 0 0 1
-28.063460 27.241686 -22.816796 45.279945 -0.770540 2.098910 0.003263 0.001370 47165.400000 0 0 1
-29.349490 26.819586 -23.234696 46.049255 -0.740388 2.099671 -0.004285 0.005242 274772.000000 0 0 1
-29.363810 26.467986 -24.720896 46.625212 -0.733578 2.129638 -0.006273 0.017168 -253783.000000 0 0 1
-28.762900 25.238386 -25.015096 45.716907 -0.720223 2.149780 0.006475 0.016871 -183937.000000 0 0 1
-28.955440 25.019186 -26.398236 46.489182 -0.712599 2.174671 0.018155 0.016937 -78089.300000 0 0 1
-29.016810 23.518386 -26.734106 45.932583 -0.681116 2.192018 0.019662 0.014447 -524472.000000 0 0 1
-27.814300 22.825686 -26.560326 44.722457 -0.687204 2.206685 0.024711 0.009504 -222779.000000 0 0 1
-27.913230 21.500386 -27.094876 44.447130 -0.656341 2.226350 0.041228 -0.003640 -885386.000000 0 0 1
-26.822010 20.573086 -26.676346 43.061579 -0.654307 2.238893 0.048926 -0.003853 -865737.000000 0 0 1
-26.917740 20.038986 -25.394236 42.083167 -0.639941 2.218592 0.046486 0.002436 -53304.400000 0 0 1
-26.275470 18.798186 -25.197526 40.971789 -0.621005 2.233178 0.056202 -0.001943 -193978.000000 0 0 1
-27.184850 17.551886 -25.271356 41.057597 -0.573311 2.233829 0.044132 -0.002427 -220894.000000 0 0 1
-27.895610 17.454086 -26.460716 42.225344 -0.559097 2.248050 0.047035 -0.003941 -112013.000000 0 0 1
-28.358000 16.129086 -26.633296 42.114796 -0.517137 2.255441 0.034374 -0.003946 -292331.000000 0 0 1
-29.146240 16.057786 -27.953056 43.459512 -0.503563 2.269463 0.037513 -0.002880 -498957.000000 0 0 1
-30.409360 16.650386 -27.893366 44.497241 -0.500954 2.248308 0.031902 -0.011764 -177524.000000 0 0 1
-31.207710 16.160886 -28.965636 45.542327 -0.477825 2.260120 0.043931 -0.010752 982630.000000 0 0 1
-32.668300 16.708786 -29.148576 46.861934 -0.472780 2.242103 0.045198 -0.013406 899708.000000 0 0 1
-33.653570 16.210686 -28.249926 46.833828 -0.448895 2.218297 0.030271 -0.006193 531417.000000 0 0 1
-34.874238 16.865186 -28.616366 48.161638 -0.450442 2.207034 0.035931 -0.007476 721899.000000 0 0 1
35.965723 16.652086 -27.626226 48.311837 0.433611 2.179533 0.030200 0.007249 211872.000000 0 0 1
35.758113 17.765786 -26.798006 48.087409 0.461110 2.161899 0.033251 -0.002649 -113320.000000 0 0 1
34.644783 17.440186 -26.006486 46.698591 0.466364 2.161446 0.042426 -0.003356 -312723.000000 0 0 1
34.203803 18.562486 -25.108066 46.312860 0.497223 2.143778 0.045482 -0.005396 -288584.000000 0 0 1
33.409763 19.467886 -25.827506 46.500225 0.527602 2.159673 0.047671 -0.019119 -109782.000000 0 0 1
32.958473 20.433886 -24.929396 46.100753 0.554988 2.142135 0.050653 -0.017101 -625017.000000 0 0 1
32.143393 21.588886 -25.601026 46.418641 0.591440 2.154987 0.058550 -0.030132 634333.000000 0 0 1
30.813323 21.331086 -26.022846 45.625263 0.605518 2.177741 0.049243 -0.027187 -114307.000000 0 0 1
29.898443 21.277586 -24.972196 44.387646 0.618510 2.168316 0.043899 -0.023144 -2245820.000000 0 0 1
28.489933 21.175786 -25.421816 43.661870 0.639182 2.192281 0.015975 -0.018112 -1499390.000000 0 0 1
28.137013 19.892686 -25.912766 43.114753 0.615404 2.215571 0.016850 -0.022233 -245806.000000 0 0 1
27.094303 20.047086 -26.855976 43.095596 0.637006 2.243589 0.010381 -0.017423 -209614.000000 0 0 1
26.460383 18.685186 -27.285236 42.352947 0.614846 2.270819 0.030406 -0.010427 -377155.000000 0 0 1
27.316333 17.701286 -27.810396 42.812798 0.574976 2.277830 0.022851 -0.013771 -156049.000000 0 0 1
28.144393 17.116986 -26.798796 42.464968 0.546416 2.253741 0.021398 -0.006953 -404049.000000 0 0 1
28.992333 16.065686 -27.513296 43.077176 0.506013 2.263601 -0.000563 0.010044 -692699.000000 0 0 1
28.465123 14.844186 -28.002126 42.599673 0.480689 2.288069 0.002986 0.010461 -284461.000000 0 0 1
27.994273 13.837386 -27.141626 41.374152 0.459072 2.286309 0.017789 0.000425 -301793.000000 0 0 1
28.947973 13.062486 -26.196296 41.168673 0.423885 2.260510 0.014725 -0.005905 -168756.000000 0 0 1
29.425203 13.767786 -25.050196 41.023247 0.437632 2.227657 0.026839 -0.016188 -253068.000000 0 0 1
30.378733 13.028686 -24.342896 41.051074 0.405148 2.205564 0.022135 -0.018217 -383848.000000 0 0 1
-14.066740 -31.622597 -24.546496 42.431030 1.152248 2.187689 0.083311 -0.016899 73656.200000 0 0 1
-13.400340 -30.485497 -25.064596 41.679355 1.156654 2.216008 0.065939 -0.015218 -62038.500000 0 0 1
-13.994340 -29.938497 -26.234046 42.194554 1.133537 2.241759 0.053344 -0.013474 -46360.300000 0 0 1
-13.296040 -28.635997 -26.713536 41.357200 1.136104 2.273027 0.050510 -0.011593 -156743.000000 0 0 1
-13.672040 -27.442997 -25.994916 40.196747 1.108592 2.274036 0.051069 -0.013252 28438.200000 0 0 1
-13.240040 -26.329497 -26.717906 39.779236 1.104864 2.307236 0.042291 -0.005256 -407115.000000 0 0 1
-13.651040 -25.026597 -26.076006 38.634694 1.071444 2.311676 0.021750 -0.004576 -74017.600000 0 0 1
-12.990640 -24.705597 -24.859896 37.378305 1.086709 2.298409 0.023748 -0.008894 138216.000000 0 0 1
-13.578440 -23.495197 -24.385796 36.483769 1.046767 2.302854 0.020934 0.000157 -58794.900000 0 0 1
-13.191640 -22.949397 -22.931696 35.022234 1.049102 2.284682 0.019435 0.004550 444723.000000 0 0 1
-11.807440 -22.615497 -22.904596 34.285520 1.089629 2.302388 0.028525 -0.005563 253038.000000 0 0 1
-11.421940 -21.932697 -21.719796 32.912816 1.090669 2.291507 0.021264 0.001729 -410225.000000 0 0 1
-9.924740 -21.659597 -21.682996 32.214763 1.141132 2.309157 0.037564 -0.003946 -544019.000000 0 0 1
-9.538840 -20.614497 -22.498796 31.970968 1.137411 2.351424 0.043250 -0.004064 669078.000000 0 0 1
-8.121840 -20.511397 -22.700796 31.654508 1.193771 2.370490 0.060169 -0.004603 832336.000000 0 0 1
-7.713940 -19.373397 -23.707096 31.573087 1.191867 2.420166 0.061922 0.009439 -10635.000000 0 0 1
-7.701740 -18.090397 -23.081596 30.320609 1.168302 2.436037 0.050208 0.003989 -47213.700000 0 0 1
-8.064840 -16.994797 -23.898696 30.414017 1.127717 2.474751 0.041688 -0.002831 280961.000000 0 0 1
-6.934440 -16.403097 -24.812696 30.542069 1.170831 2.519071 0.048068 0.000151 341187.000000 0 0 1
-6.596440 -17.209797 -25.928496 31.811587 1.204773 2.523637 0.044559 -0.006777 61492.000000 0 0 1
-5.579840 -16.566597 -26.673436 31.891362 1.245918 2.561450 0.029682 -0.004173 -146220.000000 0 0 1
-5.315040 -17.127297 -28.103086 33.337328 1.269894 2.573617 0.039270 -0.008098 -247514.000000 0 0 1
-6.377440 -17.018097 -29.054846 34.270563 1.212250 2.582634 0.049019 -0.008887 338806.000000 0 0 1
-6.322740 -18.032797 -30.028766 35.593337 1.233565 2.574865 0.048373 -0.019132 660371.000000 0 0 1
-7.379140 -17.680197 -31.213526 36.624108 1.175408 2.591101 0.054157 -0.019334 1119960.000000 0 0 1
-7.044440 -16.568797 -32.020396 36.734928 1.168788 2.629377 0.046213 -0.023900 79283.700000 0 0 1
-6.903740 -15.263897 -31.468626 35.650002 1.146038 2.652395 0.030353 -0.024613 -325524.000000 0 0 1
-7.389840 -14.186697 -32.414246 36.146307 1.090569 2.683169 0.032746 -0.029946 -33259.300000 0 0 1
-6.545240 -13.860797 -33.574536 36.908148 1.129625 2.713305 0.044168 -0.037517 325845.000000 0 0 1
-7.215840 -13.111497 33.929859 37.083892 1.067689 0.415416 0.050096 -0.028051 -333739.000000 0 0 1
-7.507540 -11.596597 34.218795 36.902170 0.996257 0.383705 0.032279 -0.027745 161447.000000 0 0 1
-6.407840 -10.698697 -34.182237 36.386095 1.031159 2.791764 0.020090 -0.030801 -179753.000000 0 0 1
-5.851540 -10.382497 33.092946 35.173568 1.057574 0.345675 0.019092 -0.028938 -43470.600000 0 0 1
-4.760740 -9.280697 33.217646 34.816778 1.096825 0.304256 0.014320 -0.027442 106830.000000 0 0 1
-4.584940 -8.652497 31.969202 33.435270 1.083517 0.297228 0.018962 -0.021957 -313639.000000 0 0 1
-3.526240 -7.742297 31.899082 33.014073 1.143418 0.260634 0.009687 -0.018714 -1382970.000000 0 0 1
-3.686040 -6.693797 30.762282 31.697190 1.067443 0.243479 0.017217 -0.013152 -1027410.000000 0 0 1
-4.683040 -5.776697 30.890262 31.772778 0.889578 0.236243 0.022957 -0.012032 -257828.000000 0 0 1
-5.939140 -6.372797 30.504552 31.724023 0.820606 0.278168 0.018675 -0.009077 140989.000000 0 0 1
-7.168840 -5.441597 30.555372 31.853320 0.649276 0.286452 0.017734 -0.008851 -44802.700000 0 0 1
-8.360440 -6.022397 30.112902 31.826924 0.624250 0.329681 0.026810 -0.006340 -209388.000000 0 0 1
-9.443840 -5.091697 30.073132 31.929685 0.494479 0.342688 0.026408 -0.010267 320971.000000 0 0 1
-10.579940 -5.615797 29.165112 31.528972 0.487980 0.389693 0.032866 -0.016128 -117752.000000 0 0 1
-10.257140 -5.620497 27.764532 30.127532 0.501275 0.398699 0.022120 -0.007761 391176.000000 0 0 1
-11.313940 -6.224897 27.035922 29.961570 0.502995 0.445597 0.027285 -0.008572 26721.700000 0 0 1
-11.070440 -6.208897 25.538572 28.518831 0.511138 0.461246 0.025919 -0.010134 78833.000000 0 0 1
-9.917240 -6.883597 25.071622 27.826638 0.606758 0.448742 0.025684 -0.006944 175945.000000 0 0 1
-9.347240 -6.406597 23.839862 26.396106 0.600860 0.443726 0.026176 -0.009376 -12450.200000 0 0 1
-10.176640 -6.648697 22.521152 25.592411 0.578712 0.494948 0.031826 -0.017748 -12129.500000 0 0 1
-11.394940 -5.960097 22.542152 25.952188 0.481915 0.518420 0.026098 -0.011890 -307607.000000 0 0 1
-12.160740 -6.049297 21.338752 25.294662 0.461601 0.566831 0.028538 -0.015720 -203305.000000 0 0 1
-13.234040 -4.979997 21.376552 25.630006 0.359912 0.584399 0.028358 -0.008329 -540424.000000 0 0 1
-12.887340 -3.672697 20.911752 24.836941 0.277625 0.569888 0.022123 -0.012283 -688491.000000 0 1 0
-14.025540 -2.881697 20.775552 25.231796 0.202641 0.603441 0.030963 -0.012315 -285230.000000 0 0 1
-13.872240 -1.454697 20.205252 24.552137 0.104482 0.604207 0.041328 -0.018254 324291.000000 0 1 0
-13.022640 -0.594697 21.022952 24.736761 0.045635 0.555064 0.030131 -0.016190 319305.000000 0 1 0
-13.011740 0.821303 20.734052 24.492465 -0.063037 0.561329 0.035409 -0.025477 -397108.000000 0 1 0
-12.457540 1.227303 19.354652 23.049927 -0.098202 0.574095 0.049611 -0.034639 227181.000000 0 1 0
-13.238640 0.918303 18.179452 22.507718 -0.069254 0.630558 0.055361 -0.029666 -625709.000000 0 1 0
-14.408340 1.615303 17.957552 23.079930 -0.111643 0.679226 0.052547 -0.027859 -382232.000000 0 1 0
-15.416540 0.830303 17.050452 23.001675 -0.053806 0.735836 0.062669 -0.024251 97399.100000 0 1 0
-15.832940 -0.319697 17.752152 23.789139 0.020189 0.728417 0.044627 -0.024309 -250555.000000 0 1 0
-16.804140 -1.100697 17.159752 24.042624 0.065408 0.775998 0.045474 -0.017246 -539971.000000 0 1 0
-16.676840 -2.589697 17.476052 24.294772 0.154057 0.767953 0.037409 -0.015528 -582332.000000 0 1 0
-17.206840 -2.932697 18.691752 25.574551 0.168816 0.751196 0.036786 -0.012016 -154551.000000 0 0 1
-17.142240 -4.326397 18.869852 25.858179 0.247220 0.752849 0.049729 -0.011049 -272078.000000 0 0 1
-17.986440 -4.861897 20.019352 27.348209 0.264000 0.749519 0.031751 -0.003987 -273922.000000 0 0 1
-17.387040 -4.543697 21.257652 27.835986 0.255610 0.701810 0.030669 -0.002555 341593.000000 0 0 1
-18.188640 -4.760397 22.440352 29.275543 0.255982 0.697388 0.028834 -0.006247 -234736.000000 0 0 1
-18.360340 -6.227497 22.873952 29.985021 0.327005 0.703093 0.038583 -0.010391 849946.000000 0 0 1
-17.283340 -6.812697 23.665102 30.085940 0.375477 0.665540 0.022792 -0.011168 932996.000000 0 0 1
-16.078140 -7.048897 22.943152 28.889129 0.413178 0.653140 0.033224 -0.005868 -860840.000000 0 0 1
-15.084840 -7.500597 23.964042 29.293117 0.461427 0.612736 0.033342 -0.009180 -831722.000000 0 0 1
-15.325540 -8.853897 24.313832 30.073678 0.523877 0.629239 0.033183 -0.011194 -35525.000000 0 0 1
-14.655840 -9.130797 25.515722 30.809369 0.557170 0.594943 0.045855 -0.004126 70748.300000 0 0 1
-15.452840 -9.967297 26.552462 32.298151 0.572862 0.605698 0.040792 -0.012280 -119551.000000 0 0 1
-15.380740 -11.348597 26.284052 32.499373 0.635676 0.628763 0.042324 -0.016178 -256377.000000 0 0 1
-14.844740 -12.087297 27.301252 33.344077 0.683368 0.611525 0.039322 -0.015854 -234423.000000 0 0 1
-14.851740 -13.593197 27.026602 33.701431 0.741182 0.640257 0.022135 -0.015185 -130218.000000 0 0 1
-16.135440 -14.177297 27.125242 34.599522 0.720890 0.669749 0.027403 -0.009666 -88569.000000 0 0 1
-16.275140 -15.533097 26.808152 34.997633 0.762074 0.698202 0.032725 -0.008814 -14069.400000 0 0 1
-15.426340 -16.554097 27.640642 35.721355 0.820648 0.686002 0.026009 -0.005584 447446.000000 0 0 1
-14.063440 -16.565397 27.258662 34.860112 0.866904 0.673018 0.040160 -0.016031 -196143.000000 0 0 1
-13.270740 -17.358297 28.095372 35.591754 0.918068 0.661000 0.049005 -0.014377 541068.000000 0 0 1
-11.829340 -17.508097 27.487112 34.669988 0.976600 0.655372 0.058513 -0.017844 609367.000000 0 0 1
-11.001240 -18.398997 28.203372 35.425705 1.031903 0.649928 0.068670 -0.022584 -103749.000000 0 0 1
-9.907840 -18.852597 27.426792 34.724842 1.086924 0.660261 0.058477 -0.017448 50739.700000 0 0 1
-8.799040 -19.448097 28.342182 35.481416 1.145918 0.645516 0.074701 -0.022890 -81174.000000 0 0 1
-9.063340 -20.725297 28.936562 36.728827 1.158547 0.663497 0.070439 -0.015055 -355688.000000 0 0 1
-8.029840 -21.139597 29.775732 37.389238 1.207782 0.649524 0.074398 -0.020981 -341350.000000 0 0 1
-8.265840 -22.479997 30.514252 38.791674 1.218443 0.665483 0.071126 -0.017881 145138.000000 0 0 1
-8.318440 -23.562997 29.614472 38.748268 1.231425 0.700874 0.073624 -0.014478 96792.400000 0 0 1
-8.811340 -24.701397 30.309732 40.080901 1.228153 0.713289 0.056908 -0.015828 -36361.700000 0 0 1
-8.882440 -26.027497 29.442132 40.288553 1.241919 0.751330 0.052118 -0.010812 -135180.000000 0 0 1
-9.806240 -26.018897 28.371982 39.725492 1.210370 0.775315 0.058225 -0.012072 88191.900000 0 0 1
-9.829240 -27.251597 27.654502 40.050406 1.224635 0.808627 0.042827 -0.005204 122522.000000 0 0 1
-11.158540 -27.499497 26.863962 40.030086 1.185324 0.835112 0.032084 -0.002823 359927.000000 0 0 1
-11.285140 -26.819097 25.630372 38.775435 1.172499 0.848652 0.041235 -0.004269 111885.000000 0 0 1
-11.535740 -25.409997 25.753892 37.973731 1.144634 0.825482 0.037225 0.002883 -326667.000000 0 0 1
-11.864640 -24.761997 24.387052 36.724032 1.123970 0.844557 0.053473 -0.021412 124880.000000 0 0 1
-12.998840 -25.275397 23.707432 37.011591 1.095784 0.875594 0.031179 -0.010583 221635.000000 0 0 1
-13.085740 -24.661297 22.397352 35.791864 1.082955 0.894682 0.046471 -0.019123 588010.000000 0 0 1
-14.455840 -24.869797 21.657252 36.007148 1.044270 0.925455 0.034650 -0.011864 350600.000000 0 0 1
-14.680340 -26.155097 21.089752 36.665776 1.059334 0.957961 0.040501 -0.011318 -478791.000000 0 0 1
-15.930140 -26.276597 20.500452 36.939105 1.025795 0.982458 0.042938 -0.016931 -590567.000000 0 0 1
-16.149740 -27.716897 19.936552 37.769122 1.043219 1.014725 0.040386 -0.021135 -339364.000000 0 0 1
-15.203740 -28.030697 18.967052 37.102867 1.073810 1.034214 0.025511 -0.019155 -242774.000000 0 0 1
-15.226840 -29.355997 18.527052 37.906238 1.092304 1.060128 0.032777 -0.011146 155332.000000 0 0 1
-14.180040 -29.720797 17.442152 37.264299 1.125629 1.083695 0.021281 -0.023197 -104836.000000 0 0 1
-14.471040 -29.149797 16.188352 36.348101 1.110003 1.109209 0.036477 -0.029264 -238842.000000 0 0 1
-13.417840 -29.160897 15.264052 35.544165 1.139549 1.126925 0.038864 -0.023025 -271207.000000 0 0 1
-13.835440 -28.462497 13.953552 34.586627 1.118336 1.155525 0.024901 -0.015896 -6230.610000 0 0 1
-13.961040 -27.054397 13.912352 33.472445 1.094402 1.142154 0.025610 -0.012484 -229017.000000 0 0 1
-14.260240 -26.458697 12.660252 32.614400 1.076467 1.172141 0.026772 -0.023535 121982.000000 0 0 1
-13.370440 -26.686697 11.416552 31.957568 1.106337 1.205484 0.023497 -0.009313 170129.000000 0 0 1
-13.950340 -26.036297 10.325952 31.290990 1.078918 1.234495 0.019155 -0.006519 -36470.200000 0 0 1
-13.108940 -26.229097 9.213852 30.736052 1.107320 1.266341 0.038800 -0.005510 118862.000000 0 0 1
-13.711240 -25.736697 7.844452 30.197866 1.081293 1.308014 0.053336 -0.010296 416308.000000 0 0 1
-14.619040 -26.656897 7.190452 31.241144 1.069171 1.338555 0.026351 -0.002880 184310.000000 0 0 1
-15.328240 -25.941097 6.220652 30.766735 1.037105 1.367205 0.045958 -0.006081 122524.000000 0 0 1
-16.131440 -26.910797 5.293052 31.818717 1.030788 1.403669 0.049179 -0.018340 534646.000000 0 0 1
-15.212340 -27.712497 4.570652 31.941957 1.068772 1.427211 0.061953 -0.011886 114110.000000 0 0 1
-15.785840 -28.050797 3.369252 32.363433 1.058210 1.466501 0.055082 -0.012399 -296246.000000 0 0 1
-15.119640 -29.224697 2.619652 33.008317 1.093359 1.491349 0.053586 -0.013834 -211841.000000 0 0 1
-13.785640 -28.971197 2.244552 32.162278 1.126663 1.500951 0.044354 -0.007520 -325685.000000 0 0 1
-13.389340 -30.056297 1.481352 32.937058 1.151711 1.525806 0.041594 -0.007373 880620.000000 0 0 1
-11.901140 -29.975397 0.939352 32.265213 1.192853 1.541679 0.041732 -0.009208 1111380.000000 0 0 1
-11.798940 -29.107597 -0.223348 31.408869 1.185681 1.577907 0.039414 -0.009959 84958.900000 0 0 1
-12.051940 -27.684197 -0.054948 30.193825 1.160203 1.572616 0.035917 -0.011155 -432053.000000 0 0 1
-11.881640 -26.845697 -1.377548 29.389836 1.154122 1.617685 0.029210 -0.007575 -674013.000000 0 0 1
-10.589540 -26.781397 -1.876648 28.860066 1.194256 1.635868 0.032883 -0.013586 -948629.000000 0 0 1
-10.369840 -25.885697 -2.962448 28.042450 1.189772 1.676635 0.047690 -0.016651 1181350.000000 0 0 1
-8.960940 -26.126097 -3.641348 27.859124 1.240382 1.701877 0.029809 -0.024534 1019290.000000 0 0 1
-8.494040 -25.268797 -4.649248 27.060605 1.246515 1.743462 0.028683 -0.027065 -248555.000000 0 0 1
-7.237440 -25.704897 -5.133148 27.193225 1.296343 1.760701 0.029903 -0.018410 117754.000000 0 0 1
-6.504740 -24.582297 -5.820848 26.086074 1.312114 1.795831 0.012337 -0.018784 -238959.000000 0 0 1
-6.985340 -24.401697 -7.138548 26.366582 1.291988 1.844960 0.027426 -0.013737 -598929.000000 0 0 1
-6.159140 -23.501497 -7.777048 25.509564 1.314486 1.880596 0.023724 -0.010689 -998717.000000 0 0 1
-6.223140 -23.366197 -9.315548 25.913048 1.310507 1.938520 0.030772 -0.007099 -197586.000000 0 0 1
-5.830240 -24.595697 -9.874748 27.137624 1.338049 1.943223 0.010923 -0.009902 -63310.100000 0 0 1
-5.891440 -24.704397 -11.297548 27.796598 1.336692 1.989347 0.010872 0.001387 417446.000000 0 0 1
-7.233340 -25.288197 -11.844348 28.846190 1.292199 1.993912 0.018060 -0.003896 311751.000000 0 0 1
-7.298340 -25.331597 -13.260248 29.509147 1.290281 2.036846 0.031259 -0.000534 759090.000000 0 0 1
-8.484440 -26.001697 -13.752048 30.613605 1.255386 2.036681 0.049104 -0.006168 277347.000000 0 0 1
-8.581940 -25.942797 -15.337548 31.335583 1.251325 2.082268 0.058647 -0.011835 93896.600000 0 0 1
-7.611040 -26.741097 -16.007248 32.081867 1.293509 2.093183 0.054718 -0.016994 516871.000000 0 0 1
-6.338940 -26.075897 -16.081048 31.284735 1.332326 2.110664 0.050532 -0.015583 274914.000000 0 0 1
-5.319140 -27.067197 -16.705148 32.248851 1.376753 2.115316 0.044677 -0.014328 -304096.000000 0 0 1
-5.670440 -27.288997 -18.068448 33.216141 1.365920 2.145953 0.077443 -0.017999 214698.000000 0 0 1
-4.560340 -27.594297 -18.885848 33.747847 1.407013 2.164719 0.071274 -0.022362 -516.139000 0 0 1
-24.664940 14.698286 -6.260396 29.386927 -0.537413 1.785475 0.053846 -0.005932 14950.000000 0 0 1
-24.794340 13.497586 -5.582796 28.776931 -0.498520 1.766037 0.053817 -0.004560 384485.000000 0 0 1
-23.547140 12.891386 -5.310396 27.365233 -0.500900 1.766092 0.070517 -0.011816 -273546.000000 0 0 1
-23.839740 11.578386 -4.548496 26.890167 -0.452123 1.740764 0.077996 -0.011535 158044.000000 0 0 1
-24.328540 10.590486 -5.481796 27.094028 -0.410572 1.774528 0.078087 -0.013013 -362267.000000 0 0 1
-25.714720 10.532686 -5.597196 28.346303 -0.388753 1.769560 0.076543 -0.011637 -913822.000000 0 0 1
-26.069780 9.766186 -6.878496 28.676219 -0.358435 1.813026 0.074980 -0.011690 -114705.000000 0 0 1
-25.820060 10.514086 -8.051896 29.018176 -0.386703 1.851964 0.094182 -0.007452 121303.000000 0 0 1
-26.209840 9.757986 -9.169996 29.432344 -0.356404 1.887633 0.086207 -0.014384 -175065.000000 0 0 1
-26.670570 10.486486 -10.453196 30.505000 -0.374618 1.920556 0.048244 -0.015477 113875.000000 0 0 1
-25.674040 11.331186 -11.009596 30.145702 -0.415636 1.944658 0.053973 -0.007483 1060820.000000 0 0 1
-26.302590 12.195486 -11.990696 31.374081 -0.434156 1.962956 0.039749 -0.009624 -11682.700000 0 0 1
-25.187680 13.053786 -12.538096 31.016519 -0.478149 1.986943 0.037468 -0.007891 -367729.000000 0 0 1
-24.889640 14.232486 -11.772496 30.994347 -0.519444 1.960406 0.040831 -0.008598 204599.000000 0 0 1
-23.995840 15.099986 -12.439396 30.960435 -0.561668 1.984260 0.038699 -0.011811 -182573.000000 0 0 1
-23.954040 16.608186 -11.953096 31.504038 -0.606239 1.959960 0.041256 -0.016260 -260226.000000 0 0 1
-23.255740 16.782386 -10.764296 30.632467 -0.625106 1.929864 0.050888 -0.007060 25646.500000 0 0 1
-23.270640 18.123786 -10.345496 31.257377 -0.661696 1.908136 0.042613 -0.003550 125271.000000 0 0 1
-22.374540 18.422186 -9.079296 30.371543 -0.688820 1.874379 0.046235 -0.002596 216457.000000 0 0 1
-22.826240 17.914186 -7.791596 30.044372 -0.665408 1.833131 0.054237 -0.007338 375759.000000 0 0 1
-23.462940 18.946786 -7.048096 30.970404 -0.679309 1.800383 0.040936 -0.010358 -198556.000000 0 0 1
-23.932540 18.461886 -5.675596 30.754189 -0.657066 1.756407 0.038058 -0.008712 -132570.000000 0 0 1
-22.918740 18.144886 -4.748796 29.615142 -0.669663 1.731842 0.054518 -0.016449 151230.000000 0 0 1
-23.452740 18.124286 -3.437796 29.838552 -0.657934 1.686266 0.045700 -0.011789 78515.600000 0 0 1
-22.402340 17.682886 -2.411596 28.642016 -0.668202 1.655094 0.057651 -0.022328 -251242.000000 0 0 1
-21.575840 18.701586 -1.883896 28.614948 -0.714158 1.636680 0.055622 -0.027143 -86249.800000 0 0 1
-20.523340 18.022686 -1.210596 27.340268 -0.720614 1.615090 0.082116 -0.035501 59490.400000 0 0 1
-19.468040 19.049486 -0.724896 27.247256 -0.774532 1.597404 0.066371 -0.028334 -168351.000000 0 0 1
-20.093840 20.044286 0.074604 28.382061 -0.784164 1.568168 0.052385 -0.021717 429283.000000 0 0 1
-19.301040 21.179386 0.402204 28.657605 -0.831766 1.556761 0.059247 -0.032895 60046.500000 0 0 1
-20.219840 22.124586 1.182604 29.995630 -0.830350 1.531360 0.059247 -0.021722 102726.000000 0 0 1
-20.560740 21.560886 2.460504 29.894313 -0.809138 1.488396 0.050202 -0.018745 266954.000000 0 0 1
-21.777440 22.008986 3.014604 31.108523 -0.790686 1.473738 0.035495 -0.028403 8772.750000 0 0 1
-21.886540 21.697686 4.539504 31.151522 -0.781065 1.424552 0.039064 -0.018866 -246519.000000 0 0 1
-21.109440 22.598586 5.297704 31.374675 -0.819455 1.401131 0.041785 -0.019858 8768.370000 0 0 1
-20.448840 21.923086 6.333504 30.641313 -0.820177 1.362597 0.043322 -0.007133 -402020.000000 0 0 1
-21.191640 21.784686 7.691004 31.349796 -0.799197 1.322938 0.018718 -0.012114 -751202.000000 0 0 1
-22.339840 20.993286 7.490504 31.557791 -0.754334 1.331151 0.031788 -0.008158 224740.000000 0 0 1
-22.835940 20.278586 8.612604 31.731343 -0.726152 1.295926 0.050689 -0.015239 -82998.800000 0 0 1
-23.302040 21.120086 9.837304 32.951717 -0.736319 1.267637 0.044041 -0.023930 -1129070.000000 0 0 1
-24.436440 21.905286 9.644904 34.205341 -0.730833 1.284949 0.060885 -0.023520 -105094.000000 0 0 1
-24.765640 22.612886 10.756004 35.218903 -0.739992 1.260433 0.064128 -0.015970 374360.000000 0 0 1
-26.039840 23.517986 10.652004 36.669253 -0.734555 1.276059 0.073007 -0.028240 343315.000000 0 0 1
-26.571060 23.981986 11.889804 37.716367 -0.734228 1.250084 0.077883 -0.024834 -21769.000000 0 0 1
-27.284010 25.164986 11.855704 38.964746 -0.745019 1.261627 0.068219 -0.022289 -223708.000000 0 0 1
-27.847140 25.552786 13.259104 40.052614 -0.742459 1.233389 0.070296 -0.016860 -96654.900000 0 0 1
-26.801650 25.683186 14.194204 39.742042 -0.764091 1.205572 0.067314 -0.018183 -30997.600000 0 0 1
-27.296490 26.037486 15.481804 40.776651 -0.761796 1.181353 0.063257 -0.012240 -547066.000000 0 0 1
-26.296720 26.228186 16.593504 40.678982 -0.784093 1.150629 0.070144 -0.021999 -691860.000000 0 0 1
-25.789900 25.003186 17.096004 39.781297 -0.769911 1.126581 0.084476 -0.020957 -242959.000000 0 0 1
-24.645640 25.269386 17.846404 39.553048 -0.797894 1.102685 0.080384 -0.016407 -376542.000000 0 0 1
-24.203140 23.968386 18.628904 38.824111 -0.780525 1.070337 0.072175 -0.008494 -255981.000000 0 0 1
-23.007740 24.083186 19.357604 38.523665 -0.808232 1.044325 0.072906 -0.013548 67678.300000 0 0 1
-22.558640 22.817386 19.728904 37.666364 -0.791100 1.019514 0.074727 -0.018979 128717.000000 0 0 1
-21.058540 22.828086 20.158904 37.026545 -0.825697 0.995069 0.059076 -0.022633 66389.300000 0 0 1
-20.199940 22.743486 19.031704 35.881882 -0.844559 1.011726 0.054826 -0.019335 1215160.000000 0 0 1
-18.875040 22.183586 19.245404 34.910803 -0.865805 0.986906 0.050132 -0.014595 1319100.000000 0 0 1
-18.725740 20.688086 19.647604 34.127387 -0.835145 0.957320 0.058945 -0.019586 -799049.000000 0 0 1
-19.259340 20.362686 20.911004 34.969004 -0.813238 0.929809 0.061950 -0.020344 -375153.000000 0 0 1
-18.456840 20.565786 22.035104 35.343349 -0.839390 0.897638 0.054483 -0.022397 -682198.000000 0 0 1
-19.197840 20.501786 23.345804 36.522689 -0.818232 0.877321 0.048739 -0.019260 -390688.000000 0 0 1
-20.324940 21.344686 23.448504 37.663393 -0.809865 0.898760 0.047807 -0.016993 -76156.500000 0 0 1
-20.849440 21.256786 24.746004 38.715821 -0.795072 0.877377 0.057035 -0.022712 -142572.000000 0 0 1
-21.963840 22.301586 24.987404 40.051733 -0.793028 0.897101 0.059325 -0.019649 -743220.000000 0 0 1
-21.515540 23.624186 24.978604 40.557999 -0.832078 0.907302 0.051631 -0.018519 149567.000000 0 0 1
-22.440340 24.677986 25.289104 41.858220 -0.832852 0.922084 0.045391 -0.014481 -165390.000000 0 0 1
-23.372240 25.072186 24.127004 41.916446 -0.820474 0.957462 0.044132 -0.024415 -154983.000000 0 0 1
-24.303940 24.049486 23.854204 41.690314 -0.780136 0.961640 0.038303 -0.025378 -658481.000000 0 0 1
-25.076800 24.397786 22.791304 41.755735 -0.771675 0.993424 0.041075 -0.020634 -519188.000000 0 0 1
-26.086320 23.354286 22.275604 41.498449 -0.730195 1.004178 0.041866 -0.013897 260433.000000 0 0 1
-27.330750 23.304486 22.962204 42.630174 -0.706050 1.001977 0.015573 -0.016170 118809.000000 0 0 1
-28.064860 22.233886 22.394204 42.231297 -0.669986 1.011871 0.028283 -0.016341 279527.000000 0 0 1
-29.567720 22.285286 22.811704 43.488595 -0.645867 1.018616 0.033469 -0.012769 -360086.000000 0 0 1
-30.157350 23.429286 22.258504 44.202242 -0.660497 1.043081 0.026376 -0.007354 308671.000000 0 0 1
-31.561950 23.563186 22.446104 45.334402 -0.641302 1.052820 0.012209 -0.010199 335238.000000 0 0 1
-32.440740 22.834486 21.445204 45.096698 -0.613327 1.075221 0.009911 -0.016641 -1210760.000000 0 0 1
-32.272820 21.429186 21.509304 44.310214 -0.586155 1.063947 0.003962 -0.011031 194571.000000 0 0 1
-32.877010 20.769086 20.423404 43.924573 -0.563418 1.087201 -0.005326 -0.004962 -1075970.000000 0 0 1
-34.375351 20.629986 20.370104 44.968903 -0.540522 1.100689 -0.002531 -0.002251 -1148540.000000 0 0 1
-34.913465 19.768486 19.380204 44.557103 -0.515206 1.120811 -0.001456 -0.002920 617014.000000 0 0 1
35.683453 19.817486 19.410904 45.197619 0.506956 1.126893 0.022242 -0.008897 230527.000000 0 0 1
35.140993 18.964586 18.324904 43.935714 0.494879 1.140561 0.024710 -0.013074 -406787.000000 0 0 1
35.509003 17.571086 18.408904 43.686612 0.459507 1.135824 0.038231 -0.014501 137502.000000 0 0 1
34.754723 16.872486 17.497504 42.411486 0.451959 1.145528 0.049686 -0.019843 -183792.000000 0 0 1
35.024443 15.342786 17.657104 42.117526 0.412880 1.138195 0.059999 -0.025545 262465.000000 0 0 1
34.043663 14.609786 16.914104 40.724731 0.405379 1.142493 0.068186 -0.024126 443917.000000 0 0 1
34.536513 13.401186 16.408404 40.516641 0.370145 1.153840 0.072945 -0.028509 -447003.000000 0 0 1
33.537643 12.625186 15.572004 39.072447 0.360040 1.160870 0.068872 -0.029046 -426270.000000 0 0 1
33.432293 13.150686 14.254504 38.650351 0.374763 1.193072 0.070990 -0.019345 223334.000000 0 0 1
32.825383 12.178286 13.435704 37.501127 0.355261 1.204377 0.080394 -0.014161 -238965.000000 0 0 1
33.121303 12.421386 11.955304 37.339534 0.358794 1.244879 0.098576 -0.016488 -436715.000000 0 0 1
34.454093 12.260686 11.577904 38.359572 0.341882 1.264189 0.095558 -0.011250 -374605.000000 0 0 1
34.434593 12.277086 10.128504 37.934873 0.342483 1.300521 0.080458 -0.009540 -294175.000000 0 0 1
35.816643 12.311986 9.476704 39.041322 0.331096 1.325612 0.068284 -0.000007 -163716.000000 0 0 1
-35.421295 11.117586 9.698704 38.371001 -0.304130 1.315263 0.085770 -0.005468 656980.000000 0 0 1
-34.123553 11.190386 9.122204 37.052075 -0.316886 1.322039 0.076633 0.005431 28146.300000 0 0 1
-33.980120 10.884986 7.609304 36.483325 -0.310006 1.360684 0.076133 -0.002987 -651616.000000 0 0 1
-34.614758 11.801886 6.768004 37.192363 -0.328589 1.387804 0.050908 -0.001849 144128.000000 0 0 1
-34.154880 11.617586 5.399904 36.478529 -0.327868 1.422221 0.054052 -0.010276 104840.000000 0 0 1
-34.875315 12.536186 4.354704 37.314970 -0.345075 1.453829 0.066904 -0.009137 -397610.000000 0 0 1
35.832763 12.086086 4.137804 38.041843 0.325309 1.461811 0.072179 -0.013379 -199352.000000 0 0 1
34.873983 13.113186 4.042404 37.476544 0.359661 1.462721 0.051072 -0.014571 135969.000000 0 0 1
34.410983 13.669086 5.417504 37.420703 0.378116 1.425513 0.070331 -0.008189 -1528590.000000 0 0 1
33.553733 14.755186 5.250204 37.028815 0.414296 1.428530 0.070861 -0.002766 -145168.000000 0 0 1
33.064523 15.297886 6.474304 37.002765 0.433338 1.394923 0.054620 0.000227 -122509.000000 0 0 1
31.796063 14.614686 6.986804 35.684648 0.430840 1.373730 0.085006 -0.020232 -701920.000000 0 0 1
32.186533 13.396586 7.618204 35.685830 0.394408 1.355661 0.106640 -0.018727 193884.000000 0 0 1
31.108733 12.515986 7.831004 34.434398 0.382514 1.341371 0.110425 -0.009128 -231800.000000 0 0 1
31.090163 11.361086 6.814604 33.795138 0.350349 1.367760 0.111990 -0.017293 -155701.000000 0 0 1
30.670373 11.763686 5.526204 33.310584 0.366247 1.404126 0.117304 -0.022175 160388.000000 0 0 1
30.862933 10.733786 4.619904 33.001186 0.334704 1.430343 0.117794 -0.025555 -248402.000000 0 0 1
30.291653 11.009686 3.237404 32.392564 0.348612 1.470686 0.093209 -0.026195 -333614.000000 0 0 1
28.913613 10.837186 3.064504 31.029547 0.358606 1.471874 0.081792 -0.023111 -313801.000000 0 0 1
28.459733 11.351686 1.829304 30.694682 0.379530 1.511164 0.087479 -0.023707 383173.000000 0 0 1
26.923783 11.170186 1.643404 29.195272 0.393269 1.514476 0.104869 -0.013871 473700.000000 0 0 1
26.695883 9.753286 1.513304 28.462024 0.350282 1.517602 0.068846 -0.014604 -964985.000000 0 0 1
25.344683 9.461486 1.485104 27.093878 0.357290 1.515956 0.073684 -0.016402 -1076940.000000 0 0 1
25.173483 7.929586 1.339704 26.426831 0.305159 1.520080 0.077337 -0.017372 253071.000000 0 0 1
25.727183 7.197086 2.436204 26.825754 0.272773 1.479855 0.086042 -0.014744 648562.000000 0 0 1
27.141763 7.065586 2.510004 28.158443 0.254669 1.481539 0.113152 -0.025857 -51636.000000 0 0 1
27.595163 6.454486 3.865804 28.602410 0.229768 1.435225 0.108065 -0.031136 -915178.000000 0 0 1
28.977593 6.268586 3.788204 29.888903 0.213043 1.443712 0.126432 -0.032319 -303232.000000 0 0 1
29.344333 5.671886 5.064504 30.313518 0.190933 1.402938 0.103390 -0.021003 -1890620.000000 0 0 1
30.787823 5.630686 5.341304 31.750971 0.180888 1.401768 0.095547 -0.025204 -1906290.000000 0 0 1
31.232583 6.873386 5.771404 32.496565 0.216618 1.392249 0.109839 -0.032692 -596487.000000 0 0 1
32.564723 6.739786 6.186504 33.825415 0.204084 1.386866 0.084274 -0.019103 -207529.000000 0 0 1
33.074493 7.755586 7.237704 34.734069 0.230327 1.360883 0.083783 -0.022287 494848.000000 0 0 1
32.359943 7.657286 8.511904 34.325682 0.232355 1.320207 0.101789 -0.024945 537483.000000 0 0 1
32.996053 8.478686 9.463504 35.357963 0.251519 1.299845 0.095049 -0.016567 -309536.000000 0 0 1
32.267023 8.481286 10.810804 35.070878 0.257033 1.257437 0.094343 -0.018296 17862.500000 0 0 1
31.044163 9.192686 10.840604 34.143289 0.287890 1.247701 0.093048 -0.021287 132092.000000 0 0 1
30.312033 9.063486 12.015004 33.842672 0.290545 1.207855 0.078854 -0.020932 546116.000000 0 0 1
29.004103 9.948086 11.983204 32.921111 0.330415 1.198240 0.075478 -0.022738 417334.000000 0 0 1
29.218193 11.341386 12.127904 33.606783 0.370260 1.201589 0.078300 -0.023150 139511.000000 0 0 1
29.147453 12.068286 10.909404 33.380123 0.392553 1.237856 0.088519 -0.028560 -503908.000000 0 0 1
27.809063 12.276786 10.188004 32.060238 0.415735 1.247412 0.077000 -0.028549 -530722.000000 0 0 1
27.811313 13.184586 9.126504 32.102889 0.442692 1.282531 0.065889 -0.023841 480771.000000 0 0 1
26.495083 13.307086 8.580504 30.865725 0.465444 1.289091 0.070710 -0.018168 507974.000000 0 0 1
26.400283 14.497286 7.618604 31.067497 0.502178 1.323042 0.057585 -0.023145 -128737.000000 0 0 1
26.013283 15.648986 8.289004 31.468861 0.541578 1.304248 0.054790 -0.015650 153554.000000 0 0 1
26.203583 16.790986 7.458104 32.002942 0.569873 1.335589 0.043964 -0.011094 -948897.000000 0 0 1
25.795883 18.105086 8.173104 32.557969 0.611973 1.317050 0.057348 -0.020703 -609701.000000 0 0 1
24.451583 18.454686 8.261504 31.728659 0.646530 1.307381 0.053233 -0.022899 -277112.000000 0 0 1
23.551883 17.531286 8.882804 30.674768 0.639887 1.277008 0.053756 -0.018498 -1115530.000000 0 0 1
22.205983 18.184986 9.121804 30.116552 0.686173 1.263080 0.053578 -0.012218 -942865.000000 0 0 1
21.557683 18.576886 7.950404 29.547306 0.711264 1.298365 0.054089 -0.011722 -416547.000000 0 0 1
20.589283 19.551186 8.107904 29.528047 0.759542 1.292640 0.074566 -0.007654 -647248.000000 0 0 1
19.912183 19.944886 6.804904 28.993106 0.786219 1.333879 0.066602 -0.001659 -514213.000000 0 0 1
20.687283 20.628386 5.862304 29.796989 0.783973 1.372763 0.043552 0.003255 -336366.000000 0 0 1
20.054683 20.857486 4.622204 29.301703 0.805018 1.412389 0.048349 -0.002165 -138548.000000 0 0 1
18.226560 16.933986 33.041760 41.360915 0.748653 0.645391 0.029083 -0.008299 -174969.000000 0 0 1
17.570060 17.851086 32.203192 40.797229 0.793332 0.661051 0.046708 -0.006312 693270.000000 0 0 1
16.826760 17.168586 31.148832 39.346536 0.795453 0.657285 0.053305 -0.013127 547869.000000 0 0 1
16.204360 17.941086 29.980902 38.513872 0.836217 0.678613 0.057770 -0.021135 427181.000000 0 0 1
17.202960 18.237486 29.018432 38.348626 0.814580 0.712545 0.067059 -0.020208 529995.000000 0 0 1
16.532060 18.626086 27.823782 37.341705 0.844888 0.730092 0.076665 -0.031603 -169588.000000 0 0 1
17.492760 18.961286 26.724542 37.144692 0.825661 0.767755 0.083534 -0.021751 -676276.000000 0 0 1
18.267160 20.064686 27.040822 38.307790 0.832258 0.787127 0.085828 -0.025967 -534517.000000 0 0 1
19.279060 20.293086 26.121532 38.286106 0.811017 0.819931 0.075207 -0.017376 -351102.000000 0 0 1
20.074760 21.600486 26.518372 39.658556 0.821992 0.838382 0.072929 -0.016680 1462.870000 0 0 1
19.395260 22.800186 26.217362 39.791641 0.865918 0.851486 0.072803 -0.023808 171130.000000 0 0 1
20.121360 23.871486 26.751982 41.114298 0.870437 0.862325 0.067363 -0.022020 -330702.000000 0 0 1
19.408860 25.206486 26.587972 41.460717 0.914621 0.874630 0.079198 -0.024794 -70873.900000 0 0 1
19.538460 25.686586 25.239642 40.970619 0.920515 0.907088 0.086566 -0.025847 56023.500000 0 0 1
18.583860 26.688786 25.071092 41.063497 0.962546 0.914048 0.091161 -0.034106 -422730.000000 0 0 1
18.658160 27.518286 23.749722 40.858687 0.974970 0.950514 0.087722 -0.031994 -2665.260000 0 0 1
19.825360 28.284186 23.587152 41.825755 0.959444 0.971649 0.071283 -0.029227 137886.000000 0 0 1
19.582260 29.036886 22.417152 41.582861 0.977464 1.001433 0.061749 -0.025982 136134.000000 0 0 1
20.722060 30.051886 22.185852 42.716878 0.967123 1.024683 0.065648 -0.019254 95511.300000 0 0 1
21.842860 29.433186 21.545252 42.516124 0.932360 1.039380 0.067353 -0.018874 -123624.000000 0 0 1
22.820860 30.396986 21.298852 43.570741 0.926809 1.060044 0.052556 -0.017616 -389458.000000 0 0 1
23.083260 30.556586 19.778152 43.101243 0.923831 1.094066 0.043611 -0.009037 159890.000000 0 0 1
22.173160 31.464786 19.141252 42.989176 0.956925 1.109335 0.048523 -0.007192 717686.000000 0 0 1
22.368060 31.343886 17.735252 42.394675 0.950979 1.139183 0.054513 -0.003725 -64052.700000 0 0 1
21.794160 32.485586 16.910152 42.617507 0.979878 1.162780 0.064460 -0.006242 -438468.000000 0 0 1
22.587260 33.637486 17.080452 43.970520 0.979461 1.171845 0.064296 -0.001384 327942.000000 0 0 1
22.809860 -34.302097 15.933552 44.167880 -0.983969 1.201725 0.063269 -0.004234 47850.700000 0 0 1
23.690760 33.855786 14.769052 43.881559 0.960235 1.227528 0.047995 -0.000361 -12111.100000 0 0 1
23.083260 32.811586 14.024652 42.498564 0.957719 1.234490 0.068040 -0.004163 594490.000000 0 0 1
22.190960 33.170786 12.948052 41.957023 0.981186 1.257073 0.060477 -0.004086 330595.000000 0 0 1
21.612660 31.981186 12.163552 40.470425 0.976502 1.265523 0.059994 -0.021006 -708853.000000 0 0 1
22.654860 31.353786 11.507252 40.357396 0.945092 1.281650 0.077862 -0.042989 -357021.000000 0 0 1
22.248060 30.186586 10.859852 39.040268 0.935656 1.288907 0.061378 -0.039567 207314.000000 0 0 1
23.395960 29.561786 9.945352 38.989488 0.901305 1.312868 0.060856 -0.040678 1277480.000000 0 0 1
24.563060 28.970486 10.502752 39.407369 0.867543 1.301018 0.056015 -0.037856 41402.900000 0 0 1
25.450460 29.906886 10.992652 40.779727 0.865728 1.297858 0.050386 -0.034903 -801189.000000 0 0 1
26.828060 29.319486 11.402252 41.344750 0.829742 1.291390 0.045940 -0.032813 323951.000000 0 0 1
26.702160 28.395786 12.471652 40.925152 0.816127 1.261128 0.043788 -0.021271 -244164.000000 0 0 1
27.959660 28.133086 13.041252 41.752693 0.788490 1.253136 0.031692 -0.012429 -297346.000000 0 0 1
28.010260 27.112586 14.162952 41.475971 0.769115 1.222312 0.014662 -0.018903 397985.000000 0 0 1
29.307460 27.008986 14.788952 42.510300 0.744607 1.215476 0.003678 -0.010913 876016.000000 0 0 1
29.433160 25.914186 15.663052 42.227800 0.721904 1.190799 0.017192 -0.011483 448698.000000 0 0 1
30.652260 26.051886 16.627052 43.528389 0.704446 1.178857 0.011036 -0.008162 466876.000000 0 0 1
31.932460 25.924886 16.025152 44.142804 0.681935 1.199279 0.030448 -0.006306 160993.000000 0 0 1
32.857660 26.228486 17.073752 45.377002 0.673670 1.185035 0.001630 -0.005071 108834.000000 0 0 1
34.311960 26.431386 16.621052 46.391681 0.656383 1.204375 0.015332 -0.017268 -28436.700000 0 0 1
34.550660 27.631586 15.763752 46.965397 0.674583 1.228505 0.043027 -0.013103 533528.000000 0 0 1
35.922860 27.972286 15.535152 48.106565 0.661603 1.241970 0.065447 -0.014302 658890.000000 0 0 1
35.980260 29.154586 14.567352 48.546645 0.680986 1.266031 0.062662 -0.017840 224291.000000 0 0 1
35.470260 30.402586 15.029252 49.074790 0.708618 1.259543 0.073382 -0.014942 40593.600000 0 0 1
35.466760 31.333186 13.988152 49.349042 0.723597 1.283403 0.057818 0.006685 281590.000000 0 0 1
34.826960 32.718986 14.345752 49.892382 0.754200 1.279145 0.026606 0.005528 -714243.000000 0 0 1
34.609960 33.565186 13.214852 49.991032 0.770075 1.303272 0.013619 0.004352 345118.000000 0 0 1
33.437560 34.342186 13.376752 49.763376 0.798744 1.298642 0.006792 0.011244 977816.000000 0 0 1
32.051460 33.641086 13.131252 48.285075 0.809591 1.295375 0.015437 0.007986 118504.000000 0 0 1
31.766860 32.578886 14.043952 47.620896 0.798017 1.271433 0.015862 -0.002426 -301682.000000 0 0 1
30.896460 31.663686 13.430052 46.233608 0.797661 1.276065 0.027729 -0.004126 -282960.000000 0 0 1
30.475260 30.504786 14.403952 45.461602 0.785882 1.248403 0.041116 0.000820 -65591.200000 0 0 1
29.590860 30.925386 15.419152 45.494491 0.807447 1.225024 0.027224 0.010732 151170.000000 0 0 1
29.307760 29.952386 16.366452 44.988342 0.796276 1.198459 0.018248 0.010031 187863.000000 0 0 1
28.509960 30.537586 17.581652 45.326333 0.819724 1.172455 0.012631 0.011345 10563.500000 0 0 1
28.080860 29.601486 18.532352 44.813287 0.811754 1.144451 -0.001488 0.011051 292795.000000 0 0 1
28.822960 29.817986 19.747852 45.933136 0.802365 1.126385 -0.001147 0.006571 205092.000000 0 0 1
28.570060 28.771786 20.836452 45.587517 0.788916 1.096104 0.007619 -0.005518 783780.000000 0 0 1
27.190560 28.707486 21.239752 44.883999 0.812529 1.077860 0.014223 -0.003996 790386.000000 0 0 1
27.083360 27.943386 22.426752 44.914367 0.801026 1.047980 0.011170 -0.006629 556963.000000 0 0 1
25.732060 28.022286 23.219452 44.570510 0.827978 1.022821 0.032400 -0.015700 896185.000000 0 0 1
24.697560 27.157086 22.704852 43.162334 0.832794 1.016866 0.048086 -0.016979 1212510.000000 0 0 1
23.461160 27.337086 23.426752 42.971560 0.861551 0.994206 0.049792 -0.021150 563651.000000 0 0 1
23.239860 26.277786 24.554892 42.820040 0.846672 0.960093 0.066077 -0.025187 -731712.000000 0 0 1
24.196060 26.298286 25.567922 43.940503 0.827007 0.949763 0.041731 -0.024269 -336864.000000 0 0 1
23.930760 25.390486 26.647822 43.902898 0.814986 0.918552 0.045857 -0.025792 -593866.000000 0 0 1
25.204860 25.222886 27.506042 45.034001 0.785756 0.913746 0.057086 -0.029579 77905.300000 0 0 1
25.617860 26.365986 28.217912 46.343182 0.799789 0.916135 0.050420 -0.027658 328075.000000 0 0 1
26.318360 27.282886 27.395432 46.770948 0.803391 0.945008 0.030387 -0.005548 -1122160.000000 0 0 1
26.781960 28.590486 28.055562 48.185100 0.818048 0.949308 0.019516 -0.006366 245924.000000 0 0 1
27.886260 28.379986 28.971162 49.217835 0.794173 0.941432 0.029071 -0.005862 812975.000000 0 0 1
28.015360 29.450186 29.896032 50.457374 0.810361 0.936637 0.029895 -0.005452 -671809.000000 0 0 1
29.483860 29.697686 30.188092 51.600111 0.789011 0.945868 0.024102 -0.002842 -458361.000000 0 0 1
30.094260 30.241486 29.025572 51.601316 0.787838 0.973394 0.004563 -0.005612 -678728.000000 0 0 1
31.487860 30.219686 28.997402 52.398130 0.764850 0.984349 0.031997 -0.011875 -196485.000000 0 0 1
32.141860 30.723286 27.713472 52.393282 0.762837 1.013432 0.024528 -0.006404 -37831.700000 0 0 1
31.822660 32.082686 27.665852 52.984713 0.789467 1.021429 0.004495 -0.003641 162108.000000 0 0 1
32.106260 32.540886 26.397272 52.787661 0.792121 1.047122 0.001260 -0.003228 -83762.300000 0 0 1
31.850860 33.992886 26.032062 53.363488 0.817919 1.061199 0.009750 -0.008608 -297046.000000 0 0 1
32.736060 -33.896397 26.744912 54.183998 -0.802810 1.054579 0.025512 -0.009756 191659.000000 0 0 1
32.547660 -32.500697 26.441622 53.054734 -0.784676 1.049063 0.022048 -0.007005 -36208.100000 0 0 1
33.646360 -31.592597 27.057232 53.500126 -0.753928 1.040555 0.034943 -0.018109 32913.300000 0 0 1
33.515360 -31.517697 28.432692 54.083847 -0.754690 1.017241 0.034408 -0.022368 568856.000000 0 0 1
34.597160 -30.802897 29.027672 54.666147 -0.727447 1.011017 0.047791 -0.030838 25588.100000 0 0 1
34.370360 -30.424597 30.507672 55.115295 -0.724577 0.984206 0.039258 -0.032866 -210888.000000 0 0 1
34.317560 -31.402397 31.491692 56.174123 -0.741070 0.975676 0.051690 -0.031995 657298.000000 0 0 1
33.135260 -32.217797 31.445472 55.899460 -0.771361 0.973346 0.043819 -0.033662 161095.000000 0 0 1
33.189060 -33.179897 32.680925 57.187954 -0.785260 0.962506 0.059064 -0.035101 -500750.000000 0 0 1
32.890660 -32.586097 33.952076 57.414220 -0.780747 0.938061 0.047405 -0.035455 10688.700000 0 0 1
33.188060 -33.439197 -33.461276 57.786540 -0.789167 2.188359 0.051978 -0.035959 -366953.000000 0 0 1
32.268460 34.083286 -33.128936 57.449546 0.812743 2.185433 0.043291 -0.028636 -520190.000000 0 0 1
32.335660 33.055286 -34.084268 57.445489 0.796403 2.205989 0.058163 -0.030663 -142712.000000 0 0 1
31.571360 31.975286 -33.646476 56.136040 0.791754 2.213515 0.062360 -0.023416 -243687.000000 0 0 1
31.675760 30.794386 33.885103 55.676280 0.771290 0.916490 0.040628 -0.011542 -1075440.000000 0 0 1
32.962160 30.322086 33.831130 56.129121 0.743705 0.923869 0.058267 -0.025212 -1200810.000000 0 0 1
33.193060 29.507586 32.734430 55.172636 0.726687 0.935633 0.044810 -0.015639 -859828.000000 0 0 1
34.574460 28.978686 32.427542 55.558105 0.697576 0.947556 0.044383 -0.015951 -909588.000000 0 0 1
35.074360 28.132786 33.429156 56.028321 0.676014 0.931479 0.045402 -0.009197 421388.000000 0 0 1
-35.665464 27.615286 33.130448 55.966561 -0.658864 0.937297 0.026770 -0.010648 216927.000000 0 0 1
-35.439364 26.377286 33.961103 55.723121 -0.639839 0.915415 0.029002 -0.012853 246816.000000 0 0 1
35.933860 25.218286 33.386415 55.153032 0.611931 0.920602 0.013630 -0.010487 438404.000000 0 0 1
-35.820864 24.076786 34.190195 55.061741 -0.591785 0.900851 0.019862 -0.013496 70525.300000 0 0 1
35.657860 22.722386 33.689644 54.062759 0.567348 0.898022 0.017814 -0.017475 -459056.000000 0 0 1
-35.721364 22.307986 32.531034 53.215883 -0.558240 0.913090 0.014135 -0.007679 226490.000000 0 0 1
35.756860 21.104486 32.001252 52.421679 0.533199 0.914157 0.015385 -0.009181 -55276.500000 0 0 1
-35.133364 20.279286 31.379082 51.285958 -0.523493 0.912405 0.008343 -0.015330 -142729.000000 0 0 1
-34.475664 21.095486 30.421812 50.587326 -0.549120 0.925579 -0.005350 -0.009857 -214278.000000 0 0 1
-33.383464 20.414386 29.829582 49.203727 -0.548841 0.919464 0.003436 -0.006068 -190300.000000 0 0 1
-33.668664 19.369086 28.751582 48.325913 -0.522049 0.933591 0.017218 -0.005407 -489052.000000 0 0 1
-34.273164 18.133986 29.231482 48.558941 -0.486657 0.924819 0.015231 -0.006621 444341.000000 0 0 1
-34.721664 17.318286 28.172542 47.950069 -0.462667 0.942782 0.019626 -0.016940 -139562.000000 0 0 1
-35.444464 15.999786 28.570962 48.255601 -0.424021 0.937164 0.028880 -0.011907 85269.000000 0 0 1
-34.595264 14.892486 28.976152 47.520899 -0.406501 0.915044 0.031318 -0.011245 249015.000000 0 0 1
-35.296664 13.803286 29.491992 48.022524 -0.372780 0.909515 0.027324 -0.012424 -115827.000000 0 0 1
-34.351764 12.633086 29.906912 47.265864 -0.352405 0.885712 0.031439 -0.004814 -34204.200000 0 0 1
-33.701464 12.876086 31.133552 47.653755 -0.364949 0.858824 0.037687 0.001909 701530.000000 0 0 1
-32.645264 11.950286 31.392732 46.840434 -0.350914 0.836310 0.037631 -0.005408 1593080.000000 0 0 1
-31.168064 12.411686 31.034932 45.701916 -0.378969 0.824297 0.051239 -0.004526 -146753.000000 0 0 1
-30.775964 12.401486 29.665062 44.508120 -0.383056 0.841280 0.040336 -0.000329 -436850.000000 0 0 1
-29.450564 12.772686 29.498482 43.596303 -0.409216 0.827623 0.036574 0.006245 -762859.000000 0 0 1
-28.345364 11.824886 29.949762 42.898436 -0.395221 0.797979 0.038843 0.005103 -1087630.000000 0 0 1
-28.180264 10.704086 29.071462 41.879048 -0.363010 0.803521 0.036298 -0.001384 657950.000000 0 0 1
-27.029864 9.923986 29.483882 41.211629 -0.351870 0.773562 0.033979 0.001952 330731.000000 0 0 1
-26.810164 8.699886 28.575642 40.137766 -0.313779 0.778541 0.035794 -0.004411 -137351.000000 0 0 1
-27.690364 7.584086 28.548532 40.488187 -0.267333 0.788221 0.034493 -0.007322 -319063.000000 0 0 1
-28.976664 7.916386 28.081342 41.120287 -0.266691 0.819061 0.045490 -0.012904 -672578.000000 0 0 1
-29.913964 6.712686 28.019892 41.533357 -0.220743 0.830325 0.046878 -0.015029 -419537.000000 0 0 1
-30.255064 6.228386 29.313782 42.584733 -0.203026 0.811566 0.045826 -0.014014 -148688.000000 0 0 1
-30.854564 4.948586 29.288742 42.828998 -0.159030 0.817766 0.054927 -0.010764 -406612.000000 0 0 1
-31.599164 4.821586 30.622182 44.265934 -0.151418 0.806848 0.039233 0.003839 -33297.200000 0 0 1
-32.854164 5.456086 30.705602 45.298995 -0.164568 0.825972 0.048979 -0.000676 722715.000000 0 0 1
-33.756264 4.989286 31.765312 46.619882 -0.146741 0.821166 0.060914 0.005670 1159570.000000 0 0 1
-35.127464 5.702686 31.813132 47.734000 -0.160939 0.841337 0.048867 0.011123 340572.000000 0 0 1
-35.052864 6.960086 32.482344 48.293361 -0.196010 0.833073 0.050765 0.001821 -393761.000000 0 0 1
35.695660 7.507686 32.520708 48.868619 0.207303 0.842670 0.057478 -0.001275 -384876.000000 0 0 1
35.749060 8.957986 33.104219 49.539178 0.245524 0.838952 0.044030 0.013194 -60872.500000 0 0 1
35.907560 8.966386 -34.025626 50.274170 0.244703 2.314205 0.056045 0.013007 290328.000000 0 0 1
35.570060 10.220286 -33.456146 49.889850 0.279791 2.305814 0.056551 0.008035 -156562.000000 0 0 1
35.367960 10.258186 -31.953156 48.755791 0.282296 2.285471 0.062032 -0.002481 274778.000000 0 0 1
34.328260 9.364486 -31.487486 47.514048 0.266313 2.295213 0.058979 -0.000505 687702.000000 0 0 1
34.134860 9.520586 -30.082386 46.484193 0.271999 2.274640 0.045585 -0.001205 -366832.000000 0 0 1
32.869060 8.804886 -29.624306 45.116523 0.261733 2.287122 0.040830 0.000277 -531496.000000 0 0 1
32.927460 7.382086 -29.704336 44.956205 0.220546 2.292600 0.039421 0.003676 122726.000000 0 0 1
31.733560 6.713186 -29.327506 43.728575 0.208475 2.305910 0.025830 0.009211 -69751.900000 0 0 1
35.161723 5.921086 -19.374896 40.580693 0.166831 2.068537 0.032744 -0.025599 -389406.000000 0 0 1
34.764013 6.982086 -18.525996 40.006233 0.198205 2.052261 0.036376 -0.013007 568771.000000 0 0 1
35.254503 8.290286 -19.016896 40.905393 0.230959 2.054317 0.015266 -0.014505 1235280.000000 0 0 1
-35.227101 8.649686 -18.822296 40.866179 -0.240777 2.049449 0.018234 -0.014791 1368910.000000 0 0 1
-34.422087 7.832286 -19.644196 40.399496 -0.223728 2.078588 0.021111 -0.028723 -65092.400000 0 0 1
-33.920070 8.327186 -20.868096 40.686492 -0.240734 2.109356 0.017286 -0.021381 -515160.000000 0 0 1
-33.188220 7.153086 -21.526396 40.199631 -0.212284 2.135881 0.008579 -0.013065 -428103.000000 0 0 1
-33.961800 6.099186 -22.128496 40.991149 -0.177695 2.141039 0.018805 -0.017709 167637.000000 0 0 1
-34.598378 6.512286 -23.296896 42.216147 -0.186048 2.155375 0.020015 -0.009730 -155711.000000 0 0 1
-34.546350 5.421686 -24.402996 42.642130 -0.155670 2.180073 0.044382 -0.013485 -962303.000000 0 0 1
-33.272780 5.332986 -24.898096 41.897898 -0.158929 2.207137 0.054782 -0.014086 -1023780.000000 0 0 1
-33.151490 4.162586 -25.729636 42.170637 -0.124909 2.227023 0.066745 -0.016681 108205.000000 0 0 1
-31.801190 4.031086 -26.481326 41.579154 -0.126087 2.261253 0.080825 -0.014492 -44028.800000 0 0 1
-30.670830 3.913486 -25.696836 40.203764 -0.126911 2.264208 0.072585 -0.019921 -1340230.000000 0 0 1
-29.558910 3.478286 -26.377686 39.769461 -0.117134 2.295969 0.072436 -0.014521 -118097.000000 0 0 1
-28.198460 3.941686 -25.767946 38.401525 -0.138884 2.306371 0.048005 -0.022793 182506.000000 0 0 1
-27.872510 5.300386 -25.659626 38.254246 -0.187922 2.306037 0.022796 -0.006991 6467.770000 0 0 1
-26.648320 5.446786 -24.978596 36.928725 -0.201618 2.313660 0.022112 -0.013466 -151801.000000 0 0 1
-26.276380 6.945286 -24.932996 36.882780 -0.258407 2.313126 0.010515 -0.011661 35216.200000 0 0 1
-27.174250 7.752386 -24.168796 37.184272 -0.277902 2.278346 0.011516 -0.007880 122799.000000 0 0 1
-27.006080 9.143986 -24.394796 37.523952 -0.326474 2.278529 -0.008257 -0.005418 -338525.000000 0 0 1
-25.701830 9.864386 -23.989896 36.515823 -0.366464 2.287592 0.034242 -0.005901 -78908.900000 0 0 1
-25.554550 10.052686 -22.622596 35.579115 -0.374788 2.259892 0.011531 -0.009269 -57398.300000 0 0 1
-24.212340 10.285386 -22.282996 34.475477 -0.401701 2.273579 0.053105 -0.016188 -528704.000000 0 0 1
-24.015440 10.751986 -20.816096 33.550804 -0.420949 2.240094 0.064443 -0.028919 -978722.000000 0 0 1
-24.331740 12.126286 -20.486596 34.040873 -0.462345 2.216579 0.057783 -0.027912 1141390.000000 0 0 1
-25.690380 12.584386 -20.521796 35.206626 -0.455493 2.193084 0.042892 -0.016839 295430.000000 0 0 1
-26.803680 11.876486 -19.755796 35.352223 -0.417094 2.163768 0.022649 -0.018726 -796318.000000 0 0 1
-26.471370 11.889786 -18.386096 34.353297 -0.422152 2.135548 0.024080 -0.027183 212451.000000 0 0 1
-27.504970 11.356786 -17.595296 34.570138 -0.391577 2.104789 0.007300 -0.030895 -557843.000000 0 0 1
-27.042030 10.988086 -16.161096 33.364509 -0.385954 2.076451 0.021704 -0.029767 -5196.360000 0 0 1
-26.294490 9.804486 -16.066196 32.336525 -0.356904 2.090754 0.036092 -0.030350 1622670.000000 0 0 1
-24.870240 10.013186 -16.287796 31.370130 -0.382761 2.116727 0.043397 -0.027314 619297.000000 0 0 1
-23.997540 8.782386 -16.186196 30.249053 -0.350831 2.135420 0.044247 -0.026651 -483067.000000 0 0 1
-22.627340 9.044286 -15.982096 29.141432 -0.380253 2.151284 0.058669 -0.027401 296088.000000 0 0 1
-21.955340 7.825086 -15.626496 28.061652 -0.342373 2.161401 0.060185 -0.025403 691843.000000 0 0 1
-20.402340 7.997786 -15.504496 26.844170 -0.373594 2.186550 0.081611 -0.029557 524887.000000 0 0 1
-19.814740 8.349286 -16.744096 27.252509 -0.398790 2.232429 0.099518 -0.036951 505355.000000 0 0 1
-18.426540 8.603886 -16.544996 26.216429 -0.436843 2.253757 0.112468 -0.035788 210425.000000 0 0 1
-17.682740 9.290586 -17.763896 26.731074 -0.483764 2.297676 0.089171 -0.029314 156421.000000 0 0 1
-17.352040 8.480886 -18.879896 27.008688 -0.454611 2.344837 0.113608 -0.034793 351249.000000 0 0 1
-16.349840 7.498186 -18.674596 25.928375 -0.429990 2.374941 0.110865 -0.029169 -642997.000000 0 0 1
-15.915940 6.749686 -19.935696 26.387637 -0.401094 2.427204 0.096693 -0.026544 201139.000000 0 0 1
-16.883340 5.894586 -20.527896 27.224765 -0.335905 2.424950 0.094763 -0.016486 1095050.000000 0 0 1
-17.993140 6.488286 -21.262696 28.599881 -0.346085 2.409017 0.102346 -0.024602 917969.000000 0 0 1
-18.928540 5.475286 -21.971896 29.513262 -0.281575 2.410545 0.085413 -0.015438 117604.000000 0 0 1
-19.676140 4.652686 -21.071196 29.202625 -0.232198 2.376837 0.088249 -0.017332 409198.000000 0 0 1
-20.430140 3.666886 -21.745396 30.061586 -0.177593 2.379455 0.047175 0.001685 -202699.000000 0 0 1
-21.322640 2.882786 -20.748096 29.890616 -0.134384 2.338013 0.062074 -0.008391 65622.700000 0 0 1
-22.114840 1.881886 -21.357196 30.801583 -0.084892 2.336965 0.066221 -0.006494 560616.000000 0 0 1
-22.968440 1.227086 -20.428996 30.763597 -0.053374 2.297038 0.074528 -0.013029 -169239.000000 0 0 1
-23.470940 -0.144314 -20.881196 31.415446 0.006149 2.297861 0.065451 -0.001643 632318.000000 0 0 1
-22.442240 -1.169814 -20.872196 30.670364 0.052078 2.319286 0.064405 -0.010778 1073590.000000 0 0 1
-23.002140 -2.504614 -21.122696 31.329536 0.108459 2.310691 0.059754 -0.014859 -33205.900000 0 0 1
-23.532740 -2.793814 -22.601696 32.748007 0.118167 2.332520 0.066581 -0.022487 499948.000000 0 0 1
-22.600640 -2.636514 -23.685796 32.844438 0.116132 2.376259 0.044018 -0.019180 267284.000000 0 0 1
-21.502340 -3.527914 -23.639296 32.149855 0.162622 2.396883 0.031513 -0.025490 -273356.000000 0 0 1
-20.520040 -3.345514 -24.789996 32.354419 0.161614 2.443705 0.044406 -0.023913 -395732.000000 0 0 1
-21.036340 -3.741514 -26.037076 33.681685 0.176019 2.454406 0.039142 -0.023960 357859.000000 0 0 1
-20.079740 -3.688414 -27.098476 33.928274 0.181663 2.495926 0.041911 -0.027013 18655.300000 0 0 1
-20.750140 -3.626414 -28.465736 35.412107 0.173018 2.504522 0.036053 -0.025894 9682.010000 0 0 1
-21.631040 -4.720614 -28.555426 36.133066 0.214865 2.482071 0.046180 -0.017058 -103547.000000 0 0 1
-22.377340 -4.846014 -29.720876 37.517459 0.213266 2.485182 0.022055 -0.016308 -582064.000000 0 0 1
-22.005040 -6.097914 -30.541886 38.134147 0.270331 2.499604 0.047049 -0.013762 -36794.000000 0 0 1
-20.670640 -5.979414 -30.997056 37.733888 0.281585 2.534771 0.038455 -0.014481 22981.600000 0 0 1
-20.087740 -7.240614 -31.204846 37.811192 0.345953 2.541495 0.036645 -0.007383 -528916.000000 0 0 1
-18.726840 -7.193314 -31.887236 37.672724 0.366740 2.580037 0.042244 -0.015135 -666834.000000 0 0 1
-18.763940 -6.704714 -33.230816 38.746946 0.343180 2.601453 0.039915 -0.023497 285986.000000 0 0 1
-18.918740 -7.739114 -34.188701 39.833151 0.388302 2.602739 0.034223 -0.015926 -682962.000000 0 0 1
-18.898540 -7.362114 32.769288 38.538057 0.371474 0.554223 0.031441 -0.017310 579883.000000 0 0 1
-17.684340 -7.025014 32.062382 37.283818 0.378129 0.535616 0.036539 -0.023145 722688.000000 0 0 1
-16.880040 -5.990614 32.586527 37.184741 0.341027 0.502583 0.025373 -0.032657 265156.000000 0 0 1
-15.474340 -5.836714 31.963962 35.989128 0.360686 0.477479 0.025994 -0.032827 145110.000000 0 0 1
-15.769240 -5.558714 30.601712 34.871665 0.338903 0.500063 0.019833 -0.028458 -27755.300000 0 0 1
-14.608340 -5.340214 29.864092 33.671732 0.350468 0.480165 0.014395 -0.024591 -344843.000000 0 0 1
-14.943140 -5.144314 28.371542 32.476235 0.331551 0.508226 0.018857 -0.009264 151347.000000 0 0 1
-15.683140 -3.983714 27.991442 32.331899 0.248752 0.524143 0.007034 -0.016565 111160.000000 0 0 1
-16.370940 -4.228414 26.774712 31.666582 0.252764 0.563259 0.025356 -0.012449 -447838.000000 0 0 1
-15.561440 -3.964914 25.508962 30.142762 0.249483 0.561849 0.026880 -0.010218 -93658.300000 0 0 1
-15.312840 -2.605814 25.335022 29.717616 0.168557 0.549998 0.026637 -0.001419 -229707.000000 0 0 1
-14.505440 -2.311614 24.224862 28.330113 0.158033 0.545067 0.017501 -0.001551 49303.500000 0 0 1
-14.154340 -0.830014 24.235892 28.078689 0.058573 0.529337 0.023059 -0.008141 463760.000000 0 0 1
-15.287540 -0.068514 23.813492 28.298339 0.004482 0.570714 0.027158 -0.013136 358400.000000 0 0 1
-14.985040 1.342086 23.976452 28.305881 -0.089323 0.560389 0.024117 -0.007274 60489.300000 0 0 1
-15.908440 2.267186 23.139152 28.171599 -0.141561 0.606997 0.032111 -0.012177 -117888.000000 0 0 1
-15.680040 2.337786 21.768852 26.929758 -0.148003 0.629441 0.048415 -0.011709 102555.000000 0 0 1
-16.293640 3.538586 21.274952 27.030130 -0.213855 0.664731 0.038088 -0.012179 -361913.000000 0 0 1
-15.421240 4.380386 20.297752 25.865057 -0.276759 0.668494 0.034768 -0.014342 22078.500000 0 0 1
-14.438140 5.054586 21.043452 26.016065 -0.336751 0.628579 0.041833 -0.009083 -117301.000000 0 0 1
-13.272540 5.271286 20.283352 24.806474 -0.378053 0.613455 0.045608 -0.011355 161229.000000 0 1 0
-12.393340 6.512386 20.581752 24.892059 -0.483819 0.597330 0.040883 -0.007300 136295.000000 0 1 0
-12.777540 7.797286 20.154752 25.105323 -0.547910 0.638807 0.039248 -0.016315 463493.000000 0 0 1
-11.722940 8.729586 20.491552 25.170155 -0.640074 0.619582 0.054034 -0.015627 540857.000000 0 0 1
-12.029540 10.235386 20.436952 25.829092 -0.704990 0.657966 0.035493 -0.016004 -266094.000000 0 0 1
-12.381540 10.672386 19.141152 25.171136 -0.711396 0.706805 0.033457 -0.020131 396920.000000 0 0 1
-12.894040 12.020086 19.400652 26.213051 -0.750334 0.737556 0.021028 -0.020273 -215464.000000 0 0 1
-13.457940 12.806586 18.220952 26.021681 -0.760603 0.795088 0.027788 -0.019946 360291.000000 0 0 1
-12.427140 13.380886 17.353352 25.191680 -0.822337 0.810891 0.027756 -0.023964 791864.000000 0 0 1
-11.874740 14.597186 17.810552 25.909517 -0.887881 0.812875 0.032412 -0.032326 -581424.000000 0 0 1
-12.668940 15.931686 17.593952 26.904792 -0.898987 0.858024 0.025234 -0.024433 40967.900000 0 0 1
-12.842440 16.385986 16.208252 26.384394 -0.906046 0.909282 0.027643 -0.028785 244795.000000 0 0 1
-13.382940 15.431786 15.272652 25.504843 -0.856383 0.928777 0.034766 -0.033433 -175506.000000 0 0 1
-14.050640 15.994286 14.004252 25.482479 -0.849999 0.988954 0.035830 -0.030407 697281.000000 0 0 1
-15.296040 16.701386 14.136152 26.697115 -0.829291 1.012784 0.039221 -0.027019 511877.000000 0 0 1
-15.640740 17.094186 12.813552 26.476991 -0.829769 1.065633 0.037801 -0.023761 -109342.000000 0 0 1
-16.781040 18.128086 12.820252 27.831451 -0.823966 1.092081 0.042609 -0.026283 -798016.000000 0 0 1
-18.041640 17.609186 13.045052 28.385870 -0.773268 1.093295 0.045666 -0.026553 -1241870.000000 0 0 1
-18.997140 18.617186 13.199752 29.693845 -0.775297 1.110149 0.045269 -0.020399 -24380.100000 0 0 1
-20.430740 18.080186 13.409252 30.399282 -0.724438 1.113968 0.053564 -0.017924 192457.000000 0 0 1
-20.967440 17.595386 12.175452 29.957850 -0.698177 1.152265 0.052551 -0.020169 -297707.000000 0 0 1
-22.301940 17.225686 12.438952 30.803057 -0.657674 1.155106 0.069612 -0.023069 -131575.000000 0 0 1
-22.952140 16.335886 11.337752 30.367854 -0.618560 1.188182 0.072567 -0.025697 8582.580000 0 0 1
-22.393440 15.028286 11.276952 29.231579 -0.591067 1.174743 0.062064 -0.021738 155506.000000 0 0 1
-22.802840 14.389386 10.099752 28.792863 -0.562927 1.212400 0.062903 -0.019031 -405714.000000 0 0 1
-22.060540 13.095586 9.772152 27.452810 -0.535715 1.206853 0.072409 -0.020465 -480384.000000 0 0 1
-22.423440 11.909086 10.524852 27.484714 -0.488217 1.177825 0.071741 -0.023632 1001670.000000 0 0 1
-23.803540 11.505186 10.513852 28.452046 -0.450230 1.192294 0.071334 -0.014076 485979.000000 0 0 1
-24.515340 11.041186 9.254552 28.435127 -0.423169 1.239296 0.085896 -0.005245 -562504.000000 0 0 1
-24.673340 12.052086 8.267452 28.677121 -0.454378 1.278351 0.086718 -0.008867 239952.000000 0 0 1
-25.772780 11.742586 7.436752 29.281903 -0.427517 1.314013 0.092816 -0.009013 -185456.000000 0 0 1
-26.236960 12.914886 6.468452 29.950179 -0.457420 1.353107 0.081152 -0.005466 -495923.000000 0 0 1
-25.498240 13.165586 5.310552 29.183812 -0.476629 1.387808 0.082661 -0.006852 765151.000000 0 0 1
-24.193740 13.754686 5.437752 28.356615 -0.516953 1.377838 0.082029 -0.010050 314263.000000 0 0 1
-24.081740 15.182886 5.952452 29.084049 -0.562525 1.364676 0.075011 -0.020113 -825931.000000 0 0 1
-22.718140 15.527986 6.067052 28.178740 -0.599570 1.353791 0.056513 -0.021697 331338.000000 0 0 1
-22.546340 16.813986 6.642452 28.899304 -0.640777 1.338875 0.053909 -0.022102 289966.000000 0 0 1
-21.054040 17.247786 6.584552 28.002055 -0.686348 1.333428 0.035832 -0.019379 314200.000000 0 0 1
-20.683440 17.834686 5.326552 27.825400 -0.711574 1.378180 0.047892 -0.024170 144125.000000 0 0 1
-19.366640 18.316186 5.368252 27.191314 -0.757529 1.372066 0.037632 -0.014750 -424491.000000 0 0 1
-18.826440 19.204386 4.253852 27.227533 -0.795336 1.413920 0.042614 -0.011623 50367.700000 0 0 1
-17.484440 19.634686 4.440452 26.663536 -0.843262 1.403480 0.031332 -0.004500 417594.000000 0 0 1
-17.015340 20.630186 3.560952 26.977894 -0.881128 1.438415 0.037069 -0.003896 181030.000000 0 0 1
-17.386040 22.049286 4.070252 28.372740 -0.903102 1.426843 0.042155 -0.011878 443604.000000 0 0 1
-16.527540 22.347186 5.210552 28.279076 -0.933997 1.385483 0.038291 -0.004875 714240.000000 0 0 1
-16.383240 23.734186 5.442052 29.348562 -0.966623 1.384289 0.021082 -0.003609 2865.740000 0 0 1
-15.817840 24.053086 6.845852 29.590889 -0.989082 1.337331 0.029338 0.008417 107135.000000 0 0 1
-16.699940 23.568686 7.827352 29.927218 -0.954345 1.306172 0.026496 0.005237 293022.000000 0 0 1
-16.076940 23.603686 9.133252 29.983634 -0.972854 1.261270 0.030376 0.002148 294791.000000 0 0 1
-16.808240 22.841886 10.249452 30.154933 -0.936412 1.223993 0.021777 -0.003127 717177.000000 0 0 1
-18.111940 23.287886 10.618852 31.354873 -0.909776 1.225297 0.020997 -0.002726 204661.000000 0 0 1
-18.933340 22.301686 11.232752 31.337059 -0.866904 1.204190 0.021843 -0.010627 51186.900000 0 0 1
-20.286540 22.871686 11.684352 32.728914 -0.845226 1.205738 0.035139 -0.012225 -106724.000000 0 0 1
-21.098440 23.483886 10.668252 33.323395 -0.838854 1.244916 0.041351 -0.012428 270069.000000 0 0 1
-20.629940 24.754386 10.216352 33.804555 -0.876027 1.263777 0.023598 -0.004850 -768983.000000 0 0 1
-21.724240 25.743086 9.773652 35.073827 -0.869862 1.288398 0.026229 -0.001785 -411924.000000 0 0 1
-22.499840 26.203086 10.825752 36.194495 -0.861290 1.267048 0.042599 -0.011591 -482430.000000 0 0 1
-23.494440 27.053486 10.319252 37.287623 -0.855691 1.290389 0.038379 -0.006999 -787671.000000 0 0 1
-24.370140 27.452886 11.475452 38.461028 -0.844814 1.267816 0.039688 -0.013213 -632178.000000 0 0 1
-23.723540 28.331286 12.408152 38.979871 -0.873685 1.246837 0.044164 -0.007688 757490.000000 0 0 1
-24.632640 28.701086 13.441052 40.139522 -0.861534 1.229341 0.045469 -0.008491 337777.000000 0 0 1
8.670560 -33.277197 28.426352 44.616230 -1.315908 0.880027 0.027403 -0.022757 245713.000000 0 0 1
9.980660 -33.619497 27.985592 44.867332 -1.282212 0.897277 0.019059 -0.028697 522007.000000 0 0 1
10.482260 -32.824497 26.923592 43.728768 -1.261690 0.907528 0.028523 -0.018131 67836.000000 0 0 1
11.969560 -33.155797 26.653572 44.192648 -1.224347 0.923387 0.004040 0.000709 14364.500000 0 0 1
12.305360 34.231786 26.328102 44.904410 1.225708 0.944295 0.022662 -0.022073 190451.000000 0 0 1
13.700460 34.145286 26.064222 45.088212 1.189221 0.954433 0.030649 -0.012526 407395.000000 0 0 1
14.238560 32.745286 25.773292 44.036949 1.160631 0.945589 0.051047 -0.006334 -96508.400000 0 0 1
14.325260 32.453886 24.375892 43.042443 1.155114 0.968760 0.050275 -0.019216 15800.300000 0 0 1
15.210660 31.397986 24.158232 42.436044 1.119668 0.965160 0.057602 -0.020167 -405894.000000 0 0 1
15.521860 31.103686 22.655352 41.492558 1.107920 0.993202 0.066490 -0.028716 -205710.000000 0 0 1
14.636960 30.210086 22.012952 40.142994 1.119621 0.990390 0.062188 -0.020113 -140875.000000 0 0 1
14.785960 28.803986 22.128152 39.216697 1.096541 0.971268 0.073087 -0.018038 -63120.700000 0 0 1
14.392760 28.110086 23.468402 39.345830 1.097584 0.931707 0.076759 -0.026268 329119.000000 0 0 1
15.292960 28.422186 24.546352 40.548966 1.077163 0.920590 0.076307 -0.026989 891794.000000 0 0 1
14.686760 28.009186 25.777262 40.800523 1.087855 0.886939 0.078069 -0.033177 702095.000000 0 0 1
15.625960 28.381486 27.022032 42.188501 1.067517 0.875638 0.074343 -0.039190 643386.000000 0 0 1
15.577960 29.777186 27.385392 43.351048 1.088800 0.887036 0.072775 -0.025152 238458.000000 0 0 1
16.223160 30.022786 28.630192 44.544882 1.075383 0.872744 0.078277 -0.027528 57200.400000 0 0 1
16.015760 31.468386 29.147812 45.786011 1.100016 0.880702 0.077865 -0.034466 159333.000000 0 0 1
16.797260 32.460386 28.486462 46.339002 1.093271 0.908739 0.065460 -0.024342 157168.000000 0 0 1
16.627360 33.702186 29.116252 47.540115 1.112474 0.911632 0.060000 -0.006169 267613.000000 0 0 1
17.337460 -33.785797 28.441902 47.444804 -1.096678 0.927953 0.044171 -0.005544 -174655.000000 0 0 1
16.689060 -33.460297 27.237532 46.260127 -1.108132 0.941234 0.057366 -0.006233 -74093.300000 0 0 1
16.844660 -32.167697 26.677792 45.057828 -1.088407 0.937160 0.038698 -0.008969 -596399.000000 0 0 1
18.243460 -31.715697 26.239482 45.024656 -1.048798 0.948650 0.055096 -0.004010 270614.000000 0 0 1
19.025160 -31.250797 27.389932 45.703144 -1.023939 0.928169 0.047398 0.001130 339406.000000 0 0 1
20.148260 -30.474997 27.047872 45.456190 -0.986629 0.933491 0.053669 0.001700 -49105.900000 0 0 1
20.318260 -29.621797 28.277672 45.715526 -0.969581 0.903891 0.036990 0.003132 416750.000000 0 0 1
19.240460 -28.670697 28.426252 44.724221 -0.979741 0.882024 0.045862 0.002350 630296.000000 0 0 1
19.271860 -27.905997 29.659112 45.053437 -0.966408 0.852225 0.043876 0.002268 -20815.500000 0 0 1
17.972660 -27.130397 29.967772 44.239601 -0.985715 0.826578 0.060560 -0.006981 20040.900000 0 0 1
17.692160 -26.056797 29.075002 42.864028 -0.974314 0.825339 0.049790 -0.007277 675890.000000 0 0 1
16.466560 -25.380397 29.394102 42.182050 -0.995272 0.799815 0.037350 -0.005497 485823.000000 0 0 1
15.813960 -24.756497 28.135992 40.676769 -1.002349 0.806960 0.025851 -0.009449 -403248.000000 0 0 1
15.197560 -25.767297 27.303872 40.502109 -1.037910 0.831004 0.020603 -0.005168 150964.000000 0 0 1
14.502960 -25.284397 26.203882 39.195408 -1.050020 0.838546 0.020321 -0.002709 -452689.000000 0 0 1
13.067360 -24.726897 26.489152 38.520780 -1.084635 0.812537 -0.000145 0.005412 604227.000000 0 0 1
12.123260 -25.724397 26.929422 39.165186 -1.130392 0.812638 0.003485 0.008496 205127.000000 0 0 1
11.728860 -26.637497 25.930742 38.981095 -1.156027 0.843017 0.000808 0.005577 -1008530.000000 0 0 1
11.056260 -27.928597 26.375442 39.973883 -1.193850 0.850221 0.012243 -0.001703 -145042.000000 0 0 1
9.667260 -27.811597 26.610242 39.686847 -1.236263 0.835907 0.005864 -0.005811 -2753.840000 0 0 1
9.067460 -29.101097 26.705432 40.524965 -1.268745 0.851325 0.018041 -0.008910 -1177780.000000 0 0 1
7.615360 -29.068997 27.122432 40.479953 -1.314579 0.836559 0.018927 -0.008833 -750425.000000 0 0 1
6.631960 -28.763397 26.125012 39.418678 -1.344187 0.846302 0.032887 -0.013759 280262.000000 0 0 1
6.737060 -27.526597 25.407132 38.060792 -1.330767 0.839895 0.051957 -0.015915 -1073990.000000 0 0 1
5.495360 -27.160397 24.568462 37.033707 -1.371162 0.845432 0.050806 -0.018569 -240362.000000 0 0 1
5.201460 -28.020397 23.426052 36.891432 -1.387254 0.882788 0.037919 -0.013185 457258.000000 0 0 1
4.457560 -29.212997 23.720702 37.893809 -1.419376 0.894411 0.038856 -0.005663 -57494.900000 0 0 1
2.962260 -29.128897 24.092272 37.917083 -1.469450 0.882278 0.042329 -0.012826 -183111.000000 0 0 1
2.096260 -28.766097 22.993652 36.886185 -1.498052 0.897754 0.040169 -0.009177 -276929.000000 0 0 1
0.878860 -28.208997 23.337152 36.621614 -1.539651 0.879871 0.048657 -0.017096 -629239.000000 0 0 1
0.850960 -26.765197 23.924922 35.909634 -1.539014 0.841623 0.050022 -0.018609 -496823.000000 0 0 1
1.587360 -26.650097 25.105752 36.647594 -1.511304 0.816112 0.051317 -0.022017 -153309.000000 0 0 1
1.417160 -25.318997 25.594582 36.029746 -1.514882 0.780767 0.055549 -0.019562 -625123.000000 0 0 1
2.571860 -24.857597 26.463972 36.398577 -1.467699 0.756765 0.070670 -0.019289 -1410990.000000 0 0 1
3.707160 -24.641697 25.707052 35.802357 -1.421474 0.769833 0.063458 -0.013889 -655008.000000 0 0 1
4.710260 -23.788897 26.223562 35.717970 -1.375322 0.746332 0.071188 -0.015866 340062.000000 0 0 1
4.317760 -22.287097 26.315212 34.754110 -1.379433 0.711807 0.065582 -0.007099 -335998.000000 0 0 1
4.095560 -21.637497 25.117862 33.404519 -1.383729 0.719811 0.059470 -0.012936 -11368.100000 0 0 1
3.309660 -20.510297 25.377052 32.796660 -1.410810 0.686026 0.071719 -0.019582 -169474.000000 0 0 1
3.126760 -19.583797 24.173592 31.267624 -1.412472 0.687052 0.074256 -0.024275 5814.790000 0 0 1
4.217260 -18.718197 23.912182 30.658582 -1.349194 0.676209 0.079244 -0.014284 -4257.410000 0 0 1
4.428860 -18.467797 22.538852 29.473279 -1.335426 0.700187 0.084844 -0.023286 -6951.220000 0 0 1
5.674060 -17.575397 22.333552 28.980633 -1.258518 0.690956 0.070158 -0.012563 -600486.000000 0 0 1
6.858660 -18.180397 22.660452 29.850698 -1.210049 0.708826 0.052089 -0.020446 -880419.000000 0 0 1
7.950560 -17.489297 22.048752 29.244391 -1.144127 0.716745 0.039067 -0.018089 1058790.000000 0 0 1
9.310060 -17.585997 22.823352 30.279530 -1.083905 0.717039 0.047935 -0.012380 563596.000000 0 0 1
9.300860 -16.824797 24.001072 30.751118 -1.065801 0.675340 0.056135 -0.008776 -201620.000000 0 0 1
10.475460 -17.080897 24.721652 31.822200 -1.020666 0.681120 0.052267 -0.001125 -86047.000000 0 0 1
10.690060 -16.124497 25.964372 32.379398 -0.985357 0.640362 0.070176 -0.015069 -216570.000000 0 0 1
10.965560 -14.742797 25.650342 31.552078 -0.931281 0.621592 0.075576 -0.010994 227674.000000 0 0 1
11.029560 -13.929697 26.818492 32.170160 -0.901074 0.585122 0.069325 -0.009497 35693.700000 0 0 1
11.256960 -12.419197 26.593072 31.434807 -0.834448 0.562405 0.061316 -0.011356 1463100.000000 0 0 1
10.003660 -11.749097 26.255162 30.454031 -0.865466 0.531349 0.064384 -0.003061 1506680.000000 0 0 1
10.361160 -10.423797 26.013002 29.877842 -0.788412 0.514284 0.059011 -0.000486 422422.000000 0 0 1
9.272460 -9.685197 25.178812 28.526376 -0.807166 0.489325 0.055433 0.002156 290392.000000 0 0 1
8.055960 -9.556497 25.865262 28.726937 -0.870390 0.450146 0.048280 -0.000388 -602549.000000 0 0 1
7.021960 -9.130497 25.023182 27.546933 -0.915204 0.431394 0.048362 0.001146 1311580.000000 0 0 1
5.571060 -9.328097 25.662952 27.868212 -1.032413 0.400495 0.035567 -0.000047 736792.000000 0 0 1
5.128760 -8.302197 26.574182 28.309324 -1.017421 0.351934 0.031525 -0.000038 1191370.000000 0 0 1
3.753560 -8.416197 27.029082 28.556836 -1.151280 0.328581 0.017271 -0.002971 1429130.000000 0 0 1
2.637360 -8.236497 26.003102 27.403592 -1.260908 0.321084 0.023418 -0.000712 -666002.000000 0 0 1
2.825460 -7.075697 25.258042 26.382142 -1.190877 0.292966 0.022044 0.001086 -113399.000000 0 0 1
1.815760 -6.977397 24.270642 25.318869 -1.316209 0.288756 0.032625 -0.005801 108348.000000 0 0 1
1.903860 -5.752997 23.351652 24.125118 -1.251207 0.253903 0.028151 -0.012594 -116505.000000 0 1 0
1.661260 -4.500297 24.044102 24.517979 -1.217169 0.196928 0.024230 -0.002460 -81420.700000 0 1 0
2.078760 -3.334697 23.358652 23.686876 -1.013368 0.166667 0.018374 -0.008626 -921504.000000 0 1 0
1.078760 -2.701697 22.380952 22.569225 -1.190902 0.129257 0.013681 -0.011398 -275300.000000 0 1 0
0.170260 -1.858697 22.991452 23.067090 -1.479450 0.081004 0.026399 -0.012176 -454576.000000 0 1 0
-0.972340 -2.396697 23.620012 23.761199 1.185386 0.109067 0.031910 -0.012130 -234551.000000 0 1 0
-1.939740 -1.357697 24.203732 24.319264 0.610684 0.097513 0.042525 -0.015961 58264.500000 0 1 0
-1.404240 -0.811697 25.418932 25.470627 0.524110 0.063723 0.040535 -0.015637 217617.000000 0 0 1
-1.887840 0.513303 25.696072 25.770440 -0.265482 0.075989 0.047830 -0.014845 -168051.000000 0 0 1
-1.154040 1.272303 26.853882 26.908764 -0.834101 0.063878 0.054413 -0.025869 -166736.000000 0 0 1
-1.359840 0.728303 28.178612 28.220804 -0.491705 0.054689 0.065488 -0.028291 73303.900000 0 0 1
-0.625340 -0.434697 28.547462 28.557619 0.607454 0.026672 0.060596 -0.027869 -468669.000000 0 0 1
0.762260 -0.203697 29.171772 29.182440 -0.261126 0.027040 0.040964 -0.025580 42197.900000 0 0 1
1.757860 0.301303 28.258852 28.315077 0.169754 0.063029 0.039068 -0.023598 303674.000000 0 0 1
2.359960 -0.535697 27.315102 27.422093 -0.223212 0.088365 0.033417 -0.020290 -735755.000000 0 0 1
3.408260 -1.468697 27.877692 28.123638 -0.406877 0.132348 0.024657 -0.021087 -849496.000000 0 0 1
2.802860 -2.578697 28.592332 28.844881 -0.743768 0.132425 0.030984 -0.017622 -218652.000000 0 0 1
3.604060 -3.706697 28.742902 29.204165 -0.799436 0.177967 0.030867 -0.007544 -260913.000000 0 0 1
3.991960 -4.567597 27.519772 28.180429 -0.852548 0.216961 0.035614 -0.005577 8466.990000 0 0 1
4.937160 -3.908097 26.700242 27.432676 -0.669578 0.231599 0.044604 -0.004581 -432557.000000 0 0 1
5.408660 -4.708797 25.706262 26.687793 -0.716334 0.272051 0.040258 -0.004627 -164486.000000 0 0 1
6.609160 -4.050897 24.937972 26.115000 -0.549867 0.301376 0.038498 -0.004875 720320.000000 0 0 1
7.835360 -3.922097 25.668662 27.122978 -0.464098 0.328954 0.041103 -0.005071 735779.000000 0 0 1
8.596460 -5.142497 25.834622 27.708701 -0.539103 0.369896 0.046193 -0.005122 227838.000000 0 0 1
9.511560 -5.473797 24.617732 26.953014 -0.522202 0.419341 0.037996 -0.006645 -163372.000000 0 0 1
8.723060 -5.909497 23.521242 25.773296 -0.595436 0.421147 0.033544 -0.006249 226495.000000 0 0 1
9.495260 -6.051697 22.315052 24.994890 -0.567423 0.467307 0.047312 -0.008406 410057.000000 0 1 0
9.593860 -4.711397 21.501552 24.011584 -0.456490 0.461320 0.044916 -0.013812 -591237.000000 0 1 0
8.331060 -4.256297 21.175352 23.149906 -0.472326 0.416017 0.036401 -0.015353 -1104400.000000 0 1 0
8.315060 -3.078697 20.381052 22.226243 -0.354605 0.410350 0.025559 -0.013487 -152355.000000 0 1 0
6.924460 -2.434697 20.225052 21.515776 -0.338107 0.348136 0.016995 -0.003091 14239.800000 0 1 0
6.444760 -1.851697 21.459552 22.482795 -0.279782 0.302859 0.013347 0.003330 -283610.000000 0 1 0
5.327360 -1.064697 21.166852 21.852917 -0.197256 0.251238 0.006982 0.002864 -684385.000000 0 1 0
4.685560 -0.588697 22.438052 22.929615 -0.124986 0.207436 0.000388 -0.003243 393682.000000 0 1 0
3.423860 0.096303 22.295952 22.557517 0.028120 0.152433 -0.001759 -0.004122 894023.000000 0 1 0
2.893260 0.394303 23.588442 23.768488 0.135449 0.123163 0.015098 -0.008473 128078.000000 0 1 0
1.451160 0.960303 23.639052 23.703013 0.584590 0.073480 0.026946 -0.013753 16299.100000 0 1 0
1.223660 2.285303 23.177352 23.321870 1.079195 0.111383 0.025314 -0.009838 661441.000000 0 1 0
-0.172540 2.588303 23.253952 23.398192 -1.504233 0.111094 0.017660 -0.001922 510539.000000 0 1 0
-0.701640 3.968303 22.781552 23.135230 -1.395794 0.175080 0.018130 -0.002016 -27527.200000 0 1 0
-0.572040 5.028303 23.746182 24.279461 -1.457519 0.209977 0.024595 -0.003751 288552.000000 0 1 0
-1.465140 6.087303 23.317852 24.143822 -1.334601 0.262325 0.022766 -0.001909 491465.000000 0 1 0
-1.423040 7.327303 24.192182 25.317506 -1.378974 0.299271 0.043658 0.000725 -19709.900000 0 0 1
-0.274240 8.099303 23.969532 25.302419 -1.536950 0.326029 0.029482 0.000637 -156399.000000 0 0 1
-0.335140 9.303303 24.703992 26.399830 -1.534788 0.360379 0.036919 0.003184 -374583.000000 0 0 1
0.528760 10.471303 24.167422 26.343729 1.520343 0.409329 0.031635 -0.000943 796272.000000 0 0 1
1.953660 10.357303 24.127272 26.328991 1.384361 0.411863 0.019387 0.009462 765013.000000 0 0 1
2.580160 10.464303 25.472462 27.658727 1.329051 0.400270 0.029841 -0.002347 407140.000000 0 0 1
3.971060 11.168303 25.325482 27.962124 1.229172 0.437752 0.020825 -0.004152 367884.000000 0 0 1
5.035060 10.492303 24.706432 27.310219 1.123373 0.440218 0.022960 -0.011750 -321143.000000 0 0 1
4.991660 10.231303 23.354952 25.981725 1.116891 0.453546 0.016560 -0.013531 -272044.000000 0 0 1
6.302560 9.877303 22.571852 25.431710 1.002843 0.478802 0.015215 -0.019461 540278.000000 0 0 1
7.054860 11.019303 22.165352 25.739055 1.001322 0.533256 0.014619 -0.019271 -124699.000000 0 0 1
8.268760 10.548303 21.631352 25.447092 0.905953 0.554712 0.015271 -0.023672 -117387.000000 0 0 1
9.071960 11.638303 20.851852 25.545064 0.908686 0.615860 0.021281 -0.029367 -389030.000000 0 0 1
8.747860 11.844303 19.483752 24.421899 0.934650 0.647162 0.022275 -0.027135 60268.700000 0 1 0
9.567460 12.763303 18.785352 24.644019 0.927547 0.703986 0.040804 -0.027893 128765.000000 0 1 0
11.058360 12.491303 18.488152 24.902445 0.846171 0.734116 0.047776 -0.029254 -196941.000000 0 1 0
11.963060 12.808303 19.518352 26.232299 0.819507 0.731673 0.055282 -0.034992 196966.000000 0 0 1
13.261960 12.681303 18.955852 26.382179 0.763020 0.769139 0.054198 -0.037429 858481.000000 0 0 1
14.468860 12.496303 19.956752 27.636524 0.712376 0.763941 0.065272 -0.031508 680916.000000 0 0 1
14.877760 13.673303 20.639452 28.884147 0.743237 0.774802 0.067132 -0.035477 295749.000000 0 0 1
16.144360 13.329303 21.203252 29.797459 0.690176 0.779053 0.066376 -0.034444 390254.000000 0 0 1
16.872560 14.537303 21.822552 31.180767 0.711187 0.795578 0.072194 -0.027613 -293211.000000 0 0 1
16.341260 15.064303 23.012752 31.993074 0.744760 0.767996 0.068985 -0.028192 746970.000000 0 0 1
17.232260 16.120303 23.489372 33.295128 0.752071 0.787682 0.056229 -0.020361 542499.000000 0 0 1
-20.806640 12.759186 -25.378536 35.210555 -0.550088 2.375702 0.047308 -0.000623 125676.000000 0 0 1
-20.497640 12.707786 -26.758476 36.023008 -0.554969 2.408063 0.049101 -0.007985 299134.000000 0 0 1
-21.364740 13.561086 -27.500266 37.371377 -0.565574 2.397739 0.049539 -0.006990 30000.100000 0 0 1
-21.127840 13.538586 -28.988326 38.340605 -0.569876 2.428090 0.054013 -0.014796 -744297.000000 0 0 1
-19.884340 14.105886 -29.188116 38.030371 -0.617005 2.445721 0.056507 -0.007390 -869740.000000 0 0 1
-19.650740 14.494086 -30.532266 39.095389 -0.635508 2.467011 0.054461 -0.025044 -741974.000000 0 0 1
-18.210740 14.882386 -30.767136 38.726388 -0.685160 2.488938 0.035096 -0.018393 -1223060.000000 0 0 1
-17.317140 13.845086 -30.981356 38.097430 -0.674437 2.520450 0.031485 -0.016319 -713433.000000 0 0 1
-15.992040 14.286486 -31.103586 37.779387 -0.729129 2.537988 0.012844 -0.001655 211313.000000 0 0 1
-15.075940 14.013486 -29.874806 36.279000 -0.748891 2.538303 0.031009 0.000273 -216456.000000 0 0 1
-15.559640 14.563886 -28.674266 35.727059 -0.752354 2.502425 0.027181 0.004491 83980.200000 0 0 1
-16.140140 13.530486 -27.837446 34.907042 -0.697670 2.493893 0.054295 0.003155 252797.000000 0 0 1
-16.832640 13.888986 -26.490416 34.321770 -0.689873 2.452503 0.049340 -0.001527 -305851.000000 0 0 1
-16.063140 14.280786 -25.381536 33.259400 -0.726727 2.438953 0.045207 0.000074 -367239.000000 0 0 1
-16.856040 14.539286 -24.244596 32.913787 -0.711739 2.398839 0.045535 0.000849 210422.000000 0 0 1
-16.125940 15.237986 -23.020696 31.971779 -0.757094 2.374644 0.047428 0.003148 534732.000000 0 0 1
-15.485440 16.480286 -23.338396 32.497376 -0.816510 2.371954 0.019282 0.001870 -103840.000000 0 0 1
-14.788540 16.999186 -22.247196 31.664033 -0.854830 2.349843 0.022149 0.000616 -457378.000000 0 0 1
-14.398740 18.491586 -22.574096 32.540011 -0.909201 2.337456 0.013701 -0.005001 757284.000000 0 0 1
-15.526140 19.419186 -22.698796 33.666024 -0.896345 2.310724 0.003517 -0.004316 1203840.000000 0 0 1
-16.274040 19.239486 -23.908896 34.736689 -0.868707 2.329925 -0.011669 0.003895 423010.000000 0 0 1
-17.515540 20.174886 -24.114296 35.990547 -0.855839 2.305029 0.010445 -0.003851 596198.000000 0 0 1
-17.246940 21.544686 -24.290496 36.764911 -0.895739 2.292544 0.008836 -0.010852 -248120.000000 0 0 1
-18.472740 22.199286 -24.487396 37.864007 -0.876767 2.274072 0.056913 -0.021167 60973.200000 0 0 1
-18.304240 23.716386 -24.644096 38.792314 -0.913490 2.259171 0.032331 -0.026252 -149729.000000 0 0 1
-17.892840 24.187286 -23.401196 38.115542 -0.933880 2.231857 0.042702 -0.022148 -329795.000000 0 0 1
-17.132640 25.353786 -23.672596 38.687642 -0.976536 2.229245 0.027732 -0.021442 -843712.000000 0 0 1
-16.011040 25.563486 -22.661096 37.727583 -1.011245 2.215111 0.013337 -0.024479 -171178.000000 0 0 1
-14.901840 24.659986 -22.764696 36.720718 -1.027227 2.239464 0.021315 -0.030507 317137.000000 0 0 1
-15.195440 23.326786 -22.346996 35.699140 -0.993426 2.247186 0.020585 -0.018647 -1138190.000000 0 0 1
-13.975840 22.450886 -22.068496 34.443939 -1.013992 2.266216 0.015795 -0.013708 -18147.400000 0 0 1
-13.336040 22.767286 -20.833696 33.619075 -1.040917 2.239155 0.022864 -0.013841 179708.000000 0 0 1
-12.209240 21.959886 -20.498096 32.426441 -1.063374 2.255110 0.024927 -0.010954 291490.000000 0 0 1
-11.494940 22.508686 -19.234796 31.760856 -1.098634 2.221333 0.031139 -0.018832 -357022.000000 0 0 1
-12.052940 22.248986 -17.987196 31.045611 -1.074325 2.188764 0.042133 -0.016761 -116281.000000 0 0 1
-13.237140 22.981186 -17.692396 31.880679 -1.048212 2.159107 0.036444 -0.023791 155283.000000 0 0 1
-13.794040 22.632286 -16.282796 31.106677 -1.023432 2.121692 0.056467 -0.019367 165957.000000 0 0 1
-13.004140 23.079786 -15.215296 30.549786 -1.057691 2.092144 0.062046 -0.030325 222172.000000 0 0 1
-13.876440 23.295586 -14.104296 30.564213 -1.033568 2.050441 0.069032 -0.027323 485858.000000 0 0 1
-12.983240 23.743986 -12.961896 30.005869 -1.070412 2.017482 0.080111 -0.024253 -59412.900000 0 0 1
-12.439940 25.078786 -13.150796 30.929615 -1.110326 2.009962 0.076710 -0.029699 605002.000000 0 0 1
-11.537540 25.440686 -12.087996 30.437855 -1.145029 1.979191 0.036044 -0.020554 233649.000000 0 0 1
-11.012440 26.864986 -12.166296 31.480471 -1.181769 1.967599 0.060031 -0.015308 521078.000000 0 0 1
-10.162440 27.131886 -13.326796 31.890718 -1.212414 2.001917 0.055441 -0.027596 744293.000000 0 0 1
-10.231340 28.504186 -13.599896 33.198285 -1.226178 1.992874 0.033520 -0.004840 -326746.000000 0 0 1
-9.643340 28.857186 -15.001796 33.923223 -1.248289 2.028877 0.067151 -0.029839 833108.000000 0 0 1
-8.247940 28.918486 -15.287996 33.734703 -1.292960 2.041129 0.043591 -0.037254 587360.000000 0 0 1
-7.475040 27.729086 -15.241896 32.512979 -1.307482 2.058722 0.047053 -0.029373 -238424.000000 0 0 1
-5.983440 27.858686 -15.544596 32.458318 -1.359232 2.070208 0.039623 -0.027072 -158678.000000 0 0 1
-5.242940 28.406886 -14.503096 32.323047 -1.388284 2.036098 0.023538 -0.020871 -858977.000000 0 0 1
-3.948740 28.755886 -14.903896 32.628510 -1.434330 2.045163 0.036611 -0.017439 -728045.000000 0 0 1
-3.301140 29.806286 -13.981496 33.087678 -1.460493 2.007063 0.004882 -0.008060 -118010.000000 0 0 1
-3.541240 31.190186 -14.135096 34.426284 -1.457743 1.993898 -0.002004 -0.005682 404159.000000 0 0 1
-4.810640 31.643386 -13.638296 34.791511 -1.419925 1.973602 -0.004322 -0.007326 649177.000000 0 0 1
-4.945840 33.121986 -13.901596 36.259918 -1.422570 1.964258 -0.002190 -0.009172 -108928.000000 0 0 1
-3.963240 33.871986 -13.240596 36.583221 -1.454320 1.941135 -0.019174 -0.002015 -313715.000000 0 0 1
-3.934340 -33.503497 -13.668796 36.397793 1.453901 1.955775 -0.001140 -0.000676 455901.000000 0 0 1
-2.995640 -32.559697 -12.858896 35.134868 1.479050 1.945489 -0.004462 0.001076 188565.000000 0 0 1
-3.350440 -32.537397 -11.501996 34.672807 1.468186 1.908933 -0.004477 0.002414 717372.000000 0 0 1
-2.296840 -31.951997 -10.675496 33.766430 1.499036 1.892472 -0.015550 -0.000590 743800.000000 0 0 1
-2.549040 -32.198597 -9.200896 33.584278 1.491795 1.848309 -0.016871 -0.011949 -91156.400000 0 0 1
-1.954140 -31.231597 -8.353196 32.388381 1.508308 1.831652 0.003793 -0.015332 -164644.000000 0 0 1
-1.911740 -31.644897 -6.984196 32.462798 1.510457 1.787636 -0.015802 -0.017376 114041.000000 0 0 1
-1.036840 -30.698397 -6.115496 31.318779 1.537034 1.767325 0.007847 -0.019708 -277533.000000 0 0 1
-1.267840 -30.890897 -4.756896 31.280713 1.529777 1.723460 0.013149 -0.019432 24659.600000 0 0 1
-0.319340 -30.251597 -3.914496 30.505481 1.560241 1.699472 0.018208 -0.024499 -71367.500000 0 0 1
-0.243340 -30.705797 -2.385096 30.799251 1.562872 1.648314 0.031061 -0.014913 -607384.000000 0 0 1
0.104260 -31.974297 -1.993496 32.036550 -1.567536 1.633062 0.028414 -0.014163 140957.000000 0 0 1
1.408760 -32.428797 -2.310496 32.541510 -1.527382 1.641858 0.031971 -0.015231 -493021.000000 0 0 1
2.559460 -31.901297 -1.501896 32.039027 -1.490737 1.617691 0.037638 -0.016893 -1897740.000000 0 0 1
2.572960 -32.349197 -0.154096 32.451724 -1.491426 1.575545 0.040835 -0.015904 918363.000000 0 0 1
3.837060 -32.189397 0.517804 32.421419 -1.452154 1.554825 0.044554 -0.014647 820991.000000 0 0 1
4.409760 -30.767697 0.686204 31.089677 -1.428441 1.548723 0.037319 -0.018403 -545587.000000 0 0 1
4.739760 -30.066797 -0.537796 30.442845 -1.414442 1.588463 0.024218 -0.023972 117643.000000 0 0 1
4.389160 -28.713397 -0.551396 29.052159 -1.419109 1.589777 0.043849 -0.013652 -284883.000000 0 0 1
4.032260 -28.084897 -1.979996 28.441887 -1.428197 1.640468 0.039322 -0.010212 228395.000000 0 0 1
2.789560 -28.468797 -2.554896 28.719010 -1.473122 1.659876 0.032155 -0.011699 332933.000000 0 0 1
2.240360 -27.500497 -3.411496 27.801706 -1.489510 1.693815 0.026800 -0.011883 -203117.000000 0 0 1
2.659160 -27.506597 -4.874696 28.061480 -1.474422 1.745397 0.020474 -0.011208 -18150.200000 0 0 1
2.140260 -28.617697 -5.659496 29.250354 -1.496147 1.765509 0.017933 -0.011493 224094.000000 0 0 1
2.621760 -28.571297 -6.966096 29.524890 -1.479291 1.808982 0.028060 -0.023679 -225520.000000 0 0 1
1.638760 -29.379997 -7.828096 30.449119 -1.515076 1.830804 0.017089 -0.020957 -387213.000000 0 0 1
0.419260 -28.750297 -8.125596 29.879435 -1.556215 1.846211 0.008857 -0.013427 -448116.000000 0 0 1
0.268760 -28.703397 -9.497896 30.235199 -1.561433 1.890340 0.014430 -0.008099 39396.900000 0 0 1
-1.135940 -28.185397 -9.849596 29.878446 1.530516 1.906735 -0.006425 -0.002335 -461876.000000 0 0 1
-1.211740 -26.808797 -9.572396 28.492292 1.525628 1.913425 0.008509 -0.000672 108223.000000 0 0 1
-2.527340 -26.276897 -9.536296 28.067841 1.474910 1.917457 0.013423 -0.009054 635596.000000 0 0 1
-3.501540 -26.670497 -8.392396 28.178157 1.440254 1.873219 0.012666 -0.005411 -402287.000000 0 0 1
-3.123540 -26.320997 -7.071196 27.432703 1.452678 1.831505 0.022341 -0.016258 -459438.000000 0 0 1
-2.219040 -27.202997 -6.474296 28.050734 1.489403 1.803703 0.023221 -0.015568 -27926.900000 0 0 1
-1.572440 -26.761497 -5.155796 27.298947 1.512106 1.760802 0.027106 -0.016074 -419934.000000 0 0 1
-2.423340 -26.870497 -4.064396 27.283979 1.480854 1.720319 0.031895 -0.023381 -207877.000000 0 0 1
-1.845240 -26.635197 -2.773296 26.842686 1.501629 1.674298 0.035764 -0.021090 106627.000000 0 0 1
-2.957940 -26.793397 -1.695796 27.009466 1.460843 1.633623 0.027761 -0.016636 -107098.000000 0 0 1
-3.967040 -25.859697 -1.887396 26.230204 1.418577 1.642814 0.022485 -0.016119 -1048260.000000 0 0 1
-4.906140 -25.986897 -0.846196 26.459499 1.384200 1.602783 0.029053 -0.018262 -251243.000000 0 0 1
-6.170340 -25.154597 -1.132796 25.925086 1.330249 1.614505 0.030517 -0.014166 -185070.000000 0 0 1
-5.913540 -23.765297 -0.990796 24.510018 1.326918 1.611231 0.023769 -0.017824 -169802.000000 0 1 0
-6.552840 -23.238097 0.147904 24.144787 1.295946 1.564671 0.030528 -0.008123 -76124.600000 0 1 0
-6.093840 -21.782897 0.590404 22.626932 1.298016 1.544700 0.018071 -0.009402 586900.000000 0 1 0
-4.808540 -21.800497 1.207504 22.357142 1.353702 1.516760 0.011842 -0.015762 338106.000000 0 1 0
-4.348940 -20.424097 1.351404 20.925661 1.360998 1.506170 -0.004436 -0.006003 270028.000000 0 1 0
-3.369540 -20.228697 2.539804 20.664089 1.405739 1.447576 -0.002376 -0.001556 72999.100000 0 1 0
-4.065940 -20.140897 3.784604 20.892841 1.371599 1.388647 0.001976 0.004600 51340.200000 0 1 0
-3.236540 -19.971397 4.933304 20.824730 1.410134 1.331626 0.021703 -0.001676 602879.000000 0 1 0
-2.310540 -21.211397 5.306604 21.986860 1.462295 1.327036 0.021226 -0.008202 1605420.000000 0 1 0
-1.217740 -21.498997 4.379104 21.974219 1.514215 1.370169 0.022591 -0.012644 689155.000000 0 1 0
-0.632540 -22.761597 4.703404 23.251073 1.543014 1.367103 0.023679 -0.011054 -1285690.000000 0 1 0
0.315560 -23.357897 3.679104 23.647975 -1.557287 1.414584 0.030462 -0.017381 93790.300000 0 1 0
1.436160 -22.481197 3.556404 22.806025 -1.507000 1.414216 0.025121 -0.021841 580129.000000 0 1 0
2.466660 -22.880997 4.489804 23.447447 -1.463407 1.378123 0.037001 -0.023178 -862383.000000 0 1 0
3.632360 -21.928297 4.688604 22.716233 -1.406640 1.362903 0.041821 -0.023994 -516075.000000 0 1 0
4.516360 -21.852097 3.586704 22.600356 -1.366987 1.411421 0.032818 -0.013315 -426002.000000 0 1 0
5.717360 -21.257097 4.059204 22.383688 -1.308052 1.388441 0.043301 -0.008917 327389.000000 0 1 0
6.471660 -20.762297 2.787204 21.925416 -1.268638 1.443329 0.051545 -0.006106 127409.000000 0 1 0
7.211960 -21.779197 2.086304 23.036893 -1.251021 1.480108 0.049284 -0.007465 241704.000000 0 1 0
6.898860 -21.698697 0.684304 22.779288 -1.262964 1.540751 0.046743 -0.012434 305844.000000 0 1 0
7.922160 -22.584697 -0.072596 23.933959 -1.233431 1.573830 0.050707 -0.005567 963580.000000 0 1 0
9.165060 -21.900497 -0.342996 23.743372 -1.174456 1.585243 0.042916 -0.006178 -35842.500000 0 1 0
9.906360 -22.815697 -1.112296 24.898377 -1.161167 1.615485 0.044145 -0.005930 95285.600000 0 1 0
11.238460 -22.288297 -1.713296 25.020123 -1.103769 1.639327 0.050954 0.000068 272508.000000 0 0 1
11.142760 -21.250597 -2.632296 24.138723 -1.087859 1.680062 0.048767 0.004905 70127.500000 0 1 0
12.340960 -21.130797 -3.412096 24.707332 -1.042204 1.709340 0.056743 0.004848 523897.000000 0 1 0
12.407060 -19.956397 -4.389796 23.905297 -1.014568 1.755477 0.042167 -0.003977 -255318.000000 0 1 0
12.576860 -18.734297 -3.642596 22.856504 -0.979574 1.730847 0.051223 -0.002538 132841.000000 0 1 0
12.659060 -17.606497 -4.471996 22.141348 -0.947433 1.774170 0.044757 -0.006334 -1350300.000000 0 1 0
13.072460 -16.303997 -3.727496 21.227429 -0.894962 1.747310 0.050518 -0.002709 114838.000000 0 1 0
14.421260 -16.272797 -3.314696 21.994633 -0.845647 1.722077 0.044312 -0.001684 444066.000000 0 1 0
15.334360 -16.217597 -4.427696 22.754286 -0.813384 1.766633 0.037549 -0.001283 -651400.000000 0 1 0
16.781360 -15.772397 -4.137796 23.398801 -0.754414 1.748569 0.034684 -0.001390 233525.000000 0 1 0
17.502960 -16.536897 -3.192996 24.290282 -0.757025 1.702629 0.046282 -0.016891 428020.000000 0 1 0
18.899860 -16.340697 -3.304696 25.202065 -0.712906 1.702303 0.038892 -0.009744 -102937.000000 0 0 1
19.699560 -17.332197 -2.476296 26.355450 -0.721557 1.664893 0.040502 -0.020324 -1297290.000000 0 0 1
21.055560 -17.109897 -2.528796 27.248486 -0.682381 1.663735 0.040328 -0.018095 -952567.000000 0 0 1
21.772860 -17.981997 -1.681596 28.288468 -0.690330 1.630276 0.034637 -0.012446 -92423.200000 0 0 1
23.298160 -17.886397 -1.815996 29.428307 -0.654744 1.632545 0.041308 -0.016089 49299.300000 0 0 1
23.888560 -16.660797 -1.286596 29.153058 -0.609005 1.614943 0.050323 -0.019326 213345.000000 0 0 1
25.248960 -16.775597 -0.965096 30.329227 -0.586437 1.602622 0.072723 -0.014113 -159797.000000 0 0 1
25.907760 -15.554697 -0.348696 30.220559 -0.540704 1.582335 0.072464 -0.017700 78847.500000 0 0 1
25.329960 -15.176497 0.897304 29.542140 -0.539796 1.540418 0.062455 -0.022940 510910.000000 0 0 1
26.052260 -14.041597 1.366004 29.626890 -0.494342 1.524673 0.053759 -0.022363 483528.000000 0 0 1
25.249660 -13.293597 2.477104 28.642644 -0.484611 1.484205 0.055847 -0.027348 29758.800000 0 0 1
25.016760 -13.960597 3.734304 28.890856 -0.509002 1.441178 0.062879 -0.017889 -632679.000000 0 0 1
26.113260 -14.290197 4.503504 30.106371 -0.500721 1.420646 0.049991 -0.005120 -833157.000000 0 0 1
25.701360 -14.990297 5.781204 30.309919 -0.528012 1.378884 0.043789 0.002053 368232.000000 0 0 1
25.072460 -16.295697 5.663304 30.434372 -0.576336 1.383623 0.038963 -0.009275 119843.000000 0 0 1
24.196660 -16.492597 6.758504 30.052645 -0.598274 1.343967 0.015784 -0.007579 -116537.000000 0 0 1
23.403260 -17.835497 6.628604 30.162160 -0.651197 1.349222 0.009113 -0.009021 -797544.000000 0 0 1
24.106760 -18.958397 6.524204 31.354775 -0.666415 1.361188 0.018788 -0.009390 -470373.000000 0 0 1
23.210960 -20.120397 6.618604 31.422682 -0.714195 1.358576 0.013981 0.000360 723134.000000 0 0 1
1.841260 23.627886 -3.028096 23.892187 1.493026 1.697878 0.024065 0.000420 546927.000000 0 1 0
2.855060 24.614186 -2.801296 24.937056 1.455320 1.683369 0.026177 0.000815 622652.000000 0 1 0
3.657760 24.952386 -3.943196 25.525469 1.425243 1.725898 0.038064 -0.006122 -86211.300000 0 0 1
4.741260 25.970586 -3.664596 26.652957 1.390222 1.708726 0.026007 0.006467 -381584.000000 0 0 1
5.658160 25.448586 -2.709296 26.210410 1.352018 1.674348 0.016583 0.001021 -281890.000000 0 0 1
6.215860 26.521086 -1.946096 27.309196 1.340577 1.642118 0.007617 0.005595 358615.000000 0 0 1
7.408360 25.966086 -1.097796 27.024555 1.292871 1.611430 -0.003637 -0.001366 829096.000000 0 0 1
8.564060 25.669386 -1.880796 27.125595 1.248779 1.640189 -0.003819 -0.008547 444564.000000 0 0 1
9.594060 24.945786 -1.200096 26.754036 1.203639 1.615668 -0.012418 0.000316 522395.000000 0 0 1
10.738860 24.532086 -2.127196 26.863941 1.158178 1.650063 0.011232 -0.009885 -1235760.000000 0 0 1
11.642660 25.527386 -2.482396 28.166669 1.142894 1.659043 0.018963 -0.010482 123305.000000 0 0 1
12.601360 25.228686 -3.516696 28.419149 1.107561 1.694858 0.031487 -0.016223 495961.000000 0 0 1
13.477060 23.951686 -3.382496 27.690353 1.058273 1.693256 0.045744 -0.011897 -1219740.000000 0 0 1
12.908560 22.662586 -3.529496 26.318835 1.053031 1.705307 0.048717 -0.020018 -408237.000000 0 0 1
12.813960 22.293186 -4.873296 26.171219 1.049118 1.758098 0.053761 -0.020487 331418.000000 0 0 1
11.752560 21.121886 -4.927996 24.668641 1.063040 1.771917 0.052122 -0.027778 -85074.500000 0 1 0
10.449160 21.548386 -4.676896 24.400640 1.119288 1.763661 0.050869 -0.023937 -1247130.000000 0 1 0
9.605060 20.475386 -4.861496 23.132936 1.132171 1.782530 0.031958 -0.011837 -919741.000000 0 1 0
8.137860 20.885686 -4.820496 22.927578 1.199254 1.782626 0.022156 -0.007743 -607996.000000 0 1 0
7.735560 21.292786 -3.556696 22.931893 1.222327 1.726523 0.019306 -0.005568 -643458.000000 0 1 0
6.408260 21.715086 -3.617196 22.928036 1.283835 1.729221 0.020647 0.004509 -200615.000000 0 1 0
5.905360 22.294286 -2.218396 23.169586 1.311861 1.666689 0.017787 0.000233 135013.000000 0 1 0
5.538260 21.342686 -1.266296 22.085879 1.316904 1.628163 0.013791 -0.008141 -135986.000000 0 1 0
4.932860 22.051686 -0.190196 22.597481 1.350724 1.579213 0.021874 -0.001303 282324.000000 0 1 0
4.441260 21.146086 0.990904 21.630155 1.363778 1.524969 0.011043 -0.003312 77144.300000 0 1 0
3.761760 21.832686 2.009204 22.245312 1.400172 1.480353 0.019914 -0.001517 -31320.600000 0 1 0
3.405960 20.912586 3.020504 21.402342 1.409347 1.429194 0.020751 -0.007796 468773.000000 0 1 0
2.331860 21.590486 3.959504 22.074064 1.463209 1.390447 0.015854 -0.004327 602906.000000 0 1 0
1.045660 21.777986 3.389904 22.065029 1.522819 1.416553 0.020267 -0.003633 11588.600000 0 1 0
0.163260 22.188086 4.418004 22.624247 1.563438 1.374256 0.026774 -0.015322 343545.000000 0 1 0
-1.309540 22.250286 3.921904 22.631205 -1.512009 1.396621 0.023355 -0.015512 150141.000000 0 1 0
-2.243140 22.534086 4.937704 23.177524 -1.471579 1.356113 0.034523 -0.022216 -206.596000 0 1 0
-3.525640 22.575286 4.331104 23.255798 -1.415875 1.383465 0.040963 -0.024726 375686.000000 0 1 0
-4.727040 22.997186 5.210504 24.049216 -1.368071 1.352404 0.044112 -0.030599 157401.000000 0 1 0
-4.891440 24.331386 5.620604 25.446684 -1.372407 1.348082 0.056813 -0.019430 -75279.200000 0 0 1
-6.136040 24.476386 6.264104 25.999682 -1.325166 1.327472 0.059520 -0.017636 -25579.300000 0 0 1
-6.361740 25.933686 6.704204 27.531330 -1.330239 1.324811 0.063427 -0.017211 -606127.000000 0 0 1
-5.537140 26.371786 7.737104 28.035581 -1.363838 1.291193 0.054801 -0.024937 -408563.000000 0 0 1
-5.829540 27.612086 8.347804 29.429520 -1.362729 1.283194 0.063395 -0.020671 -134192.000000 0 0 1
-5.813940 28.889586 7.480604 30.403446 -1.372202 1.322199 0.073217 -0.026035 457923.000000 0 0 1
-6.988340 28.809186 6.668204 30.385375 -1.332820 1.349541 0.078478 -0.026246 158486.000000 0 0 1
-7.092940 29.912586 5.764304 31.277784 -1.337974 1.385443 0.080871 -0.026174 -561938.000000 0 0 1
-8.551740 30.053086 5.300904 31.692583 -1.293569 1.402746 0.072114 -0.021026 -302997.000000 0 0 1
-9.335340 30.750186 6.197604 32.728165 -1.276052 1.380280 0.069500 -0.010493 -297541.000000 0 0 1
-10.228340 29.841286 6.860604 32.282955 -1.240588 1.356649 0.053661 -0.005269 -60155.800000 0 0 1
-11.160940 30.533386 7.872204 33.448854 -1.220352 1.333217 0.038429 -0.006897 -69388.700000 0 0 1
-10.601540 30.750986 9.159904 33.792301 -1.238802 1.296297 0.046122 -0.002430 28169.300000 0 0 1
-11.466840 31.524086 9.963404 34.993225 -1.221926 1.282078 0.045944 -0.000450 -43145.900000 0 0 1
-10.834440 31.747286 11.337604 35.409272 -1.241919 1.244869 0.040719 -0.007091 -209023.000000 0 0 1
-10.177840 32.980486 11.343104 36.331348 -1.271467 1.253275 0.036387 -0.006789 -296934.000000 0 0 1
-9.233940 33.084886 12.354604 36.503583 -1.298624 1.225528 0.031838 -0.012648 -120370.000000 0 0 1
-8.828240 -34.144097 12.603504 37.451375 1.317779 1.227567 0.022010 -0.015993 26749.500000 0 0 1
-9.868840 -33.479297 13.286004 37.346690 1.284141 1.207082 0.023483 -0.001649 39867.800000 0 0 1
-9.604740 -32.101897 13.358504 36.072600 1.280078 1.191440 0.022740 0.007240 -136939.000000 0 0 1
-10.678340 -31.354497 14.143404 36.016209 1.242549 1.167236 0.016262 -0.011105 -319283.000000 0 0 1
-10.731240 -31.636797 15.548804 36.848497 1.243774 1.135184 0.010631 -0.009613 5184.360000 0 0 1
-9.750940 -30.956297 16.318904 36.327397 1.265644 1.104907 0.017468 -0.018702 -82929.100000 0 0 1
-9.710740 -31.168997 17.836804 37.201565 1.268776 1.070753 0.009491 -0.021327 185111.000000 0 0 1
-10.719540 -30.421397 18.497004 37.182107 1.232013 1.050116 0.023992 -0.022584 471659.000000 0 0 1
-11.440840 -30.991497 19.576304 38.400487 1.217155 1.035852 0.020172 -0.026769 -65883.100000 0 0 1
-11.685340 -30.027797 20.743304 38.321018 1.199678 0.998810 0.026731 -0.021886 -400771.000000 0 0 1
-10.536640 -29.849097 21.526404 38.280222 1.231454 0.973586 0.022885 -0.022115 -44231.100000 0 0 1
-10.746940 -28.938397 22.609504 38.263784 1.215209 0.938641 0.012323 -0.022511 225322.000000 0 0 1
-9.523740 -28.814197 23.556404 38.416972 1.251578 0.910720 0.033230 -0.026043 146200.000000 0 0 1
-9.353040 -29.929297 24.435604 39.753502 1.267907 0.908819 0.027069 -0.019054 -92620.400000 0 0 1
-8.097740 -30.030197 25.074204 39.951243 1.307408 0.892304 0.046616 -0.017886 -52105.000000 0 0 1
-7.951440 -31.176197 26.059404 41.403782 1.321072 0.890020 0.047920 -0.019874 -263002.000000 0 0 1
-8.005240 -32.461597 25.416004 41.997766 1.329014 0.920810 0.064221 -0.018455 283255.000000 0 0 1
-7.929640 -33.358597 26.494404 43.331612 1.337419 0.912925 0.075572 -0.017337 -448314.000000 0 0 1
-7.936640 33.922886 25.977904 43.458071 -1.340969 0.930081 0.079038 -0.019123 231540.000000 0 0 1
-6.618540 33.572586 25.552204 42.706425 -1.376151 0.929391 0.076331 -0.018005 427744.000000 0 0 1
-6.420540 32.308586 24.970104 41.334902 -1.374627 0.922170 0.070652 -0.012347 -98441.400000 0 0 1
-7.178540 31.928686 23.657504 40.381306 -1.349643 0.944864 0.066158 -0.009536 -24122.000000 0 0 1
-8.335140 31.192086 23.958804 40.205038 -1.309678 0.932391 0.058131 -0.008590 -190675.000000 0 0 1
-9.152140 30.973686 22.826104 39.549487 -1.283490 0.955558 0.042164 0.000875 263257.000000 0 0 1
-10.008440 29.687686 23.041604 38.890141 -1.245638 0.936663 0.044441 -0.009405 556453.000000 0 0 1
-9.197640 28.529786 22.795604 37.658795 -1.258929 0.920629 0.038815 -0.001204 539665.000000 0 0 1
-9.966240 27.344086 22.942804 37.059374 -1.221285 0.903223 0.028813 -0.001227 -275088.000000 0 0 1
-9.164440 26.100986 22.597104 35.719428 -1.233129 0.885855 0.024456 -0.003492 835795.000000 0 0 1
-7.995840 25.948086 23.455904 35.880580 -1.271882 0.858305 0.019930 -0.012523 617820.000000 0 0 1
-7.465240 24.688486 23.313504 34.767378 -1.277160 0.835837 0.018943 -0.012680 99973.800000 0 0 1
-6.131240 24.592286 24.130604 34.995123 -1.326462 0.809940 0.015189 -0.015293 718056.000000 0 0 1
-5.090440 25.237986 23.378304 34.776624 -1.371769 0.833563 0.010912 -0.014451 911268.000000 0 0 1
-3.794740 24.944986 23.959904 34.795536 -1.419829 0.811252 0.022420 -0.012760 1239400.000000 0 0 1
-2.643640 25.613686 23.144504 34.622504 -1.467948 0.838631 0.021021 -0.002808 -94669.000000 0 0 1
-2.426440 24.869786 21.977204 33.277490 -1.473538 0.849415 0.018088 -0.008805 -54481.000000 0 0 1
-1.647040 25.564286 21.035104 33.146961 -1.506458 0.883304 0.024414 -0.000710 -123583.000000 0 0 1
-1.300140 24.682786 19.879004 31.719159 -1.518171 0.893461 0.020119 -0.004727 -825139.000000 0 0 1
-0.364240 23.737086 20.224304 31.186606 -1.555453 0.865193 0.034767 -0.008511 -647941.000000 0 0 1
-0.082740 22.834786 19.154504 29.804854 -1.567173 0.872826 0.015106 -0.005833 156503.000000 0 0 1
1.067460 21.791186 19.476004 29.245683 1.521850 0.842037 0.023541 0.008782 -433820.000000 0 0 1
2.338460 22.281886 19.391604 29.630814 1.466230 0.857354 0.031014 -0.008580 -1622700.000000 0 0 1
3.272060 21.249686 19.554504 29.062590 1.418015 0.832754 0.034279 0.003219 790765.000000 0 0 1
4.741360 21.766286 19.293204 29.469974 1.356316 0.857046 0.030010 -0.009890 1071460.000000 0 0 1
5.738160 20.756086 19.381704 28.972263 1.301076 0.837968 0.042794 -0.007382 -723149.000000 0 0 1
6.943860 21.212386 18.897504 29.245481 1.254441 0.868243 0.061467 -0.011542 -1058240.000000 0 0 1
7.965460 20.099286 18.696004 28.582694 1.193479 0.857801 0.059926 -0.007822 -407477.000000 0 0 1
8.446960 19.482686 19.860904 29.075448 1.161696 0.818823 0.048629 -0.009138 -737178.000000 0 0 1
9.512160 18.669086 19.538104 28.648795 1.099567 0.820320 0.056023 -0.016858 -334844.000000 0 0 1
10.114660 17.784486 20.675304 29.087153 1.053683 0.780154 0.074009 -0.020004 526343.000000 0 0 1
9.196860 16.769786 21.122304 28.494906 1.069168 0.735842 0.063541 -0.014081 457952.000000 0 0 1
9.797260 16.073586 22.173604 29.086340 1.023402 0.703879 0.061072 -0.015794 -111485.000000 0 0 1
8.739260 15.154786 22.819504 28.753642 1.047710 0.654058 0.047271 -0.016306 -68692.700000 0 0 1
7.772360 15.898486 23.558004 29.464402 1.116089 0.644265 0.036142 -0.004062 850489.000000 0 0 1
6.532960 15.201586 23.816704 29.000054 1.164905 0.607173 0.026622 -0.011724 1044380.000000 0 0 1
6.622560 13.932586 24.668204 29.094596 1.127080 0.558856 0.030926 -0.016017 -614212.000000 0 0 1
7.106960 14.236286 25.997804 30.480592 1.107777 0.549224 0.042724 -0.019196 -70337.300000 0 0 1
7.440760 12.996886 26.575004 30.504340 1.050840 0.513180 0.048610 -0.026136 -435339.000000 0 0 1
8.524060 13.230986 27.675104 31.837555 0.998474 0.517094 0.046027 -0.019985 -81632.600000 0 0 1
9.842460 13.455686 27.268304 31.960755 0.939259 0.548743 0.074351 -0.019495 -336118.000000 0 0 1
10.078160 14.733986 26.707504 32.123985 0.970884 0.589195 0.066311 -0.020856 -2434080.000000 0 0 1
11.463160 14.885886 26.227604 32.262685 0.914574 0.621615 0.086117 -0.025204 -1704310.000000 0 0 1
11.601660 13.992386 25.167104 31.044621 0.878537 0.625492 0.080379 -0.033877 183361.000000 0 0 1
12.929160 13.716986 24.757004 31.116364 0.814956 0.650755 0.085829 -0.039247 -339789.000000 0 0 1
12.850660 12.597986 23.745504 29.794255 0.775470 0.648513 0.072099 -0.041699 365831.000000 0 0 1
12.315160 11.339386 24.213304 29.436863 0.744171 0.604915 0.069279 -0.035118 -255027.000000 0 0 1
10.938560 11.253986 24.409004 29.019024 0.799610 0.571412 0.066177 -0.031939 -935570.000000 0 0 1
10.535960 9.832286 24.963404 28.824500 0.750864 0.523553 0.055423 -0.023529 -58222.800000 0 0 1
10.554660 8.823586 23.978904 27.644969 0.696304 0.520868 0.051483 -0.016725 331171.000000 0 0 1
10.078760 7.613386 24.594704 27.648589 0.646941 0.474445 0.042936 -0.014385 131779.000000 0 0 1
10.288860 6.392386 23.641204 26.563692 0.555928 0.473491 0.039241 -0.011622 172731.000000 0 0 1
11.675060 6.283986 23.341604 26.844477 0.493770 0.516582 0.045869 -0.009151 416115.000000 0 0 1
12.037260 5.270286 22.429804 25.995531 0.412688 0.529949 0.049206 -0.013248 -10502.500000 0 0 1
11.865960 3.765186 22.852504 26.023346 0.307261 0.498807 0.033108 -0.010798 -226470.000000 0 0 1
12.751560 3.318286 23.859204 27.255731 0.254580 0.504569 0.042658 -0.002869 172014.000000 0 0 1
12.274760 2.121586 24.478904 27.466117 0.171150 0.470724 0.032237 -0.000113 214229.000000 0 0 1
13.365060 1.518586 25.450904 28.786792 0.113138 0.486195 0.018569 0.009654 692164.000000 0 0 1
14.307460 0.714086 24.754904 28.601024 0.049869 0.524599 0.042839 0.005654 1449190.000000 0 0 1
15.696260 1.140086 24.821104 29.389786 0.072507 0.565075 0.039297 -0.001865 1098210.000000 0 0 1
16.626260 0.462686 23.829804 29.060388 0.027821 0.609368 0.035357 -0.005265 -480927.000000 0 0 1
16.840760 -0.854914 24.221104 29.512776 -0.050721 0.608163 0.033252 -0.010499 -110498.000000 0 0 1
17.699860 -1.511914 23.334404 29.326870 -0.085213 0.650689 0.045924 -0.002080 -76361.600000 0 0 1
17.997760 -3.004414 23.743504 29.944947 -0.165407 0.655234 0.039674 -0.000359 170723.000000 0 0 1
17.071360 -3.960614 23.252304 29.116789 -0.227970 0.645852 0.026057 0.007374 207045.000000 0 0 1
17.604160 -5.267714 23.382504 29.738808 -0.290751 0.666060 0.037393 0.002343 -186075.000000 0 0 1
16.701360 -6.394414 22.919804 29.071315 -0.365651 0.662594 0.028506 0.003715 -432175.000000 0 0 1
16.612560 -6.631614 21.498704 27.966939 -0.379810 0.693961 0.027818 0.001787 -7301.230000 0 0 1
15.871460 -7.712114 20.992604 27.423883 -0.452313 0.699000 0.039549 -0.008332 -478874.000000 0 0 1
16.362460 -9.085814 21.393304 28.424559 -0.506891 0.718742 0.044814 -0.006168 -456012.000000 0 0 1
15.940360 -9.612714 22.625904 29.298991 -0.542654 0.688434 0.028562 0.005526 -234283.000000 0 0 1
16.610460 -10.836614 22.889004 30.286070 -0.578058 0.713982 0.034775 0.005329 40820.900000 0 0 1
16.069360 -11.584614 24.119004 31.211439 -0.624624 0.687615 0.039899 -0.009169 386671.000000 0 0 1
14.963960 -12.442714 23.835604 30.771370 -0.693663 0.684709 0.046527 -0.007836 236856.000000 0 0 1
14.871660 -13.553014 24.692404 31.852241 -0.739041 0.683738 0.058555 -0.006372 289537.000000 0 0 1
13.907460 -14.677114 24.145404 31.493422 -0.812317 0.697141 0.066497 -0.015911 67356.800000 0 0 1
14.397160 -15.293914 23.018504 31.161411 -0.815592 0.739677 0.073620 -0.016087 -66892.100000 0 0 1
13.462760 -16.176614 22.418404 30.749204 -0.876706 0.753830 0.069178 0.000033 -188208.000000 0 0 1
13.900760 -17.047714 21.168604 30.528109 -0.886734 0.804581 0.048152 -0.008094 -63715.900000 0 0 1
14.900560 -17.997214 21.531304 31.772998 -0.879251 0.826220 0.070496 -0.014971 84565.900000 0 0 1
15.135560 -18.857914 20.429004 31.655178 -0.894466 0.869301 0.060726 -0.017489 -702.459000 0 0 1
-23.931340 -32.298597 26.708782 48.262485 0.933119 0.984348 0.044853 -0.018017 -737840.000000 0 0 1
-24.087140 -33.648997 26.399362 49.085351 0.949522 1.002940 0.051320 -0.015308 1044850.000000 0 0 1
-25.457760 -34.005797 26.134192 49.874721 0.928173 1.019260 0.041292 -0.028550 1014970.000000 0 0 1
-26.191070 34.027386 27.334722 50.902084 -0.914802 1.003912 0.041939 -0.025075 107272.000000 0 0 1
-26.784550 -33.818897 28.346162 51.620101 0.900953 0.989473 0.054986 -0.024333 284147.000000 0 0 1
-26.111670 -33.932997 29.538322 52.017113 0.914927 0.966895 0.038323 -0.016902 -543588.000000 0 0 1
-26.801960 -33.229097 30.684232 52.574139 0.892055 0.947595 0.032260 -0.027551 -286867.000000 0 0 1
-26.953050 -31.824197 30.611052 51.732803 0.868084 0.937612 0.031342 -0.020311 452302.000000 0 0 1
-27.896470 -31.233197 31.514962 52.411053 0.841769 0.925665 0.009673 -0.005857 226566.000000 0 0 1
-28.237540 -29.735697 31.317072 51.597765 0.811235 0.918584 0.001141 -0.012324 -52278.700000 0 0 1
-28.987650 -29.563597 30.125502 51.203867 0.795234 0.941787 0.009997 0.004686 207915.000000 0 0 1
-29.513240 -28.251297 30.060272 50.722649 0.763555 0.936464 0.010318 0.012810 -2977.740000 0 0 1
-30.155370 -28.072197 28.675582 50.196450 0.749637 0.962747 0.008190 -0.004923 486546.000000 0 0 1
-29.190560 -27.783597 27.624882 48.858481 0.760708 0.969871 -0.000243 0.001732 840442.000000 0 0 1
-28.998410 -26.431797 27.372702 47.841536 0.739128 0.961667 0.000559 0.008095 -351434.000000 0 0 1
-27.986910 -26.144997 26.281162 46.449193 0.751385 0.969388 0.007197 0.014447 -521939.000000 0 0 1
-28.501910 -26.340497 24.997482 46.163349 0.746007 0.998575 -0.003091 0.014447 -101180.000000 0 0 1
-27.516160 -26.296997 23.998612 44.995606 0.762747 1.008235 -0.003109 0.024000 -639023.000000 0 0 1
-27.947490 -26.672597 22.560152 44.737569 0.762061 1.042251 -0.010671 0.026575 -390361.000000 0 0 1
-28.788650 -25.737897 21.935052 44.411398 0.729507 1.054220 -0.013167 0.020562 114589.000000 0 0 1
-29.251940 -26.237297 20.711952 44.419103 0.731123 1.085710 -0.015678 0.023613 -70567.100000 0 0 1
-29.912860 -25.194397 19.809952 43.840290 0.699983 1.101940 -0.007640 0.020415 447255.000000 0 0 1
-31.082910 -24.545197 20.331052 44.519273 0.668409 1.096537 0.018043 0.013438 359460.000000 0 0 1
-31.513650 -23.533797 19.501152 43.900395 0.641438 1.110500 0.019607 0.010419 -477995.000000 0 0 1
-33.001130 -23.251097 19.758652 44.945439 0.613776 1.115627 0.030893 0.013599 -139385.000000 0 0 1
-33.925240 -24.223697 19.307352 45.939997 0.620081 1.137050 0.024706 0.015362 -103217.000000 0 0 1
-35.199934 -23.639497 19.138852 46.520499 0.591395 1.146799 0.040962 0.007285 506461.000000 0 0 1
35.832053 -24.623397 18.397752 47.209374 -0.602076 1.170485 0.064927 -0.003149 280171.000000 0 0 1
35.397663 -25.697197 19.118552 47.737402 -0.627935 1.158740 0.058029 -0.004231 -523591.000000 0 0 1
34.780133 -26.523697 18.186352 47.369901 -0.651523 1.176756 0.067117 0.002899 -178171.000000 0 0 1
34.259283 -27.891097 18.824852 48.020692 -0.683290 1.167975 0.061846 0.002875 -145238.000000 0 0 1
33.085733 -27.890797 19.581752 47.497445 -0.700408 1.145853 0.052806 -0.004117 -213926.000000 0 0 1
33.240903 -27.211397 20.823552 47.739272 -0.685987 1.119432 0.052475 -0.004660 -567376.000000 0 0 1
31.957693 -27.225697 21.654052 47.238022 -0.705613 1.094599 0.039935 -0.004538 143610.000000 0 0 1
30.855483 -26.598697 21.003052 45.833173 -0.711443 1.094771 0.038039 -0.001668 463144.000000 0 0 1
29.785073 -26.307197 21.914552 45.381348 -0.723475 1.066835 0.035699 -0.000253 -40599.700000 0 0 1
28.988303 -25.057497 21.470352 43.922385 -0.712795 1.060054 0.042840 0.003933 -417137.000000 0 0 1
29.609583 -23.866397 21.008052 43.447331 -0.678411 1.066114 0.051316 0.005767 974852.000000 0 0 1
30.768823 -23.366597 21.760852 44.342452 -0.649506 1.057851 0.061570 -0.002779 1366530.000000 0 0 1
31.498353 -22.109497 21.197352 43.935223 -0.612017 1.067326 0.066752 -0.003506 386853.000000 0 0 1
30.600953 -20.995697 21.148852 42.714302 -0.601345 1.052819 0.062044 -0.012500 406185.000000 0 0 1
31.292613 -19.837897 20.687752 42.435279 -0.565008 1.061557 0.063286 -0.012739 -139201.000000 0 0 1
30.459763 -18.554397 20.890452 41.333688 -0.547116 1.040939 0.041799 -0.005004 -46648.800000 0 0 1
30.322793 -18.021097 22.204752 41.680724 -0.536224 1.008968 0.028091 -0.008211 12535.500000 0 0 1
29.550033 -18.817897 23.068452 41.946051 -0.567050 0.988486 0.037798 -0.005851 -376922.000000 0 0 1
29.619993 -18.258097 24.517722 42.565488 -0.552399 0.956969 0.021849 0.001974 -164524.000000 0 0 1
29.003133 -17.016297 24.676212 41.709130 -0.530587 0.937722 0.026764 -0.003896 149213.000000 0 0 1
29.240893 -16.484297 25.945812 42.425783 -0.513332 0.912769 0.024567 0.006442 -307876.000000 0 0 1
28.975813 -14.980797 25.922572 41.665354 -0.477163 0.899296 0.029891 -0.000297 -491768.000000 0 0 1
27.637943 -14.603297 25.767722 40.510340 -0.486092 0.881392 0.037068 -0.005735 -209561.000000 0 0 1
27.281703 -13.382597 26.384312 40.243225 -0.456046 0.855791 0.030221 -0.002011 33674.300000 0 0 1
27.765133 -12.101597 25.627162 39.674963 -0.411030 0.868558 0.046486 -0.018385 -184704.000000 0 0 1
27.079623 -12.026497 24.403382 38.385774 -0.417950 0.881829 0.039809 -0.007089 17742.600000 0 0 1
27.613573 -11.098797 23.522282 37.934028 -0.382171 0.901947 0.046818 -0.002958 901534.000000 0 0 1
28.883803 -11.571397 22.684952 38.506861 -0.381040 0.940834 0.043467 -0.016754 922309.000000 0 0 1
28.517873 -12.628697 21.843652 38.077529 -0.416879 0.959826 0.041591 -0.016881 -28451.100000 0 0 1
29.161633 -13.805597 22.239752 39.186757 -0.442156 0.967291 0.030608 -0.018429 -413096.000000 0 0 1
28.642643 -15.057097 21.527052 38.865552 -0.483986 0.983773 0.047434 -0.015048 -449478.000000 0 0 1
28.960053 -15.121497 20.142152 38.380342 -0.481210 1.018312 0.044814 -0.018307 -525492.000000 0 0 1
28.251263 -16.062897 19.430852 37.864344 -0.516991 1.031922 0.041784 -0.021860 -614890.000000 0 0 1
28.718093 -16.074697 17.952352 37.488821 -0.510291 1.071427 0.053872 -0.024358 459189.000000 0 0 1
28.017993 -17.015497 17.058252 36.952930 -0.545774 1.090975 0.055904 -0.024045 1485070.000000 0 0 1
26.612483 -16.761997 16.831752 35.672071 -0.562083 1.079412 0.032295 -0.026077 922593.000000 0 0 1
26.299883 -15.717297 15.648252 34.403271 -0.538667 1.098595 0.048762 -0.024458 -171591.000000 0 0 1
26.524283 -16.055997 14.259552 34.127224 -0.544331 1.139735 0.050290 -0.020524 393006.000000 0 0 1
25.629883 -17.094497 13.850852 33.778082 -0.588216 1.148283 0.021520 -0.022445 80276.300000 0 0 1
25.829283 -17.688397 12.385852 33.666609 -0.600465 1.194050 0.025952 -0.011702 -279612.000000 0 0 1
25.419283 -16.870597 11.265852 32.521937 -0.585941 1.217057 0.024219 -0.016373 -27492.500000 0 0 1
25.264583 -17.581697 10.011252 32.367273 -0.607971 1.256338 0.018190 -0.023618 784575.000000 0 0 1
26.642083 -17.861497 9.287852 33.393081 -0.590599 1.288942 0.022800 -0.013205 912335.000000 0 0 1
27.478253 -18.718497 10.044952 34.732371 -0.598004 1.277395 0.026055 -0.007227 -294264.000000 0 0 1
28.836893 -18.672797 9.618952 35.675818 -0.574638 1.297797 0.039870 0.001348 207707.000000 0 0 1
29.494013 -19.600197 10.633852 36.974901 -0.586535 1.279080 0.063617 -0.015810 -483774.000000 0 0 1
29.204923 -19.180797 11.964152 36.931984 -0.581117 1.240894 0.074230 -0.026851 99779.800000 0 0 1
29.877693 -19.988997 12.905852 38.194208 -0.589635 1.226111 0.075374 -0.025012 1812.170000 0 0 1
29.746583 -19.535597 14.374352 38.381255 -0.581095 1.186923 0.083817 -0.015201 90801.700000 0 0 1
29.851203 -20.526497 15.301852 39.326557 -0.602374 1.171145 0.091380 -0.019715 -131933.000000 0 0 1
29.377913 -20.013597 16.526852 39.201310 -0.598028 1.135599 0.090617 -0.025113 97724.100000 0 0 1
29.155633 -21.036697 17.714152 40.079730 -0.625031 1.113000 0.071294 -0.016494 -455413.000000 0 0 1
27.971813 -21.685397 17.388852 39.434134 -0.659472 1.114129 0.037611 -0.003007 -537618.000000 0 0 1
27.797863 -22.780997 18.278052 40.320990 -0.686533 1.100317 0.046504 -0.004258 -610297.000000 0 0 1
26.444083 -23.408097 18.026152 39.650608 -0.724574 1.098845 0.030697 0.006781 -1021290.000000 0 0 1
25.387283 -22.724597 18.611752 38.824203 -0.730111 1.070842 0.036989 0.007246 -121696.000000 0 0 1
24.160383 -23.412497 18.363052 38.328459 -0.769679 1.071171 0.030737 0.003489 761545.000000 0 0 1
22.973783 -22.908797 19.257352 37.728680 -0.783982 1.035127 0.016959 0.009780 220261.000000 0 0 1
22.442983 -21.663697 18.795352 36.417970 -0.767732 1.028504 0.014089 0.003245 -22798.300000 0 0 1
21.289783 -21.226797 19.491352 35.829381 -0.783917 0.995594 0.014376 0.001371 235917.000000 0 0 1
21.443483 -20.689897 20.929252 36.413300 -0.767514 0.958474 0.011306 0.006165 -235529.000000 0 0 1
21.721983 -21.674297 21.934652 37.719341 -0.784299 0.950197 0.021471 0.013039 -150168.000000 0 0 1
22.175783 -21.032197 23.119752 38.322860 -0.758937 0.923178 0.030905 0.008907 32159.600000 0 0 1
22.354783 -22.102997 24.231462 39.691845 -0.779735 0.914118 0.039470 0.012205 -583134.000000 0 0 1
21.254483 -22.777697 24.744092 39.785005 -0.819978 0.899572 0.042084 0.007635 -285770.000000 0 0 1
21.769183 -23.942897 25.402812 41.139549 -0.832915 0.905263 0.041419 0.014057 305427.000000 0 0 1
20.674183 -24.772397 26.117822 41.511855 -0.875331 0.890317 0.051078 0.007612 170367.000000 0 0 1
19.796683 -25.491597 25.261052 40.985985 -0.910490 0.906718 0.051340 0.002291 332139.000000 0 0 1
19.011783 -26.375997 26.052582 41.663871 -0.946247 0.895275 0.041642 0.007955 -194286.000000 0 0 1
18.131883 -27.366297 25.289692 41.439690 -0.985640 0.914386 0.050748 -0.001741 -434470.000000 0 0 1
17.127483 -26.679397 24.597792 40.127201 -1.000084 0.910950 0.054526 -0.007372 152317.000000 0 0 1
16.462683 -27.508797 23.657492 39.842575 -1.031516 0.935055 0.049378 -0.010425 17265.200000 0 0 1
15.605783 -26.860397 22.530652 38.375144 -1.044468 0.943305 0.046883 -0.012046 524033.000000 0 0 1
14.422183 -26.249497 23.055652 37.796806 -1.068393 0.914749 0.024621 -0.009478 358730.000000 0 0 1
13.821183 -25.426397 22.066152 36.392882 -1.072898 0.919357 0.012268 -0.009224 -681134.000000 0 0 1
12.353983 -25.141797 22.299552 35.805040 -1.114075 0.898474 0.018038 -0.003695 -632526.000000 0 0 1
11.448683 -26.221697 22.085952 36.144696 -1.159132 0.913419 0.019862 -0.003800 609549.000000 0 0 1
10.133883 -25.636797 22.136252 35.354697 -1.194360 0.894230 0.030505 0.000655 126409.000000 0 0 1
9.002883 -26.631297 22.153752 35.791991 -1.244801 0.903381 0.035313 -0.006198 -580770.000000 0 0 1
8.843283 -27.275197 20.942252 35.506590 -1.257266 0.939969 0.039174 0.001908 -77576.700000 0 0 1
7.621883 -27.967797 21.004952 35.798028 -1.304734 0.943741 0.040185 0.001551 -52746.200000 0 0 1
7.365983 -28.909197 19.806252 35.809035 -1.321308 0.984706 0.053621 -0.010395 200764.000000 0 0 1
8.118183 -30.118397 19.872552 36.985687 -1.307511 1.003559 0.054566 -0.007135 256556.000000 0 0 1
7.860883 -30.937997 18.728452 37.009567 -1.321977 1.040205 0.058241 -0.011235 -80584.000000 0 0 1
8.358383 -32.381997 18.778852 38.354942 -1.318192 1.059157 0.056927 -0.019074 -584272.000000 0 0 1
7.879883 -33.109197 19.884252 39.416938 -1.337146 1.042040 0.061019 -0.021109 339131.000000 0 0 1
8.616483 -34.267997 20.299552 40.750598 -1.324459 1.049343 0.055868 -0.022008 227227.000000 0 0 1
7.684283 33.546686 21.158352 40.399309 1.345619 1.019572 0.064064 -0.024193 163946.000000 0 0 1
7.032683 32.510786 20.450752 39.046678 1.357760 1.019548 0.060110 -0.027706 -85453.800000 0 0 1
7.009583 31.308886 21.175552 38.441964 1.350544 0.987420 0.054584 -0.031084 -475399.000000 0 0 1
6.086583 30.203986 20.639052 37.085007 1.371944 0.980589 0.047957 -0.031346 -908752.000000 0 0 1
4.751283 30.562286 20.798152 37.271855 1.416569 0.978808 0.046234 -0.025270 -1067370.000000 0 0 1
4.028683 29.373186 20.522552 36.058140 1.434492 0.965323 0.049777 -0.023484 -326329.000000 0 0 1
2.635483 29.425886 21.160552 36.340026 1.481471 0.949250 0.036016 -0.012995 -307219.000000 0 0 1
2.593183 28.997486 22.553552 36.827184 1.481606 0.911683 0.032449 -0.020237 -799711.000000 0 0 1
1.275183 28.776986 22.924252 36.813888 1.526513 0.898599 0.025630 -0.012857 -712188.000000 0 0 1
1.113683 28.129586 24.285442 37.179250 1.531226 0.858995 0.035756 -0.007281 -169127.000000 0 0 1
1.294683 29.049886 25.388372 38.602351 1.526258 0.853049 0.036088 -0.011304 164369.000000 0 0 1
1.066683 28.587886 26.703112 39.133889 1.533501 0.819820 0.034740 -0.005920 -454111.000000 0 0 1
2.250483 27.949086 27.436342 39.229695 1.490449 0.796271 0.015307 0.001133 -460718.000000 0 0 1
2.601683 26.742186 26.822372 37.965154 1.473814 0.786256 0.019074 -0.002904 61796.900000 0 0 1
3.472183 26.074286 27.712262 38.208558 1.438410 0.759342 -0.003024 0.012697 85714.900000 0 0 1
4.091483 24.726186 27.220772 37.001283 1.406811 0.744139 0.004951 0.021994 676678.000000 0 0 1
3.026483 23.769786 27.109412 36.181246 1.444153 0.723842 0.023854 0.012126 730715.000000 0 0 1
3.579583 22.559386 26.724222 35.155702 1.413434 0.707225 0.019174 0.018650 359908.000000 0 0 1
2.449983 21.508886 26.533742 34.244329 1.457380 0.684341 0.021184 0.016883 108128.000000 0 0 1
2.884883 20.149386 26.678272 33.556676 1.428588 0.651754 0.020977 0.015438 -60951.900000 0 0 1
3.607983 19.703086 25.584102 32.492698 1.389685 0.664249 0.023178 0.021825 -825305.000000 0 0 1
4.050883 18.239486 25.804812 31.858701 1.352249 0.626684 0.017972 0.011507 126627.000000 0 0 1
5.157083 18.041686 26.678862 32.616861 1.292378 0.612963 0.007122 0.006696 1297740.000000 0 0 1
6.412983 18.245486 25.980042 32.388064 1.232801 0.639911 0.020025 0.001245 241232.000000 0 0 1
7.722383 18.032386 26.796662 33.209385 1.166175 0.631911 0.017586 -0.007744 388208.000000 0 0 1
8.197183 19.069486 27.631542 34.559242 1.164818 0.644265 0.008932 -0.003947 136789.000000 0 0 1
8.577983 20.265786 26.965242 34.805289 1.170388 0.684484 0.006461 -0.004635 -706234.000000 0 0 1
8.999283 21.464186 27.840062 36.287290 1.173789 0.696313 -0.005446 0.006085 -474299.000000 0 0 1
10.143883 21.097886 28.564072 36.931360 1.122626 0.686551 0.016763 -0.010352 -144570.000000 0 0 1
10.467283 22.050286 29.615982 38.378191 1.127592 0.689306 0.026958 -0.027264 406634.000000 0 0 1
11.823083 21.736986 30.337312 39.148874 1.072637 0.684205 0.040437 -0.030180 1405740.000000 0 0 1
12.999483 21.773886 29.474602 38.882398 1.032570 0.710486 0.047940 -0.031006 -17526.200000 0 0 1
14.092983 21.628686 30.312732 39.815499 0.993306 0.705434 0.055410 -0.027966 -600273.000000 0 0 1
15.405883 21.609786 29.480192 39.666180 0.951457 0.732945 0.065168 -0.032008 194990.000000 0 0 1
15.626683 22.867586 28.840592 39.986241 0.971329 0.765172 0.064032 -0.026471 146013.000000 0 0 1
16.864383 22.838786 28.145042 39.977005 0.934754 0.789739 0.095300 -0.033194 -186770.000000 0 0 1
-9.012140 16.620886 4.505004 19.436244 -1.073948 1.336885 0.026686 -0.017616 -160620.000000 0 1 0
-8.677540 17.910586 4.884904 20.492708 -1.119632 1.330106 0.035399 -0.018515 1403790.000000 0 1 0
-7.273140 18.096286 5.231604 20.192667 -1.188642 1.308722 0.032271 -0.018627 1245950.000000 0 1 0
-7.054340 19.571386 5.737304 21.580536 -1.224850 1.301705 0.034768 -0.018157 -88662.200000 0 1 0
-7.122640 20.579986 4.739304 22.287414 -1.237604 1.356515 0.041782 -0.025480 -141594.000000 0 1 0
-8.425640 20.933886 4.342104 22.979836 -1.188147 1.380701 0.033410 -0.027368 -120124.000000 0 1 0
-8.533440 22.110386 3.330204 23.932802 -1.202463 1.431195 0.049717 -0.024217 -42642.000000 0 1 0
-7.990140 21.990486 2.022104 23.484308 -1.222282 1.484585 0.039233 -0.027318 -99122.000000 0 1 0
-8.550340 20.972286 1.212504 22.680724 -1.183672 1.517311 0.050176 -0.026008 -546115.000000 0 1 0
-7.851140 20.891986 -0.174896 22.319186 -1.211327 1.578633 0.026323 -0.019664 690390.000000 0 1 0
-6.503840 20.430086 -0.114096 21.440647 -1.262594 1.576118 0.022121 -0.012780 615810.000000 0 1 0
-5.560640 21.485286 0.140004 22.193644 -1.317542 1.564488 0.030275 -0.014720 -245893.000000 0 1 0
-4.123040 21.242686 -0.343096 21.641832 -1.379088 1.586650 0.024750 -0.010735 -185101.000000 0 1 0
-4.025840 21.381586 -1.703996 21.823914 -1.384690 1.648955 0.018194 -0.018211 -215649.000000 0 1 0
-2.693540 21.464686 -2.144096 21.739021 -1.445962 1.669586 0.018233 -0.009036 -169798.000000 0 1 0
-2.728440 21.771186 -3.699496 22.251184 -1.446123 1.737833 0.022712 -0.003903 140685.000000 0 1 0
-1.422040 21.844486 -4.227796 22.295247 -1.505790 1.761579 0.038175 -0.008526 75295.100000 0 1 0
-1.438640 22.340486 -5.543196 23.062828 -1.506489 1.813525 0.041545 -0.013088 134687.000000 0 1 0
-0.107940 23.018986 -5.961796 23.778738 -1.566107 1.824220 0.043522 -0.012352 508532.000000 0 1 0
0.949860 22.080886 -6.083096 22.923172 1.527806 1.839383 0.032717 -0.006429 126676.000000 0 1 0
2.164060 22.572486 -6.625996 23.624227 1.475217 1.855085 0.038896 -0.009782 597313.000000 0 1 0
3.283860 21.514286 -6.760396 22.789278 1.419329 1.871977 0.038868 -0.011557 146186.000000 0 1 0
3.075960 20.733586 -7.940896 22.414302 1.423514 1.932938 0.038674 -0.014063 608879.000000 0 1 0
3.984960 19.608686 -8.047996 21.567353 1.370302 1.953205 0.031084 -0.014876 716247.000000 0 1 0
3.545860 18.782186 -9.271396 21.243879 1.384204 2.022420 0.021371 -0.010299 -186803.000000 0 1 0
4.071560 19.177786 -10.503096 22.241405 1.361597 2.062617 0.028570 -0.014638 367424.000000 0 1 0
3.112260 18.858286 -11.495796 22.304135 1.407237 2.112284 0.030285 -0.016010 164857.000000 0 1 0
3.604160 19.456986 -12.806696 23.570654 1.387635 2.145198 0.032366 -0.007427 -1034.350000 0 1 0
3.457760 20.868786 -12.963296 24.809461 1.406598 2.120593 0.057469 -0.013436 8054.560000 0 1 0
3.775060 21.328586 -14.291596 25.950132 1.395615 2.154039 0.066307 -0.014757 71088.200000 0 0 1
4.088160 22.811486 -14.502996 27.338870 1.393464 2.129975 0.058028 -0.019445 -36364.500000 0 0 1
2.904360 23.576186 -14.438396 27.798186 1.448223 2.116946 0.060420 -0.020344 -131185.000000 0 0 1
3.127060 24.852186 -14.982096 29.186861 1.445628 2.109841 0.058482 -0.021316 -61002.500000 0 0 1
1.813860 25.510986 -15.451796 29.880738 1.499815 2.114274 0.046701 -0.010035 162675.000000 0 0 1
0.954860 25.903086 -14.390496 29.647394 1.533950 2.077603 0.049140 -0.013032 -135761.000000 0 0 1
1.118560 27.294886 -14.028896 30.709476 1.529839 2.045221 0.035118 -0.010961 -445081.000000 0 0 1
0.272460 27.563186 -12.751296 30.371022 1.560912 2.004077 0.043907 -0.021496 1517790.000000 0 0 1
-1.172340 27.473286 -12.858296 30.356080 -1.528150 2.008193 0.026881 -0.017415 1231330.000000 0 0 1
-1.882040 26.313886 -13.206496 29.502105 -1.499395 2.034927 0.034594 -0.015393 -392014.000000 0 0 1
-1.699640 25.137186 -12.243096 28.011789 -1.503284 2.023134 0.047247 -0.018626 -236736.000000 0 0 1
-2.291040 25.316186 -10.945996 27.676217 -1.480545 1.977411 0.036982 -0.012645 -24828.700000 0 0 1
-2.557140 24.040686 -10.377996 26.309625 -1.464828 1.976272 0.065065 -0.014991 273256.000000 0 0 1
-3.583740 23.921686 -9.218796 25.885835 -1.422091 1.934922 0.049513 -0.011284 51671.700000 0 0 1
-3.158340 24.388486 -7.992196 25.858240 -1.442012 1.885019 0.055776 -0.013745 -141548.000000 0 0 1
-2.830640 25.782686 -7.935696 27.124430 -1.461446 1.867706 0.053544 -0.014902 38562.800000 0 0 1
-2.627740 26.379886 -6.505496 27.296976 -1.471512 1.811435 0.048356 -0.014350 683523.000000 0 0 1
-1.370840 25.955286 -5.956896 26.665346 -1.518030 1.796092 0.054833 -0.012857 508679.000000 0 0 1
-1.066540 26.519086 -4.684596 26.950786 -1.530600 1.745504 0.053806 -0.011193 154148.000000 0 0 1
-1.876140 25.896886 -3.483896 26.197445 -1.498476 1.704178 0.056239 -0.011886 497653.000000 0 0 1
-3.270040 26.161486 -3.433896 26.587744 -1.446447 1.700311 0.041979 -0.016081 130144.000000 0 0 1
-3.847940 25.739486 -2.210796 26.119253 -1.422400 1.655540 0.040521 -0.009015 378900.000000 0 0 1
-5.015740 24.760186 -2.641796 25.400857 -1.370928 1.674989 0.037620 -0.014149 -106395.000000 0 0 1
-6.142140 25.431686 -3.132196 26.349709 -1.333819 1.689948 0.028820 -0.015082 -873320.000000 0 0 1
-7.135140 24.543486 -3.535296 25.802931 -1.287880 1.708240 0.013866 -0.013239 -451974.000000 0 0 1
-8.393540 25.280286 -3.995696 26.935292 -1.250229 1.719690 0.010964 -0.005238 -466848.000000 0 0 1
-9.074740 25.858486 -2.915296 27.559230 -1.233286 1.676778 0.031432 -0.016186 321820.000000 0 0 1
-10.372440 26.296786 -3.403996 28.472718 -1.195094 1.690636 0.037174 -0.010875 1291260.000000 0 0 1
-11.351340 26.751486 -2.261996 29.148097 -1.169497 1.648478 0.048623 -0.011951 -163762.000000 0 0 1
-11.846740 25.651586 -1.546096 28.297341 -1.138146 1.625461 0.058424 -0.014903 -204568.000000 0 0 1
-11.001140 24.956986 -0.642996 27.281673 -1.155616 1.594367 0.064951 -0.024483 -300097.000000 0 0 1
-11.424740 23.506586 -0.399796 26.138939 -1.118393 1.586092 0.064816 -0.021311 -162525.000000 0 0 1
-12.502540 23.382886 0.481204 26.519887 -1.079785 1.552650 0.073253 -0.020619 -398136.000000 0 0 1
-12.735440 22.051386 0.775604 25.476590 -1.047059 1.540348 0.058471 -0.020694 307666.000000 0 0 1
-13.589640 21.854586 2.089204 25.819876 -1.014486 1.489793 0.060298 -0.017566 542317.000000 0 0 1
-12.788340 21.878886 3.259404 25.550949 -1.041847 1.442883 0.062808 -0.010674 314037.000000 0 0 1
-12.337240 23.144186 3.732004 26.491295 -1.081052 1.429450 0.052413 -0.009059 26694.000000 0 0 1
-12.263840 23.142786 5.280504 26.718421 -1.083500 1.371851 0.054905 -0.007405 -931278.000000 0 0 1
-11.179840 22.486386 5.794604 25.772152 -1.109405 1.344018 0.056591 -0.006288 -869978.000000 0 0 1
-11.343540 22.205686 7.182704 25.949174 -1.098515 1.290335 0.045797 -0.009265 -621615.000000 0 0 1
-10.068140 21.882586 7.933704 25.360573 -1.139576 1.252619 0.046473 -0.011905 -866070.000000 0 0 1
-9.401140 23.061786 8.286604 26.246813 -1.183712 1.249583 0.050594 -0.018044 948700.000000 0 0 1
-8.167540 22.758686 9.015504 25.805926 -1.226236 1.213911 0.052379 -0.020910 1048250.000000 0 0 1
-8.179240 22.561586 10.508004 26.198154 -1.223003 1.158082 0.043334 -0.020398 -516770.000000 0 0 1
-8.954740 21.488086 10.951104 25.726482 -1.175951 1.131089 0.051971 -0.019975 -435032.000000 0 0 1
-8.491840 20.966386 12.138904 25.672041 -1.185968 1.078279 0.033185 -0.013967 -233626.000000 0 0 1
-9.485440 19.994786 12.792604 25.561998 -1.127841 1.046673 0.029598 -0.013916 -77893.000000 0 0 1
-9.973940 18.944686 11.977304 24.532354 -1.086192 1.060742 0.055553 -0.025367 33169.000000 0 1 0
-10.447240 17.831386 12.730404 24.272749 -1.040816 1.018700 0.053009 -0.024806 7392.580000 0 1 0
-10.769140 16.641986 11.791204 23.064314 -0.996458 1.034179 0.043806 -0.024320 -72141.900000 0 1 0
-11.049440 15.391086 12.399004 22.643121 -0.948150 0.991323 0.041758 -0.027344 -109833.000000 0 1 0
-11.457640 14.536586 11.374204 21.724695 -0.903296 1.019771 0.026428 -0.020057 -100870.000000 0 1 0
-11.793440 13.228886 12.037304 21.423943 -0.842702 0.974161 0.014971 -0.022451 -292539.000000 0 1 0
-12.791140 13.237086 13.005004 22.538053 -0.802530 0.955716 0.024939 -0.020037 -359895.000000 0 1 0
-13.126740 11.934486 13.449904 22.263045 -0.737860 0.922115 0.018656 -0.011766 46257.600000 0 1 0
-13.970340 11.951186 14.739404 23.563770 -0.707660 0.895010 0.023797 -0.019722 -80876.000000 0 1 0
-15.261840 12.444486 14.568504 24.495516 -0.684060 0.933852 0.040127 -0.029712 -55516.100000 0 1 0
-16.122040 12.494886 15.732104 25.759298 -0.659322 0.913808 0.038413 -0.030926 419576.000000 0 0 1
-17.176540 13.610386 15.656704 26.933409 -0.670079 0.950457 0.051606 -0.032189 -78416.000000 0 0 1
-18.242340 13.291186 14.785704 26.982506 -0.629657 0.990856 0.053451 -0.033317 -104966.000000 0 0 1
-19.114940 14.411386 14.642204 28.061773 -0.646014 1.021855 0.069089 -0.034356 424870.000000 0 0 1
-20.422740 13.997786 13.930904 28.409442 -0.600861 1.058292 0.061580 -0.031751 281051.000000 0 0 1
-21.333940 13.071086 14.498204 28.916919 -0.549698 1.045610 0.052618 -0.022719 672841.000000 0 0 1
-22.415740 12.727386 13.628404 29.157935 -0.516397 1.084449 0.041434 -0.019267 320329.000000 0 0 1
-23.460340 11.819186 14.296904 29.907895 -0.466678 1.072385 0.046427 -0.018288 -202325.000000 0 0 1
-24.168440 12.426586 15.343504 31.208279 -0.474916 1.056814 0.032391 -0.009895 146470.000000 0 0 1
-24.940140 11.489686 16.085504 31.823999 -0.431709 1.040891 0.027232 -0.015695 -184061.000000 0 0 1
-25.634330 12.169386 17.247204 33.206609 -0.443228 1.024659 0.041177 -0.014799 -197039.000000 0 0 1
-26.605710 13.165286 16.929804 34.173189 -0.459503 1.052487 0.043396 -0.008429 248384.000000 0 0 1
-27.175150 13.660586 18.110504 35.399022 -0.465795 1.033738 0.031859 0.001318 153910.000000 0 0 1
-28.361020 14.634986 17.804204 36.544766 -0.476385 1.061928 0.028956 0.000226 272614.000000 0 0 1
-28.038330 15.953086 17.289404 36.600169 -0.517294 1.078801 0.039407 0.002987 788866.000000 0 0 1
-29.219100 16.780986 17.099704 37.785674 -0.521320 1.101180 0.029082 0.004057 875934.000000 0 0 1
-28.777490 18.230786 17.054404 38.096695 -0.564694 1.106648 0.059745 -0.002397 -121448.000000 0 0 1
-28.369220 18.845786 18.250904 38.640287 -0.586365 1.078866 0.057773 -0.008255 -210821.000000 0 0 1
-29.295050 18.985986 19.320004 39.899000 -0.575035 1.065322 0.038106 -0.011923 -1110790.000000 0 0 1
-28.675550 19.304886 20.624904 40.253602 -0.592524 1.032849 0.040967 -0.016996 -158477.000000 0 0 1
-28.096470 18.259286 21.360404 39.737640 -0.576290 1.003284 0.039224 -0.013950 492665.000000 0 0 1
-26.856920 17.742786 20.842404 38.347183 -0.583819 0.996173 0.051642 -0.011003 312025.000000 0 0 1
-26.252690 16.515986 21.518104 37.749309 -0.561554 0.964258 0.049558 -0.014896 -742971.000000 0 0 1
-27.072330 15.461686 21.364804 37.794572 -0.518917 0.970014 0.027551 -0.004333 -656636.000000 0 0 1
-26.532910 14.251686 21.790504 37.174345 -0.492910 0.944472 0.028843 0.008062 -845229.000000 0 0 1
-27.597740 13.246086 22.160804 37.791471 -0.447496 0.944193 0.030655 -0.001795 -755935.000000 0 0 1
-28.384910 13.020186 21.036904 37.653415 -0.430066 0.977981 0.034346 -0.009759 -96162.500000 0 0 1
-29.425750 12.080286 21.301704 38.282772 -0.389555 0.980713 0.067516 -0.013161 185828.000000 0 0 1
-30.335050 11.756286 20.074804 38.228566 -0.369726 1.017933 0.070641 -0.014603 -176974.000000 0 0 1
-29.787700 11.077986 18.943104 36.998244 -0.356048 1.033285 0.084946 -0.018664 191342.000000 0 0 1
-29.190650 9.800286 19.167204 36.270117 -0.323909 1.014014 0.099785 -0.016778 -56195.800000 0 0 1
-28.371650 9.349086 17.921404 34.835796 -0.318317 1.030426 0.098117 -0.022509 -257074.000000 0 0 1
-29.108390 8.931186 16.796704 34.773463 -0.297707 1.066682 0.094897 -0.016690 142708.000000 0 0 1
-29.828460 9.899886 16.060204 35.294120 -0.320455 1.098380 0.088111 -0.011770 -185191.000000 0 0 1
-28.993650 10.937886 15.274104 34.548044 -0.360743 1.112844 0.072445 -0.013163 -268476.000000 0 0 1
-28.392290 10.383486 14.161104 33.383765 -0.350606 1.132728 0.061342 -0.015027 252208.000000 0 0 1
-27.526150 11.302386 13.466504 32.661592 -0.389615 1.145815 0.037395 -0.002652 195521.000000 0 0 1
-27.243110 11.148286 11.948204 31.768395 -0.388425 1.185209 0.060453 0.001099 -162603.000000 0 0 1
-26.424400 10.025186 11.631904 30.562305 -0.362615 1.180355 0.067320 -0.004628 341493.000000 0 0 1
-27.212200 8.874686 11.476004 30.837681 -0.315253 1.189480 0.067850 -0.001963 92168.200000 0 0 1
-26.433700 7.657386 10.826304 29.573382 -0.281965 1.196000 0.066076 -0.001991 28522.400000 0 0 1
-26.100020 8.039886 9.500804 28.915672 -0.298818 1.236008 0.065938 -0.001924 265771.000000 0 0 1
-25.969210 6.963186 8.599804 28.228398 -0.261970 1.261225 0.084606 -0.005958 -213181.000000 0 0 1
-25.344750 7.411386 7.271304 27.388992 -0.284491 1.302092 0.089495 0.002431 -215402.000000 0 0 1
-26.215710 8.061986 6.399404 28.164010 -0.298346 1.341575 0.091015 0.004317 485225.000000 0 0 1
-25.435300 8.453186 5.223004 27.307336 -0.320857 1.378343 0.084340 -0.001503 354273.000000 0 0 1
-26.284960 8.849586 4.027204 28.025572 -0.324758 1.426600 0.074611 -0.003833 -265684.000000 0 0 1
-27.099330 7.884786 3.351204 28.421367 -0.283142 1.452610 0.086924 -0.007615 420727.000000 0 0 1
-26.492860 6.701586 2.760604 27.466413 -0.247761 1.470118 0.094579 -0.011931 -728.578000 0 0 1
-25.624490 7.048486 1.514204 26.619325 -0.268430 1.513882 0.116666 -0.013127 805846.000000 0 0 1
-24.478140 7.920386 1.727404 25.785573 -0.312938 1.503755 0.108377 -0.008929 880964.000000 0 0 1
-23.560040 7.619186 0.697704 24.771239 -0.312779 1.542627 0.121070 -0.005991 -28140.800000 0 1 0
-22.165940 8.237786 1.015504 23.668994 -0.355823 1.527879 0.093684 -0.005994 7519.620000 0 1 0
-22.260940 9.638486 1.059304 24.281104 -0.408608 1.527156 0.073078 -0.009911 -61248.900000 0 1 0
-21.249740 10.305386 1.747204 23.681325 -0.451548 1.496949 0.081515 -0.008895 -532633.000000 0 1 0
-21.650140 11.726286 2.230504 24.722652 -0.496392 1.480452 0.078968 -0.011621 -833066.000000 0 1 0
-20.644940 12.333386 2.943704 24.227905 -0.538509 1.448995 0.081372 -0.013602 -476762.000000 0 1 0
-21.029740 13.612486 3.440904 25.286154 -0.574473 1.434294 0.078045 -0.022075 -147581.000000 0 0 1
-19.961940 14.297686 4.332904 24.933450 -0.621547 1.396131 0.048328 -0.011565 84596.900000 0 1 0
-19.549140 13.532686 5.408004 24.383375 -0.605499 1.347146 0.051297 -0.015126 558060.000000 0 1 0
-18.482440 14.193786 6.129604 24.096394 -0.654897 1.313591 0.031677 -0.015591 147308.000000 0 1 0
-17.995040 13.359986 7.262804 23.559690 -0.638636 1.257420 0.011716 -0.014563 -223457.000000 0 1 0
-17.100740 12.387586 6.727304 22.161774 -0.626907 1.262375 0.021067 -0.005786 362040.000000 0 1 0
-16.376540 11.831686 7.832804 21.668703 -0.625653 1.200942 0.011540 -0.007656 -225410.000000 0 1 0
9.995360 -33.127897 -14.307296 37.444138 -1.277762 1.962861 0.045475 0.001217 -62782.200000 0 0 1
11.267560 -32.990297 -13.699896 37.456705 -1.241677 1.945238 0.037591 -0.004712 55272.000000 0 0 1
11.778560 -31.725397 -13.948196 36.603107 -1.215303 1.961745 0.038432 -0.015817 -296574.000000 0 0 1
13.089760 -31.395197 -13.228296 36.496411 -1.175777 1.941697 0.037664 -0.020654 345656.000000 0 0 1
14.292360 -31.933597 -13.761996 37.595461 -1.149969 1.945562 0.038513 -0.015710 -95608.400000 0 0 1
15.421560 -31.540497 -13.073096 37.463760 -1.116032 1.927250 0.035169 -0.015254 -84783.600000 0 0 1
16.823860 -32.015697 -13.531996 38.615567 -1.086967 1.928825 0.052195 -0.015961 409212.000000 0 0 1
17.139060 -33.312997 -13.030296 39.664742 -1.095627 1.905523 0.050860 -0.021432 -170569.000000 0 0 1
18.173160 -33.991097 -13.725896 40.915262 -1.079819 1.912902 0.043009 -0.004817 239817.000000 0 0 1
18.252060 33.247586 -13.345296 40.207419 1.068741 1.909125 0.024195 -0.007374 -388071.000000 0 0 1
18.752560 33.016186 -12.081096 39.845701 1.054253 1.878842 0.023851 -0.006582 -203325.000000 0 0 1
18.733860 31.641186 -11.805796 38.619930 1.036227 1.881461 0.009881 -0.002567 -26811.700000 0 0 1
19.266060 31.306286 -10.394696 38.200972 1.019126 1.846377 0.015732 -0.009754 -148432.000000 0 0 1
20.480960 30.622286 -10.487496 38.303808 0.981301 1.848136 0.015794 -0.008189 -202318.000000 0 0 1
21.176860 30.572086 -9.247396 38.322658 0.964996 1.814505 0.019453 -0.006519 -146666.000000 0 0 1
22.457360 29.734786 -9.224696 38.387309 0.923940 1.813477 0.007750 0.006213 376844.000000 0 0 1
23.526960 30.305986 -10.024296 39.654219 0.910666 1.826362 0.016546 -0.010429 820138.000000 0 0 1
24.727560 29.575486 -9.780196 39.772023 0.874438 1.819251 0.014189 -0.001205 449295.000000 0 0 1
25.868160 29.953586 -10.778496 41.018959 0.858455 1.836687 0.009684 -0.003930 -218922.000000 0 0 1
26.351960 31.171586 -10.404896 42.123098 0.868988 1.820391 0.023878 -0.021644 -44772.900000 0 0 1
27.580960 31.475786 -11.036496 43.280927 0.851253 1.828641 0.038189 -0.017045 96793.300000 0 0 1
28.067260 32.910186 -10.893896 44.604130 0.864653 1.817527 0.044027 -0.033480 -295502.000000 0 0 1
27.290460 33.899486 -11.541396 45.023862 0.892989 1.830030 0.040522 -0.024187 224276.000000 0 0 1
27.872960 -33.553897 -11.223996 45.041580 -0.877619 1.822642 0.048139 -0.031140 605609.000000 0 0 1
26.863660 -32.412097 -11.601096 43.666757 -0.878730 1.839699 0.041214 -0.027484 577374.000000 0 0 1
25.733760 -32.406697 -10.728096 42.749414 -0.899671 1.824461 0.054852 -0.030223 640186.000000 0 0 1
24.714460 -31.437397 -11.024896 41.480872 -0.904559 1.839812 0.057355 -0.027745 775404.000000 0 0 1
25.227760 -29.997997 -10.752096 40.643908 -0.871561 1.838527 0.039277 -0.025390 46096.900000 0 0 1
26.133360 -29.426097 -11.719496 41.063296 -0.844594 1.860221 0.037664 -0.016744 472672.000000 0 0 1
26.700660 -28.194797 -11.274396 40.434933 -0.812609 1.853370 0.043689 -0.014434 495709.000000 0 0 1
27.590660 -27.439597 -12.356396 40.827154 -0.782653 1.878270 0.037997 -0.007357 1078700.000000 0 0 1
28.845960 -28.020697 -12.713096 42.176672 -0.770887 1.876983 0.019085 -0.004243 462937.000000 0 0 1
28.730360 -29.169097 -13.557496 43.128592 -0.792976 1.890569 0.022284 -0.005606 100389.000000 0 0 1
30.108760 -29.745197 -14.024496 44.587001 -0.779324 1.890771 0.021056 -0.001761 477168.000000 0 0 1
30.625460 -30.559997 -13.010096 45.178477 -0.784328 1.862904 0.028488 -0.014397 -225244.000000 0 0 1
31.771160 -31.259397 -13.431496 46.550634 -0.777279 1.863493 0.032322 -0.016346 -169460.000000 0 0 1
32.118660 -32.409697 -12.404496 47.284969 -0.789908 1.836237 0.020543 -0.015897 348434.000000 0 0 1
33.134060 -33.222497 -13.008496 48.691079 -0.786731 1.841245 0.014809 -0.029360 701212.000000 0 0 1
33.894060 -34.134297 -12.187896 49.623606 -0.788930 1.818942 0.021901 -0.029200 498765.000000 0 0 1
33.075760 33.411686 -11.530196 48.407562 0.790451 1.811298 0.030705 -0.037584 2343.110000 0 0 1
32.408360 33.867686 -10.370196 48.008988 0.807414 1.788518 0.050521 -0.042766 -48084.000000 0 0 1
31.791460 32.715586 -9.765396 46.651575 0.799723 1.781682 0.064325 -0.041775 -217068.000000 0 0 1
31.091860 33.050086 -8.433496 46.153394 0.815918 1.754556 0.052599 -0.037156 -284223.000000 0 0 1
29.993260 33.883086 -8.681296 46.076285 0.846219 1.760341 0.045780 -0.038000 -797090.000000 0 0 1
29.294960 34.196586 -7.521096 45.652689 0.862447 1.736297 0.047006 -0.032070 73869.700000 0 0 1
28.299460 -33.370497 -7.585796 44.407137 -0.867442 1.742462 0.048601 -0.031296 -241253.000000 0 0 1
28.935760 -32.098697 -7.557596 43.871651 -0.837174 1.743926 0.034015 -0.031382 342018.000000 0 0 1
28.120060 -30.994497 -7.984396 42.604544 -0.833985 1.759318 0.028407 -0.018499 1184070.000000 0 0 1
26.818760 -30.598297 -7.150996 41.311480 -0.851129 1.744772 0.016476 -0.013058 903236.000000 0 0 1
26.280860 -29.467397 -7.777296 40.242980 -0.842495 1.765278 0.029476 -0.022489 322430.000000 0 0 1
25.144960 -29.005897 -7.017396 39.023774 -0.856577 1.751603 0.024085 -0.028060 289557.000000 0 0 1
24.307460 -27.977597 -7.798696 37.873714 -0.855478 1.778193 0.060830 -0.033811 500439.000000 0 0 1
23.248360 -28.638497 -8.559596 37.867089 -0.888909 1.798810 0.072927 -0.031771 1172330.000000 0 0 1
22.424660 -27.744397 -9.314496 36.869727 -0.891040 1.826197 0.094610 -0.036924 468751.000000 0 0 1
21.202060 -28.444497 -9.979396 36.853834 -0.930256 1.845003 0.093284 -0.033287 -143012.000000 0 0 1
21.435360 -29.182897 -11.166896 37.892159 -0.937278 1.869940 0.094362 -0.034350 319334.000000 0 0 1
20.339360 -29.898297 -11.793196 38.035210 -0.973425 1.886052 0.087863 -0.033015 742443.000000 0 0 1
19.869160 -31.118597 -11.031096 38.533565 -1.002549 1.861130 0.080946 -0.037991 -82984.700000 0 0 1
20.893760 -32.061097 -11.135796 39.855603 -0.993237 1.853969 0.059760 -0.031869 -185124.000000 0 0 1
20.515060 -33.321197 -10.582496 40.535898 -1.018930 1.834921 0.051107 -0.032851 -152441.000000 0 0 1
21.642160 34.356286 -10.708596 41.992993 1.008658 1.828653 0.037112 -0.023946 -106426.000000 0 0 1
22.585260 -34.147397 -9.677096 42.068811 -0.986445 1.802905 0.037810 -0.020790 -133117.000000 0 0 1
23.655360 33.652386 -9.858196 42.299446 0.958105 1.806017 0.029119 -0.024784 43339.500000 0 0 1
24.924560 33.919486 -9.023396 43.048657 0.937084 1.781972 0.036836 -0.024632 -427048.000000 0 0 1
24.971360 33.523186 -7.651496 42.496096 0.930568 1.751835 0.032598 -0.024775 196685.000000 0 0 1
25.243260 32.160286 -7.345996 41.538775 0.905318 1.748578 0.028346 -0.019752 -288895.000000 0 0 1
25.463860 31.937686 -5.887396 41.268455 0.897705 1.713946 0.031507 -0.017912 -174614.000000 0 0 1
26.644860 32.567086 -5.349596 42.416763 0.885084 1.697253 0.036995 -0.024310 990214.000000 0 0 1
27.628960 31.667386 -4.807696 42.300079 0.853399 1.684699 0.040793 -0.022959 130821.000000 0 0 1
27.282260 30.606486 -3.793196 41.176049 0.842760 1.663049 0.034184 -0.004559 -793390.000000 0 0 1
26.738760 31.244186 -2.635496 41.208085 0.862945 1.634796 0.038295 -0.012509 170843.000000 0 0 1
26.749860 30.397486 -1.469996 40.518181 0.849140 1.607084 0.024214 0.001479 -552651.000000 0 0 1
25.773960 29.216686 -1.375296 38.984653 0.847922 1.606082 0.036514 0.005755 1046730.000000 0 0 1
24.467260 29.692986 -0.947996 38.486607 0.881587 1.595431 0.029439 -0.000065 296630.000000 0 0 1
23.428160 28.819986 -1.094896 37.157355 0.888231 1.600267 0.029983 0.006784 494443.000000 0 0 1
22.003960 29.406686 -0.748996 36.735384 0.928407 1.591187 0.055654 -0.004648 1047480.000000 0 0 1
21.782260 29.290886 0.662404 36.508377 0.931370 1.552651 0.063671 -0.012978 -522512.000000 0 0 1
20.524160 29.789386 1.001204 36.189101 0.967508 1.543127 0.057395 -0.022839 -785864.000000 0 0 1
20.026660 29.103386 2.280204 35.401603 0.968087 1.506342 0.050636 -0.029266 -545937.000000 0 0 1
19.328160 27.938586 1.937604 34.027880 0.965589 1.513824 0.063217 -0.016407 132149.000000 0 0 1
18.618760 27.332886 3.005304 33.208082 0.972810 1.480173 0.070216 -0.018687 -130775.000000 0 0 1
17.860960 26.084286 2.475004 31.710085 0.970385 1.492666 0.068939 -0.001037 -480462.000000 0 0 1
18.584760 25.030686 1.922904 31.235014 0.932126 1.509195 0.065448 -0.003749 -553462.000000 0 0 1
19.401260 24.412286 2.873804 31.314970 0.899275 1.478896 0.063866 0.002794 -115359.000000 0 0 1
20.667860 23.789286 2.217904 31.591291 0.855495 1.500532 0.062914 0.004595 -155287.000000 0 0 1
20.464560 22.642486 1.491604 30.556591 0.835879 1.521962 0.065668 0.001957 -14871.500000 0 0 1
21.687360 22.127386 1.014104 30.999858 0.795441 1.538077 0.045327 -0.004259 -121692.000000 0 0 1
21.626160 20.898386 0.133804 30.074095 0.768286 1.566347 0.065030 -0.003757 -193285.000000 0 0 1
21.184460 21.232886 -1.183396 30.016948 0.786540 1.610231 0.046441 0.005915 466863.000000 0 0 1
21.634160 20.240186 -2.142896 29.703434 0.752121 1.643002 0.067113 -0.003113 211705.000000 0 0 1
21.530060 20.717886 -3.596996 30.095060 0.766177 1.690604 0.040059 0.010013 331929.000000 0 0 1
22.474360 21.752386 -3.932496 31.523446 0.769075 1.695870 0.036992 0.016418 359119.000000 0 0 1
22.181660 22.519886 -5.090496 32.016940 0.792964 1.730468 0.034571 0.007597 -85990.200000 0 0 1
23.157260 23.723186 -5.370196 33.584032 0.797469 1.731389 0.032162 0.020948 89204.000000 0 0 1
22.969160 25.000586 -4.714596 34.275925 0.827721 1.708782 0.018945 0.024339 28271.100000 0 0 1
23.229060 25.076186 -3.293396 34.340221 0.823618 1.666849 0.026807 0.014611 -377294.000000 0 0 1
22.018760 24.736786 -2.423396 33.205530 0.843466 1.643843 0.030923 0.004237 -1019550.000000 0 0 1
21.281560 25.920186 -2.100396 33.603162 0.883356 1.633343 0.045417 0.002933 986658.000000 0 0 1
20.271560 25.836186 -1.061396 32.856829 0.905505 1.603106 0.061691 0.004615 1271190.000000 0 0 1
19.121360 24.775986 -1.312996 31.324109 0.913507 1.612725 0.072811 -0.008640 -113841.000000 0 0 1
18.342960 25.086086 -2.490296 31.176553 0.939436 1.650759 0.060058 -0.001077 208463.000000 0 0 1
17.703960 24.015886 -3.082096 29.994871 0.935553 1.673732 0.051007 -0.003698 -146977.000000 0 0 1
17.199060 24.363286 -4.505296 30.160820 0.956094 1.720733 0.055057 -0.009238 150526.000000 0 0 1
16.546560 23.264986 -5.177996 29.014821 0.952579 1.750218 0.051460 -0.011975 255252.000000 0 0 1
16.302560 23.721386 -6.483596 29.504485 0.968678 1.792354 0.047195 -0.013501 25151.200000 0 0 1
15.578660 22.699086 -7.420696 28.513328 0.969316 1.834081 0.057412 -0.012250 -263588.000000 0 0 1
16.290460 21.492286 -7.615896 28.023192 0.922215 1.846029 0.043390 -0.005761 334348.000000 0 0 1
15.531060 20.531786 -8.364396 27.069008 0.923186 1.884941 0.055920 -0.003834 -32699.700000 0 0 1
16.292760 19.246986 -8.691696 26.672946 0.868332 1.902720 0.053263 0.000111 -528096.000000 0 0 1
17.435160 19.375086 -9.470896 27.732231 0.838050 1.919322 0.053029 -0.006242 -162637.000000 0 0 1
18.083060 18.130486 -9.721496 27.390127 0.786708 1.933632 0.058816 -0.002915 -350839.000000 0 0 1
19.467960 18.300586 -10.342896 28.651150 0.754499 1.940130 0.045990 -0.007674 -706024.000000 0 0 1
19.497860 18.687986 -11.647096 29.411940 0.764193 1.977952 0.048104 -0.008098 165016.000000 0 0 1
20.843360 18.816786 -12.057696 30.559861 0.734344 1.976385 0.041207 -0.000737 17823.400000 0 0 1
21.078760 19.185986 -13.510196 31.542694 0.738425 2.013423 0.037783 -0.009971 -141165.000000 0 0 1
20.864560 18.156786 -14.454396 31.207824 0.716117 2.052360 0.040390 -0.005580 287958.000000 0 0 1
20.856560 18.610386 -15.763796 32.091117 0.728547 2.084286 0.037300 -0.010106 -179594.000000 0 0 1
20.886460 17.498086 -16.825796 32.023970 0.697352 2.123996 0.036529 -0.002477 -720265.000000 0 0 1
22.044460 16.709886 -16.765796 32.346103 0.648607 2.115688 0.053730 -0.010745 -180577.000000 0 0 1
22.246960 15.737986 -17.804396 32.551620 0.615690 2.149524 0.057102 -0.013654 -276737.000000 0 0 1
23.003160 16.314586 -19.014496 34.012676 0.616895 2.164026 0.045744 -0.012735 161799.000000 0 0 1
24.383460 16.601486 -18.759096 34.958062 0.597758 2.137219 0.055556 -0.012856 703950.000000 0 0 1
25.154360 16.749986 -19.938896 36.205848 0.587463 2.154010 0.072908 -0.015470 -1003330.000000 0 0 1
26.552260 17.061986 -19.463196 37.080316 0.571142 2.123386 0.060340 -0.016965 -1144930.000000 0 0 1
26.751860 18.249686 -18.756496 37.423511 0.598668 2.095776 0.046466 -0.014006 -1379020.000000 0 0 1
28.092460 18.315686 -18.488496 38.294584 0.577765 2.074642 0.039517 -0.022366 -1344200.000000 0 0 1
28.342260 19.505486 -17.546996 38.621817 0.602771 2.042415 0.044818 -0.015615 424016.000000 0 0 1
27.655960 19.377986 -16.291796 37.493747 0.611182 2.020302 0.042611 -0.015572 421642.000000 0 0 1
26.265060 19.640386 -16.223796 36.589748 0.642076 2.030182 0.039267 -0.009959 91158.100000 0 0 1
25.632260 19.128786 -14.904896 35.285679 0.641115 2.006895 0.034223 -0.006260 -80523.300000 0 0 1
26.061260 19.825986 -13.766996 35.521672 0.650343 1.968786 0.029192 -0.009294 -69850.700000 0 0 1
25.286660 19.454486 -12.650596 34.320981 0.655775 1.948295 0.029452 -0.010176 -178513.000000 0 0 1
25.723160 19.950086 -11.236596 34.437595 0.659665 1.903171 0.021179 -0.002648 -436628.000000 0 0 1
25.474860 21.363686 -11.121596 35.058030 0.697849 1.893608 0.025529 0.001788 31867.600000 0 0 1
25.819360 21.882886 -9.868096 35.254494 0.703063 1.854497 0.019388 0.004891 379998.000000 0 0 1
24.769260 21.618886 -8.733496 34.017149 0.717589 1.830442 0.018600 0.002874 -277819.000000 0 0 1
24.955860 20.291986 -8.292096 33.216238 0.682687 1.823105 0.031364 -0.008240 556706.000000 0 0 1
24.127060 19.900286 -7.170696 32.086684 0.689688 1.796179 0.033758 -0.003335 1236810.000000 0 0 1
22.593860 19.698886 -7.490296 30.897138 0.717054 1.815663 0.035093 -0.006589 1025490.000000 0 0 1
21.905260 20.947186 -7.778496 31.291053 0.763044 1.822016 0.035413 0.007915 -596347.000000 0 0 1
20.532060 20.780786 -7.897696 30.261859 0.791419 1.834832 0.049920 -0.001064 -792597.000000 0 0 1
19.867260 22.170486 -8.088896 30.849128 0.840133 1.836106 0.040748 -0.007953 -588171.000000 0 0 1
20.178160 22.828186 -9.330696 31.864496 0.846940 1.867976 0.039906 -0.007152 284956.000000 0 0 1
19.428560 22.343686 -10.447696 31.398465 0.855071 1.910010 0.047775 -0.006355 1209870.000000 0 0 1
17.910760 22.805686 -10.432596 30.817749 0.905044 1.916146 0.042230 -0.008272 576971.000000 0 0 1
17.701360 24.201086 -10.441496 31.749890 0.939287 1.905900 0.041692 -0.009903 -68666.100000 0 0 1
16.320360 24.489186 -10.461696 31.233339 0.982957 1.912352 0.040828 -0.005514 189693.000000 0 0 1
16.106960 25.971286 -10.182796 32.212283 1.015668 1.892428 0.043026 -0.005818 -6621.450000 0 0 1
16.615860 26.735986 -11.229196 33.421469 1.014733 1.913450 0.047938 -0.008137 -56093.000000 0 0 1
16.661660 28.108086 -10.881596 34.439578 1.035709 1.892267 0.051986 -0.006617 -54182.000000 0 0 1
20.034760 28.750186 33.630343 48.569175 0.962183 0.805956 0.021377 -0.000362 -445030.000000 0 0 1
18.720760 29.134386 33.426867 48.131432 0.999665 0.803083 0.037236 -0.013481 -762866.000000 0 0 1
17.804060 28.056886 33.527736 47.204687 1.005345 0.780925 0.033872 -0.008147 -814200.000000 0 0 1
16.355460 28.414786 33.691189 47.010609 1.048514 0.771778 0.058863 -0.015497 -1143260.000000 0 0 1
15.822360 28.821086 32.474032 46.212172 1.068732 0.791589 0.059703 -0.020149 -128170.000000 0 0 1
14.493860 29.276186 32.732023 46.244485 1.111098 0.784412 0.065055 -0.020271 498792.000000 0 0 1
13.610260 29.314586 31.437922 45.087992 1.136128 0.799232 0.061096 -0.025058 112511.000000 0 0 1
13.185860 28.072086 30.954382 43.818748 1.131669 0.786371 0.059869 -0.026842 -131845.000000 0 0 1
11.791260 27.899086 30.934882 43.293876 1.170927 0.774841 0.050712 -0.013352 -204330.000000 0 0 1
11.288360 26.386486 30.821832 42.114832 1.166549 0.749760 0.028796 -0.008938 48157.400000 0 0 1
11.494060 25.791586 29.531262 40.858472 1.151564 0.762995 0.029616 -0.005458 -12780.400000 0 0 1
12.808360 25.359586 29.296872 40.810163 1.103101 0.770042 0.038227 -0.013067 -309652.000000 0 0 1
12.963060 24.643786 27.969622 39.467162 1.086552 0.783170 0.058631 -0.020704 -383739.000000 0 0 1
12.557460 25.447386 26.879172 39.086432 1.112388 0.812500 0.056593 -0.020256 298645.000000 0 0 1
12.533460 24.778686 25.612502 37.776595 1.102507 0.825759 0.063636 -0.023508 82201.200000 0 0 1
11.496460 23.629286 25.424902 36.564154 1.117979 0.801889 0.051838 -0.016917 -436639.000000 0 0 1
11.485560 23.343386 24.048822 35.428486 1.113548 0.824670 0.064023 -0.024475 -281277.000000 0 0 1
10.550660 22.372686 23.786442 34.316881 1.130137 0.804959 0.053109 -0.025497 -565552.000000 0 0 1
10.658760 21.850586 22.332252 33.011918 1.116955 0.827809 0.060627 -0.023907 52625.200000 0 0 1
10.463460 22.918886 21.413152 33.064821 1.142514 0.866351 0.059592 -0.024012 7605.530000 0 0 1
10.608360 22.408686 20.106652 31.921215 1.128651 0.889393 0.058207 -0.017629 -598469.000000 0 0 1
10.266460 23.522386 19.076152 31.978155 1.159263 0.931617 0.052378 -0.018945 -43975.500000 0 0 1
8.918760 23.918586 19.061052 31.858543 1.213886 0.929415 0.058267 -0.019356 -381704.000000 0 0 1
8.470460 24.756486 20.101652 32.995586 1.241131 0.915717 0.053607 -0.020315 -961851.000000 0 0 1
7.138460 25.410386 19.774952 32.980207 1.296928 0.927794 0.051556 -0.019594 -583736.000000 0 0 1
7.323660 26.379286 18.735152 33.173915 1.299987 0.970659 0.055435 -0.029940 313660.000000 0 0 1
6.163760 27.125586 18.341752 33.319802 1.347360 0.987862 0.055000 -0.032368 290527.000000 0 0 1
6.500260 28.215386 17.352052 33.755816 1.344367 1.030901 0.064898 -0.026280 25335.500000 0 0 1
6.617160 27.815186 15.993552 32.760725 1.337240 1.060778 0.059806 -0.021311 143996.000000 0 0 1
7.265560 28.702986 15.043252 33.210679 1.322875 1.100709 0.053382 -0.019389 294929.000000 0 0 1
7.552960 27.930286 13.813752 32.061937 1.306691 1.125366 0.053382 -0.017832 554604.000000 0 0 1
6.344260 27.666886 13.095152 31.260026 1.345385 1.138551 0.049093 -0.014373 477255.000000 0 0 1
6.515760 26.532986 12.187152 29.916235 1.329989 1.151217 0.035978 -0.019364 53317.300000 0 0 1
5.798260 26.751986 10.849452 29.444850 1.357356 1.193437 0.034514 -0.016106 -525057.000000 0 0 1
6.422860 27.639486 9.987752 30.082379 1.342469 1.232359 0.031791 -0.014297 -53766.400000 0 0 1
6.247060 29.008086 10.362852 31.430614 1.358680 1.234805 0.033439 -0.008080 -39434.200000 0 0 1
6.516160 30.014786 9.242152 32.074368 1.357015 1.278504 0.036762 -0.003678 319454.000000 0 0 1
5.564960 29.888986 8.192752 31.487163 1.386716 1.307574 0.021253 -0.001889 493579.000000 0 0 1
6.132460 28.982586 7.194052 30.485271 1.362281 1.332565 0.017050 0.004652 388078.000000 0 0 1
5.031360 28.311486 6.363552 29.450800 1.394918 1.353005 0.002574 0.018947 -96277.800000 0 0 1
4.205560 29.153586 5.612552 29.985314 1.427529 1.382509 -0.012126 0.005238 222850.000000 0 0 1
2.841660 28.755186 5.827352 29.477004 1.472294 1.371794 0.021844 -0.008639 742168.000000 0 0 1
1.885260 29.796886 5.167452 30.300349 1.507610 1.399418 0.033277 -0.009581 -364507.000000 0 0 1
2.074260 30.131886 3.802752 30.441649 1.502065 1.445550 0.020370 -0.010778 132051.000000 0 0 1
1.057460 30.964086 3.259652 31.153141 1.536658 1.465971 0.034973 -0.022357 -393564.000000 0 0 1
-0.126540 30.215486 2.697952 30.335961 -1.566608 1.481743 0.048929 -0.019309 -1021660.000000 0 0 1
0.004860 29.571786 1.465252 29.608065 1.570632 1.521288 0.046779 -0.012915 -154159.000000 0 0 1
-0.619540 28.288386 1.380352 28.328819 -1.548899 1.522051 0.062690 -0.021018 181202.000000 0 0 1
-0.807840 27.862786 -0.087748 27.874633 -1.541811 1.573944 0.054471 -0.022260 466574.000000 0 0 1
-1.835540 28.671886 -0.707848 28.739299 -1.506865 1.595429 0.052827 -0.025940 533630.000000 0 0 1
-1.365140 29.394986 -1.827248 29.483345 -1.524388 1.632812 0.047788 -0.022204 -470554.000000 0 0 1
-2.331940 30.479086 -2.343148 30.657837 -1.494436 1.647300 0.053300 -0.025660 1260290.000000 0 0 1
-3.597640 30.114086 -2.952148 30.471566 -1.451893 1.667831 0.032843 -0.021370 1262460.000000 0 0 1
-3.390340 29.450386 -4.187348 29.939164 -1.456180 1.711118 0.031470 -0.018614 -16550.800000 0 0 1
-4.781640 29.052286 -4.762748 29.825881 -1.407671 1.731168 0.031261 -0.010358 224896.000000 0 0 1
-5.415640 30.105386 -5.428748 31.066617 -1.392811 1.746443 0.026548 -0.012736 -150048.000000 0 0 1
-6.383340 29.565586 -6.316848 30.899409 -1.358156 1.776680 0.017586 -0.010477 -78663.500000 0 0 1
-7.003940 30.724986 -7.148548 32.313800 -1.346670 1.793864 0.015636 -0.001770 -640778.000000 0 0 1
-7.993040 31.422986 -6.483948 33.065606 -1.321710 1.768169 0.012146 -0.002548 -443712.000000 0 0 1
-8.217440 32.747486 -7.004348 34.481662 -1.324939 1.775352 0.014923 -0.006380 -429989.000000 0 0 1
-9.239640 33.588386 -6.260248 35.394086 -1.302352 1.748604 0.027632 -0.016082 -471509.000000 0 0 1
-10.550440 33.286386 -6.645548 35.545162 -1.263854 1.758864 0.040158 -0.015161 -1047830.000000 0 0 1
-11.450040 34.245086 -6.221848 36.640698 -1.248126 1.741430 0.043631 -0.022759 91616.700000 0 0 1
-12.945240 33.822686 -6.354848 36.768702 -1.205259 1.744502 0.062018 -0.028670 320583.000000 0 0 1
-13.392140 33.905886 -7.665748 37.252144 -1.194625 1.778057 0.072005 -0.026733 -194733.000000 0 0 1
-14.767840 33.587086 -7.688348 37.487226 -1.156551 1.777355 0.089078 -0.030845 -384369.000000 0 0 1
-15.410740 33.857386 -9.103948 38.297459 -1.143654 1.810811 0.109026 -0.037085 767238.000000 0 0 1
-16.811140 33.622786 -9.244748 38.711388 -1.107155 1.811939 0.132442 -0.036996 619485.000000 0 0 1
-17.639140 -34.052797 -8.772948 39.340779 1.092857 1.795686 0.147945 -0.041481 -197191.000000 0 0 1
-19.176340 -34.252897 -8.959248 40.264887 1.060425 1.795182 0.131908 -0.035049 893482.000000 0 0 1
-19.810140 33.485386 -8.076048 39.735818 -1.036572 1.775466 0.104595 -0.030417 339793.000000 0 0 1
-20.063540 34.079286 -6.840148 40.133913 -1.038704 1.742066 0.094098 -0.031924 -561241.000000 0 0 1
-20.666240 33.107486 -5.801548 39.457028 -1.012761 1.718366 0.077253 -0.023488 -561800.000000 0 0 1
-20.646340 33.693486 -4.526448 39.774503 -1.021040 1.684846 0.086981 -0.038618 -9712.610000 0 0 1
-21.643340 33.196086 -3.679648 39.798921 -0.993027 1.663385 0.076232 -0.028294 -394798.000000 0 0 1
-22.898140 34.081486 -3.641348 41.220528 -0.979204 1.659250 0.068853 -0.022792 -172863.000000 0 0 1
-23.582440 34.102486 -4.911148 41.752011 -0.965787 1.688696 0.058552 -0.035053 -19210.000000 0 0 1
-24.352640 -33.471397 -5.130948 41.709856 0.941808 1.694124 0.055856 -0.031548 -136520.000000 0 0 1
-24.909940 -33.390297 -6.539548 42.168504 0.929845 1.726506 0.078315 -0.010111 -223692.000000 0 0 1
-23.948640 -32.926797 -7.472548 41.395052 0.941963 1.752309 0.108796 -0.013348 140482.000000 0 0 1
-24.287240 -33.018297 -8.867848 41.937056 0.936595 1.783861 0.046329 -0.007355 168318.000000 0 0 1
-25.386440 -32.071697 -9.432748 41.976682 0.901227 1.797446 0.026934 0.006005 777944.000000 0 0 1
-26.735980 -32.413297 -9.050348 42.980731 0.881088 1.782952 0.043596 0.010432 573999.000000 0 0 1
-27.744310 -31.810697 -9.818248 43.336649 0.853572 1.799338 -0.029981 0.016690 102044.000000 0 0 1
-27.991450 -30.287897 -9.586448 42.341209 0.824782 1.799186 -0.042944 0.023010 -1037300.000000 0 0 1
-27.001160 -29.479997 -10.168348 41.249584 0.829258 1.819872 -0.007766 0.022599 -156803.000000 0 0 1
-27.127760 -29.325697 -11.577348 41.592630 0.824312 1.852873 -0.006065 0.014492 -199157.000000 0 0 1
-25.883650 -28.626397 -12.157848 40.462912 0.835672 1.875981 0.030153 0.005770 -597494.000000 0 0 1
-24.799740 -29.484697 -12.346248 40.457438 0.871489 1.880909 0.045906 0.003728 -539232.000000 0 0 1
-23.866640 -28.785997 -13.158348 39.640790 0.878558 1.909155 0.045747 -0.008706 246364.000000 0 0 1
-22.585740 -29.650397 -13.435348 39.620326 0.919827 1.916759 0.064446 -0.020529 317780.000000 0 0 1
-22.755440 -30.825597 -14.242048 40.876196 0.934890 1.926680 0.062055 -0.019632 -149906.000000 0 0 1
-23.391640 -31.952897 -13.693848 41.900811 0.938872 1.903729 0.052378 -0.013040 -413531.000000 0 0 1
-23.383340 -33.249997 -14.554848 43.176226 0.957887 1.914635 0.042532 -0.010001 -185455.000000 0 0 1
-23.895340 -34.349997 -13.799448 44.060576 0.963000 1.889349 0.039143 -0.014653 -149058.000000 0 0 1
-23.728240 33.132386 -14.498848 43.255069 -0.949304 1.912608 0.039996 -0.017161 85404.800000 0 0 1
-24.109640 31.873286 -13.553248 42.200375 -0.923198 1.897755 0.033136 -0.014249 -299912.000000 0 0 1
-23.310340 31.588686 -12.408348 41.172614 -0.935063 1.876929 0.031538 -0.009084 110628.000000 0 0 1
-23.121040 32.619586 -11.452048 41.590495 -0.954183 1.849753 0.053020 -0.012157 -30247.700000 0 0 1
-22.235240 32.137186 -10.264448 40.404994 -0.965537 1.827650 0.054846 -0.015596 5934.110000 0 0 1
-22.828740 31.186986 -9.426248 39.782328 -0.938918 1.810017 0.037401 -0.010325 -3543.160000 0 0 1
-21.890040 30.626486 -8.526648 38.598695 -0.950245 1.793539 0.047844 -0.009921 -73487.900000 0 0 1
-22.465040 29.547486 -7.577748 37.883429 -0.920734 1.772183 0.036357 -0.013916 -42219.800000 0 0 1
-22.782140 28.411286 -8.398748 37.373333 -0.894917 1.797458 0.042918 -0.001899 -27862.600000 0 0 1
-23.362340 27.297686 -7.781348 36.762916 -0.862924 1.784072 0.051633 -0.009426 -283151.000000 0 0 1
-22.549040 26.465386 -6.763148 35.420559 -0.865131 1.762914 0.051998 -0.011009 -300131.000000 0 0 1
-22.617040 27.057686 -5.490948 35.690326 -0.874556 1.725260 0.050646 -0.009522 751284.000000 0 0 1
-21.481340 26.754586 -4.677948 34.628587 -0.894288 1.706300 0.035705 -0.004032 1546530.000000 0 0 1
-20.216740 27.732986 -4.772748 34.649880 -0.940886 1.708978 0.036289 -0.017429 954240.000000 0 0 1
-19.499240 27.597086 -5.970548 34.314238 -0.955675 1.745683 0.043660 -0.015056 -383578.000000 0 0 1
-18.221640 28.172086 -5.806548 34.050119 -0.996676 1.742163 0.036803 -0.014929 -104865.000000 0 0 1
-17.334740 27.934486 -7.047948 33.622943 -1.015404 1.781980 0.047461 -0.007648 -148009.000000 0 0 1
-17.800140 28.630686 -8.232948 34.703640 -1.014562 1.810316 0.055300 -0.007631 248556.000000 0 0 1
-17.716140 30.022186 -8.188548 35.808457 -1.037687 1.801514 0.057387 -0.019695 -117107.000000 0 0 1
-17.746540 30.684686 -9.535648 36.707196 -1.046447 1.833587 0.070627 -0.024847 -712805.000000 0 0 1
-16.623640 30.520086 -10.325348 36.255122 -1.072048 1.859591 0.063739 -0.022901 -622106.000000 0 0 1
-16.676840 31.321586 -11.484848 37.296923 -1.081535 1.883813 0.079163 -0.022677 -344361.000000 0 0 1
-15.300340 31.544286 -12.140048 37.101525 -1.119186 1.904148 0.076643 -0.027312 -145614.000000 0 0 1
-15.194540 32.135886 -13.377148 37.980749 -1.129127 1.930726 0.088074 -0.030403 -400290.000000 0 0 1
-15.456540 31.304786 -14.490448 37.800361 -1.112166 1.964208 0.078977 -0.032774 74041.200000 0 0 1
-15.027540 32.020686 -15.784548 38.733748 -1.132003 1.990527 0.109713 -0.040293 990265.000000 0 0 1
-13.605940 32.056286 -15.973748 38.313022 -1.169401 2.000859 0.103754 -0.045056 425042.000000 0 0 1
-13.285340 32.369386 -17.314548 39.039352 -1.181332 2.030313 0.084454 -0.045992 1030590.000000 0 0 1
-11.757940 32.248286 -17.700948 38.620262 -1.221169 2.046915 0.106451 -0.050669 603247.000000 0 0 1
-11.147640 31.011386 -17.561548 37.341450 -1.225711 2.060423 0.108614 -0.060417 886281.000000 0 0 1
-9.783840 30.840786 -18.010448 37.030445 -1.263602 2.078725 0.102544 -0.055561 1301740.000000 0 0 1
-9.622540 31.018986 -19.583348 37.924639 -1.269995 2.113409 0.112562 -0.057440 -175961.000000 0 0 1
-10.537340 30.164386 -20.277448 37.843105 -1.234718 2.136286 0.103602 -0.063211 522207.000000 0 0 1
-10.281940 30.176786 -21.671648 38.548891 -1.242409 2.167823 0.117368 -0.070515 -484349.000000 0 0 1
-11.526240 29.698586 -22.428348 38.960121 -1.200584 2.184225 0.112869 -0.055803 -329141.000000 0 0 1
-12.598640 30.584486 -22.389548 39.942814 -1.180049 2.165834 0.114260 -0.056479 -640854.000000 0 0 1
-13.600540 30.210386 -21.472748 39.480641 -1.147781 2.145851 0.105601 -0.059728 -213356.000000 0 0 1
-14.743640 31.265286 -21.478648 40.696748 -1.130154 2.126773 0.127744 -0.061277 -124796.000000 0 0 1
-15.421340 31.379286 -22.667848 41.669037 -1.114012 2.145990 0.102957 -0.059803 -449981.000000 0 0 1
-15.878240 32.714086 -22.836948 42.940146 -1.118926 2.131559 0.083448 -0.039254 158790.000000 0 0 1
-16.280740 32.951386 -24.290248 44.055334 -1.111893 2.154787 0.062542 -0.032330 -36754.300000 0 0 1
-15.177040 33.238186 -25.130348 44.346972 -1.142455 2.173262 0.084215 -0.035890 6961.540000 0 0 1
-15.456640 33.335486 -26.534848 45.323950 -1.136633 2.196230 0.088016 -0.021216 -3489.830000 0 0 1
-15.582440 -33.954197 -27.107048 46.157253 1.140545 2.198486 0.071703 -0.009136 774654.000000 0 0 1
-16.855440 -33.368097 -26.793348 45.993687 1.103048 2.192651 0.064417 -0.009936 502627.000000 0 0 1
-17.252740 -32.390697 -27.705148 45.982491 1.081375 2.217445 0.048656 -0.001665 768014.000000 0 0 1
-18.738040 -31.884797 -27.494748 46.083789 1.039485 2.210086 0.039615 -0.008606 1035650.000000 0 0 1
-19.646240 -32.889897 -27.868848 47.375022 1.032340 2.199702 0.019055 -0.004955 -676452.000000 0 0 1
-20.983640 -32.599997 -27.541748 47.556501 0.998884 2.188466 0.030299 -0.011690 582538.000000 0 0 1
-22.031940 -33.691497 -27.932848 48.997626 0.991662 2.177407 0.015452 0.000837 184763.000000 0 0 1
-21.869640 33.787786 -27.259248 48.610310 -0.996346 2.166113 0.022981 -0.005769 -746221.000000 0 0 1
-23.102240 33.190986 -26.988948 48.618498 -0.962733 2.159300 0.008940 0.009250 -313754.000000 0 0 1
-23.059540 31.665286 -26.704748 47.408610 -0.941376 2.169157 0.006233 0.006692 65242.100000 0 0 1
-22.628240 31.318186 -25.392348 46.234590 -0.945111 2.152211 0.006696 -0.003722 -333164.000000 0 0 1
-22.703640 29.921786 -25.279948 45.275206 -0.921708 2.163206 0.005978 -0.003270 -355934.000000 0 0 1
30.833303 9.894186 -26.605856 41.910131 0.310513 2.258586 0.012432 -0.002056 33442.300000 0 0 1
30.582083 8.481286 -26.541196 41.371864 0.270530 2.267284 0.001061 0.001074 -845849.000000 0 0 1
29.214483 8.336486 -26.442146 40.276173 0.277967 2.286993 0.004721 -0.005667 -894717.000000 0 0 1
28.775893 6.921686 -25.958846 39.367797 0.236053 2.290807 -0.003623 0.005499 117992.000000 0 0 1
29.302353 6.592486 -24.658496 38.860394 0.221297 2.258210 0.001052 0.001097 225555.000000 0 0 1
28.770773 5.383886 -24.179496 37.965664 0.184991 2.261238 0.010586 0.004771 -179062.000000 0 0 1
28.890723 5.189786 -22.668196 37.087125 0.177739 2.228391 0.013224 0.006338 -744035.000000 0 0 1
30.128563 4.778486 -22.207796 37.732618 0.157293 2.200069 0.016505 -0.000832 -675483.000000 0 0 1
30.104833 4.608886 -20.811696 36.887254 0.151915 2.170257 0.016444 -0.008391 -154682.000000 0 0 1
31.361233 4.190486 -20.014996 37.439113 0.132833 2.134832 0.022836 -0.014705 -222927.000000 0 0 1
31.760153 2.849686 -20.164996 37.728704 0.089486 2.134681 0.039021 -0.008854 -71252.500000 0 0 1
32.881573 2.593986 -19.365096 38.248314 0.078726 2.101684 0.053295 -0.018551 -229685.000000 0 0 1
33.458863 1.212486 -19.612096 38.802061 0.036222 2.100688 0.064873 -0.014388 -175375.000000 0 0 1
32.681343 0.313186 -18.850496 37.729424 0.009583 2.093960 0.081851 -0.017778 133235.000000 0 0 1
32.915303 -1.075014 -18.995096 38.018239 -0.032648 2.093969 0.082028 -0.015885 -14689.400000 0 0 1
31.660173 -1.793614 -18.434396 36.679839 -0.056592 2.097372 0.064105 -0.016074 307438.000000 0 0 1
31.554943 -1.898914 -17.030696 35.907728 -0.060106 2.064954 0.077092 -0.021772 -201700.000000 0 0 1
30.274173 -1.597814 -16.536696 34.533185 -0.052729 2.070156 0.070607 -0.022648 -209972.000000 0 0 1
29.943053 -2.211514 -15.141096 33.626329 -0.073723 2.037870 0.076547 -0.028952 -127080.000000 0 0 1
29.745873 -3.605314 -15.134396 33.568813 -0.120616 2.038510 0.069156 -0.029396 417969.000000 0 0 1
29.117563 -3.968114 -13.909896 32.512515 -0.135445 2.012889 0.074474 -0.025692 -105979.000000 0 0 1
28.839673 -5.427514 -13.481596 32.294552 -0.186020 2.001442 0.064622 -0.020413 -205834.000000 0 0 1
27.980773 -6.111214 -14.345996 32.032455 -0.215031 2.035165 0.050318 -0.019108 280187.000000 0 0 1
27.694123 -7.432614 -13.839196 31.839151 -0.262203 2.020457 0.047401 -0.022414 -258723.000000 0 0 1
27.012263 -8.295314 -14.900696 31.945349 -0.297953 2.056062 0.034709 -0.014862 787500.000000 0 0 1
25.684583 -7.881414 -15.296196 30.915823 -0.297733 2.088366 0.040722 -0.023129 742367.000000 0 0 1
25.293583 -8.718814 -16.311396 31.334401 -0.331950 2.118302 0.039573 -0.022278 -276438.000000 0 0 1
23.856283 -8.644214 -16.855796 30.462478 -0.347630 2.157153 0.043095 -0.025009 -404514.000000 0 0 1
23.610383 -7.381114 -17.411196 30.250302 -0.302996 2.184099 0.047525 -0.024598 534861.000000 0 0 1
22.286183 -7.290714 -17.945696 29.527555 -0.316167 2.224034 0.053443 -0.022643 508945.000000 0 0 1
22.116783 -7.678914 -19.451196 30.437918 -0.334177 2.264052 0.050378 -0.017578 -484395.000000 0 0 1
22.743883 -6.814014 -20.344296 31.266682 -0.291088 2.279263 0.044560 -0.019396 119016.000000 0 0 1
22.724483 -7.296514 -21.637096 32.214984 -0.310688 2.307226 0.068818 -0.022473 37409.200000 0 0 1
23.820383 -6.661814 -22.537996 33.462691 -0.272701 2.309765 0.065631 -0.025368 -69542.000000 0 0 1
23.705883 -6.905514 -23.907696 34.369070 -0.283456 2.340074 0.071226 -0.029044 156600.000000 0 0 1
23.407683 -5.714414 -24.640196 34.463218 -0.239442 2.367379 0.059349 -0.022062 -168023.000000 0 0 1
23.211883 -5.826314 -26.171996 35.464219 -0.245925 2.400873 0.063277 -0.026556 432442.000000 0 0 1
22.062283 -6.569214 -26.599006 35.176783 -0.289398 2.428210 0.068743 -0.024652 328541.000000 0 0 1
22.092283 -6.620114 -28.027186 36.296254 -0.291142 2.453059 0.071476 -0.025711 -159610.000000 0 0 1
20.847883 -7.287314 -28.604776 36.138240 -0.336271 2.484117 0.070916 -0.028268 -309695.000000 0 0 1
20.805983 -8.665014 -28.367816 36.231263 -0.394621 2.470215 0.069731 -0.024284 251950.000000 0 0 1
19.585383 -9.181314 -28.848076 36.056834 -0.438364 2.498212 0.066123 -0.031487 -52458.400000 0 0 1
19.604783 -10.709514 -28.736536 36.398211 -0.499975 2.480797 0.082042 -0.024495 196082.000000 0 0 1
18.700283 -11.144614 -27.690996 35.223491 -0.537443 2.475353 0.087785 -0.023282 664280.000000 0 0 1
18.831483 -12.522514 -27.343496 35.483868 -0.586832 2.450562 0.089235 -0.029926 -335947.000000 0 0 1
18.823083 -13.681114 -28.476526 36.774908 -0.628504 2.456478 0.075887 -0.022868 -169296.000000 0 0 1
17.517283 -14.011714 -28.890796 36.576788 -0.674667 2.481388 0.068304 -0.023928 130003.000000 0 0 1
17.533083 -15.032914 -29.865376 37.753652 -0.708776 2.483335 0.050854 -0.020588 301745.000000 0 0 1
16.250783 -15.148114 -30.773176 37.954469 -0.750295 2.516300 0.047200 -0.019701 28904.500000 0 0 1
15.266483 -16.003114 -30.291456 37.506499 -0.808951 2.510922 0.046221 -0.023787 -763634.000000 0 0 1
14.346883 -16.207414 -31.315556 38.068063 -0.846216 2.536800 0.041236 -0.019074 -299916.000000 0 0 1
13.089083 -16.871614 -30.648876 37.354104 -0.910984 2.533074 0.049330 -0.029373 155849.000000 0 0 1
13.271983 -18.266314 -30.283666 37.774386 -0.942452 2.500928 0.050701 -0.026798 370413.000000 0 0 1
12.263083 -18.732914 -29.377936 36.937358 -0.991175 2.490373 0.054246 -0.019932 157120.000000 0 0 1
12.688783 -20.018314 -28.622046 37.161265 -1.005852 2.449970 0.054003 -0.022401 -68669.400000 0 0 1
13.837583 -19.859214 -27.807576 36.866359 -0.962232 2.425354 0.057942 -0.021664 70438.900000 0 0 1
13.869083 -20.838714 -26.790916 36.665470 -0.983571 2.390121 0.051228 -0.018357 408794.000000 0 0 1
14.861583 -20.489814 -25.615776 36.012041 -0.943281 2.362159 0.046580 -0.012526 712845.000000 0 0 1
16.250883 -20.566914 -25.913296 36.859030 -0.902092 2.350457 0.047899 -0.011872 556086.000000 0 0 1
17.031783 -20.457714 -24.734196 36.337036 -0.876529 2.319498 0.040626 -0.008883 -666533.000000 0 0 1
18.488083 -20.855514 -24.968996 37.419413 -0.845499 2.301339 0.027272 -0.004844 -578591.000000 0 0 1
18.836483 -22.220914 -25.132896 38.473947 -0.867644 2.282658 0.037122 -0.005717 320569.000000 0 0 1
18.510983 -23.005414 -24.012796 38.059427 -0.893235 2.253546 0.040845 -0.006102 -574404.000000 0 0 1
19.073283 -24.482814 -23.972996 39.216105 -0.908962 2.228505 0.039683 -0.011248 -850240.000000 0 0 1
20.431983 -24.512414 -23.693396 39.745458 -0.875938 2.209467 0.045328 -0.013320 -701671.000000 0 0 1
20.904383 -25.818044 -23.520096 40.703311 -0.890180 2.186879 0.051085 -0.019211 -185794.000000 0 0 1
21.033983 -26.311504 -22.078496 40.276342 -0.896408 2.150977 0.060953 -0.013950 -752417.000000 0 0 1
19.812383 -26.498834 -21.432596 39.421757 -0.928788 2.145605 0.056202 -0.007924 -306348.000000 0 0 1
19.928183 -26.732574 -20.064696 38.914715 -0.930204 2.112512 0.059329 -0.007398 -69248.400000 0 0 1
18.598983 -27.277884 -19.509996 38.348991 -0.972367 2.104527 0.054640 -0.008111 -846646.000000 0 0 1
18.321483 -28.612124 -19.914896 39.381893 -1.001242 2.100974 0.060050 -0.009818 277964.000000 0 0 1
17.146783 -29.217574 -19.388696 39.033324 -1.040091 2.090614 0.054318 -0.000340 224166.000000 0 0 1
15.827783 -28.598574 -19.873596 38.253849 -1.065311 2.117084 0.054531 -0.008589 -1039890.000000 0 0 1
15.259283 -27.645734 -19.008796 36.857383 -1.066451 2.112667 0.053710 -0.009199 -634512.000000 0 0 1
14.106983 -27.143474 -19.608196 36.335334 -1.091498 2.140812 0.041503 -0.001507 -221482.000000 0 0 1
13.185283 -26.266884 -18.719896 34.845881 -1.105571 2.137934 0.032440 -0.011435 222991.000000 0 0 1
12.240883 -26.992214 -17.948996 34.649463 -1.145038 2.115327 0.024746 -0.006965 318510.000000 0 0 1
11.356583 -26.238714 -17.125596 33.327588 -1.162323 2.110470 0.031472 -0.013517 324835.000000 0 0 1
9.859783 -26.369414 -17.474896 33.135077 -1.212982 2.126314 0.030824 -0.008957 -397591.000000 0 0 1
9.271483 -27.550924 -17.014496 33.682442 -1.246179 2.100346 0.043300 -0.004574 -905384.000000 0 0 1
7.880183 -27.455784 -17.019596 33.250324 -1.291296 2.108148 0.036539 0.005756 -308955.000000 0 0 1
7.247783 -28.120294 -18.257996 34.302124 -1.318544 2.132076 0.039182 0.002145 -360487.000000 0 0 1
7.355283 -27.384174 -19.428196 34.372198 -1.308393 2.171508 0.038970 -0.001723 -310449.000000 0 0 1
6.940583 -28.130674 -20.509296 35.498419 -1.328901 2.186769 0.040425 0.000582 -361982.000000 0 0 1
6.958083 -27.231064 -21.735896 35.530198 -1.320629 2.229078 0.029598 -0.001746 -1088930.000000 0 0 1
5.812383 -26.449084 -21.786796 34.756328 -1.354477 2.248292 0.050054 -0.009973 -488687.000000 0 0 1
5.880883 -25.466204 -22.775396 34.667435 -1.343846 2.287586 0.039695 -0.009985 -716346.000000 0 0 1
4.542683 -24.813914 -23.082996 34.193435 -1.389731 2.311857 0.034788 -0.004090 155806.000000 0 0 1
3.571883 -25.707074 -23.657596 35.118284 -1.432735 2.309939 0.039581 0.000625 1197380.000000 0 0 1
2.323483 -25.127574 -24.081196 34.881192 -1.478591 2.332807 0.044372 -0.008221 1605290.000000 0 0 1
1.302183 -26.100774 -24.766796 36.004726 -1.520947 2.329355 0.031018 -0.011967 700049.000000 0 0 1
1.958083 -26.667884 -25.877086 37.210667 -1.497503 2.339802 0.026070 -0.005415 426268.000000 0 0 1
1.062683 -27.582834 -26.488976 38.257129 -1.532288 2.335597 0.029972 -0.015169 212489.000000 0 0 1
1.740183 -28.485214 -27.522506 39.647497 -1.509781 2.338077 0.024651 -0.006324 -798364.000000 0 0 1
2.171183 -27.872704 -28.692746 40.060896 -1.493057 2.369179 0.014325 -0.010978 175430.000000 0 0 1
2.760983 -28.766034 -29.653216 41.405567 -1.475109 2.369088 0.028099 -0.015229 -231845.000000 0 0 1
4.202683 -29.188494 -29.377366 41.625237 -1.427795 2.354290 0.006876 -0.012006 -985126.000000 0 0 1
4.385183 -30.046934 -28.276166 41.492043 -1.425875 2.320585 0.003776 -0.015850 -47550.900000 0 0 1
5.585383 -30.757374 -28.527426 42.320522 -1.391159 2.310515 0.019544 -0.018787 199802.000000 0 0 1
6.056683 -31.875524 -27.555816 42.568245 -1.383024 2.274876 0.039013 -0.026370 -156972.000000 0 0 1
5.310683 -33.051944 -27.728436 43.468386 -1.411481 2.262563 0.053873 -0.032639 104781.000000 0 0 1
5.627083 -34.037324 -26.775796 43.670892 -1.406957 2.230809 0.050668 -0.037208 -90931.100000 0 0 1
4.329783 33.887165 -26.531036 43.254860 1.443714 2.231111 0.058610 -0.037328 -28335.500000 0 0 1
3.918183 33.095463 -27.659146 43.309240 1.452955 2.263530 0.046686 -0.035544 25163.100000 0 0 1
2.572483 32.766273 -27.406006 42.794106 1.492447 2.265835 0.024226 -0.031875 94821.500000 0 0 1
1.580183 32.830033 -28.599116 43.568538 1.522701 2.286855 0.032195 -0.013333 -122320.000000 0 0 1
1.529783 31.691988 -29.471946 43.304942 1.522563 2.319334 0.038262 -0.016071 96320.200000 0 0 1
0.688183 32.151638 -30.524606 44.339069 1.549395 2.330127 0.032871 -0.019377 304527.000000 0 0 1
0.217883 31.102248 -31.506076 44.272228 1.563791 2.362632 0.033890 -0.025699 408123.000000 0 0 1
1.284983 30.866448 -32.421876 44.783556 1.529190 2.380334 0.043275 -0.026017 622911.000000 0 0 1
0.811383 30.058388 -33.501816 45.017072 1.543809 2.410136 0.057277 -0.031716 -796586.000000 0 0 1
1.911983 29.577018 34.129458 45.202606 1.506242 0.715092 0.048015 -0.020400 -899149.000000 0 0 1
2.457783 30.555928 33.273005 45.241556 1.490534 0.744462 0.052507 -0.023702 342452.000000 0 0 1
3.648083 30.062588 32.638816 44.523702 1.450037 0.747977 0.030847 -0.017235 -128335.000000 0 0 1
3.488983 28.986688 31.503872 42.952242 1.451008 0.747394 0.027227 -0.005616 -594941.000000 0 0 1
2.994783 27.751378 31.966972 42.438132 1.463298 0.717791 0.031989 -0.002716 112743.000000 0 0 1
4.050383 26.850928 32.223752 42.139627 1.421078 0.700236 0.036696 0.003338 -437586.000000 0 0 1
3.486183 25.405978 32.280742 41.226976 1.434429 0.671321 0.036676 -0.008611 -18521.600000 0 0 1
3.146183 24.866108 30.980602 39.849963 1.444940 0.680225 0.050698 -0.001601 195612.000000 0 0 1
3.051383 23.477368 31.171652 39.142939 1.441550 0.649553 0.038032 0.001710 -340912.000000 0 0 1
2.255183 22.609468 30.176012 37.773875 1.471380 0.645400 0.040117 0.013239 -125085.000000 0 0 1
0.883783 22.634568 30.508132 37.998038 1.531770 0.638674 0.038190 0.007596 134337.000000 0 0 1
0.125383 21.899868 29.516612 36.753916 1.565071 0.638337 0.045374 0.009361 1227350.000000 0 0 1
-1.346217 21.543868 29.927582 36.900010 -1.508390 0.624859 0.038419 0.013919 419925.000000 0 0 1
-2.293117 22.554368 30.104652 37.686178 -1.469474 0.645457 0.041261 0.006761 320194.000000 0 0 1
-3.580917 21.926568 30.152452 37.453541 -1.408911 0.635015 0.019470 0.003266 804182.000000 0 0 1
-4.683917 22.884668 30.722162 38.594020 -1.368910 0.650082 0.004746 -0.006883 57660.900000 0 0 1
-4.529517 23.381568 32.075202 39.950380 -1.379445 0.638692 0.005603 -0.007129 -1602.780000 0 0 1
-4.096417 24.718208 32.089762 40.712692 -1.406564 0.662917 0.023647 -0.013060 -199961.000000 0 0 1
-4.351117 25.392818 33.453705 42.224138 -1.401092 0.656245 0.013904 -0.008026 745144.000000 0 0 1
-5.688817 25.891448 33.677539 42.859146 -1.354515 0.666852 0.021609 -0.013699 806481.000000 0 0 1
-5.769217 26.391668 -33.522676 43.053152 -1.355582 2.463283 0.032779 -0.007019 -364586.000000 0 0 1
-7.189217 26.588408 -32.977526 42.966796 -1.306722 2.445747 0.041679 -0.006177 -411804.000000 0 0 1
-7.847217 27.722678 -33.510926 44.193980 -1.294951 2.431450 0.054316 -0.010823 553129.000000 0 0 1
-9.071417 28.139718 -32.871396 44.211572 -1.258944 2.409088 0.069972 -0.010996 746484.000000 0 0 1
-9.035017 28.512588 -31.357766 43.334844 -1.263928 2.379823 0.089490 -0.013671 -392753.000000 0 0 1
-8.641917 29.839878 -31.100646 43.958518 -1.288899 2.356751 0.085310 -0.015795 82832.200000 0 0 1
-8.472317 30.022038 -29.726966 43.090550 -1.295746 2.332109 0.101087 -0.019847 -114407.000000 0 0 1
-7.882617 31.382148 -29.336446 43.676103 -1.324706 2.307273 0.084506 -0.017122 -95590.500000 0 0 1
-6.498417 31.536858 -29.509796 43.676435 -1.367583 2.312637 0.044189 -0.014348 -375400.000000 0 0 1
-5.981317 32.820687 -29.325976 44.418313 -1.390532 2.291911 0.045250 -0.012409 -179224.000000 0 0 1
-4.444917 32.883522 -29.233186 44.222873 -1.436439 2.293003 0.038921 -0.013917 -311453.000000 0 0 1
-3.920217 34.161130 -28.768846 44.832995 -1.456539 2.267495 0.030931 -0.018884 -166919.000000 0 0 1
-3.855517 -33.480274 -29.729576 44.940421 1.456143 2.293658 0.032560 -0.014956 421104.000000 0 0 1
-2.823717 -33.694544 -30.923416 45.820884 1.487188 2.311593 0.033385 -0.017761 327633.000000 0 0 1
-3.311217 34.027897 -31.836606 46.716501 -1.473793 2.320587 0.031746 -0.010040 401709.000000 0 0 1
-4.350317 -34.204105 -32.695036 47.516434 1.444289 2.329634 0.054214 -0.017806 119951.000000 0 0 1
-4.011517 -33.236034 -33.817366 47.585087 1.450680 2.361249 0.028511 -0.028505 -652743.000000 0 0 1
-3.700117 -31.935624 -33.479346 46.415963 1.455449 2.376459 0.026478 -0.022670 235615.000000 0 0 1
-3.097217 -31.237844 33.933696 46.226523 1.471970 0.746494 0.015424 -0.027789 209556.000000 0 0 1
32.307913 19.492986 12.298552 39.686674 0.542879 1.255718 0.045931 -0.012359 -280038.000000 0 0 1
32.986213 18.733186 13.234952 40.176939 0.516489 1.235111 0.035158 -0.008722 -131470.000000 0 0 1
32.737643 17.347786 12.946652 39.246844 0.487283 1.234622 0.042638 -0.003055 264006.000000 0 0 1
33.834653 16.387586 13.487552 39.940591 0.451044 1.226334 0.048702 -0.005973 1161620.000000 0 0 1
35.135833 16.291686 12.886652 40.816805 0.434170 1.249582 0.036458 0.007588 635673.000000 0 0 1
35.976453 15.395486 13.548252 41.411125 0.404352 1.237495 0.038580 0.009057 160724.000000 0 0 1
-34.962068 14.774286 12.610452 39.995615 -0.399819 1.250028 0.049452 0.005241 712970.000000 0 0 1
-34.213583 13.711986 13.294052 39.183155 -0.381175 1.224645 0.051180 0.003927 378127.000000 0 0 1
-34.945920 12.483886 13.535652 39.500362 -0.343105 1.221037 0.056387 0.001947 -48433.000000 0 0 1
-34.170130 11.626286 14.530052 38.908749 -0.327960 1.188083 0.057564 -0.011270 -6127.670000 0 0 1
-34.129371 12.212886 15.792852 39.539635 -0.343643 1.159914 0.057419 -0.014517 29214.500000 0 0 1
-33.678220 11.318586 16.773952 39.289927 -0.324221 1.129704 0.060627 -0.022725 -127121.000000 0 0 1
-33.456010 12.100586 18.067852 39.902081 -0.347048 1.100888 0.068615 -0.020314 390937.000000 0 0 1
-34.667277 12.422486 18.763452 41.330442 -0.344080 1.099562 0.080398 -0.019681 414476.000000 0 0 1
-34.443272 13.220386 19.947252 41.940559 -0.366490 1.075142 0.070679 -0.028098 -207457.000000 0 0 1
-35.701259 13.699786 20.721452 43.493018 -0.366406 1.074205 0.087542 -0.029463 5566.980000 0 0 1
35.591683 12.548986 21.035952 43.205974 0.338973 1.062287 0.075140 -0.010627 -745577.000000 0 0 1
34.475063 12.773286 21.819452 42.752489 0.354827 1.035185 0.073721 -0.017536 -411349.000000 0 0 1
34.147163 11.526686 22.677352 42.581164 0.325549 1.009165 0.052697 -0.011731 -248469.000000 0 0 1
35.100133 11.227386 23.658252 43.792538 0.309583 1.000080 0.060180 -0.006457 -233814.000000 0 0 1
34.854053 11.838686 24.869732 44.423677 0.327438 0.976615 0.049846 -0.007661 -1357150.000000 0 0 1
36.007226 11.703986 25.925182 45.887021 0.314273 0.970389 0.043485 -0.008358 1499720.000000 0 0 1
-34.948797 12.700086 25.852462 45.288634 -0.348554 0.963271 0.065033 -0.013960 979902.000000 0 0 1
-34.194219 12.616586 24.663432 44.008042 -0.353472 0.975891 0.067181 -0.016075 -1257610.000000 0 0 1
-33.210970 13.780486 24.406442 43.457390 -0.393317 0.974457 0.065647 -0.018068 514108.000000 0 0 1
-32.205860 13.969486 25.409812 43.336157 -0.409264 0.944261 0.052715 -0.021036 475651.000000 0 0 1
-32.697810 14.592186 26.598902 44.604712 -0.419751 0.931881 0.040733 -0.013666 -1296280.000000 0 0 1
-31.620120 14.876886 27.619432 44.541967 -0.439760 0.901956 0.038414 -0.002440 -591653.000000 0 0 1
-30.850850 16.029086 27.235652 44.164322 -0.479178 0.906267 0.042801 -0.011806 185986.000000 0 0 1
-30.267930 16.694986 28.363192 44.713989 -0.504050 0.883662 0.043294 -0.016898 121545.000000 0 0 1
-29.574760 18.026286 27.955242 44.509651 -0.547387 0.891724 0.047534 -0.019397 76905.700000 0 0 1
-30.490050 19.047386 27.644382 45.350391 -0.558389 0.915274 0.026364 -0.023588 -150447.000000 0 0 1
-29.793280 20.072086 27.061822 44.976332 -0.592864 0.925181 0.027726 -0.026168 -289493.000000 0 0 1
-30.604630 21.103886 26.236612 45.501398 -0.603688 0.956222 0.021086 -0.018446 -12444.500000 0 0 1
-31.435340 22.054786 26.871032 46.868396 -0.611794 0.960233 0.010935 -0.019584 190311.000000 0 0 1
-32.297620 22.717586 26.008892 47.283057 -0.612993 0.988351 0.008953 -0.012126 -457601.000000 0 0 1
-32.467550 24.245186 26.230812 48.270347 -0.641419 0.996297 0.007980 -0.013038 -815708.000000 0 0 1
-33.362630 24.744486 25.326082 48.649410 -0.638157 1.023262 0.017229 -0.013605 -508766.000000 0 0 1
-33.243620 26.167286 25.238612 49.263097 -0.666848 1.032909 0.018309 -0.013128 195132.000000 0 0 1
-34.468358 26.734686 24.467062 50.014481 -0.659703 1.059625 0.040934 -0.009630 305833.000000 0 0 1
-34.394714 26.432486 23.111852 49.151098 -0.655239 1.081256 0.042931 -0.010212 203106.000000 0 0 1
-35.588886 26.784486 22.439952 49.875134 -0.645168 1.104118 0.062347 -0.017940 -34631.100000 0 0 1
-35.321661 26.724586 20.910752 48.980433 -0.647716 1.129712 0.060321 -0.013425 58134.200000 0 0 1
-35.092869 25.384186 20.537552 47.933885 -0.626221 1.128013 0.042726 -0.013643 324524.000000 0 0 1
-34.524272 25.470486 19.221252 47.011994 -0.635619 1.149593 0.052040 -0.025571 -7376.570000 0 0 1
-34.541711 24.107386 18.497252 46.004828 -0.609329 1.157018 0.037021 -0.016634 664808.000000 0 0 1
-35.773928 23.923286 17.792452 46.568969 -0.589433 1.178765 0.030201 -0.017015 489607.000000 0 0 1
-35.508539 23.131086 16.682652 45.543544 -0.577375 1.195766 0.020365 -0.015788 8408.130000 0 0 1
35.296253 22.926886 15.764552 44.944284 0.576063 1.212416 0.016931 -0.011349 153507.000000 0 0 1
34.386703 21.961686 16.258052 43.921353 0.568368 1.191612 0.025306 -0.014047 -456122.000000 0 0 1
33.335663 21.788386 15.354852 42.682217 0.578906 1.202798 0.016716 -0.011662 -157395.000000 0 0 1
32.231883 20.730686 15.805352 41.454370 0.571561 1.179625 0.029556 -0.010380 874148.000000 0 0 1
31.273593 21.109686 16.755952 41.284602 0.593750 1.152872 0.016085 -0.003067 -21312.900000 0 0 1
30.322533 22.060886 16.318752 40.895481 0.628972 1.160331 0.020816 0.000391 -480722.000000 0 0 1
29.435653 22.511486 17.474652 40.970576 0.652887 1.130158 0.025064 -0.006881 13676.800000 0 0 1
30.106083 23.429486 18.342352 42.329173 0.661325 1.122616 0.003543 -0.008132 -206499.000000 0 0 1
29.300993 23.707386 19.415952 42.397730 0.680264 1.095111 0.020861 -0.007187 -370378.000000 0 0 1
30.098833 24.387086 20.536452 43.845360 0.680950 1.083336 0.008944 -0.018377 -81427.500000 0 0 1
30.745083 25.548086 20.128152 44.756087 0.693339 1.104333 0.007140 -0.007688 124453.000000 0 0 1
31.579943 26.025486 21.171652 46.074478 0.689273 1.093354 0.015176 -0.013299 222439.000000 0 0 1
32.548253 27.196986 20.812852 47.246583 0.696068 1.114624 0.029003 -0.015767 638289.000000 0 0 1
33.457793 27.800686 21.764552 48.641523 0.693311 1.106887 0.031538 -0.009849 592368.000000 0 0 1
32.864863 28.601986 22.755752 49.152793 0.716157 1.089465 0.023167 0.004829 -489155.000000 0 0 1
33.830893 29.044586 23.860922 50.571345 0.709421 1.079435 0.012535 0.001562 563759.000000 0 0 1
34.878413 29.960386 23.442862 51.611009 0.709693 1.099297 0.052495 -0.010696 650074.000000 0 0 1
35.485733 30.466686 24.650742 52.868850 0.709444 1.085736 0.055025 -0.007041 778348.000000 0 0 1
-35.184855 31.260886 24.521392 53.070856 -0.726411 1.090491 0.061750 -0.019850 853164.000000 0 0 1
-34.092033 30.407086 24.200292 51.696342 -0.728328 1.083630 0.060755 -0.024455 -680448.000000 0 0 1
-32.946150 31.150286 24.436782 51.506752 -0.757387 1.076470 0.069718 -0.022669 188922.000000 0 0 1
-31.563900 30.402986 24.290422 50.106347 -0.766666 1.064688 0.075140 -0.028654 136723.000000 0 0 1
-31.138700 30.238286 22.943252 49.095472 -0.770729 1.084540 0.061042 -0.016755 197875.000000 0 0 1
-31.737920 29.235586 22.106452 48.484124 -0.744381 1.097354 0.056933 -0.013743 -176851.000000 0 0 1
-31.284980 27.830086 22.545552 47.555921 -0.727021 1.076872 0.041964 -0.009005 90116.200000 0 0 1
-29.888220 27.602486 22.401952 46.444057 -0.745661 1.067469 0.029591 -0.014322 548187.000000 0 0 1
-29.428800 26.391386 23.097352 45.782608 -0.731038 1.041993 0.027674 -0.009977 398725.000000 0 0 1
-28.873990 26.713386 24.550712 46.368629 -0.746549 1.012823 0.034880 -0.010944 646950.000000 0 0 1
-29.994970 27.109086 25.358022 47.724523 -0.734904 1.010613 0.028661 -0.015267 639748.000000 0 0 1
-29.548350 27.556286 26.600372 48.373895 -0.750528 0.988563 0.042783 -0.031813 -107227.000000 0 0 1
-30.713470 27.996786 27.522932 49.846254 -0.739158 0.985848 0.040148 -0.028482 68202.200000 0 0 1
-31.608620 26.980886 27.899872 50.054730 -0.706576 0.979561 0.022390 -0.022524 115510.000000 0 0 1
-32.402740 27.404186 29.021632 51.411887 -0.702014 0.970978 0.024920 -0.015234 173623.000000 0 0 1
-33.169720 26.212786 29.636542 51.630080 -0.668775 0.959393 0.007766 -0.015229 -52778.100000 0 0 1
-32.426870 25.369586 30.477242 51.224800 -0.663894 0.933567 0.007430 -0.020980 195591.000000 0 0 1
-33.229510 24.212986 30.816102 51.381915 -0.629702 0.927613 -0.007008 -0.023744 434094.000000 0 0 1
-32.545040 23.286186 31.888432 51.169309 -0.621057 0.897976 0.024012 -0.031893 526386.000000 0 0 1
-31.287630 22.826086 31.337592 49.819581 -0.630288 0.890502 0.025946 -0.025909 650371.000000 0 0 1
-30.633360 21.870986 32.136442 49.492360 -0.620034 0.864105 0.042038 -0.030984 -194511.000000 0 0 1
-29.725280 22.398986 33.268983 49.921259 -0.645759 0.841387 0.049140 -0.038044 -529484.000000 0 0 1
-30.438690 22.803986 -34.079619 51.068151 -0.642975 2.301422 0.065962 -0.037916 298919.000000 0 0 1
-29.987050 22.174486 -32.884716 49.722586 -0.636727 2.293432 0.051107 -0.024837 -558112.000000 0 0 1
-28.823870 22.863786 -32.208196 48.897199 -0.670596 2.289875 0.057853 -0.016801 -391145.000000 0 0 1
-29.168580 24.203086 -31.799596 49.475345 -0.692629 2.268861 0.038291 -0.011675 360130.000000 0 0 1
-28.089450 24.688086 -30.999536 48.574582 -0.721040 2.262934 0.062050 0.000397 226092.000000 0 0 1
-28.000950 26.090186 -30.344396 48.841923 -0.750088 2.241169 0.028427 0.012464 -309776.000000 0 0 1
-27.757570 27.315586 -31.040786 49.801148 -0.777373 2.243745 0.033956 0.005503 -16840.900000 0 0 1
-28.774290 27.723086 -31.913336 51.136976 -0.766794 2.244744 0.030267 -0.000219 -300968.000000 0 0 1
-28.595010 29.177086 -32.346556 52.108317 -0.795473 2.240503 0.036135 -0.000338 78057.200000 0 0 1
-28.871390 30.031286 -31.236126 52.068521 -0.805087 2.214178 0.040363 -0.009367 202827.000000 0 0 1
-28.608670 31.377686 -31.612136 52.937155 -0.831526 2.210756 0.047034 -0.027441 -2608.460000 0 0 1
-28.930420 32.476186 -30.561536 53.157120 -0.843077 2.183313 0.050851 -0.008784 -340358.000000 0 0 1
-28.052580 32.450286 -29.480836 52.048900 -0.857956 2.172935 0.025304 0.004033 -189389.000000 0 0 1
-28.298610 33.571986 -28.648266 52.427214 -0.870425 2.148903 0.020054 0.003042 -479381.000000 0 0 1
-27.525430 33.640786 -27.279676 51.317955 -0.885046 2.131263 0.012898 0.007318 -387020.000000 0 0 1
-26.217990 34.097886 -27.417986 51.007792 -0.915306 2.138296 0.016570 0.005158 -620048.000000 0 0 1
-26.025090 -33.209697 -27.586926 50.410592 0.906099 2.149865 0.024889 0.007302 -661172.000000 0 0 1
-26.364780 -32.243197 -26.418456 49.322005 0.885364 2.136053 0.029999 0.006038 -64751.400000 0 0 1
-27.734090 -31.910997 -26.359066 49.822604 0.855313 2.128287 0.014037 -0.000561 -210610.000000 0 0 1
-28.096520 -30.971697 -25.382936 48.917828 0.834035 2.116347 0.009671 -0.002672 1148500.000000 0 0 1
-29.657700 -30.744297 -25.267626 49.631078 0.803386 2.104946 -0.005663 -0.004364 1338380.000000 0 0 1
-30.258540 -30.004297 -26.320596 50.086035 0.781179 2.124108 0.005909 -0.003204 -782431.000000 0 0 1
-31.620130 -29.830997 -26.187856 50.749629 0.756292 2.112995 0.003938 -0.004463 -1169940.000000 0 0 1
-32.222310 -29.091297 -27.376226 51.322886 0.734377 2.133425 0.006920 -0.005558 27996.100000 0 0 1
-33.633060 -29.013297 -27.238686 52.104704 0.711788 2.120891 0.005831 -0.010710 104043.000000 0 0 1
-34.162687 -28.099297 -28.177676 52.446555 0.688319 2.137987 0.009531 -0.009805 1057370.000000 0 0 1
-35.731805 -28.171097 -28.342166 53.606446 0.667630 2.127874 0.008290 -0.013983 1155000.000000 0 0 1
35.648443 -27.783797 -27.139826 52.719266 -0.662043 2.111570 -0.011184 -0.009750 965470.000000 0 0 1
34.221813 -27.900597 -27.381546 51.955027 -0.683993 2.125891 -0.005180 -0.017241 1230290.000000 0 0 1
33.223343 -27.470497 -26.292856 50.494881 -0.690896 2.118471 0.006445 -0.012921 530.574000 0 0 1
33.279663 -28.188697 -25.105336 50.323121 -0.702764 2.093105 -0.006689 -0.000519 -160654.000000 0 0 1
32.256133 -27.805397 -24.235196 48.999418 -0.711430 2.088173 0.000576 -0.006411 -175305.000000 0 0 1
32.048563 -28.693497 -22.986796 48.773148 -0.730220 2.061561 -0.007969 0.004231 -48257.500000 0 0 1
31.476593 -30.018397 -23.197196 49.294928 -0.761690 2.060744 0.007609 0.006576 174909.000000 0 0 1
31.350913 -30.871997 -22.037596 49.209913 -0.777702 2.035131 0.008786 -0.009057 -252639.000000 0 0 1
32.443733 -30.924397 -20.927196 49.465763 -0.761426 2.007621 -0.001824 0.002643 -692130.000000 0 0 1
33.584683 -31.586397 -21.446296 50.848550 -0.754746 2.006191 -0.004080 0.002812 -38948.700000 0 0 1
34.827313 -31.207897 -20.911796 51.226729 -0.730643 1.991300 0.008563 -0.006395 89117.800000 0 0 1
35.348013 -29.790697 -21.159296 50.839782 -0.700289 2.000054 -0.005610 -0.003692 -1195530.000000 0 0 1
34.547853 -28.790897 -20.596296 49.463899 -0.694756 2.000268 -0.007994 0.004408 -310014.000000 0 0 1
35.006633 -27.508597 -20.980396 49.217520 -0.666029 2.011172 -0.016123 0.006877 81521.700000 0 0 1
34.027883 -26.404597 -20.515896 47.707458 -0.659915 2.015328 -0.008377 0.013236 698317.000000 0 0 1
32.914873 -26.203297 -21.401396 47.201921 -0.672354 2.041374 0.001982 0.005342 -26118.300000 0 0 1
31.967683 -25.377297 -20.792296 45.806763 -0.670975 2.041949 0.011634 -0.000497 422089.000000 0 0 1
30.634263 -25.293697 -21.663096 45.249518 -0.690197 2.070024 0.023166 -0.009587 846513.000000 0 0 1
29.881143 -26.485197 -21.579396 45.387429 -0.725223 2.066270 0.027785 -0.009712 177559.000000 0 0 1
28.792103 -26.413397 -22.500096 45.087771 -0.742337 2.093274 0.041358 -0.008723 30005.800000 0 0 1
28.227733 -27.763797 -22.922596 45.750178 -0.777113 2.095595 0.039883 -0.005049 -479308.000000 0 0 1
27.662253 -28.412497 -21.852696 45.277042 -0.798777 2.074468 0.035499 -0.003588 -359026.000000 0 0 1
27.453903 -29.791397 -22.172196 46.182793 -0.826208 2.071561 0.024496 -0.004487 38171.700000 0 0 1
26.742983 -30.606597 -21.043396 45.768717 -0.852666 2.048540 0.033954 0.005169 104137.000000 0 0 1
27.517483 -30.873697 -19.854696 45.875985 -0.842813 2.018382 0.039490 0.001785 332588.000000 0 0 1
28.280433 -32.057397 -20.029896 47.208647 -0.847914 2.008968 0.035590 0.006540 601492.000000 0 0 1
29.187483 -32.522297 -18.843396 47.588681 -0.839386 1.977914 0.024861 0.004272 990406.000000 0 0 1
28.333453 -33.161397 -17.857396 47.131194 -0.863747 1.959390 0.042047 -0.001950 638902.000000 0 0 1
28.216883 -32.435097 -16.672196 46.110629 -0.854834 1.940747 0.029770 -0.003099 -81200.600000 0 0 1
27.572193 -33.265997 -15.540496 45.916875 -0.878716 1.916064 0.043701 -0.009425 -84386.000000 0 0 1
26.164383 -33.192997 -15.613096 45.056839 -0.903261 1.924655 0.053181 -0.004237 -136287.000000 0 0 1
25.556283 -33.998897 -14.649296 44.985003 -0.926221 1.902494 0.056078 -0.014650 -47747.000000 0 0 1
24.007583 -34.040097 -14.638396 44.151726 -0.956540 1.908740 0.063136 -0.012757 250080.000000 0 0 1
23.569983 -32.843197 -14.009296 42.784110 -0.948321 1.904391 0.062588 -0.009454 -138354.000000 0 0 1
22.164183 -32.781097 -13.991496 41.971577 -0.976273 1.910658 0.055481 -0.017110 -221270.000000 0 0 1
-0.540940 -7.506814 -29.049306 30.008450 1.498861 2.888081 0.047919 -0.013378 268232.000000 0 0 1
-0.324340 -8.913214 -28.935926 30.279340 1.534424 2.842597 0.047895 -0.011715 -70003.100000 0 0 1
-0.628740 -9.591914 -30.152776 31.647908 1.505341 2.832985 0.033181 -0.014671 -138817.000000 0 0 1
-0.344240 -11.116914 -29.997016 31.992582 1.539841 2.786528 0.036341 -0.011324 515109.000000 0 0 1
1.027660 -11.321814 -29.664676 31.768421 -1.480276 2.775627 0.028779 -0.013639 214907.000000 0 0 1
1.363360 -12.648714 -29.343386 31.982543 -1.463424 2.732498 0.037020 -0.016058 472918.000000 0 0 1
2.829460 -12.822214 -28.834476 31.683466 -1.353608 2.714272 0.032652 -0.015776 -332940.000000 0 0 1
3.747360 -12.761014 -29.908876 32.732661 -1.285169 2.723172 0.035899 -0.017699 990635.000000 0 0 1
5.115860 -13.021014 -29.480336 32.631412 -1.196432 2.698510 0.048058 -0.025389 1535450.000000 0 0 1
5.453360 -14.488014 -29.040476 32.908828 -1.210795 2.651847 0.054820 -0.029019 -1009720.000000 0 0 1
4.841260 -14.884314 -27.844816 31.942361 -1.256330 2.629499 0.054898 -0.028049 -404177.000000 0 0 1
5.570160 -15.885514 -27.230036 32.013296 -1.233548 2.587894 0.065627 -0.023747 -319400.000000 0 0 1
5.258660 -17.335614 -27.609096 33.021799 -1.276274 2.560908 0.047524 -0.026068 -225452.000000 0 0 1
5.726360 -17.690114 -28.911766 34.374723 -1.257737 2.570066 0.057032 -0.039775 161931.000000 0 0 1
5.397160 -19.061214 -29.096216 35.200128 -1.294870 2.543825 0.049653 -0.034774 -343114.000000 0 0 1
5.526660 -19.685414 -30.500956 36.720129 -1.297093 2.551040 0.059395 -0.040146 -227523.000000 0 0 1
6.846360 -19.660114 -30.989566 37.332907 -1.235694 2.550060 0.048309 -0.034427 -120557.000000 0 0 1
6.992360 -20.473714 -32.150676 38.752188 -1.241688 2.549273 0.051183 -0.029846 -541712.000000 0 0 1
8.413160 -20.507714 -32.710216 39.513363 -1.181491 2.546019 0.061298 -0.026323 -550518.000000 0 0 1
8.755460 -19.242814 -33.140446 39.309454 -1.143793 2.573754 0.057678 -0.028274 438666.000000 0 0 1
9.969160 -19.327214 -33.909296 40.283567 -1.094581 2.571341 0.055741 -0.033022 237312.000000 0 0 1
10.461460 -17.954014 34.104776 39.936506 -1.043209 0.547219 0.051070 -0.025018 -522108.000000 0 0 1
9.629360 -17.406714 33.128249 38.641935 -1.065501 0.540768 0.063721 -0.021165 -235533.000000 0 0 1
9.691360 -16.009214 33.140933 38.059675 -1.026444 0.514046 0.052816 -0.019807 427297.000000 0 0 1
8.723360 -15.380314 32.052352 36.606070 -1.054861 0.504115 0.070955 -0.024884 584167.000000 0 0 1
9.113160 -15.786414 30.719282 35.720230 -1.047251 0.535533 0.075817 -0.022244 -199635.000000 0 0 1
8.179660 -15.351614 29.779792 34.487895 -1.081238 0.528657 0.078381 -0.016279 -162141.000000 0 0 1
8.133360 -16.285214 28.500192 33.817461 -1.107603 0.568396 0.075458 -0.012715 -447326.000000 0 0 1
7.734960 -17.595414 28.729922 34.566409 -1.156624 0.589621 0.076463 -0.020051 5797.710000 0 0 1
7.719060 -18.451414 27.567172 34.058590 -1.174576 0.627659 0.063428 -0.017582 -11147.600000 0 0 1
7.269260 -19.882414 27.983212 35.088641 -1.220281 0.647655 0.063278 -0.019434 1165.610000 0 0 1
8.196460 -20.418214 28.896442 36.319276 -1.189059 0.650761 0.073397 -0.021222 404954.000000 0 0 1
7.595860 -21.547614 29.502972 37.315173 -1.231883 0.658938 0.061226 -0.020198 82656.000000 0 0 1
8.009260 -21.851514 30.972222 38.741650 -1.219471 0.644408 0.070860 -0.024580 -26539.900000 0 0 1
7.387260 -20.983614 31.956882 38.937463 -1.232297 0.608120 0.092906 -0.034324 365538.000000 0 0 1
7.465560 -19.551014 31.777032 38.049396 -1.206034 0.582387 0.073971 -0.028956 -207755.000000 0 0 1
6.666060 -18.777614 32.857824 38.427487 -1.229674 0.545129 0.069681 -0.026346 290642.000000 0 0 1
5.260560 -18.976114 32.747026 38.211701 -1.300367 0.541397 0.086125 -0.036132 206936.000000 0 0 1
4.571860 -18.031714 33.621684 38.424761 -1.322484 0.505360 0.081101 -0.029832 1143470.000000 0 0 1
3.006960 -18.179814 33.626250 38.344128 -1.406879 0.501298 0.081124 -0.032626 947939.000000 0 0 1
2.436560 -19.257114 -34.163994 39.293152 -1.444937 2.624913 0.069807 -0.044054 -24231.100000 0 0 1
2.407260 -19.029614 -32.740826 37.945788 -1.444964 2.611641 0.058757 -0.041221 -251755.000000 0 0 1
1.793560 -20.130914 -31.804866 37.683154 -1.481936 2.575508 0.049167 -0.029867 -212811.000000 0 0 1
0.507360 -20.577514 -32.192446 38.210537 -1.546145 2.572707 0.031203 -0.026650 82629.400000 0 0 1
-0.098640 -21.430414 -31.251086 37.893308 1.566194 2.540490 0.026655 -0.026438 -203025.000000 0 0 1
-0.908840 -20.715314 -30.170736 36.609064 1.526952 2.539466 0.028494 -0.023288 -281595.000000 0 0 1
-2.099540 -20.169114 -30.755426 36.838804 1.467073 2.558684 0.038660 -0.031229 -117648.000000 0 0 1
-2.651640 -19.103014 -30.087346 35.738002 1.432870 2.571566 0.054303 -0.017137 -319826.000000 0 0 1
-1.887840 -17.754514 -30.217236 35.097978 1.464864 2.607910 0.032497 -0.013208 -399763.000000 0 0 1
-2.526240 -16.658214 -29.601716 34.060822 1.420292 2.624144 0.035340 -0.017818 -278891.000000 0 0 1
-2.014140 -15.383214 -29.981476 33.757799 1.440606 2.664067 0.032915 -0.018275 -69706.500000 0 0 1
-2.971840 -14.301514 -29.456036 32.878918 1.365913 2.681237 0.035166 -0.009278 274053.000000 0 0 1
-2.872140 -14.012014 -28.085886 31.518292 1.368620 2.670555 0.032843 -0.011822 139551.000000 0 0 1
-3.919340 -13.105114 -27.735286 30.924931 1.280193 2.683411 0.023296 -0.014341 399839.000000 0 0 1
-4.015340 -12.798414 -26.205206 29.438669 1.266785 2.668499 0.019641 -0.015219 -257649.000000 0 0 1
-4.661940 -13.837614 -25.439856 29.332568 1.245836 2.620530 0.018641 -0.005621 245043.000000 0 0 1
-4.558140 -13.660914 -24.018796 28.005353 1.248749 2.601479 0.013089 -0.005301 -471074.000000 0 0 1
-5.397440 -12.531514 -23.457296 27.136985 1.164100 2.614758 0.022478 -0.016672 -687332.000000 0 0 1
-6.753340 -12.548914 -23.837396 27.772366 1.077088 2.602770 0.019751 -0.021093 -433819.000000 0 0 1
-7.413440 -11.577014 -23.086296 26.869377 1.001229 2.604510 0.007320 -0.024752 345425.000000 0 0 1
-8.955540 -11.595814 -23.323596 27.543688 0.913170 2.580709 0.021355 -0.023956 566234.000000 0 0 1
-9.698840 -12.628214 -22.677996 27.709760 0.915856 2.529438 0.026923 -0.019600 50755.700000 0 0 1
-10.141640 -13.662614 -23.564596 29.065617 0.932247 2.516208 0.032544 -0.024843 73524.800000 0 0 1
-11.153240 -14.647414 -22.910296 29.390869 0.920009 2.464670 0.036861 -0.029299 -279057.000000 0 0 1
-10.636140 -15.495714 -21.946596 28.894597 0.969261 2.433402 0.039479 -0.021376 -222245.000000 0 0 1
-11.555940 -16.526914 -21.540896 29.507437 0.960594 2.389141 0.025383 -0.001921 458376.000000 0 0 1
-11.900340 -17.646614 -22.532196 30.995499 0.977480 2.384667 0.021837 0.001947 -1060350.000000 0 0 1
-12.890740 -17.276014 -23.370596 31.793343 0.929755 2.396578 0.022540 -0.003428 -1154750.000000 0 0 1
-13.199340 -18.191414 -24.443696 33.206090 0.943108 2.398118 0.033532 -0.000847 370506.000000 0 0 1
-14.532740 -17.668914 -25.045996 33.921866 0.882484 2.401408 0.035982 -0.006497 142812.000000 0 0 1
-15.737040 -18.003814 -24.377096 34.147249 0.852479 2.365822 0.053206 -0.005444 -21164.200000 0 0 1
-16.867040 -17.675414 -25.135256 35.052795 0.808796 2.370384 0.059789 -0.014904 -86985.400000 0 0 1
-17.562840 -16.356314 -24.782196 34.498400 0.749843 2.372235 0.059904 -0.011124 -464317.000000 0 0 1
-18.118040 -16.331314 -23.482796 33.858779 0.733579 2.337203 0.065136 -0.008912 718563.000000 0 0 1
-19.041140 -15.214114 -23.353696 33.755436 0.674139 2.334844 0.064213 -0.009536 915714.000000 0 0 1
-19.896540 -15.084914 -22.040996 33.305142 0.648708 2.294000 0.053191 -0.013302 929201.000000 0 0 1
-19.023840 -14.795814 -20.939996 31.926573 0.661027 2.286144 0.059484 -0.002365 755968.000000 0 0 1
-19.750540 -14.941314 -19.706496 31.649213 0.647649 2.242926 0.046937 -0.004371 463987.000000 0 0 1
-20.318640 -13.640814 -19.006596 30.986605 0.591234 2.231131 0.043499 -0.006972 231569.000000 0 0 1
-21.543140 -13.080214 -19.438896 31.828754 0.545670 2.227783 0.036724 -0.010817 208131.000000 0 0 1
-21.896540 -11.928214 -18.702096 31.169042 0.498806 2.214324 0.032801 -0.005409 120902.000000 0 0 1
-23.378640 -11.585014 -18.970996 32.259450 0.460072 2.199474 0.039183 -0.009597 -31240.200000 0 0 1
-23.589140 -11.093114 -20.281496 33.027925 0.439577 2.232005 0.032252 -0.020249 -420079.000000 0 0 1
-24.932940 -10.740314 -20.460496 33.994673 0.406746 2.216642 0.031947 -0.014629 -390513.000000 0 0 1
-25.267650 -9.820914 -21.687096 34.716490 0.370706 2.245533 0.033013 -0.017385 -257814.000000 0 0 1
-25.278920 -10.418114 -22.949096 35.696245 0.390916 2.269074 0.025569 -0.012851 482729.000000 0 0 1
-26.001000 -9.492914 -23.771996 36.486645 0.350061 2.280391 0.019985 -0.014412 -159514.000000 0 0 1
-26.186290 -9.827514 -25.263906 37.690407 0.359027 2.305410 0.025479 -0.007564 -72499.600000 0 0 1
-25.062080 -9.703514 -26.106936 37.467829 0.369405 2.341699 0.020555 -0.012401 -121315.000000 0 0 1
-24.304440 -10.878314 -26.186866 37.346961 0.420844 2.347845 0.024959 -0.003018 552128.000000 0 0 1
-23.151140 -10.879014 -27.261316 37.383253 0.439289 2.388005 0.034477 -0.003278 911910.000000 0 0 1
-23.783140 -10.955814 -28.536256 38.729647 0.431679 2.399131 0.039681 0.003190 272901.000000 0 0 1
-22.865340 -11.228214 -29.569746 39.029047 0.456469 2.430477 0.041718 0.000074 -52176.700000 0 0 1
-23.575740 -11.669514 -30.861656 40.551633 0.459623 2.435720 0.039465 -0.001014 280386.000000 0 0 1
-24.430540 -10.703214 -31.455756 41.241662 0.412921 2.438302 0.033826 0.000725 30087.000000 0 0 1
-23.720940 -9.708814 -32.147846 41.114816 0.388492 2.468511 0.032375 -0.003378 -657922.000000 0 0 1
-24.546740 -8.525714 -32.708126 41.773817 0.334290 2.470241 0.024996 0.002632 -409936.000000 0 0 1
-25.422360 -8.773314 -33.801456 43.194975 0.332305 2.469519 0.033475 -0.000842 1379490.000000 0 0 1
-26.666840 -9.437614 -33.563626 43.894259 0.340152 2.441290 0.037023 -0.001928 323081.000000 0 0 1
-27.760720 -8.699614 -32.749386 43.804831 0.303685 2.415268 0.019911 0.008265 -482100.000000 0 0 1
-29.079560 -9.199314 -32.804696 44.792815 0.306388 2.392585 0.019358 0.007211 287177.000000 0 0 1
-29.861710 -8.572414 -31.783476 44.445443 0.279553 2.367581 0.029728 0.012310 273021.000000 0 0 1
-31.342510 -9.013214 -31.890166 45.613306 0.280016 2.344993 0.032340 0.006309 2297.950000 0 0 1
-31.549010 -10.401614 -31.769866 45.965836 0.318474 2.333893 0.028380 0.000397 316606.000000 0 0 1
-32.904690 -10.810714 -31.642236 46.912912 0.317436 2.311068 0.019364 0.002725 124063.000000 0 0 1
-33.074720 -12.359114 -31.474626 47.300496 0.357606 2.298851 0.015174 -0.006351 325391.000000 0 0 1
-34.395890 -12.908914 -31.539266 48.419445 0.359037 2.280193 -0.001083 -0.003747 222134.000000 0 0 1
-34.380159 -14.285914 -31.574766 48.816479 0.393820 2.274185 -0.003298 -0.007183 967174.000000 0 0 1
-35.623717 -15.012414 -30.908786 49.495201 0.398831 2.245263 -0.008437 -0.007242 863715.000000 0 0 1
-35.599170 -14.870214 -29.498346 48.565179 0.395682 2.223576 0.001202 -0.005071 -29084.400000 0 0 1
35.455463 -15.700214 -28.892526 48.356640 -0.416863 2.211161 -0.004451 -0.003562 142163.000000 0 0 1
35.635323 -15.792514 -27.375426 47.630806 -0.417160 2.183085 0.010050 -0.004635 389780.000000 0 0 1
-35.239040 -16.533914 -26.967696 47.354165 0.438700 2.176681 -0.001002 -0.010921 409449.000000 0 0 1
-34.998961 -16.375214 -25.550576 46.323934 0.437621 2.155033 0.012203 -0.009827 137991.000000 0 0 1
-33.698410 -15.624514 -25.118686 44.840347 0.434153 2.165400 0.017598 -0.006957 477868.000000 0 0 1
-32.586980 -16.406914 -25.512686 44.519606 0.466428 2.181039 0.001329 -0.003596 61533.900000 0 0 1
-31.336610 -15.970314 -25.013996 43.159403 0.471328 2.189000 0.008215 0.002520 648765.000000 0 0 1
-30.056580 -16.739714 -25.419006 42.775483 0.508156 2.207120 0.017777 -0.001983 77552.900000 0 0 1
-29.725100 -17.947014 -24.816396 42.679391 0.543184 2.191319 0.015034 -0.010700 279398.000000 0 0 1
-30.651440 -19.012114 -25.125846 43.957701 0.555189 2.179240 0.021945 -0.008890 236368.000000 0 0 1
-30.503360 -20.247314 -24.247396 43.912925 0.585997 2.155761 0.026089 -0.012447 503279.000000 0 0 1
-29.290400 -20.994914 -24.440196 43.543509 0.621902 2.166731 0.033870 -0.009938 565695.000000 0 0 1
-29.204090 -22.003514 -23.440496 43.433747 0.645699 2.140858 0.025053 -0.003915 -730242.000000 0 0 1
-27.899210 -22.778214 -23.541996 43.028346 0.684689 2.149725 0.042749 -0.011829 -229686.000000 0 0 1
-26.694880 -22.304214 -22.980596 41.691755 0.696030 2.154601 0.038499 -0.013725 28934.200000 0 0 1
-26.664910 -22.193314 -21.567396 40.849886 0.694131 2.127001 0.030051 -0.014307 -617096.000000 0 0 1
-26.357280 -23.574514 -20.863696 41.057981 0.729724 2.103834 0.018961 -0.011825 -99863.000000 0 0 1
-26.216370 -23.389014 -19.496896 40.180506 0.728463 2.077426 0.016821 -0.014740 10955.200000 0 0 1
-26.553790 -24.628014 -18.944096 40.872016 0.747790 2.052735 0.014404 0.001262 -122643.000000 0 0 1
-26.739640 -24.571314 -17.394196 40.265567 0.743165 2.017491 0.005331 -0.007893 316249.000000 0 0 1
-27.784830 -23.715114 -16.969496 40.278620 0.706538 2.005678 0.004700 -0.008270 -7971.830000 0 0 1
-27.251040 -22.702514 -16.113396 38.957219 0.694593 1.997220 -0.001245 -0.003740 -29998.800000 0 0 1
-28.269020 -21.911014 -15.261996 38.886483 0.659366 1.974118 -0.010040 0.009640 388443.000000 0 0 1
-29.242340 -21.222414 -16.049596 39.535995 0.627795 1.988813 -0.006691 0.009939 717539.000000 0 0 1
-30.275890 -20.597914 -15.265296 39.672823 0.597409 1.965765 0.000222 0.004353 447822.000000 0 0 1
-31.336060 -19.872714 -16.100296 40.448646 0.565174 1.980179 0.014389 -0.013383 -735163.000000 0 0 1
-32.357990 -20.594414 -16.656296 41.816284 0.566794 1.980482 0.008228 -0.003461 -642477.000000 0 0 1
-33.134760 -19.776014 -17.514596 42.376458 0.538090 1.996882 0.010099 -0.006182 500436.000000 0 0 1
-34.081991 -20.594614 -18.451996 43.888455 0.543551 2.004715 0.010500 0.001965 902006.000000 0 0 1
-35.175327 -21.354714 -17.906996 44.877478 0.545619 1.981244 0.010952 0.001894 410963.000000 0 0 1
-34.925392 -22.553714 -17.211696 44.996617 0.573395 1.963309 0.018548 -0.005678 -285317.000000 0 0 1
-35.885193 -23.718114 -17.553196 46.458699 0.584030 1.958241 0.005997 0.009004 79131.800000 0 0 1
34.798263 -23.533014 -17.158096 45.377551 -0.594621 1.958560 0.005550 0.003025 -138081.000000 0 0 1
34.215423 -24.823414 -17.071196 45.588626 -0.627638 1.954613 -0.008492 0.006558 -625653.000000 0 0 1
32.753563 -24.753714 -16.683896 44.315851 -0.647175 1.956787 -0.009916 0.006398 -867784.000000 0 0 1
31.808233 -24.457814 -17.656796 43.837322 -0.655497 1.985348 -0.004604 0.002959 -391781.000000 0 0 1
30.515673 -24.641114 -17.140096 42.803898 -0.679292 1.982786 -0.001153 0.001080 332089.000000 0 0 1
29.273373 -24.379314 -18.024896 42.144729 -0.694433 2.012732 0.017120 0.002810 282224.000000 0 0 1
28.993803 -22.956714 -18.223996 41.228211 -0.669709 2.028654 0.020600 -0.001055 883496.000000 0 0 1
27.666693 -22.660614 -18.690996 40.352233 -0.686254 2.052394 0.030149 -0.004773 667214.000000 0 0 1
34.395173 29.763086 -18.066996 48.941655 0.713325 1.948895 0.016976 -0.022740 488148.000000 0 0 1
33.418663 29.758086 -19.121596 48.661958 0.727521 1.974631 0.020265 -0.024180 617397.000000 0 0 1
34.106143 29.381386 -20.326596 49.392968 0.711115 1.994926 0.021882 -0.020270 191226.000000 0 0 1
33.224883 29.397986 -21.598296 49.341877 0.724364 2.023866 0.036631 -0.024532 -706409.000000 0 0 1
32.259493 28.322286 -21.568096 48.041748 0.720499 2.036381 0.029058 -0.017774 1041200.000000 0 0 1
31.387183 28.362286 -22.730996 48.023668 0.734815 2.063862 0.040067 -0.015567 627234.000000 0 0 1
30.308923 29.484086 -22.778596 48.029226 0.771604 2.064926 0.033036 -0.005476 -465354.000000 0 0 1
30.865823 30.823786 -22.778696 49.210505 0.784717 2.052041 0.032945 -0.003970 -197888.000000 0 0 1
29.848843 31.767086 -22.984096 49.278493 0.816520 2.056027 0.035098 0.005693 -647989.000000 0 0 1
30.288443 33.257786 -22.924696 50.487739 0.832091 2.042118 0.029470 0.003503 -175785.000000 0 0 1
30.588763 33.682186 -21.602396 50.366910 0.833492 2.014072 0.031672 0.004380 124996.000000 0 0 1
31.961833 33.454186 -21.340796 50.952634 0.808207 2.002959 0.024021 -0.005125 -214329.000000 0 0 1
32.379423 33.179086 -19.872096 50.439855 0.797595 1.975750 0.021779 -0.012376 -401878.000000 0 0 1
32.150233 34.260986 -19.003696 50.681289 0.817171 1.955155 0.019782 -0.009379 138241.000000 0 0 1
32.388413 33.979286 -17.616096 50.139087 0.809364 1.929803 0.012427 -0.021337 -95694.700000 0 0 1
32.467183 -33.391997 -16.810396 49.514976 -0.799440 1.917183 0.008947 -0.021487 -312333.000000 0 0 1
33.583163 -32.641997 -17.148696 49.873907 -0.771188 1.921801 0.000118 -0.013502 -397558.000000 0 0 1
34.584813 -32.555697 -16.137296 50.163682 -0.755185 1.898313 0.000319 -0.014763 44284.800000 0 0 1
35.731813 -31.652597 -16.619696 50.545659 -0.724935 1.905835 -0.008069 -0.004918 -371102.000000 0 0 1
-35.550844 -32.214597 -17.654296 51.120612 0.736206 1.923404 -0.010128 -0.003647 -804321.000000 0 0 1
-34.573434 -31.313597 -18.129896 50.045548 0.735962 1.941496 -0.013002 -0.002338 5177.700000 0 0 1
-33.486070 -32.052497 -18.943796 50.075412 0.763528 1.958761 0.007973 -0.006773 -1085240.000000 0 0 1
-32.788420 -32.970897 -18.182696 49.927658 0.788173 1.943549 0.013152 -0.009840 88190.200000 0 0 1
-31.760330 -33.712597 -18.848396 50.005198 0.815207 1.957275 0.031306 -0.008038 1190180.000000 0 0 1
-30.408300 -32.919397 -18.971296 48.664787 0.825030 1.971250 0.031049 -0.010833 -422137.000000 0 0 1
-30.561930 -31.935597 -19.974096 48.506479 0.807374 1.995205 0.018713 -0.004899 -287983.000000 0 0 1
-29.366060 -31.374897 -20.457396 47.594692 0.818458 2.015095 0.035196 -0.006156 168392.000000 0 0 1
-28.488360 -32.316897 -21.363496 48.087082 0.848279 2.031152 0.030388 -0.001964 -178163.000000 0 0 1
-29.278400 -32.961197 -22.349996 49.428611 0.844501 2.039990 0.025128 0.003509 -261412.000000 0 0 1
-28.521390 -33.902097 -23.030496 49.932210 0.871382 2.050183 0.015835 0.004035 -54631.600000 0 0 1
-29.271490 34.011886 -24.182196 50.974574 -0.860166 2.065076 0.002560 0.001880 -215346.000000 0 0 1
-30.255240 33.092986 -23.730996 50.731504 -0.830164 2.057570 0.003508 -0.007774 82844.000000 0 0 1
-30.990650 32.359186 -24.673396 51.149915 -0.806998 2.074159 0.009074 0.000822 141508.000000 0 0 1
-31.882670 33.178586 -25.624846 52.668358 -0.805314 2.078912 0.016406 -0.008478 -984902.000000 0 0 1
-31.244290 33.769186 -26.762866 53.224192 -0.824215 2.097669 0.004590 -0.006367 22044.800000 0 0 1
-32.136080 -34.057997 -27.425596 54.266363 0.814425 2.100628 0.010171 -0.013505 220536.000000 0 0 1
-31.470400 -33.308097 -28.585026 54.008510 0.813759 2.128535 0.011314 -0.016207 110877.000000 0 0 1
-31.126980 -33.976697 -29.793096 54.871973 0.829142 2.144750 0.015086 -0.014159 -50274.500000 0 0 1
-32.293590 -34.061697 -30.576856 56.018027 0.812038 2.148187 0.029109 -0.015726 -88573.200000 0 0 1
-32.145290 33.866186 -31.906886 56.553405 -0.811462 2.170249 0.045542 -0.017705 -348058.000000 0 0 1
-31.366530 -34.212097 -32.866456 56.872935 0.828763 2.186941 0.044263 -0.028876 -270976.000000 0 0 1
-31.459470 33.744186 -34.053056 57.340902 -0.820424 2.206657 0.043671 -0.042962 -16047.100000 0 0 1
-30.449990 34.291486 33.432701 56.752563 -0.844665 0.940857 0.039421 -0.044821 1169790.000000 0 0 1
-29.065500 33.902386 33.397805 55.763684 -0.862063 0.928649 0.048472 -0.035593 756034.000000 0 0 1
-28.848310 32.600786 32.934361 54.586705 -0.846389 0.923113 0.067665 -0.043428 -99630.800000 0 0 1
-27.353950 32.193986 33.012863 53.614741 -0.866500 0.907469 0.052246 -0.039454 -133258.000000 0 0 1
-26.890280 31.701286 -34.250632 53.862459 -0.867325 2.259958 0.056533 -0.036490 -503111.000000 0 0 1
-25.563730 31.309686 34.099341 52.882566 -0.886087 0.870018 0.051755 -0.030507 -906625.000000 0 0 1
-25.204110 29.894686 33.610473 51.561646 -0.870324 0.860775 0.063811 -0.035121 -627121.000000 0 0 1
-25.422210 28.975086 -33.863156 51.308457 -0.850619 2.291604 0.053242 -0.023694 316513.000000 0 0 1
-25.097800 27.714586 34.160417 50.645157 -0.834906 0.830502 0.041504 -0.025838 -406937.000000 0 0 1
-25.065390 26.663286 -33.144686 49.373827 -0.816278 2.306759 0.049544 -0.028447 299093.000000 0 0 1
-24.037540 26.804386 -32.117246 48.247238 -0.839765 2.299202 0.039149 -0.010990 694105.000000 0 0 1
-24.037140 27.996386 -31.288716 48.379391 -0.861342 2.274094 0.015511 0.003826 155026.000000 0 0 1
-22.827540 28.065986 -30.320746 47.203218 -0.887966 2.268350 0.026921 0.011702 548936.000000 0 0 1
-21.530140 28.358686 -30.885886 47.134913 -0.921428 2.285330 0.037615 0.006215 184214.000000 0 0 1
-20.528340 28.292886 -29.946306 46.029137 -0.943118 2.279163 0.007958 0.008096 -555801.000000 0 0 1
-20.496840 29.431886 -28.912746 46.068463 -0.962480 2.249268 0.007747 0.012609 -889664.000000 0 0 1
-19.939540 30.575786 -29.558746 46.970027 -0.992922 2.251462 0.009273 0.015501 115729.000000 0 0 1
-19.631440 31.585986 -28.604866 46.918081 -1.014701 2.226449 0.013237 0.006809 -70285.200000 0 0 1
-19.163640 32.861486 -29.363836 48.055772 -1.042848 2.228166 0.006307 0.013043 57968.500000 0 0 1
-17.942440 32.750786 -30.060216 47.939146 -1.069607 2.248556 0.019081 0.009699 -292745.000000 0 0 1
-17.668540 33.980086 -30.699676 49.084556 -1.091303 2.246498 0.025864 0.015944 361970.000000 0 0 1
-16.241540 34.089286 -31.328726 49.064816 -1.126173 2.263366 0.033696 0.010748 192200.000000 0 0 1
-15.303840 -34.264197 -30.286756 48.223753 1.150738 2.249837 0.057064 0.004254 1052850.000000 0 0 1
-13.962240 -34.134497 -30.825046 48.065492 1.182525 2.267005 0.082642 0.006277 1180360.000000 0 0 1
-13.234340 33.230086 -30.805046 47.205267 -1.191788 2.281776 0.092152 -0.001375 -900534.000000 0 0 1
-13.063840 32.735386 -29.505066 45.965404 -1.191089 2.267766 0.111914 -0.010777 -156159.000000 0 0 1
-12.563440 31.441786 -29.554606 44.943305 -1.190654 2.288422 0.110206 -0.013161 -12866.500000 0 0 1
-12.314340 30.848186 -28.161266 43.546647 -1.190987 2.274036 0.102174 -0.027683 -127922.000000 0 0 1
-11.266840 31.500886 -27.502596 43.308663 -1.227307 2.258853 0.110542 -0.029435 -417560.000000 0 0 1
-11.095640 31.070686 -26.176846 42.115651 -1.227802 2.241512 0.103231 -0.033822 685888.000000 0 0 1
-9.742540 31.515286 -25.529806 41.712125 -1.270978 2.229444 0.100946 -0.035894 1013240.000000 0 0 1
-8.577040 30.834486 -25.981676 41.223521 -1.299491 2.252689 0.109024 -0.022294 -171512.000000 0 0 1
-7.394940 31.318986 -25.400236 40.996781 -1.338926 2.238987 0.106918 -0.027178 189732.000000 0 0 1
-6.137540 30.587286 -25.940276 40.572767 -1.372770 2.264451 0.069449 -0.020350 -1381.300000 0 0 1
-6.168440 29.275586 -25.469476 39.291269 -1.363131 2.276044 0.068276 -0.029070 -803247.000000 0 0 1
-4.919440 28.742086 -25.685466 38.859382 -1.401281 2.292927 0.060529 -0.029188 -786951.000000 0 0 1
-4.550740 27.531786 -24.838796 37.358724 -1.406987 2.298120 0.069566 -0.013507 518077.000000 0 0 1
-5.406740 26.413686 -25.220786 36.918880 -1.368891 2.322851 0.082160 -0.011868 850763.000000 0 0 1
-5.074440 25.268086 -24.411696 35.498690 -1.372608 2.329083 0.084711 -0.022935 242427.000000 0 0 1
-6.091340 24.067086 -24.530596 34.900991 -1.322904 2.350210 0.065797 -0.020654 200960.000000 0 0 1
-6.013940 23.213986 -25.627756 35.097557 -1.317304 2.389391 0.066970 -0.017025 39695.700000 0 0 1
-6.970740 22.185186 -25.658176 34.628250 -1.266357 2.405296 0.055989 -0.023456 -450203.000000 0 0 1
-6.761040 21.376086 -26.931686 35.042324 -1.264462 2.447364 0.040878 -0.016202 423896.000000 0 0 1
-5.586340 20.573986 -27.033476 34.428258 -1.305664 2.473835 0.053103 -0.024839 273524.000000 0 0 1
-5.741740 19.392886 -26.228036 33.120409 -1.282945 2.484710 0.045371 -0.027229 -1202540.000000 0 0 1
-4.579740 18.459686 -26.277976 32.438651 -1.327612 2.515089 0.052945 -0.037828 -875983.000000 0 0 1
-4.453540 17.791386 -27.495356 33.050901 -1.325516 2.553336 0.040957 -0.036350 -361375.000000 0 0 1
-3.318140 16.962386 -27.492446 32.474100 -1.377618 2.580353 0.048227 -0.035747 -420424.000000 0 0 1
-2.950740 16.389486 -28.834716 33.298093 -1.392666 2.617857 0.052045 -0.031923 -423698.000000 0 0 1
-2.279840 17.323886 -29.605866 34.377638 -1.439947 2.608413 0.057359 -0.037079 -92834.300000 0 0 1
-2.290940 16.987286 -31.003016 35.426026 -1.436743 2.636538 0.055757 -0.044463 264997.000000 0 0 1
-1.463540 18.072386 -31.793676 36.600423 -1.489991 2.623307 0.056390 -0.020276 -133446.000000 0 0 1
-0.108540 18.099786 -31.444206 36.281568 -1.564800 2.619288 0.072953 -0.029698 -263772.000000 0 0 1
0.592560 19.244786 -31.998516 37.344584 1.540015 2.599915 0.090146 -0.014184 539893.000000 0 0 1
0.425860 20.665886 -31.284516 37.496415 1.550192 2.557719 0.071573 -0.010817 241488.000000 0 0 1
1.392460 20.818186 -30.247796 36.745952 1.504009 2.537750 0.084605 -0.020756 165791.000000 0 0 1
1.093060 22.050386 -29.562356 36.896439 1.521266 2.500136 0.085610 -0.023136 -1180.300000 0 0 1
2.062160 22.332486 -28.405426 36.191997 1.478718 2.473256 0.089963 -0.028470 -389038.000000 0 0 1
3.378160 22.453786 -28.879406 36.736965 1.421467 2.475291 0.066435 -0.025112 -637144.000000 0 0 1
4.313960 22.574086 -27.835846 36.097561 1.381971 2.451408 0.056660 -0.024180 -15831.900000 0 0 1
4.746660 24.006286 -27.527476 36.831976 1.375589 2.414906 0.059643 -0.029130 214789.000000 0 0 1
5.669160 24.617286 -28.483016 38.071411 1.344451 2.416062 0.060041 -0.027799 659185.000000 0 0 1
5.878660 25.929486 -28.076746 38.667823 1.347848 2.383431 0.052851 -0.028069 -74568.900000 0 0 1
6.759160 26.759086 -29.033636 40.058544 1.323379 2.381512 0.059771 -0.025074 1112930.000000 0 0 1
8.180160 26.517686 -28.953586 40.105023 1.271579 2.377404 0.052238 -0.022512 1076730.000000 0 0 1
8.868560 27.368486 -29.865466 41.468439 1.257430 2.374883 0.062241 -0.027236 628127.000000 0 0 1
10.398860 27.464886 -29.578186 41.681235 1.208852 2.359767 0.049365 -0.015975 908643.000000 0 0 1
11.153460 28.347486 -30.449306 43.071335 1.195945 2.355974 0.038873 -0.010061 -360695.000000 0 0 1
12.439960 28.531986 -29.949756 43.195077 1.159645 2.336938 0.036353 -0.015221 -757974.000000 0 0 1
13.218560 29.493986 -30.825326 44.663478 1.149458 2.332518 0.046636 -0.014342 -466427.000000 0 0 1
12.733760 30.844786 -30.897306 45.477390 1.179276 2.317740 0.043339 -0.014680 255214.000000 0 0 1
13.624260 31.686986 -31.614946 46.788784 1.164729 2.312703 0.068486 -0.024227 147212.000000 0 0 1
13.088560 33.134786 -31.815486 47.764522 1.194599 2.299751 0.071460 -0.035924 408427.000000 0 0 1
11.948560 33.257786 -32.659646 48.119652 1.225886 2.316811 0.063872 -0.034750 280796.000000 0 0 1
11.160060 -34.339197 -32.241446 48.407006 -1.256569 2.299696 0.059553 -0.035691 408774.000000 0 0 1
9.868660 -34.140397 -33.081676 48.552595 -1.289405 2.320412 0.046594 -0.025437 1523.460000 0 0 1
10.123560 -33.485897 34.202692 48.924594 -1.277210 0.796672 0.053016 -0.018949 -109806.000000 0 0 1
9.001660 -33.538097 33.372935 48.162087 -1.308575 0.805252 0.046910 -0.020419 -190558.000000 0 0 1
9.291760 -32.709397 32.091722 46.755963 -1.294017 0.814315 0.053635 -0.019602 188976.000000 0 0 1
9.497360 -31.345497 32.348222 46.034199 -1.276599 0.791611 0.040104 -0.025231 7675.820000 0 0 1
9.882260 -30.670997 31.167682 44.830721 -1.259097 0.802056 0.049634 -0.018766 -994961.000000 0 0 1
9.509460 -29.184597 30.978992 43.610417 -1.255806 0.780790 0.038260 -0.034692 521295.000000 0 0 1
8.110860 -28.894297 30.818012 43.016466 -1.297131 0.772134 0.034183 -0.031352 618743.000000 0 0 1
7.394660 -28.978397 32.033062 43.824029 -1.320950 0.751087 0.036609 -0.017337 -963749.000000 0 0 1
5.907560 -28.666697 31.832202 43.243125 -1.367564 0.743474 0.041185 -0.020536 11661.600000 0 0 1
5.018460 -29.673897 31.348222 43.456140 -1.403261 0.765009 0.049353 -0.027684 234053.000000 0 0 1
5.183060 -30.064697 29.993882 42.782977 -1.400078 0.793899 0.044537 -0.031986 -703642.000000 0 0 1
4.530960 -29.182897 28.923802 41.337119 -1.416765 0.795811 0.032495 -0.034286 -1275950.000000 0 0 1
3.163760 -29.377497 28.837362 41.287288 -1.463516 0.797558 0.059020 -0.038937 -826602.000000 0 0 1
2.652260 -28.643797 27.757722 39.974901 -1.478465 0.803240 0.072929 -0.041384 400122.000000 0 0 1
1.196560 -29.068097 27.368412 39.942659 -1.529656 0.815928 0.069228 -0.042758 484322.000000 0 0 1
1.107360 -30.395897 26.859932 40.578230 -1.534381 0.847406 0.068714 -0.047751 -45409.900000 0 0 1
0.754160 -31.385297 27.772592 41.915659 -1.546772 0.846535 0.092733 -0.050410 -491147.000000 0 0 1
0.824360 -32.785997 27.130962 42.563955 -1.545658 0.879656 0.083125 -0.047575 953444.000000 0 0 1
2.146760 -33.298997 26.873172 42.843893 -1.506416 0.892799 0.061528 -0.041757 724139.000000 0 0 1
2.833460 -32.763697 25.773102 41.782067 -1.484529 0.906067 0.053641 -0.043976 476731.000000 0 0 1
4.394560 -32.758697 25.903552 41.993314 -1.437443 0.906063 0.050791 -0.025392 1052050.000000 0 0 1
5.092660 -32.093497 24.829092 40.895129 -1.413426 0.918339 0.048348 -0.031288 485718.000000 0 0 1
6.494260 -32.147497 25.046892 41.267224 -1.371465 0.918587 0.043000 -0.032204 -5446.740000 0 0 1
7.353660 -31.787697 23.828982 40.402406 -1.343459 0.939996 0.050255 -0.024051 -833170.000000 0 0 1
8.665760 -31.532597 24.213282 40.690086 -1.302598 0.933449 0.044541 -0.007920 -508154.000000 0 0 1
9.411460 -31.119897 23.075352 39.868477 -1.277116 0.953556 0.041559 -0.004020 215315.000000 0 0 1
10.427960 -29.992197 23.387052 39.436385 -1.236182 0.935977 0.020035 0.002305 299605.000000 0 0 1
11.499860 -30.323197 24.239002 40.487927 -1.208311 0.928954 0.022763 0.004990 1046110.000000 0 0 1
12.796460 -29.780097 23.866742 40.252018 -1.164953 0.936100 0.023327 0.003357 1114390.000000 0 0 1
13.861860 -30.447497 24.781352 41.633120 -1.143568 0.933242 0.036178 -0.003114 -310352.000000 0 0 1
13.883660 -30.177497 26.185502 42.297965 -1.139603 0.903235 0.027218 -0.007500 103625.000000 0 0 1
14.684260 -29.095297 26.612282 42.075852 -1.103400 0.886041 0.025784 -0.003846 -274123.000000 0 0 1
-11.148340 -13.801214 25.484162 31.051595 0.891330 0.608155 0.060826 -0.019461 1085550.000000 0 0 1
-9.754140 -14.089514 25.206342 30.479786 0.965258 0.597072 0.053676 -0.018161 574085.000000 0 0 1
-9.069040 -14.209214 26.424222 31.343082 1.002725 0.567841 0.053539 -0.016174 -297008.000000 0 0 1
-7.542740 -14.099214 26.250752 30.737319 1.079561 0.547103 0.068119 -0.015143 -382590.000000 0 0 1
-6.903740 -15.127514 25.532692 30.470013 1.142658 0.577260 0.061845 -0.020799 -79960.200000 0 0 1
-7.092940 -15.091614 24.128012 29.329637 1.131442 0.604741 0.069659 -0.016268 -404026.000000 0 0 1
-6.290940 -16.246614 23.453822 29.216608 1.201359 0.638893 0.062662 -0.013662 279558.000000 0 0 1
-6.930740 -17.513214 23.408852 30.045336 1.193965 0.677539 0.069966 -0.021893 -284381.000000 0 0 1
-7.162640 -18.139414 24.645492 31.428364 1.194724 0.669423 0.076499 -0.016488 -95456.500000 0 0 1
-7.816140 -19.516814 24.416582 32.220608 1.189874 0.710871 0.069098 -0.010676 84266.800000 0 0 1
-9.224640 -19.457214 24.310532 32.475824 1.128084 0.724889 0.053307 -0.009091 -428885.000000 0 0 1
-9.747040 -20.730114 24.059412 33.220442 1.131282 0.760872 0.046259 -0.015057 -860042.000000 0 0 1
-11.257540 -20.685814 24.090512 33.689582 1.072405 0.774068 0.043330 -0.019659 -938148.000000 0 0 1
-11.824940 -20.504914 25.363462 34.692736 1.047694 0.750880 0.044621 -0.017956 154055.000000 0 0 1
-13.237740 -20.652414 25.222682 35.184424 1.000790 0.771493 0.046208 -0.014611 621141.000000 0 0 1
-13.961540 -20.634514 26.630312 36.467538 0.975941 0.752113 0.049116 -0.010777 -334787.000000 0 0 1
-13.796240 -21.746114 27.494702 37.672117 1.005449 0.752705 0.043040 -0.006533 339339.000000 0 0 1
-12.625940 -21.684014 28.320842 37.837560 1.043516 0.725022 0.050267 -0.009262 583078.000000 0 0 1
-12.115240 -23.014414 28.907372 38.885453 1.086237 0.732660 0.046113 -0.008481 1119410.000000 0 0 1
-13.071040 -23.590814 29.865722 40.241024 1.064831 0.734492 0.040167 -0.005694 759523.000000 0 0 1
-12.652240 -24.901214 29.968152 40.966325 1.100692 0.750231 0.042048 -0.011719 152939.000000 0 0 1
-13.405940 -25.709584 31.061282 42.491237 1.090146 0.751004 0.048251 -0.016178 273861.000000 0 0 1
-13.281540 -25.183024 32.341272 43.087607 1.085469 0.721837 0.055056 -0.019113 100140.000000 0 0 1
-14.413240 -25.543414 33.127086 44.244902 1.057068 0.724666 0.054207 -0.024046 199264.000000 0 0 1
-14.274140 -25.056864 -33.838996 44.459816 1.052977 2.435826 0.044654 -0.026450 99965.100000 0 0 1
-14.277640 -23.650814 -33.545476 43.457002 1.027672 2.452658 0.042496 -0.026955 453775.000000 0 0 1
-15.530440 -23.072714 -33.959456 43.895209 0.978347 2.455375 0.043357 -0.027564 355385.000000 0 0 1
-15.617240 -21.531614 -33.737426 42.961873 0.943281 2.473957 0.032316 -0.022450 -10632.500000 0 0 1
-15.773440 -21.297814 -32.338726 41.811380 0.933330 2.455052 0.037735 -0.020433 91605.500000 0 0 1
-15.932340 -19.892914 -32.169426 41.041924 0.895504 2.471588 0.032276 -0.023165 -220194.000000 0 0 1
-15.971040 -19.379614 -30.704866 39.666515 0.881523 2.456049 0.040261 -0.014842 -17249.100000 0 0 1
-17.216740 -19.663514 -30.100446 39.863603 0.851645 2.426582 0.047871 -0.015493 -10297.500000 0 0 1
-17.298540 -19.406014 -28.694696 38.719743 0.842752 2.405484 0.042059 -0.013653 -77555.600000 0 0 1
-16.391740 -20.271314 -27.798716 38.110156 0.890823 2.388286 0.032477 -0.006086 695899.000000 0 0 1
-14.995640 -20.065714 -28.055456 37.611311 0.929008 2.412728 0.025202 -0.002400 584268.000000 0 0 1
-14.234540 -21.040714 -27.339676 37.320125 0.976001 2.392889 0.011512 0.003701 32691.300000 0 0 1
-12.735340 -21.092014 -27.669816 37.049706 1.027588 2.414078 0.027929 -0.000787 -646370.000000 0 0 1
-12.008340 -20.149114 -26.949476 35.727599 1.033343 2.425390 0.024184 -0.005854 158466.000000 0 0 1
-10.620240 -20.388614 -26.773126 35.288601 1.090576 2.432097 0.015377 -0.006702 522987.000000 0 0 1
-10.114740 -21.613614 -25.940906 35.247509 1.133091 2.397886 0.026762 -0.008779 -610157.000000 0 0 1
-10.170140 -22.928414 -26.473646 36.469136 1.153310 2.383166 0.027657 -0.014649 99884.300000 0 0 1
-9.863240 -23.787414 -25.395086 36.166766 1.177732 2.349232 0.055980 -0.010915 -149354.000000 0 0 1
-9.834340 -25.287324 -25.701626 37.372940 1.199892 2.329122 0.050197 -0.014173 -90909.900000 0 0 1
-8.754240 -25.582644 -26.587646 37.921120 1.241092 2.347778 0.057757 -0.028132 443876.000000 0 0 1
-9.032740 -26.765654 -27.335366 39.309196 1.245323 2.339764 0.049340 -0.021387 255135.000000 0 0 1
-8.662540 -28.107284 -26.585386 39.646460 1.271838 2.305762 0.066155 -0.020039 -289696.000000 0 0 1
-9.718840 -28.286644 -25.691596 39.429028 1.239849 2.280476 0.057657 -0.022261 13165.200000 0 0 1
-9.472040 -29.437024 -24.919396 39.714409 1.259486 2.249089 0.087303 -0.019905 297818.000000 0 0 1
-10.601040 -29.611814 -23.848496 39.471412 1.227012 2.219554 0.086186 -0.023019 308905.000000 0 0 1
-10.641740 -28.568934 -22.930796 38.147766 1.214225 2.215679 0.073357 -0.023967 386979.000000 0 0 1
-11.624940 -27.555124 -23.250596 37.881583 1.171572 2.231624 0.050163 -0.019177 170164.000000 0 0 1
-11.556340 -26.344834 -22.329996 36.417414 1.157415 2.230861 0.053886 -0.013609 -188436.000000 0 0 1
-12.052140 -26.616784 -21.049096 36.010717 1.145614 2.195089 0.038880 -0.015430 170715.000000 0 0 1
-12.042840 -25.467064 -20.209296 34.670117 1.129080 2.193093 0.032115 -0.013539 -67940.300000 0 0 1
-12.490740 -25.773904 -18.740996 34.227733 1.119522 2.150216 0.055824 -0.016289 358485.000000 0 0 1
-13.888940 -25.946194 -18.575596 34.801730 1.079311 2.133831 0.073268 -0.019206 167280.000000 0 0 1
-14.284940 -26.403284 -17.307596 34.651780 1.074867 2.093786 0.073275 -0.020487 326629.000000 0 0 1
-15.801240 -26.528154 -17.009896 35.252783 1.033589 2.074317 0.077588 -0.023270 -610708.000000 0 0 1
-16.538040 -25.335014 -16.790596 34.601934 0.992473 2.077446 0.073809 -0.017088 252883.000000 0 0 1
-17.843840 -25.510924 -16.255296 35.120429 0.960434 2.051998 0.084852 -0.015793 135248.000000 0 0 1
-18.863240 -25.933274 -17.327096 36.449757 0.941933 2.066180 0.067659 -0.013894 -1647800.000000 0 0 1
-18.816440 -27.249464 -17.884696 37.635809 0.966458 2.065992 0.059789 -0.009751 -95454.800000 0 0 1
-18.994340 -28.273844 -16.960396 38.050628 0.979249 2.032789 0.067272 -0.024469 -241896.000000 0 0 1
-20.416540 -28.883734 -16.850796 39.179772 0.955486 2.015388 0.054561 -0.017747 441332.000000 0 0 1
-20.922040 -29.703844 -17.949896 40.524670 0.957154 2.029669 0.045196 -0.017437 -137054.000000 0 0 1
-21.990140 -30.471014 -17.475796 41.442158 0.945672 2.006106 0.033792 -0.004853 -255671.000000 0 0 1
-22.496240 -31.563544 -18.468396 42.935065 0.951579 2.015452 0.018045 -0.007624 -111641.000000 0 0 1
-21.662140 -32.685884 -18.589096 43.395505 0.985519 2.013478 0.008502 -0.011061 -13472.100000 0 0 1
-22.069940 -33.469404 -19.693096 44.666557 0.987837 2.027388 0.015403 -0.001076 397675.000000 0 0 1
-21.444440 33.799935 -19.445196 44.501858 -1.005429 2.023004 0.008980 0.002030 -94487.600000 0 0 1
-22.248640 32.967629 -18.661496 43.933109 -0.977141 2.009505 0.010227 -0.003306 -435833.000000 0 0 1
-21.568540 31.771088 -18.443096 42.599904 -0.974391 2.018545 0.009005 -0.007323 -479179.000000 0 0 1
-22.373240 30.502348 -18.182796 41.971052 -0.937944 2.018861 0.009196 -0.017310 -265428.000000 0 0 1
-23.181740 30.543088 -17.018496 41.951193 -0.921570 1.988512 0.002481 -0.018783 -132394.000000 0 0 1
-23.781340 29.304188 -16.646196 41.247830 -0.889062 1.986207 0.013511 -0.009911 -10884.100000 0 0 1
-22.849240 28.089108 -16.375296 39.739604 -0.887904 1.995515 0.017726 -0.014358 5829.450000 0 0 1
-22.212640 27.573338 -17.549996 39.518259 -0.892660 2.030964 0.008879 -0.014784 97158.700000 0 0 1
-21.705640 26.272978 -17.248296 38.195654 -0.880307 2.039329 0.017110 -0.011391 -173112.000000 0 0 1
-21.158140 25.726228 -18.607496 38.154222 -0.882525 2.080240 0.030081 -0.011733 -903225.000000 0 0 1
-20.590540 24.467168 -18.528996 36.958577 -0.871224 2.095949 0.051683 -0.019805 206082.000000 0 0 1
-19.836740 24.019148 -19.667196 36.840391 -0.880478 2.133942 0.059451 -0.017935 682809.000000 0 0 1
-18.455840 24.710908 -19.911696 36.711343 -0.929301 2.144070 0.043228 -0.015620 -35127.800000 0 0 1
-17.563640 24.353288 -18.843396 35.449086 -0.945982 2.131240 0.054696 -0.014642 582342.000000 0 0 1
-16.333740 25.077958 -18.807496 35.347093 -0.993495 2.131852 0.062021 -0.019423 420429.000000 0 0 1
-16.297440 26.462898 -17.998796 35.914457 -1.018797 2.095732 0.058861 -0.031050 -1315890.000000 0 0 1
-17.241940 27.343478 -18.451096 37.220872 -1.008203 2.089459 0.038027 -0.024718 -755101.000000 0 0 1
-17.446140 28.300898 -17.460896 37.552518 -1.018368 2.054400 0.039599 -0.027173 782187.000000 0 0 1
-18.700540 29.218908 -17.818496 38.999406 -1.001472 2.045294 0.022256 -0.023213 714237.000000 0 0 1
-18.688440 30.026388 -19.041796 40.167547 -1.014068 2.064692 0.028659 -0.026865 -32897.700000 0 0 1
-18.872440 29.266788 -20.219396 40.268324 -0.998056 2.096841 0.010973 -0.022631 -183387.000000 0 0 1
-18.991540 30.114038 -21.493896 41.587516 -1.008142 2.113946 0.017309 -0.027126 1085710.000000 0 0 1
-20.247640 30.838728 -21.508996 42.703993 -0.989820 2.098646 0.005883 -0.018731 928106.000000 0 0 1
-20.729640 31.146128 -22.798796 43.813062 -0.983560 2.118075 0.007356 -0.019422 -263280.000000 0 0 1
-20.971240 32.646728 -23.054796 45.134526 -0.999804 2.106913 0.003306 -0.019272 -708433.000000 0 0 1
-19.867340 33.484563 -23.169796 45.307468 -1.035297 2.107598 -0.003086 -0.009288 -553924.000000 0 0 1
-20.110040 -34.241052 -24.159296 46.481555 1.039762 2.117367 0.006720 -0.009640 216249.000000 0 0 1
-18.980240 -33.153034 -24.195496 45.219412 1.050840 2.135386 0.028783 -0.006796 342165.000000 0 0 1
-19.006540 -32.217954 -23.127796 43.978860 1.037809 2.124551 0.020369 -0.012240 -77986.700000 0 0 1
-18.563440 -32.800514 -21.964396 43.622354 1.055790 2.098456 0.019228 -0.017920 -597222.000000 0 0 1
-18.426140 -31.809604 -20.747896 42.211951 1.045764 2.084627 0.042216 -0.020592 -61161.100000 0 0 1
-17.510840 -30.743934 -20.932396 41.109418 1.053052 2.105037 0.047033 -0.018887 142686.000000 0 0 1
-17.239940 -30.141094 -19.631096 39.888357 1.051239 2.085355 0.048698 -0.017226 -616829.000000 0 0 1
-16.004040 -29.259564 -19.665496 38.716704 1.070284 2.103580 0.064859 -0.016974 -120315.000000 0 0 1
-14.816140 -30.061684 -19.748796 38.900358 1.112879 2.103282 0.077007 -0.021865 -580698.000000 0 0 1
-13.787140 -29.178624 -20.028796 37.981970 1.129383 2.126244 0.063924 -0.024485 -676021.000000 0 0 1
-12.427340 -29.928344 -20.279396 38.228242 1.177224 2.129965 0.100487 -0.028845 560854.000000 0 0 1
-11.799140 -30.575974 -19.185696 37.976320 1.202508 2.100412 0.097425 -0.032367 216816.000000 0 0 1
-11.061840 -29.605444 -18.426796 36.584060 1.213217 2.098654 0.074445 -0.022623 -225175.000000 0 0 1
-10.271340 -30.246494 -17.243696 36.300081 1.243427 2.065797 0.067432 -0.011442 -499783.000000 0 0 1
-11.072740 -30.858084 -16.325296 36.624339 1.226279 2.032808 0.086352 -0.024268 -456923.000000 0 0 1
-11.480640 -32.186714 -16.626096 38.002852 1.228175 2.023608 0.093986 -0.026283 148606.000000 0 0 1
-12.517740 -32.886734 -15.725596 38.542515 1.207097 1.991066 0.103911 -0.032157 -215662.000000 0 0 1
-11.951840 -33.378704 -14.578196 38.334165 1.226952 1.960909 0.093203 -0.033065 -38912.300000 0 0 1
-12.967040 -33.810614 -13.664196 38.704160 1.204577 1.931617 0.095732 -0.035160 -178808.000000 0 0 1
-12.404240 34.351170 -12.350196 38.553799 -1.224266 1.896881 0.074420 -0.025717 -5601.970000 0 0 1
-11.942040 -33.333834 -11.471396 37.220287 1.226786 1.884100 0.060317 -0.016555 166403.000000 0 0 1
-11.574140 -33.819454 -10.172596 37.164471 1.241057 1.848053 0.066932 -0.019266 257928.000000 0 0 1
-10.229340 -33.191504 -9.677896 36.055194 1.271841 1.842548 0.049378 -0.017937 52124.000000 0 0 1
-9.130540 -33.586484 -10.433696 36.335667 1.305359 1.862044 0.021645 -0.014497 -330569.000000 0 0 1
-7.971240 -32.920734 -9.914496 35.293238 1.333234 1.855547 0.008955 -0.013139 506799.000000 0 0 1
-6.638240 -33.607714 -10.252696 35.758390 1.375785 1.861599 0.002165 -0.014786 -171487.000000 0 0 1
-6.207340 34.043848 -9.480996 35.880412 -1.390444 1.838211 -0.001917 -0.000350 89686.400000 0 0 1
-5.064540 33.434605 -10.071896 35.284069 -1.420463 1.860274 -0.005054 0.005317 211776.000000 0 0 1
-4.353440 32.479608 -9.106196 34.011766 -1.437554 1.841839 -0.006316 -0.004226 -23637.300000 0 0 1
-3.781240 33.089654 -7.942096 34.238865 -1.457017 1.804890 0.014158 -0.011661 8397.320000 0 0 1
-3.130040 32.256088 -7.061196 33.167950 -1.474062 1.785330 0.011751 -0.023579 -251971.000000 0 0 1
-2.873440 32.875180 -5.682296 33.486156 -1.483613 1.741312 0.019558 -0.016017 -190269.000000 0 0 1
-1.893440 33.906989 -5.629596 34.423268 -1.515012 1.735075 0.009154 -0.013004 217570.000000 0 0 1
-1.530040 -34.325944 -4.357896 34.635282 1.526252 1.696953 0.015431 -0.011112 -253761.000000 0 0 1
-0.618740 33.544828 -3.441696 33.726601 -1.552353 1.673021 0.023798 -0.010050 5248.870000 0 0 1
0.698760 33.576673 -3.988596 33.819967 1.549988 1.689008 0.025797 -0.021427 -151111.000000 0 0 1
1.615060 32.882512 -3.208896 33.078166 1.521720 1.667959 0.028823 -0.013970 -463399.000000 0 0 1
3.045460 32.941110 -3.750096 33.293465 1.478607 1.683673 0.034166 -0.015746 -263079.000000 0 0 1
3.689660 34.183372 -3.510396 34.560663 1.463275 1.672544 0.031919 -0.016730 705561.000000 0 0 1
5.058160 34.113733 -3.966296 34.714022 1.423595 1.685303 0.045056 -0.012758 1051450.000000 0 0 1
5.860160 -33.326004 -3.677596 34.036579 -1.396732 1.679056 0.048250 -0.011874 -158758.000000 0 0 1
5.507060 -32.252114 -4.445196 33.019484 -1.401677 1.705830 0.047711 -0.016649 -133180.000000 0 0 1
6.134560 -31.078204 -3.966096 31.925186 -1.375911 1.695349 0.041787 -0.019610 -92202.800000 0 0 1
5.894260 -29.806944 -4.858296 30.770103 -1.375567 1.729350 0.039120 -0.023148 -94050.800000 0 0 1
6.614760 -29.873364 -6.074396 31.194090 -1.352886 1.766778 0.054020 -0.022504 -88037.000000 0 0 1
6.312860 -28.804524 -6.964696 30.299502 -1.355045 1.802732 0.054641 -0.014888 167957.000000 0 0 1
6.845360 -27.361254 -6.568896 28.959413 -1.325644 1.799619 0.049670 -0.010419 358322.000000 0 0 1
6.206460 -26.982944 -5.352696 28.200191 -1.344714 1.761766 0.045479 -0.017259 -165226.000000 0 0 1
6.876360 -25.961864 -4.653696 27.257285 -1.311878 1.742369 0.039137 -0.013824 -142020.000000 0 0 1
6.109860 -25.430714 -3.425396 26.377736 -1.335010 1.701023 0.035273 -0.015948 305282.000000 0 0 1
4.918060 -24.740714 -3.757496 25.503118 -1.374570 1.718669 0.034066 -0.014124 -415749.000000 0 0 1
4.138960 -24.442014 -2.654196 24.931663 -1.403050 1.677457 0.033088 -0.003694 -122794.000000 0 1 0
2.938060 -23.566114 -3.087996 23.948479 -1.446763 1.700100 0.029184 -0.010866 315801.000000 0 1 0
1.941660 -24.331714 -3.737696 24.693577 -1.491166 1.722743 0.028364 -0.011718 -87260.600000 0 1 0
0.799760 -23.552614 -4.089096 23.918318 -1.536853 1.742601 0.025498 -0.013607 614270.000000 0 1 0
-14.908540 22.817886 17.955752 32.639386 -0.992055 0.988282 0.023264 -0.011642 -134121.000000 0 0 1
-15.291340 22.408586 19.192552 33.231369 -0.971989 0.955080 0.027496 -0.014799 155068.000000 0 0 1
-14.977640 23.358586 20.179752 34.309993 -1.000629 0.942015 0.030465 -0.007298 -824842.000000 0 0 1
-15.123540 22.851386 21.634652 34.913686 -0.986156 0.902486 0.038707 -0.018025 94306.400000 0 0 1
-14.120940 21.983386 22.209552 34.291900 -0.999821 0.866285 0.035916 -0.018017 23095.500000 0 0 1
-12.782140 22.351786 22.138052 33.957014 -1.051323 0.860652 0.021150 -0.016038 -873781.000000 0 0 1
-12.459040 23.444086 23.204852 35.260715 -1.082317 0.852512 0.029419 -0.006446 -747600.000000 0 0 1
-12.255140 23.035986 24.578212 35.845971 -1.081878 0.815284 0.027318 -0.008081 29335.300000 0 0 1
-11.919540 24.143086 25.324472 36.963400 -1.112198 0.816024 0.045752 -0.006367 -9834.190000 0 0 1
-11.499740 23.716786 26.745532 37.550679 -1.119320 0.778096 0.031938 -0.010184 900327.000000 0 0 1
-10.161040 23.203886 26.859112 36.919899 -1.158048 0.756130 0.008315 -0.006038 538261.000000 0 0 1
-9.819040 22.676286 28.164522 37.468224 -1.162161 0.720174 -0.001507 -0.004524 642574.000000 0 0 1
-8.290540 22.278786 28.202662 36.884516 -1.214547 0.700344 -0.005219 -0.005601 1255080.000000 0 0 1
-7.330740 23.309586 28.368022 37.440903 -1.266095 0.711054 0.001111 0.000655 160781.000000 0 0 1
-7.247540 24.388886 27.475832 37.446842 -1.281942 0.747002 0.005808 -0.000098 -1502280.000000 0 0 1
-6.143740 25.343686 27.795502 38.113487 -1.332967 0.753523 0.013261 -0.005541 -427823.000000 0 0 1
-4.820740 24.885186 27.625962 37.492743 -1.379447 0.742420 0.011147 -0.003957 -349540.000000 0 0 1
-3.873340 25.762286 28.125522 38.337229 -1.421565 0.747141 0.021208 -0.007865 1714680.000000 0 0 1
-2.343140 25.254086 28.160642 37.898297 -1.478279 0.733168 0.020272 -0.009608 1940950.000000 0 0 1
-1.767540 25.315486 26.874562 36.962686 -1.501089 0.756748 0.023038 -0.006137 -335610.000000 0 0 1
-0.436140 24.861186 26.915872 36.643321 -1.553255 0.745812 0.038947 0.001157 78654.300000 0 0 1
0.217260 24.581086 25.529442 35.440505 1.561958 0.766495 0.030914 -0.002437 -121780.000000 0 0 1
-0.226740 23.377486 24.935412 34.180887 -1.561098 0.753186 0.026907 -0.002296 41028.300000 0 0 1
0.124960 23.280886 23.560392 33.122611 1.565429 0.779438 0.023361 -0.007143 -211047.000000 0 0 1
-0.222240 21.975786 22.848152 31.702092 -1.560684 0.765964 0.009712 -0.002799 231533.000000 0 0 1
0.557160 20.862886 23.248252 31.241826 1.544097 0.731552 0.027348 0.004249 -74653.800000 0 0 1
0.069460 19.765886 22.549752 29.986437 1.567282 0.719708 0.024766 0.007855 -296614.000000 0 0 1
0.858960 18.468486 22.755652 29.319661 1.524320 0.682303 0.029397 0.016482 -1036260.000000 0 0 1
2.041360 18.625286 22.059652 28.942990 1.461631 0.704129 0.027062 0.013115 -1106070.000000 0 0 1
2.793360 17.423586 22.220752 28.375095 1.411828 0.671149 0.012639 0.012474 186398.000000 0 0 1
4.255160 17.555486 21.728152 28.256222 1.332999 0.693570 0.019086 0.011084 469102.000000 0 0 1
5.115360 18.356686 22.535352 29.512318 1.299026 0.701939 0.017076 0.014254 37490.400000 0 0 1
6.371160 18.633186 21.948952 29.488028 1.241333 0.731259 0.036401 0.001604 -67925.400000 0 0 1
7.345960 19.396686 22.885352 30.885820 1.208766 0.736288 0.037607 -0.005069 -315918.000000 0 0 1
6.966860 20.646886 23.518952 32.062005 1.245364 0.747272 0.020488 0.000000 49012.800000 0 0 1
6.754360 21.686486 22.597452 32.040129 1.268864 0.787970 0.032436 -0.004921 -148581.000000 0 0 1
5.814860 22.771686 23.176952 33.008081 1.320784 0.792370 0.018963 -0.000213 37156.600000 0 0 1
5.575960 23.818886 22.315252 33.111948 1.340839 0.831276 0.017687 -0.008469 7789.060000 0 0 1
4.396860 24.479286 22.705252 33.676346 1.393076 0.830889 0.002717 -0.003580 -271989.000000 0 0 1
4.124760 25.869986 22.031052 34.229185 1.412685 0.871560 0.018033 -0.010214 -15988.700000 0 0 1
3.919560 26.022586 20.633552 33.440715 1.421299 0.905847 0.027075 -0.007314 642294.000000 0 0 1
2.668160 25.435986 20.233252 32.611240 1.466282 0.901495 0.036014 -0.010384 218278.000000 0 0 1
2.220760 25.864886 18.839952 32.075971 1.485146 0.943011 0.034418 -0.022698 -462468.000000 0 0 1
1.502560 27.065186 18.984852 33.093906 1.515337 0.959822 0.030810 -0.022824 25190.400000 0 0 1
1.201060 27.601386 17.766952 32.847277 1.527309 0.999295 0.034662 -0.016768 -543886.000000 0 0 1
0.114060 28.656886 17.817552 33.744559 1.566816 1.014538 0.019679 -0.003497 -469280.000000 0 0 1
0.452560 29.891586 18.428652 35.118755 1.555657 1.018372 0.023095 -0.003588 10808.000000 0 0 1
-0.696540 30.667886 18.598352 35.873432 -1.548088 1.025766 0.009982 0.003023 -117307.000000 0 0 1
-0.323840 32.020386 19.294952 37.385895 -1.560683 1.028502 0.006138 0.007182 55354.400000 0 0 1
0.255160 31.954286 20.548652 37.991954 1.562811 0.999327 0.008051 0.001610 140401.000000 0 0 1
0.821860 33.242286 20.944052 39.298579 1.546078 1.008717 0.008891 -0.005718 112514.000000 0 0 1
1.560060 33.112386 22.284452 39.943218 1.523717 0.978939 0.016954 -0.021698 926189.000000 0 0 1
0.548460 32.881986 23.305952 40.307483 1.554118 0.954271 0.028659 -0.013805 1306780.000000 0 0 1
1.198960 32.844486 24.546582 41.021122 1.534308 0.929308 0.037769 -0.024229 -130000.000000 0 0 1
0.233360 32.276586 25.592332 41.192231 1.563566 0.900408 0.060134 -0.014465 330902.000000 0 0 1
-0.912740 33.107286 25.831702 42.002408 -1.543234 0.908404 0.057084 -0.014190 291044.000000 0 0 1
-1.787640 32.636286 26.811482 42.275033 -1.516076 0.883803 0.074086 -0.025738 -198235.000000 0 0 1
-1.393740 32.900486 28.285092 43.410033 -1.528459 0.861131 0.089962 -0.030737 -181915.000000 0 0 1
-0.220340 32.221786 28.699782 43.150545 -1.563958 0.843158 0.081118 -0.027754 734623.000000 0 0 1
0.424460 32.799486 29.901402 44.385587 1.557856 0.831628 0.075552 -0.028484 161340.000000 0 0 1
1.670960 32.012586 30.363732 44.153754 1.518647 0.812505 0.058492 -0.018853 -44140.400000 0 0 1
2.962260 32.296586 29.905302 44.115434 1.479332 0.825911 0.037649 -0.016765 -70583.600000 0 0 1
3.184060 31.997386 28.543872 42.996786 1.471613 0.844827 0.028676 -0.015167 -378675.000000 0 0 1
4.635660 31.678686 28.088432 42.590944 1.425494 0.850652 0.000868 -0.004494 53934.500000 0 0 1
5.080760 30.528186 28.797682 42.273996 1.405879 0.821375 0.005679 -0.009396 -71723.000000 0 0 1
6.465860 30.346986 28.631212 42.219583 1.360871 0.825554 -0.000460 -0.014641 66962.900000 0 0 1
7.079660 29.229086 29.502882 42.129338 1.333160 0.794988 -0.003981 -0.003204 45819.800000 0 0 1
6.808560 29.335086 30.900942 43.148256 1.342738 0.772515 0.006205 -0.006748 163311.000000 0 0 1
7.385760 28.268286 31.634562 43.062640 1.315236 0.745694 -0.003700 0.000452 -227663.000000 0 0 1
7.390160 28.522786 33.122225 44.331090 1.317275 0.727024 0.021158 -0.018385 -1269820.000000 0 0 1
6.127060 28.449286 33.648906 44.487657 1.358669 0.713058 0.026631 -0.018114 -1481410.000000 0 0 1
6.139860 28.431586 -33.425076 44.309013 1.358110 2.425479 0.042819 -0.020713 6915.190000 0 0 1
6.369960 26.957786 -32.779676 42.916265 1.338759 2.439985 0.043875 -0.020036 -1106790.000000 0 0 1
7.575460 26.452886 -33.168926 43.096641 1.291885 2.449074 0.029240 -0.020478 -1159930.000000 0 0 1
7.701260 25.069086 -32.883746 42.060780 1.272746 2.468368 0.045688 -0.024547 -223423.000000 0 0 1
8.992860 24.343186 -33.276316 42.199235 1.216927 2.479248 0.036735 -0.024518 -580118.000000 0 0 1
9.118260 24.093586 33.851108 42.538701 1.209003 0.650515 0.015139 -0.013485 829277.000000 0 0 1
10.319560 23.393086 33.448134 42.101157 1.155337 0.652661 0.023487 -0.026243 598662.000000 0 0 1
10.644360 21.949386 33.984111 41.832974 1.119261 0.622581 0.032522 -0.029398 -728574.000000 0 0 1
9.866460 21.070186 33.198554 40.539410 1.132856 0.611269 0.016271 -0.031360 39546.800000 0 0 1
9.571260 19.807086 33.744662 40.281905 1.120659 0.577715 0.022536 -0.020197 -331790.000000 0 0 1
8.306860 19.830186 -33.908216 40.149811 1.174104 2.576506 0.051585 -0.036287 -905188.000000 0 0 1
8.414860 20.528286 -32.672356 39.493079 1.181772 2.545068 0.058898 -0.034177 750098.000000 0 0 1
7.119760 20.997686 -32.236506 39.125262 1.243889 2.539109 0.068800 -0.032513 677321.000000 0 0 1
7.159960 21.466886 -30.771996 38.196963 1.248864 2.507507 0.080256 -0.037689 225053.000000 0 0 1
7.926660 22.661686 -30.608516 38.900710 1.234315 2.476463 0.076905 -0.031868 77897.600000 0 0 1
8.174460 22.942086 -29.267316 38.075411 1.228513 2.447551 0.053439 -0.024308 -969785.000000 0 0 1
9.635860 23.085386 -28.887996 38.213887 1.175380 2.427909 0.058922 -0.031897 -768814.000000 0 0 1
10.266860 21.854786 -28.943156 37.692789 1.131619 2.446306 0.065300 -0.034165 -1691900.000000 0 0 1
11.632360 22.006386 -28.903196 38.144299 1.084539 2.430628 0.063756 -0.032649 -1334370.000000 0 0 1
12.333360 20.678586 -28.900326 37.615748 1.033005 2.446983 0.070933 -0.040071 -476756.000000 0 0 1
12.216360 19.996986 -30.122726 38.164087 1.022393 2.480456 0.059130 -0.035178 -942449.000000 0 0 1
11.035260 19.332286 -30.385636 37.666977 1.052109 2.509329 0.071124 -0.032856 -904389.000000 0 0 1
11.007960 18.394086 -31.610576 38.193535 1.031517 2.545690 0.066922 -0.034657 -191435.000000 0 0 1
11.833860 17.243886 -31.424746 37.747934 0.969349 2.554382 0.068366 -0.024473 297440.000000 0 0 1
11.819560 16.457186 -32.588646 38.373960 0.947959 2.585338 0.061719 -0.018905 -881864.000000 0 0 1
12.940260 16.576786 -33.569106 39.612183 0.907981 2.581948 0.050300 -0.004492 -1055340.000000 0 0 1
13.021460 17.896686 -34.128563 40.676881 0.941792 2.566269 0.061383 -0.012692 -54739.400000 0 0 1
13.367760 18.061886 33.003751 39.927138 0.933656 0.597758 0.062036 -0.016042 -272728.000000 0 0 1
12.416560 17.526486 31.928492 38.480869 0.954425 0.592184 0.072365 -0.029988 -778806.000000 0 0 1
12.714660 18.166386 30.678152 37.852730 0.960137 0.625858 0.059608 -0.017777 2403.920000 0 0 1
12.018160 17.768386 29.512312 36.484631 0.976100 0.628522 0.047416 -0.024388 514814.000000 0 0 1
10.479160 18.064986 29.459492 36.111192 1.045152 0.616686 0.030252 -0.024675 263578.000000 0 0 1
9.841160 17.153186 30.337792 36.214111 1.049923 0.577676 0.045573 -0.026496 428006.000000 0 0 1
8.425560 17.390586 30.369872 35.996551 1.119634 0.566679 0.036466 -0.020858 896263.000000 0 0 1
7.576560 16.566586 31.341862 36.251460 1.141855 0.526506 0.039835 -0.015917 7088.520000 0 0 1
7.892060 16.855686 32.691976 37.618666 1.132900 0.517546 0.051431 -0.019936 324383.000000 0 0 1
7.258360 15.882086 33.521830 37.797322 1.142124 0.480241 0.074455 -0.019645 -93672.100000 0 0 1
7.474660 16.140786 -33.476876 37.909059 1.137109 2.653191 0.082234 -0.027231 -281726.000000 0 0 1
6.497060 16.983386 -32.935256 37.621514 1.205420 2.637135 0.085998 -0.032317 -64341.000000 0 0 1
6.662860 17.084786 -31.496626 36.446139 1.198951 2.614348 0.095412 -0.037276 155398.000000 0 0 1
5.519960 17.897086 -30.816566 36.061564 1.271626 2.595488 0.086938 -0.037610 -441542.000000 0 0 1
5.591660 17.851186 -29.414016 34.858512 1.267240 2.575143 0.078145 -0.040647 92825.600000 0 0 1
4.767560 18.816286 -28.780196 34.714290 1.322645 2.548219 0.076367 -0.037128 193376.000000 0 0 1
3.236760 18.657086 -28.854056 34.512607 1.399019 2.560829 0.078401 -0.037871 -1525440.000000 0 0 1
2.768160 17.530286 -28.150066 33.277618 1.414182 2.579077 0.086028 -0.035489 939801.000000 0 0 1
1.337760 17.363286 -28.157336 33.107535 1.493903 2.587696 0.079224 -0.034700 966643.000000 0 0 1
0.402560 18.457086 -27.644766 33.242430 1.548989 2.552798 0.079100 -0.041197 -1183960.000000 0 0 1
0.536760 18.788986 -26.291616 32.319703 1.542236 2.520917 0.094255 -0.043467 7109.690000 0 0 1
-0.076840 20.049986 -26.234296 33.018876 -1.566964 2.489020 0.101714 -0.033409 -945.639000 0 0 1
-0.628440 20.422886 -24.785696 32.121954 -1.540035 2.452168 0.085941 -0.038621 951687.000000 0 0 1
-1.783540 19.615386 -24.422196 31.374959 -1.480120 2.462906 0.080033 -0.031627 782552.000000 0 0 1
-2.400140 20.256986 -23.323096 30.985044 -1.452862 2.422982 0.089678 -0.028100 413501.000000 0 0 1
-3.545440 19.367386 -22.717096 30.062140 -1.389739 2.427475 0.083536 -0.029677 435341.000000 0 0 1
-4.859040 19.860086 -22.887996 30.690286 -1.330846 2.412491 0.065369 -0.024378 -584207.000000 0 0 1
-5.730340 18.861286 -22.507496 29.919430 -1.275843 2.422297 0.044547 -0.022422 -536516.000000 0 0 1
-7.210840 19.276986 -22.382296 30.406670 -1.212846 2.398084 0.044845 -0.019379 79123.200000 0 0 1
-7.619840 20.133786 -21.303396 30.286400 -1.208995 2.350963 0.023861 -0.015085 200377.000000 0 0 1
-7.399540 21.517286 -21.563596 31.348612 -1.239577 2.329339 0.027650 -0.017391 -122256.000000 0 0 1
-7.738440 22.496886 -20.453196 31.373979 -1.239496 2.280905 0.037356 -0.022587 -241726.000000 0 0 1
-6.931240 22.314686 -19.341196 30.332642 -1.269631 2.262222 0.048495 -0.024619 41968.600000 0 0 1
-7.313740 23.293086 -18.435096 30.592669 -1.266557 2.217550 0.055661 -0.023514 -93708.700000 0 0 1
-6.339040 23.303886 -17.234696 29.669669 -1.305206 2.190613 0.048415 -0.023502 -124465.000000 0 0 1
-5.070540 23.728486 -17.628396 29.991862 -1.360273 2.199099 0.054371 -0.021097 -695206.000000 0 0 1
-4.212740 23.852586 -16.503196 29.309530 -1.395983 2.168887 0.056800 -0.019247 986920.000000 0 0 1
-2.790140 24.497986 -16.701796 29.780635 -1.457392 2.166181 0.058902 -0.013182 963721.000000 0 0 1
-2.727740 25.919986 -16.976196 31.104300 -1.465945 2.148120 0.037044 -0.006349 -530045.000000 0 0 1
-1.404840 26.279586 -17.255396 31.469651 -1.517390 2.151149 0.036391 -0.009630 -240841.000000 0 0 1
-1.206740 27.780086 -16.795896 32.485251 -1.527385 2.114176 0.022023 -0.024397 -481428.000000 0 0 1
-1.942740 28.769886 -17.492896 33.726577 -1.503372 2.116089 0.029634 -0.023885 -382317.000000 0 0 1
-1.459640 29.073686 -18.762296 34.632839 -1.520634 2.143313 0.038854 -0.034279 -760652.000000 0 0 1
-2.576140 29.348086 -19.794796 35.493388 -1.483242 2.162413 0.069553 -0.041412 84654.100000 0 0 1
-3.444240 30.426886 -19.485196 36.295055 -1.458079 2.137502 0.051575 -0.029469 -231004.000000 0 0 1
-4.520140 29.996386 -18.685396 35.628063 -1.421232 2.122874 0.030661 -0.032245 -807264.000000 0 0 1
-4.912740 31.139386 -17.708696 36.157908 -1.414320 2.082611 0.058277 -0.024773 107566.000000 0 0 1
-5.640240 32.181086 -18.344096 37.469194 -1.397293 2.082402 0.087909 -0.029844 -21705.300000 0 0 1
-5.990540 33.140886 -17.432396 37.922201 -1.391968 2.048441 0.079266 -0.047561 -368765.000000 0 0 1
-6.718440 34.350086 -18.002196 39.359178 -1.377647 2.045846 0.081090 -0.025175 -349749.000000 0 0 1
-7.954340 33.950086 -18.511796 39.478684 -1.340652 2.058848 0.098502 -0.044733 -890915.000000 0 0 1
-8.768640 -33.758697 -18.974696 39.706143 1.316667 2.069034 0.139796 -0.039102 -184988.000000 0 0 1
29.333960 -20.632314 -26.400866 44.532902 -0.612977 2.205377 0.041676 0.000571 308748.000000 0 0 1
28.855760 -21.931014 -26.058046 44.639064 -0.649884 2.194136 0.048893 -0.014917 403839.000000 0 0 1
27.444160 -22.044214 -26.288126 43.933983 -0.676713 2.212243 0.043068 -0.014694 655216.000000 0 0 1
27.008760 -23.495314 -25.979996 44.231924 -0.715943 2.198587 0.039955 -0.010578 29482.300000 0 0 1
27.615160 -24.522614 -26.701146 45.573094 -0.726153 2.196783 0.027784 0.006062 -749461.000000 0 0 1
28.982360 -24.765914 -26.527486 46.443893 -0.707110 2.178730 0.036754 0.002910 -627456.000000 0 0 1
29.319160 -26.166444 -27.012376 47.686103 -0.728639 2.173003 0.037925 0.001808 -229753.000000 0 0 1
28.968160 -27.224394 -26.117336 47.565084 -0.754376 2.152067 0.041280 -0.005958 -209284.000000 0 0 1
29.064160 -28.533444 -26.649136 48.672983 -0.776184 2.150187 0.028091 -0.002528 -234550.000000 0 0 1
27.976560 -28.965064 -27.619506 48.831342 -0.802756 2.171969 0.029601 -0.009937 -800772.000000 0 0 1
28.001960 -28.340904 -28.917426 49.229403 -0.791414 2.198641 0.016082 -0.008402 -661755.000000 0 0 1
28.904260 -28.639654 -29.929806 50.512170 -0.780800 2.204988 0.008079 -0.003556 -936678.000000 0 0 1
28.879560 -30.067734 -30.570516 51.697718 -0.805552 2.203506 0.020794 0.001505 -543437.000000 0 0 1
29.334960 -31.174724 -29.755736 52.132592 -0.815793 2.178240 0.025730 0.000899 367819.000000 0 0 1
30.643460 -31.107544 -29.222196 52.541771 -0.792913 2.160567 0.028279 0.000453 1068530.000000 0 0 1
31.950760 -30.809014 -30.076196 53.615520 -0.767208 2.166342 0.019880 -0.003482 443886.000000 0 0 1
32.037160 -29.443494 -30.529906 53.154248 -0.743236 2.182624 0.027037 -0.014246 563550.000000 0 0 1
33.263860 -29.176004 -31.244986 54.166159 -0.720023 2.185646 0.020346 -0.013042 751367.000000 0 0 1
33.294660 -27.780204 -31.914636 53.840673 -0.695352 2.205279 0.004708 -0.001115 -70977.900000 0 0 1
33.210160 -26.639624 -31.029766 52.682356 -0.676052 2.200614 -0.016144 0.007194 -352864.000000 0 0 1
31.917960 -26.295204 -30.586186 51.436453 -0.689108 2.207614 0.011907 0.004982 -233807.000000 0 0 1
31.789360 -24.934714 -29.849226 50.232257 -0.665139 2.207097 -0.005470 0.004821 -122286.000000 0 0 1
32.317860 -24.856214 -28.529726 49.761639 -0.655624 2.181358 -0.005294 0.005426 106432.000000 0 0 1
32.102060 -23.575114 -27.993336 48.682185 -0.633429 2.183428 -0.008835 0.006477 -842291.000000 0 0 1
33.221760 -23.163714 -27.092306 48.726133 -0.608875 2.160376 -0.006711 0.000304 -1101570.000000 0 0 1
33.174160 -23.819314 -25.843346 48.329734 -0.622710 2.134984 -0.000514 -0.006841 -206451.000000 0 0 1
32.242660 -23.379614 -24.871096 46.954945 -0.627383 2.129020 0.033108 -0.008825 -72130.600000 0 0 1
32.753660 -22.191414 -24.037596 46.293273 -0.595482 2.116765 0.038122 -0.005832 -16776.900000 0 0 1
32.761360 -20.966814 -24.749296 46.102512 -0.569303 2.137474 0.030621 -0.011136 34664.100000 0 0 1
32.654860 -19.881414 -23.826296 45.047784 -0.546890 2.128114 0.007180 -0.011052 -66254.600000 0 0 1
32.850460 -18.550914 -24.575396 45.024873 -0.514065 2.148162 0.006251 -0.011438 280164.000000 0 0 1
31.810160 -18.410114 -25.540956 44.756664 -0.524648 2.178109 0.026547 -0.008188 489614.000000 0 0 1
31.836960 -17.104714 -26.133866 44.599801 -0.493009 2.196865 0.021755 -0.003000 -172217.000000 0 0 1
30.808160 -17.086314 -27.268846 44.549689 -0.506371 2.229509 0.008131 0.002606 738325.000000 0 0 1
29.428160 -17.032014 -26.828856 43.311588 -0.524660 2.238823 0.022118 0.001752 346671.000000 0 0 1
28.735860 -17.074114 -28.002946 43.605504 -0.536125 2.268146 0.014576 -0.004801 237825.000000 0 0 1
27.191460 -16.827514 -27.783026 42.360799 -0.554167 2.286126 0.008155 -0.001447 919402.000000 0 0 1
26.501360 -17.802214 -27.050336 41.844493 -0.591512 2.273717 0.025966 -0.000374 7999.210000 0 0 1
26.319560 -17.425714 -25.711916 40.712128 -0.584822 2.254352 0.036939 0.001835 -123984.000000 0 0 1
25.589460 -18.460114 -24.814996 40.142002 -0.624941 2.237222 0.038711 -0.000892 -167350.000000 0 0 1
25.289860 -17.897414 -23.557196 38.920893 -0.615869 2.220887 0.034307 0.009123 76283.100000 0 0 1
24.950060 -18.943214 -22.658596 38.662163 -0.649392 2.196992 0.050261 0.004258 -145777.000000 0 0 1
25.109060 -18.518514 -21.176196 37.707181 -0.635468 2.167110 0.041402 -0.000351 10399.600000 0 0 1
24.261560 -17.457514 -20.720796 36.369486 -0.623730 2.176974 0.038294 -0.007707 105400.000000 0 0 1
24.425360 -16.129214 -21.237096 36.163020 -0.583615 2.198466 0.036947 -0.010097 -68995.200000 0 0 1
25.668860 -15.357814 -20.717296 36.386250 -0.539172 2.176538 0.053015 -0.011561 132043.000000 0 0 1
25.610060 -14.628214 -19.489696 35.351210 -0.518966 2.154737 0.053750 -0.025332 1143870.000000 0 0 1
26.830760 -13.836514 -19.483096 35.929512 -0.476125 2.143920 0.053895 -0.017465 970435.000000 0 0 1
26.839460 -12.800114 -18.285796 34.908020 -0.445009 2.122135 0.061674 -0.022562 -249257.000000 0 0 1
27.079560 -13.408814 -17.091296 34.716153 -0.459771 2.085544 0.048249 -0.018453 142403.000000 0 0 1
27.005660 -12.451514 -16.029296 33.782898 -0.432022 2.065169 0.039698 -0.022323 163044.000000 0 0 1
27.805960 -12.887414 -14.757296 34.015212 -0.434004 2.019551 0.050780 -0.030479 28372.300000 0 0 1
27.289460 -14.094314 -14.210996 33.842528 -0.476740 2.004148 0.066303 -0.036328 410574.000000 0 0 1
27.772960 -14.191114 -12.881696 33.744083 -0.472384 1.962482 0.090589 -0.035656 9027.830000 0 0 1
27.130860 -15.375714 -12.118396 33.456713 -0.515593 1.941435 0.075517 -0.038897 685513.000000 0 0 1
25.770060 -15.247014 -11.701896 32.148123 -0.534262 1.943355 0.069252 -0.037675 749341.000000 0 0 1
25.193760 -16.447414 -11.257396 32.124320 -0.578367 1.928829 0.057519 -0.040712 142680.000000 0 0 1
23.703760 -16.341514 -10.854196 30.768927 -0.603580 1.931321 0.076957 -0.041227 38560.100000 0 0 1
23.367660 -15.834914 -9.553996 29.800518 -0.595563 1.897157 0.071410 -0.035284 1012090.000000 0 0 1
21.972860 -15.986414 -9.265596 28.709289 -0.628979 1.899418 0.072540 -0.027481 376409.000000 0 0 1
21.633460 -15.762714 -7.723396 27.858941 -0.629681 1.851709 0.065488 -0.019558 -345450.000000 0 0 1
21.628160 -14.357314 -7.272596 26.959236 -0.586033 1.843943 0.072891 -0.009152 454139.000000 0 0 1
21.459860 -14.051914 -5.873496 26.315011 -0.579742 1.795892 0.051202 -0.007052 -212947.000000 0 0 1
22.424260 -14.698714 -4.848196 27.247103 -0.580220 1.749683 0.066258 -0.012303 -62979.300000 0 0 1
23.776560 -14.309714 -4.974996 28.192965 -0.541772 1.748188 0.097092 -0.013793 889802.000000 0 0 1
24.638560 -15.109514 -4.100296 29.191925 -0.550103 1.711722 0.092476 -0.023894 477950.000000 0 0 1
26.135660 -14.769514 -4.253196 30.319976 -0.514370 1.711538 0.099007 -0.022534 -62060.800000 0 0 1
26.608360 -13.590214 -3.599196 30.094068 -0.472210 1.690681 0.099481 -0.021010 634763.000000 0 0 1
27.991160 -13.423014 -3.899796 31.287230 -0.447150 1.695766 0.098980 -0.031931 402759.000000 0 0 1
28.667260 -12.155214 -3.315296 31.313770 -0.401032 1.676869 0.102369 -0.027076 -701413.000000 0 0 1
29.217260 -12.438714 -2.003996 31.818012 -0.402490 1.633821 0.102552 -0.033983 443352.000000 0 0 1
29.832160 -11.337114 -1.409696 31.944877 -0.363173 1.614940 0.098936 -0.026130 244878.000000 0 0 1
31.297860 -11.095314 -1.871896 33.259074 -0.340684 1.627108 0.091764 -0.018367 -502597.000000 0 0 1
31.326560 -10.561214 -3.195196 33.212977 -0.325166 1.667149 0.089429 -0.016301 -432069.000000 0 0 1
32.522460 -10.750614 -3.884396 34.472810 -0.319252 1.683716 0.094514 -0.021944 -635051.000000 0 0 1
32.469960 -10.372414 -5.376296 34.507823 -0.309201 1.727233 0.094805 -0.025706 -637127.000000 0 0 1
31.511460 -11.148614 -6.013296 33.962088 -0.340052 1.748794 0.071261 -0.031608 -88860.200000 0 0 1
31.670960 -11.096314 -7.412396 34.367448 -0.336998 1.788185 0.061458 -0.023830 388607.000000 0 0 1
30.539060 -11.844014 -8.193396 33.764576 -0.369973 1.815906 0.087143 -0.023398 382007.000000 0 0 1
30.597660 -13.268914 -8.110096 34.322799 -0.409181 1.809341 0.067980 -0.022030 369461.000000 0 0 1
29.316460 -13.880514 -8.215096 33.460593 -0.442201 1.818848 0.074886 -0.023486 251561.000000 0 0 1
29.277960 -15.400014 -8.201896 34.082700 -0.484225 1.813829 0.077772 -0.026345 -184648.000000 0 0 1
29.732660 -16.059414 -9.381396 35.070592 -0.495232 1.841594 0.084687 -0.034203 310746.000000 0 0 1
29.758260 -17.481414 -9.388296 35.767219 -0.531139 1.836391 0.072907 -0.030640 -92501.900000 0 0 1
29.880160 -17.992414 -10.825096 36.520318 -0.542001 1.871731 0.058374 -0.037123 -397430.000000 0 0 1
31.110260 -17.625814 -11.395196 37.528230 -0.515468 1.879311 0.061076 -0.031018 21945.700000 0 0 1
31.340960 -18.241914 -12.649296 38.406092 -0.527114 1.906418 0.051780 -0.014909 -85996.000000 0 0 1
30.757860 -17.453614 -13.856596 37.982625 -0.516143 1.944229 0.051147 -0.025135 269473.000000 0 0 1
31.323660 -16.114114 -14.004096 37.907137 -0.475132 1.949194 0.045884 -0.025695 728242.000000 0 0 1
30.573960 -15.400614 -15.003696 37.377223 -0.466617 1.983855 0.046853 -0.028434 -536134.000000 0 0 1
31.451260 -14.323714 -15.653296 37.939112 -0.427357 1.996092 0.042225 -0.019244 371108.000000 0 0 1
32.560960 -14.761214 -16.421296 39.341689 -0.425629 2.001381 0.025807 -0.018077 -22604.000000 0 0 1
33.713360 -15.099014 -15.711196 40.142403 -0.421077 1.972934 0.030039 -0.019981 -1570710.000000 0 0 1
34.688360 -15.632614 -16.748396 41.571261 -0.423402 1.985462 0.034723 -0.013333 -1806090.000000 0 0 1
35.954260 -15.807214 -16.246896 42.503393 -0.414212 1.963026 0.029017 -0.013510 -1610300.000000 0 0 1
-35.257664 -16.268314 -17.237196 42.483901 0.432304 1.988579 0.019129 -0.014030 1075780.000000 0 0 1
-33.711064 -15.929914 -16.930396 40.949192 0.441441 1.997035 0.015788 -0.010276 1521970.000000 0 0 1
-33.065364 -16.666414 -15.862896 40.282988 0.466878 1.975544 0.024270 -0.015749 156440.000000 0 0 1
-33.493364 -16.475314 -14.550496 40.061931 0.457145 1.942497 0.025897 -0.015949 -714762.000000 0 0 1
-32.657564 -17.382114 -13.609896 39.419331 0.489117 1.923312 0.042687 -0.015437 -210228.000000 0 0 1
-31.357564 -16.905614 -13.368796 38.050247 0.494455 1.929805 0.008674 -0.011712 -303743.000000 0 0 1
-30.926064 -17.472814 -12.156996 37.543484 0.514276 1.900551 0.005891 -0.003259 -73270.800000 0 0 1
-29.410464 -17.271114 -11.939096 36.135976 0.530987 1.907517 0.036620 -0.002955 -61777.300000 0 0 1
-29.136664 -15.957014 -11.533796 35.165323 0.501046 1.904969 0.043289 -0.019258 336851.000000 0 0 1
-27.926564 -15.797314 -10.799096 33.853635 0.514797 1.895464 0.032718 -0.018727 303352.000000 0 0 1
-28.167364 -15.774014 -9.273696 33.589006 0.510496 1.850523 0.045561 -0.018052 54095.400000 0 0 1
-28.504564 -17.072914 -8.744596 34.357860 0.539650 1.828143 0.039479 -0.013509 -145937.000000 0 0 1
-28.964464 -16.992614 -7.455296 34.398700 0.530561 1.789262 0.048591 -0.021626 -346097.000000 0 0 1
-29.336064 -18.367414 -6.809796 35.275202 0.559392 1.765064 0.034722 -0.023395 1104370.000000 0 0 1
-30.537064 -18.948214 -7.392896 36.690625 0.555356 1.773678 0.035583 -0.019681 734781.000000 0 0 1
-30.370864 -19.477314 -8.702396 37.114510 0.570246 1.807474 0.023505 -0.011902 -942750.000000 0 0 1
-31.518364 -20.213114 -9.358496 38.594801 0.570244 1.815718 0.035810 -0.007507 -1000970.000000 0 0 1
-32.612064 -19.401514 -9.669096 39.159378 0.536675 1.820293 0.044462 -0.004213 -766917.000000 0 0 1
-33.681564 -20.286014 -9.795596 40.520659 0.542100 1.814958 0.040299 -0.011219 -147850.000000 0 0 1
-35.024464 -19.770514 -10.381096 41.537374 0.513890 1.823396 0.034195 -0.016707 400646.000000 0 0 1
-34.994064 -19.570814 -11.780596 41.789756 0.509926 1.856572 0.032159 -0.015699 886371.000000 0 0 1
35.826460 -18.842114 -12.130096 42.257540 -0.484174 1.861944 0.047839 -0.024164 992627.000000 0 0 1
35.602160 -18.806514 -13.613896 42.503375 -0.485984 1.896844 0.044828 -0.022713 -89384.800000 0 0 1
35.059960 -20.006714 -14.139896 42.771557 -0.518554 1.907726 0.025235 -0.019082 103407.000000 0 0 1
34.502460 -19.866614 -15.437196 42.701395 -0.522437 1.940689 0.022060 -0.017212 -101285.000000 0 0 1
33.292060 -20.782514 -15.666796 42.257812 -0.558059 1.950605 0.033397 -0.018940 -566946.000000 0 0 1
32.206660 -20.426914 -14.792396 40.906512 -0.565220 1.940796 0.037381 -0.020837 284348.000000 0 0 1
31.079260 -21.260014 -15.031796 40.544586 -0.599946 1.950610 0.038140 -0.020149 288226.000000 0 0 1
30.211760 -20.794414 -16.222696 40.104039 -0.602823 1.987245 0.033919 -0.021246 -1106620.000000 0 0 1
29.557960 -19.556114 -15.982696 38.878801 -0.584500 1.994446 0.024082 -0.014994 -105320.000000 0 0 1
28.703360 -19.407314 -17.077696 38.628673 -0.594528 2.028734 0.025495 -0.016152 -533428.000000 0 0 1
27.926760 -18.112614 -17.026296 37.388039 -0.575373 2.043611 0.035210 -0.018681 -417834.000000 0 0 1
26.883160 -17.997914 -16.104396 36.138356 -0.589952 2.032676 0.044533 -0.024959 -130432.000000 0 0 1
26.410060 -16.699214 -16.005596 35.107465 -0.563835 2.044183 0.036869 -0.019119 -143169.000000 0 0 1
25.022060 -16.479114 -15.262196 33.624386 -0.582386 2.041937 0.043479 -0.032463 363364.000000 0 0 1
23.956660 -16.918514 -16.011396 33.414405 -0.614884 2.070513 0.053584 -0.032571 -524514.000000 0 0 1
23.505560 -16.016714 -16.986696 33.129961 -0.598134 2.109157 0.046699 -0.032113 -874111.000000 0 0 1
22.511060 -16.623914 -18.020696 33.284348 -0.636086 2.142917 0.041765 -0.026960 -244074.000000 0 0 1
21.242460 -16.853314 -17.497696 32.271437 -0.670690 2.143854 0.056299 -0.022207 -501509.000000 0 0 1
20.365560 -17.326814 -18.523596 32.528420 -0.704953 2.176644 0.050168 -0.017176 1317700.000000 0 0 1
18.892860 -17.719814 -18.129896 31.616848 -0.753370 2.181477 0.052983 -0.014836 1236650.000000 0 0 1
18.031160 -16.610714 -17.855096 30.328914 -0.744417 2.200265 0.059163 -0.021780 443901.000000 0 0 1
16.708260 -17.074614 -17.629996 29.690489 -0.796242 2.206561 0.064409 -0.013165 89628.400000 0 0 1
15.680060 -15.966014 -17.421996 28.360251 -0.794434 2.232308 0.064272 -0.005812 -471757.000000 0 0 1
15.234660 -15.320114 -18.579996 28.495912 -0.788195 2.281046 0.058811 0.005198 -118564.000000 0 0 1
14.032460 -14.667814 -18.277196 27.315025 -0.807532 2.303829 0.059311 0.004525 427126.000000 0 0 1
13.111560 -14.185714 -19.455396 27.416417 -0.824728 2.359763 0.050596 0.007525 760922.000000 0 0 1
13.666660 -13.008814 -19.998096 27.494194 -0.760742 2.385259 0.045918 0.003450 13376.700000 0 0 1
12.771360 -12.581514 -20.977396 27.594443 -0.777910 2.434423 0.056189 -0.001352 -23819.300000 0 0 1
13.021560 -11.192514 -21.588996 27.584745 -0.710005 2.469696 0.044759 0.003223 -1266250.000000 0 0 1
14.113760 -11.134114 -22.421896 28.738618 -0.667926 2.465783 0.036264 0.003621 -933148.000000 0 0 1
14.339760 -9.739514 -22.675696 28.542495 -0.596627 2.488904 0.024532 0.004536 539641.000000 0 0 1
15.636860 -9.562514 -23.526796 29.823870 -0.548859 2.479745 0.025806 0.003035 517544.000000 0 0 1
15.420360 -9.921114 -24.869696 30.898508 -0.571706 2.506275 0.035828 0.002181 831776.000000 0 0 1
16.627860 -9.816014 -25.652186 32.107235 -0.533283 2.496349 0.048934 -0.009462 419433.000000 0 0 1
22.512060 5.069586 -7.071996 24.135175 0.221499 1.868176 0.088792 0.028689 -324333.000000 0 1 0
22.493960 6.450286 -7.289996 24.509762 0.279263 1.872798 0.061875 0.020772 480394.000000 0 1 0
21.915760 7.029086 -6.131796 23.818218 0.310367 1.831170 0.052196 0.018741 -319309.000000 0 1 0
21.653260 8.556886 -6.236296 24.103430 0.376342 1.832504 0.055297 0.013649 9095.190000 0 1 0
20.455160 8.832586 -6.985396 23.350030 0.407618 1.874609 0.052857 0.004464 1192040.000000 0 1 0
20.059060 10.216186 -7.131096 23.613320 0.471064 1.877581 0.054183 0.005812 -80246.700000 0 1 0
19.560560 10.838286 -5.794296 23.101035 0.505977 1.824328 0.067664 -0.002818 -1337070.000000 0 1 0
20.516560 11.061286 -4.844696 23.806561 0.494467 1.775730 0.071133 0.000403 -669288.000000 0 1 0
20.270160 12.229286 -4.019996 24.012396 0.542853 1.739002 0.094796 -0.003430 478908.000000 0 1 0
21.368460 12.591286 -2.954196 24.977566 0.532475 1.689348 0.085746 -0.009476 580604.000000 0 1 0
22.657860 12.994686 -3.428696 26.343812 0.520720 1.701318 0.091238 -0.017537 1195400.000000 0 0 1
23.480960 13.431486 -2.329096 27.151150 0.519589 1.656684 0.095385 -0.018520 229401.000000 0 0 1
24.311960 12.335086 -1.559996 27.306763 0.469524 1.627956 0.072447 -0.015937 256918.000000 0 0 1
25.456060 11.978486 -2.374296 28.233533 0.439816 1.654991 0.049879 -0.005750 803404.000000 0 0 1
26.257860 10.974586 -1.815496 28.516885 0.395888 1.634503 0.072084 -0.012383 686722.000000 0 0 1
27.696160 10.802986 -2.428896 29.827526 0.371903 1.652318 0.055486 -0.006058 660664.000000 0 0 1
28.556260 11.866386 -2.149596 30.998255 0.393834 1.640198 0.049777 -0.008866 -1481490.000000 0 0 1
29.856060 11.592286 -2.428296 32.119496 0.370356 1.646470 0.049110 -0.003680 -1610490.000000 0 0 1
30.789160 12.740886 -2.021696 33.382477 0.392355 1.631395 0.024135 0.003564 -896144.000000 0 0 1
30.924160 12.853286 -0.583696 33.494049 0.393915 1.588224 0.033348 -0.000139 167738.000000 0 0 1
31.649260 13.958386 -0.124296 34.590860 0.415372 1.574390 0.021007 -0.003791 -245656.000000 0 0 1
33.174560 13.884386 -0.364596 35.964712 0.396374 1.580934 0.027055 -0.010877 -395947.000000 0 0 1
33.825960 15.146186 -0.182796 37.062594 0.420996 1.575728 0.028994 -0.005066 403057.000000 0 0 1
34.705860 15.491586 -1.232496 38.026372 0.419829 1.603214 0.035794 -0.002869 -38408.200000 0 0 1
33.943060 16.423186 -2.228896 37.773275 0.450640 1.629838 0.012057 0.013818 617261.000000 0 0 1
32.832360 15.795886 -2.856696 36.546334 0.448419 1.649043 0.014758 0.014309 38489.000000 0 0 1
32.090660 16.676586 -3.652896 36.349176 0.479260 1.671461 0.009521 0.019650 790382.000000 0 0 1
30.732360 16.129086 -4.236896 34.965363 0.483309 1.692269 0.013195 0.005902 361158.000000 0 0 1
30.952960 15.060286 -5.106196 34.799011 0.452833 1.718062 0.011469 0.003740 1128390.000000 0 0 1
29.807360 14.749486 -5.946796 33.784470 0.459501 1.747740 0.020308 -0.008558 1191440.000000 0 0 1
28.568460 14.050586 -5.322396 32.278534 0.457084 1.736442 0.025071 -0.008609 350725.000000 0 0 1
27.467960 13.856486 -6.212296 31.386042 0.467209 1.770044 0.035468 -0.012136 925051.000000 0 0 1
26.448960 13.057786 -5.604896 30.024458 0.458593 1.758576 0.039834 -0.006800 -481728.000000 0 0 1
25.174060 12.879886 -6.364496 28.985023 0.472911 1.792179 0.038976 -0.006923 -941922.000000 0 0 1
25.406460 12.054286 -7.512096 29.107140 0.443006 1.831835 0.039546 -0.001931 534529.000000 0 0 1
24.262260 11.846686 -8.325996 28.254618 0.454225 1.869914 0.051364 -0.000578 102870.000000 0 0 1
23.960460 12.900886 -9.467096 28.812539 0.493912 1.905591 0.051809 0.003701 -274851.000000 0 0 1
23.424760 14.048486 -8.890496 28.724906 0.540220 1.885469 0.058597 -0.008675 -173485.000000 0 0 1
23.198160 15.074286 -9.854696 29.368414 0.576238 1.912990 0.048137 -0.007805 -921921.000000 0 0 1
22.207660 16.104886 -9.280796 28.959984 0.627436 1.897022 0.051748 -0.008620 -170300.000000 0 0 1
20.883360 15.645586 -9.144496 27.649971 0.642982 1.907866 0.060062 -0.007174 42188.700000 0 0 1
20.694060 14.911686 -7.924596 26.709581 0.624404 1.872026 0.069433 -0.012678 -1055280.000000 0 0 1
19.274560 14.357286 -7.743396 25.250752 0.640218 1.882478 0.083515 -0.017469 -435837.000000 0 0 1
18.374660 15.310586 -7.290496 25.003870 0.694686 1.866669 0.097872 -0.025739 54419.800000 0 0 1
17.020860 14.918486 -7.469796 23.834193 0.719669 1.889575 0.098032 -0.028890 267867.000000 0 1 0
16.115360 15.202686 -6.267796 23.024156 0.756264 1.846503 0.094912 -0.017479 -246179.000000 0 1 0
16.379660 14.373486 -5.192996 22.402177 0.720256 1.804732 0.079289 -0.019765 281242.000000 0 1 0
15.874860 14.912986 -3.999496 22.145074 0.754166 1.752397 0.071418 -0.010665 -300834.000000 0 1 0
15.697760 13.791386 -2.973296 21.105982 0.720841 1.712141 0.064553 -0.006610 99670.000000 0 1 0
16.940460 13.247686 -2.482096 21.648121 0.663678 1.685705 0.068452 -0.005779 1146490.000000 0 1 0
16.769860 12.396386 -1.383296 20.900050 0.636557 1.637031 0.059339 -0.006480 3431.050000 0 1 0
16.790560 13.135786 -0.035596 21.318373 0.663874 1.572466 0.061739 -0.007364 -135162.000000 0 1 0
15.678960 14.018386 -0.051696 21.032061 0.729540 1.573254 0.055851 -0.013466 441322.000000 0 1 0
15.737360 14.943886 1.028804 21.726542 0.759542 1.523426 0.048344 -0.005282 -196184.000000 0 1 0
14.423060 15.717686 1.265804 21.369898 0.828324 1.511529 0.038492 -0.003352 -251886.000000 0 1 0
14.422060 16.913486 0.522304 22.233637 0.864739 1.547303 0.049523 -0.003125 979532.000000 0 1 0
13.411360 17.803786 1.088504 22.316456 0.925195 1.522001 0.030999 -0.005024 677871.000000 0 1 0
13.356660 19.247886 0.471804 23.432970 0.964157 1.550661 0.022702 -0.001182 62838.400000 0 1 0
12.899460 19.248186 -0.928796 23.189467 0.980376 1.610860 0.030761 -0.010653 149977.000000 0 1 0
12.606060 20.585286 -1.337696 24.175528 1.021322 1.626157 0.025280 -0.007418 381408.000000 0 1 0
11.077960 20.885586 -1.328296 23.678962 1.083116 1.626922 0.023504 -0.008199 422528.000000 0 1 0
10.563960 20.733286 -0.002596 23.269430 1.099564 1.570908 0.010929 -0.008623 -231462.000000 0 1 0
9.149960 20.831786 -0.036596 22.752723 1.156934 1.572405 0.011467 0.000982 370872.000000 0 1 0
8.602960 20.710986 1.405504 22.470676 1.177101 1.508207 0.007332 0.001416 -56527.200000 0 1 0
8.324160 21.936886 2.025004 23.550355 1.208122 1.484704 0.001404 0.007040 -142653.000000 0 1 0
7.593260 21.621386 3.157904 23.132537 1.233060 1.433855 0.002004 0.003305 -282381.000000 0 1 0
7.191160 22.964686 3.883104 24.375563 1.267329 1.410812 -0.004447 0.014389 -80414.300000 0 1 0
7.881760 23.318386 5.046604 25.126430 1.244846 1.368572 -0.004385 0.011836 35500.300000 0 0 1
7.499860 24.624186 5.495604 26.321096 1.275150 1.360458 -0.009762 0.013910 -34223.400000 0 0 1
7.821160 24.887986 7.044104 27.022246 1.266314 1.307072 -0.005121 0.010621 11100.900000 0 0 1
7.389860 23.862086 7.916604 26.204614 1.270473 1.263894 0.016105 -0.014860 202208.000000 0 0 1
7.873160 24.121586 9.233504 27.001762 1.255303 1.221795 0.017451 -0.025112 215712.000000 0 0 1
7.161560 23.198186 10.308304 26.376218 1.271366 1.169276 0.022681 -0.024251 -552563.000000 0 0 1
5.864860 23.458286 10.702404 26.442942 1.325806 1.154107 0.024577 -0.021437 -797422.000000 0 0 1
5.415460 22.324786 11.419604 25.654056 1.332817 1.109468 0.029632 -0.021082 13305.100000 0 0 1
4.069560 22.558286 12.135404 25.936569 1.392314 1.083897 0.035189 -0.026990 -264350.000000 0 0 1
2.978460 22.817586 11.301204 25.636510 1.440997 1.114279 0.022592 -0.027454 -353808.000000 0 0 1
1.847560 22.987786 12.143604 26.063747 1.490597 1.086123 0.027064 -0.029788 324310.000000 0 0 1
0.559460 23.411386 11.376804 26.035315 1.546904 1.118563 0.017778 -0.008920 165203.000000 0 0 1
0.692860 24.708186 10.767204 26.961216 1.542762 1.159979 0.017747 -0.007889 143029.000000 0 0 1
0.094360 24.744886 9.460004 26.491696 1.566983 1.205642 0.017792 -0.019197 109369.000000 0 0 1
-1.262440 25.482086 9.346404 27.171414 -1.521295 1.219645 0.025648 -0.022182 -58558.700000 0 0 1
-2.224340 24.777386 10.082204 26.842455 -1.481263 1.185745 0.024865 -0.021310 -373988.000000 0 0 1
-3.473540 25.446786 10.037704 27.574624 -1.435133 1.198216 0.037807 -0.024111 -307137.000000 0 0 1
-4.631440 24.576786 10.573304 27.152595 -1.384533 1.170813 0.043582 -0.026154 -91601.300000 0 0 1
-4.901340 24.699986 11.978304 27.885340 -1.374906 1.126796 0.035919 -0.016686 241381.000000 0 0 1
-5.689140 25.863786 12.303404 29.200607 -1.354279 1.135873 0.037372 -0.010700 -131486.000000 0 0 1
-6.175040 25.903186 13.732904 29.961622 -1.336775 1.094659 0.021965 -0.000209 -261363.000000 0 0 1
-7.010440 24.821086 14.058904 29.374910 -1.295527 1.071734 0.020815 -0.006925 -237977.000000 0 0 1
-7.462640 25.002986 15.385104 30.290951 -1.280744 1.038039 0.006869 0.011056 -156724.000000 0 0 1
-8.669240 24.107186 15.717304 30.055711 -1.225584 1.020501 0.011039 -0.000917 -40613.100000 0 0 1
-9.836540 24.410386 14.969104 30.277030 -1.187736 1.053647 0.005627 0.009732 -30689.000000 0 0 1
-10.828640 23.472486 15.331804 30.054638 -1.138558 1.035459 0.015027 0.000510 -336326.000000 0 0 1
-12.295040 23.824886 15.093904 30.767176 -1.094384 1.058036 0.022249 -0.004527 -420487.000000 0 0 1
-12.646640 24.779486 16.061804 32.123854 -1.098889 1.047202 0.020228 0.000035 -190633.000000 0 0 1
-13.817240 25.465886 15.689804 32.948405 -1.073669 1.074476 0.007898 0.005201 -315755.000000 0 0 1
-14.234440 26.564386 16.662804 34.437406 -1.078884 1.065739 0.021276 0.003708 340463.000000 0 0 1
-15.224440 26.111586 17.612104 34.982634 -1.042931 1.043206 0.021897 -0.005425 485468.000000 0 0 1
-15.667040 27.128386 18.490904 36.377452 -1.047074 1.037579 0.034832 0.001000 -399052.000000 0 0 1
-16.951540 26.799286 19.258804 37.100646 -1.006795 1.025003 0.038078 -0.012658 693944.000000 0 0 1
-18.153940 26.785486 18.461304 37.253826 -0.975158 1.052323 0.037795 -0.010490 104391.000000 0 0 1
-19.262340 26.308286 19.145704 37.811660 -0.938799 1.039857 0.041476 -0.009162 -586322.000000 0 0 1
-20.528040 26.433586 18.287804 38.138939 -0.910494 1.070706 0.052997 -0.015760 -305942.000000 0 0 1
-21.083340 27.748286 18.343204 39.382074 -0.921048 1.086286 0.049092 -0.016608 333207.000000 0 0 1
-21.952140 27.983486 17.246804 39.527512 -0.905598 1.119287 0.060129 -0.023602 329831.000000 0 0 1
-22.886640 29.229786 17.399204 40.998914 -0.906514 1.132517 0.059945 -0.031805 249548.000000 0 0 1
-24.158340 29.099086 17.984004 41.878474 -0.877904 1.126931 0.058941 -0.028714 116747.000000 0 0 1
-25.079160 30.004786 17.378904 42.793431 -0.874581 1.152602 0.053882 -0.021035 -852225.000000 0 0 1
-26.430860 30.014286 18.023704 43.866863 -0.848798 1.147385 0.055106 -0.019444 -1260400.000000 0 0 1
-27.223110 28.891786 17.762104 43.489371 -0.815126 1.150069 0.060840 -0.017008 -932200.000000 0 0 1
-28.440160 29.060886 18.392304 44.627958 -0.796193 1.146011 0.076377 -0.023543 -812243.000000 0 0 1
-28.848300 27.735486 19.142104 44.361039 -0.765734 1.124634 0.073263 -0.020693 -216108.000000 0 0 1
-29.119400 26.643786 18.256104 43.486965 -0.741032 1.137564 0.066423 -0.019274 253611.000000 0 0 1
-29.615250 25.526286 18.986804 43.464388 -0.711380 1.118718 0.045833 -0.014071 -89171.200000 0 0 1
-29.611100 24.156586 18.250104 42.348839 -0.684298 1.125254 0.050825 -0.009524 -70414.200000 0 0 1
-30.662250 24.073786 17.311404 42.654489 -0.665607 1.152886 0.063784 -0.014513 54853.700000 0 0 1
-30.485600 22.999086 16.427204 41.571418 -0.646327 1.164558 0.061139 -0.019483 -156968.000000 0 0 1
-31.046230 21.581286 16.860104 41.399075 -0.607453 1.151347 0.048668 -0.013933 1135690.000000 0 0 1
-32.459550 21.393786 16.641304 42.287699 -0.582739 1.166333 0.041481 -0.010360 803670.000000 0 0 1
-32.756640 19.983586 16.560804 41.792361 -0.547785 1.163352 0.022643 -0.000004 1040930.000000 0 0 1
-34.178009 19.693786 15.935204 42.543063 -0.522745 1.186867 0.008858 -0.009346 858073.000000 0 0 1
-34.192187 20.074786 14.581604 42.246016 -0.530892 1.218388 0.011604 -0.010054 -595856.000000 0 0 1
-35.419314 19.739586 14.025504 42.905639 -0.508439 1.237783 0.025599 -0.008628 -373532.000000 0 0 1
-35.547798 20.125286 12.581604 42.743068 -0.515156 1.272017 0.029681 -0.009131 -151615.000000 0 0 1
-35.754850 21.498286 12.428504 43.532210 -0.541352 1.281267 0.019507 -0.018758 -25000.400000 0 0 1
-35.650397 22.010286 11.098704 43.342643 -0.553110 1.311843 0.033147 -0.026888 -270657.000000 0 0 1
-34.347362 21.767286 10.285104 41.944480 -0.564859 1.323063 0.043755 -0.023505 -143036.000000 0 0 1
-34.297254 20.513086 9.645604 41.111142 -0.539019 1.333966 0.048127 -0.007624 -777700.000000 0 0 1
-33.098490 20.344086 8.982304 39.875728 -0.551124 1.343589 0.078458 -0.005100 -614341.000000 0 0 1
-32.272810 19.171986 9.581904 38.741608 -0.536040 1.320874 0.059542 -0.011358 -150434.000000 0 0 1
-31.868610 19.335186 10.917004 38.841199 -0.545343 1.285890 0.062987 -0.015693 34331.200000 0 0 1
-31.480930 18.199386 11.584304 38.163631 -0.524167 1.262387 0.062926 -0.012048 8561.590000 0 0 1
-31.043760 18.469786 13.109004 38.427777 -0.536705 1.222674 0.037626 -0.007969 -483265.000000 0 0 1
-29.912350 19.251486 13.235804 37.954643 -0.571861 1.214584 0.058795 -0.008930 -869219.000000 0 0 1
-30.105130 20.634686 13.120504 38.784749 -0.600874 1.225697 0.056348 -0.004740 -108336.000000 0 0 1
-28.854180 21.470686 13.451704 38.399250 -0.639721 1.212893 0.074022 -0.016974 257992.000000 0 0 1
-28.318320 21.372986 14.784004 38.435642 -0.646528 1.175975 0.067851 -0.009763 1189260.000000 0 0 1
-27.095340 22.135686 15.007004 38.070411 -0.684994 1.165609 0.081987 -0.016418 703996.000000 0 0 1
-26.451010 21.946586 16.366004 38.067764 -0.692594 1.126395 0.079659 -0.013820 -463020.000000 0 0 1
-25.694710 20.783186 16.507604 36.941304 -0.680114 1.107544 0.094369 -0.014421 101030.000000 0 0 1
-25.183190 20.661286 17.869104 37.153555 -0.687080 1.069055 0.079080 -0.008723 306583.000000 0 0 1
-24.282040 19.429186 18.143904 36.004333 -0.674830 1.042646 0.083590 -0.014992 334148.000000 0 0 1
-23.774340 19.395886 19.493304 36.351183 -0.684321 1.004809 0.065845 -0.017997 638455.000000 0 0 1
-22.597740 18.594686 19.619004 35.232450 -0.688523 0.980214 0.059376 -0.014043 201877.000000 0 0 1
-22.094040 18.650986 21.046204 35.762391 -0.701096 0.941593 0.061258 -0.022331 -135619.000000 0 0 1
-22.997640 18.072786 21.992704 36.595028 -0.666056 0.926076 0.072396 -0.016342 467482.000000 0 0 1
-22.784640 18.491486 23.334404 37.490923 -0.681760 0.898989 0.089486 -0.026124 -204971.000000 0 0 1
-23.478440 17.536886 24.290804 38.063403 -0.641537 0.878681 0.065856 -0.016474 -126320.000000 0 0 1
-22.835440 16.289086 24.408604 37.182948 -0.619613 0.854698 0.079129 -0.021472 358898.000000 0 0 1
-23.675340 15.328286 25.060304 37.729258 -0.574571 0.844354 0.081802 -0.022786 433564.000000 0 0 1
20.244760 24.844586 33.584983 46.422568 0.887062 0.761992 0.039193 -0.013007 39649.200000 0 0 1
21.286960 23.940786 33.233060 46.159855 0.844008 0.767058 0.033741 -0.028965 170778.000000 0 0 1
21.166960 22.604986 33.781657 45.828222 0.818239 0.741973 0.036773 -0.026648 364710.000000 0 0 1
20.054560 21.685286 33.156054 44.404515 0.824447 0.727736 0.040592 -0.025269 354957.000000 0 0 1
20.453260 21.257286 31.884452 43.437614 0.804672 0.746561 0.043681 -0.027065 950572.000000 0 0 1
19.417960 20.503686 31.183652 42.069923 0.812588 0.735890 0.058065 -0.021704 659293.000000 0 0 1
19.894160 19.904186 29.808432 40.993863 0.785650 0.756644 0.063084 -0.014428 372609.000000 0 0 1
21.042960 19.045286 29.851662 41.190421 0.735607 0.760163 0.047485 -0.015188 334667.000000 0 0 1
21.324260 18.518886 28.617302 40.207253 0.715104 0.778817 0.054572 -0.013562 -321696.000000 0 0 1
22.430360 17.462586 28.552532 40.290322 0.661508 0.783185 0.038377 -0.010843 299954.000000 0 0 1
23.758060 17.969786 28.662902 41.339092 0.647563 0.804654 0.053187 -0.014392 -124717.000000 0 0 1
24.638960 16.984686 29.087262 41.732801 0.603538 0.799608 0.049609 -0.007898 -15926.600000 0 0 1
25.989960 17.603986 29.542932 43.106417 0.595354 0.815714 0.049595 -0.019975 -136366.000000 0 0 1
26.838560 17.962086 28.513122 43.080656 0.589799 0.847507 0.046360 -0.011458 354641.000000 0 0 1
28.183660 18.187286 28.959442 44.314166 0.573073 0.858593 0.055839 -0.012591 826354.000000 0 0 1
29.243660 18.307986 27.846152 44.337142 0.559354 0.891745 0.051736 0.003729 -14111.500000 0 0 1
29.307160 19.454286 27.025332 44.359299 0.586020 0.915698 0.059311 -0.004069 -134431.000000 0 0 1
30.437360 19.329386 26.211922 44.577157 0.565797 0.942197 0.053192 -0.015896 -403661.000000 0 0 1
30.677160 20.580986 25.316902 44.784045 0.590920 0.969986 0.046281 -0.011998 -585521.000000 0 0 1
29.719660 20.844786 24.354632 43.713972 0.611652 0.979863 0.054952 -0.018652 -375258.000000 0 0 1
30.099160 21.804986 23.340852 43.888634 0.626940 1.010048 0.052711 -0.025818 -95258.900000 0 0 1
30.885160 21.233486 22.136652 43.529133 0.602286 1.037299 0.040438 -0.011848 -102337.000000 0 0 1
30.068360 20.334986 21.389452 42.132251 0.594637 1.038313 0.045938 0.000602 91867.400000 0 0 1
30.580260 19.835586 20.185652 41.666093 0.575419 1.065048 0.038235 -0.005687 -710989.000000 0 0 1
31.573660 18.670386 20.205352 41.877626 0.534019 1.067306 0.040281 -0.008677 -173401.000000 0 0 1
30.995860 17.414186 20.451752 41.015501 0.511875 1.048773 0.045610 -0.006813 5591.210000 0 0 1
31.895260 16.410886 20.088252 41.111588 0.475199 1.060280 0.030761 0.000534 -424628.000000 0 0 1
31.231860 14.968786 20.018252 40.002800 0.446934 1.046711 0.028304 0.007289 457434.000000 0 0 1
30.734460 14.360986 21.219752 40.014033 0.437114 1.011833 0.018634 -0.006949 1253180.000000 0 0 1
29.621160 15.061286 21.843352 39.766663 0.470396 0.989284 0.028904 0.000200 351489.000000 0 0 1
29.101860 14.512186 23.200052 39.947017 0.462582 0.951121 0.013716 -0.002116 136234.000000 0 0 1
28.406160 13.291886 23.060252 38.927617 0.437658 0.936777 0.008476 -0.001715 -170035.000000 0 0 1
27.829960 12.912086 24.243722 39.102259 0.434405 0.902043 0.010480 -0.007794 -106165.000000 0 0 1
27.159860 11.488986 24.288562 38.204568 0.400187 0.881816 0.017550 -0.009641 42566.700000 0 0 1
26.073160 11.389386 23.405252 36.842009 0.411843 0.882416 0.034294 -0.004092 -88426.300000 0 0 1
25.795560 10.064886 22.905652 35.935800 0.372011 0.879671 0.035402 -0.001441 -306039.000000 0 0 1
24.558760 9.965586 22.004052 34.447408 0.385484 0.877895 0.044313 -0.012058 -239157.000000 0 0 1
23.325460 9.890886 22.677352 34.002485 0.401056 0.840712 0.042417 -0.014267 -510437.000000 0 0 1
22.384760 9.332386 21.839352 32.636302 0.394997 0.837700 0.045739 -0.002876 -486625.000000 0 0 1
20.916760 9.334886 22.317952 31.980336 0.419762 0.798384 0.036999 -0.012853 64222.900000 0 0 1
20.520660 8.384486 23.291952 32.154504 0.387887 0.760667 0.039934 -0.006756 691660.000000 0 0 1
19.120860 8.577886 23.519662 31.501776 0.421701 0.727839 0.053688 -0.014340 524749.000000 0 0 1
18.563260 7.888486 24.765302 31.939678 0.401830 0.683484 0.046638 -0.006886 -296085.000000 0 0 1
18.594660 6.471086 24.629422 31.531647 0.334899 0.674368 0.055955 -0.005065 263804.000000 0 0 1
18.145960 5.830586 25.822342 32.094625 0.310896 0.635847 0.054291 -0.008932 43931.200000 0 0 1
18.412860 4.328286 25.711782 31.919637 0.230877 0.634250 0.051971 -0.010092 1083880.000000 0 0 1
19.806960 3.996686 25.865462 32.822421 0.199108 0.663174 0.054236 -0.008461 815712.000000 0 0 1
19.998060 2.621086 25.707982 32.675569 0.130324 0.665247 0.063410 -0.009796 -255251.000000 0 0 1
21.449760 2.232286 25.402432 33.322048 0.103697 0.703889 0.065411 -0.012591 15080.200000 0 0 1
22.366960 2.550386 26.451792 34.734459 0.113534 0.705105 0.070704 -0.024875 428707.000000 0 0 1
23.684660 2.609586 25.924872 35.211817 0.109738 0.743277 0.074004 -0.020143 276167.000000 0 0 1
24.796460 2.843586 26.962222 36.741146 0.114178 0.746835 0.054785 -0.026101 -478499.000000 0 0 1
24.945260 1.758186 27.822402 37.409133 0.070365 0.732159 0.054922 -0.030805 -20570.000000 0 0 1
25.760660 1.951886 28.939872 38.793526 0.075626 0.728765 0.045840 -0.020093 841997.000000 0 0 1
27.298760 2.246986 28.886262 39.808132 0.082126 0.758836 0.049807 -0.024985 9687.590000 0 0 1
27.566960 3.513386 28.367022 39.711070 0.126766 0.775122 0.050319 -0.002613 398000.000000 0 0 1
28.938660 3.837186 28.135512 40.543521 0.131828 0.803824 0.048975 0.000249 502195.000000 0 0 1
29.670760 3.092986 26.997662 40.234243 0.103868 0.835223 0.052204 0.000882 -586215.000000 0 0 1
29.362360 3.522086 25.707202 39.184353 0.119382 0.855213 0.037242 0.007573 -88828.900000 0 0 1
29.515960 2.372986 24.858742 38.662385 0.080224 0.872427 0.046214 0.023322 -113601.000000 0 0 1
28.967060 2.547386 23.418752 37.336546 0.087715 0.892800 0.052895 0.012221 101574.000000 0 0 1
29.705960 3.432686 22.577152 37.469390 0.115045 0.924105 0.046714 0.008844 180120.000000 0 0 1
31.008260 3.017786 22.174952 38.240655 0.097016 0.952216 0.033561 0.010605 122537.000000 0 0 1
31.761460 4.143186 21.538652 38.598832 0.129715 0.978807 0.027065 0.005169 -905607.000000 0 0 1
31.168860 4.520686 20.353952 37.499570 0.144034 0.997055 0.030117 -0.001966 -271275.000000 0 0 1
31.524860 5.794686 19.971152 37.765620 0.181784 1.013589 0.030386 0.009021 -526381.000000 0 0 1
32.952960 6.193486 19.566252 38.821322 0.185782 1.042563 0.021875 0.008944 240492.000000 0 0 1
33.958060 6.130286 20.615652 40.196210 0.178602 1.032265 0.022311 0.005472 908315.000000 0 0 1
34.001560 7.318786 21.409352 40.841536 0.212014 1.019015 0.032237 -0.001596 -603953.000000 0 0 1
34.819660 7.086786 22.668852 42.148643 0.200786 1.002934 0.039911 -0.004659 -223045.000000 0 0 1
34.161160 6.256086 23.585722 41.981064 0.181127 0.974214 0.036655 0.008493 78137.400000 0 0 1
34.952760 6.098086 24.743092 43.256244 0.172728 0.961840 0.036933 0.006603 16384.300000 0 0 1
34.304460 5.105086 25.675692 43.152045 0.147733 0.933524 0.035382 0.008387 57530.900000 0 0 1
34.364760 3.742086 25.316082 42.846749 0.108466 0.938682 0.034129 0.004180 -50728.600000 0 0 1
33.626860 2.971186 26.243042 42.758518 0.088129 0.909995 0.036088 0.011105 45380.500000 0 0 1
33.687260 1.428586 26.026202 42.593844 0.042382 0.913433 0.030242 0.015728 581318.000000 0 0 1
32.766160 0.955186 25.002622 41.226990 0.029143 0.919192 0.038220 0.007847 496004.000000 0 0 1
32.970960 -0.383514 24.677852 41.185284 -0.011631 0.928306 0.038930 0.001359 -207396.000000 0 0 1
32.003960 -0.894014 23.568092 39.755599 -0.027927 0.936235 0.047729 0.014126 845070.000000 0 0 1
30.672760 -0.993314 24.107892 39.025573 -0.032373 0.904923 0.047433 0.008674 443222.000000 0 0 1
29.870860 -1.650914 23.134452 37.817941 -0.055212 0.912548 0.059805 0.000742 -74201.300000 0 0 1
28.368660 -1.783214 23.407152 36.821943 -0.062776 0.881901 0.065544 -0.000327 131237.000000 0 0 1
27.638460 -0.577414 23.151852 36.058648 -0.020889 0.873613 0.055986 0.006668 768382.000000 0 0 1
26.236460 -0.744814 23.414552 35.173112 -0.028381 0.842372 0.059123 -0.001881 713776.000000 0 0 1
25.409260 0.497386 23.126652 34.361605 0.019572 0.832488 0.068551 0.002120 -343460.000000 0 0 1
25.317560 0.951286 21.766452 33.401530 0.037556 0.861025 0.062184 -0.007127 -100935.000000 0 0 1
24.554360 2.113686 21.780652 32.890440 0.085870 0.847021 0.056582 -0.001816 -198528.000000 0 0 1
24.404460 3.079586 20.595552 32.081744 0.125526 0.873730 0.046089 -0.004486 -168963.000000 0 0 1
23.684160 2.670186 19.453752 30.765529 0.112267 0.886248 0.056555 -0.005397 229050.000000 0 0 1
23.387660 3.816086 18.677652 30.172833 0.161741 0.903299 0.054389 -0.004749 -26547.200000 0 0 1
23.171760 3.477086 17.174652 29.051493 0.148946 0.938276 0.063648 -0.010959 421359.000000 0 0 1
24.407560 3.291286 16.477552 29.632267 0.134038 0.981149 0.067199 -0.015480 575089.000000 0 0 1
24.240560 3.282986 15.031452 28.711100 0.134615 1.019794 0.062379 -0.023170 -240889.000000 0 0 1
23.629260 1.979486 14.414052 27.749328 0.083578 1.024603 0.073009 -0.008282 -1218330.000000 0 0 1
22.270660 1.893886 14.598752 26.696304 0.084835 0.992205 0.067185 -0.004388 -841494.000000 0 0 1
21.817360 0.675986 13.971952 25.916589 0.030974 1.001414 0.074122 -0.007457 -607503.000000 0 0 1
20.301960 0.427486 13.996052 24.662558 0.021053 0.967327 0.070528 -0.025618 -175600.000000 0 1 0
19.464160 1.183786 13.108552 23.496574 0.060744 0.978953 0.077631 -0.020952 786859.000000 0 1 0
19.646860 1.002986 11.711752 22.894764 0.051006 1.033812 0.093856 -0.014302 -1192170.000000 0 1 0
19.320860 -0.373614 11.101152 22.286112 -0.019335 1.049367 0.086700 -0.013861 138481.000000 0 1 0
20.389060 -1.289214 11.291052 23.342315 -0.063147 1.065901 0.078110 -0.022742 972577.000000 0 1 0
21.607960 -1.058714 10.595952 24.089396 -0.048957 1.115354 0.089945 -0.014063 397106.000000 0 1 0
22.775460 -2.014014 11.070452 25.403400 -0.088200 1.119885 0.100856 -0.022705 434581.000000 0 0 1
23.263560 -1.720314 12.358052 26.398374 -0.073815 1.083615 0.095175 -0.025986 -225988.000000 0 0 1
24.246060 -2.615714 12.742852 27.515335 -0.107466 1.089286 0.076995 -0.020245 -580240.000000 0 0 1
24.725560 -2.312314 14.165152 28.589362 -0.093248 1.052421 0.080397 -0.024042 -74039.000000 0 0 1
25.518360 -1.146614 14.205952 29.228590 -0.044903 1.063256 0.075056 -0.016049 -3310.400000 0 0 1
25.814960 -0.762714 15.526652 30.134213 -0.029537 1.029497 0.079108 -0.024870 92971.200000 0 0 1
27.030660 0.199886 15.734052 31.277099 0.007395 1.043668 0.080508 -0.018938 754629.000000 0 0 1
28.260460 -0.494614 15.521252 32.246046 -0.017500 1.068616 0.075240 -0.020386 925112.000000 0 0 1
29.417860 0.338286 15.811552 33.399552 0.011499 1.077643 0.064743 -0.021087 289789.000000 0 0 1
30.624460 -0.568814 15.924952 34.522242 -0.018572 1.091342 0.059324 -0.017534 -490404.000000 0 0 1
31.175860 -1.049414 14.686452 34.477926 -0.033648 1.130766 0.070977 -0.013508 558938.000000 0 0 1
32.340660 -1.870614 14.828352 35.627202 -0.057777 1.141525 0.060047 -0.007437 527665.000000 0 0 1
32.808160 -2.550814 13.512352 35.573384 -0.077593 1.181168 0.068966 -0.009468 161593.000000 0 0 1
33.628060 -1.761214 12.630252 35.964865 -0.052326 1.211962 0.058268 -0.006993 393227.000000 0 0 1
33.596160 -2.296514 11.299452 35.519763 -0.068250 1.247053 0.071074 -0.003986 -347735.000000 0 0 1
32.811560 -1.424214 10.352152 34.435358 -0.043379 1.265448 0.079778 0.006871 -318057.000000 0 0 1
33.459060 -0.231214 9.972852 34.914466 -0.006910 1.281126 0.077808 0.002707 884624.000000 0 0 1
32.471960 0.596586 9.360552 33.799468 0.018370 1.290184 0.066128 -0.002401 472070.000000 0 0 1
33.095760 1.961086 8.852152 34.315241 0.059186 1.309880 0.063855 -0.005139 77540.900000 0 0 1
33.924360 1.912486 7.733952 34.847293 0.056315 1.346994 0.064788 -0.002984 123425.000000 0 0 1
34.168860 3.239786 7.291152 35.088005 0.094534 1.361475 0.056899 -0.001115 44763.600000 0 0 1
34.931160 3.242886 5.921952 35.577686 0.092571 1.403567 0.053886 -0.003980 -54329.800000 0 0 1
35.273860 4.560986 5.523352 35.993821 0.128589 1.416735 0.049209 0.002027 140898.000000 0 0 1
35.625460 4.594086 4.179252 36.162759 0.128247 1.454970 0.051106 -0.008556 -368109.000000 0 0 1
-35.962164 5.995686 3.755852 36.651492 -0.165203 1.468141 0.048537 -0.015133 -573728.000000 0 0 1
35.113160 6.985886 3.958152 36.019488 0.196389 1.460685 0.062108 -0.021577 -322083.000000 0 0 1
35.516960 8.258586 3.469352 36.629156 0.228465 1.475939 0.051461 -0.018072 529642.000000 0 0 1
34.250060 9.253386 3.467852 35.647128 0.263872 1.473359 0.077563 -0.028976 1602750.000000 0 0 1
33.312160 9.083386 2.404952 34.612016 0.266203 1.501257 0.090686 -0.030791 414403.000000 0 0 1
32.530260 7.875786 2.475352 33.561483 0.237536 1.496974 0.102782 -0.030104 -504849.000000 0 0 1
31.266860 7.971286 1.587552 32.306009 0.249626 1.521635 0.118824 -0.033543 37481.400000 0 0 1
31.537660 8.005886 0.176752 32.538430 0.248600 1.565364 0.109808 -0.028605 954897.000000 0 0 1
30.321560 7.710086 -0.560648 31.291480 0.249000 1.588714 0.121298 -0.024830 845904.000000 0 0 1
30.531860 7.455786 -2.075848 31.497497 0.239510 1.636749 0.082785 -0.017668 1071240.000000 0 0 1
29.306660 6.977386 -2.727448 30.249020 0.233731 1.661085 0.077799 -0.012691 1946660.000000 0 0 1
29.624660 6.738986 -4.070048 30.652890 0.223673 1.703968 0.080180 -0.011595 118627.000000 0 0 1
28.466560 6.014186 -4.824848 29.492280 0.208210 1.735132 0.073398 -0.002936 -37651.100000 0 0 1
28.384960 4.618886 -4.680848 29.136753 0.161309 1.732146 0.082204 -0.010093 1254430.000000 0 0 1
27.341560 4.158986 -5.592848 28.215917 0.150955 1.770334 0.062832 -0.005371 464521.000000 0 0 1
27.249060 2.609186 -5.835048 27.988692 0.095462 1.780816 0.068566 -0.000146 -304849.000000 0 0 1
26.785760 1.937286 -4.645748 27.254595 0.072199 1.742090 0.056716 -0.001713 491330.000000 0 0 1
26.872760 0.503386 -4.704948 27.286171 0.018730 1.744092 0.047795 0.003093 -139998.000000 0 0 1
26.749860 -0.092214 -3.293448 26.952000 -0.003447 1.693299 0.051289 0.006372 -504437.000000 0 0 1
27.853060 0.285586 -2.537148 27.969834 0.010253 1.661631 0.087340 -0.007608 -9195.680000 0 0 1
27.712260 0.077386 -1.159648 27.736620 0.002792 1.612618 0.091207 -0.004672 63354.900000 0 0 1
29.039460 0.506586 -0.457548 29.047482 0.017443 1.586549 0.104447 -0.009506 838085.000000 0 0 1
30.098760 -0.427914 -0.764048 30.111496 -0.014216 1.596173 0.100477 -0.014120 131472.000000 0 0 1
31.282160 0.144886 -0.290048 31.283840 0.004632 1.580068 0.086699 -0.013164 -703092.000000 0 0 1
-2.702740 -21.267314 -8.351096 23.007483 1.444390 1.942253 0.010174 0.000098 369616.000000 0 1 0
-3.233540 -21.988114 -7.249096 23.376962 1.424784 1.886090 0.007177 0.003156 -622326.000000 0 1 0
-2.420440 -23.031714 -6.903296 24.165552 1.466089 1.860498 0.009322 0.002241 -407454.000000 0 1 0
-2.858040 -23.583014 -5.558896 24.397301 1.450194 1.800664 0.005421 -0.000711 -259442.000000 0 1 0
-2.572340 -22.833214 -4.393696 23.393956 1.458612 1.759732 0.006064 -0.004896 -104394.000000 0 1 0
-3.120340 -23.464714 -3.238296 23.891754 1.438592 1.706755 0.011559 -0.014786 -180841.000000 0 1 0
-2.791140 -22.764314 -1.959496 23.018342 1.448795 1.656027 0.013479 -0.023728 -810754.000000 0 1 0
-1.485640 -22.967414 -1.554596 23.067857 1.506202 1.638240 0.021864 -0.015594 -1338150.000000 0 1 0
-1.357740 -22.278614 -0.348596 22.322671 1.509928 1.586413 0.021379 -0.021381 -137533.000000 0 1 0
0.049160 -22.303014 0.259504 22.304578 -1.568592 1.559162 0.025978 -0.022828 71196.100000 0 1 0
0.961260 -21.517814 -0.493496 21.544927 -1.526153 1.593704 0.014777 -0.018572 -783097.000000 0 1 0
2.089060 -21.147014 0.220704 21.251096 -1.472328 1.560411 0.014877 -0.017794 -196505.000000 0 1 0
2.928260 -20.038014 -0.519496 20.257507 -1.425688 1.596444 0.021771 -0.021549 602908.000000 0 1 0
3.637060 -20.579614 -1.618296 20.961097 -1.395871 1.648078 0.019083 -0.009704 -56515.900000 0 1 0
4.629060 -19.712614 -2.150696 20.362732 -1.340148 1.676613 0.029033 -0.006045 -112252.000000 0 1 0
5.524860 -20.276614 -3.234796 21.263327 -1.304780 1.723520 0.028111 -0.000001 -1272560.000000 0 1 0
6.397760 -21.258114 -2.765496 22.371560 -1.278463 1.694730 0.034077 -0.003901 -107463.000000 0 1 0
7.261860 -21.931514 -3.708796 23.398314 -1.251043 1.729975 0.029007 -0.000119 589628.000000 0 1 0
8.393160 -21.095514 -4.350296 23.116897 -1.192132 1.760112 0.041253 -0.000801 -812644.000000 0 1 0
8.039760 -19.926214 -5.065396 22.076005 -1.187297 1.802312 0.027754 0.001687 -189942.000000 0 1 0
9.139560 -19.553614 -5.895796 22.374892 -1.133559 1.837446 0.036918 0.007336 -310410.000000 0 1 0
8.958560 -18.297414 -6.807896 21.480191 -1.115497 1.893296 0.028085 0.008473 -402157.000000 0 1 0
9.734360 -18.216814 -7.977596 22.141638 -1.080039 1.939384 0.025989 0.021865 202959.000000 0 1 0
9.316360 -17.122414 -8.738196 21.361828 -1.072492 1.992216 0.018706 0.024813 14608.900000 0 1 0
10.176960 -17.091114 -10.017296 22.271572 -1.033727 2.037315 0.026038 0.025024 -99060.100000 0 1 0
9.572360 -17.590314 -11.187796 22.939399 -1.072430 2.080262 0.028649 0.020933 -550805.000000 0 1 0
8.634860 -16.714114 -11.700296 22.154443 -1.093941 2.127186 0.015252 0.000046 -621480.000000 0 1 0
7.973560 -17.302614 -12.969396 23.046981 -1.138973 2.168490 0.020963 -0.004108 -380978.000000 0 1 0
6.943460 -18.182914 -12.604596 23.188485 -1.206019 2.145482 0.010854 0.003375 -34688.700000 0 1 0
6.296960 -18.742614 -13.716696 24.064186 -1.246674 2.177308 0.001585 0.004037 31604.600000 0 1 0
5.247260 -19.804714 -13.381496 24.470899 -1.311797 2.149373 0.001108 0.011217 -421474.000000 0 1 0
5.856160 -21.022514 -13.092296 25.448948 -1.299118 2.111166 0.020191 0.009555 300179.000000 0 0 1
4.867560 -21.988214 -12.674396 25.842117 -1.352938 2.083408 0.030930 0.010632 512979.000000 0 0 1
5.332460 -23.422714 -12.427896 27.046465 -1.346950 2.048230 0.016093 0.005965 -363274.000000 0 0 1
5.634460 -24.123114 -13.638196 28.278475 -1.341339 2.074054 0.028951 0.001114 148822.000000 0 0 1
5.107160 -25.491534 -13.712896 29.392940 -1.373067 2.056168 0.023078 0.000187 -297150.000000 0 0 1
3.655260 -25.693464 -14.104296 29.537200 -1.429480 2.068614 0.031753 -0.011135 -1430780.000000 0 0 1
2.734660 -25.110334 -13.212196 28.505603 -1.462318 2.052731 0.033481 -0.006626 550888.000000 0 0 1
1.384760 -25.159144 -13.731696 28.695985 -1.515812 2.069768 0.025641 -0.014771 387354.000000 0 0 1
0.645060 -26.410624 -13.341896 29.596340 -1.546377 2.038453 0.023551 -0.017364 -1736500.000000 0 0 1
1.277460 -27.566624 -13.847496 30.875619 -1.524489 2.035875 0.030190 -0.012897 -63251.200000 0 0 1
0.757360 -28.797604 -13.327296 31.741021 -1.544503 2.004105 0.017455 0.001484 453600.000000 0 0 1
-0.697540 -29.215464 -13.728396 32.287750 1.546925 2.009967 0.005829 -0.000421 966698.000000 0 0 1
-1.730440 -28.383804 -13.190596 31.346875 1.509906 2.005117 0.004402 -0.006196 -877825.000000 0 0 1
-2.956940 -28.837944 -13.627896 32.032641 1.468617 2.010242 0.005737 0.007927 -463929.000000 0 0 1
-4.174840 -28.058764 -13.001096 31.205000 1.423091 2.000537 0.002302 -0.003083 540748.000000 0 0 1
-4.411740 -28.178884 -11.611896 30.795277 1.415495 1.957424 -0.002040 -0.012801 186875.000000 0 0 1
-5.045640 -29.427864 -11.232096 31.900120 1.400990 1.930612 -0.005017 -0.004184 -449244.000000 0 0 1
-5.329140 -29.619354 -9.724496 31.627072 1.392780 1.883333 -0.008403 -0.004023 331914.000000 0 0 1
-6.594840 -29.211714 -9.201096 31.328523 1.348758 1.868889 0.001788 -0.000766 345413.000000 0 0 1
-6.894340 -27.817674 -9.292796 30.128242 1.327851 1.884350 0.011154 -0.002169 -412829.000000 0 0 1
-8.376940 -27.502014 -8.925896 30.103248 1.275130 1.871832 0.012891 -0.001456 911680.000000 0 0 1
-9.447940 -27.701764 -9.839696 30.878325 1.242109 1.895112 0.027131 -0.006875 350377.000000 0 0 1
-9.650840 -29.083524 -10.214596 32.300589 1.250398 1.892555 0.038407 -0.014488 -793066.000000 0 0 1
-10.919540 -29.312064 -11.037396 33.170131 1.214195 1.910016 0.056004 -0.017743 -574190.000000 0 0 1
-10.747140 -28.814294 -12.334096 33.134491 1.213798 1.952221 0.066246 -0.017825 252930.000000 0 0 1
-11.644040 -29.414444 -13.256396 34.300514 1.193863 1.967606 0.074740 -0.020578 -20637.600000 0 0 1
-11.774640 -28.501034 -14.488596 34.071550 1.179022 2.010024 0.078502 -0.022439 -199702.000000 0 0 1
-12.747240 -27.481164 -14.490496 33.580962 1.136482 2.016961 0.067852 -0.034196 -85771.300000 0 0 1
-12.554340 -26.396454 -13.570096 32.226259 1.126853 2.005441 0.076577 -0.023793 -142370.000000 0 0 1
-13.512540 -25.191744 -13.721196 31.709367 1.078464 2.018301 0.096577 -0.025143 -189890.000000 0 0 1
-13.342640 -24.345514 -14.850996 31.484634 1.069449 2.062003 0.090102 -0.023872 -84835.900000 0 0 1
-14.348140 -23.369114 -14.956496 31.235899 1.020162 2.070111 0.101084 -0.023363 -460698.000000 0 0 1
-14.237240 -22.486414 -16.225096 31.170364 1.006359 2.118267 0.083309 -0.018011 -599188.000000 0 0 1
-13.235140 -21.536414 -16.254696 30.053306 1.019749 2.142258 0.077603 -0.014449 -245846.000000 0 0 1
-13.230840 -20.769814 -17.449896 30.181769 1.003598 2.187268 0.057037 -0.003557 -322435.000000 0 0 1
-13.260740 -19.219114 -17.320496 29.072688 0.966829 2.209014 0.058463 -0.006342 889167.000000 0 0 1
-11.934840 -18.657614 -17.238896 28.066466 1.001713 2.232189 0.053562 -0.000892 1047780.000000 0 0 1
-12.075840 -17.285914 -17.495896 27.399546 0.961014 2.263405 0.055036 -0.002152 -207685.000000 0 0 1
-10.771140 -16.572114 -17.885996 26.656356 0.994452 2.306332 0.053760 -0.008885 -157776.000000 0 0 1
-10.176840 -16.055814 -16.660896 25.277316 1.005864 2.290450 0.063342 -0.001156 -132484.000000 0 0 1
-8.944740 -15.473514 -17.019596 24.680046 1.046660 2.331746 0.052962 -0.000030 -713660.000000 0 1 0
-8.201640 -14.950614 -15.781396 23.234462 1.069042 2.317501 0.039908 0.003677 -527719.000000 0 1 0
-7.797940 -15.899514 -14.879096 23.129849 1.114817 2.269578 0.045689 0.011708 -60004.000000 0 1 0
-6.673140 -16.716914 -15.154296 23.529529 1.190993 2.270583 0.041571 0.013914 -193549.000000 0 1 0
-6.211440 -17.495514 -13.907296 23.196722 1.229647 2.213719 0.039383 0.011538 -334203.000000 0 1 0
-5.733240 -16.721814 -12.807996 21.829656 1.240496 2.197804 0.031529 0.006739 171916.000000 0 1 0
-5.570240 -17.464414 -11.587296 21.686373 1.262048 2.134490 0.028974 -0.001239 -303571.000000 0 1 0
-4.485240 -18.557214 -11.583796 22.330963 1.333647 2.116164 0.033390 -0.004708 -1835710.000000 0 1 0
-3.221340 -18.041514 -11.523196 21.648495 1.394107 2.132095 0.022857 -0.000298 -2179240.000000 0 1 0
-2.370640 -19.147814 -11.474296 22.448122 1.447616 2.107315 0.021174 0.006037 76563.300000 0 1 0
-0.925240 -18.696314 -11.825796 22.141764 1.521349 2.134233 0.001753 0.016704 -462650.000000 0 1 0
-0.719040 -18.517714 -13.170996 22.735389 1.531986 2.188687 0.009795 0.014535 -31991.000000 0 1 0
0.554060 -18.079514 -13.618696 22.641659 -1.540160 2.216159 0.004897 0.017576 1685530.000000 0 1 0
1.811460 -19.073714 -13.502396 23.439340 -1.476109 2.184693 0.003087 0.006170 441084.000000 0 1 0
1.793260 -19.906514 -14.652496 24.782670 -1.480955 2.203391 0.012076 0.011315 414083.000000 0 1 0
0.984460 -21.107514 -14.576296 25.670308 -1.524190 2.174660 0.015217 0.009760 -435794.000000 0 0 1
1.182860 -21.956414 -15.904896 27.137594 -1.516975 2.197013 0.031188 -0.002246 718412.000000 0 0 1
2.413760 -22.672614 -16.023696 27.868127 -1.464734 2.183380 0.033390 -0.003110 510405.000000 0 0 1
3.583660 -21.877714 -16.162596 27.435497 -1.408434 2.200756 0.029452 -0.012668 -513486.000000 0 0 1
4.810260 -22.732414 -16.485696 28.489988 -1.362269 2.187867 0.034897 -0.005272 -268852.000000 0 0 1
4.952760 -23.069314 -17.836396 29.578034 -1.359316 2.218088 0.045162 0.000134 -47262.500000 0 0 1
6.125660 -23.781314 -18.136096 30.528554 -1.318694 2.206905 0.052772 -0.006619 32729.700000 0 0 1
6.626760 -23.611314 -19.602096 31.395068 -1.297175 2.245119 0.050979 -0.003058 69890.200000 0 0 1
6.923260 -22.266214 -19.993596 30.715789 -1.269341 2.279595 0.057532 -0.010451 46329.500000 0 0 1
7.216460 -22.203114 -21.365196 31.646914 -1.256546 2.311912 0.041231 -0.006196 -204474.000000 0 0 1
7.391260 -20.767314 -21.890396 31.066083 -1.228868 2.352712 0.040791 -0.011596 667821.000000 0 0 1
6.168160 -20.052414 -22.106796 30.477138 -1.272380 2.382349 0.061462 -0.014549 344395.000000 0 0 1
6.425260 -18.791814 -22.682696 30.148316 -1.241340 2.422449 0.071831 -0.015018 795317.000000 0 0 1
5.159460 -17.967614 -23.138496 29.746348 -1.291167 2.462050 0.055462 -0.011676 -263651.000000 0 0 1
4.574960 -18.258514 -24.402496 30.818589 -1.325285 2.484565 0.049448 -0.016267 1327000.000000 0 0 1
3.396960 -17.443014 -24.706696 30.433845 -1.378458 2.518053 0.053723 -0.011396 1395800.000000 0 0 1
2.140960 -17.533114 -23.795096 29.634446 -1.449288 2.503031 0.042384 0.003031 -435500.000000 0 0 1
2.275360 -16.754714 -22.564696 28.196866 -1.435818 2.498517 0.042816 0.001485 386244.000000 0 0 1
1.031160 -16.089714 -22.281296 27.502697 -1.506796 2.515203 0.030167 0.002488 657119.000000 0 0 1
0.993660 -15.297714 -21.001496 26.001351 -1.505933 2.511050 0.019125 0.004225 -90380.000000 0 0 1
1.894860 -14.216914 -21.149596 25.554189 -1.438295 2.545681 0.024166 0.005244 -121594.000000 0 0 1
1.946860 -13.470014 -19.930496 24.134130 -1.427257 2.542455 0.027394 -0.001569 502462.000000 0 1 0
3.159660 -12.497014 -19.793796 23.621033 -1.323153 2.564355 0.030364 -0.007985 1891390.000000 0 1 0
4.442660 -13.110514 -19.426196 23.853719 -1.244078 2.522471 0.032649 -0.011394 2345280.000000 0 1 0
5.658060 -12.321514 -19.548096 23.789944 -1.140317 2.535176 0.045127 -0.004955 1481530.000000 0 1 0
5.910660 -11.269214 -18.405996 22.376590 -1.087744 2.536687 0.039523 -0.004801 -274704.000000 0 1 0
5.084360 -10.115714 -18.333196 21.547261 -1.105055 2.588372 0.020647 0.001074 -1882.910000 0 1 0
5.414160 -9.116614 -19.310996 22.030442 -1.034890 2.639463 0.034225 -0.000758 -160881.000000 0 1 0
4.855360 -9.305514 -20.720696 23.227449 -1.089883 2.672719 0.048717 -0.009484 366718.000000 0 1 0
3.430960 -9.209614 -20.733296 22.944674 -1.214183 2.698946 0.036059 -0.014394 152106.000000 0 1 0
2.931860 -9.057114 -22.047996 24.015438 -1.257734 2.733995 0.051869 -0.023128 -49863.500000 0 1 0
1.399860 -9.074514 -22.156096 23.983307 -1.417740 2.748720 0.045728 -0.020294 -211908.000000 0 1 0
0.884960 -7.900814 -21.591396 23.008573 -1.459253 2.788786 0.032754 -0.020703 -829845.000000 0 1 0
-0.448140 -7.631314 -21.910296 23.205578 1.512140 2.805900 0.028879 -0.019227 -386706.000000 0 1 0
-0.621540 -6.559414 -23.034596 23.958398 1.476323 2.862993 0.040692 -0.018638 -303203.000000 0 1 0
-0.522240 -7.163714 -24.323196 25.361574 1.498024 2.854450 0.049257 -0.016902 -423091.000000 0 0 1
-1.137940 -6.403814 -25.341056 26.162433 1.394935 2.890352 0.051480 -0.021520 -74867.400000 0 0 1
-0.687540 -4.938414 -25.660036 26.139972 1.432463 2.949673 0.059763 -0.022542 -102495.000000 0 0 1
-1.317640 -4.367514 -26.793606 27.179196 1.277789 2.972947 0.058696 -0.021111 -199491.000000 0 0 1
-0.780540 -3.205914 -27.333096 27.531533 1.331974 3.021457 0.042439 -0.011729 -911123.000000 0 0 1
-0.916540 -1.908014 -26.536286 26.620576 1.122981 3.061994 0.042263 -0.012332 208875.000000 0 0 1
-2.255140 -1.507514 -26.317786 26.457213 0.589256 3.038884 0.032993 -0.016264 366755.000000 0 0 1
-2.974240 -0.984614 -27.454446 27.632629 0.319692 3.027969 0.040070 -0.008821 554719.000000 0 0 1
-4.519040 -1.109414 -27.261906 27.656176 0.240737 2.972536 0.042256 -0.015219 415675.000000 0 0 1
-5.171040 -0.249514 -26.379776 26.882978 0.048215 2.947805 0.041465 -0.018941 -388165.000000 0 0 1
-6.527640 -0.643614 -26.330976 27.135671 0.098281 2.897452 0.036674 -0.026269 -112686.000000 0 0 1
-7.368140 0.461386 -25.599236 26.642509 -0.062537 2.860821 0.042217 -0.021085 -413677.000000 0 0 1
-7.662240 1.706286 -26.274716 27.422291 -0.219112 2.851271 0.058259 -0.029166 785021.000000 0 0 1
-8.664640 1.810386 -27.308246 28.707034 -0.205976 2.828137 0.058702 -0.026435 112387.000000 0 0 1
-10.075040 1.277486 -27.097536 28.938122 -0.126124 2.783012 0.046755 -0.021232 -866044.000000 0 0 1
-11.027640 1.796986 -28.002546 30.149305 -0.161533 2.761946 0.041919 -0.022990 337561.000000 0 0 1
-12.333540 1.614686 -27.464996 30.150447 -0.130178 2.716333 0.011622 -0.012175 422460.000000 0 0 1
-13.430240 2.144786 -28.428326 31.514143 -0.158361 2.695365 0.001562 -0.008828 -1122070.000000 0 0 1
-14.725540 1.919486 -27.995666 31.690429 -0.129620 2.653888 0.009181 -0.008278 -816966.000000 0 0 1
-15.522040 2.354886 -29.101696 33.066417 -0.150564 2.646865 0.005291 -0.013365 -198393.000000 0 0 1
-16.528440 3.484886 -28.841136 33.423718 -0.207798 2.611765 0.021799 -0.002490 -763440.000000 0 0 1
-16.027940 4.783686 -28.649766 33.175106 -0.290043 2.613148 0.034991 -0.008046 -33040.500000 0 0 1
-15.407940 5.468486 -29.693696 33.897265 -0.341045 2.638283 0.021752 -0.010330 27979.700000 0 0 1
-16.409340 6.164886 -30.682426 35.336717 -0.359379 2.622536 0.023500 -0.003795 -73562.300000 0 0 1
-17.192640 7.088386 -30.027566 35.319780 -0.391058 2.587091 0.031594 -0.001837 -398109.000000 0 0 1
-18.091740 7.706286 -30.904696 36.630563 -0.402680 2.574909 0.025563 -0.005807 -541824.000000 0 0 1
-18.961340 8.675886 -30.153316 36.660959 -0.429120 2.536574 0.034303 -0.010109 -257631.000000 0 0 1
-18.101940 9.651986 -29.564696 35.984891 -0.489855 2.534985 0.032044 -0.008631 219445.000000 0 0 1
-18.788240 10.444786 -28.702196 35.859554 -0.507378 2.498768 0.052309 -0.002378 -377809.000000 0 0 1
-8.051740 24.920686 31.106452 40.663036 -1.258289 0.699784 0.014201 -0.002059 -485709.000000 0 0 1
-8.913340 26.040686 31.137582 41.558561 -1.241011 0.723874 0.027091 -0.005069 -29059.200000 0 0 1
-8.584640 27.041986 32.049262 42.803274 -1.263403 0.724611 0.030099 -0.009715 517590.000000 0 0 1
-7.278440 27.853286 31.707872 42.827216 -1.315198 0.737180 0.033754 -0.010672 603235.000000 0 0 1
-7.408740 28.600386 30.472272 42.443267 -1.317325 0.769939 0.050273 -0.005437 -185606.000000 0 0 1
-6.152740 29.002086 30.010212 42.185187 -1.361748 0.779319 0.061406 -0.013337 -335617.000000 0 0 1
-6.214140 30.328186 29.181572 42.543843 -1.368697 0.814932 0.074733 -0.016794 -127292.000000 0 0 1
-6.498440 31.491486 29.942052 43.937113 -1.367297 0.821020 0.075425 -0.023154 312302.000000 0 0 1
-6.296540 32.617686 29.132802 44.184613 -1.380101 0.850852 0.070523 -0.021877 -247328.000000 0 0 1
-6.619340 33.971786 29.744422 45.635825 -1.378359 0.860870 0.072457 -0.027100 -969734.000000 0 0 1
-5.790040 -34.307297 30.770732 46.447316 1.403602 0.846663 0.084095 -0.032224 -455930.000000 0 0 1
-6.449440 -33.685297 31.905902 46.843154 1.381624 0.821502 0.065805 -0.037953 647095.000000 0 0 1
-7.419140 34.090186 32.717467 47.829040 -1.356505 0.817495 0.034905 -0.029137 442459.000000 0 0 1
-6.695540 33.216186 33.540540 47.677176 -1.371887 0.790496 0.056689 -0.024795 102402.000000 0 0 1
-6.647740 31.877686 33.092366 46.427190 -1.365204 0.777343 0.058719 -0.020087 -191533.000000 0 0 1
-6.535440 30.915686 34.243676 46.595289 -1.362468 0.745252 0.060482 -0.018648 539072.000000 0 0 1
-5.227640 30.826386 -33.694596 45.966511 -1.402811 2.393555 0.050222 -0.024433 407085.000000 0 0 1
-5.370040 30.423686 -32.354526 44.735370 -1.396087 2.379283 0.050643 -0.014879 -810977.000000 0 0 1
-3.996740 30.194586 -31.747326 43.995223 -1.439195 2.376919 0.026967 -0.017204 -184093.000000 0 0 1
-3.244240 29.063086 -32.113196 43.433230 -1.459629 2.402929 0.027699 -0.007153 307677.000000 0 0 1
-2.755040 28.964186 -33.482576 44.357606 -1.475963 2.426196 0.028217 -0.012881 -470922.000000 0 0 1
-2.068840 27.570686 -33.652266 43.553391 -1.495899 2.453828 0.026909 -0.015885 380865.000000 0 0 1
-0.852940 27.300086 -32.890646 42.752974 -1.539563 2.448570 0.042865 -0.008693 1160040.000000 0 0 1
-0.466840 25.903886 -32.975786 41.936043 -1.552776 2.475651 0.048280 -0.005158 81314.300000 0 0 1
0.025460 25.336586 34.143366 42.517205 1.569791 0.638403 0.046441 0.000882 -65576.900000 0 0 1
-0.949840 25.260786 33.081355 41.633947 -1.533213 0.652487 0.038331 0.001301 382257.000000 0 0 1
-0.390740 25.395886 31.777742 40.680814 -1.555412 0.674294 0.051016 0.001053 -324416.000000 0 0 1
-0.167540 26.840886 31.253522 41.197620 -1.564554 0.709597 0.044920 -0.005343 157100.000000 0 0 1
-1.354240 27.588286 31.039542 41.549978 -1.521748 0.727196 0.037598 -0.011082 29805.900000 0 0 1
-1.115340 28.797986 30.368512 41.866628 -1.532086 0.759234 0.046082 -0.008425 -306555.000000 0 0 1
-2.226140 29.818386 30.542012 42.742325 -1.496278 0.774799 0.057000 -0.017729 -403919.000000 0 0 1
-2.205440 30.422386 31.812812 44.073127 -1.498429 0.764370 0.063536 -0.015180 207219.000000 0 0 1
-3.047340 31.571186 31.963412 45.029832 -1.474572 0.781543 0.072714 -0.011552 165608.000000 0 0 1
-2.562540 32.386186 33.209242 46.457351 -1.491836 0.774411 0.074633 -0.020205 756321.000000 0 0 1
-1.358140 33.063986 32.814253 46.603078 -1.529743 0.789610 0.079751 -0.028284 425549.000000 0 0 1
-0.653840 33.670686 33.873563 47.765687 -1.551380 0.782489 0.058658 -0.022315 542962.000000 0 0 1
0.816160 34.068386 33.556764 47.826535 1.546844 0.793107 0.072248 -0.025145 345817.000000 0 0 1
0.767760 -33.418397 32.867477 46.879097 -1.547826 0.793841 0.088196 -0.032670 833990.000000 0 0 1
2.042060 -32.891897 32.432762 46.237766 -1.508792 0.793388 0.065631 -0.035577 679321.000000 0 0 1
1.993360 -31.427897 31.984972 44.885684 -1.507455 0.777617 0.072534 -0.025277 -133261.000000 0 0 1
1.756260 -30.578497 33.071815 45.076312 -1.513425 0.747067 0.065753 -0.011868 -5349.970000 0 0 1
1.833860 -29.200197 32.770062 43.930531 -1.508076 0.728833 0.056691 -0.028110 -1092.750000 0 0 1
1.745860 -28.261997 34.011047 44.255393 -1.509101 0.694275 0.047746 -0.030054 645200.000000 0 0 1
0.416360 -28.245697 -33.963506 44.175927 -1.556057 2.447796 0.027898 -0.023885 583271.000000 0 0 1
0.261460 -27.357197 -32.849216 42.749919 -1.561239 2.447140 0.024205 -0.021771 160354.000000 0 0 1
-1.230440 -26.956797 -32.807236 42.479379 1.525183 2.453265 0.045557 -0.018927 202454.000000 0 0 1
-1.668940 -26.503097 -31.517496 41.213494 1.507908 2.441430 0.049580 -0.012959 -145406.000000 0 0 1
-3.019040 -26.126997 -31.621686 41.129863 1.455754 2.447799 0.051009 -0.026931 -252652.000000 0 0 1
-3.635440 -25.719097 -30.268986 39.886087 1.430375 2.432397 0.051329 -0.028856 -331811.000000 0 0 1
-4.018640 -26.763097 -29.377986 39.943446 1.421754 2.397185 0.045991 -0.018954 146907.000000 0 0 1
-4.606940 -26.323297 -28.181176 38.837077 1.397537 2.382739 0.056758 -0.021519 6330.570000 0 0 1
-3.556640 -25.823597 -27.160906 37.646018 1.433929 2.376736 0.063961 -0.026682 26597.100000 0 0 1
-2.937440 -24.664997 -27.637206 37.159195 1.452261 2.409461 0.060300 -0.024429 -899322.000000 0 0 1
-1.846240 -24.395397 -26.847576 36.322670 1.495260 2.402591 0.057587 -0.024222 -1380700.000000 0 0 1
-0.933240 -23.203697 -27.305516 35.845135 1.530599 2.436827 0.056033 -0.019486 760813.000000 0 0 1
-0.108140 -23.388897 -28.456926 36.835429 1.566173 2.453632 0.029570 -0.028453 493845.000000 0 0 1
0.724560 -24.563997 -28.489356 37.623907 -1.541308 2.429834 0.033793 -0.019886 -241057.000000 0 0 1
1.544760 -24.713697 -29.792656 38.739585 -1.508371 2.448149 0.022647 -0.022163 406291.000000 0 0 1
2.586860 -23.781997 -30.001896 38.371721 -1.462448 2.468464 0.027554 -0.024573 399091.000000 0 0 1
3.411860 -24.067597 -31.135556 39.500796 -1.429973 2.478717 0.021982 -0.018566 -256993.000000 0 0 1
4.645560 -23.177897 -31.235786 39.172318 -1.372987 2.493761 0.034030 -0.029246 279237.000000 0 0 1
5.810560 -23.367597 -30.400256 38.781217 -1.327080 2.471705 0.028098 -0.024978 1642300.000000 0 0 1
6.626260 -24.571797 -30.488616 39.714434 -1.307393 2.446034 0.040025 -0.014241 480334.000000 0 0 1
7.359060 -24.871197 -31.819446 41.051302 -1.283117 2.457692 0.053436 -0.014048 4332.330000 0 0 1
6.470560 -25.629897 -32.657266 42.014959 -1.323502 2.461123 0.018476 -0.016836 426706.000000 0 0 1
6.647960 -25.441297 -34.034216 43.009102 -1.315205 2.483771 0.033742 -0.015301 25765.000000 0 0 1
6.235560 -24.086197 33.787172 41.959505 -1.317473 0.634728 0.048158 -0.017972 -92677.400000 0 0 1
4.893560 -23.706497 33.972623 41.714315 -1.367233 0.619082 0.057784 -0.027210 -232375.000000 0 0 1
4.554260 -22.566597 33.238722 40.432725 -1.371657 0.605751 0.083560 -0.030243 -283142.000000 0 0 1
3.103660 -22.050597 33.292599 40.053198 -1.430963 0.589517 0.059624 -0.041146 268922.000000 0 0 1
2.076160 -22.926497 32.878576 40.136461 -1.480485 0.610834 0.056323 -0.043726 39358.100000 0 0 1
1.597460 -23.771497 33.908588 41.441867 -1.503697 0.612487 0.050627 -0.031351 -879034.000000 0 0 1
0.259960 -24.398897 33.556525 41.489928 -1.560142 0.628709 0.050321 -0.031506 -435453.000000 0 0 1
0.336860 -25.345197 32.513262 41.226262 -1.557506 0.662179 0.058479 -0.031471 -9901.150000 0 0 1
-0.944140 -25.526597 31.948312 40.904684 1.533827 0.674462 0.060343 -0.043421 60739.700000 0 0 1
-0.932640 -26.674997 30.852782 40.796072 1.535847 0.713206 0.067949 -0.046123 -387259.000000 0 0 1
-2.144340 -26.980497 30.233922 40.578756 1.491486 0.730160 0.063772 -0.043924 -397858.000000 0 0 1
-2.187340 -28.315197 29.863662 41.211323 1.493700 0.760274 0.072007 -0.038332 -434437.000000 0 0 1
-3.429040 -28.691597 29.060282 40.981289 1.451847 0.782560 0.073790 -0.027861 -627287.000000 0 0 1
-4.528340 -28.982797 29.885192 41.876403 1.415807 0.776098 0.065269 -0.027525 -549087.000000 0 0 1
-5.632840 -29.191397 29.043782 41.562096 1.380177 0.797071 0.057940 -0.020811 -151016.000000 0 0 1
-6.859840 -29.678197 29.877602 42.667598 1.343645 0.795061 0.037388 -0.016722 46107.400000 0 0 1
-7.914640 -30.209997 29.096882 42.683885 1.314568 0.820736 0.050590 -0.012189 -41373.400000 0 0 1
-9.192140 -30.162097 29.673202 43.298343 1.274980 0.815754 0.038989 -0.009552 50853.900000 0 0 1
-9.529240 -31.343397 30.670862 44.876684 1.275649 0.818321 0.026632 -0.011203 -467499.000000 0 0 1
-9.380640 -32.656597 30.137382 45.417084 1.291077 0.845217 0.040849 -0.012190 432340.000000 0 0 1
-10.447640 -33.050697 29.272402 45.369321 1.264626 0.869508 0.022209 -0.011161 210488.000000 0 0 1
-10.311240 34.166486 28.927602 45.939924 -1.277694 0.889651 0.047451 -0.008821 -475243.000000 0 0 1
-10.506640 33.366786 30.081342 46.136960 -1.265742 0.860576 0.042483 -0.002222 245209.000000 0 0 1
-10.192240 32.012886 29.821342 44.922367 -1.262564 0.844852 0.048228 -0.008815 -182129.000000 0 0 1
-10.471740 31.065586 30.997722 45.117477 -1.245673 0.813382 0.053816 0.004379 -287620.000000 0 0 1
-11.849340 30.965186 31.228662 45.546448 -1.205321 0.815308 0.042301 0.009611 -383635.000000 0 0 1
-12.255640 29.628186 31.575352 45.000367 -1.178580 0.793059 0.048808 0.003858 80634.900000 0 0 1
-12.303440 29.383886 33.137569 45.966139 -1.174262 0.765678 0.057376 -0.004794 -245214.000000 0 0 1
-13.383540 30.069286 33.730950 47.128103 -1.152033 0.773129 0.059855 0.009993 224754.000000 0 0 1
-13.504840 29.797886 -33.417656 46.765740 -1.145272 2.366814 0.071016 0.006294 516217.000000 0 0 1
-14.943340 30.096786 -32.871196 47.006760 -1.109945 2.345195 0.055743 0.008806 544388.000000 0 0 1
-15.157340 29.705586 -31.544396 45.904420 -1.098981 2.328390 0.051271 0.002204 -410353.000000 0 0 1
-16.432940 29.948386 -31.020016 46.143133 -1.068945 2.308049 0.052253 0.006684 -162770.000000 0 0 1
-16.565240 29.429486 -29.560546 44.881263 -1.058119 2.289805 0.056355 -0.002776 -140848.000000 0 0 1
-16.910940 28.086586 -29.516696 44.114301 -1.028834 2.303788 0.054823 -0.010039 22717.800000 0 0 1
-16.832640 27.604186 -28.179306 42.888252 -1.023212 2.287682 0.054434 -0.015527 -244118.000000 0 0 1
-17.492040 26.256486 -27.867046 42.094498 -0.983118 2.294296 0.019342 -0.016472 136148.000000 0 0 1
-18.905340 26.302586 -28.012726 42.824651 -0.947588 2.283823 0.020835 -0.010786 167973.000000 0 0 1
-19.400540 24.958586 -28.085456 42.285989 -0.910045 2.297191 0.004448 -0.012083 478470.000000 0 0 1
-20.938540 24.934486 -28.323466 43.155183 -0.872288 2.286723 0.031969 -0.011530 467263.000000 0 0 1
-21.785240 25.540086 -27.319636 43.281118 -0.864573 2.253913 0.023916 -0.002646 749277.000000 0 0 1
-23.110840 25.415986 -27.851866 44.224538 -0.832865 2.252070 0.021370 -0.009950 643119.000000 0 0 1
-24.221140 25.430486 -26.763586 44.154986 -0.809750 2.221980 0.043475 -0.019002 149754.000000 0 0 1
-24.450340 26.702386 -26.122006 44.645221 -0.829396 2.195802 0.017703 0.006898 -59552.400000 0 0 1
-25.462140 26.591686 -25.135796 44.578544 -0.807094 2.169841 0.026291 0.020565 13335.500000 0 0 1
-25.086640 25.894686 -23.818996 43.211328 -0.801247 2.154623 0.018147 0.004764 -752068.000000 0 0 1
-24.913540 24.439486 -23.811196 42.248622 -0.775793 2.169530 0.028228 -0.000639 -173005.000000 0 0 1
-26.097130 23.656986 -23.763796 42.490366 -0.736393 2.164307 0.029850 -0.001020 -186562.000000 0 0 1
-26.838530 23.730986 -22.376396 42.239431 -0.724024 2.129104 0.023917 -0.005151 -3928.900000 0 0 1
-26.132310 23.342686 -21.169796 40.938233 -0.729073 2.114274 0.023171 -0.009022 272868.000000 0 0 1
-25.054250 24.198186 -20.812896 40.576401 -0.768019 2.109392 0.030315 -0.005206 -128101.000000 0 0 1
-24.083540 23.669086 -19.789696 39.139170 -0.776719 2.100901 0.043614 -0.013460 -174186.000000 0 0 1
-24.705740 23.534486 -18.513696 38.820131 -0.761123 2.067932 0.038920 -0.014676 405988.000000 0 0 1
-23.676640 23.490786 -17.559396 37.692608 -0.781458 2.055400 0.045955 -0.018704 -327190.000000 0 0 1
-24.203440 23.541586 -16.101996 37.407046 -0.771537 2.015792 0.035713 -0.017321 -40157.700000 0 0 1
-24.413440 24.873586 -15.672096 38.214211 -0.794734 1.993373 0.029809 -0.020731 114636.000000 0 0 1
-25.105800 24.856186 -14.425396 38.160493 -0.780402 1.958452 0.004886 -0.016367 169682.000000 0 0 1
-25.142170 26.175486 -13.676596 38.785746 -0.805531 1.931165 0.011263 -0.012039 178205.000000 0 0 1
-23.844340 26.619686 -13.350096 38.149513 -0.840339 1.928305 0.017041 -0.008324 -55568.800000 0 0 1
-23.948340 27.502286 -12.232796 38.464790 -0.854363 1.894443 0.020441 -0.007834 -49600.200000 0 0 1
-22.627640 28.168286 -11.809896 38.012315 -0.894045 1.886711 0.027501 -0.005031 973104.000000 0 0 1
-21.597240 27.221286 -11.375696 36.562900 -0.900096 1.887175 0.035684 -0.010065 810979.000000 0 0 1
-20.535740 27.721286 -10.608196 36.093215 -0.933214 1.869112 0.028354 -0.005408 -83290.200000 0 0 1
-19.686340 26.602386 -9.992496 34.570058 -0.933712 1.864031 0.047960 -0.006589 -246506.000000 0 0 1
-19.080140 25.771486 -10.928296 33.876967 -0.933494 1.899259 0.048704 -0.005189 -91068.500000 0 0 1
-18.641440 24.559286 -10.404396 32.540948 -0.921536 1.896243 0.049861 -0.003803 -494818.000000 0 0 1
-17.797040 23.784286 -11.396096 31.816629 -0.928404 1.937115 0.051273 -0.002717 -452112.000000 0 0 1
-17.475540 22.554886 -10.937296 30.557190 -0.911611 1.936845 0.051374 -0.003231 -60638.300000 0 0 1
-16.846340 21.741686 -11.879596 29.960389 -0.911586 1.978509 0.052109 -0.000192 -293604.000000 0 0 1
-16.728840 20.307786 -11.443996 28.691903 -0.881732 1.981068 0.043017 0.002756 158084.000000 0 0 1
-17.909040 19.531286 -11.149996 28.749387 -0.828700 1.969077 0.040053 0.005085 457586.000000 0 0 1
-17.625440 18.159686 -11.048296 27.613315 -0.800326 1.982431 0.048460 -0.001555 -595797.000000 0 0 1
-18.906440 17.314386 -10.951996 27.878086 -0.741472 1.974529 0.041233 -0.002015 47263.200000 0 0 1
-19.586040 16.986186 -12.123096 28.620149 -0.714429 2.008197 0.037188 0.009031 20523.500000 0 0 1
-20.159240 17.973186 -12.930496 29.943749 -0.728133 2.017313 0.038959 0.016036 -747316.000000 0 0 1
-20.656240 17.368686 -14.283096 30.534544 -0.699155 2.057561 0.033146 0.011794 197277.000000 0 0 1
-19.666440 17.053086 -15.232996 30.159920 -0.714347 2.100264 0.029689 0.012492 564504.000000 0 0 1
-20.368840 16.462786 -16.340296 30.869374 -0.679741 2.128615 0.040153 0.009879 364097.000000 0 0 1
-19.417340 16.285186 -17.499096 30.797058 -0.697893 2.175121 0.049370 0.001523 -174596.000000 0 0 1
-18.894940 17.485086 -18.100696 31.470339 -0.746664 2.183604 0.042018 0.002537 610559.000000 0 0 1
-18.008440 17.259586 -19.192296 31.472869 -0.764168 2.226610 0.041718 0.008537 -229010.000000 0 0 1
-17.289640 18.502586 -19.717996 32.094808 -0.819274 2.232380 0.030373 0.010869 -223926.000000 0 0 1
-16.499840 19.095486 -18.705696 31.413140 -0.858190 2.208651 0.016910 0.013217 -389491.000000 0 0 1
-15.597440 19.966386 -19.263296 31.827838 -0.907634 2.220856 0.019818 0.001835 -430864.000000 0 0 1
32.662763 31.035386 1.678904 45.087359 0.759855 1.533551 0.049139 -0.013755 1018900.000000 0 0 1
34.047813 31.051086 1.266604 46.098024 0.739397 1.543317 0.052223 -0.007244 1119460.000000 0 0 1
34.166903 31.718486 0.042304 46.620182 0.748253 1.569889 0.039859 -0.008957 282765.000000 0 0 1
35.578083 31.563386 -0.602596 47.564802 0.725675 1.583466 0.022000 -0.004944 767967.000000 0 0 1
-35.422076 32.223786 0.139804 47.886485 -0.738153 1.567877 0.009395 -0.002005 -676597.000000 0 0 1
-34.257800 32.304286 -0.562796 47.090132 -0.756058 1.582748 0.012074 -0.007502 -801860.000000 0 0 1
-33.264370 33.414386 -0.077096 47.149183 -0.787648 1.572431 -0.003419 -0.008419 98460.400000 0 0 1
-32.669890 33.065286 1.141304 46.496639 -0.791413 1.546248 0.014136 -0.001746 -12175.200000 0 0 1
-32.095060 34.217486 1.727104 46.945842 -0.817394 1.533999 0.002726 -0.008674 -326608.000000 0 0 1
-31.489270 34.032486 3.143904 46.472232 -0.824194 1.503093 0.002773 0.007409 -259893.000000 0 0 1
-31.115790 -33.463597 3.692104 45.843608 0.821738 1.490172 0.004918 0.008097 -216918.000000 0 0 1
-30.548530 -33.696597 4.935604 45.749683 0.834360 1.462703 0.016216 -0.004149 -466781.000000 0 0 1
-30.316270 -32.437697 5.796004 44.775820 0.819191 1.440987 0.027666 -0.001311 730751.000000 0 0 1
-31.445270 -31.786597 6.429004 45.172169 0.790796 1.427989 0.024672 -0.002561 658839.000000 0 0 1
-32.028900 -32.493097 7.509804 46.239041 0.792592 1.407661 0.036204 -0.015879 57764.700000 0 0 1
-33.294110 -31.768897 8.146304 46.734600 0.761960 1.395591 0.055147 -0.016047 1346330.000000 0 0 1
-34.507851 -31.698197 7.410004 47.439178 0.742986 1.413954 0.039728 -0.007802 457203.000000 0 0 1
-35.166251 -32.957797 7.110404 48.717958 0.752991 1.424323 0.025270 -0.008717 -1270850.000000 0 0 1
35.379823 -32.757597 6.899404 48.707225 -0.746933 1.428668 0.022333 0.000969 -1125790.000000 0 0 1
34.618153 -32.876197 8.060804 48.417325 -0.759595 1.403532 0.021283 0.004808 -139259.000000 0 0 1
33.239313 -32.728297 7.801804 47.295470 -0.777652 1.405080 -0.009352 0.013321 -382842.000000 0 0 1
32.541673 -32.896497 9.149104 47.168274 -0.790820 1.375592 -0.009887 0.002713 -1888320.000000 0 0 1
31.178503 -32.774197 9.031504 46.128246 -0.810344 1.373732 0.000741 -0.003030 -980960.000000 0 0 1
30.478253 -32.629097 10.247104 45.810315 -0.819467 1.345202 0.010742 -0.005315 -271688.000000 0 0 1
30.741483 -31.402197 11.122704 45.330467 -0.796030 1.322896 0.008312 -0.003531 -783287.000000 0 0 1
30.292653 -30.101497 10.839104 44.059404 -0.782233 1.322234 0.006088 -0.007958 84262.500000 0 0 1
30.590503 -29.558697 9.531404 43.592925 -0.768246 1.350370 0.017504 -0.013715 -155318.000000 0 0 1
30.188343 -28.098297 9.342404 42.286296 -0.749555 1.348026 0.021994 -0.019035 -177503.000000 0 0 1
30.367393 -27.584597 8.071604 41.811952 -0.737416 1.376531 0.026606 -0.017055 24259.600000 0 0 1
29.806343 -26.279597 7.943404 40.523240 -0.722600 1.373498 0.027856 -0.015245 -6158.430000 0 0 1
29.878863 -25.803697 6.481104 40.007273 -0.712343 1.408081 0.019282 -0.001491 1135750.000000 0 0 1
31.192873 -25.646797 5.897404 40.810941 -0.688132 1.425783 0.029419 -0.005446 650874.000000 0 0 1
31.036303 -25.143497 4.567604 40.203365 -0.680888 1.456938 0.032411 -0.002520 -167688.000000 0 0 1
32.359933 -24.847397 3.859304 40.981125 -0.654824 1.476484 0.047907 -0.004942 -133644.000000 0 0 1
33.188023 -25.973697 3.697804 42.305455 -0.664055 1.483277 0.032946 0.000322 -212503.000000 0 0 1
34.529603 -25.574397 3.522804 43.113262 -0.637491 1.488995 0.033691 -0.003957 56268.500000 0 0 1
35.510253 -26.755997 3.437004 44.594556 -0.645720 1.493648 0.029569 0.000262 -54640.400000 0 0 1
35.502603 -27.352797 4.738004 45.067272 -0.656458 1.465470 0.011804 0.001743 -609496.000000 0 0 1
-35.800224 -28.555297 4.765604 46.040982 0.673294 1.467103 0.012945 -0.001267 -1538820.000000 0 0 1
35.692213 -29.470997 5.912604 46.662968 -0.690215 1.443746 0.009610 0.004835 562516.000000 0 0 1
34.361873 -29.908597 5.670104 45.906563 -0.716219 1.446966 -0.005935 0.014427 107901.000000 0 0 1
33.369823 -28.923097 5.712204 44.527743 -0.714135 1.442158 0.000130 0.012012 -2320300.000000 0 0 1
31.942333 -29.437597 5.561204 43.792827 -0.744614 1.443464 0.013487 0.006370 -740122.000000 0 0 1
31.589093 -29.692697 4.227404 43.559132 -0.754463 1.473594 0.010441 -0.001440 280210.000000 0 0 1
30.525653 -28.879297 3.691904 42.183639 -0.757691 1.483164 0.026613 0.000518 155131.000000 0 0 1
29.184393 -29.589097 3.864304 41.739385 -0.792284 1.478082 0.033908 -0.003958 -732449.000000 0 0 1
29.149843 -30.884197 3.264104 42.593442 -0.814280 1.494087 0.039886 -0.009069 -181026.000000 0 0 1
27.876913 -31.495497 3.311504 42.190694 -0.846270 1.492227 0.064892 -0.013128 53352.500000 0 0 1
28.035803 -32.968997 2.875104 43.373116 -0.866088 1.504460 0.059571 -0.019077 -121668.000000 0 0 1
27.967263 -33.158397 1.464404 43.402668 -0.870120 1.537050 0.064329 -0.019950 233560.000000 0 0 1
28.051383 34.245786 1.101804 44.281688 0.884506 1.545912 0.059998 -0.014817 -275018.000000 0 0 1
27.856233 33.969586 -0.416596 43.932631 0.883958 1.580279 0.056766 -0.018474 -284280.000000 0 0 1
28.811673 -34.199497 -1.291196 44.736845 -0.870697 1.599662 0.054624 -0.018447 -82299.800000 0 0 1
28.335973 -34.330997 -2.592396 44.589968 -0.880773 1.628968 0.050955 -0.016125 243242.000000 0 0 1
29.364993 -33.766097 -3.643396 44.896842 -0.854999 1.652036 0.054893 -0.018445 422181.000000 0 0 1
29.649403 -32.415497 -3.457296 44.065910 -0.829936 1.649334 0.043003 -0.020828 -93427.500000 0 0 1
30.514973 -31.959697 -4.461796 44.412762 -0.808519 1.671428 0.057367 -0.027036 -71911.700000 0 0 1
30.858513 -30.464697 -4.425596 43.588203 -0.778976 1.672504 0.045789 -0.010979 32777.800000 0 0 1
29.830303 -29.658397 -5.010096 42.362348 -0.782508 1.689341 0.037801 -0.013921 381331.000000 0 0 1
30.094963 -28.247297 -4.998596 41.576466 -0.753739 1.691314 0.032537 -0.015493 583280.000000 0 0 1
31.202393 -27.633297 -5.935896 42.100158 -0.724810 1.712262 0.040995 -0.018436 1061350.000000 0 0 1
32.568983 -27.964897 -5.626396 43.294693 -0.709486 1.701121 0.044847 -0.018629 866643.000000 0 0 1
33.487583 -27.570397 -6.648696 43.883370 -0.688789 1.722890 0.043160 -0.017852 211755.000000 0 0 1
33.430173 -28.364397 -8.003796 44.566537 -0.703603 1.751368 0.037696 -0.016214 -453688.000000 0 0 1
32.222383 -28.173497 -8.761296 43.689681 -0.718459 1.772700 0.033817 -0.011001 482518.000000 0 0 1
31.956463 -29.216297 -9.684996 44.368983 -0.740634 1.790851 0.028935 -0.004614 146086.000000 0 0 1
31.830513 -30.655397 -9.212996 45.142156 -0.766594 1.776329 0.040402 -0.008553 -25493.900000 0 0 1
33.078533 -31.220097 -8.823196 46.332846 -0.756503 1.762397 0.040531 -0.009258 41968.500000 0 0 1
32.892873 -32.528897 -8.293696 46.998464 -0.779835 1.748193 0.050259 -0.021138 873685.000000 0 0 1
34.290263 -33.207397 -8.020496 48.403323 -0.769357 1.737265 0.038014 -0.016465 978077.000000 0 0 1
34.275193 34.238786 -7.324496 48.997261 0.784867 1.720847 0.035572 -0.022887 -191719.000000 0 0 1
34.045993 -34.344197 -5.929796 48.721822 -0.789758 1.692806 0.027964 -0.016883 -168094.000000 0 0 1
34.002293 33.029186 -5.218296 47.689765 0.770882 1.680438 0.029930 -0.022956 77683.700000 0 0 1
32.800953 32.310986 -5.480096 46.367378 0.777873 1.689262 0.052265 -0.036953 529602.000000 0 0 1
32.985323 30.932486 -5.109896 45.507815 0.753292 1.683320 0.034381 -0.021105 165552.000000 0 0 1
31.710913 30.089686 -5.342696 44.039932 0.759171 1.692411 0.047365 -0.028922 4939.990000 0 0 1
31.286133 29.989986 -6.660496 43.847276 0.764249 1.723289 0.042774 -0.021414 -449421.000000 0 0 1
29.914273 29.708486 -6.713796 42.691134 0.781947 1.728716 0.015513 -0.008462 -289955.000000 0 0 1
29.474233 29.511586 -8.193296 42.506402 0.786031 1.764765 0.030063 -0.012340 6105.300000 0 0 1
30.092053 28.285386 -8.696696 42.204588 0.754460 1.778344 0.033445 -0.011297 373745.000000 0 0 1
30.303083 28.239486 -10.086296 42.631898 0.750163 1.809651 0.021552 -0.009260 238774.000000 0 0 1
31.491183 29.015286 -10.729996 44.144243 0.744501 1.816322 0.039940 -0.010247 -566397.000000 0 0 1
32.745043 28.582486 -10.339296 44.677706 0.717628 1.804333 0.029695 -0.017303 -702700.000000 0 0 1
33.830073 28.942386 -11.135496 45.892644 0.707691 1.815885 0.039299 -0.019094 -116179.000000 0 0 1
34.604123 30.212986 -10.714096 47.170560 0.717755 1.799931 0.038998 -0.033666 -635161.000000 0 0 1
35.248783 30.032786 -9.465196 47.265578 0.705668 1.772415 0.047350 -0.024150 198487.000000 0 0 1
35.281373 31.255686 -8.715996 47.933931 0.724969 1.753647 0.031674 -0.026301 -831677.000000 0 0 1
-35.641404 31.340886 -7.630596 48.070644 -0.721282 1.730208 0.031977 -0.015996 332990.000000 0 0 1
-34.342723 31.537686 -8.165296 47.336248 -0.742846 1.744159 0.043483 -0.017352 -130047.000000 0 0 1
-33.682470 30.348286 -8.440896 46.116982 -0.733374 1.754866 0.042832 -0.021330 -747604.000000 0 0 1
-32.244950 30.591786 -8.978596 45.345445 -0.759095 1.770118 0.052851 -0.016622 316529.000000 0 0 1
-31.389710 30.988786 -7.859196 44.803858 -0.778971 1.747122 0.042000 -0.006358 1055280.000000 0 0 1
-30.032360 31.316486 -8.161696 44.150631 -0.806327 1.756726 0.043561 -0.020782 421256.000000 0 0 1
-29.807740 32.661586 -8.910896 45.107479 -0.831050 1.769652 -0.001472 -0.011663 -588916.000000 0 0 1
-29.865770 33.853186 -8.125596 45.869682 -0.847895 1.748881 -0.028696 0.006546 -749916.000000 0 0 1
-28.846750 33.987386 -7.206896 45.157688 -0.867029 1.731076 -0.015579 0.013053 -781532.000000 0 0 1
-28.847510 -33.347297 -6.434596 44.560353 0.857622 1.715705 -0.028112 0.027014 -506654.000000 0 0 1
-29.852820 -33.064997 -5.510496 44.887086 0.836407 1.693870 -0.026979 0.021857 -384465.000000 0 0 1
-29.721940 -33.693497 -4.242696 45.129214 0.847944 1.664948 -0.031630 0.010357 -113313.000000 0 0 1
-31.003950 -33.542097 -3.406996 45.803109 0.824701 1.645249 -0.004232 0.009602 -321438.000000 0 0 1
-31.121990 -32.278497 -2.756196 44.923004 0.803637 1.632189 0.020560 0.013380 268288.000000 0 0 1
-32.281260 -32.306697 -1.924596 45.711120 0.785792 1.612912 0.013427 0.008128 8744.510000 0 0 1
-32.748980 -30.882297 -1.608296 45.042187 0.756071 1.606510 0.018429 0.005794 362109.000000 0 0 1
-33.890220 -30.993297 -0.754896 45.931485 0.740780 1.587232 0.012069 0.007845 346058.000000 0 0 1
-34.538153 -29.723697 -0.577396 45.570995 0.710619 1.583467 0.029291 -0.000745 169605.000000 0 0 1
-35.703621 -29.557097 0.418304 46.352406 0.691491 1.561772 0.032812 -0.005552 236416.000000 0 0 1
35.069863 -30.054097 -0.065296 46.186018 -0.708531 1.572210 0.017220 -0.006747 785402.000000 0 0 1
33.995133 -29.959897 0.868204 45.321278 -0.722387 1.551639 0.020138 -0.012116 225621.000000 0 0 1
33.304153 -28.630297 1.000704 43.930194 -0.710076 1.548015 0.021797 -0.002071 -808279.000000 0 0 1
32.498473 -28.420697 -0.176196 43.173114 -0.718560 1.574877 0.026817 -0.002834 106860.000000 0 0 1
31.722433 -27.265397 -0.009596 41.829591 -0.709983 1.571026 0.037179 -0.003360 -364510.000000 0 0 1
30.422083 -27.254797 -0.867096 40.854363 -0.730539 1.592022 0.027485 0.003517 -74529.600000 0 0 1
29.344853 -27.858697 -0.199496 40.463158 -0.759424 1.575727 0.027186 0.005453 -273232.000000 0 0 1
29.168563 -29.247697 -0.128796 41.306772 -0.786753 1.573914 0.033478 -0.001471 -553238.000000 0 0 1
28.629463 -29.886697 -1.425296 41.411258 -0.806880 1.605221 0.048780 -0.013912 6577.920000 0 0 1
27.296153 -29.453897 -1.663096 40.191764 -0.823402 1.612187 0.042468 -0.003044 181549.000000 0 0 1
26.839783 -29.957697 -2.895396 40.326429 -0.840238 1.642657 0.040147 -0.004655 264137.000000 0 0 1
25.297483 -30.053397 -3.000996 39.397656 -0.871111 1.647042 0.018409 -0.007917 206482.000000 0 0 1
24.634483 -28.822097 -3.247096 38.054102 -0.863575 1.656229 0.027556 0.004268 -341634.000000 0 0 1
23.266483 -29.166097 -3.273996 37.452763 -0.897445 1.658325 0.029586 -0.002652 43034.300000 0 0 1
22.350883 -27.924397 -3.511596 35.939744 -0.895807 1.668660 0.027078 -0.004840 4936.710000 0 0 1
22.487583 -27.435597 -4.821796 35.800183 -0.884188 1.705893 0.025182 0.001460 88946.000000 0 0 1
22.037083 -26.117597 -4.926996 34.525891 -0.869934 1.713990 0.026937 -0.012312 -618037.000000 0 0 1
21.381683 -25.797797 -6.245696 34.083888 -0.878729 1.755082 0.039177 -0.034973 -365191.000000 0 0 1
20.027283 -26.172297 -6.304096 33.553283 -0.917632 1.759803 0.051024 -0.028312 -702640.000000 0 0 1
19.411083 -25.580797 -7.429996 32.960160 -0.921678 1.798174 0.071935 -0.028783 86372.300000 0 0 1
17.901683 -25.912597 -7.391496 32.350690 -0.966239 1.801313 0.070544 -0.022771 -16946.500000 0 0 1
17.215983 -25.205697 -6.387396 31.185190 -0.971558 1.777078 0.063079 -0.020622 -460109.000000 0 0 1
15.825183 -25.354397 -6.540096 30.595011 -1.012802 1.786222 0.063925 -0.019987 -191399.000000 0 0 1
15.142683 -24.482597 -5.474096 29.302971 -1.016879 1.758711 0.058720 -0.014466 -308405.000000 0 0 1
15.173283 -25.123797 -4.219296 29.651916 -1.027484 1.713575 0.052755 -0.016724 213954.000000 0 0 1
14.774083 -24.226197 -3.157196 28.550832 -1.023174 1.681605 0.060872 -0.011038 13624.000000 0 0 1
14.763683 -24.909997 -1.795696 29.012046 -1.035776 1.632731 0.055979 -0.009750 -282464.000000 0 0 1
13.859683 -25.966597 -1.778296 29.487579 -1.080514 1.631140 0.057159 -0.011497 67962.000000 0 0 1
14.516983 -27.187397 -1.370696 30.850870 -1.080351 1.615241 0.052183 -0.016105 76148.300000 0 0 1
13.796983 -28.535297 -1.647596 31.738533 -1.120431 1.622731 0.053239 -0.010436 -610281.000000 0 0 1
12.802283 -28.800297 -0.726496 31.525915 -1.152510 1.593843 0.059030 -0.016780 -663588.000000 0 0 1
12.113183 -29.998197 -1.035196 32.368081 -1.187021 1.602784 0.056862 -0.019824 178119.000000 0 0 1
12.853283 -31.360297 -0.607596 33.897556 -1.181820 1.588722 0.048906 -0.014819 375555.000000 0 0 1
14.012583 -31.592797 -1.385896 34.588698 -1.153330 1.610875 0.055724 -0.013289 -319886.000000 0 0 1
14.698183 -32.777197 -1.108396 35.938973 -1.149251 1.601642 0.053483 -0.013451 474957.000000 0 0 1
16.129983 -32.815397 -1.747396 36.607103 -1.113942 1.618548 0.048918 -0.005224 622058.000000 0 0 1
16.940283 -31.777697 -1.235596 36.032234 -1.081031 1.605094 0.040038 0.001706 551748.000000 0 0 1
18.287483 -31.784297 -1.726096 36.710393 -1.048690 1.617833 0.028609 -0.001786 389955.000000 0 0 1
19.078883 -30.630897 -1.111296 36.103886 -1.013734 1.601582 0.026314 -0.000452 -390159.000000 0 0 1
18.624383 -29.346497 -1.538096 34.791526 -1.005297 1.615020 0.026890 -0.007963 267947.000000 0 0 1
19.013883 -28.370297 -0.566296 34.157315 -0.980349 1.587376 0.019320 0.003155 -120541.000000 0 0 1
18.705783 -26.912197 -0.905196 32.787071 -0.963389 1.598408 0.023249 0.002129 -311033.000000 0 0 1
19.550983 -26.458597 -1.930496 32.954895 -0.934419 1.629410 0.016849 -0.009160 52688.200000 0 0 1
18.826983 -26.361697 -3.116796 32.543951 -0.950617 1.666715 0.029315 -0.008679 -183813.000000 0 0 1
32.040493 -29.353997 13.780404 45.586729 -0.741668 1.263702 0.016926 -0.015235 43505.700000 0 0 1
32.812573 -29.763897 14.884404 46.734355 -0.736717 1.246661 0.041002 -0.009282 -445670.000000 0 0 1
32.060133 -30.418197 15.791704 46.930765 -0.759124 1.227610 0.024510 0.003264 -565610.000000 0 0 1
32.941943 -30.986697 16.974304 48.306045 -0.754823 1.211740 0.032813 0.004639 85282.300000 0 0 1
32.198323 -31.435297 18.073704 48.492975 -0.773408 1.188871 0.017827 0.005116 559744.000000 0 0 1
33.024733 -31.781197 19.209004 49.695707 -0.766212 1.173927 0.010005 -0.004224 598410.000000 0 0 1
33.878653 -33.119797 19.166304 51.108035 -0.774072 1.186383 0.012292 0.002856 886753.000000 0 0 1
35.002583 -33.018797 18.254904 51.465166 -0.756242 1.208199 0.030768 0.009631 784801.000000 0 0 1
35.685403 -34.273297 18.178404 52.712060 -0.765216 1.218704 0.034868 0.006315 -455149.000000 0 0 1
-35.141269 -34.222797 17.264504 52.001651 0.772158 1.232374 0.056015 0.002049 -42261.700000 0 0 1
-33.971690 -33.562597 17.767804 50.953101 0.779341 1.214603 0.061252 -0.001333 283491.000000 0 0 1
-32.946070 -33.617097 16.840504 49.991552 0.795479 1.227209 0.076420 -0.001022 -1223180.000000 0 0 1
-31.626120 -32.929097 17.225004 48.797927 0.805579 1.210035 0.063809 -0.004230 -111275.000000 0 0 1
-30.768120 -32.949297 16.092804 47.867648 0.819617 1.227924 0.065252 -0.006922 -100997.000000 0 0 1
-31.031940 -31.971797 15.109804 47.047670 0.800315 1.243843 0.079520 -0.002939 -1211840.000000 0 0 1
-30.043950 -31.994097 13.980604 46.062115 0.816823 1.262415 0.065864 -0.008219 -379343.000000 0 0 1
-28.760090 -31.649597 14.440104 45.137084 0.833194 1.245155 0.054748 -0.005397 -262874.000000 0 0 1
-27.718590 -31.643997 13.465404 44.169898 0.851428 1.261010 0.050195 0.003567 321623.000000 0 0 1
-26.447520 -31.235297 14.250604 43.338145 0.868210 1.235739 0.055056 -0.012394 122761.000000 0 0 1
-25.299150 -31.224497 13.423204 42.369784 0.889846 1.248431 0.045894 -0.011963 281034.000000 0 0 1
-24.194740 -30.555797 14.023704 41.421087 0.901062 1.225406 0.029437 -0.010626 -228557.000000 0 0 1
-22.913840 -30.413797 13.255604 40.320642 0.925121 1.235812 0.040047 -0.016578 -713312.000000 0 0 1
-22.243540 -31.594797 12.941704 40.749159 0.957374 1.247605 0.039933 -0.014494 1097.230000 0 0 1
-20.964440 -31.293597 12.400904 39.655761 0.980540 1.252748 0.023748 -0.014876 38513.300000 0 0 1
-20.335140 -32.625397 12.079604 40.297038 1.013426 1.266351 0.027012 -0.011415 -535493.000000 0 0 1
-20.875840 -33.208997 10.939504 40.722364 1.009598 1.298819 0.028892 -0.008177 -171870.000000 0 0 1
-20.606340 34.113686 10.806904 41.293510 -1.027405 1.306003 0.011424 0.001576 55344.500000 0 0 1
-21.689840 33.298286 10.063404 40.993867 -0.993452 1.322776 0.012971 0.012945 -286525.000000 0 0 1
-21.650640 33.665486 8.706804 40.962466 -0.999279 1.356607 0.003370 0.014117 625526.000000 0 0 1
-22.902840 33.387486 8.037004 41.277812 -0.969548 1.374839 0.009564 0.009257 294323.000000 0 0 1
-22.938340 33.891086 6.573904 41.448635 -0.975794 1.411520 0.016956 0.005801 -794877.000000 0 0 1
-22.238140 33.119086 5.577004 40.280413 -0.979483 1.431896 0.004796 0.002708 724908.000000 0 0 1
-20.814540 33.161886 5.680904 39.562968 -1.010283 1.426707 0.004446 0.010888 290703.000000 0 0 1
-20.102640 -34.190897 5.365704 40.024047 1.039282 1.436329 0.011551 0.013447 -1030390.000000 0 0 1
-20.122240 -33.091697 6.282104 39.235568 1.024460 1.409992 0.005612 0.002804 -89145.400000 0 0 1
-19.411640 -33.353597 7.476604 39.308699 1.043721 1.379428 0.002045 0.007020 -422659.000000 0 0 1
-19.245640 -32.157997 8.425904 38.412593 1.031502 1.349645 0.005336 -0.003393 -406139.000000 0 0 1
-18.185640 -31.285297 8.089504 37.080013 1.044252 1.350864 0.032035 -0.015022 -179670.000000 0 0 1
-18.159240 -30.113797 8.916704 36.278180 1.028159 1.322465 0.034519 -0.015245 282100.000000 0 0 1
-17.620140 -30.316097 10.395104 36.573122 1.044305 1.282595 0.017292 -0.009531 -467468.000000 0 0 1
-16.365240 -30.903897 10.382104 36.478213 1.083787 1.282196 0.034118 -0.013816 -818709.000000 0 0 1
-15.786240 -31.068597 11.682804 36.755285 1.100682 1.247331 0.036019 -0.017262 223464.000000 0 0 1
-14.375340 -31.716997 11.658604 36.722491 1.145253 1.247727 0.043103 -0.015358 290975.000000 0 0 1
-13.507040 -30.773397 11.050804 35.377427 1.157195 1.253111 0.023196 -0.004827 -567308.000000 0 0 1
-12.361340 -31.323897 10.482204 35.268482 1.194928 1.269025 0.035402 0.000835 5411.020000 0 0 1
-11.252640 -30.406797 9.922704 33.906567 1.216355 1.273801 0.044619 0.004446 250980.000000 0 0 1
-10.421840 -29.801197 10.860304 33.386708 1.234378 1.239480 0.040024 0.000002 132159.000000 0 0 1
-9.392640 -28.988797 10.256204 32.152166 1.257461 1.246133 0.047973 0.000735 891319.000000 0 0 1
-8.470640 -28.293197 11.258404 31.607094 1.279901 1.206600 0.043400 0.014465 -131008.000000 0 0 1
-9.215840 -27.383997 12.024804 31.295541 1.246162 1.176419 0.047465 0.003947 -245797.000000 0 0 1
-8.703840 -27.232697 13.305404 31.534273 1.261447 1.135218 0.048218 0.007987 -543589.000000 0 0 1
-9.437140 -26.150297 14.083604 31.164812 1.224461 1.101894 0.041357 -0.000975 12824.800000 0 0 1
-9.220040 -24.784197 13.593404 29.732914 1.214647 1.095970 0.042105 -0.000372 -192340.000000 0 0 1
-9.796940 -24.344697 12.372804 29.012593 1.188200 1.130217 0.047090 0.001153 -181478.000000 0 0 1
-9.253040 -23.039697 11.835404 27.504966 1.188900 1.125971 0.037905 -0.004443 304408.000000 0 0 1
-8.089240 -23.124297 11.014404 26.860491 1.234286 1.148277 0.025480 -0.000417 241551.000000 0 0 1
-7.767140 -21.888697 10.392504 25.444993 1.229810 1.150063 0.016850 0.003839 246532.000000 0 0 1
-6.573040 -22.015497 9.403104 24.825497 1.280657 1.182332 0.018456 0.009724 593346.000000 0 1 0
-5.373340 -22.498497 9.984104 25.193997 1.336357 1.163325 0.029156 0.001455 283357.000000 0 0 1
-4.322040 -22.596097 8.999704 24.703406 1.381805 1.197904 0.025386 0.004521 1437530.000000 0 1 0
-3.047740 -23.352897 9.541304 25.410293 1.441022 1.185871 0.028691 -0.004806 662396.000000 0 0 1
-2.254340 -22.617597 10.456404 25.019475 1.471452 1.139630 0.023542 -0.004246 -313507.000000 0 0 1
-1.275140 -23.492697 10.979704 25.963179 1.516571 1.134158 0.035700 -0.010721 -65942.300000 0 0 1
-0.414640 -22.898697 12.094104 25.899606 1.552691 1.084945 0.031017 -0.001991 150158.000000 0 0 1
-1.077340 -22.628497 13.382704 26.311714 1.523222 1.037213 0.024831 -0.006034 568829.000000 0 0 1
-0.114440 -22.194597 14.374204 26.442976 1.565640 0.996085 0.042781 -0.011519 725373.000000 0 0 1
0.547260 -20.794797 14.269504 25.225816 -1.544485 0.969550 0.036737 -0.015973 -409242.000000 0 0 1
1.697960 -20.731097 13.494004 24.794144 -1.489075 0.995312 0.045256 -0.017235 -612185.000000 0 1 0
2.121660 -19.386397 13.266904 23.586957 -1.461790 0.973429 0.037937 -0.016197 -406870.000000 0 1 0
3.577860 -19.286397 12.829404 23.438425 -1.387369 0.991582 0.034307 -0.010888 -491928.000000 0 1 0
3.799060 -19.738297 11.538604 23.176984 -1.380650 1.049681 0.038246 -0.008236 -721398.000000 0 1 0
5.172460 -19.878597 11.290904 23.439229 -1.316239 1.068192 0.050660 -0.010697 -206866.000000 0 1 0
5.545260 -20.895597 10.187004 23.898764 -1.311396 1.130446 0.060051 -0.015013 -379787.000000 0 1 0
5.328960 -20.353497 8.860304 22.829096 -1.314724 1.172211 0.052087 -0.013848 -457887.000000 0 1 0
5.505660 -21.261197 7.826104 23.315203 -1.317409 1.228485 0.053395 -0.018806 -536891.000000 0 1 0
6.884860 -21.934697 7.607304 24.215765 -1.266655 1.251239 0.043462 -0.010553 588705.000000 0 1 0
7.940260 -21.167497 6.982404 23.661458 -1.211924 1.271240 0.043407 -0.020847 705736.000000 0 1 0
8.398960 -19.943397 7.608104 22.938283 -1.172200 1.232716 0.050586 -0.013160 -535309.000000 0 1 0
9.316160 -20.080297 8.799304 23.820934 -1.136406 1.192440 0.057666 -0.008575 -101788.000000 0 1 0
8.613360 -20.252797 10.054904 24.196422 -1.168678 1.142245 0.063332 -0.009260 -293867.000000 0 1 0
9.434160 -19.975897 11.188704 24.763419 -1.129572 1.101988 0.065257 -0.002273 246276.000000 0 1 0
8.700960 -20.004897 12.567504 25.176273 -1.160535 1.048144 0.062169 0.002618 -43374.700000 0 0 1
8.440160 -21.339197 13.027504 26.387752 -1.194155 1.054463 0.051216 -0.007966 99314.100000 0 0 1
7.801360 -21.432897 14.306304 26.923978 -1.221713 1.010592 0.063575 -0.006095 195558.000000 0 0 1
8.316860 -22.626197 15.107904 28.449318 -1.218550 1.010961 0.062957 -0.009669 -39806.400000 0 0 1
7.990160 -23.848797 14.468504 29.016295 -1.247516 1.048774 0.067313 -0.006526 -188951.000000 0 0 1
8.573360 -24.908097 15.168804 30.397506 -1.239298 1.048335 0.072340 -0.011713 241511.000000 0 0 1
8.198760 -26.234897 14.426804 31.042264 -1.267899 1.087447 0.081010 -0.016060 102518.000000 0 0 1
9.053060 -26.488297 13.345504 31.011131 -1.241467 1.125921 0.065754 -0.010263 -408058.000000 0 0 1
8.789060 -27.712697 12.697904 31.725036 -1.263682 1.159008 0.064525 -0.007268 111363.000000 0 0 1
10.004960 -28.206697 11.859504 32.192620 -1.229939 1.193518 0.050856 -0.008050 553178.000000 0 0 1
10.984760 -28.885997 12.645204 33.391121 -1.207405 1.182405 0.040861 -0.014003 284051.000000 0 0 1
12.095460 -29.315997 11.895804 33.870901 -1.179485 1.211933 0.045464 -0.015703 497006.000000 0 0 1
13.163060 -30.138697 12.706604 35.257126 -1.159016 1.202102 0.033776 -0.015052 472990.000000 0 0 1
13.871660 -29.405897 13.742604 35.298567 -1.130019 1.170898 0.030498 -0.011465 1189960.000000 0 0 1
14.870960 -30.119397 14.515304 36.592589 -1.112174 1.162906 0.035674 -0.010083 1785770.000000 0 0 1
16.283760 -30.377497 13.857104 37.147981 -1.078729 1.188530 0.039437 -0.003527 298925.000000 0 0 1
16.995260 -29.208097 13.713804 36.469442 -1.043816 1.185282 0.035859 -0.011519 -353417.000000 0 0 1
18.221460 -29.422797 13.065604 36.992331 -1.016308 1.209810 0.033435 -0.009402 -414289.000000 0 0 1
19.095960 -28.176397 12.914804 36.405455 -0.975174 1.208151 0.015642 -0.008358 337818.000000 0 0 1
20.358860 -28.420097 12.290204 37.057174 -0.949178 1.232739 0.016334 -0.012805 844829.000000 0 0 1
21.089460 -27.180097 12.043004 36.449375 -0.910915 1.234065 0.003085 -0.001148 579012.000000 0 0 1
22.474160 -27.548397 11.437004 37.347116 -0.886491 1.259561 0.018130 -0.013237 342649.000000 0 0 1
23.387660 -28.216197 12.283204 38.652471 -0.878696 1.247403 0.029612 -0.014584 -243947.000000 0 0 1
24.411260 -28.841197 11.573004 39.517827 -0.868395 1.273585 0.023808 -0.025189 -810772.000000 0 0 1
25.534160 -29.404597 12.509204 40.903592 -0.855732 1.259995 0.030102 -0.019907 -98292.000000 0 0 1
26.361960 -28.392597 12.984104 40.861711 -0.822467 1.247433 0.016475 -0.014929 163783.000000 0 0 1
27.494560 -28.159897 12.124404 41.181692 -0.797352 1.271956 -0.001616 -0.014037 247689.000000 0 0 1
28.663460 -27.435297 12.894804 41.720084 -0.763509 1.256572 0.023116 -0.019753 191811.000000 0 0 1
28.481560 -26.084597 13.201604 40.815288 -0.741499 1.241426 0.043629 -0.020963 -145822.000000 0 0 1
27.578860 -25.767497 14.210804 40.329943 -0.751456 1.210701 0.053156 -0.021176 -638876.000000 0 0 1
28.309760 -25.562597 15.565604 41.196806 -0.734448 1.183339 0.041188 -0.011639 74063.200000 0 0 1
28.873960 -26.748597 16.122504 42.533847 -0.747206 1.182026 0.036959 -0.013863 187227.000000 0 0 1
29.419160 -26.494897 17.382904 43.239240 -0.733147 1.157078 0.048086 0.000756 -305112.000000 0 0 1
29.939660 -27.703097 18.119004 44.633430 -0.746617 1.152777 0.039885 0.005465 -679416.000000 0 0 1
28.960160 -28.607397 18.491104 44.710121 -0.779270 1.144416 0.024959 0.001068 -477844.000000 0 0 1
29.388660 -29.423097 19.551604 45.952988 -0.785984 1.131315 0.024841 -0.007791 -369166.000000 0 0 1
28.298660 -30.232897 20.232004 46.088786 -0.818432 1.116334 0.014535 0.008946 -1339470.000000 0 0 1
27.392760 -29.508497 21.002404 45.411624 -0.822564 1.089995 0.017754 0.006213 1177390.000000 0 0 1
26.210060 -30.204997 21.497504 45.403213 -0.856093 1.077559 0.022006 0.005673 1648810.000000 0 0 1
25.177260 -30.796997 20.498204 44.749590 -0.885461 1.094980 0.046475 -0.000280 -603089.000000 0 0 1
25.748860 -31.869597 19.755004 45.485549 -0.891230 1.121520 0.035611 0.003535 -127400.000000 0 0 1
25.063660 -32.317197 18.617704 44.935589 -0.911142 1.143601 0.055133 0.000604 -413361.000000 0 0 1
25.357560 -31.429497 17.384904 43.966510 -0.891918 1.164280 0.046026 0.001639 1129030.000000 0 0 1
26.710060 -31.553897 16.862504 44.647729 -0.868344 1.183508 0.034100 -0.003876 1232020.000000 0 0 1
26.987660 -30.476197 15.967504 43.727492 -0.846032 1.196992 0.034464 -0.016058 685083.000000 0 0 1
28.500660 -30.512597 15.515404 44.542496 -0.819478 1.215009 0.040083 -0.006814 449250.000000 0 0 1
28.823060 -31.376697 14.463804 44.994083 -0.827792 1.243525 0.066638 -0.003575 274613.000000 0 0 1
29.020660 -32.721697 14.863804 46.193515 -0.845270 1.243195 0.076361 -0.013045 -867717.000000 0 0 1
28.111860 -33.755797 14.228604 46.175574 -0.876372 1.257558 0.062756 -0.008107 -296005.000000 0 0 1
28.425660 -34.014697 12.882104 46.162391 -0.874670 1.287981 0.064439 -0.009440 498297.000000 0 0 1
27.505960 33.756486 12.357604 45.263545 0.887075 1.294271 0.051928 -0.021642 -65895.600000 0 0 1
27.806060 33.259986 10.921504 44.706631 0.874474 1.324006 0.059571 -0.029384 -619555.000000 0 0 1
29.068660 32.669886 10.829304 45.050885 0.843662 1.328040 0.043526 -0.024034 -83025.700000 0 0 1
29.284260 31.920886 9.598904 44.369469 0.828450 1.352732 0.049785 -0.036897 -235435.000000 0 0 1
30.751160 31.473886 9.499904 45.016524 0.797012 1.358166 0.034144 -0.029767 -84783.300000 0 0 1
31.069860 30.441686 10.468204 44.739420 0.775186 1.334625 0.017462 -0.013041 784248.000000 0 0 1
32.432560 29.999686 10.402304 45.387884 0.746450 1.339554 0.038350 -0.014239 616474.000000 0 0 1
32.695960 28.956386 11.487304 45.160339 0.724817 1.313603 0.026514 -0.014842 -41858.200000 0 0 1
32.132860 27.643986 11.258704 43.857371 0.710445 1.311178 0.024530 -0.020659 430872.000000 0 0 1
32.092960 27.087086 12.554404 43.832423 0.701012 1.280310 0.036594 -0.029595 32314.900000 0 0 1
32.074260 25.580486 12.428404 42.867057 0.673239 1.276644 0.019635 -0.030856 528721.000000 0 0 1
33.332260 25.116986 11.923204 43.405821 0.645759 1.292528 0.024682 -0.023921 382231.000000 0 0 1
33.488160 23.701786 11.822804 42.696723 0.615919 1.290228 0.028964 -0.024515 -152562.000000 0 0 1
32.396160 22.882786 11.050104 41.173266 0.614970 1.299085 0.021008 -0.029791 1009350.000000 0 0 1
31.099960 22.721786 11.639804 40.236452 0.630972 1.277316 0.024352 -0.034048 -92953.000000 0 0 1
30.141060 22.762886 10.647204 39.242775 0.646828 1.296036 0.029413 -0.030745 -792065.000000 0 0 1
28.749760 22.503586 11.266804 38.208650 0.664128 1.271471 0.030602 -0.030264 -283770.000000 0 0 1
28.164460 23.627186 11.838404 38.621607 0.698015 1.259258 0.029085 -0.030251 589757.000000 0 0 1
27.122260 23.293686 12.793604 37.972214 0.709604 1.227152 0.039443 -0.007914 496229.000000 0 0 1
23.974660 9.390186 25.889772 36.513562 0.373306 0.782653 0.025594 -0.008139 -328519.000000 0 0 1
23.578960 8.192886 26.521312 36.420746 0.334416 0.755115 0.029092 -0.007940 146187.000000 0 0 1
22.176460 8.004786 26.462802 35.442233 0.346404 0.727791 0.037909 -0.005664 72982.100000 0 0 1
21.795060 6.599986 27.121412 35.414057 0.294042 0.698454 0.048921 -0.005404 -100464.000000 0 0 1
21.988360 6.475786 28.486042 36.563347 0.286412 0.677588 0.052626 -0.011959 2435.080000 0 0 1
23.323560 6.403186 28.930862 37.709203 0.267936 0.696317 0.051954 -0.015590 -194756.000000 0 0 1
23.485660 6.186286 30.439882 38.941402 0.257557 0.673434 0.042294 -0.015665 -179351.000000 0 0 1
23.432960 7.406386 31.195892 39.713245 0.306131 0.667246 0.043074 -0.008663 327339.000000 0 0 1
23.758260 7.147186 32.566809 40.940618 0.292218 0.651023 0.027343 0.003086 -77340.300000 0 0 1
23.761160 8.423586 33.418172 41.860766 0.340688 0.646300 0.040820 0.005800 -45659.100000 0 0 1
24.900060 9.227786 33.219772 42.529029 0.354901 0.674358 0.024768 0.004251 -69836.700000 0 0 1
25.408760 9.798986 -34.128051 43.661758 0.368078 2.468097 0.025737 0.005552 864025.000000 0 0 1
26.630860 10.802586 34.221569 44.687967 0.385360 0.698528 0.007284 0.009565 838976.000000 0 0 1
26.203460 12.115186 33.762384 44.421815 0.433077 0.707421 0.010289 0.003806 522848.000000 0 0 1
25.729160 12.975286 -33.724626 44.358743 0.467084 2.434525 0.001806 0.006473 -518263.000000 0 0 1
25.226460 14.328086 34.174201 44.827942 0.516541 0.703873 0.003511 0.001909 -544326.000000 0 0 1
26.203560 14.941786 33.322104 44.947148 0.518234 0.735699 0.007008 -0.001192 484662.000000 0 0 1
26.035260 16.355286 33.225588 45.268862 0.560895 0.746660 0.013211 -0.014229 -183979.000000 0 0 1
26.818760 17.269486 34.186835 46.757039 0.572098 0.750777 0.012524 -0.017125 177918.000000 0 0 1
26.261260 17.098586 -33.010856 45.516283 0.577145 2.382199 0.008219 -0.018469 640225.000000 0 0 1
27.288560 16.845186 -32.088856 45.366513 0.553042 2.356503 0.001236 -0.009336 -240807.000000 0 0 1
26.572560 16.424786 -30.810566 43.876708 0.553630 2.349290 -0.005267 -0.001866 43105.400000 0 0 1
25.936860 15.184286 -30.973876 43.158594 0.529639 2.371255 -0.002113 0.003924 -22623.700000 0 0 1
25.251660 14.884986 -29.779556 41.785537 0.532638 2.364102 0.015853 -0.006379 -279715.000000 0 0 1
24.493260 13.564486 -29.755096 40.856833 0.505760 2.386601 0.029923 -0.005835 -631678.000000 0 0 1
23.543760 13.574686 -30.798476 41.074650 0.523015 2.418582 0.020997 -0.009929 -171324.000000 0 0 1
23.165060 12.283386 -31.253076 40.795298 0.487558 2.443540 0.037057 0.004764 30030.700000 0 0 1
22.106960 11.566286 -30.372736 39.306485 0.482032 2.453905 0.033999 0.004961 538402.000000 0 0 1
20.813360 12.199786 -30.307416 38.737194 0.530175 2.469283 0.041011 -0.004723 1029290.000000 0 0 1
19.893660 11.367886 -29.633266 37.458203 0.519149 2.483405 0.053629 -0.008452 807174.000000 0 0 1
18.594860 12.066586 -29.083536 36.568065 0.575616 2.490342 0.057590 -0.008750 888951.000000 0 0 1
17.609760 12.529386 -29.976426 36.955044 0.618404 2.516928 0.037148 0.004318 1133550.000000 0 0 1
16.313960 12.643086 -29.351486 35.881787 0.659301 2.528731 0.041594 -0.010016 334333.000000 0 0 1
15.244960 13.311986 -30.205066 36.358820 0.717813 2.551249 0.033249 -0.008274 -313250.000000 0 0 1
14.676760 12.459186 -31.190086 36.653241 0.703858 2.588588 0.024555 -0.005097 306387.000000 0 0 1
13.350360 12.099086 -30.784076 35.669025 0.736271 2.612069 0.038075 -0.006182 452391.000000 0 0 1
12.498860 11.562686 -31.962586 36.214971 0.746510 2.652117 0.040353 -0.003787 143804.000000 0 0 1
12.157560 12.578586 -32.917846 37.277496 0.802417 2.653116 0.048564 -0.001711 -65836.200000 0 0 1
11.123060 12.120186 -33.752666 37.548154 0.828271 2.688087 0.064917 -0.004412 -128411.000000 0 0 1
10.705860 13.116386 33.659633 37.677924 0.886243 0.466047 0.071911 0.002439 76891.000000 0 0 1
11.517360 13.248186 32.510042 36.946811 0.855173 0.495114 0.055373 0.018514 364861.000000 0 0 1
10.720560 13.762086 31.485742 35.995519 0.908997 0.505953 0.069252 -0.006892 390370.000000 0 0 1
11.524560 13.570586 30.104872 34.975414 0.866749 0.534067 0.067165 -0.010390 463670.000000 0 0 1
11.553360 12.177086 29.769562 34.175845 0.811676 0.513419 0.059733 -0.003488 244023.000000 0 0 1
12.256860 11.961886 28.559752 33.301303 0.773219 0.540179 0.054918 -0.003808 -352480.000000 0 0 1
12.642860 10.487886 28.434032 32.837963 0.692501 0.523871 0.049003 -0.003590 -646827.000000 0 0 1
11.588260 9.587986 28.409492 32.145240 0.691219 0.486905 0.051442 -0.010490 -30548.600000 0 0 1
12.167960 8.276486 28.469112 32.047618 0.597304 0.477084 0.028442 -0.012005 916305.000000 0 0 1
11.062460 7.158786 28.692382 31.573391 0.574351 0.430512 0.019857 -0.004609 770112.000000 0 0 1
10.531860 6.589886 27.521312 30.195518 0.559109 0.424033 0.031677 -0.007922 105892.000000 0 0 1
9.434860 5.714286 27.764882 29.875715 0.544568 0.378158 0.015710 -0.005785 278423.000000 0 0 1
9.729560 4.253886 27.432782 29.416278 0.412169 0.369324 0.013935 0.000466 299189.000000 0 0 1
10.562460 3.597886 28.401112 30.514480 0.328303 0.374359 0.010413 -0.002590 413606.000000 0 0 1
10.992160 2.318486 27.929242 30.103912 0.207875 0.382428 -0.007015 0.001820 -154042.000000 0 0 1
11.644460 1.389586 28.963042 31.247115 0.118773 0.384722 -0.009033 0.003841 -101547.000000 0 0 1
10.777360 1.274486 30.060912 31.959885 0.117709 0.346454 0.001296 -0.006536 -132505.000000 0 0 1
10.766160 -0.018214 30.659072 32.494449 -0.001692 0.337706 -0.000789 -0.007945 -448716.000000 0 0 1
9.585160 -0.033214 31.602552 33.024199 -0.003465 0.294486 0.008939 -0.007256 -532738.000000 0 0 1
9.742960 0.809586 32.739358 34.167913 0.082904 0.290188 0.007177 -0.011617 -1103600.000000 0 0 1
8.581860 1.083986 33.417290 34.518671 0.125646 0.253290 0.008958 -0.018819 -1069640.000000 0 0 1
8.636860 2.446486 34.236858 35.394111 0.276030 0.256421 0.007180 -0.011767 -225767.000000 0 0 1
8.674160 3.674586 33.475801 34.776039 0.400705 0.274315 0.019314 -0.010353 552755.000000 0 0 1
9.850360 3.880986 32.679846 34.352059 0.375318 0.313301 0.008961 -0.003514 103821.000000 0 0 1
9.996960 5.286686 32.011532 33.950353 0.486444 0.339587 0.013355 0.001052 -80352.000000 0 0 1
10.324460 6.270186 32.965244 35.108646 0.545780 0.351232 0.016006 0.000988 87526.200000 0 0 1
10.544960 7.496586 32.315302 34.809104 0.618015 0.380826 0.022774 -0.007561 -60196.400000 0 0 1
10.848060 8.663886 33.305725 36.083440 0.673922 0.394940 0.067544 -0.011865 -124311.000000 0 0 1
9.759360 9.203286 34.014275 36.563869 0.756082 0.375648 0.074913 -0.014341 -37897.600000 0 0 1
9.112660 8.503286 -33.426136 35.674263 0.750820 2.784685 0.055334 -0.007178 203243.000000 0 0 1
7.672660 9.016586 -33.218436 35.265182 0.865751 2.799222 0.057515 -0.021268 -78329.200000 0 0 1
6.971360 8.336886 -32.215196 33.998859 0.874365 2.816238 0.059667 -0.027193 -618300.000000 0 0 1
5.671460 8.832686 -32.073586 33.747544 0.999995 2.825308 0.055071 -0.028699 -300979.000000 0 0 1
4.891560 8.219186 -30.912386 32.358276 1.033959 2.841524 0.046291 -0.032289 -655393.000000 0 0 1
5.356460 8.645286 -29.662786 31.357830 1.016103 2.811293 0.056937 -0.029983 78535.400000 0 0 1
4.986560 7.819686 -28.595846 30.062197 1.003121 2.827972 0.039752 -0.026470 -179258.000000 0 0 1
3.508560 7.847586 -28.168296 29.450764 1.150367 2.845397 0.038515 -0.022653 -95500.900000 0 0 1
2.594160 7.195586 -29.034196 30.024834 1.224780 2.884000 0.032105 -0.020711 97558.600000 0 0 1
1.266360 7.353986 -28.563926 29.522579 1.400268 2.886057 0.052768 -0.009124 156039.000000 0 0 1
0.234760 6.725686 -29.543846 30.300641 1.535906 2.917625 0.068923 -0.010677 -107639.000000 0 0 1
0.043460 7.511586 -30.723516 31.628472 1.565011 2.901803 0.070828 -0.012659 124805.000000 0 0 1
-0.393140 6.797886 -31.830386 32.550565 -1.513028 2.930846 0.074307 -0.016367 -625625.000000 0 0 1
-0.467040 7.519086 -33.200686 34.044682 -1.508762 2.918461 0.077531 -0.027263 208459.000000 0 0 1
0.716560 8.086886 -33.747386 34.710190 1.482420 2.905510 0.059160 -0.027854 657829.000000 0 0 1
1.834160 7.253186 -34.099051 34.910144 1.323112 2.925610 0.067742 -0.025887 390043.000000 0 0 1
1.826560 6.516986 33.054688 33.740478 1.297531 0.201964 0.076741 -0.033627 -444561.000000 0 0 1
0.753760 5.607486 32.912151 33.394936 1.437177 0.170246 0.093111 -0.036654 -362930.000000 0 0 1
0.487560 5.337386 31.543762 31.995849 1.479701 0.168303 0.097924 -0.035791 -5923.440000 0 0 1
1.478960 4.520286 30.646322 31.013181 1.254591 0.153964 0.090481 -0.035739 -15719.900000 0 0 1
1.098160 4.479386 29.310592 29.671226 1.330380 0.156071 0.077303 -0.036886 24174.900000 0 0 1
1.876260 3.571386 28.548592 28.832226 1.087068 0.140382 0.054169 -0.025875 74555.100000 0 0 1
1.705160 3.846086 27.000582 27.326386 1.153487 0.154573 0.056550 -0.024578 -185544.000000 0 0 1
2.325560 5.003586 26.614162 27.180098 1.135721 0.204423 0.049775 -0.021036 -254612.000000 0 0 1
2.028460 5.356086 25.283172 25.923756 1.208768 0.222768 0.030953 -0.011619 -381903.000000 0 0 1
2.733060 6.737486 24.941622 25.979759 1.185429 0.283649 0.031223 -0.007659 659943.000000 0 0 1
4.149860 6.760786 25.029652 26.256676 1.020282 0.306922 0.019187 0.002198 5738.130000 0 0 1
4.702060 6.497886 23.750842 25.068594 0.944387 0.325678 0.014855 -0.006326 787869.000000 0 0 1
6.288660 6.541186 23.728712 25.404451 0.805078 0.365241 0.015673 -0.005128 1679160.000000 0 0 1
7.086860 5.624886 24.534502 26.149660 0.670892 0.353306 0.015943 -0.006591 457066.000000 0 0 1
6.871460 4.194086 24.348432 25.644755 0.548005 0.319315 0.019531 -0.003815 -879099.000000 0 0 1
7.044460 3.526386 22.941052 24.255962 0.464119 0.330777 0.012930 -0.003349 602222.000000 0 1 0
5.950960 3.762186 22.056452 23.152863 0.563759 0.308978 0.007891 -0.001518 -26622.400000 0 1 0
4.714460 3.148486 22.338652 23.046789 0.588812 0.248534 0.006522 -0.000353 -404472.000000 0 1 0
3.693160 3.505086 21.247252 21.848817 0.759276 0.235203 0.001277 -0.000462 -205152.000000 0 1 0
3.332860 4.926586 21.319052 22.133260 0.976014 0.272082 -0.000664 -0.004098 -287499.000000 0 1 0
2.101960 5.159286 20.708852 21.445117 1.183916 0.262796 -0.003259 0.003769 -346148.000000 0 1 0
1.696360 6.694686 20.733352 21.853337 1.322631 0.321540 0.001773 0.001716 -89996.100000 0 1 0
2.543260 7.407386 19.902952 21.388433 1.240066 0.374891 -0.001761 -0.007490 -484419.000000 0 1 0
2.098760 8.762786 19.887452 21.833506 1.335716 0.425413 0.003001 -0.006698 -464124.000000 0 1 0
3.114960 9.777586 19.506952 22.041446 1.262380 0.484276 0.018933 -0.007731 -1095400.000000 0 1 0
3.037560 10.125586 18.124952 20.982568 1.279350 0.528013 -0.000825 -0.009641 360872.000000 0 1 0
3.847660 11.284686 17.719752 21.357393 1.242195 0.592266 -0.004211 -0.004847 889939.000000 0 1 0
5.389560 11.110586 17.751552 21.624294 1.119153 0.607797 0.000278 -0.004925 48524.000000 0 1 0
5.822660 10.063486 16.900452 20.513469 1.046266 0.602589 0.005918 -0.016346 104122.000000 0 1 0
7.086160 9.548186 17.308152 20.998896 0.932340 0.601936 0.008352 -0.013338 144744.000000 0 1 0
6.985360 8.088286 17.879052 20.829693 0.858437 0.538762 0.010806 -0.012881 -186152.000000 0 1 0
6.435860 8.000886 19.180752 21.756280 0.893382 0.491514 0.018387 -0.012338 -135985.000000 0 1 0
6.406460 6.709486 19.791452 21.857756 0.808498 0.438320 0.007697 -0.012889 -133057.000000 0 1 0
7.752160 6.010886 20.084652 22.352181 0.659549 0.454332 0.020652 -0.012598 -51624.100000 0 1 0
8.509660 5.697986 18.934552 21.526696 0.590024 0.495808 0.013055 -0.012486 -227552.000000 0 1 0
9.804660 5.204486 19.205252 22.182420 0.487997 0.524075 0.015713 -0.007937 141662.000000 0 1 0
9.888060 3.674486 19.153752 21.866454 0.355794 0.503411 0.013103 -0.007726 -157045.000000 0 1 0
9.299860 2.891286 20.208552 22.432844 0.301423 0.449081 0.024581 -0.007451 198097.000000 0 1 0
9.756060 1.554486 20.130552 22.424011 0.158007 0.456223 0.029455 -0.017298 40902.200000 0 1 0
9.150160 0.481186 21.064252 22.970844 0.052539 0.410304 0.034968 -0.017013 -73701.100000 0 1 0
9.383460 0.885386 22.407752 24.309270 0.094077 0.398154 0.027658 -0.015782 344013.000000 0 1 0
8.778360 -0.059214 23.338452 24.934844 -0.006745 0.359771 0.027255 -0.013145 -153444.000000 0 1 0
9.200260 0.100786 24.799582 26.451356 0.010954 0.355265 0.013324 -0.002870 99173.000000 0 0 1
10.514260 -0.338414 25.126882 27.240125 -0.032175 0.396491 0.015460 -0.008894 76218.300000 0 0 1
10.660760 -1.756914 25.247982 27.462687 -0.163334 0.404356 0.014610 -0.008337 -968014.000000 0 0 1
12.082660 -2.264414 25.271132 28.102462 -0.185261 0.452745 0.011565 -0.006730 -762840.000000 0 0 1
12.176160 -3.670714 25.247972 28.270004 -0.292802 0.466604 0.017259 -0.002548 697811.000000 0 0 1
13.558260 -4.075614 25.217152 28.919575 -0.292007 0.511574 0.019602 0.004000 892976.000000 0 0 1
13.675460 -5.580314 25.300082 29.295943 -0.387429 0.528422 0.015260 0.000404 -226949.000000 0 0 1
13.358560 -6.274914 24.124762 28.281263 -0.439140 0.549032 0.029774 -0.007835 187724.000000 0 0 1
13.160260 -7.625014 24.419242 28.768606 -0.525132 0.557055 0.047434 -0.012024 27725.800000 0 0 1
13.038360 -8.471014 23.145352 27.883046 -0.576164 0.591533 0.063170 -0.009448 -220158.000000 0 0 1
12.338760 -9.684714 23.344452 28.124760 -0.665467 0.591631 0.061666 -0.003254 -226053.000000 0 0 1
12.397760 -10.509514 22.215852 27.526322 -0.703154 0.631612 0.051655 -0.010490 87167.400000 0 0 1
11.706060 -11.897414 22.458952 27.981866 -0.793505 0.639113 0.064345 -0.007419 837853.000000 0 0 1
10.287660 -11.821114 22.531452 27.445237 -0.854647 0.607705 0.056411 -0.003364 -44850.000000 0 0 1
9.697160 -13.036014 22.850952 28.038163 -0.931227 0.618076 0.058776 0.000647 -3750.500000 0 0 1
8.186360 -13.097914 23.161052 27.838933 -1.012188 0.588154 0.039739 0.004458 393072.000000 0 0 1
7.379760 -12.646414 22.070852 26.486132 -1.042564 0.585749 0.038062 -0.006366 158460.000000 0 0 1
6.011960 -12.580514 22.447652 26.425558 -1.125002 0.555821 0.026618 -0.000414 322156.000000 0 0 1
5.257560 -11.486414 21.717452 25.124239 -1.141541 0.526836 0.010150 0.008759 -212341.000000 0 0 1
5.631860 -10.215314 22.108752 24.997348 -1.066944 0.485495 0.015931 0.008226 -394921.000000 0 1 0
4.997960 -9.234514 21.334852 23.778809 -1.074714 0.457360 0.006209 0.007385 -156798.000000 0 1 0
5.174260 -7.843614 21.865452 23.799018 -0.987648 0.405882 0.009496 -0.005013 197476.000000 0 1 0
4.685460 -6.791214 21.009652 22.571655 -0.966861 0.374206 0.002700 -0.007983 -75613.500000 0 1 0
5.187560 -5.581614 21.464152 22.776633 -0.821973 0.341134 0.014838 -0.011389 27033.600000 0 1 0
-7.913740 -14.765814 -20.640896 26.583889 1.078804 2.459799 0.033830 -0.000603 -202205.000000 0 0 1
-7.495240 -14.205914 -19.443496 25.219758 1.085302 2.451148 0.036475 -0.006465 -298891.000000 0 0 1
-6.539640 -13.207514 -19.720496 24.619165 1.111040 2.499797 0.020285 -0.016956 489559.000000 0 1 0
-5.548940 -12.922514 -18.525196 23.258655 1.165204 2.492258 0.015811 -0.014895 173165.000000 0 1 0
-4.701840 -13.986714 -18.249696 23.468849 1.246500 2.461658 0.010328 0.001153 -172701.000000 0 1 0
-4.034740 -13.756314 -16.971696 22.216070 1.285497 2.440190 0.011173 -0.003922 -126292.000000 0 1 0
-3.064740 -14.777014 -16.478796 22.345100 1.366296 2.400110 0.012730 0.008948 -1170300.000000 0 1 0
-1.929540 -14.887514 -17.262496 22.876953 1.441907 2.425811 0.006676 0.008685 -1107320.000000 0 1 0
-0.931840 -15.332114 -16.360696 22.441356 1.510094 2.387718 0.016973 0.001992 999982.000000 0 1 0
0.468960 -15.619514 -17.105596 23.168741 -1.540781 2.401350 0.011781 0.010166 1382520.000000 0 1 0
0.581660 -16.562114 -18.136796 24.567974 -1.535691 2.401238 0.032417 0.011630 -479231.000000 0 1 0
0.201360 -17.839414 -17.785396 25.191379 -1.559509 2.354646 0.021841 0.007639 -242720.000000 0 0 1
-0.261840 -18.592614 -19.047896 26.619095 1.556714 2.368240 0.037498 0.006201 266305.000000 0 0 1
-1.364540 -17.990314 -19.718196 26.726778 1.495093 2.400556 0.044396 0.001117 -83126.600000 0 0 1
-1.500340 -18.479614 -21.024196 28.031482 1.489785 2.418890 0.057505 0.005337 -170675.000000 0 0 1
-2.510440 -17.720014 -21.903996 28.285796 1.430060 2.456533 0.046347 0.007904 -69171.900000 0 0 1
-2.284140 -16.293714 -21.921496 27.409021 1.431519 2.497744 0.036795 0.012140 125120.000000 0 0 1
-2.978040 -15.535814 -20.864996 26.183551 1.381405 2.492900 0.025135 0.009417 309089.000000 0 0 1
-2.450440 -14.087214 -20.600896 25.076906 1.398572 2.534848 0.025981 -0.001457 -212981.000000 0 0 1
-2.739040 -13.122814 -21.587296 25.411060 1.365027 2.585878 0.025278 -0.018711 -183815.000000 0 0 1
-2.128440 -11.937214 -21.178596 24.404104 1.394348 2.621613 0.021632 -0.013844 18708.500000 0 1 0
-1.965040 -10.881114 -22.336696 24.923644 1.392130 2.681936 0.038158 -0.021193 -37585.300000 0 1 0
-3.108940 -10.072414 -22.510396 24.856327 1.271415 2.703637 0.031039 -0.016728 -118627.000000 0 1 0
-3.106140 -9.365314 -23.796596 25.761118 1.250549 2.748531 0.033417 -0.014263 -163084.000000 0 0 1
-4.093640 -8.168214 -23.856696 25.546420 1.106215 2.775845 0.042707 -0.021517 502639.000000 0 0 1
-5.449540 -8.633114 -23.855396 25.948181 1.007725 2.737215 0.024997 -0.017757 831695.000000 0 0 1
-6.349340 -7.543214 -23.856196 25.813413 0.871124 2.749675 0.046973 -0.031905 -806926.000000 0 0 1
-7.842540 -7.873914 -23.774396 26.243588 0.787394 2.704326 0.013992 -0.032054 -220465.000000 0 0 1
-8.427340 -8.393114 -24.949596 27.639587 0.783363 2.696745 0.014822 -0.025989 -152638.000000 0 0 1
-8.730340 -7.449914 -25.925046 28.351862 0.706428 2.724829 0.013144 -0.026185 -446956.000000 0 0 1
-9.381440 -8.051314 -27.167776 29.848336 0.709245 2.714549 0.004242 -0.025216 -48490.200000 0 0 1
-10.285540 -7.146214 -27.748386 30.443943 0.607216 2.717612 0.013556 -0.027934 -124142.000000 0 0 1
-10.670640 -7.776614 -28.949336 31.818271 0.629785 2.713680 0.018533 -0.026029 -129169.000000 0 0 1
-11.441140 -6.846714 -29.940156 32.774840 0.539264 2.722627 0.027705 -0.028081 -50408.300000 0 0 1
-10.654440 -5.792614 -30.473906 32.798330 0.497979 2.762849 0.000672 -0.014673 88703.400000 0 0 1
-11.381740 -5.111014 -31.501066 33.881908 0.422067 2.764479 0.017183 -0.018403 -179745.000000 0 0 1
-10.639540 -3.957214 -32.187716 34.130755 0.356081 2.802542 -0.002423 -0.020514 227909.000000 0 0 1
-9.503540 -4.414014 -32.921336 34.548736 0.434814 2.833440 -0.009652 -0.017905 74019.600000 0 0 1
-8.956540 -3.333914 -33.634126 34.965541 0.356342 2.864746 0.000454 -0.012455 -33547.100000 0 0 1
-7.795640 -3.775414 33.950078 35.037602 0.451007 0.249803 0.008613 -0.013038 -88261.200000 0 0 1
-6.600840 -4.085714 -33.901166 34.778632 0.554251 2.916485 0.008815 -0.014543 -328972.000000 0 0 1
-5.611340 -4.463214 33.654982 34.410249 0.671925 0.209903 0.011188 -0.010351 -306960.000000 0 0 1
-4.198440 -4.036014 34.006464 34.501535 0.765676 0.169609 0.030744 -0.013946 -630442.000000 0 0 1
-4.156940 -2.626914 33.897015 34.251839 0.563570 0.144064 0.050374 -0.022717 1323980.000000 0 0 1
-2.845440 -2.174814 -34.159534 34.346763 0.652600 3.037131 0.051377 -0.022343 1435470.000000 0 0 1
-2.989340 -0.683614 -33.746506 33.885545 0.224818 3.050973 0.058134 -0.025350 175104.000000 0 0 1
-3.587340 -0.628314 -32.457486 32.661173 0.173389 3.029853 0.057296 -0.023958 185496.000000 0 0 1
-3.947840 0.658786 -32.122086 32.370478 -0.165349 3.017631 0.069403 -0.021801 -629620.000000 0 0 1
-4.392640 0.739086 -30.581896 30.904594 -0.166694 2.996955 0.065296 -0.027965 1078850.000000 0 0 1
-5.496440 -0.114314 -30.200366 30.696678 0.020795 2.961526 0.050452 -0.027117 -804755.000000 0 0 1
-6.718440 0.324586 -30.591476 31.322216 -0.048275 2.925162 0.055337 -0.025139 -1474370.000000 0 0 1
-7.731040 -0.873714 -30.542946 31.518311 0.112536 2.892166 0.038912 -0.021539 208526.000000 0 0 1
-7.894340 -1.364214 -29.226286 30.304414 0.171119 2.874050 0.030954 -0.022290 -476552.000000 0 0 1
-8.799540 -2.397314 -29.112146 30.507312 0.265981 2.837997 0.008088 -0.012711 -439153.000000 0 0 1
-9.040940 -2.941514 -27.637316 29.226912 0.314553 2.810267 0.009280 -0.017817 1237.970000 0 0 1
-9.822840 -1.994914 -26.901346 28.708018 0.200364 2.784930 0.011705 -0.015519 265971.000000 0 0 1
-10.101740 -2.595314 -25.634986 27.675501 0.251479 2.755188 0.008463 -0.014840 -345444.000000 0 0 1
-11.063840 -1.800814 -24.767696 27.186215 0.161351 2.716593 0.015128 -0.012023 -317414.000000 0 0 1
-10.644840 -0.514814 -24.371396 26.599673 0.048325 2.729361 0.026724 -0.017318 -909089.000000 0 0 1
-11.651140 0.276986 -23.898096 26.588434 -0.023769 2.687856 0.032529 -0.014894 -809355.000000 0 0 1
-11.079640 1.437086 -23.130196 25.687149 -0.128985 2.691617 0.039392 -0.014574 225650.000000 0 0 1
-10.517240 2.405286 -24.023496 26.334884 -0.224833 2.719493 0.021662 -0.016516 233690.000000 0 0 1
-9.744440 3.379886 -23.297696 25.478626 -0.333868 2.724824 0.026468 -0.019936 42642.000000 0 0 1
-9.358240 4.661986 -24.118096 26.286752 -0.462182 2.732545 0.032653 -0.025285 -398395.000000 0 0 1
-10.453040 5.400386 -24.605596 27.273899 -0.476865 2.695562 0.046558 -0.015255 -467799.000000 0 0 1
-11.023240 4.772086 -25.729216 28.395021 -0.408552 2.704810 0.036742 -0.020516 -421401.000000 0 0 1
-12.509040 5.137486 -25.868946 29.190276 -0.389698 2.659913 0.034114 -0.012528 -152810.000000 0 0 1
-12.672640 6.463786 -26.288296 29.890648 -0.471662 2.645570 0.028584 -0.006526 -889109.000000 0 0 1
-14.003340 6.777686 -26.517446 30.744195 -0.450770 2.611023 0.036539 -0.016143 -605206.000000 0 0 1
-14.228040 8.223086 -26.838076 31.469646 -0.524048 2.592166 0.047279 -0.002514 -147602.000000 0 0 1
-14.057140 9.060086 -25.745556 30.700522 -0.572512 2.565510 0.062251 -0.000130 200.180000 0 0 1
-14.621240 10.342586 -25.912686 31.499477 -0.615653 2.536833 0.049969 0.003087 -123785.000000 0 0 1
-14.300740 11.276586 -24.711096 30.697082 -0.667709 2.506469 0.042238 0.004113 -181898.000000 0 0 1
-14.952740 10.900286 -23.524296 29.929804 -0.629914 2.475080 0.072007 0.002308 -11679.600000 0 0 1
-14.455740 11.669086 -22.462396 29.149532 -0.679133 2.450566 0.063997 0.002410 -90487.500000 0 0 1
-15.279140 11.698586 -21.133496 28.582052 -0.653447 2.402971 0.078552 -0.003412 691263.000000 0 0 1
-16.531040 12.386186 -21.241496 29.629277 -0.643033 2.370155 0.068690 -0.003272 335364.000000 0 0 1
-17.064640 12.771586 -20.010696 29.235994 -0.642492 2.324651 0.066614 -0.000754 624166.000000 0 0 1
-18.592140 13.109586 -20.082996 30.345604 -0.614150 2.294026 0.065566 -0.006243 607259.000000 0 0 1
-18.834140 14.314786 -20.787796 31.492387 -0.649899 2.291734 0.054701 -0.002032 -194056.000000 0 0 1
-20.175640 14.719886 -20.843896 32.529979 -0.630308 2.266284 0.038835 -0.004114 -278364.000000 0 0 1
-20.452840 15.909186 -21.773696 33.845454 -0.661086 2.269632 0.045367 -0.001093 -183797.000000 0 0 1
-20.367440 15.680986 -23.159196 34.598762 -0.656119 2.304150 0.057095 -0.011422 133386.000000 0 0 1
-20.803940 16.844086 -23.816596 35.829561 -0.680603 2.297914 0.049459 -0.007346 -52218.800000 0 0 1
-20.653840 16.977486 -25.348506 36.842407 -0.688013 2.329561 0.043646 0.000951 -791670.000000 0 0 1
-19.332940 17.200486 -25.690256 36.463798 -0.727094 2.352573 0.039154 -0.005961 -748943.000000 0 0 1
-19.014340 16.634186 -26.936146 36.929626 -0.718730 2.388228 0.025198 -0.008616 -295356.000000 0 0 1
-18.223940 17.545786 -27.865316 37.635654 -0.766442 2.404457 0.020583 0.000257 -193299.000000 0 0 1
-18.976240 18.700886 -28.115746 38.733913 -0.778090 2.383093 0.016838 -0.016782 245493.000000 0 0 1
-18.289540 19.865986 -27.741336 38.713646 -0.826691 2.369680 0.012234 -0.025818 -815507.000000 0 0 1
-19.141540 21.149186 -27.960896 39.943690 -0.835186 2.346205 0.033942 -0.012580 652159.000000 0 0 1
-20.196140 21.425186 -27.051016 39.983499 -0.814919 2.313870 0.046357 -0.001868 367239.000000 0 0 1
-21.389340 20.684986 -27.162286 40.288489 -0.768659 2.310670 0.076574 -0.019204 -104171.000000 0 0 1
-22.545840 21.176286 -26.244586 40.565112 -0.754084 2.274406 0.074383 0.000138 116272.000000 0 0 1
-22.320640 20.882386 -24.905296 39.427894 -0.752120 2.254498 0.043113 0.003698 209671.000000 0 0 1
-23.270340 21.404886 -23.983496 39.684833 -0.743666 2.219745 0.048986 -0.016311 -3412.440000 0 0 1
-22.879540 20.962186 -22.535396 38.350107 -0.741692 2.198914 0.057353 -0.002231 -134135.000000 0 0 1
-21.744440 21.494686 -21.901996 37.610366 -0.779622 2.192400 0.064660 -0.006227 -636564.000000 0 0 1
-20.757740 20.588686 -21.578096 36.337199 -0.781309 2.206606 0.053665 0.000184 -420403.000000 0 0 1
-21.023140 19.836086 -20.282696 35.310487 -0.756354 2.182680 0.048629 -0.001831 -810112.000000 0 0 1
-21.929940 18.737586 -20.405096 35.332526 -0.707060 2.186479 0.062779 -0.003031 330977.000000 0 0 1
-22.453640 18.298586 -19.159096 34.728593 -0.683790 2.155174 0.038808 0.002992 431481.000000 0 0 1
-23.569040 19.225286 -18.570196 35.636547 -0.684242 2.118935 0.041885 -0.007457 -185224.000000 0 0 1
-24.851040 19.229686 -19.158496 36.802215 -0.658559 2.118326 0.040107 -0.013475 221283.000000 0 0 1
-25.684790 20.203586 -18.552296 37.577667 -0.666515 2.087142 0.037513 -0.022115 -423608.000000 0 0 1
-27.141960 20.189686 -19.085196 38.840110 -0.639557 2.084468 0.024861 -0.007713 205987.000000 0 0 1
-27.962780 19.113986 -18.680096 38.680842 -0.599601 2.074793 0.018469 -0.010623 96021.600000 0 0 1
-28.291020 19.051186 -17.295596 38.242217 -0.592650 2.040099 0.018329 -0.015292 -841626.000000 0 0 1
-29.296920 17.928286 -16.935396 38.295439 -0.549161 2.028880 0.015924 -0.015117 -226291.000000 0 0 1
-28.678100 16.647386 -16.955796 37.243361 -0.525951 2.043472 0.022481 -0.021920 116332.000000 0 0 1
-29.526500 15.624086 -16.522396 37.268162 -0.486698 2.030116 0.012706 -0.018705 63621.500000 0 0 1
-28.746900 14.521286 -15.715896 35.836314 -0.467753 2.024777 0.026853 -0.013233 194001.000000 0 0 1
-27.955900 15.021286 -14.648296 34.953454 -0.493057 2.003228 0.021747 -0.015650 189364.000000 0 0 1
-28.641910 15.107986 -13.404196 35.046865 -0.485388 1.963259 -0.005269 -0.007793 9431.950000 0 0 1
-27.946610 16.018586 -12.367096 34.504394 -0.520469 1.937372 -0.002910 -0.010935 -65316.100000 0 0 1
-27.875950 17.417986 -12.627796 35.212442 -0.558484 1.937583 0.006283 -0.009199 329900.000000 0 0 1
-29.084740 18.111086 -12.332796 36.414714 -0.556944 1.916306 0.000452 -0.013396 137593.000000 0 0 1
-28.941110 19.656186 -12.477096 37.143390 -0.596615 1.913375 0.047383 -0.022666 73135.500000 0 0 1
-28.083970 20.237686 -11.471896 36.467489 -0.624427 1.890809 -0.010300 -0.030141 361019.000000 0 0 1
-26.997230 20.843186 -12.153496 36.207683 -0.657464 1.913103 -0.004126 -0.032883 -547943.000000 0 0 1
-26.007540 21.540686 -11.294396 35.608380 -0.691729 1.893555 0.023252 -0.025619 -64101.500000 0 0 1
-26.702250 22.699486 -10.830696 36.682159 -0.704550 1.870522 0.028548 -0.035294 500259.000000 0 0 1
-25.788100 23.745286 -10.475896 36.587008 -0.744180 1.861189 0.047708 -0.034722 358997.000000 0 0 1
-26.348780 24.785986 -9.421796 37.381460 -0.754845 1.825589 0.074748 -0.017477 8457.710000 0 0 1
-26.289200 24.336686 -8.061696 36.720393 -0.746850 1.792142 0.073201 -0.024579 316902.000000 0 0 1
-27.053880 25.153586 -7.137496 37.623918 -0.749015 1.761659 0.081810 -0.026401 460691.000000 0 0 1
-26.944670 24.658886 -5.658196 36.960670 -0.741132 1.724488 0.088568 -0.022103 -16573.800000 0 0 1
-27.493550 23.375386 -5.627896 36.523652 -0.704618 1.725502 0.073292 -0.028033 -150544.000000 0 0 1
-27.232740 22.655986 -4.453596 35.703646 -0.693915 1.695860 0.075073 -0.027532 3993.680000 0 0 1
-27.389300 21.116486 -4.677296 34.899239 -0.656791 1.705224 0.061529 -0.015814 -164525.000000 0 0 1
-26.546580 20.534086 -5.652796 34.034155 -0.658379 1.737661 0.045370 -0.023700 -124239.000000 0 0 1
-26.768520 20.785786 -7.048296 34.616196 -0.660247 1.775843 0.037084 -0.027417 -279265.000000 0 0 1
-28.100620 20.093886 -7.517096 35.354149 -0.620768 1.785055 0.015678 -0.029828 52205.000000 0 0 1
-28.002140 18.657286 -7.626396 34.501828 -0.587735 1.793680 0.011621 -0.017390 213624.000000 0 0 1
-27.363180 18.281086 -8.877896 34.084583 -0.588988 1.834302 0.003596 -0.011160 184415.000000 0 0 1
-26.841900 16.835386 -8.912996 32.914424 -0.560184 1.845013 0.018883 0.001415 759567.000000 0 0 1
-27.924110 15.885786 -8.745196 33.295534 -0.517231 1.836568 0.005611 -0.003968 895113.000000 0 0 1
-27.465710 14.593286 -9.148496 32.419504 -0.488394 1.856874 0.011913 -0.015582 185837.000000 0 0 1
-27.863600 13.423986 -8.229896 32.004919 -0.448962 1.830863 0.024961 -0.013194 37775.300000 0 0 1
-29.207160 13.022186 -8.383496 33.059319 -0.419402 1.827186 0.044759 -0.007748 -137104.000000 0 0 1
-29.592750 12.152586 -7.353796 32.825212 -0.389663 1.796743 0.054574 -0.012363 -4937.270000 0 0 1
-30.367530 10.852986 -7.715196 33.158686 -0.343241 1.805624 0.040467 -0.012153 -483221.000000 0 0 1
-29.542600 9.803986 -8.175996 32.182764 -0.320423 1.827661 0.042481 -0.006580 -243106.000000 0 0 1
-30.195780 8.637586 -8.563596 32.553467 -0.278613 1.836991 0.031015 -0.008067 -733462.000000 0 0 1
-29.232280 7.521786 -8.960496 31.486409 -0.251848 1.859368 0.058717 -0.013255 -342338.000000 0 0 1
-28.749100 7.575986 -10.285296 31.459397 -0.257663 1.903859 0.054097 -0.021132 -394290.000000 0 0 1
-27.783620 6.608686 -10.434296 30.405243 -0.233523 1.921091 0.066953 -0.029627 -1070290.000000 0 0 1
-26.979340 6.719086 -11.706396 30.167377 -0.244080 1.969309 0.049681 -0.032124 -212514.000000 0 0 1
-25.898210 7.650086 -11.612396 29.395388 -0.287223 1.976909 0.062834 -0.028549 811362.000000 0 0 1
-25.244090 7.900686 -12.846096 29.405903 -0.303315 2.022895 0.047019 -0.020840 -673209.000000 0 0 1
-31.478940 26.124086 -34.107623 53.260882 -0.692703 2.265800 0.038347 -0.005858 -117476.000000 0 0 1
-31.504540 27.533786 -34.150961 54.008644 -0.718242 2.255346 0.034891 -0.020552 382281.000000 0 0 1
-31.691860 27.920086 32.984053 53.589672 -0.722210 0.907785 0.042139 -0.028728 -124563.000000 0 0 1
-32.114170 29.416286 32.807607 54.525012 -0.741580 0.925171 0.050837 -0.033254 -31411.400000 0 0 1
-32.229310 29.799486 31.458682 54.003579 -0.746246 0.948959 0.063750 -0.035026 238544.000000 0 0 1
-32.642770 31.161486 31.439012 55.000001 -0.762186 0.962319 0.085551 -0.040610 -43217.000000 0 0 1
-32.501410 31.786186 30.083092 54.513262 -0.774273 0.986216 0.084181 -0.036635 -364091.000000 0 0 1
-31.147260 31.932486 29.724532 53.603949 -0.797846 0.983009 0.056967 -0.030459 68257.000000 0 0 1
-31.142740 32.429386 28.394622 53.176968 -0.805635 1.007514 0.067874 -0.025119 417155.000000 0 0 1
-29.704760 32.259886 27.830702 51.938627 -0.826610 1.005296 0.062012 -0.025759 -165320.000000 0 0 1
-29.400880 30.948886 27.432432 50.742326 -0.811043 0.999620 0.069297 -0.031328 279056.000000 0 0 1
-28.247320 30.877986 26.602702 49.588959 -0.829862 1.004555 0.048392 -0.021946 -105459.000000 0 0 1
-28.351650 31.400786 25.119032 49.201537 -0.836383 1.034991 0.066899 -0.018034 -907259.000000 0 0 1
-28.305670 32.845586 25.119552 50.110232 -0.859503 1.045712 0.058023 -0.019438 643109.000000 0 0 1
-29.380720 33.442986 24.372552 50.751171 -0.849970 1.069872 0.072559 -0.017032 310226.000000 0 0 1
-29.561080 -33.805297 24.872612 51.335197 0.852277 1.064989 0.070379 -0.017120 -207737.000000 0 0 1
-30.190730 -33.809997 26.129152 52.319487 0.841888 1.047873 0.061875 -0.027439 188342.000000 0 0 1
-29.980040 -32.594597 26.754192 51.739708 0.827157 1.027346 0.057141 -0.031982 -88626.400000 0 0 1
-30.313320 -32.660197 28.310012 52.792449 0.822649 1.004807 0.070123 -0.036046 912251.000000 0 0 1
-31.710290 -32.862397 28.566352 53.865723 0.803238 1.011812 0.060827 -0.037570 504321.000000 0 0 1
-31.900350 -33.109397 29.899722 54.843941 0.803994 0.994195 0.050460 -0.037157 1181620.000000 0 0 1
-33.415850 -33.345897 30.290712 56.090063 0.784350 1.000315 0.071277 -0.045286 1069460.000000 0 0 1
-33.723120 -33.304097 31.666012 57.001299 0.779147 0.981794 0.067549 -0.053994 -429385.000000 0 0 1
-35.075258 -33.520697 31.955452 58.095282 0.762739 0.988369 0.068268 -0.052380 -478229.000000 0 0 1
-35.463115 -34.188397 33.294623 59.455958 0.767099 0.976425 0.056614 -0.042280 -334366.000000 0 0 1
-35.035816 33.197986 33.499468 58.752268 -0.758470 0.964069 0.053145 -0.042291 114144.000000 0 0 1
-35.894908 32.522986 -34.098348 59.235854 -0.736154 2.184179 0.052276 -0.035276 379810.000000 0 0 1
-35.272481 31.208286 -33.551096 57.825437 -0.724341 2.189787 0.046596 -0.031546 -665542.000000 0 0 1
-34.196606 31.353386 -32.729256 56.777169 -0.742050 2.185175 0.049347 -0.032097 -1094450.000000 0 0 1
-33.658730 30.079186 -32.405986 55.568116 -0.729297 2.193429 0.043091 -0.020461 459690.000000 0 0 1
-32.790620 29.980786 -31.118856 54.244405 -0.740665 2.181786 0.038856 -0.013169 159367.000000 0 0 1
-33.538270 30.111286 -29.939316 54.109775 -0.731609 2.157125 0.039186 -0.020295 -387060.000000 0 0 1
-33.591790 31.437986 -29.462116 54.633064 -0.752290 2.140369 0.037042 -0.014749 14802.400000 0 0 1
-34.620936 31.672486 -28.335636 54.814814 -0.740952 2.114062 0.029739 -0.004208 -187059.000000 0 0 1
-34.241251 31.323086 -27.039246 53.709588 -0.740919 2.098365 0.010711 -0.007008 -120401.000000 0 0 1
-35.305927 31.182386 -26.104526 53.854396 -0.723458 2.076844 0.033672 -0.007623 112548.000000 0 0 1
-34.764041 30.797486 -24.668496 52.588577 -0.724971 2.059050 0.034223 -0.008400 1464.250000 0 0 1
-34.420908 32.007986 -23.944296 52.750729 -0.749091 2.041949 0.028850 -0.011130 -249744.000000 0 0 1
-34.238949 31.825186 -22.575496 51.911474 -0.748878 2.020706 0.018487 -0.015037 313816.000000 0 0 1
-35.461284 31.663586 -21.591296 52.213690 -0.728882 1.997111 0.012365 -0.024057 239065.000000 0 0 1
35.622323 32.703186 -21.495196 52.919672 0.742700 1.989072 0.015736 -0.027667 -106750.000000 0 0 1
35.976253 33.857786 -20.719596 53.571841 0.755072 1.967915 0.016111 -0.022407 -279461.000000 0 0 1
-35.898032 33.719486 -19.171696 52.850983 -0.754115 1.942014 0.018017 -0.021201 -60162.700000 0 0 1
-34.795017 32.866886 -18.987096 51.492089 -0.756909 1.948447 0.020683 -0.029762 -304775.000000 0 0 1
-34.523952 32.714586 -17.629296 50.724151 -0.758495 1.925756 0.033838 -0.017712 562028.000000 0 0 1
-33.282650 31.810386 -17.257196 49.167533 -0.762784 1.929422 0.038056 -0.014641 628925.000000 0 0 1
-33.185530 31.412486 -15.895596 48.380716 -0.757958 1.905567 0.039637 -0.013448 -96529.600000 0 0 1
-32.109870 30.501686 -15.685896 46.983443 -0.759719 1.911192 0.048291 -0.008524 116737.000000 0 0 1
-31.898070 30.181786 -14.218796 46.158436 -0.757759 1.883932 0.053871 -0.011067 494460.000000 0 0 1
-32.948010 29.354586 -13.649996 46.190751 -0.727785 1.870789 0.054331 -0.014913 1103790.000000 0 0 1
-32.436310 28.702786 -12.461896 45.069535 -0.724408 1.850950 0.069745 -0.023321 396871.000000 0 0 1
-33.589860 28.114686 -11.620596 45.318347 -0.696898 1.830114 0.076276 -0.023983 32769.700000 0 0 1
-33.049140 27.407986 -10.499496 44.200484 -0.692359 1.810632 0.076921 -0.022428 274716.000000 0 0 1
-33.949840 26.616086 -9.745496 44.226490 -0.664898 1.792974 0.091812 -0.017895 -415268.000000 0 0 1
-33.213440 25.782486 -8.653796 42.927350 -0.660101 1.773779 0.078540 -0.021656 192354.000000 0 0 1
-32.559360 26.452086 -7.637496 42.639842 -0.682272 1.750885 0.083297 -0.024445 -20756.200000 0 0 1
-31.245650 26.899586 -7.887496 41.977267 -0.710792 1.759819 0.094815 -0.028824 -504669.000000 0 0 1
-30.738300 27.737086 -6.719996 41.944575 -0.734119 1.731701 0.095765 -0.019082 -488775.000000 0 0 1
-30.358160 26.856586 -5.669796 40.927261 -0.724274 1.709777 0.114387 -0.029707 205267.000000 0 0 1
-30.372060 27.436086 -4.404296 41.165504 -0.734654 1.677991 0.106646 -0.026388 -116845.000000 0 0 1
-29.653010 26.490686 -3.413896 39.908798 -0.729132 1.656443 0.102185 -0.025588 176920.000000 0 0 1
-30.355560 25.268986 -3.135096 39.620834 -0.694207 1.650007 0.106878 -0.017707 496837.000000 0 0 1
-29.619670 24.474286 -2.181896 38.484753 -0.690564 1.627522 0.076312 -0.011851 416758.000000 0 0 1
-30.424790 23.262586 -1.664296 38.335175 -0.652775 1.614224 0.085961 -0.017603 -132101.000000 0 0 1
-30.397060 22.194386 -2.601296 37.727162 -0.630675 1.639801 0.069019 -0.011659 606397.000000 0 0 1
-31.493710 21.315986 -2.313296 38.099559 -0.595008 1.631551 0.079070 -0.008745 291090.000000 0 0 1
-31.919270 20.433586 -3.479596 38.058887 -0.569430 1.662351 0.067762 -0.010016 -811594.000000 0 0 1
-30.945440 19.560786 -3.893396 36.815800 -0.563693 1.676748 0.058089 -0.010202 -742165.000000 0 0 1
-31.327850 18.772386 -4.960896 36.857118 -0.539848 1.705804 0.052787 -0.011191 -285275.000000 0 0 1
-30.298460 17.792086 -5.577696 35.576196 -0.530975 1.728228 0.040837 -0.001312 -163001.000000 0 0 1
-29.997680 16.648086 -4.793496 34.640976 -0.506658 1.709618 0.048015 0.000234 120382.000000 0 0 1
-29.246190 15.667786 -5.452796 33.623684 -0.491814 1.733687 0.028559 -0.005436 -530509.000000 0 0 1
-28.971670 14.408386 -4.607796 32.683192 -0.461507 1.712251 0.035676 -0.001382 -727040.000000 0 0 1
-30.101320 13.714286 -4.228196 33.347395 -0.427505 1.697931 0.055959 0.003414 -519906.000000 0 0 1
-29.793720 12.676386 -3.315996 32.547694 -0.402270 1.672855 0.049101 -0.003680 -408606.000000 0 0 1
-31.028770 12.011086 -2.695196 33.381355 -0.369332 1.651624 0.055413 -0.004955 -410686.000000 0 0 1
-31.788600 11.426886 -3.740596 33.986481 -0.345082 1.681081 0.052784 0.004443 659921.000000 0 0 1
-32.812190 10.564086 -3.210096 34.620001 -0.311476 1.663653 0.043960 0.006217 346862.000000 0 0 1
-33.743750 9.964386 -4.285296 35.444230 -0.287135 1.691995 0.045579 -0.001879 83990.800000 0 0 1
-33.148590 8.938686 -5.073096 34.705410 -0.263390 1.717498 0.044875 -0.014573 939075.000000 0 0 1
-34.103147 8.472786 -6.065796 35.659594 -0.243515 1.741730 0.057539 -0.012279 318948.000000 0 0 1
-33.493020 7.730586 -7.224296 35.124562 -0.226839 1.777951 0.060009 -0.020648 -623786.000000 0 0 1
-32.883200 6.517486 -6.874696 34.220519 -0.195665 1.773067 0.056482 -0.021733 365751.000000 0 0 1
-32.536770 5.622786 -7.941296 33.960585 -0.171123 1.806820 0.059374 -0.022106 -353501.000000 0 0 1
-31.512480 4.600986 -7.418196 32.699161 -0.144981 1.799651 0.069477 -0.025214 -192317.000000 0 0 1
-30.305850 5.154586 -6.938996 31.514504 -0.168473 1.792800 0.055836 -0.021025 -186571.000000 0 0 1
-29.431550 4.109886 -6.644896 30.450976 -0.138745 1.790783 0.055714 -0.024934 407513.000000 0 0 1
-27.947850 4.556786 -6.371696 29.024906 -0.161624 1.792124 0.076662 -0.021768 1020250.000000 0 0 1
-27.175780 4.867286 -7.540996 28.619576 -0.177225 1.837435 0.075050 -0.023653 587847.000000 0 0 1
-25.839660 4.424186 -7.399996 27.240070 -0.169573 1.845912 0.095164 -0.026971 17594.000000 0 0 1
-24.851940 4.702786 -8.536096 26.694570 -0.187021 1.896282 0.088756 -0.022564 46125.200000 0 0 1
-25.213380 3.863786 -9.616996 27.260411 -0.152061 1.931339 0.085343 -0.038442 854235.000000 0 0 1
-24.229040 4.114286 -10.617496 26.771346 -0.168204 1.978606 0.087713 -0.041458 214550.000000 0 0 1
-24.622840 3.483886 -11.979196 27.602950 -0.140557 2.019705 0.073572 -0.044576 -152234.000000 0 0 1
-25.478020 4.279486 -12.752496 28.810930 -0.166414 2.029323 0.069509 -0.033654 83525.600000 0 0 1
-25.910100 3.572186 -13.893396 29.616216 -0.137005 2.059084 0.069681 -0.038511 -240436.000000 0 0 1
-26.688810 4.531286 -14.804096 30.854277 -0.168178 2.071231 0.049351 -0.032848 -381497.000000 0 0 1
-25.855790 5.379486 -15.566396 30.655725 -0.205131 2.103403 0.035233 -0.027183 834693.000000 0 0 1
-26.620760 6.277886 -16.445196 31.914279 -0.231595 2.112146 0.046921 -0.022160 711946.000000 0 0 1
-27.503770 5.598586 -17.560896 33.108709 -0.200813 2.129870 0.021202 -0.020048 -394716.000000 0 0 1
-28.775450 5.178586 -17.218696 33.931222 -0.178059 2.103029 0.026925 -0.024337 -597087.000000 0 0 1
-29.489890 4.624986 -18.342596 35.035624 -0.155566 2.121798 0.031284 -0.017364 1198750.000000 0 0 1
-30.901990 4.058586 -17.897796 35.940732 -0.130590 2.092065 0.031734 -0.021318 502534.000000 0 0 1
-30.901320 2.975486 -16.998596 35.393465 -0.095994 2.071765 0.039617 -0.027537 193199.000000 0 0 1
-30.556800 1.733186 -17.565096 35.288165 -0.056659 2.091812 0.063697 -0.028634 -304329.000000 0 0 1
-30.675270 0.612286 -16.562996 34.866602 -0.019958 2.065805 0.060132 -0.028143 -550697.000000 0 0 1
-30.342150 -0.637114 -17.056696 34.813545 0.020995 2.082822 0.063918 -0.016661 208249.000000 0 0 1
-30.405160 -1.682214 -16.115096 34.452866 0.055270 2.057532 0.077186 -0.027419 -203792.000000 0 0 1
-30.204030 -3.049714 -16.840796 34.715942 0.100629 2.077277 0.072204 -0.014856 537464.000000 0 0 1
-31.207500 -3.373714 -17.829596 36.099647 0.107688 2.087365 0.068033 -0.014194 726483.000000 0 0 1
-30.845660 -4.580614 -18.506396 36.261874 0.147424 2.106393 0.063813 -0.010512 -105410.000000 0 0 1
-31.921910 -4.994014 -19.511496 37.744497 0.155187 2.114064 0.071725 -0.007986 -128606.000000 0 0 1
-31.669880 -6.190614 -20.219096 38.080400 0.193039 2.130527 0.066907 -0.005792 267521.000000 0 0 1
-32.637030 -6.240214 -21.253596 39.444028 0.188920 2.139843 0.059467 -0.007013 -129097.000000 0 0 1
-32.562180 -7.547014 -22.116696 40.079936 0.227751 2.155335 0.060151 -0.004145 193696.000000 0 0 1
-31.315730 -7.635514 -22.789796 39.475953 0.239157 2.186225 0.056052 -0.006113 337097.000000 0 0 1
-31.453770 -8.457514 -23.946996 40.426821 0.262674 2.204774 0.045472 0.006142 401196.000000 0 0 1
-30.128030 -8.379814 -24.764296 39.889721 0.271283 2.240583 0.043702 0.001020 214844.000000 0 0 1
-29.888460 -7.098814 -25.357746 39.833761 0.233189 2.260864 0.049351 -0.006460 27218.200000 0 0 1
-29.960840 -7.061714 -26.796556 40.811459 0.231473 2.287090 0.049948 -0.002647 184381.000000 0 0 1
-31.319760 -7.200014 -27.547706 42.327813 0.225961 2.279458 0.056269 0.001274 164607.000000 0 0 1
-32.017160 -8.403314 -27.309326 42.912860 0.256674 2.260606 0.037315 -0.000215 -767657.000000 0 0 1
-33.222230 -8.383014 -28.013556 44.257777 0.247172 2.256171 0.045864 0.005264 -280944.000000 0 0 1
-34.085366 -9.579814 -27.560726 44.868460 0.273985 2.232239 0.035175 0.009375 -368195.000000 0 0 1
-33.601630 -10.802514 -28.120256 45.127738 0.311052 2.243529 0.027533 0.012103 1114810.000000 0 0 1
-34.544513 -11.919714 -27.880956 45.964668 0.332262 2.222540 0.008873 0.011641 1610730.000000 0 0 1
-35.929495 -11.861514 -28.604286 47.432366 0.318868 2.218121 0.017814 0.007043 395382.000000 0 0 1
35.045483 -11.107614 -28.042146 46.237722 -0.306932 2.222419 0.003319 0.009413 -224937.000000 0 0 1
34.185163 -10.670814 -29.035896 46.103958 -0.302564 2.252082 0.001882 0.003448 -509858.000000 0 0 1
33.232293 -9.587314 -28.522176 44.830976 -0.280868 2.260380 0.009880 0.004984 586712.000000 0 0 1
32.173433 -10.086914 -27.670366 43.617941 -0.303811 2.258003 -0.005383 0.010450 662400.000000 0 0 1
31.300613 -9.055814 -27.220116 42.457872 -0.281628 2.266739 0.002621 0.002163 53467.000000 0 0 1
30.493433 -9.474414 -25.999626 41.177598 -0.301247 2.254156 0.001482 0.011764 -140667.000000 0 0 1
31.228663 -9.670214 -24.793296 41.029867 -0.300294 2.219651 -0.009622 0.014470 90589.300000 0 0 1
30.326453 -9.958814 -23.752396 39.787536 -0.317292 2.210529 0.002604 0.008741 -12070.300000 0 0 1
31.046183 -10.059414 -22.408496 39.587852 -0.313340 2.172496 -0.000125 -0.001805 -79918.900000 0 0 1
31.793573 -11.230314 -22.206096 40.374026 -0.339546 2.153172 0.001855 0.004931 70090.700000 0 0 1
32.048063 -11.331414 -20.802096 39.852309 -0.339857 2.119967 0.009692 0.003350 -149956.000000 0 0 1
32.991093 -12.470214 -20.347096 40.717598 -0.361387 2.094063 0.015631 0.000686 749346.000000 0 0 1
34.322703 -12.416114 -20.887596 42.053531 -0.347101 2.090578 0.017580 0.005774 1236490.000000 0 0 1
35.275013 -12.996514 -19.970896 42.568446 -0.353002 2.059122 0.020014 0.005610 686500.000000 0 0 1
-35.279787 -12.755514 -20.412196 42.708597 0.346930 2.069106 0.006911 0.000368 102253.000000 0 0 1
-34.713974 -11.458514 -20.522496 41.922910 0.318823 2.082346 0.018583 0.003591 62326.200000 0 0 1
-35.055962 -10.717514 -21.670796 42.584140 0.296702 2.104695 0.021144 0.010748 -726335.000000 0 0 1
-34.584912 -11.139614 -23.091196 43.051255 0.311602 2.136921 0.013100 0.010385 164806.000000 0 0 1
-35.333425 -12.160414 -23.733296 44.267324 0.331464 2.136649 0.012283 0.011621 -245477.000000 0 0 1
35.356803 -11.857214 -24.011496 44.353681 -0.323572 2.142855 0.006649 0.016473 -659555.000000 0 0 1
34.758913 -12.911714 -25.030496 44.737234 -0.355668 2.164579 0.000599 0.003906 -27562.800000 0 0 1
34.613923 -14.258714 -24.568296 44.777626 -0.390753 2.151573 0.011323 -0.004196 669373.000000 0 0 1
33.721033 -14.440814 -23.457396 43.541872 -0.404615 2.139728 0.011115 -0.003021 -57325.900000 0 0 1
-29.668470 8.644186 -19.290196 36.428722 -0.283511 2.128846 0.006403 -0.003137 231543.000000 0 0 1
-28.391110 8.020486 -19.327896 35.269688 -0.275325 2.150771 0.002992 -0.000536 614553.000000 0 0 1
-27.695970 8.423286 -20.545296 35.498278 -0.295245 2.188014 0.014617 -0.018680 -36252.100000 0 0 1
-26.506970 7.523186 -20.876496 34.569436 -0.276547 2.219182 0.018203 -0.013247 -531130.000000 0 0 1
-25.426120 7.683286 -19.995996 33.246960 -0.293456 2.216097 0.029074 -0.021811 -211472.000000 0 0 1
-24.463240 6.682086 -20.195796 32.418677 -0.266644 2.243327 0.060467 -0.027459 554763.000000 0 0 1
-23.029640 7.027786 -19.661296 31.085699 -0.296186 2.255556 0.053719 -0.021042 1106560.000000 0 0 1
-22.384840 8.084286 -20.448696 31.378112 -0.346573 2.280602 0.058293 -0.014581 1089840.000000 0 0 1
-21.085040 8.474186 -19.944396 30.235239 -0.382148 2.291137 0.059951 -0.011332 996916.000000 0 0 1
-20.371440 9.569986 -20.788796 30.639097 -0.439176 2.316523 0.067710 -0.007076 -119881.000000 0 0 1
-19.799940 9.055186 -21.982496 30.939686 -0.428936 2.360998 0.088415 -0.012519 -70379.400000 0 0 1
-19.305040 10.098386 -22.757096 31.504721 -0.481953 2.377975 0.073135 -0.007263 516190.000000 0 0 1
-18.306340 9.599786 -23.875596 31.580407 -0.482974 2.428016 0.091048 -0.006250 682504.000000 0 0 1
-19.009840 8.782386 -24.763496 32.430465 -0.432781 2.439647 0.092480 -0.007880 47252.900000 0 0 1
-18.032940 8.234586 -25.634206 32.405368 -0.428363 2.483317 0.068411 -0.005749 12035.400000 0 0 1
-18.489240 7.259386 -26.733806 33.305361 -0.374135 2.502585 0.053612 -0.005828 -263590.000000 0 0 1
-18.772140 5.997386 -26.170536 32.760630 -0.309234 2.496162 0.065625 -0.000317 235413.000000 0 0 1
-19.278940 5.014286 -27.058166 33.600074 -0.254454 2.506979 0.055281 -0.002848 -739005.000000 0 0 1
-19.669140 3.666986 -26.374846 33.105202 -0.184317 2.492608 0.042488 0.006391 -187249.000000 0 0 1
-18.697040 2.740686 -25.928976 32.084303 -0.145547 2.511803 0.045497 0.008709 -455415.000000 0 0 1
-17.730640 3.257786 -25.086886 30.892404 -0.181711 2.518492 0.044078 0.002903 -592749.000000 0 0 1
-16.762440 2.170286 -24.500196 29.764898 -0.128757 2.537687 0.045441 0.000444 109528.000000 0 0 1
-17.241140 1.353286 -23.473796 29.156602 -0.078331 2.506630 0.042057 0.001051 -357623.000000 0 0 1
-18.478240 0.720386 -23.621696 29.999148 -0.038966 2.477396 0.033620 0.001119 -355723.000000 0 0 1
-18.978040 -0.063114 -22.378296 29.342088 0.003326 2.438226 0.056556 -0.002216 113336.000000 0 0 1
-18.322040 -1.299614 -22.223596 28.831830 0.070813 2.450893 0.045004 -0.003502 256563.000000 0 0 1
-18.775640 -1.910714 -20.991196 28.227749 0.101416 2.409290 0.061777 -0.010981 16813.700000 0 0 1
-18.298940 -3.359914 -20.798296 27.905365 0.181590 2.411804 0.039054 -0.015056 8249.420000 0 0 1
-18.734940 -4.324014 -21.792196 29.061915 0.226828 2.418638 0.041223 -0.019814 276497.000000 0 0 1
-18.848440 -5.691214 -21.447196 29.114186 0.293241 2.398911 0.037932 -0.016176 -105469.000000 0 0 1
-18.980440 -6.726014 -22.587396 30.260318 0.340559 2.413487 0.017985 -0.017503 621613.000000 0 0 1
-17.694240 -6.825714 -23.219796 29.980585 0.368170 2.456712 0.019223 -0.006809 679918.000000 0 0 1
-17.705040 -7.899214 -24.171196 30.985687 0.419653 2.465584 0.032173 -0.015624 163239.000000 0 0 1
-16.369140 -7.860914 -24.932996 30.844725 0.447705 2.512122 0.038345 -0.018608 -293004.000000 0 0 1
-16.322440 -8.768314 -26.005616 31.931136 0.492958 2.522539 0.045351 -0.037200 298548.000000 0 0 1
-15.017840 -8.901414 -26.561326 31.784820 0.535051 2.560131 0.057761 -0.041089 603957.000000 0 0 1
-13.963840 -9.791614 -25.846986 30.966615 0.611539 2.558334 0.066834 -0.047774 -276407.000000 0 0 1
-13.317740 -9.037614 -24.838196 29.596903 0.596229 2.566636 0.060680 -0.037788 1975.100000 0 0 1
-12.449840 -9.880614 -24.110096 28.877704 0.670847 2.558754 0.046645 -0.039171 -196959.000000 0 0 1
-11.743740 -9.218614 -22.921296 27.354782 0.665516 2.564269 0.058020 -0.032388 -317716.000000 0 0 1
-12.518640 -8.885014 -21.805196 26.666954 0.617235 2.528176 0.059932 -0.032139 -506054.000000 0 0 1
-11.709740 -8.270214 -20.887296 25.333646 0.614920 2.540094 0.059730 -0.026843 -1164600.000000 0 0 1
-12.328240 -7.947214 -19.513796 24.411718 0.572594 2.497029 0.039926 -0.017288 -234961.000000 0 1 0
-13.207640 -6.845914 -19.544896 24.562396 0.478204 2.490999 0.023599 -0.005591 144717.000000 0 1 0
-14.549840 -7.181014 -19.838996 25.629097 0.458471 2.456058 0.026644 -0.013785 -37322.000000 0 0 1
-15.484340 -5.913314 -19.679596 25.729722 0.364797 2.441618 0.018939 -0.003958 -2563.160000 0 0 1
-15.588940 -5.492714 -18.329896 24.681371 0.338764 2.407832 0.013342 0.000476 196112.000000 0 1 0
-15.518740 -4.110314 -18.022696 24.135939 0.258916 2.413908 0.015389 -0.004272 -467657.000000 0 1 0
-15.078340 -3.837914 -16.573096 22.732212 0.249239 2.387741 0.027907 -0.005773 444749.000000 0 1 0
-16.101440 -3.690214 -15.557496 22.691623 0.225295 2.326231 0.033965 -0.015020 481602.000000 0 1 0
-16.705140 -2.388314 -15.593696 22.976708 0.142006 2.316752 0.017425 -0.013115 -104524.000000 0 1 0
-17.956540 -2.278314 -14.726796 23.334665 0.126205 2.253783 0.028289 -0.015577 -132554.000000 0 1 0
-17.597940 -2.573914 -13.380396 22.256405 0.145232 2.215790 0.040759 -0.024704 1085280.000000 0 1 0
-18.511940 -1.856514 -12.516396 22.423175 0.099953 2.162999 0.041751 -0.027694 400845.000000 0 1 0
-17.956040 -0.539314 -12.051596 21.632180 0.030026 2.161703 0.037335 -0.021193 -88364.700000 0 1 0
-17.647640 0.389486 -13.080196 21.970035 -0.022067 2.208517 0.051768 -0.023573 277390.000000 0 1 0
-16.922640 1.510486 -12.651096 21.182719 -0.089022 2.210848 0.065988 -0.014662 -961839.000000 0 1 0
-16.374640 2.268786 -13.831996 21.554590 -0.137678 2.267534 0.070423 -0.008648 241637.000000 0 1 0
-15.461640 1.650086 -14.743196 21.427714 -0.106319 2.329586 0.055769 -0.023701 797906.000000 0 1 0
-14.162340 1.382386 -14.217996 20.115524 -0.097302 2.355785 0.044312 -0.018260 -481250.000000 0 1 0
-13.393940 0.351086 -15.024796 20.131205 -0.026206 2.413348 0.027633 -0.025389 -554587.000000 0 1 0
-12.950540 0.774086 -16.270196 20.809493 -0.059701 2.468447 0.031214 -0.028927 -283930.000000 0 1 0
-12.461440 -0.242314 -17.076596 21.141342 0.019443 2.511096 0.000503 -0.019335 -288069.000000 0 1 0
-11.848140 0.259486 -18.433096 21.914032 -0.021897 2.570212 0.012192 -0.021731 -643093.000000 0 1 0
-10.676440 0.957586 -18.237596 21.154509 -0.089452 2.610223 -0.007285 -0.016312 -1325130.000000 0 1 0
-10.491140 1.565886 -19.467196 22.169523 -0.148164 2.642686 0.001558 -0.007379 59216.000000 0 1 0
-9.212440 2.416586 -19.512196 21.712548 -0.256538 2.687501 0.001065 -0.003496 -526562.000000 0 1 0
-8.025640 1.672486 -19.571896 21.219501 -0.205452 2.744927 0.002069 -0.002640 -641602.000000 0 1 0
-6.797640 2.324586 -19.421596 20.707728 -0.329503 2.787297 0.007618 0.002897 120151.000000 0 1 0
-6.418740 3.419786 -20.425896 21.682076 -0.489528 2.799527 0.007894 0.006236 -977766.000000 0 1 0
-6.090840 2.836986 -21.679396 22.696763 -0.435898 2.841049 0.007749 0.002815 76742.500000 0 1 0
-5.797540 3.874986 -22.569396 23.622122 -0.589191 2.841925 0.011069 0.000316 -418539.000000 0 1 0
-5.355240 3.339786 -23.940196 24.758146 -0.557627 2.883829 0.029926 -0.011736 -130173.000000 0 1 0
-4.119840 2.670186 -23.846996 24.347119 -0.575058 2.938555 0.041821 -0.020552 -401322.000000 0 1 0
-3.764240 2.170186 -25.107916 25.481104 -0.522981 2.970236 0.052678 -0.024900 -430537.000000 0 0 1
-2.392440 1.506286 -25.020596 25.179812 -0.561902 3.029078 0.043572 -0.022378 -680627.000000 0 0 1
-1.405140 2.382186 -24.552096 24.707381 -1.037871 3.029418 0.046215 -0.027163 1168260.000000 0 1 0
-0.019340 1.937386 -24.667296 24.743269 -1.560814 3.063209 0.039044 -0.023882 1886910.000000 0 1 0
0.558060 0.979786 -23.541996 23.568984 1.053050 3.093733 0.031162 -0.030688 -322837.000000 0 1 0
0.063060 -0.342714 -23.612696 23.615267 -1.388831 3.126836 0.024586 -0.031763 -337896.000000 0 1 0
0.821760 -1.162814 -22.780196 22.824653 -0.955589 3.079169 0.025402 -0.027422 -1064930.000000 0 1 0
0.381560 -2.605314 -22.860196 23.011341 -1.425376 3.026915 0.033153 -0.026652 -94017.800000 0 1 0
-0.778940 -2.935514 -22.111896 22.319497 1.311423 3.005095 0.037378 -0.028308 981795.000000 0 1 0
-2.036340 -2.755714 -22.813796 23.069676 0.934404 2.992514 0.049790 -0.033217 722177.000000 0 1 0
-2.704640 -1.337314 -22.727596 22.926996 0.459199 3.009610 0.043119 -0.032874 -1487600.000000 0 1 0
-3.267340 -1.000114 -21.456696 21.727070 0.297038 2.983669 0.031439 -0.027368 528688.000000 0 1 0
-4.157940 0.109986 -21.557696 21.955292 -0.026446 2.950992 0.024143 -0.017873 843332.000000 0 1 0
-5.553440 -0.105314 -22.208096 22.892168 0.018962 2.896512 0.025600 -0.017857 118666.000000 0 1 0
-6.328640 -1.175214 -21.613196 22.551343 0.183606 2.852137 0.029017 -0.018879 791571.000000 0 1 0
-7.719640 -0.964514 -21.844296 23.188282 0.124299 2.799457 0.015177 -0.009525 441063.000000 0 1 0
-8.665840 -2.109614 -21.545696 23.318754 0.238795 2.749115 0.025549 -0.011148 -214527.000000 0 1 0
-8.689640 -3.171014 -22.523796 24.349262 0.349903 2.751911 0.049845 -0.019063 -32824.700000 0 1 0
-9.180140 -4.357914 -21.901796 24.144463 0.443213 2.707174 0.035562 -0.022844 96224.800000 0 1 0
-10.039040 -5.255514 -22.873796 25.526718 0.482276 2.681638 0.026703 -0.024121 -944463.000000 0 0 1
-11.355940 -4.872514 -22.887296 26.010135 0.405314 2.646527 0.021197 -0.021773 -1407230.000000 0 0 1
-12.134140 -5.574114 -23.819596 27.307165 0.430622 2.630650 0.021282 -0.030814 -282462.000000 0 0 1
-13.627840 -5.500814 -23.493496 27.711394 0.383645 2.582604 0.025530 -0.014667 -308268.000000 0 0 1
-14.206240 -4.223114 -23.727096 27.975472 0.288952 2.583259 0.015854 -0.016742 651125.000000 0 0 1
-15.625240 -4.298614 -23.933796 28.904201 0.268466 2.546397 0.031309 -0.010773 1095120.000000 0 0 1
-16.202340 -2.939614 -24.478996 29.502177 0.179479 2.549430 0.027759 -0.014286 193390.000000 0 0 1
-15.641540 -2.624414 -25.773376 30.262390 0.166236 2.589948 0.026914 -0.017779 278726.000000 0 0 1
-15.949640 -1.289814 -26.167326 30.672196 0.080692 2.592749 0.022145 -0.010732 -681605.000000 0 0 1
-17.326540 -0.985114 -26.716136 31.857988 0.056795 2.565506 0.040902 -0.011048 -596463.000000 0 0 1
-17.733040 -1.557914 -28.018026 33.194843 0.087629 2.575583 0.040467 -0.024283 348980.000000 0 0 1
-17.279140 -0.787014 -29.176016 33.917960 0.045516 2.606446 0.026282 -0.014186 -34420.600000 0 0 1
-17.378840 -1.574714 -30.498066 35.137386 0.090364 2.621889 0.028840 -0.015112 -395890.000000 0 0 1
-18.706640 -1.834314 -30.822746 36.101867 0.097744 2.593983 0.035234 -0.018379 -444898.000000 0 0 1
-18.735440 -2.665814 -31.987386 37.166062 0.141339 2.607363 0.039693 -0.023883 -108755.000000 0 0 1
-20.142340 -3.175814 -32.429106 38.307266 0.156381 2.580271 0.021799 -0.021317 496572.000000 0 0 1
-21.092640 -2.219514 -32.863386 39.113014 0.104841 2.568478 0.016690 -0.017543 161409.000000 0 0 1
-21.847440 -1.714414 -31.808046 38.626438 0.078312 2.538312 0.010533 -0.005350 -890045.000000 0 0 1
-22.892040 -0.684414 -32.217936 39.528589 0.029889 2.523619 0.008879 -0.003269 -423990.000000 0 0 1
-22.340640 0.506886 -32.760486 39.656155 -0.022685 2.542972 0.004516 -0.004724 386036.000000 0 0 1
-23.336440 1.309186 -33.384216 40.753028 -0.056042 2.530783 -0.005420 0.001302 308045.000000 0 0 1
-22.788540 2.685886 -33.929486 40.960244 -0.117320 2.546955 -0.000705 0.000922 -593418.000000 0 0 1
-22.377140 3.672186 -32.948206 39.997571 -0.162655 2.538799 -0.002651 -0.000205 524846.000000 0 0 1
-23.362240 4.134986 -32.014006 39.847070 -0.175180 2.503816 -0.009833 0.002261 -30666.300000 0 0 1
-24.511040 4.955986 -32.657986 41.132675 -0.199504 2.488103 -0.012684 0.003699 -631760.000000 0 0 1
-25.392540 4.169286 -33.383826 42.150254 -0.162741 2.484906 0.006641 -0.008124 -418379.000000 0 0 1
-26.302100 4.910986 -34.176223 43.404291 -0.184589 2.477364 0.021752 -0.009490 -838018.000000 0 0 1
-27.607530 4.174586 34.166872 44.124574 -0.150075 0.685145 0.037131 -0.005607 -923207.000000 0 0 1
-27.519650 3.061186 33.277496 43.290805 -0.110781 0.693995 0.048189 -0.004981 1202040.000000 0 0 1
-28.834810 2.582086 32.895002 43.820025 -0.089309 0.721699 0.048034 -0.006083 1146480.000000 0 0 1
-28.842980 1.075386 32.503443 43.468929 -0.037267 0.726145 0.052791 0.000422 -102490.000000 0 0 1
-28.792480 0.296886 33.656918 44.293151 -0.010311 0.707687 0.054837 0.005740 126039.000000 0 0 1
-28.720280 -1.018814 33.271187 43.964354 0.035459 0.712429 0.041974 0.006938 -513978.000000 0 0 1
-28.538940 -1.929914 -34.027156 44.452706 0.067521 2.442566 0.002244 0.017853 1160340.000000 0 0 1
-27.264960 -2.002414 -33.319646 43.099728 0.073311 2.454483 0.018638 0.005543 1471270.000000 0 0 1
-26.784540 -0.822114 -32.625576 42.219850 0.030684 2.453966 0.024900 0.009539 -195576.000000 0 0 1
-27.134520 -0.772414 -31.078016 41.264051 0.028458 2.423634 0.048844 0.006540 203302.000000 0 0 1
-26.153620 -1.438814 -30.279116 40.036320 0.054959 2.428422 0.039076 0.001426 631696.000000 0 0 1
-26.272340 -1.009514 -29.017496 39.156993 0.038406 2.405437 0.043792 -0.009250 182170.000000 0 0 1
-25.231380 -1.576514 -27.987716 37.714987 0.062401 2.406971 0.046973 -0.011400 399511.000000 0 0 1
-25.523150 -2.888414 -27.694316 37.772335 0.112689 2.393798 0.035325 -0.010555 -208929.000000 0 0 1
-24.568240 -3.293814 -26.780626 36.491774 0.133273 2.394814 0.049909 -0.016114 -317132.000000 0 0 1
-24.836740 -4.690114 -26.096726 36.330428 0.186640 2.372175 0.041928 -0.018682 -116899.000000 0 0 1
-25.975990 -4.580314 -25.291566 36.543052 0.174535 2.335195 0.045347 -0.016285 -298540.000000 0 0 1
-26.079650 -5.766114 -24.579796 36.298245 0.217596 2.314695 0.033467 -0.013624 -204276.000000 0 0 1
-27.181910 -5.548414 -23.564596 36.399607 0.201355 2.274946 0.048736 -0.019435 -332637.000000 0 0 1
-27.326790 -6.651014 -22.715896 36.152474 0.238746 2.250209 0.044293 -0.018268 -57282.600000 0 0 1
-28.435720 -6.489214 -21.860796 36.449890 0.224364 2.213984 0.052406 -0.015544 -163727.000000 0 0 1
-28.594880 -7.700214 -20.982496 36.293603 0.263047 2.187234 0.057479 -0.012732 -77334.900000 0 0 1
-27.537690 -7.829114 -20.038596 34.945168 0.276997 2.181482 0.053304 -0.014819 227712.000000 0 0 1
-27.752010 -8.757114 -19.008396 34.758888 0.305660 2.149411 0.066091 -0.006843 -135749.000000 0 0 1
-28.497960 -8.109314 -17.793296 34.561483 0.277230 2.111606 0.065226 -0.013126 356374.000000 0 0 1
-27.716590 -7.098514 -17.126296 33.345289 0.250722 2.110177 0.073448 -0.020495 452706.000000 0 0 1
-28.399620 -6.522214 -16.009996 33.247522 0.225744 2.073207 0.065965 -0.019980 -112403.000000 0 0 1
-27.547010 -5.837414 -14.912096 31.863518 0.208818 2.057822 0.083995 -0.023940 -46370.300000 0 0 1
-27.000610 -4.582114 -15.309896 31.375495 0.168103 2.080544 0.081228 -0.017766 344130.000000 0 0 1
-26.066340 -4.134614 -14.335196 30.034097 0.157308 2.068373 0.077259 -0.020431 -132591.000000 0 0 1
-14.032040 21.705586 -5.291896 26.382471 -0.996906 1.772750 0.041348 -0.013756 -67199.800000 0 0 1
-14.143140 20.830086 -6.370596 25.971242 -0.974320 1.818620 0.058861 -0.016367 48030.100000 0 0 1
-15.053640 19.790786 -6.062496 25.593772 -0.920521 1.809943 0.064383 -0.026895 59609.200000 0 0 1
-15.248840 18.978286 -7.426196 25.452915 -0.893932 1.866865 0.078488 -0.030852 -1191460.000000 0 0 1
-14.088340 18.399186 -7.869196 24.473161 -0.917320 1.898156 0.069186 -0.032485 -1194430.000000 0 1 0
-14.174940 17.544086 -8.952496 24.266666 -0.891220 1.948645 0.052510 -0.033403 -344191.000000 0 1 0
-14.633340 16.133386 -8.578196 23.409533 -0.834115 1.945977 0.044833 -0.025767 371839.000000 0 1 0
-16.012440 16.110086 -8.215896 24.154380 -0.788438 1.917863 0.046641 -0.014029 450490.000000 0 1 0
-16.239140 15.091286 -7.275596 23.332186 -0.748777 1.887911 0.052897 -0.013913 -583036.000000 0 1 0
-17.695440 15.132586 -6.852596 24.271008 -0.707487 1.857025 0.067180 -0.015351 -289122.000000 0 1 0
-18.629740 14.757086 -7.854296 25.030557 -0.669921 1.889977 0.056578 -0.016128 -554778.000000 0 0 1
-19.908540 15.265286 -7.672096 26.234329 -0.654148 1.867579 0.053743 -0.010459 -375954.000000 0 0 1
-20.940740 14.582086 -8.588196 26.924133 -0.608272 1.895447 0.058106 0.000799 -180113.000000 0 0 1
-21.128640 13.278186 -8.231996 26.277280 -0.561073 1.889435 0.062139 -0.003980 75701.500000 0 0 1
-21.945740 12.706686 -9.257596 26.995897 -0.524839 1.920826 0.050504 -0.005448 56221.100000 0 0 1
-22.430940 11.264686 -8.850896 26.615383 -0.465401 1.909801 0.062082 -0.010193 407072.000000 0 0 1
-21.411840 10.329986 -8.448796 25.230095 -0.449503 1.912263 0.069217 -0.014884 314996.000000 0 0 1
-21.980140 9.158286 -7.875496 25.080355 -0.394787 1.890211 0.087387 -0.023700 -705256.000000 0 0 1
-20.931840 8.194886 -7.453796 23.682423 -0.373160 1.890979 0.074515 -0.013342 -1066500.000000 0 1 0
-20.590940 7.194086 -8.430596 23.384111 -0.336123 1.939629 0.058877 -0.017919 109839.000000 0 1 0
-19.784840 6.241286 -7.814696 22.168966 -0.305577 1.931044 0.064794 -0.007408 -544027.000000 0 1 0
-19.422540 5.007986 -8.608796 21.827193 -0.252348 1.976219 0.046391 -0.018999 -441445.000000 0 1 0
-20.494440 4.110986 -8.837096 22.693976 -0.197963 1.970779 0.063100 -0.013254 524691.000000 0 1 0
-20.112340 3.161386 -9.760296 22.577953 -0.155911 2.017831 0.044205 -0.014788 -314060.000000 0 1 0
-21.037140 1.923686 -9.707696 23.248682 -0.091189 2.001554 0.038194 -0.016017 66709.600000 0 1 0
-20.780140 1.175986 -8.558896 22.504486 -0.056532 1.960938 0.047689 -0.019876 414214.000000 0 1 0
-21.938240 0.517086 -8.084796 23.386272 -0.023566 1.923788 0.074010 -0.020414 -202695.000000 0 1 0
-22.048940 -0.905114 -8.613696 23.689043 0.041027 1.942942 0.077209 -0.025884 -44106.800000 0 1 0
-20.878840 -1.691714 -8.396896 22.567582 0.080849 1.952043 0.066210 -0.021575 226071.000000 0 1 0
-20.797640 -3.029314 -8.956296 22.845871 0.144639 1.973635 0.044009 -0.017970 -368011.000000 0 1 0
-21.715840 -4.104314 -8.434296 23.655031 0.186798 1.935373 0.044912 -0.014557 -372018.000000 0 1 0
-21.372740 -4.454014 -7.054496 22.943369 0.205456 1.883334 0.033129 -0.018831 267000.000000 0 1 0
-22.334140 -5.284714 -6.417596 23.831231 0.232347 1.843456 0.049294 -0.017929 -435461.000000 0 1 0
-22.274340 -6.774814 -6.731896 24.235568 0.295263 1.852268 0.038700 -0.016996 282990.000000 0 1 0
-21.160440 -7.522414 -6.191096 23.295507 0.341561 1.839792 0.019967 -0.015568 1117930.000000 0 1 0
-21.368240 -8.914214 -6.305896 23.996442 0.395221 1.836703 0.026068 -0.014578 -531252.000000 0 1 0
-20.237040 -9.782514 -5.738696 23.198449 0.450277 1.820766 0.025220 -0.009336 -577119.000000 0 1 0
-19.120240 -9.746514 -6.585096 22.448644 0.471416 1.868516 0.031478 -0.004473 -573088.000000 0 1 0
-18.041040 -10.311614 -5.899396 21.601190 0.519248 1.847416 0.031136 -0.003509 -159251.000000 0 1 0
-17.192740 -11.403514 -6.633596 21.671065 0.585651 1.881894 0.017189 -0.004901 99907.600000 0 1 0
-16.224140 -11.100114 -7.612896 21.080594 0.600024 1.940279 0.025839 -0.009991 627607.000000 0 1 0
-16.747840 -10.538914 -8.819396 21.664271 0.561664 1.990067 0.035256 -0.016059 -124459.000000 0 1 0
-15.734940 -10.865514 -9.931596 21.547259 0.604345 2.049830 0.036709 -0.009410 287798.000000 0 1 0
-15.573840 -12.237014 -10.291096 22.320298 0.665986 2.049991 0.025145 -0.007174 -199816.000000 0 1 0
-14.630740 -12.304914 -11.303396 22.208923 0.699264 2.104770 0.039132 0.004072 -244317.000000 0 1 0
-14.578340 -13.706914 -11.944596 23.304096 0.754599 2.108952 0.047514 0.000237 84859.000000 0 1 0
-15.770340 -13.889014 -12.679296 24.543286 0.722052 2.113683 0.055032 -0.001555 121016.000000 0 1 0
-15.792140 -15.187414 -13.279896 25.620400 0.765880 2.115697 0.047789 0.000994 237669.000000 0 0 1
-16.460540 -15.141514 -14.689596 26.758159 0.743684 2.151935 0.066581 -0.000019 122762.000000 0 0 1
-16.578240 -16.366514 -15.387996 27.919371 0.778972 2.154548 0.073990 0.005984 119557.000000 0 0 1
-16.922340 -16.117914 -16.732096 28.742230 0.761056 2.192159 0.068381 0.000751 -180326.000000 0 0 1
-17.161340 -17.456214 -17.545596 30.117752 0.793916 2.192679 0.066800 -0.007112 1171010.000000 0 0 1
-18.477240 -18.014414 -17.273996 31.053478 0.772716 2.160682 0.055882 0.002037 644035.000000 0 0 1
-19.248040 -18.109714 -18.425796 32.217368 0.754937 2.179642 0.059510 0.000806 174348.000000 0 0 1
-20.785240 -18.136914 -18.160696 33.027031 0.717461 2.153009 0.040556 0.000095 515865.000000 0 0 1
-21.257040 -16.896914 -17.654696 32.389131 0.671615 2.147282 0.036433 0.011144 192823.000000 0 0 1
-21.180140 -16.809414 -16.236796 31.540265 0.670851 2.111566 0.030800 0.009657 -524370.000000 0 0 1
-20.854340 -15.469714 -15.689496 30.337697 0.638231 2.114328 0.029597 0.001010 -377667.000000 0 0 1
-21.980040 -14.659714 -15.506096 30.634432 0.588203 2.101529 0.025172 0.002246 153695.000000 0 0 1
-21.665240 -13.362514 -14.991596 29.541283 0.552661 2.103053 0.035875 -0.005558 763524.000000 0 0 1
-22.992240 -12.575914 -14.625796 30.011842 0.500509 2.079831 0.034051 -0.014373 1030790.000000 0 0 1
-23.734740 -13.122714 -13.528096 30.307638 0.505060 2.033489 0.034294 -0.006072 674373.000000 0 0 1
-24.736740 -12.197414 -13.110796 30.538111 0.458104 2.014542 0.055153 -0.019041 227882.000000 0 0 1
-25.541820 -12.625114 -11.854896 30.859628 0.459071 1.965089 0.053229 -0.023581 -84782.700000 0 0 1
-26.536650 -11.722614 -11.432896 31.182120 0.415974 1.946201 0.047558 -0.027044 72621.000000 0 0 1
-27.285970 -12.342414 -10.402496 31.702859 0.424794 1.905114 0.043926 -0.028947 -151719.000000 0 0 1
-28.268620 -11.453614 -9.655996 31.992787 0.384956 1.877395 0.060090 -0.037665 -496143.000000 0 0 1
-27.572440 -10.383114 -9.096796 30.835049 0.360151 1.870267 0.067454 -0.045264 -506943.000000 0 0 1
-28.342630 -9.414614 -8.477796 31.045333 0.320705 1.847387 0.093591 -0.048843 -170549.000000 0 0 1
-27.441770 -8.258514 -7.921296 29.732150 0.292325 1.840475 0.083497 -0.038760 677570.000000 0 0 1
-26.685030 -8.696914 -6.763996 28.870033 0.315055 1.807286 0.055613 -0.037726 678346.000000 0 0 1
-25.795240 -7.781114 -6.122196 27.630082 0.292969 1.794228 0.053143 -0.035105 286751.000000 0 0 1
-26.495330 -6.512014 -5.512896 27.835245 0.241003 1.770169 0.065965 -0.038437 -207572.000000 0 0 1
-27.515440 -6.642614 -4.554196 28.669923 0.236882 1.730321 0.068611 -0.038090 -185803.000000 0 0 1
-27.173750 -7.007514 -3.200996 28.244722 0.252379 1.684371 0.079642 -0.029871 -193259.000000 0 0 1
-26.344770 -5.907914 -2.447996 27.109833 0.220604 1.661219 0.073369 -0.028822 154645.000000 0 0 1
-27.220630 -4.947514 -1.968596 27.736546 0.179793 1.641831 0.080070 -0.033825 141509.000000 0 0 1
-26.600330 -4.125714 -1.017196 26.937591 0.153874 1.608567 0.056180 -0.032085 77350.900000 0 0 1
-27.621960 -2.998914 -0.540296 27.789532 0.108146 1.590240 0.066331 -0.035599 433663.000000 0 0 1
-28.493430 -3.271214 0.514804 28.685213 0.114305 1.552849 0.067055 -0.035885 313307.000000 0 0 1
-27.826040 -3.376314 1.786904 28.087026 0.120746 1.507133 0.055624 -0.026684 371350.000000 0 0 1
-28.920400 -3.581814 2.878404 29.283172 0.123223 1.472342 0.046512 -0.027941 94615.800000 0 0 1
-29.626030 -4.757314 2.742804 30.130660 0.159220 1.479640 0.055058 -0.032418 -152005.000000 0 0 1
-30.539380 -4.913314 3.817004 31.166712 0.159518 1.448018 0.073426 -0.035463 474278.000000 0 0 1
-31.358130 -6.257814 3.879304 32.210892 0.196972 1.450069 0.066581 -0.026673 335349.000000 0 0 1
-30.492330 -7.349814 4.037204 31.624373 0.236526 1.442786 0.063053 -0.018036 121880.000000 0 0 1
-31.197410 -8.530514 3.751304 32.559490 0.266912 1.455326 0.090680 -0.030212 -357690.000000 0 0 1
-30.432540 -9.807214 3.980304 32.220549 0.311752 1.446947 0.078386 -0.012543 -371208.000000 0 0 1
-30.426810 -10.064114 5.355404 32.492423 0.319437 1.405221 0.053017 0.000612 427082.000000 0 0 1
-29.597800 -11.162514 5.704904 32.143078 0.360646 1.392366 0.039423 0.017570 69981.100000 0 0 1
-29.871080 -11.585814 7.150704 32.827505 0.369998 1.351209 0.045926 0.010432 -79687.500000 0 0 1
-29.666940 -10.537014 8.037104 32.492323 0.341279 1.320848 0.065732 0.011335 422523.000000 0 0 1
-29.546130 -11.072214 9.334804 32.904503 0.358546 1.283152 0.058334 0.003761 -164054.000000 0 0 1
-29.682400 -9.939314 10.406204 32.986724 0.323120 1.249848 0.050583 0.004102 114305.000000 0 0 1
-28.546730 -9.072314 10.486404 31.736215 0.307711 1.234044 0.050915 0.009999 719852.000000 0 0 1
-28.700210 -8.089814 11.532004 31.970835 0.274745 1.201774 0.040892 0.009238 -319563.000000 0 0 1
-27.707620 -6.959114 11.392604 30.756022 0.246072 1.191337 0.048868 0.005576 -427457.000000 0 0 1
-28.102310 -5.978114 10.467704 30.578596 0.209602 1.221410 0.041688 0.003629 407800.000000 0 0 1
-27.147560 -4.931414 10.289704 29.448037 0.179693 1.213845 0.047778 0.000310 65706.500000 0 0 1
-27.547550 -4.019514 9.070204 29.279560 0.144889 1.255835 0.037281 -0.005637 384313.000000 0 0 1
-26.906500 -4.512514 7.847904 28.388592 0.166165 1.290703 0.051333 -0.009916 732163.000000 0 0 1
-27.226710 -3.627914 6.758304 28.286573 0.132468 1.329540 0.041618 -0.022828 -32632.500000 0 0 1
-26.362460 -3.919914 5.514004 27.216710 0.147611 1.366788 0.037330 -0.011472 -368455.000000 0 0 1
-24.989640 -3.661914 5.589704 25.867673 0.145502 1.352990 0.075828 -0.023607 220261.000000 0 0 1
-24.343740 -3.951314 4.353404 25.043616 0.160910 1.396076 0.096974 -0.018125 74552.300000 0 0 1
-22.823640 -3.666014 4.319404 23.516281 0.159263 1.386070 0.104616 -0.018466 281529.000000 0 1 0
-22.471740 -2.264814 4.536904 23.036753 0.100446 1.372559 0.069918 -0.015790 51594.300000 0 1 0
-21.081140 -2.093514 4.546204 21.667147 0.098983 1.359405 0.067242 -0.009936 -415144.000000 0 1 0
-20.643240 -0.621914 4.793304 21.201554 0.030118 1.342742 0.043235 -0.011137 -381442.000000 0 1 0
-20.728140 0.360986 3.727804 21.063775 -0.017413 1.392882 0.045229 -0.006122 870599.000000 0 1 0
-22.036040 0.833486 3.404504 22.313055 -0.037806 1.417619 0.036558 -0.016707 169371.000000 0 1 0
-22.102740 1.914386 2.343404 22.308912 -0.086397 1.465559 0.062140 -0.009895 -391147.000000 0 1 0
-21.595140 3.132086 2.813104 22.001673 -0.144032 1.442587 0.046013 -0.003329 308299.000000 0 1 0
-21.821940 4.159786 1.913204 22.297113 -0.188364 1.484886 0.074030 -0.004041 -284574.000000 0 1 0
-20.568940 4.524286 1.117204 21.090249 -0.216509 1.517799 0.057323 -0.005318 -656972.000000 0 1 0
-20.732140 5.441886 0.033104 21.434478 -0.256695 1.569252 0.065097 -0.002102 16390.400000 0 1 0
-21.488940 4.888586 -0.999296 22.060631 -0.223686 1.616110 0.074986 -0.008026 -393104.000000 0 1 0
-21.004640 3.639886 -1.810196 21.394403 -0.171586 1.655508 0.067015 -0.011825 -425279.000000 0 1 0
-21.186140 2.398786 -1.033696 21.346551 -0.112744 1.619240 0.059364 -0.006990 581674.000000 0 1 0
-20.802940 1.241186 -1.738696 20.912339 -0.059593 1.654035 0.057024 -0.003948 -50963.800000 0 1 0
-19.926040 0.281486 -0.884796 19.947661 -0.014126 1.615167 0.048308 -0.004753 -427854.000000 0 1 0
-20.709740 -0.523114 -0.069696 20.716463 0.025254 1.574161 0.051428 -0.007667 -50323.200000 0 1 0
-20.075940 -1.336214 0.813404 20.136794 0.066460 1.530391 0.053341 -0.009243 -837867.000000 0 1 0
-19.274540 -2.558114 0.270204 19.445433 0.131949 1.556900 0.044385 -0.008444 -109966.000000 0 1 0
-18.619340 -3.253814 1.274104 18.944405 0.173007 1.503491 0.053771 -0.008172 530179.000000 0 1 0
-17.910340 -4.426914 0.835204 18.468228 0.242314 1.525557 0.037836 -0.005023 761727.000000 0 1 0
-18.868940 -5.688014 0.570804 19.715888 0.292785 1.541841 0.041809 -0.003299 589530.000000 0 1 0
-19.606540 -6.034414 1.720604 20.586186 0.298575 1.487118 0.086875 -0.009729 397865.000000 0 1 0
-20.477540 -7.111414 1.461704 21.726446 0.334248 1.503468 0.048784 -0.012220 24763.000000 0 1 0
-21.288140 -7.605814 2.682904 22.764694 0.343145 1.452668 0.067875 -0.007039 395514.000000 0 1 0
-20.392340 -8.258214 3.603704 22.294222 0.384780 1.408441 0.064505 -0.003797 923273.000000 0 1 0
-21.087140 -8.747814 4.727504 23.313966 0.393235 1.366605 0.067770 -0.000264 559062.000000 0 1 0
-20.174540 -9.526214 5.796304 23.051203 0.441153 1.316615 0.055097 0.010854 463354.000000 0 1 0
-19.751440 -10.731914 5.286004 23.091886 0.497722 1.339837 0.050854 0.012222 314737.000000 0 1 0
-18.588940 -11.274914 5.896604 22.526481 0.545214 1.305948 0.057692 0.006437 364332.000000 0 1 0
-18.062040 -12.572914 5.206904 22.614759 0.608101 1.338468 0.042875 0.008591 -267544.000000 0 1 0
-18.723340 -13.771514 5.545904 23.895086 0.634174 1.336567 0.043644 0.014782 -283568.000000 0 1 0
-18.348340 -14.921914 4.831104 24.138448 0.682772 1.369294 0.039170 0.014469 -304140.000000 0 1 0
-19.039340 -16.249914 5.180004 25.561468 0.706518 1.366734 0.042633 0.010187 -446053.000000 0 0 1
-18.508040 -17.304314 4.447604 25.724852 0.751799 1.397032 0.044262 0.001049 51656.400000 0 0 1
-19.126740 -18.537514 4.766904 27.059102 0.769755 1.393706 0.039361 0.002333 -136991.000000 0 0 1
-18.136140 -19.707814 4.669004 27.186709 0.826905 1.398202 0.042716 -0.006990 -594928.000000 0 0 1
-17.860240 -20.008214 3.296004 27.021852 0.842059 1.448516 0.040112 -0.011106 109141.000000 0 0 1
-17.038440 -21.144614 3.178304 27.340534 0.892526 1.454284 0.034606 -0.008321 1101200.000000 0 0 1
-15.502040 -21.053514 3.550104 26.384976 0.936111 1.435837 0.039483 -0.006316 539335.000000 0 0 1
-14.981540 -22.319914 3.696204 27.134610 0.979649 1.434154 0.032100 -0.012067 30006.800000 0 0 1
-13.613340 -22.258914 4.081304 26.409077 1.021898 1.415633 0.043576 -0.007947 300163.000000 0 0 1
-13.037740 -23.661114 4.417104 27.374108 1.067171 1.408727 0.054956 -0.001825 -190235.000000 0 0 1
-12.977540 -24.545614 3.292704 27.959714 1.084444 1.452756 0.057032 -0.014981 536195.000000 0 0 1
-12.267640 -25.774184 3.593304 28.770043 1.126560 1.445572 0.059895 -0.014238 238644.000000 0 0 1
18.835460 19.568586 -24.371296 36.491974 0.804486 2.302118 0.048604 0.008352 -246843.000000 0 0 1
17.911160 19.474286 -25.422776 36.692983 0.827185 2.336232 0.035467 -0.003895 12970.300000 0 0 1
18.550960 19.359686 -26.685676 37.829365 0.806727 2.353815 0.041929 -0.007228 -249877.000000 0 0 1
17.594560 19.524986 -27.868916 38.307572 0.837357 2.385473 0.029171 -0.006786 -79583.600000 0 0 1
17.136160 20.869286 -28.030406 38.921443 0.883310 2.374857 0.028368 -0.002012 223967.000000 0 0 1
16.261360 20.965686 -29.126006 39.399442 0.911100 2.402751 0.015512 -0.000052 -203183.000000 0 0 1
15.824560 22.421186 -29.506096 40.295607 0.956198 2.392403 0.023301 0.001066 -19601.600000 0 0 1
15.037960 23.072686 -28.497956 39.631081 0.993182 2.373275 0.031983 -0.000672 489852.000000 0 0 1
14.857060 24.498586 -28.667986 40.531054 1.025651 2.356481 0.034085 0.008042 -229061.000000 0 0 1
14.089660 25.174686 -27.538146 39.882738 1.060555 2.332946 0.029734 0.003400 -352566.000000 0 0 1
12.747360 24.806086 -27.418726 39.110403 1.096106 2.347679 0.038919 -0.008688 -708712.000000 0 0 1
12.068260 25.623386 -26.551906 38.822732 1.130628 2.323928 0.032290 -0.007320 -732483.000000 0 0 1
10.644760 25.211986 -26.120356 37.831576 1.171291 2.332891 0.044694 -0.004264 328855.000000 0 0 1
9.986460 26.052186 -25.169606 37.575988 1.204747 2.304779 0.037673 -0.014700 198109.000000 0 0 1
9.467860 27.225686 -25.769806 38.664729 1.236123 2.300292 0.047216 -0.021850 -482086.000000 0 0 1
8.842660 28.178286 -24.750796 38.533237 1.266717 2.268322 0.045725 -0.027399 -1462110.000000 0 0 1
9.861560 28.769086 -24.068796 38.784244 1.240565 2.240281 0.044070 -0.015954 -440315.000000 0 0 1
9.420960 29.598786 -22.993496 38.646390 1.262646 2.208026 0.052187 -0.026816 -751041.000000 0 0 1
10.571560 29.996486 -22.109296 38.734584 1.231961 2.178263 0.031367 -0.019529 -402272.000000 0 0 1
11.560260 30.859586 -22.683296 40.006069 1.212369 2.173651 0.026063 -0.023987 22892.400000 0 0 1
12.393360 31.213386 -21.613896 39.937843 1.192833 2.142646 0.020178 -0.012346 -554478.000000 0 0 1
13.598260 32.024386 -22.094796 41.214730 1.169246 2.136595 0.016135 0.003694 119069.000000 0 0 1
14.661160 31.230386 -22.627596 41.258874 1.131885 2.151282 0.011408 0.001288 -236579.000000 0 0 1
15.692060 32.061786 -23.085596 42.510512 1.115639 2.144869 0.016668 0.007877 -611535.000000 0 0 1
16.943360 31.281786 -23.481796 42.626545 1.074397 2.154206 0.002754 0.015042 -383662.000000 0 0 1
17.695560 30.933086 -22.332596 42.056313 1.051175 2.130596 0.000618 0.019235 947716.000000 0 0 1
18.880660 30.207686 -22.800796 42.294916 1.012177 2.140153 0.004367 0.012848 855531.000000 0 0 1
19.714860 29.580086 -21.700296 41.648050 0.982915 2.118865 0.008658 0.016147 -289403.000000 0 0 1
20.408160 30.419486 -20.825796 42.137298 0.979875 2.087753 0.014416 0.024824 308579.000000 0 0 1
21.276460 29.654086 -19.988196 41.612264 0.948429 2.071843 0.022248 0.013129 647943.000000 0 0 1
22.044260 30.398386 -18.815296 42.000317 0.943371 2.035301 0.031114 0.015488 821643.000000 0 0 1
23.125760 31.259886 -19.247296 43.387091 0.933862 2.030428 0.043325 0.007287 484727.000000 0 0 1
23.703160 31.879986 -18.135696 43.670090 0.931460 1.999057 0.049253 0.006853 -51167.300000 0 0 1
24.918360 32.782986 -18.458996 45.126304 0.920862 1.992211 0.048281 0.007689 172005.000000 0 0 1
26.034960 32.030986 -18.886896 45.392929 0.888296 1.999922 0.052148 0.009404 -1376820.000000 0 0 1
27.147660 32.809986 -18.793696 46.547756 0.879558 1.986409 0.048974 0.003659 -555319.000000 0 0 1
28.465260 32.191886 -19.352596 47.128670 0.846759 1.993945 0.049695 -0.004473 475408.000000 0 0 1
28.855260 31.070886 -18.520396 46.271277 0.822354 1.982593 0.063642 -0.001073 -856838.000000 0 0 1
29.949960 30.437286 -19.069796 46.766287 0.793468 1.990805 0.037171 -0.004145 -731740.000000 0 0 1
30.406360 29.268486 -18.193696 45.958694 0.766333 1.977812 0.035903 -0.015274 -351492.000000 0 0 1
30.859960 29.705886 -16.965296 46.071662 0.766346 1.947909 0.036852 -0.008882 -56066.700000 0 0 1
31.128060 28.639286 -16.057896 45.244014 0.743781 1.933622 0.041288 -0.010334 -170904.000000 0 0 1
31.602060 29.059286 -14.660296 45.365808 0.743505 1.899860 0.047286 -0.011759 465863.000000 0 0 1
32.898760 29.617386 -14.454896 46.566747 0.732958 1.886423 0.019752 -0.009152 319578.000000 0 0 1
32.938260 31.005286 -14.754296 47.580941 0.755178 1.886082 0.028469 -0.016147 -796945.000000 0 0 1
34.358060 31.534786 -14.808596 48.930701 0.742578 1.878262 0.024954 -0.022055 -325072.000000 0 0 1
35.075060 31.481286 -13.563996 49.043992 0.731455 1.851017 0.019357 -0.025883 -750335.000000 0 0 1
-35.621364 31.689586 -13.900696 49.662267 -0.727052 1.854491 0.032141 -0.029247 -727052.000000 0 0 1
-34.682364 31.960786 -12.680896 48.838134 -0.744583 1.833458 0.034641 -0.022865 -274026.000000 0 0 1
-34.863464 33.170386 -11.911696 49.574430 -0.760517 1.813450 0.039373 -0.028338 504706.000000 0 0 1
-33.885064 33.284086 -10.865296 48.724558 -0.776451 1.795681 0.023267 -0.014580 256027.000000 0 0 1
-34.186264 -34.199697 -10.034896 49.386426 0.785595 1.775413 0.023272 -0.013441 91735.100000 0 0 1
-33.168664 -33.715297 -9.169196 48.176298 0.793571 1.762290 0.012528 -0.001952 -61358.700000 0 0 1
-33.053664 -34.315797 -7.899396 48.296160 0.804130 1.735096 0.021028 -0.005308 -227219.000000 0 0 1
-32.796564 -33.216497 -6.881496 47.183739 0.791759 1.717163 0.019833 0.009790 -274845.000000 0 0 1
-33.881464 -32.358497 -6.628396 47.317666 0.762411 1.711341 0.025688 0.002979 -22540.000000 0 0 1
-33.528764 -31.421397 -5.577796 46.288163 0.752964 1.691591 0.020970 0.008176 140617.000000 0 0 1
-34.771764 -30.570997 -5.234396 46.594638 0.721198 1.683373 0.028567 -0.001089 -209848.000000 0 0 1
-35.658764 -31.285897 -4.426096 47.643941 0.720170 1.663830 0.032720 -0.009203 -364893.000000 0 0 1
35.047360 -30.817297 -4.566996 46.892224 -0.721263 1.668344 0.029218 -0.007740 -5645.430000 0 0 1
34.571660 -29.939297 -3.379896 45.858313 -0.713714 1.644566 0.028461 -0.004146 -481223.000000 0 0 1
35.051960 -28.632397 -3.464596 45.392262 -0.684935 1.647196 0.042428 -0.007742 131884.000000 0 0 1
34.343060 -27.792297 -2.589396 44.255649 -0.680359 1.629340 0.041556 -0.012207 -421539.000000 0 0 1
34.830460 -26.345497 -2.631696 43.751251 -0.647580 1.630984 0.046109 -0.028264 -290340.000000 0 0 1
34.513860 -25.687997 -3.880696 43.198837 -0.639831 1.660751 0.045622 -0.028976 186403.000000 0 0 1
34.123360 -24.388197 -3.678996 42.103715 -0.620528 1.658287 0.045510 -0.032935 -440415.000000 0 0 1
33.694660 -23.852797 -5.057296 41.591613 -0.616015 1.692692 0.045970 -0.035262 -286534.000000 0 0 1
34.721360 -23.760697 -6.037196 42.504015 -0.600128 1.713317 0.040991 -0.029939 335510.000000 0 0 1
34.167760 -23.525197 -7.303796 42.121445 -0.602980 1.745076 0.030303 -0.024296 -110738.000000 0 0 1
35.274360 -23.278997 -8.366796 43.083586 -0.583332 1.766237 0.020340 -0.024098 -64113.800000 0 0 1
35.897360 -24.482897 -8.694396 44.312811 -0.598560 1.768283 0.020933 -0.017371 -30448.400000 0 0 1
-35.069564 -24.241497 -9.602996 43.700595 0.604823 1.792350 0.025868 -0.010733 401585.000000 0 0 1
-34.499764 -25.537597 -10.311096 44.144323 0.637216 1.806551 0.027990 -0.012727 -327660.000000 0 0 1
-33.817264 -26.436497 -9.530796 43.969669 0.663511 1.789289 0.010614 -0.005802 -446043.000000 0 0 1
-34.601364 -27.393197 -8.874896 45.015613 0.669647 1.769248 0.013507 -0.002718 -340651.000000 0 0 1
-33.750664 -28.592397 -8.447996 45.033333 0.702846 1.759509 0.005173 0.002067 -99857.300000 0 0 1
-33.206664 -29.264097 -9.545996 45.279089 0.722371 1.783216 -0.006997 0.002237 337134.000000 0 0 1
-32.288864 -30.278197 -9.145896 45.199418 0.753273 1.774549 -0.008275 0.007384 208970.000000 0 0 1
-31.724064 -31.223997 -10.249496 45.677198 0.777454 1.797113 -0.016329 0.014610 -278011.000000 0 0 1
-30.866464 -30.560897 -11.144496 44.843135 0.780424 1.821950 -0.036050 0.021599 5920.390000 0 0 1
-30.870564 -31.293297 -12.359596 45.662038 0.792198 1.844891 -0.024564 0.017362 -273157.000000 0 0 1
-30.851264 -30.369797 -13.558296 45.364661 0.777534 1.874308 -0.028643 0.015275 319704.000000 0 0 1
-29.679264 -29.547397 -13.635996 44.043703 0.783172 1.885570 -0.021334 0.015098 335775.000000 0 0 1
-29.752164 -28.819597 -14.887996 44.016052 0.769478 1.915843 -0.022021 0.007103 -405191.000000 0 0 1
-28.539964 -27.975497 -15.235096 42.769921 0.775411 1.935006 -0.005189 0.002532 -863039.000000 0 0 1
-27.409764 -28.714497 -15.532096 42.627028 0.808641 1.943755 0.009666 -0.003551 -744271.000000 0 0 1
-26.351164 -27.911897 -15.999696 41.586634 0.814153 1.965713 0.015111 0.001147 207794.000000 0 0 1
-25.313664 -28.792297 -16.776496 41.847685 0.849603 1.983289 0.030862 -0.007675 -140766.000000 0 0 1
-25.772064 -29.355797 -18.025796 43.021988 0.850314 2.003129 0.025138 -0.007318 46958.200000 0 0 1
-25.919164 -28.465297 -19.163996 43.003894 0.832181 2.032679 0.019511 -0.002368 190791.000000 0 0 1
-24.617764 -27.804697 -19.705896 42.041144 0.846117 2.058648 0.027833 -0.005387 274259.000000 0 0 1
-24.204464 -26.758297 -18.861896 40.714047 0.835468 2.052486 0.032168 -0.004584 547325.000000 0 0 1
-22.810164 -26.410597 -18.872396 39.673550 0.858417 2.066547 0.032556 -0.011263 785774.000000 0 0 1
-22.461264 -25.334597 -17.872196 38.285318 0.845443 2.056483 0.031692 -0.010387 -293114.000000 0 0 1
-22.652464 -25.692897 -16.535096 38.035095 0.848205 2.020538 0.037850 -0.009497 241790.000000 0 0 1
-22.228864 -24.615197 -15.741096 36.712565 0.836296 2.013923 0.048844 -0.011726 -189940.000000 0 0 1
-22.689464 -24.754997 -14.268996 36.485968 0.828907 1.972603 0.042213 -0.007853 162459.000000 0 0 1
-24.085564 -24.543997 -14.167896 37.192089 0.794825 1.961607 0.003695 0.004325 208875.000000 0 0 1
-24.498064 -24.339697 -12.802396 36.830386 0.782155 1.925811 0.003488 0.009313 -447121.000000 0 0 1
-25.997064 -24.227597 -12.533596 37.681757 0.750182 1.909874 -0.004950 0.019349 -947534.000000 0 0 1
-26.723664 -25.349497 -12.987696 39.056772 0.759015 1.909785 0.009611 0.009374 1023690.000000 0 0 1
-28.088564 -25.428597 -12.526696 39.906128 0.735736 1.890098 -0.002562 0.010964 982099.000000 0 0 1
-29.121364 -24.433497 -13.145496 40.222552 0.698087 1.903732 0.001102 0.009469 -1460550.000000 0 0 1
-29.150164 -23.102397 -12.555896 39.256889 0.670170 1.896356 -0.002418 0.017632 210603.000000 0 0 1
-29.758464 -22.952797 -11.258596 39.232041 0.656996 1.861863 0.016496 0.008593 -485096.000000 0 0 1
-31.206364 -23.460497 -11.179496 40.610506 0.644643 1.849683 0.008703 0.006276 -772604.000000 0 0 1
-32.188264 -22.584997 -11.712296 41.028579 0.611835 1.860290 0.030493 -0.006531 161152.000000 0 0 1
-32.445364 -22.705897 -13.102096 41.712400 0.610605 1.890311 0.032756 0.003021 -443409.000000 0 0 1
-33.927564 -22.450497 -13.462596 42.852607 0.584569 1.890369 0.020090 -0.009185 124605.000000 0 0 1
-34.768464 -23.542297 -13.152496 44.000841 0.595202 1.874351 0.022340 -0.007200 625854.000000 0 0 1
35.880860 -23.207497 -13.387496 44.780007 -0.574118 1.874400 0.030290 -0.014278 612567.000000 0 0 1
34.959860 -24.395997 -13.069396 44.588850 -0.609267 1.868273 0.011164 -0.006484 -321894.000000 0 0 1
35.058160 -25.499497 -13.986896 45.551423 -0.628846 1.882896 -0.005064 0.008710 -97.340800 0 0 1
34.485860 -26.634197 -13.361196 45.576052 -0.657635 1.868329 -0.011451 0.004320 199712.000000 0 0 1
34.369560 -27.770897 -14.420196 46.480441 -0.679605 1.886244 -0.011175 0.004342 257785.000000 0 0 1
33.560760 -27.538797 -15.551596 46.114662 -0.687156 1.914777 -0.004531 -0.004961 -239603.000000 0 0 1
33.579460 -28.772497 -16.282296 47.122711 -0.708456 1.923600 -0.008698 0.005750 344353.000000 0 0 1
32.603060 -28.813797 -17.520296 46.905812 -0.723779 1.953598 -0.008573 0.006035 140674.000000 0 0 1
31.223160 -28.856097 -17.283496 45.894218 -0.746020 1.956913 0.019413 0.008636 -478824.000000 0 0 1
30.573360 -28.220197 -18.349696 45.473302 -0.745395 1.986164 0.016153 0.001753 980309.000000 0 0 1
29.002860 -28.294297 -18.198096 44.417382 -0.773032 1.992929 0.024713 0.001427 1143770.000000 0 0 1
28.503660 -27.546997 -17.095296 43.168794 -0.768332 1.977964 0.016267 0.000882 -83292.200000 0 0 1
27.093660 -27.473097 -17.042596 42.181602 -0.792352 1.986714 0.042054 -0.003532 171074.000000 0 0 1
26.559060 -26.552297 -15.930796 40.794588 -0.785271 1.971985 0.037314 -0.005938 -100651.000000 0 0 1
26.704460 -25.157197 -16.173096 40.094660 -0.755573 1.985996 0.027582 -0.005583 3061.440000 0 0 1
26.167060 -24.448897 -15.095596 38.863101 -0.751466 1.969724 0.042631 -0.007184 -136755.000000 0 0 1
25.973460 -22.955597 -15.350996 37.910858 -0.723798 1.987691 0.040376 -0.014650 177955.000000 0 0 1
24.911260 -22.560097 -16.202496 37.310182 -0.735911 2.020018 0.052925 -0.012906 96940.000000 0 0 1
24.863960 -21.174097 -16.178296 36.445797 -0.705421 2.030743 0.046836 -0.020801 772312.000000 0 0 1
23.447360 -20.552597 -16.504596 35.278742 -0.719703 2.057635 0.063519 -0.013704 716324.000000 0 0 1
22.624860 -20.467997 -15.377496 34.165634 -0.735388 2.037659 0.073475 -0.024778 -747238.000000 0 0 1
21.434360 -19.796497 -15.567596 33.070880 -0.745695 2.060919 0.074341 -0.031058 -529439.000000 0 0 1
21.236860 -18.658597 -14.577196 31.806322 -0.720862 2.046891 0.072833 -0.024504 -71491.800000 0 0 1
20.834660 -19.057697 -13.265496 31.196991 -0.740884 2.009998 0.062822 -0.030634 126890.000000 0 0 1
20.406060 -17.911397 -12.562496 29.917248 -0.720385 2.004140 0.063286 -0.036958 66768.800000 0 0 1
19.512460 -18.166197 -11.287296 28.950818 -0.749683 1.971296 0.062600 -0.027392 5447.100000 0 0 1
20.099760 -18.751897 -10.159496 29.306131 -0.750720 1.924813 0.066978 -0.035137 165407.000000 0 0 1
19.156560 -18.729197 -9.094996 28.292677 -0.774118 1.898068 0.059119 -0.031000 91617.600000 0 0 1
19.642260 -19.557897 -7.901196 28.822883 -0.783246 1.848481 0.068100 -0.031484 -350373.000000 0 0 1
20.684860 -18.868797 -7.282696 28.929787 -0.739516 1.825271 0.070718 -0.034965 -161975.000000 0 0 1
21.136360 -19.548597 -6.091796 29.427934 -0.746392 1.779311 0.061193 -0.024508 -419949.000000 0 0 1
22.462760 -18.945697 -5.603296 29.915079 -0.700666 1.759216 0.063447 -0.020609 -310162.000000 0 0 1
23.450260 -19.150797 -6.600396 30.987625 -0.684815 1.785442 0.065136 -0.029319 521685.000000 0 0 1
24.419260 -18.073197 -6.606696 31.090016 -0.637148 1.784931 0.082484 -0.028150 -66451.300000 0 0 1
25.336260 -18.037197 -7.836296 32.072949 -0.618676 1.817622 0.081739 -0.042155 -405059.000000 0 0 1
26.402460 -18.921197 -7.617896 33.363662 -0.621810 1.801157 0.079564 -0.048825 -20568.500000 0 0 1
26.346260 -19.976797 -8.543896 34.149612 -0.648754 1.823673 0.078537 -0.050352 -221587.000000 0 0 1
27.438460 -21.042397 -8.287096 35.557383 -0.654226 1.806022 0.064468 -0.056158 -32797.400000 0 0 1
28.735960 -20.586997 -8.501296 36.357281 -0.621661 1.806808 0.058761 -0.045533 -396544.000000 0 0 1
29.816860 -21.382397 -8.105096 37.575851 -0.622127 1.788205 0.046767 -0.042534 -18604.400000 0 0 1
-29.477290 30.046886 4.225804 42.303468 -0.794967 1.470737 0.039906 -0.008547 135767.000000 0 0 1
-28.878420 30.766786 3.180304 42.316340 -0.817048 1.495570 0.027252 -0.001997 -115977.000000 0 0 1
-27.870370 31.634686 3.639304 42.317318 -0.848574 1.484690 0.031522 0.004192 -133816.000000 0 0 1
-27.467840 32.664786 2.593304 42.757405 -0.871609 1.510108 0.032419 0.017008 -143416.000000 0 0 1
-26.514820 32.211486 1.636204 41.752757 -0.882099 1.531598 0.038063 0.008508 449913.000000 0 0 1
-25.943700 33.281286 0.888304 42.207922 -0.908663 1.549749 0.031404 -0.003942 229725.000000 0 0 1
-24.689940 34.059286 1.415104 42.090743 -0.943547 1.537170 0.034663 0.005375 1323550.000000 0 0 1
-23.425640 33.432686 1.075804 40.837023 -0.959614 1.544449 0.025926 0.001216 533136.000000 0 0 1
-22.373540 34.023886 1.765304 40.759249 -0.989109 1.527472 0.027332 -0.001427 1099820.000000 0 0 1
-20.889440 33.644086 1.355904 39.624887 -1.015154 1.536571 0.028975 -0.001255 1363390.000000 0 0 1
-20.430940 34.070186 0.091704 39.726682 -1.030618 1.568488 0.042441 -0.009772 498784.000000 0 0 1
-19.078140 33.696486 -0.172796 38.722842 -1.055619 1.575259 0.050853 -0.017710 331251.000000 0 0 1
-18.418840 -34.270697 -1.367896 38.930778 1.077638 1.605940 0.062366 -0.024344 21595.700000 0 0 1
-18.291540 -32.838297 -1.260796 37.610156 1.062581 1.604325 0.070804 -0.026425 86311.800000 0 0 1
-17.591640 -32.334697 -0.149796 36.810608 1.072534 1.574866 0.068827 -0.026742 -407821.000000 0 0 1
-17.497440 -30.832397 0.007704 35.451335 1.054615 1.570579 0.061686 -0.027824 -655516.000000 0 0 1
-16.613840 -30.195297 -0.831696 34.474155 1.067790 1.594924 0.054132 -0.020275 -343965.000000 0 0 1
-16.765540 -28.821697 -0.740096 33.351481 1.043942 1.592989 0.034086 -0.020013 -342331.000000 0 0 1
-15.757540 -28.093197 -1.591696 32.249981 1.059621 1.620171 0.032613 -0.018349 -375192.000000 0 0 1
-16.048140 -28.418097 -2.955396 32.769886 1.056725 1.661105 0.042417 -0.020636 -103751.000000 0 0 1
-15.156540 -27.752597 -3.781996 31.846991 1.070929 1.689832 0.037804 -0.006053 -347369.000000 0 0 1
-15.576640 -27.874197 -5.275296 32.364044 1.061207 1.734526 0.068878 -0.014997 -488424.000000 0 0 1
-16.622540 -27.015697 -5.541796 32.200438 1.019209 1.743761 0.083364 -0.014595 -1148650.000000 0 0 1
-16.986640 -27.022697 -6.875996 32.650443 1.009608 1.782979 0.104675 -0.021441 195101.000000 0 0 1
-17.737440 -25.683697 -7.184396 32.029434 0.966400 1.797027 0.091955 -0.017725 660116.000000 0 0 1
-16.827040 -24.598297 -7.074396 30.631235 0.970840 1.803854 0.064899 -0.004053 -9330.560000 0 0 1
-17.513940 -23.435497 -7.322396 30.159213 0.929009 1.816039 0.051353 0.004722 -91612.900000 0 0 1
-16.641140 -22.209897 -7.026296 28.628236 0.927765 1.818762 0.065582 0.006258 801355.000000 0 0 1
-15.685240 -21.935997 -8.073596 28.149559 0.950044 1.861692 0.080723 0.005229 -554275.000000 0 0 1
-14.646740 -21.097397 -7.749196 26.826800 0.963944 1.863832 0.080018 -0.005486 -329291.000000 0 0 1
-13.623940 -20.965997 -8.892896 26.538055 0.994554 1.912507 0.071829 -0.001779 -201130.000000 0 0 1
-14.096240 -20.331097 -10.019896 26.691868 0.964558 1.955615 0.086656 -0.001984 -835907.000000 0 0 1
-13.122040 -19.954897 -10.935196 26.267173 0.989107 2.000176 0.079439 -0.003875 -278538.000000 0 0 1
-13.729540 -19.270397 -12.195596 26.619186 0.951752 2.046710 0.097927 -0.002267 185846.000000 0 0 1
-14.733340 -20.061397 -12.844496 28.009142 0.937346 2.047196 0.084947 0.023765 -211788.000000 0 0 1
-15.326440 -19.151797 -13.702696 28.097242 0.895896 2.080236 0.084412 -0.002552 68203.600000 0 0 1
-16.505740 -19.778897 -14.518396 29.570730 0.875362 2.084001 0.100743 -0.009615 239278.000000 0 0 1
-17.751640 -19.711997 -13.869396 29.933989 0.837677 2.052549 0.096847 -0.006368 98712.600000 0 0 1
-18.800340 -20.161097 -14.746696 31.263200 0.820310 2.062008 0.072148 -0.010361 -203287.000000 0 0 1
-20.145840 -19.900897 -14.074596 31.622695 0.779282 2.032059 0.054829 0.002336 -374014.000000 0 0 1
-21.197840 -20.320997 -14.918596 32.937150 0.764282 2.040858 0.057509 -0.003253 -267897.000000 0 0 1
-22.494040 -19.986297 -14.487296 33.396342 0.726434 2.019501 0.014714 0.010576 34606.800000 0 0 1
-23.565440 -20.774597 -15.283496 34.935642 0.722539 2.023586 0.014768 -0.000772 -245502.000000 0 0 1
-23.633440 -20.224497 -16.599496 35.257808 0.707827 2.060998 0.019968 -0.015513 136296.000000 0 0 1
-24.183340 -21.131597 -17.483696 36.565803 0.718154 2.069336 0.020718 -0.020145 -418157.000000 0 0 1
-24.391340 -20.533497 -18.972596 37.101501 0.699735 2.107575 0.021557 -0.015674 -208521.000000 0 0 1
-23.215340 -20.200397 -19.660096 36.517495 0.716066 2.139304 0.040168 -0.017040 105157.000000 0 0 1
-23.538340 -19.790197 -21.001396 37.239280 0.699108 2.169967 0.035976 -0.018935 -46900.000000 0 0 1
-22.367740 -19.117497 -21.759796 36.596219 0.707211 2.207554 0.037145 -0.009114 584897.000000 0 0 1
-21.264040 -19.985697 -22.028196 36.562671 0.754418 2.217398 0.036483 -0.012351 1012850.000000 0 0 1
-20.206340 -19.313297 -22.752496 36.041306 0.762805 2.254011 0.045857 -0.011163 1171760.000000 0 0 1
-18.793340 -19.953097 -22.775696 35.637734 0.815321 2.264110 0.050586 -0.005444 362376.000000 0 0 1
-18.746040 -21.107897 -23.604296 36.798372 0.844592 2.267183 0.041283 -0.003559 160855.000000 0 0 1
-17.500640 -21.785497 -23.473996 36.495326 0.894037 2.269474 0.035993 0.005480 323674.000000 0 0 1
-17.422840 -23.062897 -24.301596 37.762682 0.923817 2.269904 0.029525 0.003805 -160206.000000 0 0 1
-17.542540 -22.915997 -25.654656 38.614052 0.917439 2.297469 0.036744 -0.001633 117880.000000 0 0 1
-17.699340 -24.217597 -26.155296 39.797716 0.939667 2.287902 0.036324 -0.008499 -120037.000000 0 0 1
-17.557940 -24.317297 -27.661046 40.801295 0.945434 2.315760 0.039087 -0.002098 383253.000000 0 0 1
-16.255440 -23.995697 -28.136616 40.394331 0.975378 2.341372 0.021865 -0.002831 191911.000000 0 0 1
-16.123240 -24.021397 -29.517656 41.331325 0.979660 2.366236 0.043237 -0.009343 -232743.000000 0 0 1
-14.693540 -23.762097 -30.038956 41.022875 1.016986 2.392415 0.007249 -0.016124 101585.000000 0 0 1
-13.845840 -24.860497 -29.770436 41.182891 1.062639 2.378763 0.019979 -0.017839 -239900.000000 0 0 1
-12.602540 -24.748097 -30.406066 41.180350 1.099790 2.401437 0.040693 -0.021730 -571876.000000 0 0 1
-11.614640 -25.855097 -30.177976 41.401644 1.148591 2.387521 0.040800 -0.019960 -1425230.000000 0 0 1
-11.990940 -27.100897 -30.704326 42.673140 1.154234 2.373912 0.046575 -0.015544 758212.000000 0 0 1
-11.141740 -28.187297 -30.194776 42.783018 1.194370 2.354299 0.047222 -0.014405 2130120.000000 0 0 1
-9.687640 -28.272897 -30.882006 42.975637 1.240686 2.372574 0.057924 -0.015179 1511970.000000 0 0 1
-8.908040 -27.109297 -30.568086 41.817162 1.253314 2.390574 0.049395 -0.023162 -520965.000000 0 0 1
-7.990440 -26.709797 -31.517146 42.078390 1.280112 2.417363 0.046547 -0.022447 -625013.000000 0 0 1
-7.121740 -25.508297 -31.097206 40.846403 1.298536 2.436144 0.057844 -0.025551 -582156.000000 0 0 1
-7.764440 -24.279497 -30.953866 40.098907 1.261280 2.452680 0.055193 -0.026526 22813.800000 0 0 1
-8.511840 -24.041597 -29.761106 39.194046 1.230521 2.433075 0.057262 -0.020545 -32484.200000 0 0 1
-9.078540 -22.567297 -29.745846 38.425488 1.188320 2.456116 0.048582 -0.023424 -44781.600000 0 0 1
-9.878540 -22.228297 -30.868036 39.300361 1.152598 2.474201 0.041060 -0.027074 -27598.000000 0 0 1
-10.426240 -20.953697 -30.707106 38.609458 1.109083 2.490342 0.028961 -0.020827 171480.000000 0 0 1
-11.211840 -20.392397 -31.941376 39.519701 1.068103 2.511952 0.023109 -0.021576 211941.000000 0 0 1
-11.601840 -19.036897 -31.827406 38.858589 1.023465 2.530562 0.027465 -0.017861 97688.100000 0 0 1
-12.220140 -18.711397 -33.056866 39.902439 0.992255 2.547117 0.032817 -0.020540 -462829.000000 0 0 1
-12.913140 -17.307697 -33.010096 39.445811 0.929801 2.562294 0.039168 -0.016399 -1655.100000 0 0 1
-12.160340 -16.092097 -33.118596 38.777195 0.923675 2.594564 0.053896 -0.017588 -438714.000000 0 0 1
-11.234440 -15.769797 -32.151486 37.531550 0.951795 2.599541 0.029813 -0.014949 -325469.000000 0 0 1
-11.004240 -14.217097 -32.119876 36.809042 0.912102 2.631314 0.037101 -0.016715 -152110.000000 0 0 1
-10.427040 -13.545597 -33.266676 37.401579 0.914760 2.666927 0.043143 -0.023796 -51964.700000 0 0 1
-11.158740 -13.583097 34.046595 38.316950 0.883072 0.476618 0.057457 -0.021108 -286672.000000 0 0 1
-11.752840 -12.268597 33.489714 37.552745 0.806866 0.469478 0.058606 -0.015130 360178.000000 0 0 1
-12.914140 -11.840497 34.194399 38.421730 0.742054 0.473505 0.046799 -0.012059 507646.000000 0 0 1
-13.762840 -11.071497 33.278520 37.675638 0.677448 0.487962 0.031934 -0.021402 800511.000000 0 0 1
-14.862540 -10.299997 34.005126 38.514071 0.606024 0.488735 0.045853 -0.018644 191176.000000 0 0 1
-14.216440 -9.231697 -33.795576 37.808364 0.575931 2.676690 0.047834 -0.018493 174443.000000 0 0 1
-14.925940 -8.754697 -32.692256 36.989350 0.530465 2.654781 0.048044 -0.020848 315151.000000 0 0 1
-14.155340 -7.494197 -32.080516 35.856606 0.486910 2.678531 0.045871 -0.031689 -326426.000000 0 0 1
-14.174440 -6.228197 -32.765406 36.239165 0.414001 2.700167 0.035005 -0.040436 75305.700000 0 0 1
-15.291040 -5.364097 -32.624586 36.427367 0.337387 2.680589 0.037814 -0.027662 -17226.000000 0 0 1
-15.551840 -4.843697 -31.204956 35.200432 0.301932 2.660508 0.041752 -0.029004 -560766.000000 0 0 1
-15.960440 -5.877897 -30.368576 34.807122 0.352865 2.631055 0.039088 -0.033612 -228654.000000 0 0 1
-16.238340 -5.448597 -29.036706 33.712034 0.323734 2.608650 0.051729 -0.036720 910206.000000 0 0 1
-14.972140 -5.021497 -28.160176 32.285848 0.323600 2.630508 0.042236 -0.034734 1097230.000000 0 0 1
-14.542540 -3.724697 -28.553456 32.259242 0.250734 2.657559 0.040564 -0.028601 173807.000000 0 0 1
-13.207740 -3.386697 -28.191966 31.316147 0.251010 2.691111 0.025678 -0.022513 520873.000000 0 0 1
-12.857940 -2.054697 -28.833196 31.637029 0.158460 2.717409 -0.002865 -0.006513 3735.860000 0 0 1
-13.038240 -2.149697 -30.246386 33.006981 0.163406 2.729696 0.002371 -0.012689 144241.000000 0 0 1
-13.021640 -0.890697 -30.845876 33.493649 0.068295 2.741300 -0.000872 -0.014156 2120.530000 0 0 1
-13.120140 -0.902697 -32.343046 34.914547 0.068694 2.755397 -0.011047 -0.017437 -354716.000000 0 0 1
-14.447940 -1.189697 -32.715456 35.783508 0.082158 2.724476 0.001275 -0.021984 168150.000000 0 0 1
-14.461440 -1.313697 -34.116875 37.078568 0.090593 2.739193 -0.008307 -0.019859 -917321.000000 0 0 1
-15.806840 -1.702697 33.862285 37.408685 0.107305 0.438950 0.002266 -0.023362 -1008620.000000 0 0 1
-15.695340 -1.807697 32.484803 36.123039 0.114669 0.452671 0.001155 -0.025837 1020090.000000 0 0 1
-16.916740 -2.134697 31.775422 36.061205 0.125525 0.492502 0.003158 -0.020925 819942.000000 0 0 1
-16.787540 -2.064697 30.228032 34.638395 0.122375 0.510144 0.007167 -0.011661 -32756.300000 0 0 1
-16.393540 -0.792697 29.730312 33.959800 0.048317 0.504418 0.000789 0.004637 160561.000000 0 0 1
-16.512340 -0.708697 28.330712 32.799221 0.042893 0.528108 0.005161 -0.004750 -226275.000000 0 0 1
-16.078240 0.673303 27.819182 32.138296 -0.041852 0.524432 0.009597 -0.003857 -102877.000000 0 0 1
-16.893640 1.745303 28.267442 32.977105 -0.102946 0.541020 0.013359 -0.002578 -37997.800000 0 0 1
-18.120640 2.036303 27.650092 33.121470 -0.111905 0.583011 0.021390 -0.006343 -81266.800000 0 0 1
-17.951440 2.706303 26.282662 31.943022 -0.149630 0.604479 0.031541 -0.015555 -386383.000000 0 0 1
-17.610440 4.092303 26.403232 32.000082 -0.228327 0.600419 0.033934 -0.008511 228274.000000 0 0 1
-18.005840 4.734303 25.167882 31.305690 -0.257112 0.636906 0.043763 -0.008613 -256922.000000 0 0 1
-18.112840 6.271303 25.326872 31.762473 -0.333317 0.647849 0.040041 -0.006776 -42717.700000 0 0 1
-16.943840 7.026303 25.115292 31.100491 -0.393099 0.630805 0.021875 0.001412 -6025.210000 0 0 1
-16.397540 7.076303 23.795562 29.752011 -0.407403 0.643840 0.024148 -0.003091 10769.300000 0 0 1
-15.220140 8.083303 23.642342 29.256671 -0.488211 0.629875 0.014463 -0.008752 -96330.900000 0 0 1
-14.100940 7.610303 24.353682 29.152274 -0.494902 0.581944 0.003728 0.000786 -742455.000000 0 0 1
-13.007240 8.299303 23.823372 28.383442 -0.567930 0.574727 0.031411 -0.002763 -102757.000000 0 0 1
-11.610940 8.120303 24.494732 28.297441 -0.610301 0.524416 0.031935 0.010254 467039.000000 0 0 1
-10.686240 8.907303 23.760782 27.533808 -0.694854 0.529682 0.034990 -0.000503 255874.000000 0 0 1
-9.413140 9.095303 24.362342 27.656021 -0.768227 0.493024 0.025735 0.000846 302367.000000 0 0 1
-9.245340 10.380303 25.173372 28.756316 -0.843164 0.504527 0.030211 -0.015586 -651881.000000 0 0 1
-10.187140 10.502303 26.213962 30.020793 -0.800630 0.509079 0.020735 -0.014009 218712.000000 0 0 1
-10.225340 11.801303 26.781122 31.000917 -0.856824 0.527871 0.026248 -0.014965 -267794.000000 0 0 1
-10.852640 12.974303 25.940032 30.967687 -0.874209 0.577833 0.014099 -0.021136 -532736.000000 0 0 1
-12.230240 12.866303 25.761382 31.285290 -0.810737 0.603359 0.008213 -0.020123 -602219.000000 0 0 1
-12.658840 12.156303 24.612762 30.229291 -0.765150 0.619442 0.012691 -0.013210 398629.000000 0 0 1
-14.196440 11.852303 24.603292 30.778856 -0.695649 0.644572 -0.014642 -0.008774 629824.000000 0 0 1
-14.985140 12.999303 24.300832 31.369838 -0.714555 0.684625 0.004859 -0.018434 257108.000000 0 0 1
-16.283240 12.745303 23.781352 31.514114 -0.664118 0.715713 0.019420 -0.008417 325325.000000 0 0 1
-16.392640 12.051303 22.336352 30.213659 -0.633939 0.738796 0.014270 -0.009273 -538894.000000 0 0 1
-15.925940 10.721303 22.221052 29.365917 -0.592510 0.712553 0.007996 -0.005925 45103.000000 0 0 1
-15.908340 10.373303 20.813952 28.176255 -0.577827 0.739649 0.013554 -0.008708 -338360.000000 0 0 1
-16.425340 9.000303 20.396752 27.691601 -0.501270 0.742814 0.020200 -0.016799 -390983.000000 0 0 1
-17.800340 8.851303 20.571952 28.607742 -0.461449 0.768284 0.014899 -0.009210 -757919.000000 0 0 1
-18.182040 7.525303 20.459452 28.386722 -0.392420 0.765927 0.016508 -0.002268 -412815.000000 0 0 1
-19.654840 7.290303 20.790852 29.524918 -0.355186 0.789529 0.026246 0.005491 -330229.000000 0 0 1
-19.857240 7.582303 22.139552 30.691385 -0.364754 0.765032 0.026440 -0.003322 -510138.000000 0 0 1
-21.217740 7.627303 22.435952 31.807864 -0.345093 0.787867 0.024629 0.001815 -909720.000000 0 0 1
-21.535140 8.306303 23.794422 33.150135 -0.368126 0.770191 0.045276 -0.001613 -953553.000000 0 0 1
-21.394040 9.737303 23.775242 33.433250 -0.427121 0.779698 0.043758 -0.002998 150936.000000 0 0 1
-20.097940 10.244303 23.554902 32.614512 -0.471393 0.763788 0.041076 -0.003383 300286.000000 0 0 1
-18.969640 9.819303 24.560932 32.550044 -0.477654 0.715814 0.040793 -0.009782 -600158.000000 0 0 1
-18.968140 10.507303 25.791602 33.695705 -0.505867 0.699092 0.051174 -0.001440 89265.900000 0 0 1
-18.823940 9.645303 26.895392 34.216001 -0.473515 0.666408 0.032968 0.000340 89666.000000 0 0 1
-30.860640 -14.554014 20.775152 39.947533 0.440674 1.023874 0.032634 -0.019734 97500.000000 0 0 1
-30.450630 -15.937714 20.811652 40.179304 0.482188 1.026321 0.028162 -0.006770 64313.900000 0 0 1
-31.003010 -16.698914 19.771152 40.384884 0.494066 1.059202 0.017424 0.006222 -1355.700000 0 0 1
-30.431460 -16.452514 18.337652 39.153908 0.495630 1.083376 0.011571 0.006729 90574.700000 0 0 1
-30.957830 -15.313314 17.702452 38.810587 0.459359 1.097161 0.026065 -0.009995 114713.000000 0 0 1
-30.278970 -15.169214 16.451552 37.650693 0.464433 1.118589 0.021927 -0.007745 -1012420.000000 0 0 1
-30.814360 -14.027214 15.609552 37.281975 0.427184 1.138795 0.019062 -0.004103 822667.000000 0 0 1
-32.082370 -14.354614 14.984652 38.208288 0.420715 1.167792 0.052674 -0.005387 1172370.000000 0 0 1
-33.257760 -14.257914 15.768052 39.471486 0.405008 1.159847 0.058345 -0.012749 -221955.000000 0 0 1
-33.765860 -12.862314 16.403452 39.681806 0.363956 1.144639 0.049794 -0.013495 -1103500.000000 0 0 1
-34.835350 -13.049014 17.239452 40.999721 0.358412 1.136825 0.029022 -0.015484 -775105.000000 0 0 1
-35.487691 -11.856714 17.588152 41.343694 0.322447 1.131378 0.023369 -0.006334 -434224.000000 0 0 1
35.340783 -11.923414 18.503352 41.635475 -0.325392 1.110277 0.011137 0.013452 -470694.000000 0 0 1
35.676133 -12.442214 19.769152 42.642872 -0.335565 1.088745 0.014223 0.003780 -104067.000000 0 0 1
34.818793 -11.901214 20.741952 42.239979 -0.329355 1.057501 0.012987 0.002744 -1136780.000000 0 0 1
35.047783 -12.382414 22.183552 43.287195 -0.339612 1.032733 0.016351 -0.009648 -82910.800000 0 0 1
-35.793880 -12.081014 22.911352 44.182382 0.325510 1.025627 0.011309 -0.005764 -11096.800000 0 0 1
-34.646286 -12.668614 22.370652 43.142844 0.350553 1.025671 0.007046 -0.011350 -1039460.000000 0 0 1
-33.367050 -11.880214 22.664252 42.049588 0.342051 1.001560 0.024754 -0.006676 -276408.000000 0 0 1
-33.236170 -10.698814 21.945452 41.239672 0.311428 1.009665 0.039888 -0.012377 612488.000000 0 0 1
-31.853570 -10.332414 21.788252 39.951679 0.313664 0.993972 0.056691 -0.029559 708042.000000 0 0 1
-31.668620 -8.931314 21.157152 39.118985 0.274885 0.999360 0.060387 -0.003796 -44136.800000 0 0 1
-31.876310 -8.816614 19.776852 38.535123 0.269842 1.031868 0.056431 -0.003937 1028650.000000 0 0 1
-33.221580 -8.905014 19.238852 39.409467 0.261893 1.060795 0.051027 -0.011542 803160.000000 0 0 1
-33.380030 -8.543914 17.720652 38.745921 0.250579 1.095777 0.054181 -0.012853 -710771.000000 0 0 1
-34.716495 -8.711114 17.366152 39.783185 0.245846 1.119069 0.023598 -0.010693 -440723.000000 0 0 1
-34.861113 -8.683314 15.952352 39.308710 0.244116 1.152918 0.041156 -0.009782 -32255.800000 0 0 1
35.695773 -8.620014 15.512652 39.863959 -0.236949 1.171099 0.035932 -0.006218 -54438.200000 0 0 1
34.905083 -9.765414 15.810152 39.543508 -0.272796 1.159480 0.027099 -0.002385 262144.000000 0 0 1
33.544533 -9.462314 15.536452 38.159565 -0.274938 1.151471 0.034837 -0.002221 417860.000000 0 0 1
32.580843 -10.675514 15.607452 37.670552 -0.316638 1.143607 0.039564 -0.001781 -42685.700000 0 0 1
32.406523 -11.184314 16.954852 38.245766 -0.332326 1.111505 0.024557 -0.006351 60721.600000 0 0 1
31.282453 -12.032014 16.870052 37.522792 -0.367182 1.104485 0.034317 -0.010413 -76729.900000 0 0 1
30.969643 -12.743614 18.194352 38.112373 -0.390370 1.073118 0.022960 -0.012021 -52207.500000 0 0 1
31.834463 -13.790014 18.569352 39.349947 -0.408778 1.079349 0.027422 -0.006339 -86469.000000 0 0 1
31.780983 -13.873014 19.937852 40.000117 -0.411587 1.048992 0.015250 -0.006746 -630194.000000 0 0 1
32.395633 -15.116814 20.597952 41.258584 -0.436598 1.048074 0.009661 0.002744 -131423.000000 0 0 1
32.522353 -15.048314 21.975752 42.036756 -0.433371 1.020694 0.012279 0.000382 -214485.000000 0 0 1
33.134773 -16.185514 22.498752 43.198124 -0.454385 1.022977 0.008227 0.014343 -8053.710000 0 0 1
33.651363 -16.094114 23.975172 44.342346 -0.446105 0.999547 0.015003 0.002742 1011580.000000 0 0 1
34.817973 -15.239314 24.078652 44.992326 -0.412566 1.006084 0.013918 -0.000271 808790.000000 0 0 1
35.162483 -15.137214 25.463692 45.977550 -0.406514 0.983841 0.020430 0.001463 -158889.000000 0 0 1
-35.625433 -14.293214 25.794412 46.247369 0.381547 0.979125 0.020808 -0.004416 -516140.000000 0 0 1
-34.373141 -14.893014 25.631792 45.390566 0.408859 0.970734 0.013414 -0.002006 -210781.000000 0 0 1
-33.383620 -13.900714 25.884292 44.471255 0.394558 0.949554 0.026430 -0.006872 -271389.000000 0 0 1
-31.945980 -14.378514 25.723612 43.462531 0.422927 0.937435 0.013775 -0.001678 -823660.000000 0 0 1
-31.569130 -14.758214 24.442262 42.565703 0.437302 0.959140 0.011825 -0.002969 31103.900000 0 0 1
-30.213290 -15.155314 24.356912 41.662761 0.464935 0.946384 0.021461 -0.014599 122208.000000 0 0 1
-29.883080 -16.642014 24.794182 42.245788 0.508129 0.943568 0.025017 -0.007869 -664984.000000 0 0 1
-29.944940 -16.781214 26.198882 43.182057 0.510795 0.918884 0.026099 -0.004690 156539.000000 0 0 1
-29.814560 -18.121114 26.595982 43.870595 0.546131 0.919476 0.025201 -0.009386 -228954.000000 0 0 1
-29.508460 -18.229414 28.124402 44.654706 0.553383 0.889476 0.034220 -0.020874 621335.000000 0 0 1
-28.222940 -17.668714 28.426842 43.781311 0.559347 0.864144 0.032397 -0.015498 506394.000000 0 0 1
-27.671190 -18.054014 29.665202 44.403451 0.578094 0.839166 0.051616 -0.016885 170136.000000 0 0 1
-26.498610 -17.158214 30.107252 43.623701 0.574625 0.809089 0.044989 -0.015831 -140516.000000 0 0 1
-26.815810 -15.837114 30.534242 43.614697 0.533471 0.795272 0.056681 -0.020510 -82109.000000 0 0 1
-25.763480 -14.938914 30.216672 42.426117 0.525470 0.778142 0.035815 -0.014545 -36338.000000 0 0 1
-25.798490 -13.620314 31.004262 42.571579 0.485757 0.754980 0.045838 -0.009136 509.169000 0 0 1
-25.186620 -13.702314 32.272562 43.169868 0.498249 0.726398 0.056104 -0.009330 145434.000000 0 0 1
-24.700340 -12.480914 32.756442 42.881984 0.467873 0.701501 0.048251 0.001298 -171062.000000 0 0 1
-23.920540 -12.590214 34.084785 43.502624 0.484493 0.670500 0.061032 0.000753 567520.000000 0 0 1
-22.602040 -13.131614 33.907593 42.813741 0.526326 0.656752 0.024749 0.000983 625725.000000 0 0 1
-22.465640 -14.573014 34.132249 43.383040 0.575447 0.665246 0.044592 -0.005701 -74036.000000 0 0 1
-22.534240 -15.096114 -32.903626 42.641919 0.590251 2.452190 0.052794 -0.009298 -789480.000000 0 0 1
-21.345140 -14.837414 -32.205686 41.388043 0.607443 2.462495 0.035083 -0.002186 -84896.700000 0 0 1
-21.214740 -15.759514 -31.101606 40.813446 0.638914 2.437259 0.060851 -0.010962 1155230.000000 0 0 1
-19.805240 -15.500514 -30.392316 39.448782 0.664070 2.450303 0.067498 -0.003288 1276280.000000 0 0 1
-19.540740 -14.371214 -29.563736 38.241167 0.634123 2.454489 0.048339 0.001918 -230245.000000 0 0 1
-20.150340 -14.461814 -28.338426 37.659616 0.622504 2.422629 0.052967 -0.002564 -309382.000000 0 0 1
-19.922140 -13.216014 -27.409536 36.370832 0.585726 2.424338 0.055747 -0.004422 -421233.000000 0 0 1
-18.660440 -13.162014 -26.818316 35.223185 0.614303 2.436239 0.064037 -0.011783 -427168.000000 0 0 1
-18.488940 -11.994214 -26.024336 34.102319 0.575477 2.438931 0.053574 -0.010033 98024.600000 0 0 1
-17.154640 -12.130314 -25.266646 32.860761 0.615486 2.447916 0.072631 -0.027892 -518268.000000 0 0 1
-17.188140 -12.932414 -24.129396 32.325026 0.645037 2.413525 0.084558 -0.029019 -40494.000000 0 0 1
-15.964240 -12.991414 -23.431396 31.187564 0.683088 2.420835 0.072460 -0.030001 -355325.000000 0 0 1
-14.787040 -13.790114 -23.956896 31.348950 0.750527 2.440598 0.055051 -0.025342 -1199240.000000 0 0 1
-13.997640 -13.014114 -24.782696 31.296695 0.749003 2.484650 0.053807 -0.033053 -264812.000000 0 0 1
-13.397440 -13.839214 -25.789376 32.188619 0.801617 2.500087 0.047213 -0.030838 703949.000000 0 0 1
-12.272140 -13.216314 -26.713896 32.232106 0.822424 2.547752 0.044329 -0.025188 328233.000000 0 0 1
-12.832540 -12.314814 -27.585616 32.822172 0.764813 2.568922 0.060439 -0.025048 -242223.000000 0 0 1
-11.928440 -11.777414 -28.515526 33.077642 0.779027 2.610153 0.058110 -0.023784 -170940.000000 0 0 1
-12.645540 -10.890314 -29.582036 33.964769 0.710959 2.627954 0.036411 -0.023272 215358.000000 0 0 1
-11.784540 -10.069314 -30.376916 34.103131 0.707073 2.669760 0.030797 -0.021463 287380.000000 0 0 1
-11.313440 -10.777514 -31.550386 35.207607 0.761143 2.681754 0.040351 -0.022762 506365.000000 0 0 1
-10.465840 -9.873614 -32.538966 35.578173 0.756289 2.725256 0.030505 -0.020333 823253.000000 0 0 1
-9.254940 -9.354114 -31.988546 34.589312 0.790727 2.751333 0.010579 -0.021537 111309.000000 0 0 1
-8.911640 -8.128714 -32.551166 34.714144 0.739485 2.786723 0.004591 -0.017179 564252.000000 0 0 1
-7.417240 -7.689314 -32.338876 34.057950 0.803407 2.822515 0.019772 -0.017104 517408.000000 0 0 1
-6.974340 -7.499014 -30.998786 32.646614 0.821633 2.822516 0.003997 -0.012245 -51781.800000 0 0 1
-7.440840 -6.298514 -30.402806 31.927543 0.702446 2.831299 -0.002671 -0.008338 -257999.000000 0 0 1
-6.672440 -4.997514 -30.905906 32.010493 0.642847 2.878126 0.002896 -0.008965 -327275.000000 0 0 1
-5.359140 -4.927814 -30.455616 31.313708 0.743493 2.906948 0.018217 -0.008406 -765616.000000 0 0 1
-4.890140 -3.656214 -30.732946 31.333614 0.642009 2.945472 0.036077 -0.015242 -112683.000000 0 0 1
-3.377740 -3.506314 -30.447256 30.834052 0.804073 2.983032 0.034798 -0.004678 -227445.000000 0 0 1
-2.558640 -4.312614 -31.259396 31.659045 1.035324 2.982532 0.025001 -0.007919 114728.000000 0 0 1
-1.175540 -4.203014 -31.013986 31.319556 1.298075 3.001790 0.041535 -0.002846 638219.000000 0 0 1
-0.246540 -2.973514 -31.287846 31.429793 1.488073 3.046517 0.036346 -0.002468 -250197.000000 0 0 1
-0.143040 -2.002214 -30.209526 30.276143 1.499476 3.075244 0.027162 -0.011571 400338.000000 0 0 1
0.680560 -0.938714 -30.722486 30.744357 -0.943494 3.103871 0.020095 -0.003419 265979.000000 0 0 1
1.104160 -0.019614 -29.574796 29.595407 -0.017762 3.104270 0.022421 -0.013804 348768.000000 0 0 1
0.040260 0.803586 -29.109126 29.120244 1.520738 3.113959 0.051637 -0.016370 317587.000000 0 0 1
0.624260 1.987886 -28.635026 28.710732 1.266516 3.068957 0.076399 -0.020651 -219910.000000 0 0 1
-0.486840 2.949086 -28.203496 28.361441 -1.407190 3.036007 0.059621 -0.016021 225142.000000 0 0 1
-1.440740 3.222786 -29.218296 29.430782 -1.150400 3.021355 0.040689 -0.017398 62931.200000 0 0 1
-2.480040 4.026586 -28.701216 29.088207 -1.018756 2.978291 0.064806 -0.018962 364490.000000 0 0 1
-3.804140 3.996886 -29.530606 30.041693 -0.810101 2.956871 0.070461 -0.018440 131827.000000 0 0 1
-3.770740 4.656486 -30.801246 31.378625 -0.890119 2.949462 0.082354 -0.020016 1028750.000000 0 0 1
-5.036340 4.619386 -31.509146 32.241739 -0.742243 2.928012 0.087621 -0.013130 582900.000000 0 0 1
-4.843440 5.336586 -32.899296 33.679397 -0.833803 2.925942 0.092476 -0.016074 164878.000000 0 0 1
-4.327440 4.623986 -34.020046 34.604502 -0.818514 2.957542 0.102505 -0.022186 -1131.490000 0 0 1
-3.027740 4.119486 -33.846356 34.230297 -0.936977 2.991677 0.091895 -0.019016 -619212.000000 0 0 1
-2.312240 3.538086 33.428585 33.694729 -0.991945 0.125771 0.085951 -0.026371 -355377.000000 0 0 1
-2.973040 2.460986 32.809800 33.036017 -0.691444 0.117093 0.084532 -0.024942 16431.600000 0 0 1
-2.453740 1.982486 31.551522 31.708826 -0.679566 0.099649 0.091924 -0.029179 52935.200000 0 0 1
-2.235540 3.019086 30.396002 30.627267 -0.933423 0.122967 0.091672 -0.034699 -32487.700000 0 0 1
-3.489540 3.595686 30.117442 30.531397 -0.800378 0.164858 0.074217 -0.029168 -71719.400000 0 0 1
-3.443240 4.631286 29.164052 29.729559 -0.931485 0.195358 0.075881 -0.033809 398975.000000 0 0 1
-4.806940 5.364686 28.984882 29.866535 -0.840177 0.243582 0.078454 -0.024434 341601.000000 0 0 1
-4.948340 6.059986 27.760652 28.842041 -0.886039 0.274700 0.072482 -0.009261 -293820.000000 0 0 1
-6.055940 6.929686 27.738082 29.224924 -0.852582 0.320353 0.063691 -0.006605 -324535.000000 0 0 1
-6.190940 7.758086 26.449842 28.250837 -0.897277 0.358996 0.061003 -0.006779 -96710.400000 0 0 1
-5.085140 8.611186 26.279052 28.117606 -1.037371 0.363630 0.048950 -0.002958 -212516.000000 0 0 1
-5.082640 9.345886 25.095612 27.257450 -1.072697 0.400956 0.044815 -0.004210 230512.000000 0 0 1
-4.230840 10.666486 25.054342 27.557104 -1.193183 0.429488 0.051988 -0.012960 -470111.000000 0 0 1
-4.302140 11.374486 23.805412 26.731723 -1.209199 0.472287 0.063404 -0.011277 283507.000000 0 0 1
-3.807240 12.725686 23.983472 27.416147 -1.280094 0.505786 0.046107 0.000043 1198460.000000 0 0 1
-2.249440 12.915086 24.240752 27.558547 -1.398355 0.495756 0.041775 0.005936 854889.000000 0 0 1
-1.596640 12.437786 25.432572 28.356014 -1.443124 0.458082 0.041154 0.007640 42238.500000 0 0 1
-1.950740 13.157786 26.570112 29.713694 -1.423611 0.464146 0.055073 -0.002777 -501084.000000 0 0 1
-1.154540 12.638986 27.793772 30.554389 -1.479702 0.428358 0.053052 -0.004554 -761323.000000 0 0 1
0.185160 12.907986 27.631202 30.498094 1.556453 0.437066 0.041975 -0.003124 -1358550.000000 0 0 1
0.950160 12.462886 28.726532 31.327943 1.494704 0.410398 0.041627 -0.013337 509406.000000 0 0 1
2.490760 12.634586 28.631042 31.393841 1.376154 0.422673 0.035229 -0.011193 556765.000000 0 0 1
2.903560 14.016486 28.553802 31.940760 1.366532 0.464688 0.037019 -0.011043 -314069.000000 0 0 1
4.300760 14.074086 28.425472 32.009122 1.274228 0.477726 0.038242 -0.012872 -345409.000000 0 0 1
4.758060 15.542786 28.592672 32.890093 1.273728 0.516931 0.030877 -0.010882 -221444.000000 0 0 1
4.591960 15.975486 29.955332 34.258199 1.290904 0.506601 0.039212 -0.003461 593860.000000 0 0 1
3.486160 16.872586 30.153452 34.728492 1.367047 0.519107 0.031528 -0.000138 355064.000000 0 0 1
3.622760 18.344886 29.677562 35.077299 1.375824 0.562243 0.034660 0.002022 -361820.000000 0 0 1
4.663160 18.962886 30.383532 36.117795 1.329671 0.571234 0.054680 0.004836 -160610.000000 0 0 1
5.148060 20.035786 29.599772 36.112072 1.319294 0.609972 0.029571 0.006354 253838.000000 0 0 1
6.441860 20.686786 30.172262 37.145741 1.268914 0.622768 0.040075 0.006101 -113688.000000 0 0 1
6.199460 21.393486 31.385402 38.485816 1.288739 0.617194 0.045541 -0.015224 891648.000000 0 0 1
7.281060 22.282386 31.777722 39.488507 1.254971 0.635570 0.016427 -0.014820 134449.000000 0 0 1
7.195360 23.641786 31.136992 39.751975 1.275354 0.670869 -0.000143 0.000844 -203863.000000 0 0 1
7.485460 23.622986 29.714122 38.691170 1.263934 0.695112 -0.016848 0.005693 239232.000000 0 0 1
7.414660 24.918486 29.175322 39.078223 1.281583 0.727878 -0.022954 0.010451 96707.700000 0 0 1
8.165260 25.010786 27.798162 38.274648 1.255236 0.757900 -0.005715 0.007791 58044.700000 0 0 1
7.439660 24.455186 26.718462 36.976761 1.275476 0.763277 -0.006757 0.007156 494056.000000 0 0 1
8.045060 24.783986 25.468192 36.436215 1.256920 0.796826 0.010334 -0.001985 -295893.000000 0 0 1
28.552553 2.219486 6.944004 29.468518 0.077577 1.332918 0.067905 0.014577 112908.000000 0 0 1
28.854433 3.291486 7.801804 30.071254 0.113581 1.308350 0.068357 -0.007943 200813.000000 0 0 1
28.026323 3.283286 8.949404 29.603151 0.116619 1.263679 0.065139 0.007186 64631.000000 0 0 1
28.586473 4.289586 10.023804 30.595157 0.148945 1.237005 0.067652 -0.003771 348277.000000 0 0 1
28.206163 5.653986 9.784304 30.385651 0.197830 1.242951 0.059984 -0.003035 -168047.000000 0 0 1
29.156353 6.275386 8.976604 31.145671 0.211998 1.278436 0.072258 -0.017237 -291159.000000 0 0 1
28.880673 7.773986 8.657804 31.136565 0.262944 1.289023 0.099510 -0.029037 -557003.000000 0 0 1
27.968783 7.948886 7.654204 30.066999 0.276904 1.313392 0.076776 -0.026602 -722044.000000 0 0 1
28.120263 9.182086 7.089604 30.419112 0.315614 1.335569 0.100954 -0.045557 -275223.000000 0 0 1
27.165123 9.470186 5.938804 29.375121 0.335441 1.367222 0.094775 -0.038278 -564627.000000 0 0 1
25.847983 9.798186 6.263504 28.343503 0.362334 1.347971 0.076291 -0.030878 -609320.000000 0 0 1
25.102283 9.839686 5.062104 27.432990 0.373577 1.385207 0.099862 -0.033441 -222024.000000 0 0 1
23.661883 10.284686 5.350004 26.349232 0.410018 1.366333 0.052880 -0.030880 -304347.000000 0 0 1
23.551583 11.658186 5.704004 26.891002 0.459645 1.357057 0.049290 -0.025415 421940.000000 0 0 1
22.251683 11.964086 6.205304 26.015044 0.493328 1.329947 0.047877 -0.014315 354174.000000 0 0 1
22.154183 13.389186 6.765904 26.755477 0.543622 1.315141 0.032234 0.005691 -100268.000000 0 0 1
22.055483 14.259086 5.669304 26.868324 0.573918 1.358195 0.029509 0.003128 280616.000000 0 0 1
21.950783 15.567086 6.160204 27.606505 0.616861 1.345759 0.048631 -0.009696 -229563.000000 0 0 1
21.639683 16.560986 5.024104 27.708911 0.653225 1.388471 0.045012 -0.009150 -232437.000000 0 0 1
20.265283 16.500886 4.721904 26.556681 0.683366 1.392041 0.059492 -0.005329 139291.000000 0 0 1
19.909983 17.225486 3.541804 26.564434 0.713234 1.437069 0.058224 -0.009269 -124227.000000 0 0 1
18.387083 17.238986 3.324004 25.422755 0.753183 1.439672 0.050540 -0.006160 75072.700000 0 0 1
17.639683 17.834886 4.420704 25.471242 0.790901 1.396356 0.054303 -0.010434 983329.000000 0 0 1
16.260383 17.806486 4.028404 24.447884 0.830751 1.405266 0.032226 -0.011159 407794.000000 0 1 0
15.475183 19.058486 4.487704 24.956896 0.888791 1.389995 0.048212 -0.009752 -462265.000000 0 1 0
14.108683 18.914386 4.216404 23.970544 0.929909 1.393977 0.038532 -0.007219 -118051.000000 0 1 0
13.449083 20.202086 4.366004 24.658956 0.983444 1.392802 0.020586 -0.003299 -381294.000000 0 1 0
11.943883 20.116186 4.127404 23.756109 1.034989 1.396169 0.016063 0.005032 -509230.000000 0 1 0
11.410183 19.300286 5.170304 23.009245 1.036878 1.344156 0.009182 -0.008870 -875831.000000 0 1 0
10.050083 19.114286 4.953404 22.156180 1.086731 1.345323 0.010712 -0.008103 -254073.000000 0 1 0
9.282783 18.487286 6.199404 21.595889 1.105456 1.279636 0.013191 -0.014583 -404061.000000 0 1 0
9.013183 19.417886 7.248804 22.601701 1.136222 1.244307 0.014213 -0.018113 -325888.000000 0 1 0
8.521383 18.765586 8.386804 22.250835 1.144541 1.184327 0.021615 -0.016435 -858137.000000 0 1 0
7.524383 19.672086 9.100404 22.943946 1.205475 1.162947 0.019556 -0.021320 -410696.000000 0 1 0
6.329583 19.868086 8.413204 22.485250 1.262382 1.187300 0.027454 -0.029019 -712314.000000 0 1 0
6.399183 21.015386 7.649704 23.261856 1.275216 1.235709 0.022764 -0.016057 -1074900.000000 0 1 0
5.168783 21.245586 6.736504 22.879504 1.332145 1.271933 0.008908 -0.003343 -670227.000000 0 1 0
3.943083 21.415986 7.337304 22.978868 1.388717 1.245799 0.006655 -0.011574 -901326.000000 0 1 0
3.773283 22.577686 8.133804 24.292969 1.405202 1.229381 0.007533 -0.015646 -1102270.000000 0 1 0
3.639383 23.965586 7.389904 25.341766 1.420089 1.274887 0.014005 -0.010355 323579.000000 0 0 1
2.581483 24.038186 6.423104 25.015089 1.463815 1.311119 0.008321 -0.013449 579215.000000 0 0 1
2.812483 25.181286 5.644104 25.958874 1.459568 1.351621 0.019678 0.002679 -5520.330000 0 0 1
1.642383 25.415686 4.650504 25.889799 1.506265 1.390189 0.031830 -0.005975 73607.200000 0 0 1
0.465183 25.792986 5.353604 26.346833 1.552763 1.366174 0.042247 -0.014068 334304.000000 0 0 1
-0.588317 26.100786 4.437404 26.481837 -1.548260 1.402438 0.049992 -0.017973 -24428.700000 0 0 1
-1.807117 26.736286 5.094504 27.277255 -1.503309 1.382926 0.049167 -0.015141 -206555.000000 0 0 1
-2.723817 27.235986 4.138104 27.682883 -1.471120 1.420752 0.073356 -0.016842 650010.000000 0 0 1
-3.910517 27.783786 4.738904 28.455019 -1.430967 1.403477 0.063027 -0.018873 -54187.600000 0 0 1
-4.912717 28.173586 3.677504 28.834177 -1.398159 1.442908 0.065569 -0.022275 -771262.000000 0 0 1
-4.434717 29.270186 2.930004 29.748872 -1.420430 1.472145 0.062940 -0.020242 200661.000000 0 0 1
-5.186117 29.557886 1.730604 30.059265 -1.397108 1.513191 0.059228 -0.022856 -9282.060000 0 0 1
-4.551117 30.543086 0.702504 30.888287 -1.422878 1.548051 0.059686 -0.024836 -150862.000000 0 0 1
-4.338717 31.933486 1.050004 32.243984 -1.435756 1.538226 0.051847 -0.016695 665044.000000 0 0 1
-3.262117 32.079486 2.019404 32.308092 -1.469456 1.508251 0.047305 -0.018847 373677.000000 0 0 1
-2.545817 33.488886 1.840504 33.635905 -1.494922 1.516051 0.043616 -0.019468 -839615.000000 0 0 1
-1.759117 33.402486 0.702804 33.456158 -1.518181 1.549788 0.034818 -0.019254 -195579.000000 0 0 1
-0.870417 -34.208497 0.557604 34.224111 1.545357 1.554503 0.035433 -0.019182 1537670.000000 0 0 1
0.460583 -34.273097 1.450204 34.306856 -1.557359 1.528512 0.042438 -0.013620 286854.000000 0 0 1
0.300083 -34.057397 2.856104 34.178263 -1.561985 1.487134 0.037805 -0.016059 782080.000000 0 0 1
1.560783 -34.187797 3.544004 34.406416 -1.525175 1.467609 0.033974 -0.013506 808332.000000 0 0 1
1.377383 -34.123197 5.068404 34.525041 -1.530453 1.423460 0.030470 -0.019528 926257.000000 0 0 1
0.461583 33.514686 5.495904 33.965456 1.557025 1.408273 0.037147 -0.029492 936100.000000 0 0 1
-0.166717 33.762186 6.738504 34.428483 -1.565858 1.373800 0.021418 -0.021711 6469.520000 0 0 1
0.733583 33.442786 7.949604 34.382470 1.548864 1.337474 0.016445 -0.014697 23291.600000 0 0 1
1.010083 32.044986 8.149904 33.080543 1.539286 1.321868 0.015875 -0.017088 -568829.000000 0 0 1
2.043183 31.973886 9.070904 33.298427 1.506981 1.294897 0.027372 -0.010658 -867154.000000 0 0 1
2.648383 30.612486 9.101704 32.046517 1.484498 1.282817 0.024273 -0.012466 -692216.000000 0 0 1
1.879483 29.705986 9.837604 31.348947 1.507611 1.251594 0.020778 -0.020362 108900.000000 0 0 1
2.441883 28.398586 9.822104 30.148237 1.485021 1.238945 0.029071 -0.017073 26899.100000 0 0 1
1.981383 27.586986 11.053104 29.784875 1.499096 1.190605 0.022205 -0.025538 -218298.000000 0 0 1
2.689083 28.013886 12.203604 30.674695 1.475098 1.161636 0.032615 -0.014763 -160526.000000 0 0 1
2.557183 27.237586 13.337804 30.435543 1.477186 1.117166 0.036498 -0.014083 -718044.000000 0 0 1
1.163383 26.949086 13.931504 30.359405 1.527653 1.094055 0.022644 -0.018168 240123.000000 0 0 1
0.483283 28.025086 14.647404 31.625708 1.553553 1.089252 0.024078 -0.016532 394335.000000 0 0 1
0.090083 29.071686 13.809704 32.185073 1.567698 1.127332 0.019148 -0.016825 -928375.000000 0 0 1
-0.681217 30.226386 14.511404 33.536238 -1.548263 1.123302 0.010779 -0.011701 -156598.000000 0 0 1
-1.992517 29.858886 14.871404 33.416790 -1.504164 1.109591 0.005199 -0.005784 -355116.000000 0 0 1
-2.574517 31.027986 15.335304 34.706420 -1.488012 1.113128 -0.003500 -0.002941 -660401.000000 0 0 1
-3.854017 30.764086 16.138004 34.953077 -1.446169 1.090880 0.007761 0.013334 532033.000000 0 0 1
-4.882817 30.162186 15.294904 34.169188 -1.410303 1.106691 0.003435 0.004694 541440.000000 0 0 1
-6.041017 29.849386 16.017404 34.409838 -1.371110 1.086609 0.008781 0.011525 156528.000000 0 0 1
-7.264917 29.387086 15.146004 33.849391 -1.328441 1.106881 0.004196 0.005351 827334.000000 0 0 1
-8.384917 28.980386 15.913704 34.108878 -1.289156 1.085403 0.008149 0.008262 205966.000000 0 0 1
-9.465817 28.484986 15.158304 33.626928 -1.249968 1.103159 0.017448 0.003547 257525.000000 0 0 1
-10.609917 27.832486 15.963404 33.794199 -1.206596 1.078817 0.011487 0.012572 164644.000000 0 0 1
-11.430617 28.714186 16.736304 35.146370 -1.191944 1.074481 0.009087 0.004964 460716.000000 0 0 1
-10.871817 29.162586 17.960504 35.933724 -1.213956 1.047402 0.010695 0.004532 -239544.000000 0 0 1
-11.643717 30.409686 18.481004 37.441590 -1.205122 1.054577 0.009251 0.005040 -844762.000000 0 0 1
-12.900017 30.136286 18.984504 37.881625 -1.166340 1.045865 0.013298 0.009454 -758349.000000 0 0 1
-13.436617 31.445586 19.208504 39.221603 -1.166981 1.059001 0.011556 -0.005868 -350614.000000 0 0 1
-14.638017 31.364986 20.132404 40.041823 -1.134142 1.043979 0.026633 -0.004088 -482797.000000 0 0 1
-14.207517 31.226586 21.479204 40.476035 -1.143808 1.011412 0.028535 -0.002861 -139025.000000 0 0 1
-15.199817 30.583086 22.230404 40.749852 -1.109551 0.993771 0.023500 0.001159 -322192.000000 0 0 1
-14.873117 30.434486 23.736104 41.362666 -1.116235 0.959593 0.030453 0.001378 215537.000000 0 0 1
-13.803217 29.488286 23.989004 40.442059 -1.133000 0.935806 0.021320 -0.003645 889475.000000 0 0 1
-13.495417 29.162886 25.331704 40.918155 -1.137382 0.903223 0.035868 -0.004756 3322.790000 0 0 1
-12.883717 30.293886 26.197704 42.071717 -1.168679 0.898618 0.034806 -0.002319 -430302.000000 0 0 1
-13.824417 31.278786 26.507004 43.267750 -1.154637 0.911416 0.022115 0.002303 -18829.300000 0 0 1
-13.174217 32.441486 26.899304 44.154077 -1.185050 0.915727 0.020764 0.001246 9428.630000 0 0 1
-14.146117 33.573986 27.380304 45.574183 -1.172028 0.926313 0.017351 -0.003097 350178.000000 0 0 1
-14.845417 33.352286 28.633404 46.396478 -1.152017 0.905686 0.004439 -0.001916 1182130.000000 0 0 1
-13.968417 33.248986 29.791904 46.777871 -1.173070 0.880351 0.023514 0.008239 115567.000000 0 0 1
-14.708217 32.518586 30.916104 47.218593 -1.146030 0.856952 0.023952 0.008447 453053.000000 0 0 1
-15.851817 33.257486 31.381604 48.395718 -1.126012 0.865266 0.008807 0.010753 490621.000000 0 0 1
-16.505717 32.620586 32.471604 48.897304 -1.102368 0.844537 0.009354 0.017520 -311512.000000 0 0 1
-17.946817 33.020586 32.747804 49.848430 -1.072954 0.854033 0.006830 0.011970 -397544.000000 0 0 1
-18.236617 34.218486 33.373204 51.159063 -1.081140 0.860126 0.021087 0.006600 -357888.000000 0 0 1
-19.632617 -34.324297 33.482904 51.814109 1.051239 0.868186 0.017595 0.000238 -54560.700000 0 0 1
-20.069317 -32.837497 33.549104 51.055079 1.022204 0.853810 0.025269 0.002086 -141136.000000 0 0 1
-19.755317 -32.104897 -33.758445 50.602664 1.019176 2.301143 0.038598 0.000260 -335128.000000 0 0 1
-20.473317 -32.542797 -32.648145 50.438990 1.009240 2.274807 0.021135 -0.000313 -271618.000000 0 0 1
-20.194117 -31.807097 -31.345445 49.010516 1.005114 2.264730 0.030938 -0.009132 -147896.000000 0 0 1
-20.384017 -30.400197 -31.366545 48.203115 0.980129 2.279324 0.048168 -0.011331 -38282.900000 0 0 1
-19.762517 -29.696897 -30.311945 46.811075 0.983620 2.275145 0.054273 -0.014601 -144243.000000 0 0 1
-19.903017 -28.154097 -30.370845 45.947486 0.955434 2.292934 0.058180 -0.022446 886919.000000 0 0 1
-21.181917 -27.681797 -29.886745 45.914845 0.917642 2.279588 0.056398 -0.020686 718418.000000 0 0 1
-21.350017 -26.312897 -30.060745 45.297242 0.889149 2.296461 0.054383 -0.018567 1025550.000000 0 0 1
-22.619117 -25.886597 -29.190345 45.097856 0.852659 2.274790 0.063304 -0.016500 940153.000000 0 0 1
-22.555117 -26.192097 -27.774045 44.341367 0.859869 2.247682 0.064807 -0.018085 -58851.000000 0 0 1
-21.750417 -25.311497 -27.031645 42.947204 0.860922 2.251597 0.065834 -0.024902 -220339.000000 0 0 1
-21.566217 -25.733397 -25.580945 42.210119 0.873273 2.221867 0.062164 -0.019215 1042620.000000 0 0 1
-22.792617 -25.451697 -24.849145 42.246565 0.840459 2.199619 0.058746 -0.019527 1168750.000000 0 0 1
-22.886317 -26.062197 -23.586845 41.944736 0.850189 2.167999 0.048668 -0.011653 -1388350.000000 0 0 1
-24.235117 -25.740497 -22.921945 42.134661 0.815511 2.146013 0.044236 -0.012859 590143.000000 0 0 1
-25.403917 -26.392097 -23.434445 43.486492 0.804474 2.139915 0.037735 -0.012563 321686.000000 0 0 1
-25.345517 -27.774897 -23.397145 44.286189 0.831100 2.127413 0.044382 -0.002621 -1576530.000000 0 0 1
-26.768117 -28.352997 -23.423945 45.487424 0.814143 2.111751 0.023994 -0.004137 -94634.600000 0 0 1
-27.397117 -28.204797 -22.174345 45.142155 0.799923 2.084276 0.026919 -0.001041 276044.000000 0 0 1
-28.559117 -27.365597 -22.292745 45.403365 0.764060 2.084026 0.024561 0.001182 612182.000000 0 0 1
-29.176317 -27.028097 -20.883645 44.921066 0.747195 2.054314 0.027329 0.001399 -2779.320000 0 0 1
-29.719217 -28.143697 -20.223645 45.654084 0.758176 2.029711 0.023102 0.001439 109870.000000 0 0 1
-30.203317 -27.749197 -18.945745 45.179636 0.743076 2.003517 0.022471 0.008695 -385111.000000 0 0 1
-31.098117 -28.859997 -18.280945 46.197243 0.748087 1.977643 0.010338 0.007700 1238800.000000 0 0 1
-32.501517 -28.941597 -18.628145 47.338910 0.727524 1.975238 0.003995 0.005147 1444940.000000 0 0 1
-33.380017 -27.859197 -18.447345 47.229916 0.695489 1.972064 -0.002233 0.010990 -413253.000000 0 0 1
-33.688417 -27.402497 -17.020845 46.642421 0.682864 1.944345 0.000399 0.012968 -281718.000000 0 0 1
-32.800617 -26.368097 -16.562245 45.226817 0.677109 1.945723 0.005747 0.011522 594798.000000 0 0 1
-33.194617 -25.768897 -15.329145 44.731436 0.660120 1.920578 -0.000662 0.010302 11221.100000 0 0 1
-33.088517 -26.641197 -14.022245 44.735072 0.677873 1.889621 0.005073 0.009771 -154304.000000 0 0 1
-33.989817 -27.705197 -13.895145 45.999572 0.683882 1.877661 0.005882 0.019045 106987.000000 0 0 1
-33.817717 -28.296997 -12.612345 45.863158 0.696752 1.849385 -0.010698 0.014201 -297745.000000 0 0 1
-34.596717 -29.585397 -12.438745 47.190581 0.707477 1.837533 -0.005268 0.007231 -226044.000000 0 0 1
-34.035917 -30.649397 -13.195345 47.664938 0.733092 1.851296 -0.002991 -0.001573 153478.000000 0 0 1
-34.667917 -31.857697 -12.879445 48.812472 0.743181 1.837814 0.004725 -0.009787 -255173.000000 0 0 1
-34.177017 -32.959997 -13.811145 49.448737 0.767273 1.853864 0.009170 -0.009860 -711160.000000 0 0 1
-32.852417 -33.375897 -13.801745 48.823355 0.793302 1.857391 0.003643 -0.000998 -621943.000000 0 0 1
-32.400717 -34.164297 -14.864245 49.375616 0.811886 1.876584 0.021699 -0.017016 -51530.200000 0 0 1
-30.894717 34.237686 -14.809145 48.435663 -0.836679 1.881521 0.013854 -0.008514 122197.000000 0 0 1
-30.520017 33.349386 -15.815245 47.893371 -0.829669 1.907331 0.026227 -0.010101 -224118.000000 0 0 1
-29.135817 33.414686 -16.128745 47.175984 -0.853698 1.919718 0.028144 -0.008181 404127.000000 0 0 1
9.688660 19.728786 -8.827896 23.686006 1.114300 1.952719 0.049857 -0.017411 -677063.000000 0 1 0
8.360460 20.055386 -9.111996 23.561500 1.175833 1.967882 0.049019 -0.014024 -409097.000000 0 1 0
8.019860 20.266286 -10.478096 24.183279 1.193981 2.018924 0.054591 -0.013555 192573.000000 0 1 0
7.902760 19.058386 -11.489896 23.615533 1.177716 2.078921 0.037830 0.000465 -503818.000000 0 1 0
9.106960 18.423086 -11.790596 23.693142 1.111700 2.091669 0.054181 -0.007743 -507865.000000 0 1 0
8.954560 17.258086 -12.489496 23.108725 1.092173 2.141788 0.044654 -0.017877 -51380.200000 0 1 0
10.281760 16.802786 -13.145296 23.682209 1.021667 2.159244 0.061336 -0.014487 168181.000000 0 1 0
10.117560 15.643586 -13.943396 23.270262 0.996706 2.213290 0.061121 -0.023065 -530707.000000 0 1 0
11.269460 15.253086 -14.615096 23.942815 0.934481 2.227383 0.073858 -0.027135 -567034.000000 0 1 0
10.889260 14.095886 -15.536296 23.635703 0.913042 2.288058 0.063815 -0.026795 -209786.000000 0 1 0
10.654460 12.904786 -14.823696 22.356050 0.880627 2.295713 0.060225 -0.027198 1439240.000000 0 1 0
11.873560 12.167686 -14.490396 22.338433 0.797632 2.276639 0.076179 -0.023186 968588.000000 0 1 0
12.743560 11.551986 -15.624596 23.237356 0.736392 2.308231 0.081534 -0.026016 37561.100000 0 1 0
13.518560 12.472986 -16.385196 24.633341 0.745192 2.298509 0.074830 -0.021346 282149.000000 0 1 0
14.273260 11.819786 -17.364696 25.396180 0.691646 2.323689 0.073232 -0.020392 -77900.900000 0 0 1
15.067860 12.694286 -18.371096 26.938494 0.700109 2.321242 0.060527 -0.021550 209716.000000 0 0 1
16.091660 13.473186 -17.784596 27.509273 0.697062 2.273777 0.042492 -0.012920 583530.000000 0 0 1
16.960960 14.059386 -18.806096 28.965665 0.692132 2.277401 0.036606 -0.010531 899617.000000 0 0 1
18.128060 14.946586 -18.226296 29.735919 0.689502 2.230571 0.033328 0.004651 -80381.700000 0 0 1
17.905360 16.139686 -17.513296 29.796089 0.733582 2.199098 0.029388 -0.000700 -89678.400000 0 0 1
17.389360 17.215586 -18.268496 30.536931 0.780377 2.212103 0.031911 0.002748 -410358.000000 0 0 1
17.188760 18.605786 -17.590496 30.839168 0.824965 2.177783 0.028433 0.012305 218665.000000 0 0 1
18.340760 19.437686 -17.575596 31.986070 0.814426 2.152534 0.022362 0.009873 388032.000000 0 0 1
17.925660 20.736586 -17.227696 32.374817 0.857975 2.131914 0.011679 0.011007 206725.000000 0 0 1
19.020560 21.754086 -17.688296 33.880640 0.852338 2.120080 0.019950 0.002338 954509.000000 0 0 1
20.136260 21.946986 -16.822496 34.207244 0.828399 2.084931 0.028452 -0.004488 135695.000000 0 0 1
19.753860 22.659486 -15.636696 33.884710 0.853799 2.050445 0.029851 -0.004230 -1026610.000000 0 0 1
20.885060 23.189486 -14.758696 34.521835 0.837635 2.012541 0.024550 -0.003450 -659293.000000 0 0 1
21.561560 22.226786 -14.000396 33.984437 0.800589 1.995406 0.033889 -0.008045 541465.000000 0 0 1
22.542260 22.896186 -13.132596 34.711005 0.793187 1.958800 0.027703 -0.004879 1690350.000000 0 0 1
24.002360 22.880086 -13.717896 35.885823 0.761465 1.963043 0.025250 -0.006556 342062.000000 0 0 1
24.228160 23.659386 -14.844396 36.974672 0.773521 1.983923 0.027682 -0.001903 -545963.000000 0 0 1
25.569560 23.477786 -15.181396 37.887776 0.742776 1.983070 0.034126 0.007221 -479338.000000 0 0 1
25.762460 24.233686 -16.506096 39.031104 0.754830 2.007435 0.039008 -0.002830 4804.720000 0 0 1
26.448860 23.376486 -17.444196 39.373878 0.723813 2.029783 0.046148 -0.009438 323640.000000 0 0 1
26.572260 23.902786 -18.692696 40.334167 0.732560 2.052676 0.048366 -0.008596 -852542.000000 0 0 1
27.165560 22.889786 -19.714596 40.627272 0.700184 2.077451 0.039516 -0.020632 717683.000000 0 0 1
28.587960 22.926286 -19.855796 41.678995 0.675932 2.067350 0.041932 -0.021505 359654.000000 0 0 1
29.031960 22.041586 -20.888996 42.012336 0.649375 2.091178 0.039763 -0.013006 1430070.000000 0 0 1
30.588960 22.250486 -21.122296 43.323434 0.628881 2.080077 0.062593 -0.019687 1094410.000000 0 0 1
30.838360 23.278586 -22.009596 44.467059 0.646603 2.088590 0.049411 -0.021084 56483.300000 0 0 1
32.160460 23.756686 -21.842996 45.560858 0.636225 2.070795 0.053699 -0.016047 291049.000000 0 0 1
32.616060 25.094886 -22.536896 46.919850 0.655804 2.071824 0.046863 -0.016615 -168356.000000 0 0 1
32.754560 25.146586 -23.957596 47.740741 0.654751 2.096506 0.046362 -0.018452 41237.800000 0 0 1
31.486160 25.018886 -24.546696 47.115424 0.671439 2.118807 0.038147 -0.021419 -205172.000000 0 0 1
31.499760 25.328886 -26.095496 48.111976 0.677235 2.144077 0.045391 -0.028508 -380247.000000 0 0 1
31.486360 26.727886 -26.393966 49.014408 0.703839 2.139445 0.051108 -0.026044 603653.000000 0 0 1
30.208460 27.265086 -26.795606 48.723100 0.734230 2.153109 0.042431 -0.011841 919174.000000 0 0 1
29.708160 26.891786 -28.215946 49.009004 0.735680 2.184293 0.046228 -0.008263 -138227.000000 0 0 1
29.346960 25.524586 -28.335266 48.121054 0.715850 2.200411 0.032488 -0.022119 -135339.000000 0 0 1
29.100960 25.101986 -29.612576 48.516803 0.711754 2.227308 0.037559 -0.024122 -89552.900000 0 0 1
28.313760 23.746286 -29.765606 47.450463 0.697888 2.248876 0.023998 -0.023672 95596.000000 0 0 1
26.995860 23.770186 -29.288246 46.385338 0.721943 2.254169 0.022865 -0.020622 -676256.000000 0 0 1
26.303060 22.646386 -29.718266 45.693381 0.710834 2.278887 0.033690 -0.031507 -56065.100000 0 0 1
24.857460 22.643986 -29.152206 44.502747 0.738834 2.285065 0.030304 -0.014817 56514.100000 0 0 1
24.851160 22.583386 -27.774116 43.577414 0.737626 2.261852 0.012984 0.000638 -127358.000000 0 0 1
23.593560 22.815386 -27.204436 42.629558 0.768632 2.262901 0.011389 -0.001533 -468667.000000 0 0 1
23.750960 23.119886 -25.710136 41.948162 0.771935 2.230525 0.019392 0.000740 -487856.000000 0 0 1
24.126760 22.028086 -24.932996 41.097341 0.739959 2.222676 0.013477 -0.004789 238924.000000 0 0 1
24.580160 22.512286 -23.664396 40.877756 0.741515 2.188183 0.015679 0.000623 -220464.000000 0 0 1
25.023160 21.355386 -22.766196 40.006383 0.706479 2.176164 0.030747 -0.002704 302380.000000 0 0 1
26.292760 20.788886 -23.060896 40.685279 0.669026 2.173427 0.012887 -0.003748 213014.000000 0 0 1
26.363160 19.485586 -22.514396 39.769364 0.636503 2.172593 0.041072 -0.010943 344271.000000 0 0 1
27.595560 18.640186 -22.953396 40.445393 0.594078 2.174282 0.060127 -0.017256 -87761.900000 0 0 1
28.828160 18.919786 -22.354596 41.094392 0.580788 2.145971 0.076090 -0.028254 -607499.000000 0 0 1
29.758960 18.053686 -22.985396 41.711625 0.545305 2.154424 0.056152 -0.017300 146268.000000 0 0 1
31.092160 18.072586 -22.206496 42.266644 0.526525 2.123970 0.049276 -0.013862 211795.000000 0 0 1
31.828260 19.281786 -21.999796 43.229809 0.544678 2.104707 0.044843 -0.017035 -190623.000000 0 0 1
33.106660 19.001486 -21.487996 43.804582 0.521043 2.083508 0.057935 -0.015779 -12301.100000 0 0 1
33.504760 20.103586 -20.569696 44.156942 0.540436 2.055370 0.039072 -0.022784 -318231.000000 0 0 1
32.955260 19.892786 -19.311896 43.066477 0.543084 2.035794 0.049834 -0.013989 29037.100000 0 0 1
33.200260 20.995986 -18.485696 43.414394 0.563906 2.010638 0.030335 0.001190 -167339.000000 0 0 1
32.528460 20.840786 -17.093896 42.245004 0.569805 1.987378 0.033233 -0.006217 -121908.000000 0 0 1
33.043160 19.734986 -16.381196 41.828981 0.538394 1.973191 0.035857 -0.016433 151421.000000 0 0 1
32.505060 19.594786 -15.070996 40.837109 0.542492 1.948785 0.028893 -0.015379 -346739.000000 0 0 1
33.123960 18.453086 -14.250796 40.506768 0.508272 1.930303 0.034159 -0.010513 307874.000000 0 0 1
34.545360 18.471986 -14.013896 41.605113 0.491034 1.914346 0.038596 -0.019476 970334.000000 0 0 1
35.046460 17.368386 -13.287396 41.309443 0.460107 1.898273 0.043902 -0.016506 26190.200000 0 0 1
35.034360 17.411586 -11.707696 40.836746 0.461233 1.861572 0.059770 -0.021700 -19147.900000 0 0 1
35.766960 18.579286 -11.325996 41.865779 0.479089 1.844741 0.055630 -0.020149 57898.700000 0 0 1
35.594560 18.966886 -9.967396 41.545931 0.489588 1.813072 0.056155 -0.020171 -581753.000000 0 0 1
34.451960 19.954186 -9.791396 40.999738 0.524977 1.811943 0.062608 -0.027357 -32171.300000 0 0 1
33.157760 19.420986 -10.065896 39.723217 0.529849 1.826991 0.060611 -0.031532 479468.000000 0 0 1
32.202260 20.496186 -10.111296 39.488194 0.566814 1.829739 0.038148 -0.012217 605833.000000 0 0 1
30.719860 20.100886 -10.311596 38.132459 0.579412 1.844621 0.017342 -0.009618 247183.000000 0 0 1
30.533260 19.749486 -11.617396 38.174416 0.574136 1.880025 0.033597 -0.014136 -74967.300000 0 0 1
29.260660 19.138386 -11.781896 36.895489 0.579228 1.895820 0.027719 -0.013871 72263.300000 0 0 1
29.105060 18.639486 -13.200096 36.996993 0.569612 1.935624 0.050306 -0.010107 -294200.000000 0 0 1
30.123160 17.743686 -13.571496 37.502382 0.532320 1.941084 0.049550 -0.002609 -177936.000000 0 0 1
29.656860 16.854386 -14.566696 37.091620 0.516794 1.974386 0.037302 0.002690 -302264.000000 0 0 1
30.796060 16.035286 -15.145796 37.880375 0.480064 1.982130 0.047874 -0.011817 -625730.000000 0 0 1
31.527060 15.191186 -14.333296 37.817602 0.449019 1.959524 0.037259 -0.013224 123187.000000 0 0 1
32.547560 14.472086 -15.002296 38.650405 0.418391 1.969424 0.039596 -0.013710 605334.000000 0 0 1
33.373960 13.461486 -14.082796 38.643990 0.383394 1.943810 0.035874 -0.031540 393081.000000 0 0 1
34.261760 14.032686 -13.113296 39.277767 0.388731 1.911192 0.046688 -0.014276 471154.000000 0 0 1
35.002560 12.935886 -12.555896 39.372158 0.354001 1.895368 0.046916 -0.013185 318476.000000 0 0 1
-35.977264 13.493386 -11.527596 40.116336 -0.358817 1.862260 0.070102 -0.008120 188012.000000 0 0 1
-34.888764 14.108186 -12.182296 39.555974 -0.384273 1.883861 0.047644 -0.006759 -56348.400000 0 0 1
-33.953864 14.652686 -11.251496 38.654395 -0.407403 1.866151 0.033823 -0.004530 240340.000000 0 0 1
-32.517664 14.760786 -11.853496 37.626914 -0.426118 1.891282 0.037920 -0.015256 297410.000000 0 0 1
-31.829064 13.641086 -12.347496 36.764510 -0.404893 1.913308 0.019686 -0.017422 217395.000000 0 0 1
-31.486464 12.651686 -11.391196 35.794160 -0.382069 1.894671 0.046587 -0.009502 -741265.000000 0 0 1
-30.289764 11.739486 -11.719196 34.534401 -0.369748 1.917021 0.049791 -0.011243 -290181.000000 0 0 1
-30.435564 10.981086 -12.956496 34.853674 -0.346262 1.951679 0.047193 -0.009011 151714.000000 0 0 1
-29.806664 9.754686 -12.795896 33.872202 -0.316279 1.958183 0.044798 -0.022152 -418214.000000 0 0 1
-29.686364 8.925786 -14.101796 34.055991 -0.292071 1.997725 0.043467 -0.028950 1252150.000000 0 0 1
-30.970764 8.425486 -14.598396 35.260320 -0.265618 1.997660 0.036219 -0.024284 1604500.000000 0 0 1
-30.821364 7.633886 -15.771296 35.453723 -0.242795 2.031794 0.036924 -0.034009 -537781.000000 0 0 1
-32.131664 7.408886 -16.535196 36.888320 -0.226618 2.035603 0.042835 -0.037876 -454066.000000 0 0 1
-32.701964 6.302386 -15.880196 36.896058 -0.190388 2.015736 0.053955 -0.038456 -968017.000000 0 0 1
-33.797364 5.777686 -16.527496 38.063126 -0.169314 2.019961 0.042083 -0.041578 -440636.000000 0 0 1
-34.815164 5.170586 -15.490196 38.454867 -0.147438 1.985387 0.044680 -0.039371 481091.000000 0 0 1
-35.898864 4.402586 -15.981896 39.541525 -0.122029 1.986879 0.053940 -0.034520 399555.000000 0 0 1
35.126260 4.190486 -14.996296 38.422691 0.118737 1.971751 0.064495 -0.035633 137121.000000 0 0 1
34.033260 3.213686 -15.377096 37.483938 0.094149 1.993504 0.066372 -0.033920 -273708.000000 0 0 1
34.661260 1.896686 -15.564296 38.042708 0.054666 1.992293 0.067788 -0.034926 792665.000000 0 0 1
33.790260 0.749486 -15.513996 37.189077 0.022177 2.001120 0.066969 -0.025780 202427.000000 0 0 1
33.279360 0.279386 -14.110796 36.148422 0.008395 1.971816 0.075322 -0.028470 181284.000000 0 0 1
34.264860 -0.241014 -13.212996 36.724950 -0.007034 1.938831 0.088622 -0.032130 508561.000000 0 0 1
33.836460 -0.178014 -11.835896 35.847261 -0.005261 1.907286 0.090191 -0.026382 -208226.000000 0 0 1
34.009360 1.248586 -11.232596 35.838063 0.036697 1.889595 0.094765 -0.033332 -100665.000000 0 0 1
33.124460 2.211986 -11.777396 35.225414 0.066679 1.911705 0.079765 -0.024463 394995.000000 0 0 1
33.192860 3.427086 -11.144496 35.181112 0.102883 1.893124 0.091512 -0.027868 -665259.000000 0 0 1
32.203260 4.402986 -11.722496 34.552180 0.135882 1.916936 0.087262 -0.022764 -542143.000000 0 0 1
32.431860 4.771886 -13.110096 35.305397 0.146088 1.951242 0.075826 -0.025690 352546.000000 0 0 1
31.345060 5.524886 -13.613796 34.617518 0.174468 1.974974 0.081421 -0.027354 -72623.600000 0 0 1
31.623060 6.283986 -14.952096 35.539718 0.196160 2.005030 0.056463 -0.022353 -523846.000000 0 0 1
31.641560 5.394786 -16.061796 35.892524 0.168873 2.034761 0.045930 -0.014877 86189.800000 0 0 1
31.955660 6.084786 -17.249996 36.820527 0.188161 2.058376 0.038127 -0.015164 -849860.000000 0 0 1
30.859060 7.057086 -17.797996 36.316012 0.224822 2.082986 0.039618 -0.018666 748557.000000 0 0 1
29.672860 6.440786 -18.324796 35.464919 0.213744 2.113791 0.024284 -0.021104 393916.000000 0 0 1
28.752360 6.074886 -17.343896 34.123499 0.208221 2.103969 0.026020 -0.015590 -1507240.000000 0 0 1
27.332860 6.038586 -17.924496 33.239093 0.217435 2.140354 0.020150 -0.017674 -480638.000000 0 0 1
27.024460 4.980386 -18.787696 33.288184 0.182247 2.170497 0.024834 -0.016836 115399.000000 0 0 1
25.854960 5.192086 -19.545496 32.824733 0.198180 2.208622 0.018060 -0.014680 -52533.400000 0 0 1
25.618560 3.956886 -20.487796 33.041146 0.153243 2.239627 0.023190 0.006804 -172997.000000 0 0 1
25.124960 2.857186 -19.765796 32.095386 0.113233 2.234255 0.029163 -0.006743 255405.000000 0 0 1
24.729260 1.775986 -20.580496 32.221844 0.071694 2.263620 0.017709 -0.003232 -861769.000000 0 0 1
23.737060 0.821686 -19.954196 31.020850 0.034602 2.269533 0.018560 -0.007892 -156029.000000 0 0 1
22.516760 1.479586 -19.651896 29.923079 0.065616 2.287293 0.015255 -0.008450 294249.000000 0 0 1
21.611060 0.709486 -18.892696 28.713677 0.032818 2.288914 0.022578 -0.013542 -54653.800000 0 0 1
20.265560 1.381486 -18.582096 27.529906 0.068064 2.311732 0.031292 -0.018329 -773992.000000 0 0 1
19.408160 1.486986 -19.725596 27.712577 0.076467 2.362843 0.039027 -0.025146 707994.000000 0 0 1
18.436360 2.534386 -19.656596 27.068510 0.136610 2.383545 0.030036 -0.014548 705449.000000 0 0 1
17.274360 2.408786 -18.610696 25.506152 0.138549 2.388614 0.063234 -0.022528 -880752.000000 0 0 1
17.637360 2.539186 -17.259196 24.807333 0.142984 2.340231 0.068057 -0.020212 289197.000000 0 1 0
16.552260 2.344286 -16.360596 23.391069 0.140694 2.345407 0.051519 -0.006781 272198.000000 0 1 0
15.340460 3.290486 -16.296996 22.621872 0.211296 2.375188 0.056378 -0.013519 -320925.000000 0 1 0
14.582560 3.416486 -17.461096 23.004637 0.230135 2.432611 0.053797 -0.011513 -170603.000000 0 1 0
13.631960 4.421886 -17.191496 22.381487 0.313668 2.446684 0.060009 -0.017167 -163266.000000 0 1 0
-19.703640 -21.948514 -17.580696 34.337321 0.839242 2.108307 0.058678 -0.015805 161469.000000 0 0 1
-19.455140 -22.614714 -18.819296 35.271712 0.860360 2.133591 0.055650 -0.016794 -370364.000000 0 0 1
-20.560040 -22.492014 -19.652396 36.260483 0.830243 2.143586 0.058429 -0.014869 -361751.000000 0 0 1
-20.282140 -23.259014 -20.944596 37.296422 0.853661 2.167080 0.049317 -0.012444 63907.800000 0 0 1
-20.522440 -24.659514 -20.832296 38.252409 0.876708 2.146710 0.041431 -0.014786 -52522.000000 0 0 1
-19.667240 -25.385344 -21.664996 38.737425 0.911644 2.164311 0.037489 -0.019364 -516189.000000 0 0 1
-19.650440 -26.929554 -21.433196 39.632343 0.940416 2.142185 0.032138 -0.000190 26003.500000 0 0 1
-20.884940 -27.622864 -21.583596 40.805085 0.923419 2.128152 0.036618 0.007902 183149.000000 0 0 1
-20.793940 -28.983404 -21.274396 41.533428 0.948459 2.108568 0.062475 -0.012370 5080.840000 0 0 1
-22.135540 -29.656174 -21.639996 42.869106 0.929599 2.099938 0.047886 -0.009656 -60806.800000 0 0 1
-22.556240 -29.575474 -22.998596 43.731317 0.919237 2.124577 0.029039 -0.010206 -52526.400000 0 0 1
-21.806340 -30.237304 -24.005596 44.340497 0.946001 2.142888 0.039657 -0.013739 -305345.000000 0 0 1
-22.252040 -29.759614 -25.398556 45.009717 0.928752 2.170370 0.037900 -0.009892 -510962.000000 0 0 1
-23.569140 -30.081654 -25.724406 46.066858 0.906194 2.163270 0.039572 -0.006910 -251534.000000 0 0 1
-24.055840 -29.250324 -26.798196 46.394054 0.882538 2.186608 0.040943 0.000092 -136955.000000 0 0 1
-23.599340 -29.499674 -28.229066 47.159727 0.896064 2.212529 0.041773 -0.014265 -265668.000000 0 0 1
-24.313040 -30.527264 -28.897816 48.560494 0.898232 2.208173 0.029786 -0.004694 252644.000000 0 0 1
-23.777640 -30.685684 -30.193206 49.179438 0.911563 2.231838 0.052132 -0.007213 -39104.400000 0 0 1
-24.284840 -31.957384 -30.886586 50.645919 0.920981 2.226672 0.030617 -0.002178 -81770.200000 0 0 1
-23.610840 -33.188834 -30.626716 50.960438 0.952454 2.215536 0.027593 -0.004668 47610.600000 0 0 1
-24.380940 -34.316727 -31.066216 52.318045 0.953079 2.206564 0.028760 -0.000943 -122738.000000 0 0 1
-23.716340 33.037668 -30.975436 51.121717 -0.948186 2.221712 0.033855 -0.001306 -401989.000000 0 0 1
-22.710940 32.917750 -31.944406 51.184082 -0.966861 2.244786 0.029082 -0.008757 -188400.000000 0 0 1
-21.969540 31.715428 -31.676726 49.919376 -0.964981 2.258232 0.021720 0.003821 298518.000000 0 0 1
-20.820040 31.459748 -32.698776 49.923940 -0.986171 2.284942 0.023151 0.008351 215213.000000 0 0 1
-21.279440 31.218558 -34.019586 50.840390 -0.972507 2.303854 0.021348 0.002186 173271.000000 0 0 1
-20.844540 29.943818 34.049443 49.904827 -0.962678 0.819909 0.005651 0.010814 19941.200000 0 0 1
-21.051740 29.569958 32.564985 48.765115 -0.952108 0.839557 0.011536 0.001817 -12989.800000 0 0 1
-20.445640 30.551658 31.743592 48.570399 -0.981031 0.858520 0.011660 0.007706 431485.000000 0 0 1
-20.583740 30.230798 30.385992 47.548923 -0.973014 0.877538 0.022534 0.001261 -260886.000000 0 0 1
-20.049040 31.355638 29.455162 47.463109 -1.001903 0.901301 0.026499 -0.010007 -523545.000000 0 0 1
-20.750540 32.525968 29.446862 48.534949 -1.002926 0.918875 0.021782 -0.008872 111753.000000 0 0 1
-19.841840 33.556657 29.073182 48.631243 -1.036803 0.930006 0.020193 -0.017734 598988.000000 0 0 1
-20.551440 -33.780534 29.084552 49.085613 1.024237 0.936604 0.017590 -0.025207 271550.000000 0 0 1
-20.860040 -33.231574 30.372022 49.617926 1.010245 0.912060 0.010552 -0.013440 656358.000000 0 0 1
-21.966140 -32.301894 30.520072 49.572155 0.973602 0.907561 0.031943 -0.019814 635943.000000 0 0 1
-21.751240 -30.798124 30.370612 48.415029 0.955887 0.892719 0.027309 -0.017007 -317441.000000 0 0 1
-21.410140 -30.508334 29.011652 47.231648 0.958877 0.909372 0.035172 -0.014309 -35249.100000 0 0 1
-21.554440 -29.153394 28.596952 46.176834 0.934149 0.902955 0.032026 -0.018221 -261846.000000 0 0 1
-22.945640 -28.823564 27.997962 46.272953 0.898455 0.920954 0.029420 -0.010710 -990086.000000 0 0 1
-23.892940 -28.652834 29.050442 47.284096 0.875737 0.909195 0.032528 -0.009103 469526.000000 0 0 1
-24.966140 -29.611824 29.020522 48.397924 0.870314 0.927766 0.033178 -0.008786 518681.000000 0 0 1
-26.031810 -29.368704 27.931832 48.170148 0.845558 0.952242 0.021334 -0.006496 -643371.000000 0 0 1
-25.439020 -29.679184 26.712602 47.345125 0.862176 0.971320 0.026618 0.002584 -102637.000000 0 0 1
-26.503040 -29.749424 25.783152 47.457458 0.843045 0.996446 0.023123 0.002512 99279.600000 0 0 1
-26.116340 -30.175564 24.340042 46.744685 0.857384 1.023124 0.032882 -0.006023 -427775.000000 0 0 1
-25.738790 -29.050114 23.555662 45.401142 0.845763 1.025310 0.012034 0.000051 153535.000000 0 0 1
-25.459070 -29.336834 22.185452 44.732632 0.856048 1.051860 0.043472 -0.002132 -130073.000000 0 0 1
-24.059040 -29.912274 21.879852 44.184947 0.893427 1.052745 0.041078 -0.006728 -347451.000000 0 0 1
-23.851940 -31.238754 22.452652 45.264737 0.918688 1.051776 0.049703 -0.031592 -251811.000000 0 0 1
-22.630840 -31.739004 21.992452 44.756980 0.951379 1.057129 0.058326 -0.012966 -616635.000000 0 0 1
-21.843840 -32.466074 23.092452 45.436337 0.978545 1.037659 0.071215 -0.021616 -218675.000000 0 0 1
-21.284140 -31.529794 24.022582 44.991410 0.977013 1.007546 0.060987 -0.027339 134222.000000 0 0 1
-20.774340 -32.231244 25.150842 45.858382 0.998269 0.990292 0.039339 -0.028788 -755740.000000 0 0 1
-19.531840 -31.591324 25.774602 45.208790 1.017054 0.964140 0.026446 -0.006514 -934035.000000 0 0 1
-18.356140 -32.002334 25.102452 44.623205 1.050024 0.973338 0.036179 -0.012278 361791.000000 0 0 1
-17.174040 -31.423834 25.676112 44.064359 1.070622 0.948755 0.062087 -0.011090 588424.000000 0 0 1
-16.636440 -32.178744 26.942002 45.145478 1.093641 0.931312 0.031167 -0.024274 -1095460.000000 0 0 1
-17.334540 -31.891864 28.139902 45.928547 1.072925 0.911338 0.023360 -0.016998 324832.000000 0 0 1
-16.712840 -32.475524 29.309412 46.829695 1.095514 0.894547 0.022974 -0.016058 247743.000000 0 0 1
-17.338740 -31.959604 30.647192 47.553114 1.073714 0.870449 0.039549 -0.010425 328360.000000 0 0 1
-16.919740 -30.614304 30.769782 46.586401 1.065902 0.849327 0.036730 -0.014804 397519.000000 0 0 1
-17.562640 -30.074374 31.919972 47.241919 1.042244 0.828922 0.036590 -0.008949 264319.000000 0 0 1
-17.325840 -28.526144 31.894602 46.164828 1.024977 0.808083 0.044020 -0.012484 215798.000000 0 0 1
-18.197240 -27.831244 30.997142 45.459218 0.991725 0.820484 0.048674 -0.011490 111814.000000 0 0 1
-18.191340 -28.078684 29.604502 44.673974 0.995920 0.846406 0.045936 -0.009477 16120.800000 0 0 1
-16.894040 -27.730894 28.783822 43.392621 1.023630 0.845530 0.036776 -0.003370 511954.000000 0 0 1
-16.793440 -26.333664 28.575082 42.332220 1.003104 0.829805 0.038323 0.002606 33958.500000 0 0 1
-15.829640 -26.051074 27.586452 41.112630 1.024779 0.835244 0.033334 0.004425 -118028.000000 0 0 1
-15.741440 -24.608414 26.961052 39.752551 1.001712 0.825456 0.029285 0.011502 200548.000000 0 0 1
-16.905640 -24.354514 26.164022 39.541106 0.964009 0.847724 0.033037 0.004737 512431.000000 0 0 1
-16.769740 -23.286114 25.178192 38.176022 0.946668 0.850604 0.037838 0.006020 -147726.000000 0 0 1
-17.202740 -21.914414 25.668162 37.881795 0.905271 0.826321 0.034875 0.003561 -661822.000000 0 0 1
-16.742040 -20.804314 24.901482 36.513001 0.893172 0.820317 0.033848 0.000645 26806.800000 0 0 1
-17.424740 -19.592414 25.156682 36.336523 0.843890 0.806090 0.035854 0.004911 -381668.000000 0 0 1
-16.995540 -18.478914 24.193692 34.866222 0.827189 0.803904 0.034483 -0.007279 157413.000000 0 0 1
-15.657640 -18.057814 24.350452 34.120242 0.856467 0.776079 0.034946 -0.011403 -309075.000000 0 0 1
-15.307640 -17.038614 23.429352 32.765420 0.838861 0.774082 0.036208 -0.007308 -459280.000000 0 0 1
-13.941640 -16.425014 23.745462 32.062399 0.866996 0.736831 0.038853 -0.008534 -618136.000000 0 0 1
-12.908040 -17.382114 23.523942 31.970788 0.932045 0.743957 0.023021 -0.007842 50387.300000 0 0 1
-11.585440 -16.916514 23.712142 31.347354 0.970304 0.712956 0.027801 -0.008681 111172.000000 0 0 1
-11.143740 -16.164814 22.381452 29.772698 0.967232 0.720093 0.034925 -0.011596 -687223.000000 0 0 1
-10.801340 -17.093414 21.324352 29.386762 1.007250 0.758825 0.055798 -0.011679 -452699.000000 0 0 1
-9.545440 -17.685114 21.452952 29.395712 1.075861 0.752769 0.046893 -0.017386 -741289.000000 0 0 1
-9.108940 -18.710214 20.402552 29.142907 1.117729 0.795278 0.052335 -0.011146 -11057.000000 0 0 1
-8.867140 -18.147714 19.094652 27.795170 1.116303 0.813475 0.051417 -0.008707 -70290.800000 0 0 1
-8.379040 -19.195914 18.228452 27.766309 1.159224 0.854633 0.048453 -0.005469 141268.000000 0 0 1
-8.080940 -18.556114 16.826852 26.320599 1.160077 0.877204 0.043493 -0.009029 -306755.000000 0 0 1
-6.864540 -17.882114 16.726852 25.429894 1.204265 0.852951 0.043771 -0.009383 -572350.000000 0 0 1
-6.640440 -17.592014 15.370452 24.286317 1.209863 0.885522 0.046864 -0.018458 430084.000000 0 1 0
-5.577640 -16.454314 15.246352 23.115055 1.243975 0.850529 0.036890 -0.014886 451788.000000 0 1 0
-6.023940 -15.239314 15.793952 22.759031 1.194357 0.803816 0.041406 -0.022646 -743548.000000 0 1 0
-4.932440 -14.467314 16.066452 22.175731 1.242218 0.760479 0.022477 -0.006256 -1673170.000000 0 1 0
-5.209940 -13.575314 17.299652 22.598907 1.204350 0.698965 -0.000241 0.011797 -437200.000000 0 1 0
-5.217440 -14.235714 18.582452 23.983010 1.219495 0.684370 0.020233 0.017558 150172.000000 0 1 0
-6.468640 -14.824814 18.942152 24.908303 1.159361 0.706751 0.054565 -0.010878 592769.000000 0 1 0
-7.625440 -13.859714 19.291252 24.947774 1.067809 0.686821 0.062035 -0.022781 -662881.000000 0 1 0
-7.301240 -13.000014 20.329652 25.211173 1.059066 0.632800 0.058508 -0.024489 -514623.000000 0 0 1
-8.403940 -12.348914 20.878852 25.671937 0.973250 0.621004 0.060047 -0.023296 -49381.000000 0 0 1
-7.945740 -11.607114 22.145852 26.235447 0.970510 0.565876 0.062488 -0.017035 -469273.000000 0 0 1
-7.440140 -10.327314 21.774552 25.221821 0.946488 0.528981 0.049527 -0.013112 -221518.000000 0 0 1
-6.842340 -9.552214 22.758752 25.612950 0.949208 0.476590 0.040757 -0.016032 223270.000000 0 0 1
-5.421640 -10.042514 23.140252 25.801503 1.075765 0.458185 0.047869 -0.016856 -218742.000000 0 0 1
-5.507240 -11.202514 23.932682 26.992579 1.113885 0.480769 0.063090 -0.009620 -335743.000000 0 0 1
-4.295740 -11.471014 24.596912 27.478094 1.212476 0.462037 0.052911 -0.005915 -319109.000000 0 0 1
-4.254140 -12.772114 25.525842 28.858157 1.249273 0.485316 0.053923 -0.008269 -146758.000000 0 0 1
-2.896740 -13.102414 25.788602 29.070885 1.353212 0.479786 0.051305 -0.007357 388225.000000 0 0 1
-2.662840 -14.218214 26.684952 30.353501 1.385657 0.496743 0.048684 -0.007099 63607.700000 0 0 1
-2.769340 -15.604214 26.046602 30.489117 1.395151 0.546609 0.053012 -0.023345 399945.000000 0 0 1
-1.545440 -15.939414 25.387382 30.016204 1.474141 0.562754 0.040664 -0.020872 404266.000000 0 0 1
-1.621640 -17.181314 24.664252 30.102369 1.476691 0.610527 0.049365 -0.016457 -118891.000000 0 0 1
-0.392240 -18.075914 24.935052 30.800152 1.549100 0.627368 0.058866 -0.022221 106616.000000 0 0 1
-0.107340 -18.645214 26.213892 32.168676 1.565039 0.618259 0.067656 -0.024278 -194579.000000 0 0 1
0.366060 -17.771014 27.180512 32.476502 -1.550201 0.579149 0.080009 -0.026975 -517036.000000 0 0 1
1.106760 -18.422814 28.348102 33.826615 -1.510793 0.577113 0.072295 -0.027470 717949.000000 0 0 1
2.389860 -18.945714 27.884212 33.796166 -1.445317 0.600470 0.071768 -0.033403 733662.000000 0 0 1
3.265260 -19.265614 28.911912 34.895909 -1.402905 0.594339 0.076539 -0.037096 43210.900000 0 0 1
4.243860 -18.120814 29.275812 34.690740 -1.340744 0.566269 0.083335 -0.028470 -430276.000000 0 0 1
3.513360 -17.009214 29.809682 34.500351 -1.367105 0.527556 0.072262 -0.036134 163594.000000 0 0 1
4.320360 -16.032014 30.460842 34.692274 -1.307566 0.499067 0.075686 -0.044119 81699.700000 0 0 1
3.503560 -14.824114 30.982412 34.524472 -1.338713 0.456945 0.081089 -0.042218 -83958.700000 0 0 1
2.680360 -15.105314 32.058972 35.540576 -1.395179 0.446327 0.071588 -0.035804 -387626.000000 0 0 1
2.147160 -13.934814 32.671395 35.583836 -1.417913 0.407404 0.052586 -0.028683 94692.700000 0 0 1
1.193860 -14.370814 33.818632 36.764732 -1.487911 0.403057 0.036750 -0.021032 431336.000000 0 0 1
1.960060 -14.741314 -33.559456 36.706747 -1.438608 2.724470 0.057741 -0.023214 -216159.000000 0 0 1
1.166660 -15.329014 -32.583606 36.028200 -1.494835 2.700748 0.047543 -0.033507 -156019.000000 0 0 1
1.887460 -15.598814 -31.258696 34.985591 -1.450382 2.675817 0.049041 -0.022176 330131.000000 0 0 1
1.104460 -16.408914 -30.365406 34.533031 -1.503589 2.645218 0.055388 -0.027458 75162.400000 0 0 1
1.694760 -16.390214 -29.088266 33.431102 -1.467762 2.626193 0.042586 -0.023093 -35888.500000 0 0 1
1.333160 -17.614114 -28.279116 33.342807 -1.495253 2.583246 0.052550 -0.028671 -233060.000000 0 0 1
2.026560 -18.798214 -28.529846 34.226188 -1.463405 2.556331 0.063531 -0.023603 -863.694000 0 0 1
1.552860 -19.749714 -27.609296 33.981404 -1.492331 2.519194 0.046348 -0.020284 -311018.000000 0 0 1
2.351060 -21.067314 -27.733376 34.907010 -1.459659 2.488969 0.056844 -0.025780 284123.000000 0 0 1
3.680960 -21.125814 -27.238666 34.666907 -1.398288 2.474664 0.056468 -0.025832 138644.000000 0 0 1
3.875960 -21.185114 -25.857506 33.651787 -1.389841 2.447109 0.054744 -0.025899 -609410.000000 0 0 1
5.364160 -21.397814 -25.465966 33.692078 -1.325171 2.427739 0.036230 -0.025179 513243.000000 0 0 1
5.949360 -22.714714 -25.733746 34.836458 -1.314634 2.401938 0.036931 -0.021581 299117.000000 0 0 1
5.892260 -23.237014 -27.061506 36.152492 -1.322458 2.416651 0.030511 -0.021595 -445120.000000 0 0 1
5.199560 -24.635114 -26.995346 36.914401 -1.362786 2.391016 0.027403 -0.020391 452451.000000 0 0 1
6.044360 -25.598704 -26.386186 37.256661 -1.338923 2.357780 0.028331 -0.012189 80967.700000 0 0 1
5.374860 -26.864504 -26.402886 38.048694 -1.373331 2.337720 0.030505 -0.009307 478073.000000 0 0 1
6.015460 -27.968914 -25.447636 38.288747 -1.358947 2.297787 0.028762 -0.009120 27672.900000 0 0 1
7.333860 -28.387334 -25.667306 38.967125 -1.317975 2.289874 0.040847 -0.015173 -510760.000000 0 0 1
7.597260 -29.649944 -25.081976 39.571999 -1.319961 2.257293 0.041594 -0.017143 -426335.000000 0 0 1
9.009560 -30.206664 -25.271326 40.401172 -1.280933 2.246581 0.047002 -0.016906 -258786.000000 0 0 1
9.251860 -30.567384 -26.626416 41.580379 -1.276891 2.265763 0.050836 -0.020026 353610.000000 0 0 1
10.617360 -30.275074 -26.909356 41.873881 -1.233501 2.268721 0.074489 -0.022731 509434.000000 0 0 1
10.847060 -30.201994 -28.440936 42.880135 -1.225993 2.295971 0.083833 -0.038407 -218178.000000 0 0 1
10.532160 -31.391904 -29.123666 44.097233 -1.247092 2.292204 0.081126 -0.036128 136104.000000 0 0 1
10.732660 -31.178664 -30.526506 44.935139 -1.239270 2.317667 0.076817 -0.033730 -120545.000000 0 0 1
-34.727913 -4.774714 -5.766096 35.525677 0.136633 1.733825 0.119164 -0.043979 -176637.000000 0 0 1
-34.504481 -4.045814 -4.578896 35.041320 0.116722 1.701842 0.117984 -0.053093 746763.000000 0 0 1
-33.520820 -3.002314 -4.749396 33.988469 0.089327 1.710991 0.110043 -0.053466 296288.000000 0 0 1
-34.027647 -1.630114 -5.358196 34.485480 0.047869 1.726804 0.132940 -0.041580 280424.000000 0 0 1
-35.081724 -1.069714 -4.567296 35.393952 0.030483 1.700199 0.104392 -0.040052 706842.000000 0 0 1
-35.805554 -0.034714 -5.176396 36.177811 0.000970 1.714371 0.106884 -0.040382 219213.000000 0 0 1
35.393733 0.862286 -4.246496 35.657995 0.024358 1.690169 0.119961 -0.036129 -120402.000000 0 0 1
-35.816908 1.747086 -3.560396 36.035811 -0.048740 1.669759 0.104349 -0.032941 -137426.000000 0 0 1
35.426463 2.649286 -2.829796 35.637912 0.074644 1.650284 0.101112 -0.031613 -554119.000000 0 0 1
-35.913969 3.971186 -2.378996 36.211091 -0.110128 1.636542 0.078354 -0.032906 -212568.000000 0 0 1
-35.599162 4.840786 -3.470396 36.094005 -0.135151 1.667094 0.096654 -0.028265 263192.000000 0 0 1
-34.393949 4.530386 -4.138296 34.936995 -0.130966 1.689525 0.071994 -0.029882 -80250.100000 0 0 1
-33.237570 5.546586 -3.819196 33.912932 -0.165353 1.683653 0.043774 -0.033395 123461.000000 0 0 1
-32.803090 5.451986 -2.442196 33.342634 -0.164698 1.644107 0.053012 -0.032597 292141.000000 0 0 1
-32.612780 6.724086 -1.929896 33.354629 -0.203330 1.628689 0.060242 -0.038728 -515459.000000 0 0 1
-32.193970 6.873686 -0.499296 32.923374 -0.210350 1.585962 0.059710 -0.038211 -1027210.000000 0 0 1
-30.798840 6.796286 -0.467496 31.543250 -0.217186 1.585618 0.065022 -0.026108 -410302.000000 0 0 1
-30.181440 7.197286 0.730604 31.036334 -0.234095 1.547254 0.074277 -0.024410 -58648.100000 0 0 1
-30.090150 8.734086 0.948604 31.346471 -0.282501 1.540530 0.080166 -0.026829 436173.000000 0 0 1
-31.377460 9.401686 1.022204 32.771659 -0.291119 1.539600 0.056755 -0.029551 1082910.000000 0 0 1
-31.175930 10.729986 1.338204 32.997909 -0.331476 1.530231 0.059999 -0.008992 -632490.000000 0 0 1
-32.421040 11.578686 1.298604 34.451070 -0.343017 1.533093 0.052665 -0.016583 -1437830.000000 0 0 1
-32.810800 11.983986 -0.046196 34.930884 -0.350191 1.572119 0.042673 -0.012252 743177.000000 0 0 1
-34.035722 12.715886 -0.051896 36.333550 -0.357546 1.572225 0.028732 -0.004721 1039620.000000 0 0 1
-35.362773 11.973886 0.321404 37.336349 -0.326484 1.562188 0.039812 -0.012941 -253520.000000 0 0 1
-35.713764 10.916486 -0.558096 37.349084 -0.296647 1.585740 0.042606 -0.005376 816237.000000 0 0 1
35.032213 10.335686 -0.233896 36.525841 0.286894 1.577200 0.054006 -0.015442 1078890.000000 0 0 1
34.684163 9.138186 -1.165496 35.886710 0.257614 1.603279 0.053521 -0.021413 114020.000000 0 0 1
34.358493 9.443986 -2.497996 35.720231 0.268242 1.640786 0.060279 -0.011884 154940.000000 0 0 1
34.118853 8.322186 -3.306196 35.274436 0.239246 1.664662 0.053300 -0.018184 -116910.000000 0 0 1
33.565353 8.684786 -4.694796 34.987134 0.253190 1.705389 0.060645 -0.010460 -38230.700000 0 0 1
32.176303 8.915886 -4.750296 33.724958 0.270313 1.712120 0.078090 -0.015849 112822.000000 0 0 1
31.796933 9.341586 -6.036696 33.686078 0.285749 1.750974 0.064595 -0.014252 404321.000000 0 0 1
30.394723 10.019486 -6.181296 32.595056 0.318428 1.761591 0.071702 -0.006455 689768.000000 0 0 1
29.306453 9.121086 -6.137196 31.300600 0.301729 1.768148 0.051861 -0.002673 731282.000000 0 0 1
28.012713 9.686886 -6.254796 30.293074 0.332931 1.778768 0.052759 0.005691 -269359.000000 0 0 1
26.842283 8.752686 -6.250796 28.916952 0.315207 1.788680 0.061001 0.011551 -871499.000000 0 0 1
26.799383 7.909786 -7.394196 28.904079 0.287000 1.829491 0.061424 0.008090 392403.000000 0 0 1
25.634183 7.100386 -7.468496 27.627979 0.270214 1.844526 0.054715 -0.000260 -169888.000000 0 0 1
25.656683 6.138886 -8.676496 27.771080 0.234855 1.888546 0.051210 -0.008325 -216100.000000 0 0 1
26.581383 5.077686 -8.543696 28.378646 0.188750 1.876601 0.067565 -0.014618 600758.000000 0 0 1
26.499383 4.312786 -9.694796 28.544816 0.161336 1.917324 0.056863 -0.015223 280231.000000 0 0 1
27.419753 2.989786 -9.716296 29.243599 0.108609 1.909488 0.071264 -0.011649 721769.000000 0 0 1
28.806983 3.229586 -9.961896 30.651458 0.111645 1.901814 0.121215 -0.010497 374933.000000 0 0 1
29.701243 2.867186 -8.989396 31.163983 0.096236 1.863409 0.083818 -0.020862 -587014.000000 0 0 1
29.931273 1.331586 -8.608596 31.173100 0.044459 1.850587 0.098321 -0.026028 -17814.400000 0 0 1
28.850923 0.660486 -7.901096 29.920550 0.022889 1.838035 0.102899 -0.024830 916538.000000 0 0 1
29.100743 -0.707814 -7.531196 30.067809 -0.024318 1.823966 0.094168 -0.025381 -303208.000000 0 0 1
29.029303 -1.743214 -8.631196 30.335405 -0.059978 1.859308 0.082737 -0.023466 126178.000000 0 0 1
30.168803 -1.730714 -9.496296 31.675411 -0.057305 1.875280 0.095341 -0.033350 457018.000000 0 0 1
30.191043 -2.903614 -10.322996 32.038950 -0.095880 1.898850 0.074555 -0.037464 -152599.000000 0 0 1
31.296063 -2.909014 -11.403496 33.435694 -0.092685 1.918838 0.081420 -0.034782 -277965.000000 0 0 1
32.576513 -3.252914 -10.919296 34.511472 -0.099525 1.892724 0.093175 -0.035368 -26009.900000 0 0 1
33.378753 -3.694914 -11.984796 35.657101 -0.110248 1.913582 0.073155 -0.046710 -284156.000000 0 0 1
34.825933 -4.077514 -11.645496 36.947115 -0.116552 1.891457 0.080479 -0.039133 -317556.000000 0 0 1
34.910073 -5.187114 -10.777196 36.902131 -0.147506 1.867164 0.072354 -0.037829 78056.500000 0 0 1
-35.761209 -5.350314 -10.437896 37.635617 0.148511 1.851822 0.083145 -0.034048 -339082.000000 0 0 1
-35.492496 -6.684314 -9.762196 37.412536 0.186150 1.834786 0.077842 -0.043956 -110200.000000 0 0 1
35.998273 -6.689914 -8.439896 37.574758 -0.183744 1.797345 0.075292 -0.040536 542883.000000 0 0 1
35.711103 -8.006314 -7.959396 37.453116 -0.220550 1.784946 0.064812 -0.030221 -217773.000000 0 0 1
35.205333 -8.142914 -6.520596 36.718397 -0.227301 1.749327 0.071282 -0.018734 310562.000000 0 0 1
-35.763177 -7.948514 -5.537696 37.051988 0.218699 1.720816 0.072328 -0.024963 1173160.000000 0 0 1
-35.957700 -8.605614 -4.292896 37.221523 0.234908 1.686387 0.078146 -0.023640 -497803.000000 0 0 1
-35.518444 -10.077214 -4.344796 37.175091 0.276453 1.687938 0.084984 -0.025911 -232649.000000 0 0 1
35.766923 -10.947414 -5.221296 37.767454 -0.297022 1.709489 0.067244 -0.023339 246493.000000 0 0 1
-35.495561 -11.947614 -5.880196 37.911173 0.324683 1.726530 0.053089 -0.020225 35075.500000 0 0 1
35.869303 -12.411414 -7.248696 38.641865 -0.333123 1.759501 0.040157 -0.021577 200290.000000 0 0 1
35.810503 -11.355014 -8.208796 38.454035 -0.307058 1.785922 0.064440 -0.024801 157989.000000 0 0 1
35.593843 -11.901514 -9.432696 38.698107 -0.322683 1.817028 0.054871 -0.013656 -204362.000000 0 0 1
35.742423 -11.011914 -10.727696 38.908438 -0.298863 1.850131 0.042427 -0.025048 -244657.000000 0 0 1
34.765513 -10.005014 -10.923996 37.789878 -0.280214 1.864054 0.047431 -0.028148 296310.000000 0 0 1
34.893273 -9.311714 -12.118496 38.093391 -0.260785 1.894548 0.056089 -0.036831 -813937.000000 0 0 1
33.922413 -8.178014 -12.279396 36.991804 -0.236566 1.909165 0.063046 -0.035447 -644435.000000 0 0 1
34.101823 -7.702214 -13.594696 37.510988 -0.222132 1.941658 0.067600 -0.030294 500682.000000 0 0 1
33.164703 -6.715214 -14.003496 36.620889 -0.199780 1.963179 0.071132 -0.036392 -76965.400000 0 0 1
33.462823 -5.925014 -15.329796 37.280946 -0.175246 1.994563 0.061659 -0.034092 162701.000000 0 0 1
34.562043 -5.038314 -15.182396 38.084440 -0.144756 1.980842 0.062695 -0.023164 440506.000000 0 0 1
34.268593 -3.847814 -15.906996 37.975975 -0.111816 2.002997 0.082863 -0.031300 860075.000000 0 0 1
35.451183 -2.781914 -15.875896 38.943157 -0.078311 1.990696 0.070857 -0.033688 441648.000000 0 0 1
-35.628549 -2.912614 -16.908196 39.544455 0.081568 2.012604 0.073535 -0.030125 -987489.000000 0 0 1
-34.391258 -2.360414 -16.723796 38.314691 0.068527 2.022485 0.070366 -0.024657 -936403.000000 0 0 1
-34.228980 -0.801814 -16.505696 38.009262 0.023421 2.020007 0.063050 -0.020725 -940331.000000 0 0 1
-34.657531 0.071586 -17.516496 38.832683 -0.002066 2.038767 0.050286 -0.016200 146697.000000 0 0 1
-34.487390 1.406586 -17.164596 38.548436 -0.040763 2.032276 0.052821 -0.029479 -187474.000000 0 0 1
-34.874040 2.330586 -18.286296 39.446406 -0.066729 2.052820 0.047794 -0.026874 125209.000000 0 0 1
-33.971450 2.222986 -19.381896 39.174724 -0.065344 2.088349 0.041931 -0.020479 418233.000000 0 0 1
-34.088615 3.355886 -20.206196 39.769159 -0.098130 2.103759 0.033074 -0.022176 446155.000000 0 0 1
-33.100380 3.341786 -21.472796 39.596511 -0.100618 2.143957 0.034721 -0.016626 497371.000000 0 0 1
-31.740340 3.548086 -21.152596 38.307577 -0.111323 2.155771 0.042106 -0.023067 -225017.000000 0 0 1
-31.135450 4.076886 -22.277396 38.500905 -0.130200 2.187832 0.041622 -0.021511 -587703.000000 0 0 1
-29.663920 4.481086 -22.119796 37.273499 -0.149928 2.206129 0.044740 -0.023785 -141229.000000 0 0 1
-28.834030 3.370786 -21.754396 36.276952 -0.116375 2.213892 0.050196 -0.013719 -157262.000000 0 0 1
-27.491540 3.789686 -21.791296 35.284658 -0.136986 2.236466 0.029399 -0.013228 250994.000000 0 0 1
-26.644910 2.726486 -20.906196 33.977257 -0.101972 2.233562 0.047950 -0.009335 299257.000000 0 0 1
-26.486950 3.109386 -19.545296 33.064262 -0.116858 2.203256 0.038541 -0.007749 41573.600000 0 0 1
-26.140480 2.040186 -18.687596 32.198033 -0.077889 2.190011 0.047725 -0.007747 -416966.000000 0 0 1
-25.378450 2.534286 -17.450496 30.903206 -0.099530 2.170845 0.049326 -0.017856 -39164.500000 0 0 1
-24.033240 2.855386 -17.775096 30.028385 -0.118256 2.204264 0.049480 -0.017120 -19201.000000 0 0 1
-23.418040 3.249386 -16.601296 28.888859 -0.137875 2.182986 0.055575 -0.024456 -310024.000000 0 0 1
-22.246740 4.227286 -16.845396 28.223302 -0.187780 2.210380 0.062241 -0.025541 -135583.000000 0 0 1
-21.134740 3.818586 -17.586596 27.758732 -0.178750 2.256932 0.088007 -0.033779 -293102.000000 0 0 1
-20.105540 4.749986 -17.421396 27.024067 -0.231999 2.271378 0.083765 -0.033525 -563136.000000 0 0 1
-18.724440 4.325986 -17.931696 26.284302 -0.227050 2.321592 0.103925 -0.031180 -321776.000000 0 0 1
-18.199140 3.350686 -17.047996 25.160882 -0.182073 2.315236 0.116081 -0.036836 799684.000000 0 0 1
-17.041240 2.658086 -17.604696 24.645377 -0.154733 2.366449 0.085780 -0.037413 379733.000000 0 1 0
-17.058440 1.101286 -17.435296 24.417059 -0.064470 2.366080 0.068892 -0.026702 1177020.000000 0 1 0
-18.102840 0.322186 -18.114896 25.611835 -0.017796 2.356448 0.066286 -0.026602 650438.000000 0 0 1
-19.423740 0.567286 -17.705696 26.288689 -0.029197 2.309743 0.073215 -0.033445 -485032.000000 0 0 1
-20.367040 -0.552714 -18.183796 27.308831 0.027131 2.299439 0.058841 -0.028863 -439190.000000 0 0 1
-20.271940 -1.714514 -17.445296 26.799804 0.084375 2.279630 0.044912 -0.030464 226878.000000 0 0 1
-21.145740 -2.770514 -17.790996 27.772966 0.130278 2.266059 0.045639 -0.015752 -101872.000000 0 0 1
-21.178040 -3.877414 -16.693896 27.243897 0.181081 2.230341 0.057096 -0.017400 -36418.600000 0 0 1
-21.819240 -3.422614 -15.526496 26.997512 0.155594 2.183533 0.055918 -0.021210 250045.000000 0 0 1
-22.033540 -4.506214 -14.643496 26.836819 0.201734 2.147960 0.050659 -0.026235 -66850.400000 0 0 1
-22.285740 -4.102814 -13.188696 26.218868 0.182062 2.097889 0.060266 -0.023787 619316.000000 0 0 1
-23.301140 -3.059214 -13.114396 26.912624 0.130544 2.079786 0.051091 -0.028360 989716.000000 0 0 1
-23.693040 -2.825314 -11.759796 26.601417 0.118686 2.028706 0.062119 -0.036035 -152930.000000 0 0 1
-24.708840 -1.663214 -11.582696 27.339567 0.067211 2.008279 0.093593 -0.045533 -20869.000000 0 0 1
-25.069460 -1.354714 -10.249796 27.117733 0.053986 1.958403 0.089015 -0.046799 526645.000000 0 0 1
-25.763420 -0.116114 -10.174096 27.699811 0.004507 1.946899 0.095634 -0.045223 -98040.400000 0 0 1
-26.311150 0.175186 -8.778896 27.737634 -0.006658 1.892831 0.102818 -0.034712 -366810.000000 0 0 1
-25.245900 0.412286 -7.905096 26.457816 -0.016329 1.874212 0.091139 -0.031660 247745.000000 0 0 1
-25.722990 0.690186 -6.598896 26.564902 -0.026825 1.821831 0.089140 -0.035873 -527102.000000 0 0 1
-24.680240 1.058386 -5.562896 25.321538 -0.042858 1.792293 0.072933 -0.025017 -600841.000000 0 0 1
-24.144840 2.347686 -5.836996 24.951062 -0.096929 1.806922 0.082845 -0.027387 443499.000000 0 1 0
-22.971640 2.646086 -5.094696 23.678133 -0.114684 1.787657 0.081015 -0.022401 138842.000000 0 1 0
-22.437040 4.066386 -5.447996 23.444337 -0.179289 1.805320 0.096816 -0.018428 -239097.000000 0 1 0
-22.915040 5.157386 -4.671096 23.948212 -0.221377 1.767105 0.099201 -0.017943 476084.000000 0 1 0
-22.306040 6.376886 -5.028196 23.738300 -0.278454 1.784231 0.090538 -0.019428 -616288.000000 0 1 0
-22.833940 7.619886 -4.314096 24.455325 -0.322088 1.748132 0.094572 -0.018184 -245164.000000 0 1 0
-22.463740 7.838886 -2.915296 23.970121 -0.335746 1.692720 0.097437 -0.014675 1470990.000000 0 1 0
-21.074740 7.997886 -2.558596 22.686059 -0.362711 1.683820 0.097718 -0.015745 1042520.000000 0 1 0
-20.407740 9.414986 -2.715296 22.638257 -0.432247 1.691029 0.073348 -0.011663 -162615.000000 0 1 0
-20.126640 9.814886 -4.007996 22.748136 -0.453724 1.747911 0.047676 -0.008967 549072.000000 0 1 0
-19.782640 11.217986 -3.999696 23.090986 -0.515848 1.744889 0.067000 -0.002999 -250176.000000 0 1 0
-19.614140 11.623686 -5.497096 23.452988 -0.534974 1.807385 0.059732 -0.008243 92718.800000 0 1 0
-18.405540 11.152286 -6.086296 22.364713 -0.544761 1.846411 0.027635 -0.005089 642834.000000 0 1 0
-18.488640 11.404886 -7.484596 22.976519 -0.552724 1.902601 0.042087 -0.011735 -162179.000000 0 1 0
-17.243440 10.970886 -8.274596 22.049161 -0.566638 1.955495 0.033732 -0.009765 -339165.000000 0 1 0
-17.000340 9.603886 -8.612696 21.340683 -0.514228 1.986224 0.026701 -0.010439 24294.100000 0 1 0
-17.902640 8.954186 -9.484296 22.150256 -0.463776 2.013274 0.039683 -0.010198 -423174.000000 0 1 0
-18.060940 9.608486 -10.840996 23.152705 -0.488922 2.058093 0.062123 -0.014174 571541.000000 0 1 0
-16.909840 9.420886 -11.678096 22.606940 -0.508297 2.113638 0.054190 -0.015187 376352.000000 0 1 0
-17.003340 10.299386 -12.772196 23.628795 -0.544620 2.141870 0.062044 -0.017387 851792.000000 0 1 0
-15.789540 10.096686 -13.781196 23.263147 -0.568926 2.204837 0.043268 -0.011102 580567.000000 0 1 0
-15.801140 8.940386 -14.649496 23.328401 -0.514898 2.249736 0.052468 -0.021408 -19093.600000 0 1 0
-15.726940 7.718086 -13.894996 22.360153 -0.456225 2.241347 0.050957 -0.019873 -335792.000000 0 1 0
-15.691240 6.449686 -14.760196 22.487260 -0.389985 2.286807 0.057358 -0.020986 -247029.000000 0 1 0
-14.447040 6.158286 -15.337796 21.951981 -0.402943 2.344372 0.049376 -0.026397 103576.000000 0 1 0
-14.526140 5.071286 -16.256896 22.383328 -0.335886 2.383713 0.050991 -0.023570 -66571.800000 0 1 0
31.813273 -15.718114 28.321222 45.400827 -0.458896 0.897196 0.013240 0.007022 -407606.000000 0 0 1
31.228813 -14.461114 28.531122 44.703328 -0.433669 0.878596 0.021701 0.005027 71950.100000 0 0 1
30.140503 -14.363614 29.446712 44.518223 -0.444716 0.848042 0.031409 0.003015 313423.000000 0 0 1
30.388633 -14.768314 30.942802 45.815163 -0.452370 0.829312 0.030709 -0.005518 542621.000000 0 0 1
31.381193 -13.860514 31.502932 46.576044 -0.415915 0.827965 0.024989 -0.003972 691515.000000 0 0 1
31.188463 -13.712714 32.919570 47.375699 -0.414233 0.802568 0.020536 -0.007369 -220253.000000 0 0 1
31.763073 -12.405514 33.459679 47.773839 -0.372346 0.794871 0.026230 -0.010917 -37134.800000 0 0 1
31.313353 -12.023414 -33.764026 47.593046 -0.366612 2.359488 0.022872 -0.015666 -7467.290000 0 0 1
31.545663 -10.655714 -33.459066 47.203625 -0.325753 2.358626 0.031487 -0.011388 -47044.600000 0 0 1
31.182673 -10.348614 -31.994096 45.859297 -0.320434 2.342919 0.028206 -0.006826 -125642.000000 0 0 1
29.815753 -10.514314 -31.700616 44.771185 -0.339027 2.357541 0.056395 -0.014026 -70823.700000 0 0 1
29.555743 -10.083514 -30.374656 43.564193 -0.328786 2.342335 0.046757 -0.007995 -873941.000000 0 0 1
28.241103 -10.551814 -29.795046 42.386855 -0.357572 2.350307 0.047816 -0.004227 -722289.000000 0 0 1
28.053623 -10.410714 -28.383766 41.243508 -0.355348 2.329801 0.044887 -0.006719 -372436.000000 0 0 1
27.069653 -11.288814 -27.966296 40.525513 -0.395099 2.332411 0.063865 -0.008339 -1129850.000000 0 0 1
26.612283 -10.996314 -26.537186 39.158074 -0.391837 2.315418 0.066177 -0.007701 -1196530.000000 0 0 1
25.909583 -9.784114 -26.192336 38.119206 -0.361070 2.328309 0.063037 -0.009400 1130900.000000 0 0 1
24.660483 -9.523914 -26.862306 37.688564 -0.368555 2.364199 0.058923 -0.011030 707586.000000 0 0 1
23.516883 -10.548314 -26.809966 37.189851 -0.421641 2.375889 0.062175 -0.009382 -1003300.000000 0 0 1
23.960083 -11.722814 -27.463806 38.285384 -0.455022 2.370780 0.052545 -0.010829 -686219.000000 0 0 1
23.114483 -12.813414 -27.321976 38.012541 -0.506174 2.372817 0.060276 -0.026884 121049.000000 0 0 1
23.873983 -14.050514 -27.963316 39.361543 -0.531942 2.360894 0.056129 -0.004044 581171.000000 0 0 1
23.836983 -13.987014 -29.370856 40.329710 -0.530641 2.386588 0.057972 -0.015060 326453.000000 0 0 1
24.826783 -14.803014 -29.985956 41.649201 -0.537659 2.374548 0.049996 -0.007273 -215548.000000 0 0 1
24.833383 -14.912014 -31.489756 42.786328 -0.540774 2.397905 0.052860 -0.011605 -1423500.000000 0 0 1
23.709683 -15.356614 -32.127816 42.780501 -0.574752 2.420360 0.064695 -0.011828 -987047.000000 0 0 1
23.865183 -15.589414 -33.541246 44.018087 -0.578641 2.437173 0.065670 -0.008656 -73942.900000 0 0 1
23.952583 -14.361814 34.085109 44.065663 -0.540121 0.686440 0.041407 -0.010461 80537.200000 0 0 1
22.749183 -13.647014 33.902703 43.048340 -0.540339 0.663974 0.051976 -0.010728 45350.300000 0 0 1
22.930483 -12.603014 32.970443 42.091485 -0.502550 0.670833 0.042934 -0.007086 264291.000000 0 0 1
21.793383 -11.518414 33.119986 41.286304 -0.486209 0.639821 0.042644 -0.010093 1681770.000000 0 0 1
20.435583 -11.853614 32.759768 40.389648 -0.525620 0.624778 0.040819 -0.012825 1148020.000000 0 0 1
20.160583 -12.145414 31.398322 39.240474 -0.542207 0.643249 0.027893 -0.007539 -1253980.000000 0 0 1
18.691283 -12.434214 31.127062 38.377959 -0.587015 0.624824 0.031613 -0.011827 -538936.000000 0 0 1
17.793283 -11.392514 31.245872 37.718627 -0.569505 0.594562 0.032264 -0.007509 -475546.000000 0 0 1
17.020983 -11.464514 32.395182 38.348361 -0.592754 0.564679 0.013115 -0.005360 -554038.000000 0 0 1
16.287083 -10.201314 32.835830 38.046388 -0.559565 0.529525 0.019545 -0.003368 -478153.000000 0 0 1
15.310183 -9.744514 31.865162 36.670776 -0.566807 0.517715 0.034039 -0.003231 528881.000000 0 0 1
14.510483 -8.656614 32.284752 36.438940 -0.537898 0.482159 0.040770 -0.002795 386667.000000 0 0 1
13.476183 -8.929914 33.410751 37.116427 -0.585213 0.450658 0.046527 -0.005798 -1999430.000000 0 0 1
12.712383 -10.016214 33.080826 36.827575 -0.667325 0.454997 0.045073 0.001464 -1162980.000000 0 0 1
11.479883 -10.012614 33.694788 36.978087 -0.717235 0.424585 0.033471 0.001161 -464426.000000 0 0 1
10.386483 -9.150714 32.956685 35.745737 -0.722230 0.397646 0.056232 -0.001087 -813515.000000 0 0 1
10.591283 -7.770614 33.063870 35.577763 -0.632974 0.378173 0.056851 -0.006156 118224.000000 0 0 1
9.535083 -6.977014 32.571648 34.648359 -0.631699 0.347981 0.060396 -0.003071 -214849.000000 0 0 1
9.986383 -5.524014 32.361302 34.314668 -0.505262 0.339038 0.054687 -0.001494 -57027.000000 0 0 1
10.093483 -4.854614 33.570242 35.389361 -0.448304 0.322023 0.045267 -0.008704 298316.000000 0 0 1
10.623083 -3.550714 33.465513 35.290197 -0.322571 0.322977 0.024935 -0.007010 -328171.000000 0 0 1
10.310783 -2.637114 -33.804466 35.440211 -0.250395 2.836586 0.021722 -0.018900 -853819.000000 0 0 1
8.951983 -2.410514 -33.657596 34.911064 -0.263033 2.872812 0.016604 -0.005815 -751291.000000 0 0 1
8.793683 -1.677814 -32.470766 33.682259 -0.188532 2.872572 0.015986 -0.009804 823096.000000 0 0 1
7.284083 -1.350614 -32.147656 32.990208 -0.183338 2.915102 0.011516 -0.004231 730297.000000 0 0 1
6.748883 -0.307414 -32.954446 33.639820 -0.045519 2.939388 0.015357 -0.004297 -1057660.000000 0 0 1
5.460783 -0.056614 -32.541206 32.996264 -0.010367 2.975322 0.009378 0.000149 -898461.000000 0 0 1
4.709683 0.979986 -33.395256 33.739956 0.205152 2.998528 0.026285 -0.004277 -352802.000000 0 0 1
5.291283 2.207886 -33.222926 33.714022 0.395304 2.970701 0.013709 -0.009300 145534.000000 0 0 1
4.647483 3.143486 -34.123779 34.581974 0.594700 2.978627 0.026923 -0.014578 328388.000000 0 0 1
5.477583 4.438386 -34.138286 34.858654 0.680979 2.937941 0.029726 -0.013820 96634.300000 0 0 1
5.034283 5.251486 33.361494 34.145444 0.806512 0.214698 0.045105 -0.023844 272748.000000 0 0 1
6.028783 6.244086 33.112109 34.230785 0.802939 0.256359 0.051029 -0.027837 410618.000000 0 0 1
5.524683 7.355286 32.145972 33.436296 0.926580 0.278716 0.068338 -0.027162 -489163.000000 0 0 1
4.559883 8.225986 32.658553 33.985886 1.064637 0.280401 0.083765 -0.029036 -201318.000000 0 0 1
4.239683 9.396686 31.885602 33.510659 1.146954 0.312701 0.088711 -0.035616 84783.800000 0 0 1
3.692583 9.171586 30.409032 31.975966 1.188041 0.314353 0.086358 -0.035368 -1287270.000000 0 0 1
2.427083 8.682486 30.269362 31.583391 1.298216 0.289471 0.083743 -0.034587 -1416140.000000 0 0 1
2.133383 8.512386 28.909802 30.212393 1.325233 0.294713 0.050792 -0.023212 -102981.000000 0 0 1
0.780783 7.914286 28.488622 29.577815 1.472460 0.272224 0.054356 -0.025156 168894.000000 0 0 1
-0.347017 8.707286 28.851222 30.138518 -1.530964 0.293327 0.065420 -0.027866 -272171.000000 0 0 1
-1.419417 8.312086 28.046782 29.286985 -1.401662 0.292058 0.067957 -0.018343 185631.000000 0 0 1
-2.849317 8.669286 28.530642 29.954510 -1.253250 0.309567 0.057078 -0.013673 109937.000000 0 0 1
-3.049817 10.089986 28.611062 30.491016 -1.277266 0.352988 0.070411 -0.014702 147712.000000 0 0 1
-4.348717 10.338386 29.135802 31.220002 -1.172626 0.367464 0.055272 -0.011244 6314.680000 0 0 1
-4.480017 11.706586 29.772842 32.303821 -1.205299 0.398483 0.040362 -0.008361 -211091.000000 0 0 1
-4.726117 12.854586 28.956652 32.032238 -1.218476 0.441797 0.042184 -0.009618 606693.000000 0 0 1
-5.855717 12.861986 28.060422 31.418265 -1.143566 0.466552 0.033492 -0.008839 468136.000000 0 0 1
-6.088117 14.191086 27.359072 31.416093 -1.165534 0.513844 0.024923 -0.003408 367930.000000 0 0 1
-5.058717 14.540586 26.417052 30.575806 -1.235991 0.527664 0.029332 0.000698 414276.000000 0 0 1
-5.145617 15.903886 26.091182 30.986461 -1.257881 0.569782 0.021743 0.005603 57464.700000 0 0 1
-3.948517 16.376186 25.215042 30.324390 -1.334199 0.588975 0.039758 0.005171 -56299.100000 0 0 1
-3.825217 15.979886 23.903452 29.006276 -1.335841 0.602223 0.035013 0.007590 -668678.000000 0 0 1
-2.712417 16.620786 23.384252 28.817199 -1.409028 0.624136 0.032025 0.011256 -544946.000000 0 0 1
-2.491017 16.458086 21.847952 27.466466 -1.420581 0.651061 0.032575 0.009455 -21190.700000 0 0 1
-2.104217 15.128986 21.507752 26.379866 -1.432598 0.617533 0.027638 0.012340 -46697.900000 0 0 1
-1.843717 15.042486 20.122652 25.191205 -1.448837 0.645504 0.024350 0.009939 182210.000000 0 0 1
-0.919017 13.849286 19.726252 24.119957 -1.504535 0.613150 0.028707 0.002852 134386.000000 0 1 0
-1.494717 12.579686 19.902152 23.591913 -1.452531 0.566843 0.028530 0.004568 25278.600000 0 1 0
-0.773017 11.598986 19.143652 22.396729 -1.504250 0.545723 0.030685 -0.001464 99119.900000 0 1 0
-1.503717 10.219586 19.045652 21.666517 -1.424704 0.496960 0.013458 -0.000417 -535945.000000 0 1 0
-1.594617 9.520486 20.282752 22.462691 -1.404844 0.444204 0.014781 -0.002772 14536.800000 0 1 0
-2.558617 9.966986 21.207052 23.571729 -1.319513 0.451757 0.041807 -0.004035 1239290.000000 0 1 0
-4.097017 10.102086 20.830752 23.510805 -1.185505 0.482134 0.040699 -0.003876 621623.000000 0 1 0
-4.750317 8.891586 20.654952 22.983752 -1.080127 0.454054 0.034833 -0.009977 -496985.000000 0 1 0
-6.127817 9.179186 20.698352 23.456969 -0.982163 0.489864 0.038871 -0.003860 99298.800000 0 1 0
-7.088317 7.955086 20.724052 23.302660 -0.842952 0.474891 0.040582 -0.005927 129785.000000 0 1 0
-6.870817 7.117886 21.876552 24.009497 -0.803058 0.424700 0.038189 -0.014280 170476.000000 0 1 0
-7.732617 5.993286 21.935352 24.018171 -0.659351 0.419527 0.044323 -0.014912 118209.000000 0 1 0
-7.629217 5.232986 23.296952 25.066653 -0.601209 0.378012 0.042481 -0.018099 354328.000000 0 0 1
-8.563917 5.740186 24.256452 26.356515 -0.590497 0.401896 0.023687 -0.009467 417599.000000 0 0 1
-8.524317 4.847186 25.335642 27.167149 -0.517034 0.369290 0.035295 -0.005046 85308.600000 0 0 1
-9.527117 5.168686 26.476902 28.609572 -0.497085 0.388559 0.023690 0.004441 -39277.000000 0 0 1
-9.246417 6.380586 27.189672 29.419150 -0.604024 0.391817 0.021913 0.004539 -122149.000000 0 0 1
-10.209717 6.700486 28.158882 30.692955 -0.580781 0.409204 0.018700 0.006035 46423.300000 0 0 1
-9.734717 7.962686 28.893172 31.511656 -0.685601 0.410543 0.021564 -0.000112 193125.000000 0 0 1
-8.677817 7.758886 29.810862 32.003005 -0.729549 0.372276 0.023617 0.001846 58344.400000 0 0 1
-8.385817 8.931786 30.497402 32.866248 -0.816915 0.381990 0.022563 -0.004357 932920.000000 0 0 1
-7.152817 8.845386 31.485222 33.477199 -0.890803 0.346705 0.047618 -0.008947 1152860.000000 0 0 1
-5.862017 8.420486 31.081542 32.731179 -0.962651 0.318838 0.056872 -0.015408 -66231.500000 0 0 1
-5.203417 7.769786 32.145352 33.477885 -0.980697 0.283091 0.079317 -0.025009 639678.000000 0 0 1
-3.662317 7.701386 31.905522 33.025540 -1.126907 0.261179 0.063101 -0.019312 590256.000000 0 0 1
-3.014917 8.943586 32.050052 33.410826 -1.245656 0.286385 0.054676 -0.018112 -1370050.000000 0 0 1
-1.645217 8.830086 31.927122 33.166524 -1.386589 0.274241 0.063513 -0.019733 -732352.000000 0 0 1
-0.981817 10.199986 31.677112 33.293289 -1.474835 0.312863 0.066440 -0.021501 -18279.800000 0 0 1
-1.258617 11.111886 32.736663 34.594035 -1.458009 0.329175 0.071553 -0.028389 150488.000000 0 0 1
-1.755217 12.338286 32.204042 34.531354 -1.429487 0.369237 0.059672 -0.024819 -199084.000000 0 0 1
-1.813817 13.531286 33.203088 35.900288 -1.437544 0.390104 0.060274 -0.027620 -447714.000000 0 0 1
-0.486917 13.928786 33.467511 36.253585 -1.535853 0.394600 0.086179 -0.033071 -162873.000000 0 0 1
-0.414817 14.745186 -33.899136 36.969501 -1.542671 2.731161 0.074290 -0.029885 1418830.000000 0 0 1
1.088883 15.065286 -33.479656 36.729224 1.498644 2.717777 0.074434 -0.029795 1267280.000000 0 0 1
1.737083 16.003186 34.191431 37.791181 1.462674 0.440013 0.072113 -0.025045 978122.000000 0 0 1
3.034283 16.349386 -33.775556 37.647012 1.387294 2.684103 0.081661 -0.031313 1032790.000000 0 0 1
3.769683 17.443686 33.895156 38.306322 1.357963 0.484635 0.092265 -0.021724 -29664.500000 0 0 1
3.451383 18.774986 34.231260 39.194277 1.388997 0.508709 0.067950 -0.015296 96934.800000 0 0 1
4.348283 19.629786 33.560431 39.122099 1.352802 0.539748 0.048179 -0.004536 84654.200000 0 0 1
3.958983 21.109886 33.796171 40.043502 1.385408 0.566124 0.050756 -0.009020 33690.900000 0 0 1
4.398483 21.744086 -33.535326 40.209079 1.371205 2.557157 0.067330 -0.021094 -33027.100000 0 0 1
3.801783 23.045586 -33.476026 40.819075 1.407301 2.532395 0.051357 -0.017883 223391.000000 0 0 1
3.651283 23.655186 -32.048516 40.000089 1.417651 2.500113 0.061123 -0.017423 16391.400000 0 0 1
3.129783 24.977686 -32.094196 40.788697 1.446143 2.476469 0.058756 -0.022327 288146.000000 0 0 1
2.864483 25.509786 -30.785746 40.083870 1.458975 2.446561 0.054602 -0.021040 68105.100000 0 0 1
2.592683 27.068486 -30.757076 41.053900 1.475305 2.417631 0.060845 -0.022906 678027.000000 0 0 1
3.764383 27.884086 -30.654346 41.609876 1.436606 2.398986 0.055361 -0.024357 597400.000000 0 0 1
3.321483 29.156186 -30.219956 42.123167 1.457365 2.370886 0.054870 -0.024254 140766.000000 0 0 1
4.438783 30.224186 -30.040986 42.844662 1.424977 2.347820 0.061038 -0.033414 275882.000000 0 0 1
5.357783 29.931086 -29.000026 42.018773 1.393668 2.332518 0.055660 -0.037394 -107315.000000 0 0 1
6.160183 31.048786 -28.714466 42.737519 1.374936 2.307540 0.063511 -0.043407 -1186290.000000 0 0 1
7.169283 30.732986 -27.611196 41.932007 1.341618 2.289588 0.061607 -0.041704 751748.000000 0 0 1
8.372683 30.037186 -28.128836 41.994830 1.298953 2.304758 0.062585 -0.035395 1569280.000000 0 0 1
9.489483 30.911886 -28.285166 42.960978 1.272944 2.289477 0.066091 -0.041246 -198759.000000 0 0 1
9.498683 32.167586 -29.173616 44.453104 1.283669 2.286672 0.079380 -0.042708 -1409740.000000 0 0 1
8.705583 33.167086 -28.573516 44.635060 1.314110 2.265501 0.074959 -0.043672 -15374.400000 0 0 1
8.587783 34.304586 -29.420036 46.001013 1.325498 2.264712 0.073869 -0.040904 -628168.000000 0 0 1
7.351283 34.286186 -30.298106 46.341765 1.359585 2.283388 0.060735 -0.017973 -646472.000000 0 0 1
7.477083 33.490486 -31.473376 46.562784 1.351139 2.313028 0.052915 -0.018795 452767.000000 0 0 1
6.166383 33.342086 -32.029476 46.643395 1.387920 2.327720 0.031275 -0.010830 528659.000000 0 0 1
6.132183 32.519286 -33.343836 46.977857 1.384414 2.359979 0.034186 -0.026184 -122133.000000 0 0 1
6.619983 33.132386 34.025909 47.951451 1.373589 0.781879 0.039610 -0.021980 -96009.900000 0 0 1
6.495783 32.333586 32.891519 46.577978 1.372537 0.786736 0.031703 -0.018090 -484235.000000 0 0 1
5.733483 33.064486 31.790442 46.225158 1.399101 0.812438 0.030860 -0.015212 -335430.000000 0 0 1
6.371883 34.204786 31.319252 46.813073 1.386621 0.837896 0.034945 -0.022026 -250964.000000 0 0 1
5.613483 -33.847597 30.359842 45.813655 -1.406446 0.846403 0.021578 -0.024472 -318920.000000 0 0 1
18.272960 -21.825814 29.472282 40.974170 -0.873770 0.768018 0.042733 -0.003167 55867.400000 0 0 1
17.310360 -20.887314 29.982262 40.433458 -0.878769 0.735462 0.032132 -0.002862 714725.000000 0 0 1
16.023160 -21.505914 30.053202 40.279535 -0.930465 0.728587 0.018785 -0.002889 509390.000000 0 0 1
15.521860 -22.024814 31.443892 41.409406 -0.956893 0.708495 0.022351 -0.010487 -241639.000000 0 0 1
16.211560 -23.169314 31.925012 42.647839 -0.960272 0.724889 0.026746 -0.013626 18508.200000 0 0 1
15.851360 -23.540514 33.267974 43.728475 -0.978171 0.706274 0.051094 -0.013847 92340.500000 0 0 1
16.622160 -24.741114 33.864634 45.113550 -0.979218 0.721746 0.054622 -0.020342 -51298.900000 0 0 1
16.348560 -25.975114 33.175834 45.195331 -1.009044 0.746523 0.063508 -0.021642 152857.000000 0 0 1
16.944960 -27.003514 33.984859 46.597125 -1.010395 0.753449 0.069715 -0.016139 273751.000000 0 0 1
16.629260 -28.515184 33.554245 47.069474 -1.042842 0.777219 0.058879 -0.012699 -279036.000000 0 0 1
17.363260 -28.955784 32.463696 46.838145 -1.030636 0.805010 0.049324 -0.016657 -103344.000000 0 0 1
16.897360 -30.265714 32.057422 47.214537 -1.061603 0.824433 0.050023 -0.015393 -273071.000000 0 0 1
17.763460 -31.138324 31.093082 47.454352 -1.052374 0.856321 0.051382 -0.010722 -182848.000000 0 0 1
18.950560 -31.580014 31.698502 48.592346 -1.030317 0.860135 0.034079 -0.012437 -64181.000000 0 0 1
19.649860 -32.445784 30.769882 48.842927 -1.026254 0.889274 0.026087 -0.006306 -596291.000000 0 0 1
21.032060 -32.818854 31.288662 49.984049 -1.000878 0.894418 0.035420 -0.012272 -1048340.000000 0 0 1
21.956060 -31.825284 31.079962 49.607271 -0.966885 0.893716 0.039679 -0.011063 -791443.000000 0 0 1
23.183960 -32.068614 31.708242 50.708033 -0.944834 0.895268 0.025883 -0.016721 -342476.000000 0 0 1
24.057760 -30.791194 31.686802 50.308318 -0.907550 0.889433 0.023966 -0.011870 92401.100000 0 0 1
24.674760 -30.606134 30.400512 49.696784 -0.892284 0.912563 0.025646 -0.008793 -128807.000000 0 0 1
25.520960 -29.463384 30.344882 49.398606 -0.856977 0.909315 0.018665 -0.006013 -292007.000000 0 0 1
26.536160 -29.688974 29.227392 49.394771 -0.841414 0.937618 0.021908 -0.006064 -565104.000000 0 0 1
27.469260 -30.672984 29.618002 50.720984 -0.840444 0.947223 0.013320 -0.007077 -215383.000000 0 0 1
28.480660 -30.829054 28.632752 50.807608 -0.824973 0.972116 0.007286 -0.017083 484679.000000 0 0 1
29.708860 -31.661224 29.076222 52.253958 -0.817200 0.980701 -0.004457 -0.013586 -45921.500000 0 0 1
29.351260 -33.011494 29.253662 52.981430 -0.844024 0.985856 -0.011992 -0.013168 687960.000000 0 0 1
30.357960 -33.903654 29.771112 54.381822 -0.840518 0.991487 -0.001913 -0.000962 161545.000000 0 0 1
29.501260 33.616850 30.282762 54.013541 0.850511 0.975624 -0.003012 -0.002052 244663.000000 0 0 1
28.847860 33.720929 31.542872 54.444953 0.863125 0.952861 -0.000804 0.005224 930773.000000 0 0 1
27.771060 -34.035214 31.687312 54.163764 -0.886405 0.945882 -0.014242 0.013851 646117.000000 0 0 1
26.470560 -34.227819 30.877152 53.156680 -0.912509 0.950999 -0.006559 0.008551 -65137.700000 0 0 1
25.813160 33.236081 31.119742 52.339227 0.910450 0.934056 -0.003773 0.001936 691864.000000 0 0 1
24.487260 33.112985 30.585292 51.298692 0.934045 0.932012 -0.010571 0.001180 1106180.000000 0 0 1
23.855960 31.710348 30.792512 50.227799 0.925820 0.910872 -0.006661 -0.008009 -306455.000000 0 0 1
24.244460 30.819428 29.787892 49.243776 0.904242 0.921148 -0.002819 -0.008591 150570.000000 0 0 1
23.540360 29.593508 29.943222 48.234022 0.898832 0.901046 0.024171 -0.027038 -43383.100000 0 0 1
23.184460 28.979448 28.610412 46.860253 0.896036 0.914045 0.026953 -0.026350 298887.000000 0 0 1
21.987360 29.603078 28.086072 46.353141 0.931959 0.919881 0.045037 -0.032097 865476.000000 0 0 1
21.473760 29.020558 26.904472 45.024058 0.933758 0.930345 0.047592 -0.025259 -141654.000000 0 0 1
20.068760 29.507078 26.523152 44.462348 0.973528 0.931625 0.069231 -0.025861 -278352.000000 0 0 1
20.006560 30.900418 26.100152 45.125561 0.996214 0.954043 0.069773 -0.027928 197904.000000 0 0 1
18.731560 31.217608 25.553382 44.479048 1.030353 0.958799 0.074057 -0.023686 106271.000000 0 0 1
18.637360 32.788192 25.159862 45.336910 1.053924 0.982490 0.084147 -0.021448 -65796.000000 0 0 1
19.203260 33.125825 23.887372 45.129725 1.045432 1.013016 0.076837 -0.018237 -8083.660000 0 0 1
20.528060 33.578389 24.028962 46.111825 1.022075 1.022655 0.065261 -0.011019 -170474.000000 0 0 1
21.245060 33.699412 22.652752 45.827395 1.008303 1.053760 0.068554 -0.016780 303759.000000 0 0 1
20.646360 -34.007254 21.779752 45.355519 -1.025161 1.069913 0.069715 -0.004689 863660.000000 0 0 1
21.413660 -33.952004 20.583452 45.110552 -1.008106 1.096976 0.077287 -0.007035 184297.000000 0 0 1
21.073560 -32.691794 19.714952 43.606509 -0.998217 1.101666 0.066427 -0.002537 -78149.400000 0 0 1
21.333760 -31.446144 20.376452 43.118315 -0.974699 1.078591 0.065871 -0.001579 165566.000000 0 0 1
20.909260 -30.262674 19.747452 41.749113 -0.966186 1.078100 0.066386 -0.008002 -134659.000000 0 0 1
21.732760 -29.732464 18.513752 41.220035 -0.939603 1.104989 0.053167 -0.005336 138872.000000 0 0 1
21.580260 -30.534814 17.336752 41.214627 -0.955559 1.136639 0.047713 -0.009907 530216.000000 0 0 1
22.289160 -29.808504 16.324752 40.642971 -0.928740 1.157465 0.034258 -0.011177 -132029.000000 0 0 1
21.944260 -30.296124 14.889252 40.262830 -0.943930 1.192001 0.028047 -0.014600 -171459.000000 0 0 1
22.602360 -31.478344 14.485152 41.371155 -0.948073 1.213090 0.058481 -0.012499 58863.500000 0 0 1
22.576860 -31.605824 13.021752 40.965946 -0.950520 1.247317 0.065522 -0.021651 -283750.000000 0 0 1
21.205160 -31.782924 12.327852 40.147092 -0.982433 1.258687 0.062853 -0.019716 -252897.000000 0 0 1
20.507160 -32.923064 12.732452 40.823854 -1.013722 1.253617 0.067275 -0.017934 -165868.000000 0 0 1
19.305060 -33.127334 12.024552 40.183273 -1.043155 1.266897 0.063419 -0.015885 -431368.000000 0 0 1
18.325160 -33.905654 12.886252 40.638164 -1.075295 1.248129 0.054172 -0.006445 -596417.000000 0 0 1
18.010760 -33.197154 14.072752 40.304849 -1.073699 1.214124 0.042694 -0.000709 195367.000000 0 0 1
18.396160 -33.976664 15.168552 41.508040 -1.074553 1.196695 0.031151 -0.005063 -548666.000000 0 0 1
18.495160 -33.154544 16.492252 41.391897 -1.061949 1.160979 0.046581 -0.012119 -252587.000000 0 0 1
17.323260 -32.514444 16.933052 40.546426 -1.081265 1.139970 0.045765 -0.010965 414157.000000 0 0 1
16.248960 -33.303424 17.488252 40.975428 -1.116870 1.129847 0.039600 -0.004963 398173.000000 0 0 1
16.523460 -34.209219 18.773352 42.376104 -1.120831 1.111835 0.043653 -0.012322 -98688.900000 0 0 1
17.315560 33.311116 18.533152 41.868088 1.091424 1.112238 0.043015 -0.015302 482677.000000 0 0 1
17.709360 32.823316 19.826652 42.238462 1.076022 1.082187 0.046422 -0.010129 -268772.000000 0 0 1
18.555760 31.594008 19.707952 41.604098 1.039753 1.077307 0.052552 -0.012161 -307913.000000 0 0 1
17.811460 30.425858 19.389352 40.235904 1.041177 1.067984 0.039652 -0.018097 288574.000000 0 0 1
18.688860 29.344738 19.046152 39.662868 1.003705 1.069912 0.040980 -0.022400 107342.000000 0 0 1
17.979960 28.022898 18.743252 38.208262 1.000337 1.058070 0.050373 -0.022347 -160517.000000 0 0 1
17.623560 27.337058 19.920252 38.140806 0.998173 1.021272 0.057401 -0.024497 37826.200000 0 0 1
17.112160 26.018248 19.730652 36.865620 0.989028 1.006046 0.058390 -0.029011 -296220.000000 0 0 1
16.994460 25.186448 21.059452 36.968492 0.977221 0.964705 0.065622 -0.024291 102597.000000 0 0 1
15.772960 25.310088 21.758952 36.916647 1.013501 0.940471 0.068707 -0.022309 -269901.000000 0 0 1
14.769860 24.441948 21.325852 35.641964 1.027233 0.929374 0.069228 -0.019453 -581914.000000 0 0 1
13.410760 24.857788 21.908052 35.745222 1.076051 0.911078 0.071241 -0.032275 -411691.000000 0 0 1
12.831660 26.005378 21.355252 36.013581 1.112424 0.936044 0.071950 -0.033416 -744727.000000 0 0 1
11.543560 26.137578 21.863252 35.978168 1.154911 0.917659 0.047737 -0.032180 -545330.000000 0 0 1
10.697260 27.245268 21.168752 36.122737 1.196661 0.944654 0.034328 -0.030872 -153999.000000 0 0 1
11.092260 28.533968 21.628852 37.483768 1.200035 0.955722 0.040228 -0.032077 52330.900000 0 0 1
10.885460 29.518958 20.610352 37.611817 1.217506 0.990854 0.032885 -0.029639 -155693.000000 0 0 1
11.416360 30.931758 20.855452 39.013547 1.217224 1.006798 0.037062 -0.027648 -111891.000000 0 0 1
10.808460 31.713028 21.889352 40.021028 1.242322 0.992084 0.040306 -0.026337 -99458.900000 0 0 1
11.040660 31.279258 23.202452 40.480143 1.231478 0.960414 0.040250 -0.018904 -76910.400000 0 0 1
10.569760 32.259408 24.298862 41.747143 1.254170 0.949551 0.022682 -0.015616 282180.000000 0 0 1
9.155660 32.386118 24.313202 41.518894 1.295283 0.945184 0.021822 -0.020184 -16158.200000 0 0 1
8.768560 32.963000 25.559732 42.623315 1.310805 0.927713 0.022695 -0.009123 -954446.000000 0 0 1
7.387760 32.546368 25.992262 42.301806 1.347587 0.909110 0.043953 -0.023488 -785331.000000 0 0 1
6.231260 33.214259 25.451292 42.305838 1.385344 0.925291 0.033726 -0.023191 878521.000000 0 0 1
5.765660 32.794309 24.153742 41.135299 1.396762 0.943228 0.036602 -0.027144 -161045.000000 0 0 1
4.925460 31.519538 24.279092 40.090096 1.415783 0.920260 0.029819 -0.031075 -852255.000000 0 0 1
5.760860 30.450968 24.586532 39.559405 1.383821 0.900129 0.009982 -0.013073 -511429.000000 0 0 1
5.144960 29.179738 24.430342 38.402726 1.396271 0.881283 0.007150 -0.010542 -651167.000000 0 0 1
6.115360 28.007688 24.820312 37.919337 1.355824 0.857202 -0.000498 -0.004752 179704.000000 0 0 1
7.179660 27.766358 23.930232 37.352031 1.317764 0.875429 0.011567 -0.009792 243064.000000 0 0 1
8.217960 28.734378 23.929602 38.286097 1.292235 0.895638 0.026363 -0.016179 -47937.000000 0 0 1
9.435760 28.425348 24.895062 38.946093 1.250292 0.877315 0.023304 -0.020223 24078.000000 0 0 1
9.040560 28.420038 26.243672 39.726070 1.262813 0.849157 0.018189 -0.014549 114505.000000 0 0 1
10.050960 27.975408 27.132852 40.247198 1.225880 0.830976 0.040687 -0.011317 372531.000000 0 0 1
11.195060 28.963578 27.521652 41.492886 1.201963 0.845595 0.035452 -0.010994 248051.000000 0 0 1
10.702360 30.133538 28.140662 42.596567 1.229528 0.849136 0.027103 -0.011349 156832.000000 0 0 1
11.750260 31.062388 28.184132 43.557845 1.209154 0.867087 0.022226 -0.002400 -217025.000000 0 0 1
11.355060 32.353988 28.908822 44.849057 1.233264 0.870322 0.008211 -0.008673 -164940.000000 0 0 1
11.374160 32.226868 30.331312 45.693884 1.231505 0.844917 0.014696 -0.025176 -251328.000000 0 0 1
10.133660 31.916408 30.888352 45.556981 1.263357 0.825736 0.023784 -0.020724 -611145.000000 0 0 1
10.238160 31.751948 32.431372 46.527412 1.258880 0.799538 0.044392 -0.022813 -232123.000000 0 0 1
10.675360 30.509098 32.889048 46.113533 1.234204 0.776716 0.029580 -0.022449 257694.000000 0 0 1
10.913460 30.511758 -34.220057 47.128371 1.227296 2.383434 0.049925 -0.018230 -155819.000000 0 0 1
10.863560 29.054018 -33.684776 45.791015 1.212982 2.397377 0.039393 -0.013616 -567520.000000 0 0 1
11.993760 28.290918 -33.960276 45.798763 1.169821 2.406116 0.052824 -0.007552 -391719.000000 0 0 1
11.743760 26.915568 -33.658706 44.668470 1.159378 2.424200 0.059816 -0.016069 847857.000000 0 0 1
13.073160 26.065648 -33.536106 44.440927 1.105912 2.425874 0.068252 -0.015768 877925.000000 0 0 1
12.882260 24.678898 -33.473096 43.536753 1.089708 2.447832 0.041710 -0.015237 -186966.000000 0 0 1
13.010260 24.175648 -32.169246 42.291716 1.077092 2.435112 0.041883 -0.007798 -241734.000000 0 0 1
13.106360 22.614268 -32.114966 41.407160 1.045541 2.458445 0.033091 -0.030158 757930.000000 0 0 1
14.315560 22.109568 -32.751976 42.029278 0.996193 2.464290 0.018562 -0.016802 932188.000000 0 0 1
14.411660 20.673768 -32.690986 41.277127 0.962020 2.484855 0.015326 -0.009865 -648362.000000 0 0 1
15.643960 20.024868 -33.315926 41.900833 0.907608 2.489991 0.024529 -0.015663 -1075420.000000 0 0 1
16.710560 20.310468 -32.487186 41.799225 0.882333 2.461032 0.019773 -0.025043 -864192.000000 0 0 1
17.898460 19.744368 -33.034536 42.443793 0.834396 2.462770 0.023230 -0.022267 170492.000000 0 0 1
19.111060 19.993268 -32.100956 42.372571 0.807955 2.430406 0.016995 -0.017699 -52745.600000 0 0 1
19.446060 21.357468 -32.101826 43.183538 0.832208 2.408908 0.011458 -0.019116 672494.000000 0 0 1
20.524360 21.664568 -31.163646 43.148299 0.812418 2.377839 0.010833 -0.007772 874984.000000 0 0 1
20.083260 22.098268 -29.758716 42.157467 0.833132 2.354481 0.004951 -0.011222 -146245.000000 0 0 1
19.415460 23.329468 -29.800036 42.535472 0.876710 2.347024 0.004906 0.000775 -25823.100000 0 0 1
19.102260 24.041558 -28.570366 41.942326 0.899386 2.320173 0.010950 0.007227 -457899.000000 0 0 1
20.321860 24.533828 -27.766906 42.259766 0.879024 2.287699 0.006604 0.007868 -284625.000000 0 0 1
21.012660 25.509018 -28.510616 43.647418 0.881750 2.282603 0.011439 0.010212 -321433.000000 0 0 1
20.389860 26.799018 -28.554736 44.150954 0.920391 2.274115 0.009126 0.012084 -408670.000000 0 0 1
21.198460 27.782068 -29.460966 45.707402 0.919010 2.271238 0.005345 0.011783 -325883.000000 0 0 1
21.293460 27.492948 -30.876186 46.503898 0.911795 2.296883 0.015151 0.007157 66643.300000 0 0 1
21.863460 26.255268 -31.301636 46.337268 0.876416 2.312463 0.015390 0.005378 -54027.100000 0 0 1
23.270660 25.940488 -30.767096 46.487060 0.839598 2.294070 0.026127 -0.001168 -496631.000000 0 0 1
24.308560 26.788668 -31.187866 47.762138 0.833897 2.282313 0.029145 0.001565 -403724.000000 0 0 1
25.577760 26.415328 -30.734046 47.922573 0.801506 2.267023 0.033943 -0.016101 195243.000000 0 0 1
26.704660 27.454128 -31.069986 49.317462 0.799236 2.252349 0.013175 -0.009063 186005.000000 0 0 1
26.609060 28.630898 -30.241806 49.420009 0.821983 2.229300 0.007898 0.001404 -428182.000000 0 0 1
27.513760 29.592668 -30.635236 50.707501 0.821786 2.219502 0.014202 0.001685 -328598.000000 0 0 1
27.592660 30.864358 -29.753086 50.982444 0.841307 2.193945 0.010959 0.008597 -160487.000000 0 0 1
28.089060 30.590378 -28.467286 50.350302 0.827999 2.171696 0.026411 0.001582 264466.000000 0 0 1
27.292160 31.183008 -27.436826 49.699310 0.851839 2.155625 0.015992 0.013475 -220344.000000 0 0 1
27.941460 31.060828 -26.004746 49.211249 0.838218 2.127548 0.040782 0.009181 -438531.000000 0 0 1
28.152560 29.757648 -25.416426 48.208702 0.813108 2.126118 0.034862 0.015310 -367152.000000 0 0 1
27.043860 28.965558 -25.134216 46.926568 0.819695 2.136023 0.031718 0.016716 -481695.000000 0 0 1
26.300260 29.325708 -23.797696 46.022073 0.839734 2.114248 0.034469 0.018110 233146.000000 0 0 1
25.781960 30.678828 -23.764296 46.590146 0.871912 2.106064 0.048591 0.017915 161064.000000 0 0 1
25.188260 30.908248 -22.507996 45.786222 0.887014 2.084710 0.048886 0.028223 149073.000000 0 0 1
3.840760 -26.450874 -19.400996 33.027244 -1.426601 2.198668 0.049224 -0.010357 -341685.000000 0 0 1
3.471260 -27.579774 -18.596596 33.444386 -1.445592 2.160417 0.052526 -0.005584 205434.000000 0 0 1
2.931060 -27.221834 -17.352996 32.415210 -1.463536 2.135701 0.041837 -0.006377 -212312.000000 0 0 1
2.885160 -28.454454 -16.457596 32.997463 -1.469746 2.092956 0.038301 -0.003484 -585907.000000 0 0 1
4.114060 -28.834534 -15.946396 33.206075 -1.429075 2.071708 0.036286 0.001330 -570915.000000 0 0 1
3.901060 -29.779534 -14.902196 33.527815 -1.440540 2.031382 0.034319 -0.003155 123058.000000 0 0 1
5.249260 -30.299774 -14.353796 33.936153 -1.399255 2.007511 0.067405 -0.001047 278526.000000 0 0 1
6.057160 -29.432954 -13.599696 32.983931 -1.367835 1.995788 0.048526 0.009151 -292876.000000 0 0 1
7.439260 -29.669904 -13.725396 33.526591 -1.325127 1.992580 0.056920 0.002928 252916.000000 0 0 1
8.128360 -30.575214 -12.669596 34.079798 -1.310958 1.951703 0.056214 -0.010908 -579874.000000 0 0 1
8.209260 -29.913284 -11.446196 33.063755 -1.302955 1.924299 0.050116 -0.022026 -59484.900000 0 0 1
8.458460 -30.730204 -10.296896 33.495030 -1.302199 1.883272 0.061241 -0.020666 101551.000000 0 0 1
9.760860 -31.525254 -10.086396 34.508715 -1.270537 1.867412 0.053493 -0.019704 -87960.800000 0 0 1
10.967060 -30.853624 -9.838496 34.190913 -1.229271 1.862675 0.062842 -0.024296 217079.000000 0 0 1
11.972160 -31.787094 -9.450296 35.257057 -1.210592 1.842154 0.062758 -0.020061 -44551.400000 0 0 1
13.037160 -31.329744 -8.473896 34.976096 -1.176465 1.815508 0.063195 -0.018292 -120225.000000 0 0 1
14.069960 -30.528004 -9.032196 34.806657 -1.138926 1.833297 0.059841 -0.019008 -43101.400000 0 0 1
14.853960 -29.967354 -8.024396 34.395834 -1.110618 1.806262 0.056792 -0.023600 -676154.000000 0 0 1
16.109160 -29.330594 -8.655896 34.564625 -1.068547 1.823917 0.075144 -0.028647 -333378.000000 0 0 1
15.960660 -28.092624 -9.318596 33.626990 -1.054130 1.851588 0.062567 -0.024871 39648.600000 0 0 1
15.291160 -27.997924 -10.565096 33.605425 -1.070911 1.890607 0.047273 -0.018672 -166280.000000 0 0 1
14.961960 -26.513904 -10.891696 32.333827 -1.057036 1.914367 0.040646 -0.014352 -320695.000000 0 0 1
13.879760 -25.921374 -10.181696 31.116431 -1.079188 1.904149 0.031258 -0.012376 345628.000000 0 0 1
13.505560 -24.611114 -10.543796 29.987976 -1.068907 1.930077 0.023827 0.000632 60000.100000 0 0 1
13.038260 -24.294614 -12.003496 30.071721 -1.078243 1.981399 0.006089 0.000977 463853.000000 0 0 1
14.060060 -24.288414 -13.017496 30.936508 -1.046052 2.005102 0.016636 -0.003479 285738.000000 0 0 1
13.388360 -23.978914 -14.195496 30.915184 -1.061573 2.047863 0.024725 -0.006570 394588.000000 0 0 1
14.315660 -23.443514 -15.327796 31.455966 -1.022587 2.079766 0.033290 -0.008229 552136.000000 0 0 1
15.319460 -24.309014 -15.860196 32.820113 -1.008469 2.075155 0.039202 -0.016031 453935.000000 0 0 1
16.044560 -23.616114 -16.863696 33.159207 -0.974037 2.104317 0.057318 -0.017816 -1252860.000000 0 0 1
16.975260 -24.514014 -17.679396 34.664930 -0.965141 2.105991 0.062883 -0.017283 435448.000000 0 0 1
18.214960 -24.902014 -17.087596 35.268697 -0.939263 2.076585 0.076395 -0.017374 121625.000000 0 0 1
19.135960 -23.847414 -17.000696 34.984394 -0.894573 2.078247 0.083870 -0.016426 -1269550.000000 0 0 1
20.550660 -24.300614 -16.623496 35.905293 -0.868813 2.052153 0.072276 -0.015603 14626.700000 0 0 1
21.247760 -25.108074 -17.572196 37.291618 -0.868482 2.061459 0.081078 -0.010258 788324.000000 0 0 1
22.453660 -25.660414 -16.986596 38.094201 -0.851949 2.032987 0.085492 -0.006241 1379420.000000 0 0 1
23.246160 -26.610154 -17.996196 39.652835 -0.852770 2.041871 0.058323 -0.005753 211406.000000 0 0 1
23.868060 -25.982244 -19.105696 40.122175 -0.827783 2.067111 0.058177 -0.003184 -30570.700000 0 0 1
24.287260 -26.948344 -20.045596 41.447680 -0.837290 2.075601 0.048894 -0.007600 -218048.000000 0 0 1
25.342160 -26.493144 -21.062096 42.281481 -0.807599 2.092249 0.033861 -0.008149 -549438.000000 0 0 1
24.971460 -25.387024 -21.886696 41.798352 -0.793650 2.121898 0.045449 -0.015970 -90800.900000 0 0 1
25.534160 -24.174814 -21.385896 41.155455 -0.758059 2.117222 0.052020 -0.010951 568045.000000 0 0 1
24.529460 -22.901014 -21.425496 39.814605 -0.751078 2.139015 0.063349 -0.005370 811869.000000 0 0 1
24.275160 -22.249514 -22.665396 39.975548 -0.741886 2.173633 0.065224 -0.005389 86940.600000 0 0 1
23.416460 -23.014914 -23.495796 40.374117 -0.776750 2.191923 0.035617 -0.013306 -416302.000000 0 0 1
22.646160 -22.077914 -24.415696 39.955088 -0.772693 2.228219 0.030281 -0.010925 -150224.000000 0 0 1
23.439460 -21.641714 -25.518896 40.853227 -0.745541 2.245477 0.018492 -0.008875 -165421.000000 0 0 1
22.815560 -20.649914 -26.301246 40.481160 -0.735615 2.278007 0.023160 -0.001220 -331124.000000 0 0 1
23.552860 -20.158314 -27.584086 41.496706 -0.707895 2.297928 0.023423 -0.001872 -74226.500000 0 0 1
22.786860 -19.235014 -28.335806 41.135686 -0.701075 2.330681 0.029263 -0.006589 197523.000000 0 0 1
23.488060 -18.760314 -29.451156 42.083357 -0.673958 2.345954 0.038548 -0.010810 89057.100000 0 0 1
22.613460 -17.698514 -30.196306 41.670408 -0.664074 2.381317 0.061046 -0.017509 76439.000000 0 0 1
21.442260 -18.267014 -30.754596 41.704910 -0.705606 2.400059 0.055746 -0.017082 158468.000000 0 0 1
20.673760 -17.215414 -31.340626 41.303870 -0.694375 2.432237 0.068161 -0.019843 -607345.000000 0 0 1
19.354260 -17.710114 -31.890736 41.294728 -0.741068 2.453205 0.043436 -0.020097 -902452.000000 0 0 1
19.444660 -18.550014 -33.042506 42.591138 -0.761856 2.458790 0.043943 -0.016098 -63749.600000 0 0 1
18.225860 -18.942414 -33.616396 42.673869 -0.804674 2.477946 0.047668 -0.024608 -324836.000000 0 0 1
18.519560 -19.798314 33.636643 43.201517 -0.818758 0.678367 0.056885 -0.021129 14032.600000 0 0 1
19.245760 -20.968114 33.968074 44.315811 -0.828202 0.697423 0.059340 -0.015233 62035.600000 0 0 1
19.566660 -21.800914 32.862985 44.023969 -0.839356 0.728041 0.046675 -0.013842 319197.000000 0 0 1
20.632660 -22.921214 33.153741 45.279789 -0.837895 0.749254 0.041003 -0.012412 407274.000000 0 0 1
20.197160 -23.992214 34.003883 46.258142 -0.871070 0.744997 0.048303 -0.012788 -112065.000000 0 0 1
20.223960 -23.623014 -33.119636 45.430889 -0.862764 2.387673 0.046158 -0.022512 35932.300000 0 0 1
19.221960 -24.469714 -32.232016 44.801267 -0.904934 2.373798 0.055144 -0.022023 117152.000000 0 0 1
19.430660 -25.901164 -32.091826 45.588443 -0.927177 2.351735 0.048569 -0.026272 21508.200000 0 0 1
20.583760 -26.174294 -31.305866 45.703852 -0.904396 2.325362 0.033271 -0.027316 252546.000000 0 0 1
20.861160 -27.675534 -31.136066 46.589460 -0.924883 2.302727 0.033803 -0.028031 -373905.000000 0 0 1
19.832060 -28.335834 -30.441546 46.075132 -0.960142 2.292539 0.031563 -0.029310 -191642.000000 0 0 1
19.945860 -29.729584 -30.599316 47.095686 -0.979862 2.278021 0.030075 -0.023059 -535199.000000 0 0 1
18.778060 -30.562544 -30.076936 46.811395 -1.019846 2.268570 0.039154 -0.024318 -305140.000000 0 0 1
17.623360 -30.604304 -30.873076 46.907921 -1.048327 2.289173 0.048763 -0.034468 -325044.000000 0 0 1
17.593360 -31.485634 -31.986036 48.207655 -1.061242 2.296291 0.054253 -0.032915 -1018760.000000 0 0 1
16.179960 -31.932884 -32.303556 48.218461 -1.101814 2.304927 0.074109 -0.044295 -244602.000000 0 0 1
15.407560 -30.955794 -33.034256 47.821712 -1.108968 2.333363 0.073780 -0.039562 523540.000000 0 0 1
14.173160 -31.463464 -33.541866 48.123641 -1.147557 2.341993 0.057591 -0.034574 761935.000000 0 0 1
13.206660 -30.449994 -34.219745 47.671889 -1.161566 2.371460 0.060326 -0.016244 -224208.000000 0 0 1
12.390160 -29.758424 -33.364246 46.392379 -1.176268 2.373411 0.081663 -0.028406 -735120.000000 0 0 1
11.525660 -28.996014 -34.165399 46.269690 -1.192455 2.401487 0.063600 -0.018116 -886433.000000 0 0 1
10.546160 -28.190744 -33.367306 44.936808 -1.212815 2.407649 0.073036 -0.024149 439441.000000 0 0 1
9.535060 -29.104264 -32.794326 44.871410 -1.254199 2.390365 0.066822 -0.015490 875851.000000 0 0 1
8.596660 -28.381034 -32.025846 43.646770 -1.276680 2.394622 0.044269 -0.014128 -641952.000000 0 0 1
7.596960 -29.125054 -31.212526 43.361324 -1.315642 2.374345 0.023598 -0.012200 -715853.000000 0 0 1
6.476260 -29.672174 -31.879016 44.030121 -1.355906 2.380420 0.022337 -0.007430 -158902.000000 0 0 1
6.646060 -30.785454 -32.744886 45.432828 -1.358176 2.375654 0.025014 -0.006197 214498.000000 0 0 1
5.271160 -31.347154 -33.251886 46.001273 -1.404201 2.378710 0.049932 -0.016886 975606.000000 0 0 1
4.569260 -32.026294 -32.202826 45.646289 -1.429081 2.353905 0.058830 -0.021304 -138127.000000 0 0 1
3.359260 -32.575244 -32.660916 46.251126 -1.468036 2.354863 0.064683 -0.036621 -923260.000000 0 0 1
2.491460 -33.101014 -31.474936 45.744466 -1.495670 2.329609 0.054182 -0.041352 553482.000000 0 0 1
1.609260 -32.131304 -30.868116 44.585323 -1.520754 2.335521 0.038307 -0.031412 -332983.000000 0 0 1
0.480560 -31.883374 -31.625336 44.910382 -1.555725 2.352075 0.026507 0.004663 -1200010.000000 0 0 1
-0.302840 -30.657824 -31.054116 43.638882 1.560919 2.362592 0.015194 0.009657 43104.800000 0 0 1
-0.875640 -30.769244 -29.774066 42.825322 1.542346 2.339556 -0.002472 0.002217 412862.000000 0 0 1
-1.488040 -29.510134 -29.302336 41.613570 1.520414 2.352026 0.028739 0.003965 534655.000000 0 0 1
-2.336440 -29.662044 -28.014436 40.866912 1.492190 2.326092 0.028636 -0.001644 137870.000000 0 0 1
-1.505040 -29.766374 -26.839756 40.108287 1.520278 2.303904 0.029749 -0.003073 189605.000000 0 0 1
-2.224340 -30.063004 -25.644206 39.577231 1.496942 2.275691 0.039760 -0.009900 -57372.500000 0 0 1
-1.393740 -30.629374 -24.483296 39.236882 1.525324 2.244631 0.034225 -0.009974 36823.200000 0 0 1
-1.946240 -30.465304 -23.219596 38.354560 1.506999 2.221056 0.048680 -0.016117 -36355.400000 0 0 1
-1.000340 -30.986544 -22.301996 38.190910 1.538524 2.194396 0.041849 -0.010092 520872.000000 0 0 1
-1.547340 -30.712674 -20.864596 37.161728 1.520458 2.166938 0.019702 0.002893 44961.800000 0 0 1
-1.539740 -29.338514 -20.397196 35.765414 1.518363 2.177674 0.018573 -0.006142 -562037.000000 0 0 1
-0.289740 -28.774184 -20.130496 35.118008 1.560727 2.181232 0.037016 -0.020064 -480504.000000 0 0 1
-0.258340 -27.413904 -19.446396 33.611772 1.561373 2.187757 0.041293 -0.027111 -238208.000000 0 0 1
-0.816040 -27.464794 -18.160096 32.935846 1.541093 2.154811 0.037282 -0.025026 16648.100000 0 0 1
-0.833840 -26.186814 -17.500996 31.507609 1.538965 2.159704 0.039494 -0.025767 -89813.300000 0 0 1
-1.669540 -26.108154 -16.204296 30.773402 1.506936 2.125355 0.033159 -0.022330 -214093.000000 0 0 1
-1.729840 -24.855414 -15.642896 29.419112 1.501312 2.131433 0.026965 -0.015061 335162.000000 0 0 1
-2.493040 -24.954114 -14.427796 28.932410 1.471222 2.092863 0.024458 -0.011811 -111402.000000 0 0 1
-2.373840 -23.721014 -13.540296 27.416441 1.471055 2.087337 0.022992 -0.006537 458031.000000 0 0 1
-1.082340 -23.735914 -12.925896 27.048916 1.525229 2.069026 0.019694 -0.007271 -1392.520000 0 0 1
-1.044240 -22.721814 -11.967696 25.702082 1.524871 2.055144 0.021271 -0.003034 210434.000000 0 0 1
0.193460 -22.770714 -11.038796 25.306084 -1.562301 2.022180 0.022035 -0.001528 277108.000000 0 0 1
0.465260 -21.488414 -10.515396 23.927849 -1.549148 2.025797 0.012775 0.001790 327666.000000 0 1 0
1.654660 -21.533714 -9.710496 23.679791 -1.494107 1.993333 0.016325 0.001955 678056.000000 0 1 0
2.082060 -20.116614 -9.280996 22.251967 -1.467664 2.001034 0.010179 0.007675 -753121.000000 0 1 0
2.580760 -19.454014 -10.446296 22.231601 -1.438907 2.059957 0.001850 0.017111 182549.000000 0 1 0
3.522960 -18.429914 -10.188196 21.351167 -1.381920 2.068231 0.007512 0.014505 1156770.000000 0 1 0
4.949860 -18.834414 -9.644096 21.731196 -1.313799 2.030620 0.020762 0.002702 349798.000000 0 1 0
4.866460 -19.175814 -8.278596 21.445966 -1.322262 1.967111 0.022658 -0.002118 -467745.000000 0 1 0
5.901160 -20.017314 -7.900996 22.314621 -1.284114 1.932719 0.020619 -0.002320 -790632.000000 0 1 0
5.425160 -21.041314 -6.847296 22.782773 -1.318458 1.876063 0.022887 -0.003665 -249919.000000 0 1 0
4.536860 -21.947014 -7.431796 23.611144 -1.366949 1.890998 0.021899 -0.005738 -146511.000000 0 1 0
4.250560 -23.034414 -6.520996 24.314088 -1.388318 1.842319 0.034806 -0.008579 407210.000000 0 1 0
3.286760 -24.085714 -7.158496 25.341044 -1.435173 1.857181 0.032864 -0.007738 548733.000000 0 0 1
3.947160 -24.658114 -8.275996 26.307694 -1.412067 1.890815 0.036264 -0.010165 522261.000000 0 0 1
2.990860 -25.407814 -9.037496 27.132611 -1.453621 1.910371 0.020827 -0.006548 541913.000000 0 0 1
3.578560 -26.271784 -10.183896 28.402896 -1.435416 1.937512 0.018927 -0.011130 22673.400000 0 0 1
4.132060 -27.497414 -9.754196 29.467373 -1.421642 1.908177 0.037483 -0.017784 37332.200000 0 0 1
4.665560 -28.216484 -10.859996 30.592106 -1.406930 1.933703 0.046712 -0.010399 52939.500000 0 0 1
4.542760 -29.755144 -10.800496 31.978993 -1.419295 1.915308 0.050526 -0.018190 283237.000000 0 0 1
3.268760 -30.329424 -11.072196 32.452308 -1.463436 1.918972 0.054269 -0.013875 172323.000000 0 0 1
3.341760 -31.725294 -10.922596 33.718908 -1.465849 1.900678 0.055561 -0.017297 200361.000000 0 0 1
2.122960 -32.557424 -11.415696 34.566038 -1.505682 1.907373 0.041902 -0.013352 193110.000000 0 0 1
1.960860 -32.483344 -12.811096 34.973373 -1.510504 1.945837 0.044331 -0.013617 495384.000000 0 0 1
0.820660 -33.178814 -13.313796 35.759815 -1.546067 1.952295 0.032872 -0.010629 224589.000000 0 0 1
0.659760 -33.055694 -14.816296 36.230330 -1.550840 1.992097 0.034966 0.001154 18634.100000 0 0 1
-0.160240 -31.978494 -15.211196 35.412290 1.565785 2.014786 0.025375 0.000475 -116375.000000 0 0 1
-0.588340 -32.057764 -16.561096 36.087620 1.552446 2.047568 0.010406 -0.000662 -393886.000000 0 0 1
-1.561240 -30.979044 -16.992096 35.367640 1.520442 2.071955 0.007199 0.003859 -717289.000000 0 0 1
-2.753740 -31.168524 -16.302996 35.282399 1.482675 2.051126 0.011583 -0.003950 -871219.000000 0 0 1
-3.844340 -30.696904 -17.076196 35.336601 1.446210 2.075153 0.025339 -0.006448 631522.000000 0 0 1
-5.261040 -30.916334 -16.483196 35.428718 1.402241 2.054713 0.026853 -0.006594 157489.000000 0 0 1
-5.490840 -30.058414 -15.368696 34.203135 1.390116 2.036818 0.013931 -0.005086 1133250.000000 0 0 1
-6.910140 -29.857034 -15.113896 34.170490 1.343360 2.028967 0.025993 -0.006427 1358630.000000 0 0 1
-7.498240 -30.894064 -14.122896 34.786822 1.332692 1.988852 0.022141 -0.013619 -133456.000000 0 0 1
-7.772640 -32.191214 -14.681296 36.224697 1.333879 1.988086 0.028577 -0.013244 -173396.000000 0 0 1
-8.513940 -32.933564 -13.742796 36.687481 1.317816 1.954752 0.038440 -0.012091 -4720.770000 0 0 1
-9.047040 -34.249264 -14.312796 38.206245 1.312542 1.954782 0.063934 -0.018105 351477.000000 0 0 1
-8.025740 33.553453 -14.794096 37.538141 -1.336015 1.975894 0.049788 -0.013222 623771.000000 0 0 1
-8.746240 32.409028 -15.108996 36.812004 -1.307205 1.993729 0.071988 -0.020571 -35100.600000 0 0 1
-7.150540 -21.850714 -3.388396 23.239302 1.254535 1.717123 0.026201 -0.018829 279496.000000 0 1 0
-7.078640 -20.802314 -4.311596 22.392706 1.242806 1.764551 0.018277 -0.019535 346378.000000 0 1 0
-5.864940 -20.981214 -5.038896 22.360665 1.298221 1.798095 0.006982 -0.015714 614606.000000 0 1 0
-5.790940 -19.884614 -6.050096 21.576296 1.287407 1.855012 0.005419 -0.015206 -4822.550000 0 1 0
-6.767240 -20.160614 -7.019996 22.394782 1.246948 1.889637 0.011295 -0.011564 -323628.000000 0 1 0
-6.919740 -19.150114 -7.983996 21.871303 1.224053 1.944477 0.010315 -0.013352 -624308.000000 0 1 0
-7.810640 -19.389914 -9.181496 22.831442 1.187861 1.984652 0.018883 -0.014755 351797.000000 0 1 0
-7.139640 -20.217314 -10.195096 23.741404 1.231323 2.014650 0.023799 -0.005094 -135051.000000 0 1 0
-8.017140 -20.532914 -11.227896 24.737436 1.198547 2.041914 0.045673 0.001630 -193612.000000 0 1 0
-7.470340 -21.385714 -12.445396 25.846521 1.234732 2.073175 0.040200 -0.003280 -437133.000000 0 0 1
-6.637140 -20.732514 -13.336096 25.529204 1.260974 2.120443 0.039460 -0.003243 -279965.000000 0 0 1
-6.009840 -21.635514 -14.242896 26.590858 1.299851 2.136051 0.026623 -0.000213 350959.000000 0 0 1
-4.886440 -21.063514 -15.139496 26.396085 1.342843 2.181630 0.025933 0.010586 422633.000000 0 0 1
-3.598940 -20.855614 -14.537596 25.675878 1.399915 2.172681 0.036777 0.000316 356312.000000 0 0 1
-2.720940 -20.255614 -15.460896 25.626797 1.437265 2.218441 0.048220 0.010162 -213078.000000 0 0 1
-2.893840 -18.706314 -15.658496 24.566013 1.417314 2.261922 0.040860 0.019278 -328674.000000 0 1 0
-4.045840 -18.294814 -16.398296 24.899261 1.353152 2.289734 0.039921 0.014674 158468.000000 0 1 0
-3.993840 -18.449414 -17.790096 25.938758 1.357611 2.326567 0.054012 0.004554 215303.000000 0 0 1
-5.321740 -17.991814 -18.509196 26.355581 1.283209 2.349402 0.042386 0.015698 786056.000000 0 0 1
-6.331540 -18.910414 -18.160296 26.971995 1.247710 2.309462 0.038079 0.017006 689296.000000 0 0 1
-7.599840 -18.673614 -18.826796 27.584592 1.184285 2.321990 0.038501 0.010690 697534.000000 0 0 1
-8.713040 -19.584214 -18.329096 28.203090 1.152191 2.278245 0.056221 0.001649 -649244.000000 0 0 1
-8.452840 -20.994414 -18.476096 29.216127 1.188031 2.255436 0.054101 0.008955 103464.000000 0 0 1
-9.477440 -21.712814 -17.864396 29.671617 1.159233 2.216888 0.054097 -0.002818 -235085.000000 0 0 1
-9.058240 -23.150114 -17.874296 30.618131 1.197827 2.194175 0.052702 -0.008930 -593277.000000 0 0 1
-9.055640 -23.632514 -19.236196 31.788860 1.204869 2.220718 0.044094 -0.011723 560744.000000 0 0 1
-8.276240 -24.835014 -19.490996 32.636989 1.249122 2.210809 0.070656 -0.029373 1306030.000000 0 0 1
-6.716840 -24.578614 -19.382396 32.014083 1.304030 2.221107 0.087236 -0.033143 135111.000000 0 0 1
-6.203940 -23.831514 -20.507296 32.046515 1.316124 2.265194 0.093210 -0.019717 195565.000000 0 0 1
-5.992740 -22.477914 -20.202296 30.810750 1.310251 2.285892 0.073884 -0.014419 -159082.000000 0 0 1
-4.918140 -22.120014 -19.119696 29.648709 1.352016 2.271655 0.088283 -0.006733 689705.000000 0 0 1
-3.583240 -22.495914 -19.509396 29.992037 1.412839 2.279020 0.073348 -0.015449 243988.000000 0 0 1
-2.719240 -22.192414 -18.458996 28.993656 1.448874 2.260951 0.035462 -0.011799 -303915.000000 0 0 1
-1.386340 -22.949114 -18.541996 29.536239 1.510460 2.249483 0.047902 -0.013506 388471.000000 0 0 1
-0.366240 -22.365414 -19.352796 29.578313 1.554422 2.284040 0.054269 -0.009561 1336420.000000 0 0 1
0.904660 -23.081314 -19.366696 30.143563 -1.531622 2.268529 0.035271 -0.011948 1936980.000000 0 0 1
1.978260 -22.421714 -20.314196 30.320181 -1.482795 2.304991 0.050211 -0.010638 480377.000000 0 0 1
1.744860 -22.531214 -21.707696 31.335670 -1.493509 2.336088 0.059857 -0.021676 -227875.000000 0 0 1
1.204160 -21.395714 -22.280996 30.913903 -1.514575 2.375671 0.060755 -0.008934 -428851.000000 0 0 1
0.898460 -21.600614 -23.802796 32.155355 -1.529226 2.404229 0.072590 -0.016253 -151381.000000 0 0 1
0.465060 -20.454914 -24.543396 31.953061 -1.548064 2.446677 0.054269 -0.014688 399468.000000 0 0 1
-0.944640 -20.244514 -24.427196 31.739890 1.524169 2.449020 0.053150 -0.013098 542808.000000 0 0 1
-1.530040 -19.140014 -25.365976 31.813738 1.491027 2.493651 0.043967 -0.003293 -64159.600000 0 0 1
-1.117440 -17.877814 -25.012996 30.765482 1.508373 2.520119 0.038085 -0.004787 -169426.000000 0 0 1
-1.743440 -16.838714 -25.736786 30.805260 1.467626 2.559779 0.034325 -0.008809 -12441.500000 0 0 1
-1.137040 -15.448214 -25.424246 29.771337 1.497325 2.594391 0.033492 -0.007614 -82063.300000 0 0 1
0.008160 -15.119714 -26.160266 30.215317 -1.570257 2.617533 0.041514 -0.008960 -372276.000000 0 0 1
0.817460 -14.023814 -25.753736 29.335824 -1.512571 2.642242 0.038204 -0.014476 538060.000000 0 0 1
0.194760 -12.592014 -25.929866 28.826285 -1.555331 2.689470 0.043505 -0.015933 -225796.000000 0 0 1
1.021960 -11.577614 -25.450436 27.978747 -1.482754 2.713200 0.039416 -0.013716 -192280.000000 0 0 1
0.734760 -10.419214 -26.239776 28.242269 -1.500393 2.762757 0.035797 -0.012753 -495749.000000 0 0 1
1.571860 -9.105514 -26.044856 27.635406 -1.399854 2.800666 0.050038 -0.017489 1515970.000000 0 0 1
3.011360 -9.157514 -26.184426 27.902554 -1.253095 2.788836 0.062508 -0.016977 1018440.000000 0 0 1
3.418460 -9.556014 -27.551856 29.361677 -1.227253 2.788654 0.055801 -0.011831 -240769.000000 0 0 1
4.849760 -9.137514 -27.987256 29.837910 -1.082850 2.787543 0.049251 -0.006851 -16028.500000 0 0 1
4.988560 -7.763614 -28.211036 29.682015 -0.999672 2.825451 0.053615 -0.009050 -492540.000000 0 0 1
6.181860 -7.382714 -28.820986 30.386989 -0.873697 2.819152 0.042184 -0.004514 -176698.000000 0 0 1
7.397360 -7.120314 -27.814476 29.649029 -0.766317 2.787970 0.050154 -0.013447 837264.000000 0 0 1
8.144060 -8.205014 -27.278866 29.627428 -0.789126 2.740744 0.044509 -0.013234 659490.000000 0 0 1
8.788760 -9.022114 -28.257176 30.937176 -0.798499 2.722289 0.048026 -0.014761 -755187.000000 0 0 1
8.977160 -10.509714 -27.799506 31.046031 -0.863882 2.680189 0.042514 -0.013310 30309.900000 0 0 1
7.773160 -11.243914 -27.638546 30.834021 -0.965919 2.682298 0.044650 -0.020845 46704.400000 0 0 1
7.820960 -12.424114 -26.844446 30.596574 -1.008969 2.641145 0.045122 -0.019769 477227.000000 0 0 1
8.870560 -13.593814 -27.155146 31.636697 -0.992635 2.602828 0.036222 -0.023795 530788.000000 0 0 1
8.604960 -14.133914 -28.407306 32.875339 -1.023919 2.614139 0.051915 -0.032999 6640.200000 0 0 1
9.548860 -15.141114 -28.704706 33.828896 -1.008139 2.583990 0.041607 -0.035796 211296.000000 0 0 1
8.973860 -16.098914 -29.786336 35.027575 -1.062274 2.587481 0.056785 -0.033375 158786.000000 0 0 1
8.670460 -15.470614 -31.039076 35.748301 -1.059968 2.622495 0.054429 -0.028830 318902.000000 0 0 1
7.984960 -16.324314 -31.953236 36.759381 -1.115870 2.624487 0.064247 -0.026921 48235.700000 0 0 1
6.688760 -15.758314 -32.570686 36.795565 -1.169384 2.657676 0.065738 -0.018950 22452.500000 0 0 1
6.922660 -14.532614 -33.220296 36.914878 -1.126244 2.690374 0.078849 -0.021213 -5332.270000 0 0 1
5.736160 -14.031714 -33.804236 37.047523 -1.182727 2.720043 0.046303 -0.024758 121402.000000 0 0 1
5.849560 -12.715414 33.921351 36.695465 -1.139627 0.391332 0.090874 -0.021703 39801.600000 0 0 1
6.437360 -12.841514 32.627777 35.649908 -1.106115 0.414724 0.088888 -0.012730 136002.000000 0 0 1
6.648360 -11.574614 32.050172 34.718668 -1.049419 0.394629 0.085953 -0.021877 -447043.000000 0 0 1
7.113660 -11.638514 30.576752 33.481293 -1.022170 0.419608 0.073986 -0.017369 -42833.700000 0 0 1
6.156060 -12.129714 29.671592 32.640932 -1.101152 0.429845 0.073775 -0.010611 137815.000000 0 0 1
6.678360 -12.023614 28.347612 31.508013 -1.063788 0.451725 0.064984 -0.011615 76683.800000 0 0 1
5.888760 -12.795914 27.273222 30.695954 -1.139487 0.476740 0.052324 -0.021975 -170004.000000 0 0 1
6.064060 -14.181714 27.258872 31.319961 -1.166728 0.514913 0.061207 -0.015917 -161298.000000 0 0 1
5.930760 -14.880214 26.029032 30.563135 -1.191526 0.551675 0.039725 -0.014915 113306.000000 0 0 1
4.480660 -15.242714 25.606952 30.135239 -1.284895 0.555315 0.037319 -0.022006 1041790.000000 0 0 1
3.621560 -14.070114 25.311822 29.185136 -1.318871 0.521075 0.019056 -0.023718 -536608.000000 0 0 1
2.322660 -14.506414 25.164132 29.138709 -1.412031 0.528433 0.017204 -0.021066 -925836.000000 0 0 1
1.383460 -13.304014 24.999672 28.353031 -1.467181 0.491283 0.021054 -0.015165 -531153.000000 0 0 1
1.517160 -12.656114 23.752652 26.956771 -1.451490 0.492532 -0.002411 -0.000737 -329019.000000 0 0 1
0.830260 -11.461214 23.535372 26.190886 -1.498482 0.454207 0.003861 0.006289 -1308540.000000 0 0 1
-0.600340 -11.533314 23.131752 25.854510 1.518791 0.463061 0.031079 -0.005068 -1417840.000000 0 0 1
-0.922340 -12.102314 21.865952 25.008730 1.494731 0.506737 0.026403 -0.007640 -213258.000000 0 0 1
-2.026740 -12.979214 22.006652 25.629288 1.415894 0.538161 0.037029 -0.003613 256519.000000 0 0 1
-2.541740 -13.648714 20.688052 24.914722 1.386680 0.591053 0.042722 -0.007909 -110785.000000 0 1 0
-1.585640 -14.487014 20.100852 24.828051 1.461778 0.627322 0.054850 -0.022454 -679167.000000 0 1 0
-1.942140 -15.183414 18.920152 24.336806 1.443575 0.680228 0.052459 -0.030016 216080.000000 0 1 0
-2.877040 -16.411814 19.102252 25.347999 1.397257 0.717275 0.034380 -0.023242 428664.000000 0 0 1
-2.484340 -17.314014 18.097452 25.168727 1.428282 0.768369 0.022250 -0.014759 -30145.800000 0 0 1
-3.353640 -18.452914 18.127052 26.083462 1.391018 0.802427 0.027090 -0.007437 265573.000000 0 0 1
-2.851140 -19.749014 17.449052 26.507018 1.427418 0.852264 0.024840 -0.006107 372495.000000 0 0 1
-1.753540 -20.387214 18.099252 27.318425 1.484996 0.846606 0.031013 -0.015194 -48557.300000 0 0 1
-1.865140 -21.823114 17.949652 28.318140 1.485537 0.884266 0.028797 -0.020028 -421210.000000 0 0 1
-0.699140 -22.661214 18.458452 29.235832 1.539954 0.887485 0.040661 -0.014840 -702891.000000 0 0 1
0.308860 -22.833514 17.534252 28.790880 -1.557271 0.915971 0.060125 -0.022026 -1046580.000000 0 0 1
1.293460 -23.722814 18.006052 29.810449 -1.516326 0.922263 0.071194 -0.014572 611981.000000 0 0 1
2.676160 -23.590814 17.258452 29.352045 -1.457838 0.942235 0.067070 -0.022094 720770.000000 0 0 1
3.374860 -22.426314 17.602952 28.708765 -1.421431 0.910747 0.063289 -0.017531 13013.600000 0 0 1
4.480260 -22.181414 16.734652 28.144919 -1.371495 0.934042 0.046655 -0.014833 465341.000000 0 0 1
5.116860 -20.791214 16.942752 27.304097 -1.329485 0.901390 0.045445 -0.013758 -229146.000000 0 0 1
5.905860 -20.717214 18.143252 28.164867 -1.293092 0.870845 0.050981 -0.014581 -99564.300000 0 0 1
6.171960 -19.460114 18.612952 27.626638 -1.263672 0.831549 0.046248 -0.015688 132386.000000 0 0 1
7.284060 -18.626314 17.935052 26.863790 -1.198018 0.839776 0.061232 -0.018546 -498553.000000 0 0 1
6.990360 -18.127214 16.650552 25.587144 -1.202741 0.862239 0.052368 -0.017857 -266720.000000 0 0 1
7.890760 -17.194514 16.124052 24.857604 -1.140556 0.864978 0.061389 -0.012311 38395.300000 0 1 0
7.195260 -16.421914 14.957952 23.349333 -1.157841 0.875496 0.039156 -0.003889 165174.000000 0 1 0
6.636260 -17.169014 13.911452 23.072570 -1.201960 0.923611 0.041415 -0.002058 229357.000000 0 1 0
5.759760 -16.392914 13.119952 21.772359 -1.232913 0.924045 0.028322 -0.003716 152477.000000 0 1 0
6.207160 -16.596714 11.661652 21.212588 -1.212903 0.988730 0.026184 -0.003456 117019.000000 0 1 0
7.472060 -16.006714 11.462452 21.057882 -1.134053 0.995205 0.032359 -0.003330 -156457.000000 0 1 0
8.058160 -16.566614 10.300452 21.106538 -1.118080 1.060974 0.039612 0.002572 2112.700000 0 1 0
9.411860 -15.950414 9.920752 21.010001 -1.037710 1.079021 0.046204 -0.003531 173189.000000 0 1 0
10.053460 -16.620014 8.851452 21.345846 -1.026781 1.143218 0.049963 -0.001164 73196.200000 0 1 0
11.374460 -16.138714 8.603752 21.537432 -0.956861 1.159848 0.045357 -0.008479 449743.000000 0 1 0
12.218360 -17.157314 7.865852 22.484069 -0.951971 1.213395 0.048053 -0.010558 -251176.000000 0 1 0
12.596660 -18.353014 8.509852 23.831210 -0.969288 1.205647 0.069817 -0.013638 -54133.900000 0 1 0
13.221560 -19.229014 7.566952 24.532089 -0.968452 1.257232 0.065787 -0.017968 37285.700000 0 1 0
13.911060 -20.326014 8.374252 26.015237 -0.970619 1.243063 0.072195 -0.020949 -674820.000000 0 0 1
13.078260 -21.293314 8.854552 26.511303 -1.020004 1.230261 0.077514 -0.018723 -558877.000000 0 0 1
13.815060 -22.264814 9.588352 27.901870 -1.015448 1.220000 0.072905 -0.011688 119468.000000 0 0 1
12.931160 -23.397514 10.180052 28.605804 -1.065904 1.206948 0.077979 -0.010983 -23068.800000 0 0 1
12.329860 -22.755414 11.297552 28.239494 -1.074237 1.159212 0.069081 -0.020094 -681566.000000 0 0 1
11.271160 -23.347814 11.985452 28.562397 -1.121044 1.137766 0.074427 -0.017846 -186221.000000 0 0 1
11.481760 -24.753414 12.548252 30.033664 -1.136488 1.139767 0.064848 -0.018506 -442740.000000 0 0 1
12.644860 -24.875114 13.339252 30.928942 -1.100504 1.124877 0.044889 -0.015577 -55127.000000 0 0 1
12.721360 -26.210654 13.813252 32.243407 -1.118937 1.128069 0.038889 -0.020360 283241.000000 0 0 1
13.879460 -26.422434 14.828952 33.326900 -1.087121 1.109673 0.035120 -0.017000 292445.000000 0 0 1
13.607460 -25.819044 16.088352 33.325982 -1.085758 1.066996 0.032513 -0.009265 764227.000000 0 0 1
14.572860 -26.261144 17.078652 34.549910 -1.064183 1.053746 0.028650 -0.007487 294268.000000 0 0 1
14.528360 -25.607664 18.463852 34.752547 -1.054735 1.010668 0.033336 -0.001775 -47867.500000 0 0 1
14.972060 -24.238714 18.578252 34.012193 -1.017469 0.992947 0.020468 -0.008838 496458.000000 0 0 1
16.283660 -24.166914 19.140952 34.865074 -0.977872 0.989628 0.025625 -0.005490 278158.000000 0 0 1
16.668860 -22.685614 19.578252 34.289881 -0.937110 0.963118 0.023987 -0.013335 -204637.000000 0 0 1
16.822960 -21.844814 18.484752 33.194788 -0.914547 0.980199 0.021285 -0.008746 511628.000000 0 0 1
15.634660 -21.237814 17.960752 31.907303 -0.936205 0.972901 0.037488 -0.007890 -353829.000000 0 0 1
15.929060 -20.349414 16.767352 30.805482 -0.906646 0.995245 0.018957 -0.011975 42424.000000 0 0 1
16.668460 -19.162014 17.025752 30.576078 -0.854879 0.980229 0.014679 -0.003672 718991.000000 0 0 1
18.071860 -19.450414 17.144052 31.604260 -0.822121 0.997433 0.018388 -0.012134 -50541.600000 0 0 1
18.877460 -18.174814 17.373752 31.440891 -0.766437 0.985334 0.029964 -0.007008 -592049.000000 0 0 1
19.060960 -17.858714 18.746552 32.151004 -0.752846 0.948284 0.027148 -0.009155 122047.000000 0 0 1
19.504360 -16.557414 18.986552 31.859962 -0.703860 0.932363 0.036008 -0.011431 -586897.000000 0 0 1
19.911160 -16.443914 20.459552 32.946166 -0.690314 0.900779 0.037714 -0.004652 -678918.000000 0 0 1
21.107860 -17.120014 20.660652 34.139408 -0.681456 0.920798 0.037820 -0.003801 -699035.000000 0 0 1
21.566060 -16.891014 21.975252 35.118556 -0.664426 0.894710 0.042290 0.004140 92168.000000 0 0 1
32.930293 -1.496614 -7.773796 33.868510 -0.045417 1.802390 0.125806 -0.032317 -347513.000000 0 0 1
34.291643 -1.293614 -8.062096 35.250356 -0.037706 1.801548 0.101982 -0.032847 -201535.000000 0 0 1
35.071093 -2.446514 -7.942696 36.042384 -0.069646 1.792991 0.103786 -0.049245 -550728.000000 0 0 1
-35.548790 -2.067414 -8.420596 36.590943 0.058092 1.803005 0.076961 -0.039828 -652813.000000 0 0 1
-34.647041 -3.142114 -8.515796 35.816325 0.090442 1.810858 0.089425 -0.041197 -220266.000000 0 0 1
-33.392910 -2.628614 -8.929196 34.665929 0.078556 1.831312 0.150829 -0.047258 415932.000000 0 0 1
-32.256400 -3.711814 -8.809196 33.643051 0.114568 1.835728 0.144873 -0.045339 45111.000000 0 0 1
-31.914110 -3.957314 -7.471896 33.015148 0.123369 1.799091 0.120371 -0.047103 1210740.000000 0 0 1
-30.688660 -4.756314 -7.378096 31.919472 0.153763 1.804053 0.111574 -0.046775 1233640.000000 0 0 1
-30.242590 -4.715614 -5.893396 31.170233 0.154681 1.761013 0.094131 -0.054177 -141787.000000 0 0 1
-29.984530 -3.396114 -5.433196 30.661462 0.112782 1.748937 0.090623 -0.050177 340286.000000 0 0 1
-29.585120 -3.347314 -4.078996 30.051989 0.112663 1.706948 0.094476 -0.050606 -223046.000000 0 0 1
-29.304210 -1.951914 -3.515496 29.578800 0.066510 1.689930 0.102159 -0.043452 -245733.000000 0 0 1
-28.060330 -1.310914 -3.697796 28.333273 0.046684 1.701680 0.083192 -0.034198 335841.000000 0 0 1
-28.121360 -0.048714 -3.012196 28.282267 0.001732 1.677503 0.092649 -0.041580 -524299.000000 0 0 1
-26.720960 0.500786 -2.699996 26.861692 -0.018739 1.671481 0.109786 -0.024033 -4166.660000 0 0 1
-26.031610 -0.364614 -1.770296 26.094284 0.014006 1.638691 0.077982 -0.026932 915305.000000 0 0 1
-24.691940 0.029986 -1.490196 24.736886 -0.001214 1.631075 0.080730 -0.022752 524514.000000 0 1 0
-24.081440 -0.743614 -0.265496 24.094382 0.030869 1.581816 0.062526 -0.018389 -30528.100000 0 1 0
-24.189440 -2.177314 -0.383896 24.290268 0.089769 1.586602 0.066024 -0.021056 276180.000000 0 1 0
-23.368040 -2.777014 0.593204 23.539945 0.118283 1.545594 0.049623 -0.016213 -524382.000000 0 1 0
-23.260340 -4.330914 0.735004 23.671512 0.184085 1.539741 0.038186 -0.012783 -788668.000000 0 1 0
-24.429240 -4.898314 1.224604 24.945559 0.197886 1.521686 0.030714 -0.016800 -262822.000000 0 1 0
-24.410040 -6.330614 1.107004 25.241874 0.253754 1.526926 0.014662 -0.009353 -699087.000000 0 0 1
-25.734890 -6.910114 1.572004 26.692798 0.262324 1.511870 0.039395 -0.010298 -663208.000000 0 0 1
-25.884650 -6.842914 2.943404 26.935186 0.258449 1.461300 0.041310 -0.009259 -254425.000000 0 0 1
-27.054450 -7.452514 3.415304 28.269198 0.268797 1.449687 0.050378 0.000601 -276391.000000 0 0 1
-27.139640 -7.582514 4.975304 28.614826 0.272442 1.396037 0.040845 -0.004080 -257077.000000 0 0 1
-26.273230 -8.568614 5.471504 28.171637 0.315258 1.375334 0.056240 0.016475 -97457.300000 0 0 1
-26.426850 -8.814114 6.863604 28.691045 0.321926 1.329229 0.044115 0.012378 -162004.000000 0 0 1
-25.754580 -7.772514 7.720504 27.987793 0.293100 1.291320 0.045684 0.014989 287031.000000 0 0 1
-24.349240 -7.590914 7.501204 26.585250 0.302203 1.284755 0.072325 -0.002356 691440.000000 0 0 1
-23.901240 -6.292414 7.812504 25.921014 0.257426 1.264639 0.063416 -0.007644 32906.300000 0 0 1
-22.443340 -6.072914 7.327104 24.377659 0.264260 1.265510 0.081319 -0.011353 342998.000000 0 1 0
-21.516640 -6.617114 8.292704 23.990018 0.298355 1.217840 0.095307 -0.023042 6095.490000 0 1 0
-20.237740 -6.259914 7.814304 22.579105 0.299984 1.217401 0.087179 -0.021968 260676.000000 0 1 0
-19.083540 -6.632414 8.830604 22.048809 0.334487 1.158731 0.098373 -0.024120 435771.000000 0 1 0
-18.946140 -5.879614 10.009404 22.219682 0.300910 1.103499 0.086781 -0.013446 -334085.000000 0 1 0
-17.872240 -6.258914 10.802104 21.800835 0.336856 1.052397 0.075118 -0.017637 -359325.000000 0 1 0
-17.473240 -5.094014 11.753704 21.665933 0.283670 0.997390 0.047043 -0.011956 -257921.000000 0 1 0
-18.489640 -4.853714 12.673404 22.935573 0.256718 0.985357 0.063134 -0.021064 -215135.000000 0 1 0
-18.778140 -3.498314 13.039204 23.127421 0.184186 0.971819 0.073196 -0.018273 45694.400000 0 1 0
-20.048940 -3.356714 13.896004 24.623697 0.165887 0.971169 0.068715 -0.025356 -248934.000000 0 1 0
-19.883140 -3.941014 15.148004 25.304800 0.195673 0.929017 0.073596 -0.023537 64989.700000 0 0 1
-21.102840 -3.980314 15.833504 26.680941 0.186425 0.935472 0.052688 -0.017309 -57843.300000 0 0 1
-20.836840 -4.868514 17.125204 27.407097 0.229532 0.895863 0.042623 -0.007429 331113.000000 0 0 1
-21.931940 -4.790014 18.036204 28.796856 0.215027 0.893966 0.040278 -0.010356 744926.000000 0 0 1
-21.700840 -5.506014 19.187904 29.485900 0.248480 0.862227 0.044661 -0.009926 -179524.000000 0 0 1
-22.670840 -5.081814 20.316004 30.863115 0.220511 0.852289 0.046106 -0.006316 -223181.000000 0 0 1
-22.408340 -3.713414 20.704304 30.734205 0.164223 0.831651 0.052842 -0.007061 486519.000000 0 0 1
-23.186840 -3.394914 21.861804 32.048299 0.145383 0.820095 0.057972 -0.014455 93292.100000 0 0 1
-23.078140 -1.909114 22.392504 32.212878 0.082536 0.802180 0.054282 -0.005881 -133750.000000 0 0 1
-24.005840 -1.184614 21.643604 32.343922 0.049307 0.837704 0.063065 -0.010541 -214547.000000 0 0 1
-23.859640 0.183386 21.931304 32.408304 -0.007686 0.827500 0.059373 -0.013028 552781.000000 0 0 1
-25.094330 1.064986 21.460904 33.036798 -0.042414 0.863730 0.054206 -0.013292 820361.000000 0 0 1
-26.084260 0.899386 22.443304 34.422368 -0.034466 0.860580 0.055385 -0.011841 86213.600000 0 0 1
-27.391020 1.385686 22.158304 35.258737 -0.050546 0.891239 0.047976 -0.008600 840121.000000 0 0 1
-28.378010 1.451186 23.351704 36.779335 -0.051093 0.882900 0.046138 -0.007835 -139701.000000 0 0 1
-28.021510 2.253986 24.434704 37.247017 -0.080265 0.855266 0.043283 -0.008905 -339960.000000 0 0 1
-28.893350 2.036386 25.502204 38.591903 -0.070363 0.848889 0.043839 -0.010885 -324371.000000 0 0 1
-28.443690 2.702986 26.808704 39.179794 -0.094745 0.817224 0.060557 -0.015400 -288971.000000 0 0 1
-27.220430 2.235686 27.296004 38.613753 -0.081949 0.785693 0.051586 -0.023303 -104310.000000 0 0 1
-26.863740 3.051786 28.469804 39.261988 -0.113117 0.759582 0.045118 -0.028445 602530.000000 0 0 1
-25.630970 2.643986 29.361304 39.064350 -0.102792 0.720291 0.063485 -0.030781 500539.000000 0 0 1
-25.837350 1.562986 30.254204 39.816183 -0.060420 0.707719 0.059672 -0.024924 -154252.000000 0 0 1
-24.685640 1.229486 30.979804 39.631310 -0.049765 0.673409 0.044449 -0.029268 -112083.000000 0 0 1
-24.882040 -0.019214 31.787004 40.367436 0.000772 0.664149 0.042937 -0.034955 -56273.300000 0 0 1
-24.961840 -1.146514 30.894104 39.734791 0.045898 0.680103 0.056601 -0.026211 75948.300000 0 0 1
-25.489060 -2.297014 31.525504 40.605737 0.089875 0.681894 0.054327 -0.016609 -251225.000000 0 0 1
-26.444840 -3.193214 30.652504 40.609139 0.120168 0.715420 0.043000 -0.015349 1270910.000000 0 0 1
-27.793300 -2.741814 30.423404 41.298530 0.098332 0.742663 0.059089 -0.018090 869730.000000 0 0 1
-27.859730 -1.712214 29.426704 40.558934 0.061381 0.758993 0.060255 -0.017256 -907907.000000 0 0 1
-29.287300 -1.365214 29.038404 41.265466 0.046581 0.790208 0.049712 -0.018211 211478.000000 0 0 1
-30.053210 -0.762014 30.124204 42.558710 0.025350 0.784379 0.049402 -0.007906 -362738.000000 0 0 1
-31.367010 -0.457314 29.740604 43.227329 0.014578 0.812060 0.038369 -0.008486 155262.000000 0 0 1
-32.211980 -0.118814 31.037304 44.731868 0.003688 0.803972 0.041024 0.001792 -258213.000000 0 0 1
-32.365340 -1.255014 31.854204 45.428852 0.038757 0.793733 0.045930 0.002595 32763.000000 0 0 1
-32.827720 -1.034714 33.179904 46.686570 0.031509 0.780311 0.060887 0.009506 26158.000000 0 0 1
-33.149740 -2.238114 34.074204 47.591657 0.067413 0.772784 0.058976 0.005986 294646.000000 0 0 1
-34.218466 -2.955014 33.458504 47.949004 0.086144 0.798484 0.049993 -0.005917 271565.000000 0 0 1
-34.221197 -4.278414 33.868204 48.336843 0.124377 0.794459 0.042719 -0.008454 -363593.000000 0 0 1
-35.472762 -5.098414 33.507804 49.062038 0.142750 0.818978 0.042275 -0.013632 -550166.000000 0 0 1
35.502153 -4.692514 -34.183945 49.507218 -0.131414 2.332954 0.051486 -0.021133 -995256.000000 0 0 1
34.287283 -5.131614 33.790904 48.412565 -0.148563 0.798226 0.050885 -0.025622 -631787.000000 0 0 1
33.040003 -4.702814 -33.923245 47.587234 -0.141387 2.364371 0.066227 -0.029588 -566698.000000 0 0 1
32.837803 -5.445914 -32.746345 46.693708 -0.164347 2.348017 0.062245 -0.024860 386031.000000 0 0 1
32.251863 -6.774814 -32.846445 46.529235 -0.207049 2.354534 0.064874 -0.021408 402716.000000 0 0 1
30.822593 -6.952914 -33.456145 46.018354 -0.221865 2.384764 0.058169 -0.022378 422857.000000 0 0 1
29.761083 -6.432414 -32.688545 44.672575 -0.212861 2.391662 0.057825 -0.023843 410363.000000 0 0 1
28.499443 -6.841114 -33.192645 44.280591 -0.235586 2.418251 0.053422 -0.021066 649106.000000 0 0 1
27.233413 -6.447214 -32.357445 42.781183 -0.232459 2.428508 0.063069 -0.036321 587458.000000 0 0 1
26.112783 -7.250414 -32.704945 42.474220 -0.270835 2.449630 0.062463 -0.028055 362822.000000 0 0 1
24.943083 -6.756314 -32.058545 41.177123 -0.264522 2.463152 0.067616 -0.026215 -532772.000000 0 0 1
23.666783 -7.363014 -32.639645 40.983863 -0.301620 2.492119 0.061865 -0.028394 -589153.000000 0 0 1
23.588683 -8.763214 -32.454645 41.067309 -0.355699 2.482061 0.059252 -0.037379 230352.000000 0 0 1
23.144983 -9.112214 -31.141545 39.856223 -0.375065 2.467618 0.066082 -0.038966 -524928.000000 0 0 1
22.914083 -10.643914 -30.982145 39.978012 -0.434858 2.457479 0.063535 -0.028697 78073.400000 0 0 1
21.738583 -11.170514 -31.575045 39.929060 -0.474671 2.482876 0.073507 -0.031286 296600.000000 0 0 1
21.591683 -12.549214 -31.290145 40.034444 -0.526486 2.467992 0.061469 -0.015944 -1306810.000000 0 0 1
20.609083 -13.333614 -32.171945 40.466698 -0.574248 2.489841 0.057334 -0.012835 -478323.000000 0 0 1
19.261683 -13.201314 -31.845845 39.489808 -0.600837 2.508889 0.066055 -0.017414 -405432.000000 0 0 1
18.738783 -11.890814 -32.235745 39.136641 -0.565442 2.538652 0.060051 -0.027950 -833079.000000 0 0 1
17.336583 -11.577714 -31.665545 37.911836 -0.588801 2.559368 0.049794 -0.028009 13156.100000 0 0 1
16.287783 -12.243414 -32.311245 38.199602 -0.644584 2.578958 0.028629 -0.018547 553442.000000 0 0 1
14.998083 -11.749114 -31.904645 37.160336 -0.664521 2.603265 0.037175 -0.016567 1145050.000000 0 0 1
13.814083 -12.096214 -32.855145 37.637851 -0.719194 2.631969 0.033960 -0.014412 -429605.000000 0 0 1
13.441783 -13.455814 -32.853645 37.961855 -0.785920 2.616821 0.045853 -0.012557 -364996.000000 0 0 1
12.187983 -13.735314 -33.384545 38.101622 -0.845016 2.638711 0.037797 -0.016127 -261720.000000 0 0 1
10.988883 -13.535814 -32.418645 36.809542 -0.888879 2.648162 0.033469 -0.011210 -490094.000000 0 0 1
10.731983 -12.219314 -32.118145 36.000866 -0.850111 2.672877 0.070122 -0.010679 -289369.000000 0 0 1
9.707283 -12.090914 -31.163745 34.808053 -0.894315 2.679907 0.059513 -0.017354 -445027.000000 0 0 1
8.525483 -11.299514 -31.706445 34.722637 -0.924421 2.721705 0.048047 -0.005460 -710602.000000 0 0 1
8.831083 -9.967914 -31.962345 34.625696 -0.845798 2.746814 0.049590 -0.008523 761870.000000 0 0 1
7.701883 -9.249414 -32.474045 34.632849 -0.876439 2.786649 0.048042 -0.005473 494394.000000 0 0 1
8.072883 -7.763514 -32.672945 34.539324 -0.765865 2.811350 0.048520 -0.004740 12161.300000 0 0 1
8.327483 -7.027114 -31.518545 33.348853 -0.700911 2.808747 0.035840 -0.007201 350648.000000 0 0 1
9.024183 -5.838614 -31.837845 33.603179 -0.574261 2.816012 0.036915 -0.003621 -46450.300000 0 0 1
9.305583 -4.941014 -30.610345 32.372839 -0.488118 2.810096 0.036966 -0.009168 -190381.000000 0 0 1
8.106283 -4.406514 -30.098445 31.480876 -0.497910 2.844142 0.038339 -0.007542 -108120.000000 0 0 1
8.184983 -3.621114 -28.982245 30.332770 -0.416524 2.842066 0.042037 -0.005141 -390969.000000 0 0 1
6.828983 -3.037014 -28.615045 29.574977 -0.418458 2.886114 0.039955 -0.007649 -1182230.000000 0 0 1
6.177183 -2.214514 -29.596445 30.315198 -0.344226 2.923402 0.024844 -0.006053 898300.000000 0 0 1
4.913383 -1.629014 -29.246845 29.701397 -0.320141 2.966417 0.027173 -0.008732 833863.000000 0 0 1
3.745283 -2.644114 -29.102345 29.461245 -0.614732 2.985343 0.027112 -0.007346 -833820.000000 0 0 1
3.888683 -3.438914 -27.991945 28.469229 -0.724095 2.958224 0.032671 -0.012430 -374272.000000 0 0 1
2.928983 -4.463414 -27.894145 28.400428 -0.990061 2.952490 0.056725 -0.010842 1696.490000 0 0 1
3.272483 -5.412614 -26.689445 27.428671 -1.026999 2.908901 0.066010 -0.020099 101706.000000 0 0 1
2.916283 -4.905714 -25.407345 26.040429 -1.034455 2.920637 0.062825 -0.028788 35416.500000 0 0 1
3.191883 -5.867414 -24.428345 25.325061 -1.072570 2.874687 0.066608 -0.034638 63858.700000 0 0 1
2.945683 -5.299214 -23.042045 23.826342 -1.063456 2.884301 0.054809 -0.037701 -46149.000000 0 1 0
3.991583 -4.409814 -22.746045 23.510886 -0.835138 2.885822 0.042787 -0.032038 47128.900000 0 1 0
3.696283 -3.709914 -21.581945 22.208249 -0.787239 2.903538 0.030233 -0.027976 -345377.000000 0 1 0
4.732383 -2.605614 -21.392645 22.064223 -0.503298 2.894234 0.036184 -0.026034 -807855.000000 0 1 0
5.977583 -3.031314 -20.972145 22.017067 -0.469322 2.832271 0.033085 -0.029359 -1275220.000000 0 1 0
6.739283 -1.922014 -20.601045 21.760403 -0.277820 2.813696 0.040214 -0.022194 -735651.000000 0 1 0
8.175983 -2.289314 -20.278345 21.984061 -0.273013 2.745074 0.047436 -0.027218 -836645.000000 0 1 0
8.996083 -2.451614 -21.462745 23.400627 -0.266059 2.731758 0.059032 -0.037169 743857.000000 0 1 0
10.245183 -3.120914 -21.309145 23.849183 -0.295692 2.675867 0.052274 -0.033801 560052.000000 0 1 0
11.377983 -2.331314 -20.665345 23.705485 -0.202100 2.629567 0.046926 -0.028879 -927394.000000 0 1 0
11.145483 -2.321714 -19.266445 22.378741 -0.205373 2.607884 0.042530 -0.014025 118697.000000 0 1 0
12.199483 -1.732914 -18.540045 22.261259 -0.141104 2.555013 0.038630 -0.019605 -168023.000000 0 1 0
12.424283 -0.180014 -18.689745 22.443301 -0.014488 2.554860 0.032059 -0.011937 -103900.000000 0 1 0
12.960783 0.331886 -19.884845 23.738136 0.025601 2.563809 0.037335 -0.015687 174842.000000 0 1 0
13.074583 1.712686 -19.767245 23.761776 0.130252 2.553306 0.058413 -0.025677 32611.200000 0 1 0
13.619283 2.442986 -21.018945 25.164441 0.177489 2.559409 0.060683 -0.029984 -422195.000000 0 0 1
14.969383 2.286786 -21.344745 26.170784 0.151592 2.524552 0.059811 -0.028473 -244083.000000 0 0 1
15.306983 3.335086 -22.262345 27.222023 0.214527 2.528385 0.066100 -0.036993 -42486.300000 0 0 1
16.773883 3.180486 -22.720245 28.419855 0.187385 2.497175 0.046515 -0.028660 -35206.900000 0 0 1
17.005683 2.277286 -23.821045 29.356796 0.133121 2.517395 0.044545 -0.022609 179360.000000 0 0 1
17.487383 1.019786 -23.388845 29.221338 0.058250 2.498763 0.025304 -0.014074 -591765.000000 0 0 1
9.139560 27.094086 3.460204 28.802674 1.245456 1.450371 -0.021028 0.018764 9377.590000 0 0 1
9.186560 27.662786 4.737204 29.530725 1.250164 1.409684 -0.014373 0.017132 366699.000000 0 0 1
10.521260 27.847286 5.184604 30.216690 1.209556 1.398362 -0.006086 0.016985 -177607.000000 0 0 1
10.604060 28.441086 6.605904 31.064118 1.213918 1.356506 -0.004959 0.012445 -139784.000000 0 0 1
10.341660 27.447686 7.633004 30.308219 1.210469 1.316209 -0.004895 0.009342 201090.000000 0 0 1
10.267660 28.110886 8.908104 31.225007 1.220596 1.281490 0.017061 0.001965 -405489.000000 0 0 1
10.012660 27.177286 10.124404 30.681619 1.217807 1.234511 0.021630 -0.004604 106118.000000 0 0 1
11.106560 26.517486 10.754304 30.695077 1.174156 1.212842 0.019572 0.003104 145090.000000 0 0 1
11.728660 25.575086 9.878704 29.820048 1.140816 1.233139 0.022624 0.000366 -41874.600000 0 0 1
12.986960 24.894486 10.488304 29.973339 1.089955 1.213309 0.022310 -0.005924 193022.000000 0 0 1
14.097160 25.774286 10.559804 31.217834 1.070300 1.225727 0.018792 -0.002402 -14956.600000 0 0 1
15.210460 25.075786 11.116704 31.364538 1.025553 1.208486 0.033977 -0.008068 1570980.000000 0 0 1
16.467760 26.095786 11.120604 32.800076 1.007858 1.224898 0.037400 -0.010403 -314994.000000 0 0 1
16.979560 26.563986 9.899604 33.044711 1.002055 1.266542 0.050233 -0.014036 33596.500000 0 0 1
18.380960 26.661986 9.830204 33.843080 0.967215 1.276084 0.061602 -0.023610 109510.000000 0 0 1
19.148660 27.395086 10.948704 35.171523 0.960754 1.254241 0.062617 -0.028713 -1554230.000000 0 0 1
19.152860 28.834486 10.925304 36.299061 0.984479 1.265076 0.066077 -0.039595 1428410.000000 0 0 1
17.875160 29.375486 11.369404 36.217452 1.024146 1.251477 0.047462 -0.026451 1215990.000000 0 0 1
18.111360 30.912086 11.594904 37.656609 1.040810 1.257799 0.041714 -0.016187 -452771.000000 0 0 1
18.542560 31.678086 10.443704 38.162791 1.041223 1.293598 0.057934 -0.030942 751616.000000 0 0 1
17.571160 31.859086 9.379804 37.572965 1.066781 1.318485 0.054855 -0.028331 616310.000000 0 0 1
16.249960 32.581486 9.712604 37.682212 1.108151 1.310103 0.041339 -0.023220 -328154.000000 0 0 1
16.413860 33.908386 10.159204 39.017981 1.119978 1.307388 0.035325 -0.024205 34463.800000 0 0 1
15.184760 -34.122197 10.332704 38.751336 -1.152099 1.300890 0.037826 -0.012253 114342.000000 0 0 1
15.366360 -32.607597 10.654604 37.588575 -1.130411 1.283403 0.037411 -0.001560 -103814.000000 0 0 1
15.853460 -31.876597 9.561504 36.862881 -1.109280 1.308416 0.043172 -0.009916 57197.200000 0 0 1
15.846960 -30.468597 9.748104 35.699959 -1.091192 1.294228 0.047383 -0.005838 -184248.000000 0 0 1
16.541460 -29.740597 8.564604 35.092384 -1.063212 1.324247 0.041227 -0.005724 -316516.000000 0 0 1
15.911760 -29.859897 7.323404 34.618345 -1.081192 1.357639 0.024644 -0.009860 -614956.000000 0 0 1
16.683960 -29.340397 6.304904 34.336063 -1.053759 1.386125 0.034692 -0.004182 -245299.000000 0 0 1
16.208360 -29.628797 4.860004 34.120319 -1.070223 1.427873 0.032125 0.001071 -69865.100000 0 0 1
16.406060 -30.937497 4.412904 35.295343 -1.083206 1.445440 0.038389 -0.009337 -80368.600000 0 0 1
16.196260 -31.001697 3.018404 35.107475 -1.089365 1.484714 0.035693 -0.001505 -148916.000000 0 0 1
16.358760 -32.369297 2.320504 36.342333 -1.102855 1.506902 0.024302 -0.006467 -1326200.000000 0 0 1
17.648160 -32.815797 2.256904 37.328644 -1.077372 1.510299 0.031295 -0.001918 -1117850.000000 0 0 1
17.775760 -34.090697 1.565304 38.478610 -1.090156 1.530105 0.049239 -0.008924 638259.000000 0 0 1
19.258860 34.086886 1.584404 39.183285 1.056515 1.530350 0.058506 -0.014369 844766.000000 0 0 1
19.689560 33.825286 2.899604 39.245846 1.043646 1.496846 0.059712 -0.033627 1665710.000000 0 0 1
21.108360 33.466486 2.958904 39.677747 1.008086 1.496154 0.066398 -0.034505 1429040.000000 0 0 1
21.569060 33.494586 4.422704 40.083312 0.998681 1.460233 0.070959 -0.043259 -601705.000000 0 0 1
21.062260 32.496386 5.211404 39.074194 0.995729 1.437026 0.075056 -0.044521 -179036.000000 0 0 1
21.907060 31.374386 5.259504 38.625558 0.961248 1.434206 0.058779 -0.044377 -53649.400000 0 0 1
21.443760 30.366086 6.356004 37.713827 0.955938 1.401456 0.067278 -0.037862 -275064.000000 0 0 1
20.248160 29.730086 6.064204 36.477946 0.972891 1.403778 0.065286 -0.028439 -691456.000000 0 0 1
19.474860 29.389286 7.204004 35.984690 0.985578 1.369238 0.061682 -0.039850 321268.000000 0 0 1
18.002460 29.164086 6.743704 34.930073 1.017766 1.376513 0.075000 -0.026003 320065.000000 0 0 1
17.233160 30.322886 6.387404 35.457836 1.053995 1.389667 0.058823 -0.029771 328296.000000 0 0 1
17.449360 30.962686 5.141704 35.911073 1.057601 1.427124 0.067933 -0.030794 -514041.000000 0 0 1
17.302260 32.547486 5.236304 37.230712 1.082189 1.429684 0.069215 -0.026258 18422.100000 0 0 1
16.002660 33.016086 5.492404 37.098700 1.119469 1.422202 0.045738 -0.022261 -335693.000000 0 0 1
16.103860 -34.283397 5.606304 38.289897 -1.131659 1.423851 0.047243 -0.026280 -458935.000000 0 0 1
14.754960 -33.596997 5.817404 37.152513 -1.156981 1.413568 0.034354 -0.020259 -252796.000000 0 0 1
13.981160 -33.655697 4.628104 36.736877 -1.177070 1.444481 0.029432 -0.011391 -571613.000000 0 0 1
12.884860 -32.812097 4.651104 35.556801 -1.196611 1.439613 0.014482 -0.002747 -267189.000000 0 0 1
11.984260 -32.773697 3.375204 35.058946 -1.220233 1.474375 0.015661 -0.001912 187952.000000 0 0 1
11.047760 -31.715097 3.349904 33.750885 -1.235598 1.471379 0.017567 -0.007132 13482.000000 0 0 1
10.466260 -31.702697 2.023604 33.446951 -1.251924 1.510257 0.026027 -0.010497 -903057.000000 0 0 1
9.565660 -30.449997 1.884904 31.972754 -1.266415 1.511809 0.036083 -0.008041 -136272.000000 0 0 1
9.087160 -30.164997 0.599104 31.509720 -1.278195 1.551782 0.047852 -0.012558 -199749.000000 0 0 1
8.046060 -31.050797 0.245204 32.077269 -1.317247 1.563152 0.044615 -0.011620 -942010.000000 0 0 1
8.354360 -31.666797 -1.156596 32.770704 -1.312853 1.606097 0.055694 -0.015184 856459.000000 0 0 1
9.459460 -32.613997 -1.046696 33.974251 -1.288499 1.601610 0.047852 -0.014199 699519.000000 0 0 1
9.704160 -33.307697 -2.213296 34.763085 -1.287295 1.634507 0.054633 -0.009968 -170339.000000 0 0 1
10.948960 -34.199697 -2.029496 35.966899 -1.260959 1.627253 0.039560 -0.008725 -267105.000000 0 0 1
11.047760 33.444986 -1.113896 35.240046 1.251755 1.602410 0.030881 -0.004104 -1677150.000000 0 0 1
12.296660 32.927686 -1.086796 35.165629 1.213390 1.601706 0.040459 -0.008774 -1622880.000000 0 0 1
12.531360 31.859086 -0.046196 34.235047 1.196047 1.572146 0.026947 -0.003634 -351545.000000 0 0 1
12.620260 32.199086 1.374504 34.611289 1.197253 1.531073 0.024592 -0.000809 -151787.000000 0 0 1
13.672560 33.033386 1.773504 35.795094 1.178364 1.521230 0.036582 -0.010415 15173.700000 0 0 1
15.026360 32.295686 2.057504 35.679632 1.135313 1.513098 0.051196 -0.017005 -24918.800000 0 0 1
15.619860 31.748586 0.901604 35.394429 1.113580 1.545321 0.056435 -0.020464 225330.000000 0 0 1
16.457960 30.611586 1.207104 34.776295 1.077493 1.536079 0.068256 -0.020036 102218.000000 0 0 1
16.979160 29.962386 -0.094396 34.439009 1.055235 1.573537 0.072647 -0.013643 66192.000000 0 0 1
17.995160 30.670686 -0.814896 35.569380 1.040197 1.593708 0.059673 -0.003165 187551.000000 0 0 1
17.550560 31.747586 -1.673496 36.314349 1.065794 1.616896 0.070581 -0.016306 -469377.000000 0 0 1
18.635960 32.533386 -2.389596 37.569008 1.050598 1.634445 0.051713 -0.006418 -171670.000000 0 0 1
19.455260 33.324086 -1.530096 38.617911 1.042359 1.610428 0.043216 0.000754 630300.000000 0 0 1
20.512960 33.964186 -2.245396 39.741530 1.027471 1.627326 0.043018 0.002749 -552238.000000 0 0 1
21.419160 -33.847597 -1.364096 40.078685 -1.006599 1.604838 0.039519 -0.002783 -287831.000000 0 0 1
22.445160 34.219986 -0.533896 40.927713 0.990279 1.583842 0.036875 -0.006324 1656160.000000 0 0 1
23.459360 33.478786 -1.224596 40.898292 0.959585 1.600743 0.039196 0.000216 87803.600000 0 0 1
24.354960 34.294686 -2.207696 42.120820 0.953279 1.623234 0.032336 -0.008353 -953046.000000 0 0 1
23.615860 -33.971797 -3.350196 41.509223 -0.963326 1.651594 0.036407 -0.012625 -308835.000000 0 0 1
24.429860 -33.536197 -4.387796 41.722264 -0.941222 1.676158 0.036207 -0.009121 -669569.000000 0 0 1
23.775360 -33.088197 -5.686696 41.139215 -0.947732 1.709471 0.035243 -0.012557 -506558.000000 0 0 1
22.943360 -31.974497 -5.508696 39.738041 -0.948387 1.709869 0.033534 -0.007847 327945.000000 0 0 1
22.318260 -31.556897 -6.728796 39.232884 -0.955229 1.743158 0.031908 -0.013194 -206963.000000 0 0 1
21.375560 -30.374897 -6.690796 37.740107 -0.957575 1.749025 0.032798 -0.011218 811255.000000 0 0 1
20.091260 -30.561897 -6.039596 37.069731 -0.989240 1.734451 0.049049 -0.005439 874228.000000 0 0 1
19.343760 -29.369697 -6.094596 35.691795 -0.988378 1.742393 0.061672 -0.012703 352360.000000 0 0 1
18.192160 -29.346897 -5.054896 34.896232 -1.015872 1.716163 0.054321 -0.003401 1119910.000000 0 0 1
17.015260 -30.131197 -5.342196 35.013528 -1.056733 1.723970 0.060899 -0.014010 1067380.000000 0 0 1
16.003560 -29.974197 -4.328296 34.253475 -1.080389 1.697496 0.046121 -0.011565 624280.000000 0 0 1
14.702760 -30.760497 -4.609196 34.403837 -1.124923 1.705174 0.046855 -0.019657 8421.930000 0 0 1
14.747060 -32.187897 -4.605896 35.703652 -1.141181 1.700160 0.042010 -0.003641 -470897.000000 0 0 1
13.485060 -32.711497 -4.911896 35.721360 -1.179781 1.708739 0.048275 0.000523 -145688.000000 0 0 1
13.463760 -34.277297 -5.086696 37.176342 -1.196521 1.708053 0.048738 -0.007658 -71947.100000 0 0 1
13.688160 33.611386 -3.923696 36.503238 1.184058 1.678493 0.057291 -0.015469 -71216.500000 0 0 1
13.969060 32.230286 -4.285496 35.387730 1.161821 1.692195 0.057146 -0.015719 387247.000000 0 0 1
12.782560 31.385686 -4.917796 34.243829 1.184035 1.714906 0.047563 -0.018138 602611.000000 0 0 1
11.802360 30.870886 -4.038196 33.295860 1.205629 1.692378 0.039486 -0.010701 -119514.000000 0 0 1
12.346160 29.895486 -3.190396 32.501482 1.179153 1.669116 0.051062 -0.018641 -619499.000000 0 0 1
11.357960 28.937086 -2.482096 31.185237 1.196768 1.650473 0.029388 -0.007349 -26095.300000 0 0 1
10.612860 29.663586 -1.524296 31.541791 1.227213 1.619141 0.011278 -0.005336 -436166.000000 0 0 1
9.819960 28.849586 -0.717296 30.483516 1.242713 1.594329 -0.002824 0.008618 -1109000.000000 0 0 1
8.568260 29.546686 -0.267796 30.765133 1.288548 1.579501 -0.009176 0.016743 -1008700.000000 0 0 1
7.736960 28.656886 0.420004 29.685923 1.307097 1.556648 -0.011653 0.017993 -1020970.000000 0 0 1
6.577460 29.365886 0.736404 30.102500 1.350450 1.546331 0.005921 0.015045 -520594.000000 0 0 1
5.705960 28.560486 1.736704 29.176625 1.373607 1.511237 0.004041 0.016346 -157466.000000 0 0 1
5.164160 27.440586 1.075104 27.942980 1.384778 1.532312 0.009580 0.006712 -291168.000000 0 0 1
4.097760 26.964986 1.870804 27.338654 1.419984 1.502312 0.012831 0.001444 -242983.000000 0 0 1
3.352560 25.990286 0.971304 26.223616 1.442512 1.533749 0.021050 -0.003157 -433405.000000 0 0 1
2.113260 25.549786 1.481204 25.679786 1.488273 1.513085 0.043005 -0.006617 -144791.000000 0 0 1
1.693460 24.670786 0.478204 24.733462 1.502262 1.551461 0.040708 -0.007048 564494.000000 0 1 0
0.360160 23.888386 0.799104 23.904461 1.555721 1.537361 0.040410 -0.007930 671762.000000 0 1 0
-0.752340 24.717086 0.843404 24.742912 -1.540368 1.536703 0.046684 -0.013018 -278997.000000 0 1 0
-2.018340 24.087386 0.822604 24.185792 -1.487199 1.536778 0.038596 -0.013769 688965.000000 0 1 0
-3.164140 24.947986 1.453504 25.189809 -1.444640 1.513062 0.046932 -0.020433 964154.000000 0 0 1
-4.466240 24.341486 1.372804 24.785880 -1.389332 1.515381 0.046476 -0.021612 1034230.000000 0 1 0
-5.448940 24.972086 2.193704 25.653623 -1.355962 1.485179 0.039165 -0.023260 125625.000000 0 0 1
-6.684940 25.380486 1.388504 26.282797 -1.313257 1.517942 0.044167 -0.023159 -623646.000000 0 0 1
-6.484740 26.535186 0.614304 27.322981 -1.331111 1.548311 0.052280 -0.022397 42962.600000 0 0 1
-7.393440 26.640586 -0.467896 27.651450 -1.300084 1.587718 0.045860 -0.017715 -469274.000000 0 0 1
-7.119340 27.745686 -1.487196 28.683093 -1.319622 1.622669 0.041276 -0.012202 -315632.000000 0 0 1
-7.350540 29.085386 -1.050196 30.018212 -1.323257 1.605789 0.055695 -0.024496 -27593.200000 0 0 1
-7.097340 30.009986 -2.105396 30.909613 -1.338564 1.638964 0.041828 -0.020015 -59331.300000 0 0 1
-7.476040 31.507486 -1.776096 32.430963 -1.337826 1.625589 0.044106 -0.021085 -528431.000000 0 0 1
-7.536740 32.487086 -2.851896 33.471578 -1.342837 1.656103 0.033989 -0.006875 -160336.000000 0 0 1
-6.372840 32.696586 -3.607296 33.506602 -1.378301 1.678665 0.022587 -0.009363 192594.000000 0 0 1
-5.181340 33.387886 -2.849596 33.907483 -1.416838 1.654936 0.030630 -0.016654 -152345.000000 0 0 1
-5.388940 -33.970197 -2.583796 34.491897 1.413470 1.645777 0.017974 -0.005578 760617.000000 0 0 1
-4.260840 -33.479897 -1.838896 33.799997 1.444211 1.625228 0.029997 -0.005850 515068.000000 0 0 1
-4.100540 -31.976897 -2.079796 32.305757 1.443258 1.635219 0.030556 -0.009730 201684.000000 0 0 1
-5.251440 -31.334797 -1.565396 31.810338 1.404748 1.620027 0.027435 -0.009007 186138.000000 0 0 1
-5.201140 -29.956297 -1.865396 30.461636 1.398886 1.632072 0.034539 -0.008582 -503302.000000 0 0 1
-6.522440 -29.217897 -1.720896 29.986484 1.351163 1.628217 0.046159 -0.001131 -524025.000000 0 0 1
-6.853240 -29.106597 -0.352196 29.904597 1.339555 1.582574 0.038335 -0.001162 621650.000000 0 0 1
-8.184940 -28.568297 -0.291396 29.719114 1.291766 1.580601 0.030937 -0.005458 618062.000000 0 0 1
-8.309940 -27.979497 1.089604 29.207783 1.282093 1.533482 0.045454 -0.000040 97443.200000 0 0 1
-7.407640 -26.934297 1.442504 27.971598 1.302406 1.519203 0.055224 -0.009979 1015.830000 0 0 1
-7.492040 -26.619497 2.822504 27.797389 1.296444 1.469083 0.055608 -0.002816 -17636.100000 0 0 1
-8.552840 -25.601397 3.253004 27.187582 1.248377 1.450859 0.049872 0.000515 -785.701000 0 0 1
-8.199040 -24.281197 2.821904 25.783016 1.245148 1.461128 0.045529 -0.005767 -57186.100000 0 0 1
-8.967740 -23.361497 3.574604 25.277613 1.204273 1.428907 0.047039 0.001130 -157813.000000 0 0 1
-8.292840 -22.011297 3.657504 23.804322 1.210489 1.416537 0.018626 0.016735 -353203.000000 0 1 0
-7.374740 -22.003397 4.706404 23.678820 1.247399 1.370704 0.021390 0.015230 -623902.000000 0 1 0
-6.964240 -20.697697 5.020404 22.407582 1.246222 1.344829 0.000617 0.010463 -512513.000000 0 1 0
-8.011040 -19.869397 5.747704 22.181204 1.187547 1.308680 0.011873 0.008549 -295928.000000 0 1 0
-8.239540 -20.313697 7.056404 23.028876 1.185459 1.259371 0.015109 0.008071 36374.200000 0 1 0
-9.000440 -19.382197 7.819004 22.755533 1.136060 1.220039 0.012320 0.012609 -245656.000000 0 1 0
-27.047030 28.987886 -5.994996 40.097124 -0.820021 1.720871 0.078278 -0.013492 -118033.000000 0 0 1
-26.449000 29.792986 -5.047996 40.157862 -0.844785 1.696834 0.052838 -0.019923 -958600.000000 0 0 1
-25.180570 29.355986 -4.714996 38.962369 -0.861811 1.692108 0.045873 -0.013923 -532319.000000 0 0 1
-24.548240 30.286586 -3.621896 39.153691 -0.889666 1.663433 0.037806 -0.015505 -146863.000000 0 0 1
-25.097880 29.918086 -2.341996 39.121355 -0.872790 1.630697 0.038821 -0.025818 451713.000000 0 0 1
-24.617440 30.726586 -1.276096 39.392510 -0.895338 1.603196 0.043054 -0.027604 1017820.000000 0 0 1
-23.166040 30.424486 -0.708796 38.246793 -0.920022 1.589330 0.033050 -0.017556 711018.000000 0 0 1
-22.189140 30.383986 -1.728996 37.663430 -0.940029 1.616719 0.040994 -0.031641 -1484180.000000 0 0 1
-20.995140 30.377586 -1.053096 36.941882 -0.966042 1.599307 0.036112 -0.028941 -1080760.000000 0 0 1
-19.751040 30.205886 -1.969696 36.143863 -0.991698 1.625319 0.034996 -0.032263 184260.000000 0 0 1
-18.558840 30.427086 -1.255096 35.662493 -1.023097 1.605997 0.040962 -0.026864 -386098.000000 0 0 1
-17.433140 29.834186 -1.843996 34.603372 -1.041975 1.624111 0.042362 -0.033019 288600.000000 0 0 1
-16.076940 30.241986 -1.205496 34.270963 -1.082182 1.605979 0.044302 -0.033691 295905.000000 0 0 1
-15.763140 29.497086 -0.061796 33.444857 -1.080012 1.572644 0.038674 -0.028391 -287198.000000 0 0 1
-14.523140 29.904786 0.462104 33.248028 -1.118698 1.556897 0.043726 -0.030272 6192.940000 0 0 1
-14.053340 28.964786 1.565504 32.232065 -1.119069 1.522207 0.049900 -0.026772 134359.000000 0 0 1
-14.920940 29.028586 2.711104 32.751234 -1.096005 1.487923 0.031044 -0.019651 209834.000000 0 0 1
-14.392340 28.421486 3.881004 32.093341 -1.102050 1.449571 0.042452 -0.020598 944007.000000 0 0 1
-13.096840 29.014386 4.564104 32.158869 -1.146786 1.428392 0.053828 -0.017933 826816.000000 0 0 1
-13.323040 30.171886 5.364404 33.415908 -1.154974 1.409564 0.049465 -0.009311 -251015.000000 0 0 1
-13.494340 31.379886 4.646804 34.472993 -1.164672 1.435589 0.059611 -0.009581 -22495.400000 0 0 1
-13.281840 32.707186 5.446404 35.718771 -1.185057 1.417719 0.058184 -0.002874 -162286.000000 0 0 1
-14.331940 33.101586 6.281004 36.613802 -1.162196 1.398396 0.053229 0.000457 -223613.000000 0 0 1
-13.925740 34.257886 7.090604 37.653760 -1.184701 1.381355 0.075934 -0.013312 264045.000000 0 0 1
-15.031540 -33.859697 7.997104 37.899603 1.152997 1.358191 0.049537 -0.008837 171049.000000 0 0 1
-15.230340 33.929286 9.033604 38.272258 -1.148870 1.332512 0.033161 -0.009859 -349530.000000 0 0 1
-16.217340 -34.303297 9.904304 39.214966 1.129175 1.315467 0.038519 -0.010820 -652234.000000 0 0 1
-16.503340 33.604686 11.239904 39.089264 -1.114292 1.279134 0.039807 -0.008959 -208081.000000 0 0 1
-15.705840 33.901986 12.317404 39.341282 -1.136960 1.252350 0.037188 -0.012706 102885.000000 0 0 1
-14.353140 33.458286 12.207104 38.398996 -1.165554 1.247281 0.038794 -0.003403 306510.000000 0 0 1
-13.481240 33.530986 13.492904 38.576279 -1.188521 1.213469 0.040244 -0.001304 -51110.500000 0 0 1
-13.797640 32.651386 14.523604 38.306957 -1.170982 1.181932 0.034145 -0.000070 -188014.000000 0 0 1
-13.081240 31.453286 14.512204 37.027451 -1.176664 1.168067 0.021480 -0.000644 -490922.000000 0 0 1
-13.903240 30.167786 14.223304 36.134440 -1.138945 1.166228 0.028248 0.005742 -14842.600000 0 0 1
-14.209640 30.127786 12.818504 35.691895 -1.130088 1.203447 0.038792 0.006358 -337756.000000 0 0 1
-15.467740 29.666886 12.463304 35.703068 -1.090191 1.214205 0.037943 0.003076 -555862.000000 0 0 1
-15.417540 29.613386 10.913704 35.124950 -1.090783 1.254856 0.027852 0.005135 80534.000000 0 0 1
-14.687940 28.545886 10.336004 33.725897 -1.095586 1.259313 0.034566 0.007518 94133.100000 0 0 1
-14.612640 28.664686 8.925204 33.389410 -1.099357 1.300200 0.029696 0.006642 -231436.000000 0 0 1
-13.927040 27.514986 8.176804 31.904498 -1.102231 1.311614 0.033049 0.005625 -539778.000000 0 0 1
-12.557340 27.388986 8.411504 31.282531 -1.140912 1.298558 0.034921 0.000505 -434576.000000 0 0 1
-12.081440 26.145386 7.990904 29.889746 -1.137937 1.300159 0.041186 -0.000711 -408522.000000 0 0 1
-10.801240 26.144986 7.160204 29.180397 -1.179024 1.322888 0.057397 -0.010635 -391963.000000 0 0 1
-11.001440 26.501086 5.778504 29.269956 -1.177314 1.372070 0.059260 -0.012367 114825.000000 0 0 1
-9.850440 26.218086 5.010504 28.452141 -1.211402 1.393770 0.072243 -0.012798 -241602.000000 0 0 1
-9.891240 26.401686 3.430604 28.401667 -1.212338 1.449712 0.065876 -0.017689 -165914.000000 0 0 1
-9.758440 27.789986 3.058404 29.611895 -1.233098 1.467329 0.070534 -0.017741 95450.600000 0 0 1
-10.058340 28.001386 1.672804 29.800102 -1.225941 1.514633 0.070301 -0.025187 -67698.300000 0 0 1
-9.696440 29.426086 1.262104 31.008199 -1.252483 1.530083 0.076794 -0.020294 305709.000000 0 0 1
-10.432540 30.508886 1.896304 32.299009 -1.241310 1.512052 0.060527 -0.026870 162247.000000 0 0 1
-10.163540 31.854186 1.390004 33.465188 -1.261942 1.529249 0.056845 -0.021139 -43123.100000 0 0 1
-10.940740 32.993986 2.113804 34.824863 -1.250608 1.510061 0.057751 -0.016647 1093350.000000 0 0 1
-12.308840 33.260786 1.776504 35.509765 -1.216354 1.520747 0.065047 -0.020483 456228.000000 0 0 1
-12.360340 34.225086 0.731604 36.396013 -1.224224 1.550694 0.054012 -0.017611 -375306.000000 0 0 1
-13.799040 -33.995997 0.474704 36.692869 1.185212 1.557859 0.062680 -0.025268 568428.000000 0 0 1
-14.646940 33.757586 -0.209696 36.798797 -1.161423 1.576495 0.062029 -0.026574 270848.000000 0 0 1
-14.607540 33.890886 -1.604296 36.939764 -1.163840 1.614240 0.063470 -0.028481 301476.000000 0 0 1
-13.229440 33.735786 -2.361196 36.313862 -1.197077 1.635864 0.052556 -0.025676 516448.000000 0 0 1
-12.923040 32.358886 -2.448996 34.929931 -1.190837 1.640966 0.048280 -0.023646 -600493.000000 0 0 1
-11.588740 32.109586 -2.764896 34.248636 -1.224433 1.651614 0.039202 -0.011337 -500004.000000 0 0 1
-11.230240 30.630186 -2.675496 32.733543 -1.219375 1.652623 0.036082 -0.016430 -89280.200000 0 0 1
-11.412840 29.874486 -3.873096 32.213952 -1.205880 1.691318 0.028223 -0.012888 285489.000000 0 0 1
-10.276440 29.827786 -4.770696 31.907077 -1.239007 1.720878 0.028009 -0.011128 656513.000000 0 0 1
-10.602940 29.194986 -6.168796 31.667390 -1.222431 1.766850 0.030957 -0.005128 182495.000000 0 0 1
-11.087140 27.833486 -6.062996 30.567753 -1.191723 1.770467 0.018815 0.004846 142860.000000 0 0 1
-11.086240 27.080686 -7.262796 30.149900 -1.182232 1.814079 0.008270 0.013038 -195866.000000 0 0 1
-11.434740 25.537686 -7.241696 28.902748 -1.149807 1.824049 0.033062 0.005802 163093.000000 0 0 1
-10.555040 24.680486 -6.483596 27.614711 -1.166668 1.807797 0.013647 0.005519 376448.000000 0 0 1
-10.960440 23.329286 -6.660196 26.622266 -1.131587 1.823656 0.027774 -0.001855 -128159.000000 0 0 1
-10.204940 22.311286 -5.807996 25.212439 -1.141815 1.803246 0.023775 -0.008730 740888.000000 0 0 1
-8.803040 22.122986 -6.093896 24.577542 -1.192090 1.821356 0.021253 -0.010834 1045560.000000 0 1 0
-8.154140 20.988586 -5.500296 23.178956 -1.200240 1.810379 0.027428 -0.015161 -81536.000000 0 1 0
-7.934140 20.913486 -3.953296 22.714599 -1.208192 1.745729 0.032997 -0.024042 191320.000000 0 1 0
-9.081140 20.845186 -3.094296 22.946973 -1.159942 1.706054 0.030203 -0.022772 218345.000000 0 1 0
-9.865540 19.681186 -3.097996 22.232309 -1.106135 1.710598 0.034118 -0.027055 -46659.700000 0 1 0
-11.262340 19.859986 -2.456196 22.962845 -1.054929 1.677965 0.038216 -0.020568 159706.000000 0 1 0
-11.309740 19.660786 -1.044696 22.705685 -1.048779 1.616823 0.045165 -0.025451 92702.300000 0 1 0
-11.330740 18.317186 -0.644796 21.548103 -1.016823 1.600724 0.049377 -0.024903 -366301.000000 0 1 0
-11.207340 18.082186 0.853704 21.290813 -1.015945 1.530688 0.047507 -0.025710 -422754.000000 0 1 0
-12.420740 18.180286 1.529304 22.071166 -0.971436 1.501451 0.058392 -0.022713 -464151.000000 0 1 0
-12.149740 18.465986 2.915504 22.295941 -0.988851 1.439657 0.053972 -0.016787 -547073.000000 0 1 0
-13.328940 18.451486 3.860404 23.087241 -0.945209 1.402798 0.038428 -0.011111 -501751.000000 0 1 0
-13.785740 17.152886 4.148504 22.393709 -0.893805 1.384467 0.030377 -0.009295 -541179.000000 0 1 0
-14.970040 17.189086 4.855804 23.305485 -0.854291 1.360904 0.032915 -0.011508 -615148.000000 0 1 0
-15.364340 15.771186 5.422504 22.675908 -0.798464 1.329326 0.013868 -0.010156 -695284.000000 0 1 0
-14.776740 15.417086 6.617004 22.356729 -0.806603 1.270322 0.027644 -0.005092 -269477.000000 0 1 0
-15.151140 16.084186 7.808604 23.435707 -0.815261 1.231109 0.018207 0.000046 -521364.000000 0 1 0
-14.145540 15.796086 8.968204 23.022626 -0.840468 1.170666 0.015640 -0.003431 960681.000000 0 1 0
-12.833140 16.329986 8.976104 22.625834 -0.904735 1.162856 0.020802 -0.009515 413749.000000 0 1 0
-11.970940 15.956886 7.918904 21.462401 -0.927164 1.192900 0.020166 -0.013476 -300942.000000 0 1 0
-10.794040 16.921986 7.653504 21.481178 -1.002995 1.206503 0.036260 -0.021506 67547.000000 0 1 0
-9.781740 17.046986 8.604904 21.455222 -1.049856 1.158119 0.045799 -0.024193 -500534.000000 0 1 0
-9.255640 18.335686 8.566604 22.254234 -1.103325 1.175651 0.053003 -0.020813 -1045250.000000 0 1 0
-7.938240 18.498986 9.268904 22.161695 -1.165443 1.139290 0.051930 -0.023400 -1208680.000000 0 1 0
-6.901340 17.714386 8.687204 20.902045 -1.199297 1.142177 0.037632 -0.022284 297453.000000 0 1 0
-5.671040 17.862486 9.400904 20.966785 -1.263378 1.105854 0.031134 -0.024296 540532.000000 0 1 0
-4.790040 18.996186 8.869704 21.505144 -1.323788 1.145659 0.020202 -0.023295 -1384950.000000 0 1 0
-5.211040 20.304586 9.125804 22.862883 -1.319575 1.160203 0.029129 -0.025088 -121659.000000 0 1 0
-4.467240 21.225686 8.373904 23.250984 -1.363360 1.202365 0.028717 -0.025258 1609270.000000 0 1 0
-2.922240 21.513386 8.630204 23.363340 -1.435789 1.192443 0.028373 -0.027223 1248830.000000 0 1 0
-1.949640 20.592886 8.221004 22.258772 -1.476402 1.192500 0.022386 -0.020257 -408826.000000 0 1 0
-0.715940 21.254086 8.068504 22.745318 -1.537124 1.208168 0.015640 -0.024983 280997.000000 0 1 0
0.507660 20.332786 7.808404 21.786488 1.545834 1.204237 0.007103 -0.024295 434739.000000 0 1 0
0.824660 19.459186 8.879204 21.405145 1.528443 1.143055 0.007601 -0.035460 -1697590.000000 0 1 0
2.183160 19.365386 9.039904 21.482649 1.458535 1.136469 -0.001112 -0.022568 -1162480.000000 0 1 0
2.621760 18.646086 10.320104 21.472184 1.431106 1.069427 -0.009943 -0.043476 255669.000000 0 1 0
4.015860 18.533986 10.573104 21.712353 1.357419 1.062188 0.014445 -0.018667 109937.000000 0 1 0
4.278860 18.268986 11.934704 22.237393 1.340729 1.004281 0.008058 -0.019557 -332113.000000 0 1 0
5.770760 18.168586 12.224404 22.645865 1.263251 1.000588 0.028437 -0.019268 -240902.000000 0 1 0
6.509660 17.178886 11.502304 21.674704 1.208581 1.011395 0.017757 -0.021589 444988.000000 0 1 0
7.632660 16.761686 12.293404 22.143608 1.143491 0.982232 0.026376 -0.011629 75530.200000 0 1 0
8.805160 16.128486 11.552104 21.705068 1.071077 1.009563 0.023400 -0.014249 -131827.000000 0 1 0
9.617960 17.080786 10.870104 22.414673 1.057961 1.064485 0.029219 -0.030858 715294.000000 0 1 0
10.796560 16.423386 10.352804 22.214271 0.989244 1.085983 0.027749 -0.025704 -11551.000000 0 1 0
11.775460 17.348686 9.720204 23.111052 0.974473 1.136704 0.031857 -0.018907 427457.000000 0 1 0
12.931960 16.658886 9.130804 22.980984 0.910687 1.162202 0.034441 -0.015856 1323460.000000 0 1 0
13.795260 17.710586 8.637404 24.053665 0.909037 1.203505 0.034678 -0.005479 143931.000000 0 1 0
14.885260 17.350086 7.634604 24.101527 0.861713 1.248476 0.032045 -0.006596 158265.000000 0 1 0
16.101460 16.894186 8.199604 24.736694 0.809419 1.232929 0.050756 -0.005858 -252059.000000 0 1 0
17.012560 16.521786 7.246304 24.797288 0.770764 1.274247 0.079989 -0.003385 -181787.000000 0 1 0
18.494960 16.323486 7.669604 25.832974 0.723113 1.269360 0.066655 -0.002172 170751.000000 0 0 1
18.699360 15.106686 8.320404 25.438300 0.679522 1.237583 0.066410 -0.005738 52632.900000 0 0 1
19.461860 15.310986 9.459204 26.507863 0.666589 1.205908 0.053682 -0.001240 -390570.000000 0 0 1
19.668160 13.996986 10.293504 26.243253 0.618507 1.167737 0.049960 -0.009189 -274233.000000 0 0 1
20.676860 13.157386 9.830304 26.406139 0.566708 1.189339 0.070353 -0.006836 -67183.500000 0 0 1
20.957960 12.203286 10.810604 26.552315 0.527284 1.151472 0.083239 -0.006841 94316.000000 0 0 1
21.950760 11.144986 10.241004 26.663171 0.469810 1.176576 0.088432 -0.005564 447268.000000 0 0 1
23.345160 11.493686 10.335104 27.998494 0.457498 1.192723 0.073027 -0.011092 1650070.000000 0 0 1
24.176760 10.659386 9.485604 28.073384 0.415256 1.226126 0.080008 -0.011323 205878.000000 0 0 1
24.317360 9.115086 9.700304 27.722097 0.358629 1.213319 0.096173 -0.021333 -542980.000000 0 0 1
23.129860 8.418386 9.378004 26.340208 0.349058 1.206776 0.097517 -0.022540 304941.000000 0 0 1
23.218760 6.992886 9.653404 26.099798 0.292533 1.191933 0.088641 -0.027162 -4264.890000 0 0 1
24.258960 6.104586 8.930704 26.561637 0.246524 1.227890 0.099920 -0.028214 157689.000000 0 0 1
23.967460 6.105786 7.521004 25.851213 0.249447 1.275593 0.099337 -0.013403 -19094.900000 0 0 1
24.933760 5.465386 6.747504 26.402493 0.215784 1.312366 0.101028 -0.020142 -513836.000000 0 0 1
24.491160 5.178986 5.319304 25.591674 0.208393 1.361417 0.099253 -0.027584 -394745.000000 0 0 1
23.560260 4.112886 5.383504 24.514970 0.172827 1.349391 0.099772 -0.021622 346519.000000 0 1 0
23.154760 3.707386 4.111604 23.807412 0.158766 1.397223 0.090437 -0.021901 6692.820000 0 1 0
22.158360 2.500986 4.115604 22.675670 0.112393 1.388286 0.077134 -0.017649 -217176.000000 0 1 0
22.699760 1.297886 4.515604 23.180903 0.057114 1.374744 0.087838 -0.015704 7422.430000 0 1 0
22.071360 0.129686 3.993404 22.430092 0.005876 1.391804 0.072364 -0.013360 -584398.000000 0 1 0
22.797160 -1.192314 4.219904 23.215075 -0.052253 1.388006 0.082950 -0.010093 -571798.000000 0 1 0
22.895060 -1.628914 5.550604 23.614536 -0.071027 1.333526 0.097622 -0.013089 601564.000000 0 1 0
22.728060 -3.036814 5.704704 23.629020 -0.132828 1.326959 0.074783 -0.014691 -482564.000000 0 1 0
22.445260 -3.424014 7.192404 23.816889 -0.151382 1.264019 0.084956 -0.014812 -125393.000000 0 1 0
22.341860 -4.804214 7.422304 24.027687 -0.211807 1.256753 0.069296 -0.017305 444129.000000 0 1 0
22.137760 -5.084214 8.758604 24.344255 -0.225748 1.202763 0.079871 -0.019154 -87017.200000 0 1 0
21.944260 -6.624514 9.045704 24.642635 -0.293180 1.194933 0.069129 -0.026144 163756.000000 0 1 0
20.720260 -7.097014 8.519304 23.500538 -0.329992 1.199831 0.064853 -0.029863 254089.000000 0 1 0
20.409560 -8.348814 9.027704 23.827552 -0.388296 1.182214 0.058855 -0.029199 -89593.300000 0 1 0
-26.089140 -33.138597 4.771404 42.444978 0.903864 1.458144 0.037634 -0.011966 489513.000000 0 0 1
-26.880240 -34.262097 5.244404 43.862768 0.905549 1.450946 0.038974 -0.011842 614212.000000 0 0 1
-26.603880 34.313886 6.620604 43.920856 -0.911293 1.419480 0.034649 0.004226 -334404.000000 0 0 1
-27.470300 33.260286 7.301104 43.751230 -0.880450 1.403134 0.036963 -0.001231 -221892.000000 0 0 1
-28.858790 33.447886 7.395004 44.791483 -0.858919 1.404939 0.047832 -0.000126 -406169.000000 0 0 1
-29.487100 32.236186 7.655704 44.353924 -0.829908 1.397323 0.058754 -0.000706 443599.000000 0 0 1
-31.029790 32.421286 7.854804 45.559693 -0.807325 1.397524 0.074942 -0.004694 679045.000000 0 0 1
-31.711950 32.503086 6.613304 45.889369 -0.797718 1.426179 0.051416 -0.003783 116510.000000 0 0 1
-33.112000 32.651986 6.764804 46.992758 -0.778403 1.426340 0.028363 -0.002651 310596.000000 0 0 1
-33.839050 32.670186 5.376604 47.342689 -0.767826 1.456983 0.023591 0.002597 -260653.000000 0 0 1
-33.762530 31.420286 4.692204 46.359029 -0.749480 1.469408 0.022851 0.002712 304850.000000 0 0 1
-34.517175 31.359086 3.486804 46.765216 -0.737495 1.496167 0.036589 0.005671 -55989.700000 0 0 1
-34.186292 30.093986 2.627104 45.620744 -0.721820 1.513179 0.040054 0.000826 70671.700000 0 0 1
-34.609423 28.949186 3.360004 45.245521 -0.696577 1.496466 0.061944 -0.005564 465428.000000 0 0 1
-34.129595 27.778386 2.686604 44.087253 -0.683165 1.509820 0.050980 0.001582 -177863.000000 0 0 1
-34.504500 26.531786 3.463704 43.663411 -0.655511 1.491386 0.069973 -0.002554 1028390.000000 0 0 1
-35.905328 26.201586 3.291304 44.570712 -0.630409 1.496885 0.072458 -0.001358 851451.000000 0 0 1
35.690853 25.236086 4.164904 43.909491 0.615458 1.475802 0.075811 -0.007247 294100.000000 0 0 1
34.195523 24.919886 3.844804 42.486669 0.629760 1.480178 0.076837 -0.007969 -15130.000000 0 0 1
33.950483 24.100086 2.744404 41.725067 0.617313 1.504975 0.060391 -0.008390 102971.000000 0 0 1
34.343783 22.731786 2.841204 41.283192 0.584688 1.501920 0.050512 -0.003434 -260525.000000 0 0 1
33.468043 21.832186 1.882404 40.003721 0.578011 1.523723 0.038065 -0.001698 1421440.000000 0 0 1
32.114043 21.541886 2.309504 38.738849 0.590854 1.511144 0.040706 -0.008665 1311890.000000 0 0 1
31.946613 20.671086 3.502604 38.211884 0.574299 1.479005 0.027360 -0.002527 -374161.000000 0 0 1
32.456273 19.173486 3.449504 37.854079 0.533589 1.479543 0.031026 -0.012623 64716.100000 0 0 1
31.794963 18.431386 2.405504 36.829636 0.525356 1.505435 0.025530 -0.014690 379366.000000 0 0 1
32.117823 17.061086 2.290904 36.440135 0.488297 1.507887 0.014974 -0.013744 -401034.000000 0 0 1
31.426643 16.214686 3.398204 35.526015 0.476329 1.474996 0.041106 -0.022369 482132.000000 0 0 1
30.002773 16.128186 3.385204 34.230752 0.493239 1.471741 0.047874 -0.017309 528640.000000 0 0 1
29.535243 15.041886 4.147204 33.403416 0.471049 1.446320 0.066151 -0.027939 -1776140.000000 0 0 1
28.085823 15.094786 4.447304 32.193858 0.493159 1.432212 0.066897 -0.022225 -1828510.000000 0 0 1
27.317683 14.812886 3.304904 31.250596 0.496870 1.464843 0.067008 -0.021233 242917.000000 0 0 1
25.975383 15.280286 3.472704 30.335908 0.531743 1.456070 0.049154 -0.015479 302460.000000 0 0 1
25.086483 14.729886 2.333104 29.184663 0.530928 1.490768 0.047487 -0.020034 -411622.000000 0 0 1
25.413483 15.091086 0.973104 29.572503 0.535864 1.537885 0.050256 -0.015314 1334470.000000 0 0 1
26.583683 14.459786 0.352204 30.263867 0.498175 1.559158 0.054244 -0.011280 702348.000000 0 0 1
27.145703 15.124986 -0.953496 31.089605 0.508337 1.601470 0.057540 -0.010847 214135.000000 0 0 1
27.696343 16.455886 -0.858496 32.227637 0.536110 1.597438 0.042927 -0.011423 -100501.000000 0 0 1
29.009583 16.454886 -0.400896 33.353859 0.515970 1.582816 0.042260 -0.014006 -938342.000000 0 0 1
29.603743 17.876186 -0.177996 34.582818 0.543245 1.575943 0.047152 -0.006802 -47428.400000 0 0 1
29.697393 18.669986 -1.405496 35.106679 0.561237 1.610842 0.009567 -0.000331 516461.000000 0 0 1
30.428733 19.894686 -1.227996 36.376012 0.579051 1.604561 0.005622 0.006498 218526.000000 0 0 1
30.271793 20.874486 -2.402896 36.849688 0.603691 1.636051 0.017979 0.001077 -360878.000000 0 0 1
31.148253 21.986586 -2.326296 38.197320 0.614654 1.631736 -0.010709 0.011325 142728.000000 0 0 1
31.078703 22.900286 -3.442996 38.757749 0.635031 1.659747 0.000898 0.007217 4798.460000 0 0 1
32.200243 23.979086 -3.434796 40.294541 0.640092 1.656142 -0.012897 0.010050 -19736.900000 0 0 1
32.135503 24.845986 -2.333296 40.687318 0.658161 1.628175 -0.001490 0.011651 225367.000000 0 0 1
33.006453 24.473986 -1.269896 41.109787 0.638033 1.601692 0.017366 0.021108 -8819.360000 0 0 1
32.592573 25.242286 0.016704 41.224375 0.658985 1.570391 0.016472 0.005684 19262.500000 0 0 1
32.988313 26.642586 0.063804 42.403540 0.679380 1.569292 0.024580 0.010546 1034350.000000 0 0 1
34.350143 26.746486 0.558704 43.538707 0.661582 1.557964 0.049691 0.009873 1032610.000000 0 0 1
35.150253 27.942986 0.078204 44.903862 0.671659 1.569055 0.045095 -0.003464 -416699.000000 0 0 1
35.454133 27.950986 -1.321796 45.166362 0.667609 1.600066 0.029248 -0.000275 7814.900000 0 0 1
34.377673 28.165286 -2.201396 44.496673 0.686393 1.620290 0.032653 0.001022 -256946.000000 0 0 1
34.717703 27.755686 -3.637296 44.597387 0.674416 1.652446 0.041119 -0.002050 459584.000000 0 0 1
35.759373 28.512586 -4.268596 45.933879 0.673120 1.663860 0.014352 0.004199 529191.000000 0 0 1
-35.758498 27.950286 -5.495896 45.717541 -0.663445 1.691302 0.018294 -0.001211 -46858.200000 0 0 1
35.366323 27.879986 -6.741096 45.535841 0.667578 1.719382 0.016309 -0.003619 -1176310.000000 0 0 1
34.365333 26.981586 -6.629496 44.191994 0.665614 1.721381 0.025435 0.004070 -1592390.000000 0 0 1
33.483263 27.080486 -7.692496 43.745355 0.680070 1.747563 0.017734 0.000660 -737163.000000 0 0 1
32.453183 25.958086 -7.554696 42.238664 0.674657 1.750621 0.002507 0.014867 -720294.000000 0 0 1
32.774143 24.591086 -7.828096 41.715046 0.643706 1.759572 0.002179 0.009502 -57004.700000 0 0 1
33.583293 23.916286 -6.866096 41.796765 0.618833 1.735818 0.012998 0.004026 134297.000000 0 0 1
33.588013 22.367586 -7.059096 40.966991 0.587499 1.743972 0.018166 0.007683 402414.000000 0 0 1
32.456683 21.753086 -6.457596 39.602191 0.590458 1.734589 -0.000354 0.009231 577035.000000 0 0 1
32.680923 20.368786 -6.538796 39.060031 0.557349 1.738992 0.024905 -0.010035 -183293.000000 0 0 1
31.502323 19.667286 -5.824096 37.591469 0.558105 1.726354 0.023173 -0.002858 725444.000000 0 0 1
30.377083 19.555186 -6.729496 36.748586 0.571968 1.754958 0.022424 -0.008318 678365.000000 0 0 1
29.215213 19.186086 -5.986496 35.460861 0.581082 1.740429 0.035138 -0.017385 83196.400000 0 0 1
27.996973 18.918986 -6.879796 34.483186 0.594265 1.771656 0.023452 -0.018612 -238820.000000 0 0 1
28.006713 17.619186 -7.501696 33.927675 0.561546 1.793747 0.032323 -0.015144 86452.800000 0 0 1
27.032293 17.570686 -8.524996 33.348904 0.576367 1.829296 0.034433 -0.015406 -18248.100000 0 0 1
27.047063 16.266786 -9.267996 32.894493 0.541467 1.856413 0.045628 -0.015472 -204512.000000 0 0 1
26.594783 16.536686 -10.589396 33.058732 0.556296 1.896864 0.044672 -0.015124 194521.000000 0 0 1
26.757683 15.399186 -11.484996 32.939546 0.522214 1.926947 0.044446 -0.012129 -403203.000000 0 0 1
26.058283 15.668186 -12.814596 32.996061 0.541356 1.969656 0.043982 -0.006514 1049220.000000 0 0 1
24.612383 15.702386 -12.643296 31.814890 0.567884 1.979480 0.030376 -0.003942 1643780.000000 0 0 1
23.835483 15.676386 -13.847396 31.711665 0.581763 2.022685 0.035853 -0.007607 63606.300000 0 0 1
23.662383 14.312986 -14.542596 31.245112 0.544003 2.054923 0.045753 -0.010885 628376.000000 0 0 1
24.885783 13.710986 -15.068996 32.161592 0.503577 2.058434 0.047757 -0.015813 1247290.000000 0 0 1
25.359183 14.349286 -16.277196 33.375699 0.514924 2.080245 0.046793 -0.020083 -116095.000000 0 0 1
26.759683 13.876486 -16.754196 34.486818 0.478385 2.078091 0.059020 -0.016037 194287.000000 0 0 1
26.831783 12.526486 -17.195396 34.242358 0.436780 2.096900 0.053900 -0.024647 177093.000000 0 0 1
28.147243 12.248686 -17.649196 35.408921 0.410449 2.092594 0.051516 -0.017238 265917.000000 0 0 1
28.394403 10.799586 -18.247296 35.437790 0.363446 2.111700 0.029578 -0.022764 -212946.000000 0 0 1
27.577913 10.493086 -19.381296 35.302702 0.363574 2.151967 0.040478 -0.028361 172410.000000 0 0 1
27.795093 9.202286 -19.954396 35.432008 0.319718 2.169019 0.023452 -0.018153 -98189.500000 0 0 1
29.166033 8.960086 -20.630196 36.831313 0.298058 2.165335 0.020901 -0.017196 -660709.000000 0 0 1
29.413883 9.732686 -21.874596 37.926240 0.319548 2.185562 0.019476 -0.021074 467536.000000 0 0 1
30.140743 8.932286 -22.832096 38.852989 0.288107 2.198952 0.010323 -0.015392 1481730.000000 0 0 1
31.605823 8.347186 -22.514696 39.692759 0.258207 2.173928 0.007526 -0.008282 1469880.000000 0 0 1
32.586813 9.391786 -22.429696 40.659529 0.280604 2.155134 0.016277 -0.008730 321182.000000 0 0 1
33.901143 8.859086 -22.436996 41.607568 0.255605 2.140346 0.003807 -0.003040 50849.200000 0 0 1
34.914393 10.016786 -22.469096 42.710785 0.279391 2.124776 0.030510 -0.004797 -449630.000000 0 0 1
34.785203 10.752686 -21.266696 42.165187 0.299800 2.099444 0.019244 -0.006323 147179.000000 0 0 1
35.740543 11.761886 -21.060796 43.119433 0.317927 2.081085 0.006078 0.001910 -286602.000000 0 0 1
35.584683 12.518886 -19.669696 42.542792 0.338282 2.051441 -0.003842 0.000437 -204267.000000 0 0 1
-35.987575 11.712286 -18.600696 42.169528 -0.314642 2.027613 0.001277 -0.005465 371598.000000 0 0 1
-35.999207 12.311986 -17.341296 41.812061 -0.329537 1.998458 0.014182 -0.011215 -221604.000000 0 0 1
-35.445426 11.424086 -16.222096 40.620739 -0.311789 1.981610 0.016315 -0.008744 -359847.000000 0 0 1
35.660073 10.353586 -15.989396 40.428929 0.282572 1.977402 0.015131 -0.014719 892527.000000 0 0 1
-35.855602 9.453386 -15.033096 40.012307 -0.257785 1.955961 0.013448 -0.020887 812111.000000 0 0 1
35.154843 8.214486 -15.008996 39.097452 0.229547 1.964798 0.046905 -0.017640 1301270.000000 0 0 1
34.049763 8.343086 -14.087696 37.781697 0.240292 1.952897 0.064438 -0.016459 1107490.000000 0 0 1
34.372053 8.143586 -12.684396 37.531985 0.232635 1.915547 0.066843 -0.023543 -637036.000000 0 0 1
33.270933 8.709786 -11.784196 36.354953 0.256038 1.900902 0.085168 -0.022164 -303281.000000 0 0 1
33.057793 10.125986 -11.918396 36.570499 0.297237 1.902762 0.082182 -0.020495 794470.000000 0 0 1
32.145323 10.615786 -10.878396 35.557787 0.318967 1.881717 0.059813 -0.011375 392444.000000 0 0 1
32.621833 10.514586 -9.402396 35.540759 0.311804 1.838536 0.073640 -0.010535 1171730.000000 0 0 1
33.873843 11.241986 -9.153196 36.845630 0.320440 1.821845 0.059539 -0.008621 1428500.000000 0 0 1
33.782903 12.615186 -8.775096 37.113741 0.357384 1.809495 0.068662 -0.012515 -140716.000000 0 0 1
33.210153 12.747286 -7.309396 36.315766 0.366496 1.773454 0.057359 -0.013352 377870.000000 0 0 1
34.171563 12.283586 -6.360596 36.865151 0.345085 1.744201 0.061857 -0.009714 664727.000000 0 0 1
33.790703 12.659186 -5.084396 36.440605 0.358451 1.710779 0.047539 -0.005357 -464569.000000 0 0 1
34.988933 12.668486 -4.132796 37.440566 0.347388 1.681405 0.053361 0.007350 -568432.000000 0 0 1
35.815303 13.752786 -4.366996 38.612766 0.366631 1.684136 0.056222 0.008060 -651890.000000 0 0 1
-34.994403 13.520786 -3.710496 37.698643 -0.368701 1.669381 0.040763 0.002234 -479845.000000 0 0 1
-34.072412 14.717686 -3.643896 37.293666 -0.407745 1.668661 0.042318 -0.002557 -349934.000000 0 0 1
-34.477432 15.680686 -2.697796 37.971771 -0.426847 1.641904 0.049678 -0.004276 -157761.000000 0 0 1
-33.581780 16.742986 -2.571496 37.612181 -0.462506 1.639218 0.070341 -0.005497 -216821.000000 0 0 1
-34.044831 17.673586 -1.442796 38.386037 -0.478832 1.608392 0.060934 -0.004902 509866.000000 0 0 1
-35.090383 18.596186 -1.793796 39.753878 -0.487320 1.615934 0.041877 0.000774 488013.000000 0 0 1
-35.608580 19.245086 -0.679596 40.482171 -0.495491 1.587585 0.020553 0.003428 210141.000000 0 0 1
35.296813 20.284786 -1.029896 40.723436 0.521603 1.596089 0.010460 0.010904 407825.000000 0 0 1
35.701933 21.465186 -1.718396 41.693346 0.541326 1.612023 0.036711 0.008343 -87651.400000 0 0 1
35.466193 21.348786 -3.093496 41.511338 0.541850 1.645387 0.018578 0.005279 107875.000000 0 0 1
35.871523 22.685486 -3.877596 42.619634 0.563910 1.661904 0.042492 -0.013983 496204.000000 0 0 1
-34.740119 22.840886 -3.914096 41.760054 -0.581615 1.664662 0.057556 -0.006495 377829.000000 0 0 1
-34.383203 23.988386 -4.651296 42.181535 -0.609166 1.681290 0.068559 -0.017685 -533809.000000 0 0 1
-32.896010 24.133086 -4.944696 41.097486 -0.632934 1.691405 0.077029 -0.023791 -511038.000000 0 0 1
-32.381540 23.140986 -5.816196 40.223097 -0.620481 1.715903 0.056199 -0.021571 -231543.000000 0 0 1
-31.047330 23.503686 -6.093296 39.414315 -0.647984 1.726015 0.056561 -0.013253 -200485.000000 0 0 1
-30.373110 22.655786 -7.158696 38.562383 -0.640882 1.757519 0.045517 -0.035659 -806141.000000 0 0 1
-30.988070 22.784086 -8.360296 39.360763 -0.633996 1.784829 0.056288 -0.048371 -81536.000000 0 0 1
-30.092860 22.465786 -9.425996 38.718745 -0.641289 1.816715 0.026850 -0.048775 -27431.400000 0 0 1
-30.712010 22.230886 -10.769696 39.413528 -0.626554 1.847565 0.036381 -0.025716 -57842.800000 0 0 1
-31.558560 23.319886 -11.174596 40.799895 -0.636385 1.848229 0.048621 -0.023253 641636.000000 0 0 1
-32.147330 23.145886 -12.477096 41.531444 -0.624019 1.875935 0.020872 -0.012933 250129.000000 0 0 1
-32.826760 24.468886 -13.038296 42.968823 -0.640547 1.879093 0.049833 -0.008048 596168.000000 0 0 1
-31.852220 25.445786 -13.376896 42.906798 -0.674052 1.887848 0.052991 -0.019929 170603.000000 0 0 1
-31.083270 25.285786 -14.568796 42.635554 -0.682910 1.919527 0.051580 -0.020197 462567.000000 0 0 1
-29.739420 26.092286 -14.445596 42.117879 -0.720167 1.920884 0.042249 -0.015276 646293.000000 0 0 1
-28.693540 25.591086 -13.608496 40.784974 -0.728309 1.910984 0.052335 -0.016262 421436.000000 0 0 1
-28.948050 25.241386 -12.239296 40.310266 -0.717103 1.879294 0.056319 -0.021503 -985395.000000 0 0 1
-29.235250 26.392086 -11.275096 40.967913 -0.734332 1.849613 0.073180 -0.014707 -107125.000000 0 0 1
-28.100910 27.220086 -11.131196 40.675518 -0.769477 1.847991 0.062788 -0.012999 -24510.500000 0 0 1
-28.331620 28.431486 -10.470096 41.480755 -0.787157 1.825965 0.053266 -0.016984 285310.000000 0 0 1
-27.015980 29.126086 -9.990796 40.963497 -0.822966 1.817177 0.062022 -0.013747 539414.000000 0 0 1
-27.280690 30.380086 -9.467596 41.914449 -0.839099 1.798642 0.023016 -0.015096 -685660.000000 0 0 1
-26.108180 31.029386 -9.121196 41.565083 -0.871315 1.792041 0.034636 -0.010068 -637518.000000 0 0 1
34.473603 -25.240364 33.936443 54.563609 -0.631989 0.899552 0.001181 0.007314 -470230.000000 0 0 1
34.095463 -23.939514 34.060627 53.811962 -0.612155 0.885430 -0.005777 0.002164 60456.600000 0 0 1
32.980703 -23.884714 -33.565706 52.771801 -0.626785 2.260170 -0.013582 0.006046 281524.000000 0 0 1
32.574003 -22.458514 -33.198966 51.649026 -0.603618 2.268918 -0.017615 0.003123 97478.400000 0 0 1
31.848013 -21.852714 -34.251823 51.623875 -0.601374 2.296267 -0.020802 0.004007 70379.500000 0 0 1
31.403963 -20.533114 -33.965036 50.610684 -0.579069 2.306493 -0.022833 0.011610 149166.000000 0 0 1
31.177203 -19.673014 33.300677 49.678774 -0.562907 0.836156 -0.020839 0.013516 -1039680.000000 0 0 1
32.289213 -19.367614 32.586139 49.795123 -0.540285 0.857402 -0.012625 0.005765 -901550.000000 0 0 1
31.916233 -18.471914 31.531452 48.518966 -0.524657 0.863371 -0.007097 0.008011 -425245.000000 0 0 1
32.918113 -18.492014 30.391222 48.468373 -0.511826 0.893059 -0.003018 0.005867 -54222.500000 0 0 1
34.047883 -17.713714 30.786672 49.202167 -0.479723 0.894745 -0.002199 -0.002337 541429.000000 0 0 1
35.016013 -17.462214 29.782162 49.173441 -0.462601 0.920207 0.015842 -0.008220 289263.000000 0 0 1
-35.781993 -16.635214 30.218662 49.701599 0.435179 0.917255 0.018326 -0.018373 -824875.000000 0 0 1
-34.855277 -16.384714 29.179932 48.319951 0.439425 0.922424 0.036177 -0.013219 305220.000000 0 0 1
-33.851610 -15.468914 29.626932 47.570726 0.428629 0.898483 0.035195 -0.016125 101081.000000 0 0 1
-32.674540 -16.210814 30.320832 47.431729 0.460547 0.877271 0.047274 -0.015625 -1694030.000000 0 0 1
-31.803320 -15.222514 30.668662 46.730536 0.446418 0.854909 0.044272 -0.012770 -247889.000000 0 0 1
-30.681200 -15.776014 31.385902 46.640042 0.474936 0.832621 0.044938 -0.017136 689438.000000 0 0 1
-29.596060 -14.794114 31.835222 45.915945 0.463542 0.804687 0.044460 -0.016713 -16311.500000 0 0 1
-29.988270 -14.228914 33.067853 46.853402 0.443026 0.787283 0.048945 -0.018474 767260.000000 0 0 1
-29.037900 -13.228414 33.478205 46.249117 0.427465 0.761406 0.048509 -0.013359 380905.000000 0 0 1
-29.388850 -12.723714 -33.639266 46.445642 0.408580 2.380774 0.036311 -0.011245 -115671.000000 0 0 1
-29.056500 -13.619214 -32.600146 45.744210 0.438308 2.364082 0.049171 -0.015135 126685.000000 0 0 1
-29.372760 -13.027114 -31.327096 44.875959 0.417444 2.343512 0.056499 -0.008679 -314501.000000 0 0 1
-29.393370 -14.043414 -30.139326 44.379801 0.445710 2.317363 0.055427 -0.009520 637059.000000 0 0 1
-30.593130 -14.856514 -30.126266 45.433991 0.452074 2.295719 0.040377 -0.009316 793705.000000 0 0 1
-30.860500 -15.460114 -28.863806 44.994499 0.464421 2.267244 0.026068 -0.003258 379852.000000 0 0 1
-32.121130 -16.354614 -28.812776 46.145601 0.470944 2.245145 0.011575 -0.007388 214711.000000 0 0 1
-31.957590 -17.585114 -29.436316 46.872386 0.503046 2.249789 0.017368 -0.005889 158018.000000 0 0 1
-33.188640 -18.259914 -29.605146 48.076762 0.502986 2.234183 0.003600 -0.006025 47876.300000 0 0 1
-32.908510 -19.683214 -30.141726 48.774201 0.539035 2.236973 0.009092 -0.002456 -525611.000000 0 0 1
-34.060926 -20.329214 -30.590716 50.092071 0.538099 2.227728 -0.012509 -0.005684 -841535.000000 0 0 1
-33.799520 -21.539414 -31.312206 50.860674 0.567374 2.234003 -0.014836 -0.000924 -46901.000000 0 0 1
-35.039821 -22.457814 -31.286786 52.067317 0.569967 2.215412 -0.023815 0.008099 118101.000000 0 0 1
-35.371727 -22.988514 -30.002506 51.766604 0.576313 2.189000 -0.029257 0.002240 -803601.000000 0 0 1
35.766233 -24.025914 -30.023046 52.515248 -0.591513 2.179375 -0.016392 0.007381 -756540.000000 0 0 1
-35.746965 -25.401874 -30.482426 53.406732 0.617806 2.178227 -0.011779 0.006891 -2402.980000 0 0 1
-35.440775 -25.631794 -31.855276 54.109113 0.626146 2.200274 0.000574 0.008677 -263283.000000 0 0 1
-34.766699 -26.869044 -31.991966 54.352137 0.657958 2.200129 0.004221 0.003147 -94404.700000 0 0 1
-34.750151 -27.568894 -33.352656 55.497898 0.670670 2.215512 0.012752 -0.009323 -1275550.000000 0 0 1
-35.995801 -28.002934 -33.684066 56.696370 0.661150 2.206959 0.027531 -0.008519 -1784200.000000 0 0 1
35.822663 -29.085434 33.942803 57.282978 -0.681972 0.936580 0.016636 -0.005992 62646.100000 0 0 1
-35.603606 -30.462744 -34.184594 58.001569 0.707741 2.201080 0.018039 -0.010235 15668.600000 0 0 1
35.942283 -30.978554 -32.983906 57.788032 -0.711361 2.178245 0.030347 -0.017002 -319692.000000 0 0 1
-35.318836 -32.074354 -32.499886 57.727177 0.737293 2.168797 0.030623 -0.022907 84237.700000 0 0 1
-35.690563 -32.457954 -31.042046 57.366748 0.737999 2.142560 0.033699 -0.027705 -271609.000000 0 0 1
35.174223 -33.231374 -30.999986 57.467811 -0.757004 2.140559 0.044553 -0.024222 -236422.000000 0 0 1
34.822763 -33.569014 -29.662496 56.739468 -0.767068 2.120910 0.032059 -0.020663 633034.000000 0 0 1
33.603993 34.184820 -29.438776 56.253639 0.793966 2.121541 0.036166 -0.018971 600947.000000 0 0 1
32.318033 -34.088243 -29.779426 55.617244 -0.812049 2.135819 0.039503 -0.015980 -184983.000000 0 0 1
31.295873 33.730357 -29.424676 54.616666 0.822819 2.139748 0.048486 -0.017870 -631496.000000 0 0 1
29.962883 34.027535 -30.051216 54.394146 0.848833 2.156123 0.027850 -0.005553 -860621.000000 0 0 1
29.798093 33.646957 -31.386936 54.819557 0.845988 2.180409 0.029881 -0.008241 8176.830000 0 0 1
28.468423 34.041212 -31.704276 54.538210 0.874314 2.191149 0.024687 -0.001276 182654.000000 0 0 1
28.117743 33.547566 -33.127966 54.895435 0.873225 2.218647 0.020683 -0.006885 -77057.700000 0 0 1
27.936083 32.143308 -33.248336 54.028408 0.855312 2.233672 0.004963 0.001249 36379.200000 0 0 1
27.588493 31.703138 33.972952 54.040498 0.854684 0.890971 0.005696 0.005576 -1057.820000 0 0 1
27.472563 30.163188 33.930239 53.064308 0.832048 0.877056 0.013315 -0.006452 581061.000000 0 0 1
28.755193 29.526288 33.994930 53.425819 0.798628 0.881102 0.023336 -0.003381 418924.000000 0 0 1
28.546553 28.156248 34.085658 52.626154 0.778515 0.866242 0.027440 -0.008193 43864.700000 0 0 1
29.850833 27.408518 -34.137153 52.987209 0.742770 2.270842 0.043803 -0.021362 -61118.400000 0 0 1
30.366983 27.564148 -32.832156 52.534621 0.737054 2.245880 0.040367 -0.015187 -647918.000000 0 0 1
31.597823 26.923578 -32.704646 52.847851 0.705695 2.238068 0.048165 -0.019894 -248085.000000 0 0 1
32.247233 26.998708 -31.294406 52.422840 0.697040 2.210504 0.063573 -0.020620 157281.000000 0 0 1
33.167713 28.093628 -31.104676 53.449509 0.702760 2.191915 0.051355 -0.014092 474438.000000 0 0 1
32.691613 29.441868 -31.014436 53.828064 0.733143 2.184839 0.074886 -0.026355 -70987.900000 0 0 1
31.664803 29.779168 -29.915376 52.767304 0.754719 2.173571 0.063617 -0.014124 191933.000000 0 0 1
32.284143 30.171508 -28.738996 52.711628 0.751585 2.147438 0.044478 -0.010222 -714467.000000 0 0 1
31.308533 30.531978 -27.858056 51.850721 0.772841 2.137998 0.050280 -0.005046 -787043.000000 0 0 1
31.849953 30.975518 -26.471286 51.716837 0.771481 2.108134 0.053573 -0.005421 -26620.400000 0 0 1
32.550283 32.209948 -26.540016 52.928009 0.780143 2.096054 0.049630 -0.011766 169162.000000 0 0 1
33.046613 32.596188 -25.298086 52.863818 0.778537 2.069801 0.030403 -0.011629 -324306.000000 0 0 1
33.367273 34.099875 -25.276426 53.991427 0.796256 2.057999 0.029145 -0.011745 1454690.000000 0 0 1
32.155303 -33.774114 -25.220136 53.016126 -0.809947 2.066564 0.028893 0.000279 1556280.000000 0 0 1
32.478223 -32.413084 -25.098596 52.300885 -0.784394 2.071324 0.021855 -0.003886 -482849.000000 0 0 1
32.917583 -31.604194 -26.417616 52.728387 -0.765045 2.095565 0.018840 -0.006150 1459710.000000 0 0 1
34.299433 -31.760544 -26.812866 53.889823 -0.746984 2.091568 0.018824 -0.008779 2033830.000000 0 0 1
35.343583 -31.194554 -25.971886 53.822002 -0.723123 2.074362 0.021106 -0.006380 730111.000000 0 0 1
-35.211460 -31.594794 -26.210706 54.084000 0.731314 2.076736 0.014293 -0.007080 2942.360000 0 0 1
-34.867612 -32.961594 -25.924636 54.537179 0.757305 2.066166 0.018070 -0.010233 -143435.000000 0 0 1
-34.760056 -33.322534 -24.545296 54.047427 0.764287 2.042207 0.023320 -0.009822 -697848.000000 0 0 1
-33.569250 -32.835944 -23.731496 52.614425 0.774356 2.038733 0.009750 -0.008073 -440745.000000 0 0 1
-33.600090 -31.451434 -23.560396 51.703492 0.752380 2.043936 -0.016803 -0.010737 -278575.000000 0 0 1
-33.057170 -31.034394 -22.324796 50.540149 0.753848 2.028316 0.005342 -0.015546 -265437.000000 0 0 1
-32.738210 -29.489654 -22.152096 49.316787 0.733241 2.036643 0.009429 -0.004465 96709.900000 0 0 1
-33.726030 -28.497854 -22.446996 49.532216 0.701573 2.041125 -0.001812 -0.002126 -186166.000000 0 0 1
-33.980360 -28.274714 -23.824296 50.216745 0.694004 2.065112 -0.004717 -0.005399 542209.000000 0 0 1
-35.235398 -27.390284 -24.167996 50.752862 0.660777 2.067113 -0.005845 -0.008276 633968.000000 0 0 1
-35.034214 -26.082244 -23.663396 49.675305 0.639958 2.067308 -0.009310 -0.000289 -158145.000000 0 0 1
35.987483 -25.191674 -24.140896 50.124867 -0.610734 2.073293 -0.012628 0.001588 177700.000000 0 0 1
-35.926212 -24.663314 -25.603456 50.542149 0.601607 2.102006 -0.009929 -0.005781 -988019.000000 0 0 1
-34.842066 -23.806714 -25.715766 49.416899 0.599413 2.118097 -0.014384 -0.007325 -797123.000000 0 0 1
-34.802031 -23.113914 -26.885366 49.681559 0.586261 2.142605 -0.012241 -0.015386 -4579.870000 0 0 1
-33.635200 -22.109914 -27.004316 48.470693 0.581521 2.161718 -0.004462 -0.023448 -160700.000000 0 0 1
-33.473000 -21.069314 -26.061446 47.366198 0.561787 2.153414 -0.007340 -0.013842 5317.150000 0 0 1
-34.368383 -19.965714 -26.153626 47.579698 0.526281 2.152778 -0.012855 -0.014447 825361.000000 0 0 1
-35.559253 -19.912114 -25.110026 47.869262 0.510465 2.122988 0.002260 -0.016326 896606.000000 0 0 1
-35.118829 -19.473014 -23.797296 46.678065 0.506283 2.105769 0.008245 -0.013849 185163.000000 0 0 1
-34.252025 -20.267814 -22.998096 45.966270 0.534313 2.094771 -0.008563 -0.012783 200973.000000 0 0 1
-34.831424 -21.691314 -22.570096 46.831085 0.556981 2.073672 0.027674 -0.008932 1223420.000000 0 0 1
35.952353 -21.541914 -21.848996 47.265256 -0.539816 2.051342 0.018470 -0.004578 511620.000000 0 0 1
35.404373 -22.697314 -21.379996 47.177770 -0.570085 2.041125 0.017900 0.000194 -236660.000000 0 0 1
34.281983 -22.504714 -20.347796 45.779355 -0.580902 2.031385 0.014613 -0.003033 462524.000000 0 0 1
33.154883 -21.803814 -20.903596 44.851008 -0.581724 2.055637 0.025569 -0.003255 774295.000000 0 0 1
32.076443 -21.671614 -19.953596 43.551155 -0.594178 2.046726 0.026132 0.000487 851011.000000 0 0 1
30.815893 -21.047214 -20.612096 42.631714 -0.599224 2.075436 0.026909 0.008356 -562690.000000 0 0 1
30.286613 -21.949414 -21.570596 43.178077 -0.627127 2.093902 0.026589 0.006856 -147967.000000 0 0 1
28.992143 -21.599814 -21.988796 42.315523 -0.640308 2.117225 0.045504 0.000595 -217603.000000 0 0 1
28.714383 -20.341514 -22.748096 41.901896 -0.616347 2.144670 0.067729 -0.005170 -821479.000000 0 0 1
28.802203 -19.095514 -21.967296 40.948354 -0.585451 2.137037 0.053651 0.001854 67521.500000 0 0 1
29.028263 -17.944214 -22.694296 40.983728 -0.553668 2.157644 0.063960 -0.001196 -222577.000000 0 0 1
30.020743 -16.978214 -22.024296 40.921564 -0.514703 2.139105 0.053350 0.001554 -237955.000000 0 0 1
29.547783 -16.408214 -20.809296 39.690399 -0.506912 2.122678 0.040865 -0.003470 1158430.000000 0 0 1
30.557763 -15.644614 -20.063796 39.762882 -0.473177 2.099699 0.028619 -0.011262 1448560.000000 0 0 1
31.710153 -16.340214 -19.259196 40.539524 -0.475812 2.065842 0.042515 -0.014248 306157.000000 0 0 1
32.590023 -17.096914 -20.046596 41.907996 -0.483138 2.069569 0.040717 -0.013823 -240871.000000 0 0 1
33.333413 -17.976314 -19.226196 42.472472 -0.494582 2.040559 0.039355 -0.013863 -637458.000000 0 0 1
34.625393 -18.406914 -19.901996 43.975241 -0.488608 2.040445 0.019329 -0.012064 -530909.000000 0 0 1
35.546543 -17.342314 -20.089996 44.361250 -0.453902 2.040781 0.019831 -0.010782 77734.100000 0 0 1
-35.551462 -17.702014 -21.076096 44.960756 0.461987 2.058690 0.015623 -0.002707 -514562.000000 0 0 1
-34.556911 -16.635914 -21.495296 43.965686 0.448662 2.081637 0.004329 -0.001555 -494270.000000 0 0 1
-33.612130 -16.334314 -20.505896 42.627185 0.452357 2.072651 0.007473 -0.013765 -636739.000000 0 0 1
-32.791670 -15.337014 -21.049396 41.875945 0.437484 2.097470 -0.000239 -0.009394 -834596.000000 0 0 1
-31.598230 -15.006214 -20.137296 40.362673 0.443372 2.093136 0.009379 -0.005232 -220092.000000 0 0 1
-30.532060 -15.920214 -20.238696 39.940766 0.480641 2.102170 -0.004029 -0.006097 218422.000000 0 0 1
-30.745270 -17.042014 -19.381296 40.141457 0.506136 2.074674 -0.000243 -0.005981 -865326.000000 0 0 1
-29.673450 -18.066714 -19.620096 39.898221 0.546902 2.084899 -0.008488 -0.010910 -756375.000000 0 0 1
-30.085030 -19.341814 -19.284596 40.633859 0.571371 2.065299 0.005093 -0.014239 -298769.000000 0 0 1
-29.144060 -20.367114 -19.406796 40.507028 0.609949 2.070422 -0.002988 -0.014103 -511269.000000 0 0 1
-29.724290 -21.770914 -19.102096 41.501762 0.632160 2.049098 0.005415 -0.003470 -12512.500000 0 0 1
-30.632550 -22.184014 -20.114496 42.837794 0.626782 2.059578 0.009666 -0.007658 303949.000000 0 0 1
-31.085020 -23.501914 -19.875396 43.745284 0.647364 2.042432 0.019447 0.000814 -358970.000000 0 0 1
-31.994300 -24.118114 -20.902096 45.190888 0.645945 2.051642 0.008273 0.002185 -388213.000000 0 0 1
-31.346290 -24.364014 -22.108596 45.442108 0.660716 2.078901 0.008735 -0.005241 -31820.900000 0 0 1
-32.253540 -24.959914 -22.998696 46.821237 0.658601 2.084266 0.008255 -0.003035 -343549.000000 0 0 1
-31.782390 -25.000414 -24.474996 47.266970 0.666524 2.115078 0.010372 0.001480 137807.000000 0 0 1
-30.517940 -25.626054 -24.567496 46.814541 0.698487 2.123257 0.020225 -0.008708 -364537.000000 0 0 1
-30.309560 -26.167754 -25.860686 47.667556 0.712193 2.144232 0.024835 -0.002257 114809.000000 0 0 1
-28.810660 -26.472594 -26.069756 47.015791 0.743131 2.158546 0.036094 -0.011124 6174.260000 0 0 1
-27.948780 -25.363684 -26.136936 45.908499 0.736947 2.176483 0.044890 -0.012628 -692012.000000 0 0 1
-26.654610 -25.840514 -26.370346 45.536750 0.769891 2.188421 0.042627 -0.012215 -55893.800000 0 0 1
-25.586770 -24.744414 -26.646006 44.463226 0.768663 2.213400 0.054951 -0.014842 66123.600000 0 0 1
-25.694310 -24.102914 -27.933986 44.960601 0.753452 2.241196 0.063502 -0.017412 -283508.000000 0 0 1
-24.785840 -23.032414 -28.065676 43.960348 0.748746 2.263255 0.087648 -0.016905 58134.800000 0 0 1
-24.853740 -22.360914 -29.476626 44.571183 0.732649 2.293398 0.068927 -0.009418 84382.200000 0 0 1
-24.427040 -23.275314 -30.475446 45.466178 0.761259 2.305394 0.064955 -0.013474 82871.800000 0 0 1
-24.147440 -22.649514 -31.705976 45.840684 0.753400 2.334576 0.067827 -0.006175 -97822.800000 0 0 1
-23.750540 -23.707414 -32.757386 46.895373 0.784489 2.344124 0.059666 -0.012617 202231.000000 0 0 1
-24.827940 -24.541014 -33.154396 48.144595 0.779586 2.330411 0.028282 -0.015011 -57449.900000 0 0 1
-24.372140 -25.598994 -33.962756 49.018145 0.809944 2.336245 0.035642 -0.016703 181692.000000 0 0 1
-19.782140 -14.942914 -11.985696 27.536897 0.646932 2.021123 0.012959 0.022271 78555.500000 0 0 1
-20.119940 -14.158514 -10.914496 26.914713 0.613209 1.988346 0.007158 0.019798 -47376.700000 0 0 1
-19.294440 -14.459414 -9.808196 26.029806 0.643122 1.957142 0.011623 0.012050 -69485.600000 0 0 1
-19.703840 -13.772014 -8.527896 25.507542 0.610021 1.911689 0.030647 -0.006930 -72171.200000 0 0 1
-20.747640 -14.537914 -7.953696 26.553283 0.611197 1.875004 0.044899 -0.010290 85764.700000 0 0 1
-21.093840 -14.034214 -6.683296 26.202590 0.587072 1.828709 0.051282 -0.017129 -47036.100000 0 0 1
-22.261440 -14.824314 -6.045196 27.420365 0.587485 1.793086 0.037293 -0.023978 -534935.000000 0 0 1
-21.987540 -16.133314 -5.551996 27.830926 0.633018 1.771634 0.030894 -0.021718 273558.000000 0 0 1
-21.192040 -16.232714 -4.376896 27.051078 0.653651 1.733312 0.042273 -0.021982 119761.000000 0 0 1
-20.987240 -17.707214 -4.026196 27.752837 0.700833 1.716383 0.032875 -0.014540 -793891.000000 0 0 1
-22.174240 -18.207214 -3.545596 28.909701 0.687474 1.693750 0.043696 -0.019003 -649237.000000 0 0 1
-22.014440 -19.285814 -2.595296 29.382202 0.719426 1.659240 0.034335 -0.017090 10827.900000 0 0 1
-23.357640 -19.982914 -2.278496 30.823494 0.707690 1.644785 0.030360 -0.033057 173253.000000 0 0 1
-23.934540 -20.873114 -3.242096 31.922724 0.717180 1.672533 0.003648 -0.028740 204344.000000 0 0 1
-24.795840 -21.828314 -2.655496 33.141525 0.721836 1.651008 0.024652 -0.027276 -152973.000000 0 0 1
-24.942140 -23.111014 -3.538196 34.186959 0.747310 1.674477 0.039230 -0.027997 -408484.000000 0 0 1
-23.830040 -23.964114 -3.577196 33.984495 0.788203 1.676251 0.037128 -0.024053 -365108.000000 0 0 1
-23.875040 -24.780814 -4.721396 34.733239 0.804012 1.707152 0.042855 -0.018060 741988.000000 0 0 1
-22.446840 -24.915414 -5.386296 33.965434 0.837472 1.730050 0.052335 -0.015417 1216470.000000 0 0 1
-21.984540 -23.771114 -6.098496 32.948104 0.824424 1.756964 0.038315 -0.006817 96371.300000 0 0 1
-21.443140 -22.702114 -5.326296 31.679073 0.813909 1.739732 0.025691 -0.008683 -350481.000000 0 0 1
-21.325140 -21.362714 -6.128696 30.800781 0.786278 1.771112 0.027725 0.003355 -278523.000000 0 0 1
-20.330740 -21.291514 -7.124096 30.288947 0.808477 1.808225 0.019512 0.009047 -93836.200000 0 0 1
-20.401440 -20.005414 -7.712296 29.595859 0.775598 1.834426 0.012055 0.006189 416775.000000 0 0 1
-19.099340 -19.547114 -8.439996 28.602588 0.796984 1.870334 0.038562 0.005887 56314.000000 0 0 1
-18.805040 -20.258414 -9.645696 29.275798 0.822586 1.906546 0.032137 0.010783 672952.000000 0 0 1
-17.583440 -19.889614 -10.329396 28.486322 0.846863 1.941862 0.069139 0.011895 738623.000000 0 0 1
-17.557340 -18.361314 -10.819296 27.612592 0.807778 1.973410 0.072084 0.014058 -443719.000000 0 0 1
-17.221140 -17.291414 -9.939996 26.350791 0.787434 1.957587 0.054929 0.011020 674036.000000 0 0 1
-15.897840 -17.321014 -9.387796 25.315797 0.828214 1.950696 0.082242 0.005717 501213.000000 0 0 1
-15.589640 -16.047814 -8.530096 23.944347 0.799879 1.935044 0.061027 0.010206 375592.000000 0 1 0
-16.390740 -16.154114 -7.344996 24.157002 0.778128 1.879740 0.050728 0.009719 509639.000000 0 1 0
-16.234540 -14.926914 -6.605596 23.021880 0.743460 1.861814 0.036546 0.002782 -50968.400000 0 1 0
-16.970140 -15.121814 -5.307396 23.341452 0.727867 1.800183 0.037974 -0.005393 -53057.500000 0 1 0
-17.319040 -13.968614 -4.537096 22.708073 0.678720 1.771951 0.025676 -0.006829 197609.000000 0 1 0
-17.810040 -14.289814 -3.264796 23.066322 0.676170 1.712813 0.028714 -0.012202 -666350.000000 0 1 0
-18.621340 -13.263014 -2.516296 22.999861 0.618899 1.680421 0.031404 -0.009814 -1277890.000000 0 1 0
-19.834840 -13.198814 -3.172196 24.035233 0.587150 1.703164 0.043403 -0.020449 -1191920.000000 0 1 0
-20.740440 -12.606114 -2.286096 24.378397 0.546138 1.664710 0.041214 -0.012646 -55987.800000 0 1 0
-22.232340 -12.573214 -2.734596 25.687364 0.514694 1.677455 0.039681 -0.012558 374198.000000 0 0 1
-22.521840 -11.797514 -3.845896 25.713918 0.482526 1.720924 0.042331 -0.019519 153512.000000 0 0 1
-23.869240 -11.950114 -4.251596 27.030019 0.464167 1.728744 0.035143 -0.020800 101134.000000 0 0 1
-24.372040 -11.239114 -5.552996 27.407112 0.432086 1.774820 0.043140 -0.029398 3806.670000 0 0 1
-23.859740 -11.918114 -6.675396 27.493446 0.463253 1.816047 0.040815 -0.035663 -1609.580000 0 0 1
-24.380340 -11.370714 -7.813896 28.013410 0.436399 1.853480 0.045816 -0.036371 -532320.000000 0 0 1
-23.517540 -11.607514 -9.048996 27.743349 0.458489 1.903044 0.057777 -0.040076 -514888.000000 0 0 1
-22.539440 -10.609114 -9.125996 26.530426 0.439927 1.921951 0.051385 -0.030041 -326616.000000 0 0 1
-21.617240 -10.867214 -10.151396 26.238374 0.465814 1.968054 0.040955 -0.024573 382914.000000 0 0 1
-20.260340 -10.096714 -10.010096 24.751304 0.462326 1.987149 0.033317 -0.025618 173688.000000 0 1 0
-20.465440 -8.715014 -10.320296 24.521302 0.402582 2.005201 0.039365 -0.030663 -383844.000000 0 1 0
-19.417040 -7.937614 -9.913796 23.201520 0.388066 2.012290 0.034535 -0.025169 -878041.000000 0 1 0
-19.165740 -6.750914 -10.843796 23.032333 0.338668 2.061002 0.022854 -0.023499 -237030.000000 0 1 0
-18.565940 -7.051214 -12.059696 23.234673 0.362966 2.116522 0.020998 -0.017943 94284.800000 0 1 0
-18.366540 -5.886214 -12.848796 23.174747 0.310143 2.158475 0.030001 -0.016701 -393084.000000 0 1 0
-17.862440 -6.100514 -14.287796 23.673280 0.329107 2.218731 0.028659 -0.008438 -251973.000000 0 1 0
-18.664540 -6.857214 -15.164596 25.007028 0.352085 2.222339 0.035551 -0.015070 198492.000000 0 0 1
-18.124840 -6.720714 -16.487796 25.407189 0.355085 2.276990 0.039905 -0.016666 -223609.000000 0 0 1
-18.835840 -7.421914 -17.629696 26.845482 0.375351 2.287244 0.034578 -0.011049 -885842.000000 0 0 1
-20.107240 -6.943014 -17.953196 27.835657 0.332481 2.271782 0.032611 -0.019572 -104647.000000 0 0 1
-20.630040 -7.854914 -18.928196 29.078770 0.363803 2.279603 0.037827 -0.017342 -131694.000000 0 0 1
-22.088740 -7.507414 -19.307496 30.282885 0.327627 2.262138 0.032395 -0.018286 -531179.000000 0 0 1
-22.230440 -6.369414 -20.187896 30.697118 0.279042 2.288489 0.034066 -0.022101 939275.000000 0 0 1
-23.511240 -6.323914 -20.830096 32.041586 0.262755 2.278507 0.030133 -0.022766 1256620.000000 0 0 1
-24.775940 -5.891714 -20.012796 32.389374 0.233464 2.236842 0.058021 -0.025261 132856.000000 0 0 1
-24.875440 -4.504514 -19.686396 32.041105 0.179142 2.232435 0.058296 -0.024701 -272697.000000 0 0 1
-25.923670 -4.391114 -18.774096 32.307666 0.167794 2.190880 0.083830 -0.019806 -505609.000000 0 0 1
-26.052050 -2.953814 -18.120396 31.871353 0.112899 2.175536 0.061035 -0.015568 129403.000000 0 0 1
-26.432740 -1.879214 -19.019396 32.618379 0.070975 2.193321 0.070570 -0.017849 371474.000000 0 0 1
-27.766120 -1.838814 -19.499496 33.978950 0.066129 2.182020 0.069600 -0.017847 128082.000000 0 0 1
-27.876260 -0.706814 -20.540196 34.633584 0.025350 2.205665 0.071461 -0.014331 -98245.500000 0 0 1
-27.199070 -0.818114 -21.778596 34.853493 0.030070 2.245750 0.071968 -0.016075 59268.700000 0 0 1
-27.767080 -1.764414 -22.635896 35.867920 0.063458 2.253754 0.080644 -0.009768 -220868.000000 0 0 1
-27.136260 -1.697714 -24.027996 36.285031 0.062481 2.294549 0.079103 -0.014338 -474888.000000 0 0 1
-27.319670 -0.478914 -24.843696 36.929703 0.017528 2.308688 0.079267 -0.014518 260942.000000 0 0 1
-26.813260 0.841186 -24.491196 36.324609 -0.031362 2.310720 0.069368 -0.007139 -26303.200000 0 0 1
-25.326300 0.946286 -24.076596 34.957109 -0.037346 2.330555 0.069248 -0.008155 121304.000000 0 0 1
-24.435040 0.739586 -25.187986 35.100610 -0.030258 2.371138 0.057618 -0.008243 -828568.000000 0 0 1
-23.158440 1.025086 -24.763496 33.920420 -0.044235 2.389187 0.053869 -0.011705 -615617.000000 0 0 1
-22.013640 0.516386 -25.712306 33.852470 -0.023453 2.433402 0.038010 -0.011725 336216.000000 0 0 1
-22.008340 1.112486 -27.000016 34.851192 -0.050505 2.457073 0.017504 -0.001716 -312981.000000 0 0 1
-21.160040 0.389386 -27.838446 34.969673 -0.018400 2.491576 0.013471 -0.001290 -209045.000000 0 0 1
-20.924440 1.120586 -29.155736 35.904664 -0.053503 2.518422 0.002603 0.012682 -302819.000000 0 0 1
-20.015540 2.191886 -29.166906 35.441990 -0.109075 2.537377 0.006892 0.013107 71884.400000 0 0 1
-20.089140 2.942186 -30.323926 36.493431 -0.145423 2.551595 -0.001902 0.007535 -361867.000000 0 0 1
-19.447040 2.459186 -31.607836 37.192611 -0.125788 2.586481 -0.004788 0.004501 -831748.000000 0 0 1
-18.055740 2.377886 -31.602566 36.474461 -0.130943 2.618804 -0.004742 0.008442 -725262.000000 0 0 1
-17.601440 1.871686 -32.777396 37.251465 -0.105939 2.646439 -0.009421 0.010246 950297.000000 0 0 1
-16.027940 1.822586 -32.852586 36.599305 -0.113227 2.685156 -0.007148 0.002332 912456.000000 0 0 1
-15.351340 3.070786 -32.903386 36.437978 -0.197428 2.697491 -0.000631 0.007360 912871.000000 0 0 1
-13.935640 2.822386 -33.071246 35.998268 -0.199827 2.735547 -0.001565 0.004816 699774.000000 0 0 1
-13.235740 4.108486 -33.442396 36.200253 -0.300978 2.748729 0.011231 0.006791 -506922.000000 0 0 1
-13.130440 5.041986 -32.338596 35.264924 -0.366631 2.731337 0.030850 -0.013195 215837.000000 0 0 1
-12.520940 6.261086 -32.760216 35.625930 -0.463687 2.737758 0.039419 -0.002633 -9533.930000 0 0 1
-12.119140 7.262686 -31.637026 34.648544 -0.539886 2.721580 0.041802 -0.012246 -517729.000000 0 0 1
-11.075740 6.888686 -30.802736 33.450480 -0.556411 2.741041 0.051425 -0.020082 -231335.000000 0 0 1
-11.465440 5.949686 -29.831376 32.507939 -0.478672 2.732958 0.051978 -0.023773 -83977.500000 0 0 1
-10.277940 5.076886 -29.328266 31.489015 -0.458804 2.768984 0.058867 -0.026161 60917.100000 0 0 1
-9.596840 4.373886 -30.354326 32.134333 -0.427636 2.807192 0.046060 -0.025639 352257.000000 0 0 1
-10.283640 3.183086 -30.754696 32.584301 -0.300176 2.804893 0.048045 -0.025109 -294881.000000 0 0 1
-9.840740 2.429786 -32.054896 33.619346 -0.242069 2.835326 0.041227 -0.022119 -127339.000000 0 0 1
-10.504740 1.185186 -32.353276 34.036579 -0.112349 2.825780 0.035434 -0.016654 275264.000000 0 0 1
-10.170040 0.648286 -33.622536 35.132961 -0.063659 2.847303 0.029244 -0.009733 -754535.000000 0 0 1
-10.683640 1.324786 33.610920 35.292906 -0.123372 0.309972 0.039642 -0.012148 -906430.000000 0 0 1
-12.003640 1.094286 33.259094 35.375870 -0.090912 0.347687 -0.000028 -0.000971 -987118.000000 0 0 1
-12.283140 1.635686 31.993882 34.309758 -0.132386 0.369520 -0.000716 0.004690 41818.800000 0 0 1
-13.731740 1.278186 31.570932 34.451680 -0.092815 0.411847 -0.002939 0.007639 -357349.000000 0 0 1
-14.672840 2.060686 32.219352 35.463014 -0.139530 0.431035 -0.004767 0.026250 -654021.000000 0 0 1
-15.909240 1.783186 31.600752 35.424444 -0.111619 0.468912 -0.005458 0.025982 172244.000000 0 0 1
-16.746340 3.036686 31.133972 35.482187 -0.179385 0.500269 0.003703 0.018473 26383.900000 0 0 1
-17.463040 3.777086 32.115042 36.750512 -0.213009 0.507697 0.005794 0.011808 313669.000000 0 0 1
-16.684840 4.587586 33.006035 37.266986 -0.268325 0.482874 0.007894 0.016552 -67670.400000 0 0 1
-17.481340 5.133386 34.203854 38.753743 -0.285620 0.489443 0.018868 0.015566 -149143.000000 0 0 1
-18.568540 5.980386 33.924035 39.133054 -0.311580 0.521868 0.012136 0.010372 108293.000000 0 0 1
-19.623840 5.684286 -33.664456 39.378952 -0.281946 2.596125 0.005059 0.012694 1609780.000000 0 0 1
-21.036040 6.344086 -34.026066 40.503526 -0.292907 2.568221 0.007534 0.009588 964080.000000 0 0 1
-21.142240 7.724386 -33.733066 40.553424 -0.350287 2.553171 0.019538 0.004714 210186.000000 0 0 1
-20.349840 8.587486 33.976960 40.525236 -0.399321 0.576428 0.018644 -0.001915 -218205.000000 0 0 1
-20.066140 10.008186 -33.967956 40.701792 -0.462655 2.558124 0.028913 -0.002315 -976738.000000 0 0 1
-18.947540 10.040986 -33.135626 39.468980 -0.487309 2.567225 0.030410 -0.003874 -41938.500000 0 0 1
-18.546640 11.392586 -32.859746 39.414868 -0.550844 2.556551 0.035575 -0.010324 167357.000000 0 0 1
-17.749040 12.146786 -33.944616 40.184696 -0.600154 2.576829 0.022595 -0.027034 -710348.000000 0 0 1
-18.638140 12.591886 33.576600 40.414403 -0.594160 0.590239 0.033903 -0.016707 261794.000000 0 0 1
-18.029140 12.775986 32.316752 39.149051 -0.616494 0.599745 0.034714 -0.010500 -445900.000000 0 0 1
-18.774540 12.130886 31.167032 38.353952 -0.573653 0.622170 0.044211 -0.013119 -523524.000000 0 0 1
-18.818940 10.734586 31.192122 37.978051 -0.518381 0.607076 0.040130 -0.007952 641110.000000 0 0 1
-17.583040 10.072186 30.885672 36.939640 -0.520206 0.580640 0.031045 0.001135 516758.000000 0 0 1
-17.717540 8.526686 30.753742 36.502168 -0.448541 0.568855 0.035393 0.004551 -26235.600000 0 0 1
-18.304740 8.082886 29.552362 35.689476 -0.415824 0.595191 0.049535 -0.005180 75421.200000 0 0 1
-18.627440 6.733986 29.770512 35.757678 -0.346891 0.587078 0.034243 -0.003669 18229.000000 0 0 1
-19.327040 5.920486 28.650102 35.063015 -0.297256 0.614428 0.044014 -0.006461 669511.000000 0 0 1
-20.740740 6.046886 28.515822 35.775624 -0.283683 0.648362 0.064219 -0.015908 146576.000000 0 0 1
-21.297240 5.107786 27.703802 35.315189 -0.235387 0.668951 0.057851 -0.017383 876329.000000 0 0 1
-22.878040 5.137986 27.716342 36.304260 -0.220916 0.702164 0.054892 -0.012370 953262.000000 0 0 1
-23.359140 6.080486 26.793612 36.062715 -0.254653 0.733296 0.056026 -0.014869 -193333.000000 0 0 1
-24.763940 6.070086 26.804262 36.994150 -0.240379 0.760409 0.055010 -0.011454 -428736.000000 0 0 1
-25.351940 6.892986 25.616942 36.694167 -0.265474 0.798028 0.050082 -0.012919 -198921.000000 0 0 1
-25.294490 6.229586 24.362912 35.667499 -0.241477 0.818857 0.043756 -0.012523 302649.000000 0 0 1
-26.305720 5.270786 24.140332 36.090549 -0.197748 0.838092 0.038236 -0.009329 -365812.000000 0 0 1
-26.281410 4.890386 22.627352 35.023213 -0.183974 0.868376 0.043717 0.000236 -451440.000000 0 0 1
-26.856680 5.741986 21.745152 35.030035 -0.210630 0.901088 0.032287 0.002226 -271104.000000 0 0 1
-27.184420 5.018886 20.570152 34.457410 -0.182568 0.931073 0.046467 0.003673 -434235.000000 0 0 1
-27.960940 5.798886 19.506452 34.582408 -0.204493 0.971505 0.053375 -0.008076 687528.000000 0 0 1
-29.364350 5.778786 19.807052 35.888421 -0.194313 0.986148 0.069516 -0.008885 786966.000000 0 0 1
-30.196470 6.265886 18.750452 36.092487 -0.204600 1.024517 0.084000 -0.011771 286744.000000 0 0 1
-31.693120 6.253086 19.134252 37.545633 -0.194799 1.036046 0.088444 -0.011227 127556.000000 0 0 1
-32.027320 7.245586 20.123652 38.512454 -0.222486 1.020989 0.090741 -0.026290 327758.000000 0 0 1
-33.335730 7.049386 20.641052 39.837392 -0.208396 1.026130 0.080457 -0.015418 300103.000000 0 0 1
-33.702170 8.171986 21.673452 40.894452 -0.237885 1.012213 0.085882 -0.019208 46087.600000 0 0 1
-33.268740 7.931586 23.030752 41.232690 -0.234041 0.978153 0.071923 -0.017082 300795.000000 0 0 1
-33.639290 9.069686 23.811132 42.199894 -0.263354 0.971276 0.079803 -0.008064 491.930000 0 0 1
-0.136740 32.814586 11.777304 34.864317 -1.566629 1.226214 0.006752 -0.009622 -335576.000000 0 0 1
-0.444740 32.971686 13.094804 35.479624 -1.557309 1.192778 -0.003782 -0.007007 77497.300000 0 0 1
-0.419240 34.326986 13.490904 36.885257 -1.558584 1.196354 -0.004339 -0.010666 -623733.000000 0 0 1
-0.375240 -34.117297 14.974504 37.260791 1.559798 1.157223 -0.007906 -0.003896 -45271.900000 0 0 1
-1.597240 34.316386 15.624804 37.739899 -1.524285 1.143938 -0.006108 0.004545 68065.700000 0 0 1
-1.422940 -34.000097 16.968504 38.025800 1.528970 1.108241 -0.003790 -0.004883 -460419.000000 0 0 1
-2.706740 -33.737897 17.735704 38.211612 1.490739 1.088128 0.012217 0.000674 -940678.000000 0 0 1
-3.371540 33.786186 18.110204 38.481854 -1.471335 1.080807 0.006600 0.005131 -242085.000000 0 0 1
-4.185640 33.989186 19.221804 39.271645 -1.448267 1.059329 0.008712 0.003826 -351965.000000 0 0 1
-5.225640 32.898286 19.541404 38.619567 -1.413270 1.040258 0.004637 0.000148 329300.000000 0 0 1
-6.246840 32.900386 18.543804 38.279643 -1.383159 1.065085 0.004142 -0.003572 -873500.000000 0 0 1
-7.361240 32.224886 18.964804 38.108987 -1.346216 1.049913 0.004679 -0.012734 -1297860.000000 0 0 1
-8.331740 32.117486 17.822204 37.664064 -1.316977 1.077890 -0.002457 -0.012289 -934136.000000 0 0 1
-9.140540 33.234386 17.581204 38.693315 -1.302400 1.099128 0.007695 -0.007485 -456353.000000 0 0 1
-9.855240 33.088386 16.385204 38.215729 -1.281317 1.127682 0.008699 -0.002800 -266705.000000 0 0 1
-10.853540 34.234186 16.274504 39.428902 -1.263782 1.145319 0.023066 -0.011492 -148966.000000 0 0 1
-11.876840 34.261986 17.254704 40.158035 -1.237111 1.126669 0.021940 -0.011634 146959.000000 0 0 1
-12.908540 -33.495997 16.954404 39.699673 1.202960 1.129550 0.006045 -0.014442 97289.500000 0 0 1
-14.104240 -33.911297 17.806404 40.816341 1.176645 1.119362 0.028874 -0.013654 -441820.000000 0 0 1
-13.958740 -33.518497 19.178404 41.062723 1.176191 1.084843 0.015861 -0.005405 -244741.000000 0 0 1
-15.123740 -33.761097 19.917304 42.014738 1.149637 1.076906 0.006031 -0.013449 -467174.000000 0 0 1
-14.996940 -33.132497 21.323404 42.158725 1.145753 1.040500 0.011358 -0.021286 -94338.000000 0 0 1
-15.010740 -31.715997 21.314604 41.055318 1.128747 1.024919 0.026934 -0.018263 157958.000000 0 0 1
-14.904740 -31.261297 22.671104 41.393223 1.125897 0.991183 0.017182 -0.010736 -58098.200000 0 0 1
-14.842440 -29.735997 22.855404 40.334812 1.107837 0.968371 0.038067 -0.013381 -322159.000000 0 0 1
-14.801540 -29.431797 24.258104 40.911757 1.104824 0.936095 0.040086 -0.012422 -101451.000000 0 0 1
-14.763240 -28.019597 24.560404 40.078230 1.085869 0.911183 0.028110 -0.001042 -164282.000000 0 0 1
-16.034440 -27.279397 24.133104 39.795420 1.039406 0.919234 0.045406 -0.001258 65157.200000 0 0 1
-17.188040 -27.545497 24.934804 40.938094 1.012926 0.915889 0.059752 -0.001610 263779.000000 0 0 1
-18.268240 -26.781797 24.444804 40.602237 0.972175 0.924723 0.061310 0.006619 -1524410.000000 0 0 1
-19.351840 -26.562597 25.484004 41.587254 0.941173 0.911218 0.050439 0.005687 -770637.000000 0 0 1
-20.070540 -27.739897 25.785104 42.862572 0.944455 0.925323 0.058892 -0.003382 213473.000000 0 0 1
-20.949540 -28.238797 24.784704 43.018536 0.932518 0.956798 0.053499 -0.002858 -1090390.000000 0 0 1
-22.326440 -27.607697 24.637304 43.216335 0.890771 0.964178 0.035146 0.000550 -881673.000000 0 0 1
-22.463240 -26.326197 24.119904 42.183356 0.864409 0.962114 0.048333 -0.003073 436143.000000 0 0 1
-23.784540 -26.157997 23.612804 42.514817 0.832886 0.981950 0.036435 -0.003492 141837.000000 0 0 1
-24.140640 -24.688997 23.247104 41.626253 0.796628 0.978253 0.028653 0.011551 -175460.000000 0 0 1
-24.461340 -23.860297 24.380304 41.977019 0.772960 0.951084 0.021990 0.014743 135836.000000 0 0 1
-24.942240 -22.622397 23.953104 41.323593 0.736664 0.952501 0.016772 0.015363 -175223.000000 0 0 1
-25.491480 -21.783897 25.083504 41.875242 0.707133 0.928538 0.019195 0.019407 4969.910000 0 0 1
-26.619510 -22.391297 25.701004 43.249394 0.699340 0.934462 0.010475 0.021213 412841.000000 0 0 1
-27.011800 -21.650897 26.896804 43.838758 0.675676 0.910261 0.004296 0.017183 -437716.000000 0 0 1
-28.240070 -22.113397 27.732604 45.338738 0.664320 0.912619 0.007993 0.016140 1201980.000000 0 0 1
-29.555430 -21.901097 27.173804 45.733982 0.637728 0.934562 0.010993 0.013091 1179470.000000 0 0 1
-29.833920 -22.766797 26.069304 45.694622 0.651844 0.963668 -0.001416 0.016651 -378191.000000 0 0 1
-31.354260 -22.710397 25.692604 46.464628 0.626860 0.984896 0.008858 0.020551 582650.000000 0 0 1
-31.748300 -23.353197 24.512404 46.413191 0.634204 1.014394 0.000052 0.008071 92015.800000 0 0 1
-31.800930 -24.816697 24.534504 47.213446 0.662660 1.024354 -0.000012 0.011216 -532126.000000 0 0 1
-32.086220 -25.512897 23.203704 47.104621 0.671768 1.055722 0.008394 0.014860 329916.000000 0 0 1
-33.450570 -25.844297 22.979304 48.113582 0.657816 1.072869 0.027263 0.010866 141383.000000 0 0 1
-33.550350 -26.625397 21.798704 48.059559 0.670823 1.100022 0.035084 0.011125 596678.000000 0 0 1
-34.921735 -27.340497 21.503804 49.289390 0.664232 1.119340 0.051978 -0.003757 526610.000000 0 0 1
-35.264413 -28.433897 22.380004 50.526527 0.678574 1.111926 0.051735 -0.007503 117565.000000 0 0 1
-34.383545 -29.538997 22.362104 50.545467 0.709755 1.112506 0.034275 0.000965 -329842.000000 0 0 1
-34.508607 -30.480197 21.138204 50.662709 0.723491 1.140397 0.052741 -0.006330 -113249.000000 0 0 1
-34.205216 -29.949497 19.903704 49.629896 0.719160 1.158142 0.041918 -0.000239 385353.000000 0 0 1
-34.779663 -30.826097 18.963804 50.194612 0.725208 1.183371 0.060407 -0.002334 -72600.000000 0 0 1
-35.153205 -30.192897 17.586204 49.564437 0.709635 1.208080 0.053869 0.006219 -56592.200000 0 0 1
-34.026755 -30.117897 16.732404 48.423973 0.724535 1.217983 0.060522 0.008632 464141.000000 0 0 1
-34.346301 -29.518597 15.424104 47.842648 0.709949 1.242541 0.063007 0.008007 -124512.000000 0 0 1
-35.215501 -30.322597 14.472104 48.672715 0.710879 1.268896 0.071517 0.008271 -145840.000000 0 0 1
-34.517767 -31.405397 13.849304 48.678316 0.738221 1.282305 0.072581 -0.003459 128952.000000 0 0 1
-35.148177 -32.176097 12.807704 49.343012 0.741281 1.308225 0.067237 -0.008497 -45500.700000 0 0 1
-35.331296 -31.525797 11.410304 48.706995 0.728540 1.334335 0.062919 -0.008871 -133556.000000 0 0 1
35.736043 -30.515097 11.366204 48.346939 -0.706755 1.333478 0.058559 -0.010566 -21935.100000 0 0 1
35.905183 -29.752597 10.168804 47.726342 -0.691964 1.356086 0.032968 -0.003529 -19313.500000 0 0 1
34.795623 -28.688797 10.107904 46.216362 -0.689499 1.350306 0.059743 0.000142 -105783.000000 0 0 1
34.853443 -27.756997 9.032204 45.462007 -0.672537 1.370790 0.074639 -0.039159 -38719.200000 0 0 1
33.784203 -26.845397 8.994604 44.078913 -0.671448 1.365296 0.053324 -0.031385 -327459.000000 0 0 1
33.804203 -25.812697 7.814804 43.244544 -0.652145 1.389086 0.045045 -0.033559 -16063.600000 0 0 1
34.521863 -24.631897 8.133904 43.181590 -0.619740 1.381299 0.067416 -0.037575 109540.000000 0 0 1
34.481423 -23.777897 7.008804 42.467402 -0.603702 1.404998 0.062415 -0.039855 -7296.010000 0 0 1
35.191333 -22.419697 7.268104 42.354434 -0.567239 1.398341 0.075240 -0.046373 -161374.000000 0 0 1
34.490843 -21.590797 8.163904 41.502170 -0.559308 1.372795 0.074418 -0.037093 -202965.000000 0 0 1
34.963313 -20.290997 8.057104 41.219834 -0.525846 1.374063 0.087770 -0.033410 -198320.000000 0 0 1
34.123983 -19.358197 8.900404 40.229382 -0.516021 1.347709 0.100396 -0.017873 -262645.000000 0 0 1
34.450653 -19.450497 10.239004 40.865713 -0.513976 1.317545 0.090958 -0.032185 -239325.000000 0 0 1
33.823843 -18.501197 11.063404 40.109170 -0.500527 1.291341 0.095903 -0.021018 -207866.000000 0 0 1
34.062863 -18.647297 12.562104 40.814296 -0.500874 1.257930 0.080356 -0.033008 1047290.000000 0 0 1
35.396663 -18.198997 12.896004 41.838190 -0.474899 1.257459 0.055030 -0.018959 1223600.000000 0 0 1
35.898523 -18.653797 14.142304 42.856421 -0.479225 1.234501 0.061377 -0.015042 -334803.000000 0 0 1
-34.808148 -18.030297 14.610304 41.834911 0.477936 1.214039 0.072653 -0.018185 -869073.000000 0 0 1
-33.754380 -18.440697 13.806504 40.866087 0.500014 1.226167 0.052142 -0.013246 -277810.000000 0 0 1
-32.563930 -17.811097 14.288104 39.771782 0.500505 1.203330 0.032350 -0.014589 1354430.000000 0 0 1
-31.282400 -17.939797 13.347904 38.452457 0.520690 1.216290 0.045825 -0.018527 587459.000000 0 0 1
-30.714730 -19.234297 13.323904 38.611906 0.559479 1.218480 0.028041 -0.011213 -245910.000000 0 0 1
-29.614230 -19.180097 12.455504 37.416819 0.574732 1.231435 -0.021576 0.006385 -428191.000000 0 0 1
-28.804400 -20.460597 12.403504 37.445646 0.617624 1.233179 -0.031903 -0.008645 -440730.000000 0 0 1
-29.463090 -21.392797 11.580304 38.207707 0.628021 1.262865 -0.007859 -0.011393 205186.000000 0 0 1
-28.569320 -22.011697 10.666604 37.609803 0.656471 1.283237 -0.008380 -0.002940 -328404.000000 0 0 1
-29.407910 -22.624797 9.555604 38.314699 0.655767 1.318738 0.009981 -0.004979 322042.000000 0 0 1
-30.031660 -23.839997 9.909704 39.603640 0.670967 1.317887 0.018133 -0.009273 318012.000000 0 0 1
-31.298490 -23.739897 10.578204 40.682633 0.648919 1.307756 0.039750 -0.016937 165001.000000 0 0 1
-32.102950 -25.061197 10.734304 42.117553 0.662831 1.313088 0.065225 -0.020081 195791.000000 0 0 1
-32.574570 -25.484597 9.488404 42.433443 0.663883 1.345283 0.056980 -0.013201 345739.000000 0 0 1
-33.440360 -26.646397 9.426004 43.785131 0.672807 1.353819 0.073491 -0.012708 715734.000000 0 0 1
-33.596410 -27.342497 8.090604 44.065733 0.683130 1.386146 0.059299 -0.013065 1259820.000000 0 0 1
-32.328560 -27.882997 7.633404 43.368954 0.711699 1.393864 0.050819 -0.011965 956427.000000 0 0 1
-32.515700 -28.544097 6.416104 43.740172 0.720445 1.423578 0.040545 -0.008941 -314300.000000 0 0 1
-31.197200 -28.747197 5.663604 42.798867 0.744550 1.438076 0.037524 -0.002843 -177832.000000 0 0 1
-30.681500 -27.588597 5.013404 41.564641 0.732369 1.449885 0.037853 0.001889 427408.000000 0 0 1
-29.434420 -28.011397 4.441304 40.874792 0.760632 1.461925 0.027178 -0.002521 553832.000000 0 0 1
-28.469820 -26.911897 3.961504 39.376064 0.757275 1.470019 0.034745 -0.001316 179395.000000 0 0 1
-28.851260 -26.397397 2.674504 39.196566 0.741012 1.502510 0.050172 0.001469 -20307.700000 0 0 1
-28.163730 -25.201197 2.390604 37.868338 0.729940 1.507625 0.039894 -0.006193 -297461.000000 0 0 1
-28.583380 -24.590997 1.007604 37.719253 0.710458 1.544080 0.036639 -0.008409 -249614.000000 0 0 1
-28.130990 -25.296297 -0.110496 37.832096 0.732391 1.573717 0.033287 -0.012397 -128784.000000 0 0 1
-28.273810 -24.602797 -1.348996 37.503677 0.716083 1.606774 0.036193 -0.024532 -123852.000000 0 0 1
-29.686580 -24.449697 -1.929696 38.507200 0.688963 1.620930 0.046812 -0.023180 -350017.000000 0 0 1
-30.630830 -23.632697 -1.301196 38.709756 0.657140 1.604417 0.037636 -0.028571 -356908.000000 0 0 1
-31.775190 -23.613097 -2.127696 39.645531 0.639090 1.624490 0.056101 -0.027341 -239382.000000 0 0 1
-32.517780 -22.270597 -2.020296 39.464758 0.600502 1.622011 0.049296 -0.030397 -365741.000000 0 0 1
-32.936520 -22.022197 -0.733496 39.627384 0.589357 1.589307 0.059670 -0.032080 17853.000000 0 0 1
-33.687420 -20.837297 -0.651696 39.616410 0.553946 1.587247 0.056389 -0.022868 -327730.000000 0 0 1
-33.926680 -20.378797 0.788104 39.584544 0.540913 1.550886 0.058811 -0.026129 173996.000000 0 0 1
-34.797917 -21.364197 1.428304 40.857851 0.550614 1.535831 0.063941 -0.029019 849667.000000 0 0 1
-34.604463 -21.381197 2.836404 40.775846 0.553459 1.501179 0.060241 -0.022088 -827072.000000 0 0 1
-35.657225 -22.379597 3.410904 42.236457 0.560489 1.489951 0.077061 -0.013044 1005810.000000 0 0 1
35.011073 -22.113497 3.047904 41.521942 -0.563342 1.497326 0.061723 -0.008908 412628.000000 0 0 1
34.430343 -20.978497 3.608604 40.479228 -0.547232 1.481531 0.065514 -0.019472 -1121180.000000 0 0 1
33.147203 -20.493697 2.927304 39.080657 -0.553740 1.495822 0.049862 -0.005947 -964913.000000 0 0 1
32.068903 -21.270297 3.245104 38.618270 -0.585646 1.486667 0.041728 -0.000041 -1028730.000000 0 0 1
30.889653 -20.681897 2.715104 37.273091 -0.589990 1.497888 0.043053 -0.001090 650526.000000 0 0 1
29.602163 -21.541697 2.915404 36.726453 -0.629080 1.491331 0.027691 0.010711 379786.000000 0 0 1
29.578583 -22.726897 2.132904 37.362464 -0.655146 1.513678 0.028764 0.005908 312114.000000 0 0 1
28.375593 -23.426897 2.448204 36.878008 -0.690157 1.504361 0.025161 0.008297 461094.000000 0 0 1
27.995733 -24.657797 1.557404 37.338901 -0.722089 1.529074 0.028229 0.007437 197167.000000 0 0 1
27.489913 -24.207697 0.266904 36.630304 -0.721995 1.563510 0.028195 0.001665 275417.000000 0 0 1
26.827883 -25.243097 -0.444296 36.839471 -0.754972 1.582857 0.025819 0.000430 488922.000000 0 0 1
25.935783 -24.678397 -1.620996 35.837351 -0.760561 1.616044 0.012944 -0.004147 608707.000000 0 0 1
26.723883 -24.241497 -2.751496 36.185450 -0.736729 1.646909 0.025787 -0.019683 651437.000000 0 0 1
27.130723 -25.325897 -3.655996 37.294014 -0.751006 1.668986 0.023584 -0.017736 208860.000000 0 0 1
26.009383 -25.682297 -4.703196 36.853608 -0.779071 1.698764 0.018499 -0.022057 463815.000000 0 0 1
25.631383 -24.774397 -5.749596 36.108121 -0.768398 1.730710 0.023170 -0.039126 368765.000000 0 0 1
24.940483 -23.659197 -5.232896 34.773100 -0.759040 1.721857 0.035497 -0.039060 -457552.000000 0 0 1
24.364583 -22.702697 -6.378096 33.907602 -0.750104 1.760026 0.051945 -0.043986 228409.000000 0 0 1
23.533583 -23.414097 -7.307896 33.991981 -0.782853 1.787477 0.054685 -0.046190 97083.900000 0 0 1
22.531183 -22.712497 -7.955696 32.966723 -0.789406 1.814527 0.056824 -0.044258 -629047.000000 0 0 1
22.888183 -21.499997 -8.870596 32.631369 -0.754135 1.846104 0.063116 -0.042902 -757731.000000 0 0 1
23.292283 -21.873197 -10.160796 33.529226 -0.753989 1.878680 0.070703 -0.048116 142421.000000 0 0 1
22.988783 -20.802297 -11.050996 32.914195 -0.735510 1.913199 0.070944 -0.049665 -317814.000000 0 0 1
24.000783 -20.535397 -12.164796 33.848521 -0.707744 1.938410 0.062211 -0.040687 956249.000000 0 0 1
25.242783 -19.894797 -11.739896 34.217338 -0.667466 1.921009 0.064789 -0.037543 1237780.000000 0 0 1
26.068983 -19.702697 -12.879396 35.123596 -0.647197 1.946243 0.046339 -0.038957 1470850.000000 0 0 1
27.592133 -20.147097 -12.744596 36.464449 -0.630692 1.927842 0.035949 -0.033880 1130970.000000 0 0 1
27.744033 -21.537397 -12.756496 37.367352 -0.660115 1.919182 0.023747 -0.034297 532008.000000 0 0 1
28.547173 -22.062397 -11.668796 37.919009 -0.657959 1.883602 0.027911 -0.030643 50821.800000 0 0 1
28.969593 -23.452197 -12.028496 39.165387 -0.680534 1.882962 0.014341 -0.020626 -747813.000000 0 0 1
29.726083 -23.522797 -13.183796 40.134455 -0.669425 1.905502 0.011162 -0.026295 -118831.000000 0 0 1
30.150673 -24.800797 -13.507296 41.310890 -0.688348 1.903889 0.008162 -0.010263 2812.070000 0 0 1
-4.725640 -9.435114 -27.519306 29.473128 1.106464 2.775431 0.054550 -0.013776 39660.000000 0 0 1
-4.370740 -8.075614 -27.157626 28.668024 1.074714 2.815540 0.027783 -0.010920 157091.000000 0 0 1
-5.141240 -7.094514 -27.793076 29.141372 0.943699 2.836212 0.023764 -0.008039 -382989.000000 0 0 1
-4.802540 -5.680414 -27.309116 28.304052 0.868946 2.875662 0.017037 -0.011635 -99193.100000 0 0 1
-5.138040 -5.463414 -25.972026 27.033211 0.816080 2.860472 0.012923 -0.015676 286755.000000 0 0 1
-4.737540 -4.207114 -25.522846 26.297524 0.726167 2.898266 0.024422 -0.023288 -212370.000000 0 0 1
-5.290640 -3.996014 -24.130396 25.024688 0.646884 2.873446 0.023895 -0.021487 -337475.000000 0 0 1
-4.800840 -4.899714 -23.174096 24.168037 0.795590 2.853804 0.020125 -0.034015 270741.000000 0 1 0
-5.312440 -4.714514 -21.859196 22.984193 0.725837 2.827423 0.020099 -0.019562 -167266.000000 0 1 0
-4.680340 -5.702114 -20.833996 22.101473 0.883496 2.801285 0.021445 -0.022685 -647696.000000 0 1 0
-5.187640 -7.013214 -20.923496 22.669131 0.933923 2.746589 0.014718 -0.024980 236772.000000 0 1 0
-4.425540 -7.867414 -20.138496 22.068997 1.058395 2.720210 0.022415 -0.032097 -534448.000000 0 1 0
-4.987540 -9.358614 -20.214196 22.827022 1.081149 2.658447 0.025757 -0.027439 897779.000000 0 1 0
-6.144940 -9.699014 -19.434296 22.572617 1.006063 2.607966 0.024602 -0.018075 1911550.000000 0 1 0
-7.420740 -9.037214 -19.766096 22.966001 0.883303 2.607376 0.022817 -0.021472 1244150.000000 0 1 0
-8.411040 -9.343314 -18.610596 22.458794 0.837860 2.547497 0.016701 -0.019946 -156616.000000 0 1 0
-8.860240 -10.704414 -18.685396 23.285884 0.879381 2.502160 0.019004 -0.013484 296975.000000 0 1 0
-9.629940 -11.025114 -17.520996 22.831430 0.852842 2.445583 0.033105 -0.010429 47679.000000 0 1 0
-10.491440 -12.300714 -17.643396 23.930469 0.864613 2.399828 0.052129 -0.009502 -332185.000000 0 1 0
-11.608540 -12.161214 -18.491196 24.991552 0.808645 2.403715 0.061315 -0.023433 -190015.000000 0 1 0
-11.397640 -12.324214 -19.884896 26.023097 0.824438 2.440480 0.065129 -0.021523 -1234290.000000 0 0 1
-12.616440 -11.990214 -20.790796 27.114517 0.759954 2.444602 0.052599 -0.025141 505389.000000 0 0 1
-13.633040 -12.979214 -20.841296 28.083437 0.760834 2.407025 0.059575 -0.015021 165651.000000 0 0 1
-14.308840 -13.296714 -19.640096 27.699800 0.748751 2.358924 0.048850 -0.009828 -587832.000000 0 0 1
-15.532940 -14.258414 -19.781296 28.911491 0.742642 2.324305 0.046768 -0.003827 463685.000000 0 0 1
-15.164540 -15.603614 -20.003596 29.556386 0.799668 2.314196 0.058089 0.001332 174156.000000 0 0 1
-16.063640 -16.298214 -20.887396 30.983151 0.792647 2.310614 0.070596 -0.000062 404108.000000 0 0 1
-15.539740 -17.731114 -21.322996 31.789088 0.851168 2.306036 0.047619 -0.001784 -85407.600000 0 0 1
-15.755940 -18.685214 -20.259196 31.746211 0.870246 2.262904 0.048254 0.001428 480308.000000 0 0 1
-15.223540 -19.993614 -20.632896 32.514877 0.920026 2.258246 0.032471 0.003384 410136.000000 0 0 1
-16.064040 -21.082514 -19.893596 33.140322 0.919684 2.214652 0.042597 0.002271 178965.000000 0 0 1
-15.769240 -22.356514 -20.401596 34.127816 0.956487 2.211550 0.028995 0.005025 53196.000000 0 0 1
-16.575540 -23.360714 -19.820996 34.833079 0.953691 2.176120 0.043525 0.000812 -217971.000000 0 0 1
-16.237340 -24.810514 -20.230796 35.895654 0.991296 2.169534 0.031052 -0.002350 -260310.000000 0 0 1
-16.297240 -25.128884 -21.645296 36.953751 0.995444 2.196589 0.023486 0.001074 74541.600000 0 0 1
-15.750040 -26.418254 -21.855396 37.731237 1.033190 2.188591 0.022156 0.001835 -183425.000000 0 0 1
-15.565440 -26.777224 -23.334696 38.778998 1.044245 2.216468 0.034649 -0.008213 -290496.000000 0 0 1
-16.651640 -27.422264 -23.950496 40.036033 1.025077 2.212079 0.048553 -0.008969 -363594.000000 0 0 1
-16.735640 -28.811934 -23.719296 40.900052 1.044571 2.189443 0.044752 -0.001435 444357.000000 0 0 1
-17.927040 -29.454434 -24.517096 42.308752 1.024051 2.188887 0.049201 -0.010720 453257.000000 0 0 1
-17.672740 -29.396984 -25.929726 42.998362 1.029513 2.218103 0.051543 -0.012912 111768.000000 0 0 1
-17.916140 -28.177574 -26.601846 42.692177 1.004447 2.243507 0.071633 -0.024440 -141399.000000 0 0 1
-16.764440 -27.788134 -27.546726 42.568169 1.027958 2.274597 0.075657 -0.024846 -521408.000000 0 0 1
-16.906240 -28.182594 -28.853646 43.733425 1.030463 2.291298 0.076356 -0.017856 -43954.400000 0 0 1
-15.750440 -27.934174 -29.623076 43.656856 1.057389 2.316574 0.055771 -0.012089 49642.300000 0 0 1
-16.068140 -28.221714 -31.119396 44.978518 1.053216 2.334875 0.066236 -0.017105 65155.700000 0 0 1
-16.097440 -29.607754 -31.407826 46.067323 1.072811 2.320991 0.061720 -0.015439 345658.000000 0 0 1
-16.865240 -29.881104 -32.603426 47.331809 1.056956 2.330666 0.060159 -0.010427 255846.000000 0 0 1
-16.721340 -31.330854 -33.140986 48.575206 1.080552 2.321648 0.038486 -0.006030 -806267.000000 0 0 1
-15.545340 -31.583004 -33.820306 48.815539 1.113403 2.336187 0.057648 -0.002242 -795961.000000 0 0 1
-15.586140 -32.753524 33.952555 49.683973 1.126645 0.818427 0.030000 0.002842 149937.000000 0 0 1
-14.273140 -33.125324 33.198917 49.022217 1.163953 0.826816 0.029254 0.001861 125588.000000 0 0 1
-13.357240 -33.846454 33.972048 49.780502 1.194917 0.819705 0.048754 0.006857 -815407.000000 0 0 1
-12.289140 -34.244414 33.170326 49.233865 1.226245 0.831552 0.045006 0.004493 -550011.000000 0 0 1
-11.434540 33.467369 34.026372 49.077567 -1.241568 0.804713 0.055586 0.002623 132795.000000 0 0 1
-10.631140 34.105634 -33.494856 48.970612 -1.268629 2.323999 0.062759 -0.003871 -10881.400000 0 0 1
-9.910640 33.164099 -32.738376 47.643253 -1.280407 2.328364 0.062433 -0.011651 73110.700000 0 0 1
-8.926740 33.847328 -31.755156 47.262229 -1.312933 2.307558 0.051332 -0.017249 254119.000000 0 0 1
-9.596740 -34.070336 -30.774366 46.903591 1.296236 2.286462 0.069268 -0.013358 330612.000000 0 0 1
-8.698440 -33.121194 -30.219876 45.671844 1.313971 2.293846 0.057754 -0.014449 157627.000000 0 0 1
-9.497040 -32.143764 -29.315426 44.528750 1.283514 2.289419 0.080642 -0.015626 341812.000000 0 0 1
-9.748940 -32.461384 -27.929136 43.918333 1.279042 2.260014 0.102243 -0.014484 -26421.200000 0 0 1
-10.418840 -33.717984 -27.681426 44.852158 1.271104 2.235938 0.115783 -0.019602 -9210.400000 0 0 1
-10.798140 -33.748684 -26.170796 44.050926 1.261132 2.206947 0.112441 -0.029121 147369.000000 0 0 1
-9.673540 -33.787524 -25.301546 43.305224 1.291951 2.194765 0.110841 -0.033931 -57722.100000 0 0 1
-9.991940 -33.793684 -23.886796 42.572656 1.283312 2.166490 0.121181 -0.040221 69267.500000 0 0 1
-8.765140 -33.840984 -22.942596 41.813905 1.317356 2.151585 0.114407 -0.046992 243998.000000 0 0 1
-8.199440 33.590128 -22.696696 41.360217 -1.331376 2.151673 0.101196 -0.041263 57551.600000 0 0 1
-7.167640 33.674496 -21.726096 40.710810 -1.361075 2.133729 0.100142 -0.034752 -426532.000000 0 0 1
-6.398240 32.357828 -21.581596 39.417405 -1.375581 2.150187 0.088704 -0.033170 350963.000000 0 0 1
-5.386240 32.248608 -22.606896 39.749919 -1.405302 2.175755 0.061633 -0.046699 430822.000000 0 0 1
-4.602940 31.092938 -22.511096 38.661445 -1.423826 2.192305 0.054230 -0.030180 -917693.000000 0 0 1
-3.229540 31.182368 -23.121596 38.953540 -1.467595 2.206282 0.048883 -0.036188 -812401.000000 0 0 1
-3.304540 31.262728 -24.502996 39.858186 -1.465485 2.232871 0.050303 -0.034291 -508832.000000 0 0 1
-2.211940 31.985788 -24.966896 40.636551 -1.501752 2.232415 0.031860 -0.036679 -582536.000000 0 0 1
-2.266440 32.314038 -26.485536 41.842771 -1.500773 2.256190 0.029521 -0.017708 -188397.000000 0 0 1
-1.171540 33.097847 -26.879656 42.653909 -1.535415 2.252582 0.040646 -0.026683 -204040.000000 0 0 1
-1.559140 -34.232075 -26.865326 43.543216 1.525282 2.235697 0.038478 -0.018107 -657370.000000 0 0 1
-0.535340 -33.250024 -27.354766 43.059656 1.554697 2.259162 0.016181 -0.005637 -69608.000000 0 0 1
0.616260 -33.148114 -26.502626 42.444864 -1.552207 2.245161 0.029400 -0.007837 607648.000000 0 0 1
1.482660 -32.112614 -27.000826 41.981697 -1.524658 2.269410 0.022010 0.006657 793957.000000 0 0 1
2.639960 -31.687354 -26.010536 41.080480 -1.487676 2.256426 0.026976 0.000147 -24569.700000 0 0 1
2.350660 -31.087734 -24.754896 39.809267 -1.495326 2.241883 0.029303 0.001641 -465159.000000 0 0 1
3.479460 -30.531144 -24.174596 39.098191 -1.457322 2.237380 0.019339 0.002519 -684877.000000 0 0 1
3.214560 -29.827404 -22.809696 37.686731 -1.463439 2.220870 0.027405 -0.002246 -93819.700000 0 0 1
3.386260 -30.770114 -21.763696 37.840787 -1.461187 2.183570 0.033146 -0.000645 443381.000000 0 0 1
3.432460 -30.011074 -20.557696 36.538544 -1.456918 2.168360 0.032115 0.002803 -381318.000000 0 0 1
3.493660 -30.910774 -19.289596 36.602871 -1.458250 2.125859 0.031609 0.008784 -344444.000000 0 0 1
2.323160 -31.554804 -18.844296 36.826760 -1.497306 2.107960 0.028233 0.003747 -21121.800000 0 0 1
1.907860 -32.742634 -19.526196 38.170569 -1.512594 2.107785 0.037403 0.008208 -115167.000000 0 0 1
2.359360 -34.103368 -18.848296 39.036708 -1.501724 2.074686 0.027954 -0.000595 830359.000000 0 0 1
3.729160 34.252303 -19.092996 39.391236 1.462350 2.076818 0.028864 0.008185 542272.000000 0 0 1
4.120360 33.344719 -18.053396 38.141484 1.447851 2.063860 0.041205 -0.012580 368322.000000 0 0 1
5.313760 32.476918 -18.541296 37.772555 1.408617 2.083881 0.042144 -0.004988 1036710.000000 0 0 1
6.555660 33.185295 -18.671896 38.637808 1.375760 2.075165 0.059896 -0.004924 -298294.000000 0 0 1
7.523260 32.401218 -19.243996 38.428763 1.342648 2.095285 0.048156 -0.020538 -207704.000000 0 0 1
8.859160 33.105021 -19.590296 39.474129 1.309316 2.090107 0.043507 -0.015550 67390.500000 0 0 1
9.617360 33.458332 -18.479096 39.413584 1.290899 2.058786 0.041993 -0.006126 -574433.000000 0 0 1
10.858860 33.980306 -18.870496 40.356805 1.261490 2.057360 0.042748 0.002613 -197641.000000 0 0 1
11.814960 34.215310 -17.678796 40.284247 1.238304 2.025116 0.033246 0.001608 -397275.000000 0 0 1
12.131260 32.998923 -17.111596 39.101191 1.218506 2.023750 0.031472 -0.001574 -200788.000000 0 0 1
12.638260 33.246221 -15.824996 38.929004 1.207526 1.989426 0.032301 -0.008352 -131938.000000 0 0 1
13.993960 32.627238 -15.468796 38.725331 1.165623 1.981712 0.020696 -0.002590 101569.000000 0 0 1
13.880460 31.222618 -15.269196 37.425492 1.152472 1.991047 0.028198 -0.004814 250940.000000 0 0 1
15.182160 30.748208 -14.937296 37.404186 1.112155 1.981602 0.023070 -0.002952 501039.000000 0 0 1
15.036260 29.534428 -13.990896 35.973834 1.099888 1.970254 0.028430 -0.005525 -119700.000000 0 0 1
14.745760 29.957678 -12.639396 35.702301 1.113392 1.932664 0.021197 -0.008850 867738.000000 0 0 1
13.347060 29.835448 -12.303196 34.923726 1.150144 1.930811 0.046360 -0.013455 836988.000000 0 0 1
12.931460 28.448678 -11.712196 33.372526 1.144162 1.929385 0.047850 -0.010710 -646083.000000 0 0 1
12.729960 27.391248 -12.620496 32.735444 1.135748 1.966579 0.043559 -0.017075 34655.700000 0 0 1
12.277160 26.119208 -12.178396 31.324991 1.131400 1.970099 0.061797 -0.019089 771709.000000 0 0 1
11.169860 26.062678 -11.057496 30.435131 1.165900 1.942618 0.057207 -0.017467 321558.000000 0 0 1
9.878060 26.510798 -11.424996 30.511130 1.214127 1.954604 0.059646 -0.021340 309100.000000 0 0 1
9.165560 26.848238 -10.226196 30.156434 1.241818 1.916762 0.043697 -0.011643 -141260.000000 0 0 1
8.146160 27.954918 -10.373896 30.910437 1.287245 1.913051 0.051580 -0.021692 -190978.000000 0 0 1
8.752860 29.214168 -10.633396 32.297822 1.279697 1.906284 0.053936 -0.020976 326098.000000 0 0 1
7.757860 30.231088 -10.624096 32.969297 1.319598 1.898893 0.043539 -0.015402 482460.000000 0 0 1
8.303060 31.705368 -10.745196 34.491020 1.314666 1.887605 0.063600 -0.032112 -763426.000000 0 0 1
9.233460 32.046078 -9.765996 34.750289 1.290264 1.855667 0.040104 -0.025863 -380690.000000 0 0 1
9.859460 33.292879 -10.074996 36.154257 1.282882 1.853202 0.065210 -0.028867 611594.000000 0 0 1
10.869860 33.378914 -11.300196 36.878181 1.255976 1.882226 0.046211 -0.022420 -357949.000000 0 0 1
12.190160 33.122707 -10.902496 36.940197 1.218150 1.870397 0.034099 -0.012768 -142606.000000 0 0 1
13.104960 33.679941 -11.877496 38.041468 1.199719 1.888331 0.053654 -0.013573 896805.000000 0 0 1
14.598160 33.524702 -11.466096 38.320795 1.160112 1.874665 0.046897 -0.010681 390601.000000 0 0 1
14.906460 34.286783 -10.322796 38.785902 1.160690 1.840191 0.058752 -0.012981 83325.400000 0 0 1
16.306560 34.260666 -10.105196 39.265916 1.126569 1.831078 0.048604 -0.016860 202673.000000 0 0 1
16.832460 -33.487204 -9.046896 38.556074 -1.105028 1.807647 0.068432 -0.021637 2644.920000 0 0 1
16.591260 -33.937734 -7.730496 38.559049 -1.116089 1.772649 0.058129 -0.021905 179472.000000 0 0 1
17.240060 -33.054354 -6.852796 37.904760 -1.090044 1.752586 0.054581 -0.014527 -945299.000000 0 0 1
17.616660 -33.754464 -5.510296 38.471729 -1.089778 1.714520 0.043386 -0.004330 406130.000000 0 0 1
18.586060 33.917384 -5.572396 39.075340 1.069505 1.713891 0.026668 -0.010026 353131.000000 0 0 1
19.885260 -34.322516 -5.899996 40.103225 -1.045688 1.718453 0.032618 -0.007166 57839.900000 0 0 1
20.808160 33.258043 -6.565696 39.776693 1.011724 1.736619 0.026538 -0.001930 678064.000000 0 0 1
21.082160 32.057708 -5.896096 38.819043 0.989075 1.723273 0.038892 0.006401 -207748.000000 0 0 1
21.969960 32.050418 -4.822896 39.155699 0.969881 1.694282 0.039757 0.010238 -699543.000000 0 0 1
22.312560 30.605168 -4.370096 38.126426 0.940842 1.685670 0.023507 0.003702 -153785.000000 0 0 1
22.994260 29.961508 -5.406596 38.153103 0.916214 1.712983 0.024611 0.006268 -112606.000000 0 0 1
23.394560 28.635638 -5.122996 37.330287 0.885791 1.708465 0.014390 0.017683 -103365.000000 0 0 1
24.180460 27.986478 -6.276896 37.514491 0.858228 1.738906 -0.007134 0.027104 374438.000000 0 0 1
25.453160 28.638968 -6.467096 38.857138 0.844226 1.738007 0.017576 0.008314 792700.000000 0 0 1
26.485460 27.817218 -6.972896 39.037143 0.809918 1.750382 0.006398 0.012154 43930.400000 0 0 1
27.083260 26.696498 -6.084696 38.512719 0.778207 1.729453 0.000703 0.018078 -394752.000000 0 0 1
27.995760 27.254378 -5.108496 39.403812 0.771980 1.700807 -0.002823 0.011053 350204.000000 0 0 1
28.732160 26.266948 -4.430796 39.180627 0.740605 1.684125 -0.011850 0.018420 -441044.000000 0 0 1
29.767560 26.873448 -3.493796 40.255390 0.734347 1.657696 -0.008253 0.010893 -557643.000000 0 0 1
29.338560 27.556078 -2.340196 40.318297 0.754079 1.628872 0.001293 0.004339 -449889.000000 0 0 1
30.437760 27.904468 -1.541296 41.321812 0.742004 1.608105 0.009779 0.001394 -252817.000000 0 0 1
30.433260 29.358018 -1.048896 42.298661 0.767417 1.595596 0.032469 -0.010326 -100534.000000 0 0 1
30.713260 30.288698 -2.103496 43.187200 0.778438 1.619522 0.030442 -0.014397 200235.000000 0 0 1
30.664660 31.647668 -1.786696 44.103158 0.801172 1.611319 0.056550 -0.019688 -173564.000000 0 0 1
33.169943 22.424186 19.411552 44.496040 0.594463 1.119365 0.026766 -0.008578 -286788.000000 0 0 1
33.632853 22.318486 20.751752 45.386329 0.585871 1.095924 0.024649 -0.017368 289642.000000 0 0 1
34.246183 23.554786 21.125352 46.625202 0.602496 1.100569 0.027050 -0.013875 -93365.700000 0 0 1
34.497163 23.644786 22.662652 47.568119 0.600868 1.074212 0.039434 -0.014689 293091.000000 0 0 1
33.285683 23.917486 23.363552 47.178792 0.623069 1.052716 0.034816 -0.016139 656930.000000 0 0 1
33.472263 24.275286 24.706712 48.167453 0.627463 1.032197 0.036635 -0.020835 618689.000000 0 0 1
32.063013 24.739986 25.220962 47.709544 0.657186 1.013804 0.058910 -0.017894 831864.000000 0 0 1
31.608803 25.990486 24.798142 47.849448 0.688164 1.025989 0.036351 -0.011987 67600.500000 0 0 1
30.222013 26.108186 25.034842 47.135451 0.712497 1.010868 0.030877 -0.018196 34504.100000 0 0 1
29.707843 27.402186 25.647482 47.866785 0.745048 1.005330 0.024689 -0.003937 -318825.000000 0 0 1
29.803673 28.437586 24.703192 48.033352 0.761947 1.030614 0.010575 0.000662 414125.000000 0 0 1
29.428633 29.715886 25.262892 48.859923 0.790255 1.027399 0.003748 0.006050 -104801.000000 0 0 1
29.367433 30.760186 24.084612 48.874366 0.808557 1.055508 0.004055 -0.004323 -173458.000000 0 0 1
30.645813 30.945986 23.538782 49.506506 0.790272 1.075300 -0.005513 0.000315 -115967.000000 0 0 1
30.467423 31.985586 22.608452 49.623419 0.809702 1.097750 -0.011524 0.006374 181743.000000 0 0 1
31.747283 32.489086 21.889652 50.424077 0.796946 1.121745 -0.009938 -0.000648 -4457.260000 0 0 1
32.532083 33.235486 22.757952 51.777006 0.796093 1.115712 -0.006659 0.005085 390563.000000 0 0 1
33.875113 33.379786 22.272752 52.514844 0.778033 1.132803 0.015650 0.009000 402363.000000 0 0 1
34.597823 -34.172397 22.929352 53.763531 -0.779212 1.130193 0.031822 0.003898 -311332.000000 0 0 1
34.122093 -32.885697 22.591852 52.499315 -0.766949 1.125942 0.022888 -0.003413 178776.000000 0 0 1
34.717153 -31.960497 23.467042 52.701576 -0.744079 1.109308 0.027226 -0.010399 -974017.000000 0 0 1
34.104803 -30.573797 23.300752 51.388906 -0.730859 1.100198 0.034623 -0.004358 443792.000000 0 0 1
32.740033 -30.444697 23.720512 50.610790 -0.749087 1.082995 0.015730 -0.004467 1243140.000000 0 0 1
31.812223 -30.802497 22.678552 49.750659 -0.769274 1.097476 0.014089 0.001663 -327236.000000 0 0 1
30.912263 -32.065197 22.765252 50.020012 -0.803703 1.098286 0.002674 0.006101 -796707.000000 0 0 1
29.877893 -31.873697 23.652202 49.679450 -0.817707 1.074586 0.003381 0.002456 -668185.000000 0 0 1
29.208903 -33.080297 23.868982 50.171649 -0.847470 1.074984 -0.007265 0.007466 -73608.800000 0 0 1
28.421873 -33.181397 25.204812 50.438978 -0.862506 1.047534 -0.009363 0.004007 -64910.700000 0 0 1
28.196203 34.195886 25.560402 51.163646 0.881264 1.047681 -0.009374 -0.002750 338635.000000 0 0 1
27.355113 34.086586 26.705962 51.219195 0.894522 1.022299 -0.014335 -0.002694 -433294.000000 0 0 1
27.316073 32.594086 27.202412 50.482804 0.873270 1.001731 -0.001402 0.007545 331481.000000 0 0 1
26.650283 31.672286 26.330442 49.057756 0.871294 1.004247 -0.008918 0.002088 630512.000000 0 0 1
25.221283 31.754786 26.427642 48.403510 0.899570 0.993231 -0.005966 0.002781 862059.000000 0 0 1
24.468883 31.373686 25.062512 47.023015 0.908421 1.008673 0.019274 -0.009579 347928.000000 0 0 1
24.572483 32.144686 23.829202 46.956561 0.918121 1.038546 0.030632 -0.014455 -479243.000000 0 0 1
25.853383 32.146186 23.284152 47.370100 0.893473 1.056943 0.008577 -0.006693 -717611.000000 0 0 1
25.947783 32.938486 21.941752 47.325171 0.903560 1.088699 0.022419 0.004842 -281253.000000 0 0 1
27.213733 33.444286 21.617352 48.232950 0.887755 1.106061 0.013920 0.005059 -140154.000000 0 0 1
27.158013 33.989286 20.306852 48.012472 0.896655 1.134098 0.017579 -0.000470 292392.000000 0 0 1
28.462393 -34.208497 19.606752 48.628734 -0.876829 1.155793 0.016453 0.000021 424112.000000 0 0 1
29.359543 33.530586 19.102352 48.488997 0.851624 1.165869 0.016165 0.002088 180567.000000 0 0 1
30.416953 34.176686 18.421952 49.321448 0.843538 1.188009 0.011301 0.000490 280051.000000 0 0 1
31.411353 33.187786 17.672552 48.994095 0.812891 1.201770 0.003817 0.017489 435466.000000 0 0 1
32.223363 32.503886 18.621052 49.412461 0.789732 1.184404 -0.003573 0.007275 -126470.000000 0 0 1
32.956173 31.517586 17.973252 49.015358 0.763089 1.195352 0.017424 0.004418 -351792.000000 0 0 1
33.807113 30.700786 18.955452 49.444598 0.737281 1.177357 0.039897 -0.009928 1823.450000 0 0 1
34.859343 31.460986 19.525252 50.854723 0.734201 1.176735 0.033543 -0.009076 -380688.000000 0 0 1
35.649023 30.683086 20.320252 51.236874 0.710673 1.162992 0.049659 -0.013225 -167001.000000 0 0 1
-35.166445 31.489286 20.877252 51.615053 -0.730288 1.154386 0.088609 -0.017869 422838.000000 0 0 1
-34.241073 32.008386 19.919652 50.929171 -0.751710 1.168943 0.085582 -0.021202 935960.000000 0 0 1
-33.152670 32.777186 20.495952 50.926688 -0.779703 1.156594 0.062403 -0.014277 748226.000000 0 0 1
-33.419430 34.220986 21.080852 52.271757 -0.797248 1.155683 0.054910 -0.014873 -390207.000000 0 0 1
-33.566180 34.125086 22.466652 52.876842 -0.793655 1.131960 0.055143 -0.013895 276230.000000 0 0 1
-33.464550 -33.317497 23.104352 52.571312 0.783196 1.115770 0.041075 -0.008173 -94396.200000 0 0 1
-33.352680 -33.480297 24.617262 53.285469 0.787308 1.090561 0.049294 -0.015637 -697358.000000 0 0 1
-34.582015 -33.728497 25.203462 54.486162 0.772904 1.089909 0.042754 -0.003573 -675224.000000 0 0 1
-34.414107 -34.155997 26.579552 55.294082 0.781634 1.069350 0.052417 -0.013678 483492.000000 0 0 1
-35.776280 -34.313997 27.304452 56.594397 0.764538 1.067337 0.030220 -0.020605 321766.000000 0 0 1
-35.689490 33.803786 28.572782 56.858065 -0.758270 1.044276 0.049219 -0.022441 -175390.000000 0 0 1
35.055253 33.534686 29.115922 56.578996 0.763233 1.030248 0.055554 -0.034485 14311.600000 0 0 1
35.029943 32.461686 30.259802 56.537718 0.747364 1.006035 0.060265 -0.020476 -92667.300000 0 0 1
35.072833 31.085586 29.822542 55.549989 0.725203 1.004086 0.044734 -0.021484 856991.000000 0 0 1
-35.706926 30.651086 29.255392 55.410754 -0.709355 1.014584 0.049057 -0.020882 -6607.280000 0 0 1
-35.821443 29.173186 28.826522 54.453824 -0.683463 1.012932 0.042558 -0.012771 -654720.000000 0 0 1
35.329373 28.996986 27.767772 53.479332 0.687273 1.024853 0.043428 -0.012494 -100722.000000 0 0 1
35.193143 27.698386 27.283942 52.442077 0.666788 1.023631 0.037033 -0.015433 200982.000000 0 0 1
34.503443 26.566786 28.132542 51.843241 0.656163 0.997212 0.042673 -0.018152 295276.000000 0 0 1
35.422273 26.038686 29.094782 52.718658 0.633893 0.986170 0.023694 -0.012174 454137.000000 0 0 1
34.939843 24.801986 29.547642 52.048000 0.617305 0.967087 0.024462 -0.018539 46811.200000 0 0 1
35.580893 23.582086 28.817982 51.503309 0.585303 0.976970 0.016512 -0.012115 66152.800000 0 0 1
35.242543 23.538386 27.423852 50.479304 0.588854 0.996470 0.021952 -0.013725 -98318.400000 0 0 1
-36.007244 22.610586 26.731742 50.222966 -0.560715 1.009527 0.011361 -0.017265 -518167.000000 0 0 1
35.787653 21.069286 27.044262 49.558683 0.532092 0.993570 0.009082 -0.015998 -1049670.000000 0 0 1
34.556123 20.611786 26.573832 48.219705 0.537822 0.987116 0.060698 -0.006857 5024.940000 0 0 1
34.114723 19.385086 27.167402 47.724874 0.516733 0.965203 0.054989 -0.002057 -370068.000000 0 0 1
33.800303 19.337386 28.723442 48.388336 0.519657 0.935268 0.049433 -0.010506 -394373.000000 0 0 1
32.652753 19.824486 29.384972 48.194285 0.545646 0.915090 0.041158 -0.017976 218204.000000 0 0 1
32.438973 21.194686 29.241192 48.544299 0.578741 0.924341 0.048451 -0.024092 -1371160.000000 0 0 1
31.520803 21.912786 30.237722 48.867689 0.607487 0.903624 0.060945 -0.029474 -232148.000000 0 0 1
30.145443 21.748586 29.961722 47.743623 0.624981 0.892388 0.071067 -0.037180 161507.000000 0 0 1
29.644883 22.452586 28.803132 47.037837 0.648211 0.911780 0.073296 -0.038888 -777668.000000 0 0 1
29.445913 23.956486 28.772272 47.632118 0.682964 0.922221 0.069589 -0.034649 -555897.000000 0 0 1
30.589053 24.741786 28.509542 48.586419 0.680111 0.943720 0.058444 -0.025840 -80918.400000 0 0 1
30.576333 26.014186 29.187632 49.634342 0.704955 0.942147 0.043345 -0.016514 34644.500000 0 0 1
30.901133 25.893586 30.752932 50.706022 0.697456 0.919152 0.048199 -0.023253 -25594.600000 0 0 1
32.159713 25.321886 31.055822 51.380046 0.666998 0.921742 0.049425 -0.020593 10764.600000 0 0 1
32.565003 25.323886 32.424522 52.470261 0.660958 0.904651 0.060106 -0.016929 101276.000000 0 0 1
32.089353 24.054786 33.256798 52.099654 0.643257 0.878469 0.072798 -0.020572 -191724.000000 0 0 1
32.488943 24.049486 -33.940966 52.781610 0.637223 2.269264 0.044659 -0.029680 6871.770000 0 0 1
32.046983 22.870786 -33.273526 51.548128 0.619838 2.272454 0.023726 -0.030123 -393195.000000 0 0 1
32.508183 22.706986 -31.835116 50.851389 0.609719 2.247264 0.028584 -0.032212 -611175.000000 0 0 1
31.930063 23.501586 -30.867516 50.245965 0.634502 2.232331 0.017802 -0.029110 -67106.700000 0 0 1
32.325123 23.188786 -29.559826 49.562251 0.622283 2.209828 0.051204 -0.035345 314947.000000 0 0 1
33.586733 23.995186 -29.050986 50.475711 0.620341 2.184065 0.047433 -0.011031 731539.000000 0 0 1
34.135923 23.460786 -27.881186 49.930254 0.602135 2.163255 0.046007 -0.021266 -656685.000000 0 0 1
35.128363 24.269486 -27.331876 50.695575 0.604579 2.140209 0.054262 -0.015688 -591590.000000 0 0 1
35.938773 23.483386 -26.310086 50.351618 0.578781 2.120609 0.043474 -0.015018 -468497.000000 0 0 1
-35.239251 22.554986 -26.932626 49.758402 -0.569351 2.142741 0.035460 -0.004786 -131378.000000 0 0 1
-35.441549 21.289086 -26.382576 49.044561 -0.540921 2.138777 0.022143 0.002115 -155643.000000 0 0 1
-34.302013 20.273786 -26.591856 47.903876 -0.533804 2.159290 0.031407 0.008629 232408.000000 0 0 1
-33.073000 20.524886 -25.911906 46.760252 -0.555424 2.158130 0.030926 0.002560 -237147.000000 0 0 1
-32.201920 19.469886 -26.089006 45.789479 -0.543809 2.177010 0.008983 0.003750 -630802.000000 0 0 1
-30.884830 19.683886 -25.341346 44.536636 -0.567418 2.176086 0.010929 0.002825 -574239.000000 0 0 1
-30.950640 19.832186 -23.912196 43.852604 -0.569858 2.147526 0.012512 0.000550 -163668.000000 0 0 1
-29.713090 19.909886 -23.225396 42.646106 -0.590356 2.146718 0.015294 0.002104 171369.000000 0 0 1
-29.913160 20.133886 -21.676796 42.072010 -0.592428 2.112073 0.005066 -0.001042 184221.000000 0 0 1
-30.663730 19.110686 -21.030296 41.806172 -0.557329 2.097912 0.003743 -0.003529 93057.800000 0 0 1
-31.037840 19.505886 -19.704996 41.618674 -0.561080 2.064017 0.012807 -0.003859 -611070.000000 0 0 1
-32.072110 18.494786 -19.111196 41.664316 -0.523083 2.047322 0.010407 -0.006669 777187.000000 0 0 1
-33.057040 19.043586 -18.213496 42.274786 -0.522648 2.016215 0.013642 -0.009171 661007.000000 0 0 1
-34.085916 19.803686 -18.821396 43.683871 -0.526327 2.016236 0.011477 -0.005008 -946576.000000 0 0 1
-35.221064 20.123486 -17.856896 44.320952 -0.519085 1.985479 0.014632 -0.007693 -487208.000000 0 0 1
-34.830805 20.800986 -16.611496 43.838429 -0.538359 1.959431 0.018101 -0.017869 574610.000000 0 0 1
-35.924209 20.594986 -15.706796 44.287760 -0.520548 1.933339 0.030016 -0.009824 -162616.000000 0 0 1
-35.959940 21.425386 -14.380796 44.260273 -0.537335 1.901717 0.042025 -0.010973 -252843.000000 0 0 1
35.867683 22.784386 -14.600596 44.931017 0.565925 1.901761 0.052868 -0.011104 -501151.000000 0 0 1
34.556143 23.236886 -14.646696 44.143013 0.591988 1.909008 0.052579 0.000289 -750163.000000 0 0 1
34.372583 24.715786 -14.946296 44.896952 0.623401 1.910176 0.054630 -0.006074 -189466.000000 0 0 1
34.654483 25.493086 -13.806096 45.182285 0.634245 1.881327 0.058749 -0.008342 10824.100000 0 0 1
34.673573 26.918686 -13.898596 46.043928 0.660150 1.877434 0.043923 -0.005060 152534.000000 0 0 1
35.916563 27.526586 -14.629196 47.557605 0.653917 1.883477 0.063032 -0.007207 315247.000000 0 0 1
-35.974802 27.309186 -16.032096 47.927092 -0.649312 1.911882 0.063806 -0.000966 372428.000000 0 0 1
-34.732996 27.910086 -16.398696 47.479166 -0.676909 1.923448 0.057412 -0.005310 -68654.900000 0 0 1
-34.334826 27.808086 -17.912796 47.676391 -0.680754 1.955966 0.038144 -0.008171 22043.000000 0 0 1
-33.883790 26.506686 -18.327796 46.761349 -0.663844 1.973539 0.036032 -0.014074 299207.000000 0 0 1
-32.554620 26.161186 -17.989696 45.473510 -0.676938 1.977526 0.045748 -0.008051 -103534.000000 0 0 1
-32.106860 24.784486 -18.452596 44.560291 -0.657394 1.997755 0.040305 -0.011152 -286314.000000 0 0 1
-31.905010 24.799886 -19.848696 45.021492 -0.660748 2.027366 0.022557 -0.008257 174284.000000 0 0 1
-31.484920 23.575486 -20.407596 44.312230 -0.642724 2.049401 0.022484 -0.007713 -214969.000000 0 0 1
-31.269470 23.677186 -21.949296 44.946196 -0.648092 2.080990 0.012407 0.002111 -181782.000000 0 0 1
-32.392220 23.681686 -22.794896 46.148516 -0.631290 2.087419 0.022310 0.000429 -138612.000000 0 0 1
-31.989470 23.596586 -24.103496 46.487672 -0.635541 2.115883 0.023165 0.002617 -318478.000000 0 0 1
-32.790510 24.522286 -24.997496 47.973273 -0.642122 2.118902 0.009131 0.007984 -454081.000000 0 0 1
-32.682200 25.855586 -24.699596 48.442828 -0.669304 2.105831 0.003500 0.016680 -165307.000000 0 0 1
-33.360290 26.600086 -25.674206 49.795968 -0.673128 2.112490 0.025024 0.006985 -319302.000000 0 0 1
-32.727950 27.957986 -25.974896 50.273879 -0.706959 2.113751 0.014041 0.012451 -477090.000000 0 0 1
-31.548180 27.865486 -26.702086 49.847511 -0.723493 2.136104 -0.012652 0.007877 -972979.000000 0 0 1
-31.188150 29.092686 -27.224046 50.598753 -0.750650 2.138904 -0.002494 0.005039 833832.000000 0 0 1
-29.801030 29.163286 -27.974146 50.211070 -0.774583 2.161723 0.010218 0.010977 657887.000000 0 0 1
-28.761050 28.666686 -27.141566 48.843029 -0.783755 2.159989 -0.009462 0.014149 1420820.000000 0 0 1
-27.412970 28.849986 -27.681946 48.477652 -0.810934 2.178550 0.005117 0.021465 1810140.000000 0 0 1
-26.794910 30.281886 -27.517886 48.910059 -0.846415 2.168351 0.001839 0.015110 -642732.000000 0 0 1
-26.182120 30.575886 -26.253006 48.058387 -0.862656 2.148705 -0.003575 0.015942 -222389.000000 0 0 1
-26.981490 30.562986 -25.109656 47.881017 -0.847557 2.122828 -0.002382 0.017283 -288478.000000 0 0 1
-26.269520 31.038786 -23.810696 47.121579 -0.868428 2.100530 -0.025102 0.006943 184678.000000 0 0 1
-25.923640 32.421186 -23.764796 47.832353 -0.896306 2.090745 -0.001756 0.002772 -40127.200000 0 0 1
-25.081890 32.705386 -22.676596 47.042231 -0.916564 2.073787 0.006501 0.019542 57844.800000 0 0 1
-24.456340 34.135986 -22.734596 47.751858 -0.949123 2.067009 0.006541 0.023352 314900.000000 0 0 1
-25.393060 -33.553597 -22.354696 47.648545 0.922963 2.059133 -0.007629 0.006159 374264.000000 0 0 1
-24.932140 -32.256697 -22.636396 46.631669 0.912781 2.077651 0.008261 0.001993 -226767.000000 0 0 1
16.744060 8.171286 -25.363956 31.471634 0.454011 2.508042 0.062120 -0.024689 -1590780.000000 0 0 1
15.424860 7.866886 -25.356056 30.704133 0.471626 2.542449 0.061229 -0.026980 -1592500.000000 0 0 1
15.220260 6.489886 -25.256666 30.193942 0.403054 2.561627 0.075516 -0.035647 451992.000000 0 0 1
13.695360 6.160186 -25.189206 29.325874 0.422688 2.603995 0.080451 -0.036836 495871.000000 0 0 1
13.090460 6.395086 -23.894596 27.985871 0.454430 2.594056 0.062551 -0.048234 133498.000000 0 0 1
11.748060 6.024986 -24.131496 27.507208 0.473874 2.640960 0.060453 -0.039261 -455206.000000 0 0 1
10.855360 5.971786 -22.895596 26.032852 0.502938 2.645583 0.061122 -0.037110 -412587.000000 0 0 1
11.348760 5.102586 -21.926496 25.211148 0.422535 2.625420 0.049621 -0.022673 94876.900000 0 0 1
10.919260 5.337686 -20.593896 23.912961 0.454674 2.608427 0.059177 -0.021390 -293792.000000 0 1 0
11.311160 6.689686 -19.937496 23.878819 0.534089 2.558829 0.062792 -0.027930 -388565.000000 0 1 0
10.939260 6.841986 -18.599596 22.636810 0.558925 2.535101 0.053904 -0.018172 -429670.000000 0 1 0
11.357760 8.020586 -17.926796 22.686968 0.614859 2.481900 0.055641 -0.023992 -114069.000000 0 1 0
12.870860 8.211386 -17.730596 23.397862 0.567881 2.430711 0.058696 -0.022467 -315895.000000 0 1 0
13.310560 7.683386 -16.493196 22.543978 0.523516 2.391464 0.066835 -0.020931 279664.000000 0 1 0
14.693160 7.907186 -16.322496 23.341731 0.493703 2.345192 0.066611 -0.020047 -265573.000000 0 1 0
15.191360 7.751786 -14.869796 22.626940 0.471835 2.287857 0.067083 -0.022023 -258516.000000 0 1 0
16.604360 7.765786 -14.798896 23.558852 0.437472 2.249992 0.072528 -0.024312 411802.000000 0 1 0
17.037860 7.997086 -13.470496 23.145114 0.438846 2.191984 0.061564 -0.021365 -37800.800000 0 1 0
17.306760 9.470186 -13.077796 23.669328 0.500688 2.156182 0.065483 -0.023866 -572168.000000 0 1 0
16.153560 10.271786 -13.024996 23.153782 0.566388 2.168255 0.062106 -0.022095 377720.000000 0 1 0
16.561460 11.620086 -12.807696 23.944632 0.611822 2.135172 0.076008 -0.025920 196467.000000 0 1 0
15.328860 12.546986 -12.664996 23.511761 0.685932 2.139650 0.077171 -0.021207 370406.000000 0 1 0
14.740060 12.527786 -11.349996 22.428491 0.704444 2.101398 0.076886 -0.015348 109643.000000 0 1 0
15.341360 13.376186 -10.428496 22.869919 0.717074 2.044283 0.077196 -0.011932 -373161.000000 0 1 0
15.053060 14.892986 -10.633096 23.695113 0.780053 2.036158 0.077794 -0.001945 167433.000000 0 1 0
13.785560 15.245086 -10.108096 22.904757 0.835631 2.027854 0.080696 -0.008962 382982.000000 0 1 0
13.564460 16.671886 -10.212396 23.795785 0.887810 2.014368 0.071906 -0.011647 87691.700000 0 1 0
12.424060 17.129486 -9.287896 23.109339 0.943290 1.984399 0.066452 -0.006871 -57483.300000 0 1 0
12.695660 16.768186 -8.010896 22.506139 0.922749 1.934719 0.068535 -0.018341 876672.000000 0 1 0
11.573660 17.074286 -7.155796 21.833146 0.975097 1.904717 0.055064 -0.019632 566558.000000 0 1 0
11.912760 16.913986 -5.672796 21.451745 0.957181 1.838424 0.047154 -0.016801 195872.000000 0 1 0
12.770360 17.976486 -5.287896 22.675934 0.953130 1.806157 0.047542 -0.015214 238895.000000 0 1 0
13.420160 17.675586 -4.060796 22.561407 0.921402 1.751771 0.062936 -0.015703 159912.000000 0 1 0
14.536560 18.736186 -3.786896 24.014512 0.910952 1.729149 0.058225 -0.015549 657901.000000 0 1 0
15.698060 18.709286 -4.633396 24.858295 0.872693 1.758285 0.063323 -0.024186 887751.000000 0 1 0
16.523160 19.846086 -4.388796 26.194340 0.876512 1.739138 0.047078 -0.015274 409417.000000 0 0 1
17.761060 19.937686 -5.332196 27.228641 0.843071 1.767901 0.044536 -0.010101 -127725.000000 0 0 1
18.928860 19.260186 -4.997596 27.463293 0.794074 1.753790 0.056421 -0.017839 -330199.000000 0 0 1
18.991260 17.839386 -5.307396 26.590977 0.754133 1.771740 0.062651 -0.024022 230494.000000 0 0 1
20.173960 17.088886 -4.611896 26.838186 0.702794 1.743494 0.079052 -0.020894 891930.000000 0 0 1
21.510660 17.351586 -5.008296 28.086813 0.678783 1.750070 0.056224 -0.023950 295630.000000 0 0 1
22.369860 16.364386 -4.499796 28.079386 0.631580 1.731743 0.065816 -0.026983 1239580.000000 0 0 1
23.926360 16.662686 -4.620096 29.520520 0.608316 1.727947 0.053723 -0.021755 1328720.000000 0 0 1
24.385260 17.758986 -3.885996 30.415842 0.629446 1.698909 0.053077 -0.020394 -232493.000000 0 0 1
25.786060 17.773886 -3.835496 31.552225 0.603497 1.692658 0.046719 -0.014608 -129746.000000 0 0 1
26.475160 18.999186 -3.157696 32.739490 0.622456 1.667396 0.053154 -0.012404 24895.700000 0 0 1
26.352060 20.185786 -3.901696 33.423349 0.653665 1.687799 0.046894 -0.005340 178705.000000 0 0 1
26.727160 21.250286 -3.048296 34.281304 0.671735 1.659834 0.053875 0.013417 -360882.000000 0 0 1
26.580360 22.692886 -3.596396 35.134266 0.706665 1.673337 0.028987 0.018339 480655.000000 0 0 1
27.539660 23.133986 -4.605396 36.260500 0.698674 1.698149 0.013289 0.021303 788248.000000 0 0 1
27.467960 22.436886 -5.879896 35.951020 0.684924 1.735087 0.017125 0.014665 -116596.000000 0 0 1
28.449560 22.859286 -6.989396 37.158795 0.676873 1.760019 0.005037 0.017713 -111866.000000 0 0 1
27.960260 23.958886 -7.778196 37.633823 0.708481 1.778978 0.003860 0.017902 479394.000000 0 0 1
28.919160 24.757486 -8.490796 39.004417 0.708021 1.790241 -0.003205 0.020771 95356.500000 0 0 1
29.708660 24.148686 -9.693696 39.493433 0.682527 1.818781 -0.003245 0.011751 379716.000000 0 0 1
28.986360 23.832386 -10.882196 39.071906 0.688128 1.853046 0.008820 0.011944 371286.000000 0 0 1
29.920760 23.205586 -11.779096 39.654737 0.659665 1.872389 -0.001967 0.006278 540320.000000 0 0 1
29.419260 22.946486 -13.221196 39.583255 0.662415 1.911351 0.023397 0.011247 -1003.720000 0 0 1
29.637960 23.931486 -14.229496 40.664521 0.679274 1.928286 0.015564 0.009198 -56063.500000 0 0 1
29.526460 23.435686 -15.592096 40.794076 0.670899 1.962988 0.026392 -0.000945 -167089.000000 0 0 1
29.943060 24.421286 -16.648096 42.073093 0.684176 1.977620 0.030698 -0.003818 358060.000000 0 0 1
31.326760 24.719486 -16.767796 43.284845 0.668050 1.968587 0.028722 0.005801 71456.500000 0 0 1
31.482660 25.408286 -17.987696 44.275231 0.679029 1.989165 0.036982 -0.004552 390242.000000 0 0 1
32.940960 25.832386 -18.344296 45.704838 0.665034 1.983802 0.030305 -0.008185 272420.000000 0 0 1
33.741960 24.702786 -18.542396 45.744595 0.631952 1.988154 0.037023 -0.006116 -1798310.000000 0 0 1
35.018360 25.050186 -18.862096 47.006127 0.620950 1.983698 0.031123 -0.014099 -1721170.000000 0 0 1
35.987260 23.878186 -18.802096 47.103816 0.585819 1.981400 0.026276 -0.020166 -430776.000000 0 0 1
35.899360 23.048486 -19.947696 47.094663 0.570752 2.008175 0.024002 -0.014146 294930.000000 0 0 1
-35.399764 23.536086 -21.085096 47.451785 -0.586755 2.031242 0.021347 -0.021440 -26953.600000 0 0 1
-35.352664 22.457086 -22.209196 47.406539 -0.565922 2.058370 0.030271 -0.015023 24429.100000 0 0 1
-34.785764 21.229086 -21.784396 46.209126 -0.547945 2.061709 0.024540 -0.012347 170381.000000 0 0 1
-34.391464 20.447086 -22.918496 46.109799 -0.536395 2.090983 0.027791 -0.008995 223768.000000 0 0 1
-33.903464 19.010886 -22.588796 44.956783 -0.511048 2.097233 0.017215 -0.003874 92173.000000 0 0 1
-35.008464 18.158186 -22.348096 45.329346 -0.478480 2.086349 0.028639 -0.010773 179919.000000 0 0 1
-34.821564 16.768886 -22.619496 44.781452 -0.448792 2.100304 0.017228 -0.009719 -265797.000000 0 0 1
35.977260 15.934986 -22.188796 45.173329 0.416949 2.084254 0.010058 -0.008098 484069.000000 0 0 1
34.894860 16.114086 -23.107396 44.847149 0.432615 2.112093 0.047675 -0.012377 1062370.000000 0 0 1
33.738160 15.259186 -23.044696 43.613807 0.424751 2.127489 0.059474 -0.008549 703181.000000 0 0 1
33.942460 13.848286 -23.531996 43.561685 0.387378 2.141470 0.025332 -0.009472 -723172.000000 0 0 1
33.763160 13.720586 -24.943696 44.163259 0.385992 2.170995 0.037765 0.004731 155372.000000 0 0 1
34.156060 12.468286 -25.417216 44.363605 0.350009 2.180872 0.037003 0.003468 -283135.000000 0 0 1
34.169360 12.396486 -26.968906 45.260799 0.348028 2.209127 0.052208 0.003713 515636.000000 0 0 1
32.855960 12.517686 -27.539506 44.661291 0.364009 2.235252 0.037297 0.002291 788260.000000 0 0 1
32.390660 13.824886 -27.758836 44.842338 0.403409 2.238306 0.032978 0.003277 -273202.000000 0 0 1
32.686460 14.298086 -29.243586 46.130546 0.412353 2.257422 0.040134 0.005906 753297.000000 0 0 1
34.078360 14.336786 -29.606176 47.364583 0.398223 2.246017 0.042691 0.005000 858646.000000 0 0 1
34.200360 14.220186 -31.005886 48.303657 0.394044 2.267764 0.050136 0.005060 -688285.000000 0 0 1
35.645360 14.418286 -31.470316 49.687619 0.384373 2.256688 0.073106 -0.005806 535810.000000 0 0 1
-35.383264 13.416386 -31.172466 49.027517 -0.362424 2.259861 0.071161 -0.004603 705664.000000 0 0 1
-34.920364 13.280286 -29.893336 47.847773 -0.363411 2.245619 0.059681 -0.006910 -1009050.000000 0 0 1
-33.826264 12.242486 -29.687916 46.641901 -0.347256 2.260758 0.060249 -0.008437 -325049.000000 0 0 1
-34.192264 10.881686 -29.851626 46.675921 -0.308115 2.264710 0.067358 -0.013325 265812.000000 0 0 1
-33.063764 10.076586 -29.580146 45.494342 -0.295820 2.278636 0.066311 -0.019233 120273.000000 0 0 1
-33.307464 8.614286 -29.896666 45.578544 -0.253084 2.286220 0.076866 -0.009248 -405273.000000 0 0 1
-33.306364 8.427886 -31.336046 46.500440 -0.247839 2.310254 0.073962 -0.007712 278132.000000 0 0 1
-33.802964 7.191786 -31.879436 47.017663 -0.209630 2.315877 0.071084 -0.004972 206258.000000 0 0 1
-35.224564 6.637686 -31.577436 47.769899 -0.186255 2.292990 0.077636 0.008008 198742.000000 0 0 1
-35.227364 5.982786 -30.348246 46.880454 -0.168228 2.274904 0.083155 -0.006267 776757.000000 0 0 1
35.480560 5.499986 -30.099796 46.852083 0.153790 2.268478 0.072891 0.004253 230052.000000 0 0 1
35.321760 4.823886 -28.710116 45.772998 0.135730 2.248786 0.077112 -0.004053 -18282.200000 0 0 1
-35.888964 3.676586 -28.506446 45.979914 -0.102087 2.239509 0.087280 -0.006951 464404.000000 0 0 1
35.683160 2.930786 -27.430546 45.103351 0.081950 2.224551 0.083879 -0.008282 -67675.200000 0 0 1
-35.661864 1.508086 -27.349496 44.967075 -0.042263 2.224602 0.111217 -0.015767 75635.400000 0 0 1
-34.456564 1.475186 -26.629816 43.572676 -0.042787 2.228320 0.108698 -0.017829 -261457.000000 0 0 1
-33.692464 0.321286 -26.750356 43.021703 -0.009536 2.241819 0.123040 -0.020027 -980003.000000 0 0 1
-32.401864 0.269086 -26.004866 41.547638 -0.008304 2.247087 0.107940 -0.022031 -887318.000000 0 0 1
-32.563064 0.220186 -24.632996 40.831190 -0.006762 2.218415 0.097588 -0.022238 -392021.000000 0 0 1
-31.304264 0.264286 -24.043196 39.472802 -0.008442 2.225732 0.106569 -0.019891 -427071.000000 0 0 1
-31.228564 0.041586 -22.503096 38.491743 -0.001332 2.195210 0.078753 -0.012711 -440682.000000 0 0 1
-31.467464 -1.278414 -21.993696 38.412996 0.040604 2.180420 0.082920 -0.020895 311500.000000 0 0 1
-31.879264 -1.402714 -20.610796 37.987629 0.043972 2.144285 0.073794 -0.014399 66444.500000 0 0 1
-33.372364 -1.068714 -20.361296 39.108045 0.032013 2.118399 0.059600 -0.011022 64912.800000 0 0 1
-34.229264 -2.144014 -20.731296 40.075253 0.062555 2.114500 0.057864 -0.010483 730821.000000 0 0 1
-35.564464 -1.981314 -20.237496 40.967218 0.055653 2.087472 0.048573 -0.008445 778978.000000 0 0 1
35.741360 -3.374714 -20.080996 41.134899 -0.094141 2.080793 0.059180 -0.008619 90832.100000 0 0 1
35.224460 -4.086914 -21.249296 41.340029 -0.115508 2.110652 0.052633 -0.005515 475841.000000 0 0 1
-35.818864 -4.726414 -22.057496 42.330404 0.131195 2.118911 0.027837 -0.007366 -251507.000000 0 0 1
35.623560 -5.688114 -23.104296 42.839248 -0.158336 2.140432 0.021397 -0.004697 -674409.000000 0 0 1
35.057060 -6.874614 -22.573896 42.259183 -0.193641 2.134331 0.021661 0.002507 230161.000000 0 0 1
34.518960 -7.729914 -23.557796 42.500352 -0.220298 2.158314 0.020305 0.009815 -436665.000000 0 0 1
33.176260 -7.391014 -24.187196 41.717044 -0.219201 2.189269 0.014606 0.013939 -1300700.000000 0 0 1
33.131860 -6.195314 -24.923996 41.920253 -0.184855 2.207511 0.026776 0.004975 259607.000000 0 0 1
31.813760 -6.055614 -25.443496 41.184430 -0.188096 2.236731 0.024436 0.003695 354811.000000 0 0 1
31.456860 -4.876414 -26.362146 41.331298 -0.153795 2.262468 0.042267 -0.028318 -40064.300000 0 0 1
31.659960 -5.084314 -27.733116 42.394918 -0.159232 2.283870 0.042990 -0.026866 309687.000000 0 0 1
31.333660 -3.893414 -28.442476 42.496251 -0.123623 2.304054 0.054962 -0.031584 -139358.000000 0 0 1
31.267060 -4.082814 -29.940056 43.482242 -0.129844 2.330295 0.069227 -0.025933 -46348.700000 0 0 1
30.813060 -2.933814 -30.586566 43.515399 -0.094927 2.350250 0.070162 -0.041252 -57328.200000 0 0 1
30.190060 -3.316014 -31.789846 43.966237 -0.109399 2.379006 0.062437 -0.043145 -1102040.000000 0 0 1
29.664960 -2.143814 -32.661556 44.174461 -0.072142 2.402940 0.068505 -0.046042 -144576.000000 0 0 1
28.549360 -1.430314 -32.145456 43.016765 -0.050058 2.414752 0.049377 -0.038674 -278264.000000 0 0 1
27.363160 -2.106414 -31.900166 42.080876 -0.076828 2.431142 0.045698 -0.041575 -1312170.000000 0 0 1
26.494660 -2.346014 -33.126536 42.483387 -0.088316 2.465067 0.055900 -0.039179 -1583620.000000 0 0 1
26.943760 -3.389014 -33.883296 43.422683 -0.125124 2.465963 0.065449 -0.044281 182726.000000 0 0 1
26.134560 -3.610114 33.462021 42.611677 -0.137267 0.667651 0.057726 -0.040749 -162656.000000 0 0 1
26.428860 -4.917814 32.666327 42.305537 -0.183973 0.688575 0.051296 -0.039394 661807.000000 0 0 1
27.724160 -5.069314 32.050082 42.679442 -0.180850 0.721298 0.050771 -0.031198 738708.000000 0 0 1
27.951060 -4.332614 30.839452 41.846208 -0.153783 0.742218 0.050248 -0.033982 -348309.000000 0 0 1
28.591360 -2.937414 30.964892 42.248299 -0.102379 0.748183 0.045854 -0.035702 -459548.000000 0 0 1
29.856060 -2.985114 31.575622 43.558181 -0.099652 0.759897 0.051663 -0.031469 -276075.000000 0 0 1
30.312560 -1.693714 31.861262 44.009771 -0.055817 0.761272 0.049860 -0.029852 -84985.300000 0 0 1
31.732260 -1.727614 32.460404 45.426851 -0.054390 0.774795 0.048744 -0.028747 431084.000000 0 0 1
32.765060 -2.141614 31.551692 45.537292 -0.065270 0.805326 0.054983 -0.024688 -390521.000000 0 0 1
34.025160 -1.927814 32.098782 46.816234 -0.056598 0.815323 0.054369 -0.015355 -823913.000000 0 0 1
35.132760 -2.415514 31.189782 47.041982 -0.068646 0.845950 0.050255 -0.009394 -500383.000000 0 0 1
35.431760 -1.707014 30.024612 46.473657 -0.048140 0.868390 0.035123 -0.003585 217253.000000 0 0 1
-35.447764 -2.275814 29.405882 46.113221 0.064114 0.879302 0.034149 -0.005940 348735.000000 0 0 1
-35.245864 -1.694414 28.021532 45.059385 0.048037 0.899655 0.030107 -0.001385 -653342.000000 0 0 1
35.825260 -1.988614 27.107142 44.968889 -0.055452 0.923794 0.031481 -0.012304 -777030.000000 0 0 1
-35.620264 -1.653814 25.865852 44.052022 0.046396 0.943243 0.030755 -0.005525 30980.800000 0 0 1
-26.975230 15.254686 12.458304 33.400267 -0.514671 1.188556 0.070406 -0.011385 -287305.000000 0 0 1
-28.037090 14.452786 12.880404 34.071487 -0.475961 1.183117 0.021687 0.001025 -397995.000000 0 0 1
-28.987430 15.298586 13.481704 35.441137 -0.485613 1.180571 0.035785 -0.007276 -339576.000000 0 0 1
-30.114550 14.517786 14.177504 36.313274 -0.449214 1.169706 0.041923 -0.001316 -182264.000000 0 0 1
-31.136740 15.385186 14.557904 37.658108 -0.458930 1.173875 0.037203 -0.006947 -929686.000000 0 0 1
-32.178200 14.747886 15.228804 38.533793 -0.429751 1.164504 0.037017 0.005238 -813868.000000 0 0 1
-33.085960 15.676586 16.018604 39.962880 -0.442480 1.158366 0.045122 -0.004881 -526426.000000 0 0 1
-32.473520 16.411586 17.055504 40.184075 -0.467945 1.132459 0.037400 -0.000939 65259.000000 0 0 1
-33.315580 16.550386 18.214604 41.419983 -0.461065 1.115472 0.027547 -0.010970 -77912.400000 0 0 1
-32.529900 16.774786 19.493004 41.467639 -0.476107 1.081418 0.026083 -0.010980 -26219.500000 0 0 1
-31.942020 15.522486 20.035004 40.775502 -0.452351 1.057158 0.037711 -0.011639 -452264.000000 0 0 1
-30.783850 15.729386 20.753304 40.320697 -0.472379 1.030132 0.038101 -0.012014 -534051.000000 0 0 1
-30.916730 16.347186 22.156904 41.400520 -0.486381 1.006071 0.048730 -0.020789 -412121.000000 0 0 1
-31.542820 17.626686 22.125204 42.369496 -0.509588 1.021372 0.030255 -0.014624 108834.000000 0 0 1
-31.776250 18.257686 23.416404 43.490242 -0.521511 1.002225 0.020576 -0.015938 -19870.300000 0 0 1
-32.667980 17.460786 24.505904 44.414134 -0.490859 0.986324 0.014579 -0.013859 1376990.000000 0 0 1
-34.049711 17.213086 24.219604 45.191397 -0.468060 1.005183 0.040283 -0.013125 891673.000000 0 0 1
-34.897993 18.327886 24.081004 46.191732 -0.483592 1.022391 0.033903 -0.013863 183574.000000 0 0 1
35.656123 17.966186 23.677404 46.419418 0.466742 1.035524 0.014813 -0.017844 762475.000000 0 0 1
34.984143 17.237086 24.685104 46.155842 0.457800 1.006501 0.027176 -0.010999 -221151.000000 0 0 1
33.751033 16.737886 24.236204 44.796011 0.460380 0.999129 0.031331 -0.010515 -203339.000000 0 0 1
33.164823 15.710686 25.192304 44.512732 0.442400 0.969202 0.018349 0.003372 -144344.000000 0 0 1
32.734603 16.262586 26.470304 45.129845 0.461085 0.944020 0.029064 -0.005642 256815.000000 0 0 1
32.812393 15.352486 27.584304 45.532909 0.437629 0.920012 0.027439 -0.007729 -782787.000000 0 0 1
31.658883 14.415786 27.759604 44.505004 0.427292 0.897276 0.025901 -0.001025 -888056.000000 0 0 1
31.811593 13.402686 26.795704 43.699190 0.398745 0.910710 0.023001 -0.001767 -301192.000000 0 0 1
31.048643 12.291986 26.959804 42.917854 0.376962 0.891594 0.015052 0.000284 -499340.000000 0 0 1
31.859703 11.078686 26.388104 42.826510 0.334654 0.906935 0.021279 0.007293 -221451.000000 0 0 1
32.671203 10.520486 27.393704 43.914726 0.311526 0.897210 0.024289 0.003655 -217097.000000 0 0 1
33.026603 9.214486 27.023304 43.656869 0.272083 0.903336 0.022374 -0.001364 523582.000000 0 0 1
34.089003 8.475786 27.948804 44.889138 0.243695 0.898712 0.030649 -0.000286 525641.000000 0 0 1
35.381393 9.021886 27.953904 45.985412 0.249669 0.917400 0.040776 0.000559 101286.000000 0 0 1
-35.681498 7.995786 28.311904 46.245711 -0.220446 0.911949 0.038141 0.002750 115426.000000 0 0 1
-34.356938 8.665186 28.682204 45.586769 -0.247058 0.890301 0.041375 0.004550 -361508.000000 0 0 1
-33.618770 9.103986 27.554604 44.411265 -0.264458 0.901490 0.043216 -0.000502 334902.000000 0 0 1
-32.457640 9.833486 27.949704 43.947489 -0.294174 0.881519 0.046613 -0.001437 189388.000000 0 0 1
-31.696550 10.379386 26.752604 42.756342 -0.316456 0.894769 0.059412 -0.005633 -518828.000000 0 0 1
-31.137560 9.447986 25.919704 41.600999 -0.294598 0.898154 0.052991 -0.007609 24783.000000 0 0 1
-30.180860 10.092686 25.081104 40.519235 -0.322716 0.903337 0.044194 -0.011881 33959.900000 0 0 1
-29.417540 9.052786 24.205004 39.156440 -0.298537 0.904395 0.046364 -0.009347 -38659.300000 0 0 1
-28.544340 9.826786 23.401704 38.196660 -0.331556 0.911370 0.039439 -0.017104 126339.000000 0 0 1
-27.594150 8.904586 22.839104 36.910072 -0.312149 0.903611 0.019011 -0.001010 359475.000000 0 0 1
-26.591410 9.521686 21.846804 35.707820 -0.343849 0.912435 0.027397 0.005068 -885587.000000 0 0 1
-25.488020 10.178086 22.417904 35.437198 -0.379927 0.885879 0.031934 0.001386 -400101.000000 0 0 1
-24.453640 10.598186 21.633204 34.326339 -0.408963 0.888958 0.022403 0.005843 -91673.600000 0 0 1
-23.727840 9.621886 20.630704 32.881865 -0.385248 0.892562 0.014299 0.005368 -1040970.000000 0 0 1
-24.464740 9.488786 19.449304 32.662455 -0.369993 0.932954 0.011922 0.000794 76799.200000 0 0 1
-24.183940 8.452286 18.524604 31.614317 -0.336229 0.944737 0.010136 -0.006605 -433257.000000 0 0 1
-24.278640 6.951186 18.898604 31.542489 -0.278849 0.928360 0.008303 -0.001562 -14218.100000 0 0 1
-23.197340 6.458886 19.707504 31.116226 -0.271554 0.884920 0.015207 0.001478 898993.000000 0 0 1
-23.273940 5.069886 19.964104 31.079663 -0.214485 0.873232 0.035626 -0.005448 -285200.000000 0 0 1
-23.212640 4.003486 18.823604 30.152655 -0.170790 0.896591 0.029038 -0.008292 41534.700000 0 0 1
-24.415040 3.926586 18.057804 30.620198 -0.159461 0.940066 0.038594 -0.006754 747534.000000 0 0 1
-24.265840 3.053986 16.931604 29.746211 -0.125197 0.965261 0.048776 -0.006810 -190273.000000 0 0 1
-24.304540 1.526786 17.178604 29.801782 -0.062737 0.956445 0.050772 -0.007919 -328256.000000 0 0 1
-23.108340 1.107786 17.793004 29.185845 -0.047902 0.915184 0.045361 -0.004438 116828.000000 0 0 1
-23.234040 -0.234314 18.204804 29.517629 0.010085 0.906197 0.056546 -0.005795 -548229.000000 0 0 1
-21.986940 -1.077814 18.481804 28.743074 0.048981 0.872387 0.053029 -0.007914 -402740.000000 0 0 1
-21.146740 -0.547114 19.511504 28.778164 0.025867 0.825762 0.047806 -0.010638 113293.000000 0 0 1
-20.066540 -1.447214 19.663004 28.131729 0.071996 0.796852 0.042501 -0.012747 120248.000000 0 0 1
-18.920840 -0.993914 20.585704 27.977799 0.052482 0.743968 0.038690 -0.009270 413226.000000 0 0 1
-19.382540 -0.891014 21.928404 29.280227 0.045938 0.724373 0.038461 -0.011587 389678.000000 0 0 1
-18.248340 -0.758014 22.801504 29.214467 0.041515 0.675352 0.038285 -0.014240 307656.000000 0 0 1
-18.514940 -0.760414 24.328704 30.582136 0.041047 0.650931 0.034991 -0.014617 350142.000000 0 0 1
-19.298240 0.317486 24.881404 31.489794 -0.016450 0.659756 0.030555 -0.018155 2729600.000000 0 0 1
-20.776540 0.076986 24.877104 32.412048 -0.003705 0.695823 0.068080 -0.026685 2701950.000000 0 0 1
-21.499340 1.138086 25.780604 33.588040 -0.052886 0.695781 0.060905 -0.033406 -491553.000000 0 0 1
-21.547540 2.464086 25.255404 33.289693 -0.113861 0.709550 0.055105 -0.024838 -158324.000000 0 0 1
-22.720140 2.762286 24.551204 33.564812 -0.120985 0.750341 0.053134 -0.017384 -1311270.000000 0 0 1
-22.594540 3.937386 23.504804 32.840403 -0.172530 0.773130 0.045240 -0.007779 -7337.760000 0 0 1
-21.908840 3.560486 22.290004 31.456615 -0.161105 0.783291 0.038377 -0.006930 295532.000000 0 0 1
-20.535040 3.359186 22.513804 30.656865 -0.162147 0.746043 0.039799 -0.008052 -1120220.000000 0 0 1
-19.838840 2.657086 21.342404 29.259834 -0.133141 0.753338 0.033969 -0.012031 -478444.000000 0 0 1
-19.563940 3.468486 20.243704 28.365220 -0.175466 0.776058 0.030688 -0.008719 94967.500000 0 0 1
-19.324640 2.588786 19.206704 27.368613 -0.133170 0.792905 0.050619 -0.017850 -105543.000000 0 0 1
-18.962440 3.331686 17.842704 26.249502 -0.173924 0.823395 0.044675 -0.016559 327287.000000 0 0 1
-17.604340 3.695186 17.628604 25.186005 -0.206898 0.795488 0.051812 -0.023408 379346.000000 0 0 1
-17.394140 4.687586 16.649804 24.530502 -0.263239 0.824752 0.055366 -0.016777 313991.000000 0 1 0
-15.889740 5.070886 16.368804 23.369541 -0.308913 0.794792 0.065194 -0.015925 1173860.000000 0 1 0
-15.341140 5.977086 17.400704 23.955388 -0.371519 0.757757 0.055936 -0.019082 240301.000000 0 1 0
-15.753840 7.337886 17.359104 24.563520 -0.435902 0.785970 0.044769 -0.029020 -286528.000000 0 1 0
-15.088140 8.331486 16.291704 23.716771 -0.504521 0.813544 0.024670 -0.020497 347522.000000 0 1 0
-15.556840 8.274886 14.929604 23.095066 -0.488851 0.867886 0.026583 -0.014091 -1176870.000000 0 1 0
-16.911540 8.431786 14.783204 23.992464 -0.462512 0.906938 0.020037 -0.007011 -1553870.000000 0 1 0
-17.349940 7.706886 13.544904 23.321255 -0.418022 0.951090 0.021217 -0.009907 -295675.000000 0 1 0
-17.184640 6.306786 13.666604 22.844331 -0.351740 0.929482 0.022461 -0.007128 254894.000000 0 1 0
-17.682740 5.568086 12.517104 22.368745 -0.305059 0.976917 0.023951 -0.004804 314232.000000 0 1 0
-17.310940 4.072586 12.501104 21.737806 -0.231059 0.958087 0.020681 -0.004595 -290162.000000 0 1 0
-18.046540 3.420086 13.472304 22.778884 -0.187294 0.937955 0.032216 -0.006335 170296.000000 0 1 0
-17.640440 2.036986 13.520904 22.319258 -0.114963 0.920031 0.031211 -0.011817 112289.000000 0 1 0
-18.504940 1.137086 14.482104 23.525669 -0.061371 0.907665 0.036767 -0.017641 -842512.000000 0 1 0
-19.809740 0.990686 14.106004 24.338994 -0.049968 0.952603 0.051208 -0.009916 -1038950.000000 0 1 0
-20.646340 0.500886 15.135604 25.604858 -0.024256 0.938347 0.052910 -0.015307 284807.000000 0 0 1
-22.073440 0.175386 14.596904 26.463883 -0.007945 0.986541 0.055055 -0.017293 57314.300000 0 0 1
-22.150840 -0.885614 13.691404 26.055682 0.039960 1.017532 0.074421 -0.019122 -848544.000000 0 0 1
-23.450640 -1.267114 13.449604 27.063443 0.053981 1.050698 0.081298 -0.017078 -949744.000000 0 0 1
-23.512040 -2.407314 12.440004 26.708892 0.102031 1.086300 0.078822 -0.018986 -214733.000000 0 0 1
-23.228640 -3.662614 13.031004 26.884783 0.156389 1.064778 0.075790 -0.021967 129756.000000 0 0 1
-23.373440 -4.650314 12.027204 26.694508 0.196393 1.103415 0.088522 -0.023903 -6426.820000 0 0 1
-23.096940 -6.154014 12.469704 26.959860 0.260393 1.089951 0.073909 -0.022791 -173747.000000 0 0 1
-24.096640 -6.629814 13.313304 28.316895 0.268491 1.081331 0.059403 -0.018257 -19335.700000 0 0 1
-24.155340 -8.016914 13.301504 28.717266 0.320451 1.089207 0.066752 -0.016687 -165643.000000 0 0 1
-24.978340 -8.461014 14.528104 30.109335 0.326603 1.067276 0.064005 -0.008441 -129514.000000 0 0 1
-26.348400 -8.172514 14.440804 31.137839 0.300762 1.088550 0.066319 -0.007654 -275424.000000 0 0 1
-27.023900 -8.584414 15.587004 32.356422 0.307579 1.068170 0.057312 -0.013087 -30166.300000 0 0 1
-28.426050 -7.947514 15.835804 33.495910 0.272624 1.078367 0.055806 -0.008094 819317.000000 0 0 1
-29.550180 -8.164414 14.974804 34.119138 0.269565 1.116425 0.045434 -0.005119 1131110.000000 0 0 1
-30.036260 -9.521614 14.893504 34.851894 0.306983 1.129251 0.056114 -0.017234 -190870.000000 0 0 1
-30.632060 -10.259314 16.121004 36.103510 0.323179 1.107922 0.063962 -0.023091 -885072.000000 0 0 1
-29.578330 -10.574514 16.974904 35.704976 0.343348 1.075354 0.058878 -0.015084 -91239.800000 0 0 1
-29.918220 -11.288114 18.089404 36.738916 0.360785 1.055977 0.065180 -0.013572 -1196990.000000 0 0 1
-28.774370 -11.327214 19.016304 36.302754 0.375026 1.019461 0.066180 -0.011056 -349951.000000 0 0 1
-27.648840 -12.093114 18.566904 35.432072 0.412312 1.019239 0.052730 -0.003630 283915.000000 0 0 1
-26.532560 -11.912714 19.405104 34.963518 0.422009 0.982421 0.049290 -0.008354 -28143.400000 0 0 1
-25.350510 -12.810214 18.990004 34.166800 0.467898 0.981468 0.047813 -0.001600 -48276.400000 0 0 1
-24.878740 -12.582514 17.629004 32.985651 0.468240 1.006946 0.039035 -0.001970 -224148.000000 0 0 1
-23.598440 -13.120114 17.494004 32.172410 0.507418 0.995888 0.038191 -0.003730 -669594.000000 0 0 1
-23.135740 -13.219614 16.023604 31.093031 0.519120 1.029387 0.044147 -0.006270 -240207.000000 0 0 1
-22.582540 -12.018214 15.495904 29.908722 0.489067 1.026161 0.048077 -0.008326 -42161.400000 0 0 1
-22.514640 -12.073514 14.102204 29.181345 0.492227 1.066421 0.043566 0.002023 250462.000000 0 0 1
-21.331640 -11.242314 13.533904 27.651312 0.485033 1.059339 0.051340 -0.006009 -160771.000000 0 0 1
-21.393140 -9.817114 13.605504 27.187348 0.430223 1.046695 0.056116 -0.014060 1548030.000000 0 0 1
-20.072340 -9.190814 13.415704 25.833138 0.429391 1.024740 0.073991 -0.016886 1450840.000000 0 0 1
-19.457140 -9.197514 12.039104 24.659980 0.441575 1.060766 0.082623 -0.006336 -394084.000000 0 1 0
-18.752340 -10.411314 11.737604 24.450298 0.506827 1.070074 0.069402 -0.011059 404975.000000 0 1 0
-18.557940 -10.636714 10.353504 23.764088 0.520452 1.120004 0.086346 -0.004070 -181558.000000 0 1 0
-17.808440 -11.935414 9.953604 23.636177 0.590452 1.136119 0.061596 0.004316 1541970.000000 0 1 0
-16.377440 -12.126914 9.831704 22.626202 0.637370 1.121283 0.075158 -0.010019 1855180.000000 0 1 0
-15.650840 -12.005514 11.099404 22.633558 0.654346 1.058252 0.071770 -0.010223 -128030.000000 0 1 0
-14.145240 -12.210714 10.906004 21.636319 0.712130 1.042503 0.062074 -0.015371 -221661.000000 0 1 0
-13.859140 -13.628414 10.696304 22.186040 0.777005 1.067725 0.056670 -0.015687 378891.000000 0 1 0
-12.480840 -13.922214 10.846604 21.615926 0.839935 1.045132 0.052421 -0.010900 338548.000000 0 1 0
-12.005040 -15.378914 10.647604 22.226189 0.907987 1.071217 0.050408 -0.013881 -131117.000000 0 1 0
-12.381540 -15.936714 9.448404 22.283486 0.910288 1.132929 0.044176 -0.013048 -20181.600000 0 1 0
-12.175140 -17.336814 9.550104 23.237979 0.958548 1.147279 0.048873 -0.007048 108580.000000 0 1 0
-12.683440 -18.091414 8.311304 23.606073 0.959349 1.211000 0.041612 -0.004507 -107283.000000 0 1 0
-11.819940 -18.053514 7.205804 22.750032 0.991112 1.248508 0.033362 -0.001724 -274268.000000 0 1 0
-12.384840 -18.663914 6.088804 23.212055 0.984940 1.305379 0.022602 0.000265 -10736.100000 0 1 0
-11.500440 -18.498914 4.805804 22.306181 1.014587 1.353647 0.024177 -0.000710 -39172.900000 0 1 0
-11.813540 -19.259014 3.685104 22.892124 1.020580 1.409116 0.033353 -0.001907 -236017.000000 0 1 0
-10.932140 -19.069114 2.622704 22.136427 1.050248 1.452038 0.033136 -0.013618 -162974.000000 0 1 0
-11.182140 -20.060314 1.474104 23.013680 1.062270 1.506699 0.033528 -0.008492 -169872.000000 0 1 0
-10.676840 -21.369114 1.689904 23.947646 1.107438 1.500171 0.018547 -0.011595 -310255.000000 0 1 0
-11.121740 -22.349414 0.736804 24.974633 1.109046 1.541290 0.021295 -0.012068 -276260.000000 0 1 0
-10.378740 -22.527514 -0.565696 24.809820 1.139068 1.593600 0.037063 -0.005409 -261374.000000 0 1 0
-10.430140 -21.447214 -1.389696 23.889372 1.118155 1.629001 0.036666 -0.021288 880373.000000 0 1 0
-11.626740 -21.479214 -2.218396 24.524661 1.074656 1.661376 0.049484 -0.014626 1052860.000000 0 1 0
-12.485940 -20.187814 -2.229096 23.841464 1.016893 1.664430 0.044977 -0.018228 12885.800000 0 1 0
-13.145440 -20.032014 -0.974396 23.979859 0.990060 1.611441 0.036254 -0.019332 131539.000000 0 1 0
-14.146140 -19.044014 -1.214196 23.754200 0.931911 1.621934 0.046634 -0.016346 280034.000000 0 1 0
26.577160 -20.089414 -4.321296 33.594696 -0.647260 1.699784 0.065446 -0.024870 330805.000000 0 0 1
25.441760 -19.928214 -3.467896 32.502972 -0.664467 1.677695 0.071985 -0.025166 510173.000000 0 0 1
25.410360 -21.123914 -2.680296 33.152528 -0.693544 1.651732 0.046409 -0.024481 160342.000000 0 0 1
24.045460 -21.447314 -2.002196 32.282816 -0.728349 1.632857 0.030049 -0.021276 227679.000000 0 0 1
23.079160 -22.053514 -2.837196 32.047695 -0.762677 1.659443 0.032655 -0.027111 -90982.200000 0 0 1
21.938360 -22.348814 -2.066696 31.385225 -0.794666 1.636693 0.028636 -0.025761 193694.000000 0 0 1
20.778960 -22.988914 -2.893796 31.122812 -0.835848 1.663911 0.035513 -0.029733 398657.000000 0 0 1
20.171460 -22.163414 -3.914096 30.222919 -0.832416 1.700669 0.048705 -0.031185 -120250.000000 0 0 1
19.260260 -22.934314 -4.667796 30.310538 -0.872253 1.725411 0.064180 -0.027506 297418.000000 0 0 1
18.076860 -22.115814 -5.313796 29.053718 -0.885552 1.754727 0.059500 -0.012704 906130.000000 0 0 1
17.090460 -21.561514 -4.398596 27.862705 -0.900561 1.729326 0.057811 -0.007985 680465.000000 0 0 1
17.559960 -20.717214 -3.335996 27.362091 -0.867696 1.693021 0.049778 -0.019450 -1132600.000000 0 0 1
16.477360 -20.204014 -2.402796 26.181654 -0.886646 1.662700 0.064289 -0.007618 -237911.000000 0 0 1
16.055160 -21.153614 -1.395996 26.593088 -0.921573 1.623315 0.062487 -0.015638 -251572.000000 0 0 1
15.174360 -20.482914 -0.563596 25.497620 -0.933190 1.592902 0.069234 -0.008268 -308714.000000 0 0 1
14.674460 -21.281614 0.677904 25.859358 -0.967127 1.544578 0.058459 -0.010034 470065.000000 0 0 1
13.762260 -22.351114 0.379404 26.251020 -1.018891 1.556343 0.064020 -0.014916 51802.500000 0 0 1
13.263260 -22.763414 1.630104 26.395915 -1.043227 1.509001 0.061347 -0.006601 -204639.000000 0 0 1
12.345560 -23.983914 1.448104 27.013663 -1.095424 1.517164 0.066653 -0.008451 -312344.000000 0 0 1
12.862560 -25.216074 1.866404 28.368632 -1.099106 1.504958 0.047538 -0.008194 -10152.800000 0 0 1
12.019560 -26.316864 1.561204 28.973859 -1.142364 1.516887 0.042868 -0.009707 7485.110000 0 0 1
12.383160 -27.689294 2.213304 30.412799 -1.150258 1.497957 0.032170 -0.002495 56992.200000 0 0 1
12.098860 -27.735224 3.650004 30.478642 -1.159455 1.450752 0.035927 -0.004013 157821.000000 0 0 1
12.366160 -29.005354 4.227004 31.813520 -1.167791 1.437534 0.033474 -0.003126 -105000.000000 0 0 1
12.059260 -29.137544 5.731204 32.051036 -1.178387 1.391014 0.033914 0.001853 5815.540000 0 0 1
12.613760 -30.298414 6.336204 33.425265 -1.176303 1.380079 0.028757 -0.004305 -212566.000000 0 0 1
12.422960 -30.291604 7.759704 33.647054 -1.181603 1.338081 0.035366 -0.006316 2240.840000 0 0 1
12.272460 -31.696254 8.340404 34.997545 -1.201382 1.330167 0.022030 -0.008047 92653.300000 0 0 1
11.899960 -31.772364 9.710104 35.289918 -1.212431 1.292048 0.025180 -0.004392 247706.000000 0 0 1
11.023660 -32.898424 9.920104 36.086505 -1.247473 1.292313 0.033496 -0.001946 446940.000000 0 0 1
10.796460 -33.132794 11.445104 36.678822 -1.255792 1.253461 0.043277 -0.005642 524148.000000 0 0 1
12.042860 -33.493584 12.074804 37.585257 -1.225633 1.243732 0.036119 -0.009413 780437.000000 0 0 1
12.055760 -33.813224 13.444104 38.333007 -1.228307 1.212458 0.047478 -0.012421 -149564.000000 0 0 1
11.157660 33.729164 13.888004 38.144810 1.251326 1.198145 0.052481 -0.014833 192419.000000 0 0 1
11.506460 32.545288 13.168504 36.945959 1.230960 1.206356 0.052949 -0.019005 361300.000000 0 0 1
10.532960 31.535158 13.440904 35.861781 1.248440 1.186618 0.051213 -0.012439 221084.000000 0 0 1
10.446760 30.356478 12.393804 34.413034 1.239355 1.202369 0.044411 -0.010518 -381592.000000 0 0 1
10.006660 30.716188 11.068804 34.148732 1.255861 1.240699 0.050098 -0.001646 620939.000000 0 0 1
10.786160 31.748478 10.352504 35.092470 1.243293 1.271334 0.028833 -0.009130 533521.000000 0 0 1
10.198460 32.068668 8.946604 34.820250 1.262891 1.310945 0.022495 -0.003341 236604.000000 0 0 1
8.920460 32.678176 9.015504 35.053062 1.304310 1.310677 0.028286 -0.006747 -162885.000000 0 0 1
8.390460 32.903686 7.761904 34.832450 1.321117 1.346074 0.015893 -0.001503 -151777.000000 0 0 1
9.051960 34.074002 6.918304 35.928242 1.311138 1.377027 0.020836 0.005161 66592.800000 0 0 1
8.727360 -33.357304 7.480404 35.282191 -1.314900 1.357159 0.031807 -0.001058 178697.000000 0 0 1
9.075760 -32.345064 6.528204 34.222654 -1.297239 1.378863 0.028381 -0.003824 -150805.000000 0 0 1
8.478560 -30.999984 6.940104 32.879325 -1.303823 1.358119 0.029415 -0.004401 -225095.000000 0 0 1
9.023260 -30.449994 8.109004 32.777695 -1.282710 1.320807 0.027267 -0.000273 -307595.000000 0 0 1
8.579460 -29.149704 8.498604 31.552158 -1.284555 1.298077 0.059232 0.003415 -460158.000000 0 0 1
9.421260 -27.986114 8.022104 30.599622 -1.246072 1.305533 0.050111 -0.005153 -721435.000000 0 0 1
9.406760 -26.886294 8.931304 29.851769 -1.234236 1.266954 0.047449 -0.001472 43534.700000 0 0 1
10.129660 -25.734234 8.517504 28.938014 -1.195797 1.272036 0.050019 -0.014310 -48146.600000 0 0 1
9.457660 -24.903214 7.387904 27.644141 -1.207844 1.300258 0.050574 -0.009092 -39126.900000 0 0 1
9.438960 -25.500134 6.119304 27.871072 -1.216282 1.349435 0.059874 -0.008879 -305036.000000 0 0 1
8.955860 -24.670714 5.094604 26.735866 -1.222574 1.379071 0.056089 -0.011389 -170671.000000 0 0 1
8.804460 -25.336964 3.757604 27.085048 -1.236355 1.431614 0.046437 -0.006876 683830.000000 0 0 1
7.796060 -26.347004 3.524104 27.701308 -1.283106 1.443233 0.059779 -0.010832 353139.000000 0 0 1
8.018860 -27.531534 4.233504 28.986377 -1.287376 1.424221 0.048812 -0.007131 -62363.200000 0 0 1
6.989160 -28.590544 3.780404 29.674215 -1.331041 1.443052 0.050339 -0.006191 -190025.000000 0 0 1
5.805060 -28.538124 4.553404 29.476376 -1.370120 1.415699 0.048906 -0.000235 -657733.000000 0 0 1
4.810660 -29.374474 4.071404 30.042944 -1.408467 1.434859 0.048763 0.000819 -351389.000000 0 0 1
4.971260 -30.923654 4.343904 31.620489 -1.411401 1.432984 0.042531 -0.002214 -266893.000000 0 0 1
6.098860 -31.488164 3.694804 32.285479 -1.379478 1.456103 0.045368 -0.004164 184819.000000 0 0 1
6.161060 -32.869574 3.992704 33.679508 -1.385507 1.451967 0.041664 -0.002442 -100835.000000 0 0 1
7.223460 -33.588384 3.142804 34.499785 -1.358964 1.479574 0.031821 -0.001567 -18104.000000 0 0 1
6.951360 -33.743744 1.755204 34.496991 -1.367634 1.519894 0.036241 -0.004719 -172627.000000 0 0 1
7.921560 34.037155 1.342104 34.972565 1.342134 1.532411 0.021818 -0.000541 -908121.000000 0 0 1
7.678060 33.203045 0.036404 34.079263 1.343545 1.569728 0.021918 0.003483 817766.000000 0 0 1
6.462560 32.432588 0.009704 33.070192 1.374111 1.570503 0.014686 0.002806 -86229.200000 0 0 1
5.286260 33.175267 -0.006896 33.593793 1.412781 1.571002 0.025765 -0.005341 -1567600.000000 0 0 1
4.064460 32.315588 0.273704 32.571337 1.445679 1.562393 0.029005 -0.010371 -453751.000000 0 0 1
3.899460 31.241258 -0.593396 31.489270 1.446621 1.589642 0.029394 -0.004381 77784.500000 0 0 1
2.764960 30.466998 -0.227296 30.593049 1.480292 1.578226 0.032621 -0.014739 285169.000000 0 0 1
2.484860 29.403948 -1.295696 29.537189 1.486489 1.614677 0.030887 -0.013621 -74294.900000 0 0 1
2.177660 29.917298 -2.581296 30.107309 1.498135 1.656638 0.039787 -0.019293 93547.400000 0 0 1
2.139960 28.825518 -3.475796 29.113074 1.496694 1.690471 0.036739 -0.015026 -196847.000000 0 0 1
1.872260 29.267778 -4.932296 29.739465 1.506913 1.737416 0.039718 -0.023827 262951.000000 0 0 1
0.516960 29.706098 -5.037096 30.134563 1.553396 1.738738 0.049291 -0.024658 521560.000000 0 0 1
0.368160 30.700938 -6.025296 31.288774 1.558805 1.764577 0.035791 -0.014238 -129156.000000 0 0 1
0.182360 30.147288 -7.476996 31.061193 1.564747 1.813902 0.040471 -0.015073 -583336.000000 0 0 1
-1.085140 29.584618 -7.713296 30.592844 -1.534134 1.825674 0.037481 -0.014965 -101199.000000 0 0 1
-1.194940 28.930108 -8.955196 30.307996 -1.529515 1.870747 0.037178 -0.013388 -3220.830000 0 0 1
-1.407940 29.833868 -10.190596 31.557729 -1.523639 1.899609 0.022323 -0.018774 -445001.000000 0 0 1
-0.242140 30.530008 -10.548396 32.301838 -1.562865 1.903455 0.025664 -0.029100 -439084.000000 0 0 1
-0.438840 31.748458 -11.265996 33.690946 -1.556975 1.911757 0.008228 -0.018824 -29695.400000 0 0 1
-0.698940 32.884617 -10.278996 34.460765 -1.549545 1.873688 -0.001202 -0.005552 369178.000000 0 0 1
0.460160 33.126591 -9.493796 34.463241 1.556906 1.849881 0.012935 -0.023986 118281.000000 0 0 1
0.094260 33.972243 -8.432396 35.003250 1.568022 1.814093 0.012809 -0.012660 -282632.000000 0 0 1
1.192360 34.345623 -7.427196 35.159733 1.536094 1.783641 0.021829 -0.024931 -457475.000000 0 0 1
2.143960 -33.519994 -7.966896 34.520400 -1.506923 1.803684 0.032875 -0.022337 -466884.000000 0 0 1
2.984360 -32.943404 -6.985296 33.807819 -1.480452 1.778913 0.039689 -0.026732 -420244.000000 0 0 1
4.172560 -32.144114 -7.617396 33.296833 -1.441710 1.801613 0.025015 -0.027019 439624.000000 0 0 1
5.066660 -32.963354 -8.348896 34.379614 -1.418284 1.816093 0.041915 -0.026441 257290.000000 0 0 1
5.947460 -33.794214 -7.607996 35.146875 -1.396590 1.788986 0.056127 -0.009539 -1371570.000000 0 0 1
6.462260 33.853960 -8.551696 35.510322 1.382179 1.814010 0.051644 -0.006925 33968.100000 0 0 1
5.628260 32.706095 -8.887896 34.356378 1.400380 1.832470 0.034450 -0.008509 -64352.200000 0 0 1
4.441560 32.998585 -9.576796 34.646055 1.437002 1.850861 0.050567 -0.012380 -45425.700000 0 0 1
3.421660 31.846238 -9.700896 33.466372 1.463764 1.864887 0.044145 -0.022211 -67297.300000 0 0 1
3.796060 30.928148 -10.703596 32.947343 1.448669 1.901670 0.051592 -0.018390 216137.000000 0 0 1
2.972760 29.759618 -10.623196 31.738376 1.471234 1.912095 0.040590 -0.025129 242236.000000 0 0 1
3.664660 28.540948 -11.286396 30.909517 1.443095 1.944583 0.041514 -0.025750 21512.100000 0 0 1
3.729060 28.889008 -12.655896 31.759289 1.442424 1.980671 0.042415 -0.022483 465007.000000 0 0 1
5.023960 28.725498 -13.240096 32.026467 1.397652 1.996993 0.052488 -0.029873 453048.000000 0 0 1
5.227060 29.259348 -14.665496 33.143754 1.394015 2.029160 0.061665 -0.023832 -360643.000000 0 0 1
4.420460 28.547768 -15.552696 32.808565 1.417172 2.064674 0.044834 -0.020510 -97817.700000 0 0 1
4.454360 29.155778 -16.843096 33.964550 1.419191 2.089670 0.061447 -0.021292 678179.000000 0 0 1
3.292260 28.574878 -17.734796 33.791799 1.456087 2.123306 0.047333 -0.017559 628932.000000 0 0 1
3.618660 27.283728 -18.174796 32.982113 1.438935 2.154418 0.055508 -0.017459 -83019.200000 0 0 1
2.854760 26.886038 -19.295096 33.216102 1.465013 2.190625 0.062946 -0.022675 -71343.600000 0 0 1
3.300860 25.586548 -19.972296 32.626060 1.442497 2.229583 0.063053 -0.021363 163926.000000 0 0 1
3.495360 24.462968 -19.095796 31.229854 1.428873 2.228700 0.060071 -0.025667 234408.000000 0 0 1
4.290760 23.467068 -19.730496 30.958140 1.389952 2.261822 0.057699 -0.019491 403951.000000 0 0 1
4.828760 22.202268 -18.973296 29.601412 1.356642 2.266544 0.055143 -0.020563 186256.000000 0 0 1
3.813760 21.264068 -18.650996 28.540586 1.393331 2.282983 0.072175 -0.013662 74691.800000 0 0 1
4.440060 20.120468 -18.093996 27.421526 1.353603 2.291411 0.060259 -0.006991 54038.200000 0 0 1
3.494260 18.930468 -17.918696 26.299281 1.388267 2.320385 0.059443 -0.014384 359223.000000 0 0 1
2.487360 19.101968 -16.926496 25.643292 1.441310 2.291715 0.058983 -0.015773 43505.600000 0 0 1
1.633460 18.018568 -16.660196 24.594697 1.480389 2.315005 0.043018 -0.011081 20412.700000 0 1 0
2.257360 17.017268 -15.654496 23.232442 1.438915 2.310164 0.037966 -0.007069 1470820.000000 0 1 0
3.411560 16.290168 -16.212696 23.234884 1.364355 2.343081 0.038081 -0.013202 979276.000000 0 1 0
2.987560 15.120768 -16.894896 22.869208 1.375729 2.402028 0.046824 -0.024349 -93362.600000 0 1 0
3.032160 15.207168 -18.489896 24.131478 1.373987 2.443726 0.046482 -0.015758 -1189900.000000 0 1 0
4.331360 15.273268 -18.930796 24.706446 1.294461 2.443748 0.052467 -0.018882 -1270890.000000 0 1 0
4.361460 15.829168 -20.232096 26.056144 1.301935 2.459858 0.056989 -0.004540 -464556.000000 0 0 1
4.538560 14.842268 -21.418196 26.450531 1.274040 2.514514 0.051257 -0.022699 111621.000000 0 0 1
3.518860 13.865068 -21.586696 25.896099 1.322251 2.556369 0.050321 -0.019927 -33897.600000 0 0 1
2.360160 14.396968 -22.198196 26.563188 1.408307 2.560157 0.055732 -0.019321 125621.000000 0 0 1
1.398360 13.285668 -22.763296 26.393788 1.465929 2.610885 0.059519 -0.015550 326621.000000 0 0 1
0.751260 12.582368 -21.714796 25.108022 1.511160 2.615658 0.058298 -0.010999 234497.000000 0 0 1
-0.153240 11.635468 -22.282696 25.138142 -1.557627 2.660327 0.041854 -0.005851 -52099.400000 0 0 1
-0.738940 10.607768 -21.370096 23.869474 -1.501248 2.679878 0.031751 -0.007040 -781071.000000 0 1 0
-1.698440 11.085068 -20.451996 23.324828 -1.418760 2.640033 0.034176 -0.011864 116398.000000 0 1 0
-2.264140 10.174668 -19.510396 22.120257 -1.351837 2.650917 0.024704 -0.007527 647060.000000 0 1 0
-3.327240 9.194868 -20.109796 22.361128 -1.223597 2.689007 0.028743 -0.003670 -213085.000000 0 1 0
-2.711140 8.247168 -20.948796 22.676378 -1.253189 2.748727 0.021957 0.000454 -146875.000000 0 1 0
-3.611440 7.201668 -21.282296 22.756157 -1.105971 2.779711 0.013460 0.003820 199847.000000 0 1 0
-2.864540 6.030768 -21.976996 22.968764 -1.127358 2.846658 0.016038 -0.009131 354088.000000 0 1 0
-2.146540 5.198168 -21.055196 21.793345 -1.179183 2.880582 0.023015 -0.008894 23917.400000 0 1 0
-1.861940 4.009068 -21.729396 22.174447 -1.136006 2.940904 0.028883 -0.015905 -88927.700000 0 1 0
-0.997240 2.939568 -20.970896 21.199388 -1.243733 2.994639 0.027501 -0.014472 -232764.000000 0 1 0
0.364160 3.270268 -21.008096 21.264228 1.459899 2.986226 0.022732 -0.012276 -694830.000000 0 1 0
1.006160 2.355268 -20.122596 20.284934 1.167068 3.014995 0.020155 -0.011156 718316.000000 0 1 0
2.566660 2.314168 -20.224196 20.517340 0.733713 2.972349 0.014348 -0.014154 807327.000000 0 1 0
3.095560 1.709068 -21.392196 21.682469 0.504457 2.977779 0.027800 -0.015421 -20805.800000 0 1 0
4.507560 1.607468 -21.283796 21.815179 0.342557 2.920423 0.043985 -0.014447 130170.000000 0 1 0
5.136260 0.990368 -22.511896 23.111631 0.190481 2.913284 0.033942 -0.013931 -649553.000000 0 1 0
6.526460 0.898768 -22.487996 23.433148 0.136851 2.856608 0.031874 -0.018636 -599830.000000 0 1 0
7.140660 0.493968 -23.673296 24.731720 0.069067 2.847977 0.035854 -0.016601 941866.000000 0 1 0
8.716760 0.501168 -23.614496 25.176924 0.057432 2.787444 0.048491 -0.022699 1114680.000000 0 0 1
9.181260 1.836368 -23.660496 25.445763 0.197408 2.764775 0.044971 -0.029437 632096.000000 0 0 1
10.601860 2.005168 -23.596396 25.946292 0.186926 2.712713 0.049858 -0.028061 162427.000000 0 0 1
13.669360 -21.131214 22.665052 33.868632 -0.996618 0.837658 0.057227 -0.006260 -1198990.000000 0 0 1
12.590860 -21.926014 22.994952 34.176712 -1.049531 0.832775 0.037934 0.003810 -451406.000000 0 0 1
11.343160 -21.263614 22.811552 33.183964 -1.080745 0.812856 0.042729 -0.004659 391231.000000 0 0 1
10.744460 -20.946214 21.414152 31.823784 -1.096839 0.832677 0.053926 -0.020441 -641444.000000 0 0 1
11.330660 -19.831814 20.768552 30.870981 -1.051719 0.832873 0.056307 -0.019853 -131103.000000 0 0 1
10.790560 -19.661514 19.506052 29.723684 -1.068862 0.854963 0.071168 -0.016471 29038.900000 0 0 1
11.134560 -18.264414 18.934052 28.566862 -1.023325 0.846247 0.075881 -0.022246 -233070.000000 0 0 1
10.393860 -17.228414 19.496752 28.017386 -1.027956 0.801151 0.089430 -0.027044 -210652.000000 0 0 1
10.631460 -15.962314 18.869352 26.904941 -0.983231 0.793529 0.091200 -0.023106 272264.000000 0 0 1
9.540660 -14.928614 19.226352 26.144604 -1.002132 0.744562 0.073986 -0.023640 926203.000000 0 0 1
8.184260 -15.170214 18.867252 25.555640 -1.076054 0.740278 0.061396 -0.026161 249864.000000 0 0 1
7.260360 -14.223314 19.348752 25.087640 -1.098820 0.689999 0.040228 -0.022558 918149.000000 0 0 1
5.822460 -14.515214 18.773952 24.434684 -1.189318 0.694565 0.015237 -0.013736 399297.000000 0 1 0
5.792360 -14.589214 17.368652 23.410824 -1.192853 0.734886 0.012161 -0.008599 -639611.000000 0 1 0
4.513760 -14.799214 16.856652 22.880942 -1.274759 0.742602 0.002446 -0.009505 -292317.000000 0 1 0
3.797560 -16.198814 17.053952 23.825623 -1.340520 0.773053 -0.005027 -0.000959 -81667.400000 0 1 0
2.559960 -16.246014 16.375652 23.208799 -1.414507 0.787556 -0.005372 -0.001565 -191806.000000 0 1 0
1.897360 -17.451214 16.824252 24.314611 -1.462498 0.806624 0.001229 -0.003618 2060170.000000 0 1 0
0.334260 -17.436314 16.452852 23.975678 -1.551628 0.814502 0.015109 -0.000256 1760360.000000 0 1 0
0.107060 -17.592514 15.079052 23.170797 -1.564711 0.862187 0.013180 0.001856 20870.700000 0 1 0
-1.293040 -17.680114 14.855452 23.128832 1.497791 0.873312 0.007504 0.004975 120984.000000 0 1 0
-1.679940 -18.090614 13.419852 22.587274 1.478199 0.934609 0.005960 0.000580 -24314.500000 0 1 0
-3.067940 -18.373414 13.447752 22.974696 1.405346 0.945511 0.004924 0.000416 -83010.000000 0 1 0
-3.449840 -19.424814 12.551052 23.382765 1.395029 1.004198 0.021818 -0.012344 132635.000000 0 1 0
-4.960640 -19.695014 12.297952 23.743234 1.324056 1.026337 0.025146 -0.012859 358134.000000 0 1 0
-5.742140 -19.898514 13.445852 24.692387 1.289857 0.994963 0.027400 -0.019235 -192887.000000 0 1 0
-5.623040 -21.263814 13.780552 25.955192 1.312272 1.011091 -0.000295 -0.002592 -669119.000000 0 0 1
-6.444940 -21.727514 14.969852 27.160976 1.282438 0.987051 0.012356 -0.006711 211895.000000 0 0 1
-7.843840 -21.707314 14.740552 27.386442 1.224050 1.002446 0.030854 -0.004127 -52384.100000 0 0 1
-8.550440 -22.331614 15.748452 28.632582 1.205131 0.988410 0.029277 -0.015723 -379926.000000 0 0 1
-10.058640 -22.089314 15.831652 28.978531 1.143492 0.992828 0.044026 -0.012118 -106732.000000 0 0 1
-10.346840 -20.768414 16.251852 28.328552 1.108589 0.959790 0.028966 -0.008635 -511548.000000 0 0 1
-11.731440 -20.526514 16.254752 28.691139 1.051577 0.968492 0.049147 -0.010332 -179037.000000 0 0 1
-12.132940 -19.259914 17.010652 28.416805 1.008640 0.929029 0.054266 -0.002224 -134894.000000 0 0 1
-12.182740 -19.497214 18.429952 29.465635 1.012308 0.895059 0.049542 -0.003073 -166034.000000 0 0 1
-12.934840 -18.503714 19.077752 29.557709 0.960715 0.869196 0.047671 -0.005575 -3037.320000 0 0 1
-13.450340 -18.964614 20.468252 30.976081 0.953900 0.848944 0.037644 -0.011314 271732.000000 0 0 1
-14.568540 -19.859614 20.422852 31.995930 0.937890 0.878515 0.043541 -0.008930 372598.000000 0 0 1
-14.825940 -20.464214 21.661452 33.283796 0.943828 0.862145 0.040762 -0.000109 -219138.000000 0 0 1
-16.150440 -21.236514 21.655052 34.362298 0.920607 0.888988 0.049650 -0.006514 -818867.000000 0 0 1
-16.136040 -22.352814 20.788852 34.528198 0.945537 0.924689 0.044629 -0.007240 685008.000000 0 0 1
-17.403140 -22.644114 20.179152 34.968892 0.915528 0.955672 0.045542 -0.000176 1387900.000000 0 0 1
-18.511240 -23.261714 21.135452 36.475755 0.898633 0.952757 0.038358 -0.005469 199645.000000 0 0 1
-19.083340 -22.426914 22.121752 36.830861 0.865773 0.926506 0.049966 0.000207 -970.131000 0 0 1
-20.120940 -22.999114 22.882752 38.176326 0.852047 0.928050 0.043520 -0.002679 -147636.000000 0 0 1
-20.736540 -21.974314 23.830772 38.480908 0.814370 0.902961 0.037993 0.009420 -204477.000000 0 0 1
-21.507940 -21.027114 23.107652 37.930128 0.774094 0.915724 0.042127 0.007107 64496.500000 0 0 1
-21.530040 -19.821314 23.864262 37.761490 0.744100 0.886699 0.037171 0.006504 321992.000000 0 0 1
-22.489640 -18.666914 23.369552 37.421566 0.692781 0.896313 0.039997 0.008254 294980.000000 0 0 1
-22.133840 -17.847814 22.254352 36.106891 0.678606 0.906702 0.052662 0.009090 46518.000000 0 0 1
-23.200940 -16.982314 21.870152 36.124593 0.631860 0.920517 0.040346 0.003856 80441.600000 0 0 1
-22.918840 -16.316714 20.542352 34.835279 0.618691 0.940109 0.042194 0.013956 186183.000000 0 0 1
-21.786440 -15.453414 20.564452 33.709846 0.616949 0.914682 0.053964 0.011053 -24106.600000 0 0 1
-21.326540 -15.251614 19.242952 32.522673 0.620820 0.937658 0.047503 0.010500 -529913.000000 0 0 1
-20.170840 -14.278314 19.217752 31.305831 0.615988 0.909841 0.048822 0.000236 -520020.000000 0 0 1
-19.856940 -13.968014 17.866352 30.143159 0.613026 0.936369 0.048927 0.004603 87350.200000 0 0 1
-19.138740 -12.769014 17.576552 28.952967 0.588359 0.918425 0.055502 -0.006129 -459559.000000 0 0 1
-18.688840 -12.879714 16.107752 27.831987 0.603418 0.953602 0.046988 -0.008605 68617.600000 0 0 1
-18.207140 -11.703614 15.465152 26.601607 0.571300 0.950395 0.048932 -0.014765 599147.000000 0 0 1
-16.987140 -11.177514 16.001552 25.875653 0.581978 0.904089 0.059900 -0.022433 41977.200000 0 0 1
-16.442740 -9.949914 15.253352 24.536285 0.544179 0.899930 0.055982 -0.025000 -155069.000000 0 1 0
-17.199940 -8.780314 15.431752 24.719847 0.472001 0.896605 0.065347 -0.027633 13824.500000 0 1 0
-16.725440 -7.683414 14.670652 23.537274 0.430631 0.897848 0.063117 -0.024344 -451592.000000 0 1 0
-16.949640 -6.364614 15.447952 23.799955 0.359210 0.864429 0.067079 -0.023272 695496.000000 0 1 0
-16.133540 -6.123114 16.612952 23.953577 0.362734 0.804394 0.065146 -0.017351 -173566.000000 0 1 0
-14.750040 -6.072614 16.511952 22.958330 0.390553 0.768126 0.058004 -0.019147 -734099.000000 0 1 0
-13.859640 -6.142914 17.792652 23.375275 0.417204 0.705675 0.046766 -0.010921 283362.000000 0 1 0
-13.837540 -7.307414 18.575352 24.288259 0.485863 0.700085 0.040138 -0.017168 -83732.400000 0 1 0
-13.424240 -8.490714 17.861252 23.902443 0.563968 0.726873 0.054606 -0.017837 -449741.000000 0 1 0
-13.387140 -9.816214 18.687652 24.996038 0.632699 0.726318 0.041772 -0.014403 1043680.000000 0 1 0
-14.602140 -10.319714 19.305052 26.313572 0.615226 0.747113 0.047950 -0.015433 608807.000000 0 0 1
-15.289240 -9.485014 20.226652 27.071088 0.555264 0.727005 0.034658 -0.011795 -792437.000000 0 0 1
-16.722740 -10.058114 20.479152 28.288008 0.541495 0.761283 0.039131 -0.009714 625765.000000 0 0 1
-17.632740 -9.930914 19.397852 28.032361 0.512928 0.806567 0.051892 -0.006239 119510.000000 0 0 1
-17.926540 -8.595714 19.012352 27.508484 0.447111 0.807724 0.041171 -0.010360 -146620.000000 0 0 1
-19.109140 -8.479914 17.942052 27.549690 0.417654 0.861551 0.055144 -0.025449 1169470.000000 0 0 1
-20.403140 -8.861314 18.383352 28.857558 0.409731 0.880147 0.045245 -0.020106 192891.000000 0 0 1
-21.298240 -8.884714 17.297452 28.840164 0.395209 0.927583 0.060662 -0.026640 -572503.000000 0 0 1
-22.753540 -9.167714 17.621752 30.204250 0.383016 0.947864 0.049863 -0.018252 -443719.000000 0 0 1
-23.398140 -8.146414 18.391652 30.855954 0.335039 0.932225 0.053413 -0.015706 855157.000000 0 0 1
-24.784940 -8.441814 18.578352 32.104714 0.328279 0.953687 0.063069 -0.008421 290641.000000 0 0 1
-25.442900 -7.414014 19.499052 32.901699 0.283547 0.936457 0.074227 -0.010326 -254984.000000 0 0 1
-25.148970 -7.466414 20.932552 33.561731 0.288599 0.897325 0.072508 -0.016550 322418.000000 0 0 1
-26.000200 -6.534814 21.566652 34.406899 0.246237 0.893342 0.067550 -0.016437 -609493.000000 0 0 1
-25.766620 -6.385214 23.109752 35.195885 0.242916 0.854489 0.071749 -0.018180 1444990.000000 0 0 1
-24.493240 -5.805814 23.552852 34.472644 0.232742 0.818615 0.042092 -0.019500 999676.000000 0 0 1
-23.440140 -6.721814 23.428552 33.815973 0.279271 0.805397 0.054936 -0.017060 -237614.000000 0 0 1
-22.361140 -6.543814 24.595912 33.879212 0.284693 0.758326 0.057097 -0.013480 553267.000000 0 0 1
-21.769240 -5.268714 24.503092 33.197300 0.237459 0.740539 0.057423 -0.011486 -54886.100000 0 0 1
-20.888440 -5.042614 25.560092 33.392712 0.236875 0.699073 0.047899 -0.014842 -138776.000000 0 0 1
-20.485540 -3.546414 25.674572 33.036617 0.171419 0.680664 0.047693 -0.022434 653122.000000 0 0 1
-19.426840 -3.098114 26.567512 33.058027 0.158144 0.637371 0.045675 -0.016041 555707.000000 0 0 1
-19.689040 -3.214714 27.991582 34.373265 0.161846 0.619202 0.050362 -0.024882 69205.200000 0 0 1
-20.739440 -2.149014 28.457012 35.278098 0.103251 0.632338 0.054519 -0.031805 -449683.000000 0 0 1
-21.971240 -2.313914 27.889872 35.579974 0.104929 0.669931 0.054601 -0.035419 -1394390.000000 0 0 1
-22.960240 -1.456314 28.397292 36.547226 0.063343 0.680906 0.067717 -0.032070 647769.000000 0 0 1
-24.246340 -1.193314 27.557002 36.724616 0.049177 0.722177 0.057848 -0.032509 -174065.000000 0 0 1
-24.067540 -0.377614 26.408832 35.732555 0.015688 0.739109 0.057977 -0.036648 347766.000000 0 0 1
-25.239960 0.181786 25.783582 36.081599 -0.007202 0.774757 0.066592 -0.026482 1086610.000000 0 0 1
-26.325020 -0.824814 25.165502 36.427867 0.031322 0.808158 0.061895 -0.019285 422780.000000 0 0 1
-27.235650 -1.316114 26.138892 37.772404 0.048286 0.806526 0.061069 -0.017400 128678.000000 0 0 1
-27.768860 -2.607614 25.929322 38.082004 0.093630 0.821831 0.062565 -0.029258 -93922.100000 0 0 1
-26.763480 -3.779414 25.793252 37.361206 0.140288 0.808789 0.056395 -0.027695 159683.000000 0 0 1
-26.165550 -4.142414 27.011712 37.834220 0.157012 0.775674 0.053080 -0.031311 -82688.500000 0 0 1
-25.304800 -5.266914 26.897022 37.303125 0.205209 0.765495 0.041229 -0.030068 247974.000000 0 0 1
-24.845040 -5.892914 28.196532 38.040070 0.232883 0.735892 0.033173 -0.016209 121185.000000 0 0 1
-25.916320 -6.527414 28.864612 39.337370 0.246733 0.746941 0.048501 -0.015621 64702.400000 0 0 1
-25.475330 -7.026914 30.126012 40.074264 0.269140 0.720078 0.043720 -0.016240 -903691.000000 0 0 1
-26.498020 -7.666214 31.035352 41.522392 0.281623 0.726601 0.031336 -0.010754 -538398.000000 0 0 1
-27.216710 -8.753714 30.457462 41.773602 0.311181 0.753779 0.029331 -0.011486 -430271.000000 0 0 1
-28.109280 -9.318614 31.290202 43.081840 0.320112 0.757877 0.023281 -0.001715 -705107.000000 0 0 1
-29.280060 -10.161214 30.712752 43.633077 0.334031 0.789941 0.017201 -0.013093 196238.000000 0 0 1
-28.915600 -11.446114 30.119592 43.293363 0.376920 0.801390 0.020613 -0.015778 47639.700000 0 0 1
-29.980130 -12.015114 29.398652 43.674385 0.381169 0.832360 0.027925 -0.008940 -143455.000000 0 0 1
-29.517570 -13.120014 28.447812 43.042999 0.418255 0.848757 0.030932 -0.010705 -352406.000000 0 0 1
-28.669220 -12.583114 27.497022 41.669476 0.413591 0.850132 0.036737 -0.009056 -338316.000000 0 0 1
-27.742580 -13.517514 26.983272 40.993548 0.453394 0.852328 0.037298 -0.011593 -411485.000000 0 0 1
-26.441960 -12.883214 26.526322 39.608083 0.453376 0.836965 0.037085 -0.012214 -680397.000000 0 0 1
-25.582740 -12.161214 27.421142 39.424495 0.443748 0.801631 0.029255 -0.010721 184212.000000 0 0 1
-26.005650 -10.950514 28.123312 39.838779 0.398547 0.787064 0.034273 -0.011786 -659077.000000 0 0 1
-26.023620 -9.690114 27.192652 38.866019 0.356453 0.795887 0.036243 -0.010724 1498910.000000 0 0 1
-24.690740 -9.276314 26.733792 37.555004 0.359384 0.778658 0.027768 -0.012324 1577280.000000 0 0 1
-24.122340 -9.976014 25.592912 36.556878 0.392140 0.795280 0.024578 -0.012852 -37124.500000 0 0 1
-24.844340 -9.861114 24.228082 36.076070 0.377845 0.834453 0.046814 -0.010574 -93792.500000 0 0 1
-26.009910 -10.684614 24.194152 37.094925 0.389773 0.860283 0.049584 -0.012356 34572.500000 0 0 1
-26.637040 -10.541514 22.937152 36.698343 0.376834 0.895641 0.058292 -0.009530 -451378.000000 0 0 1
-27.914280 -11.389414 22.831852 37.818240 0.387396 0.922630 0.066306 -0.017152 1088760.000000 0 0 1
-29.160540 -10.994614 23.467662 39.012175 0.360556 0.925360 0.058273 -0.019667 1262860.000000 0 0 1
-29.114950 -10.985814 24.878852 39.841257 0.360808 0.896370 0.051201 -0.020528 296089.000000 0 0 1
-30.612550 -10.784814 25.346952 41.181409 0.338723 0.907782 0.031733 -0.012760 748025.000000 0 0 1
-30.988010 -9.448214 25.172822 41.026778 0.295945 0.910222 0.040450 -0.020822 1067580.000000 0 0 1
-32.428130 -9.281314 25.311482 42.171051 0.278760 0.927033 0.034230 -0.013627 1214620.000000 0 0 1
-33.068390 -9.197214 26.705062 43.488706 0.271271 0.909591 0.022472 -0.013820 -1050180.000000 0 0 1
-33.354630 -10.445714 27.237852 44.311905 0.303496 0.908810 0.021156 -0.024177 -52743.000000 0 0 1
-33.830880 -10.270314 28.522612 45.426284 0.294736 0.891960 0.025485 -0.021490 -631482.000000 0 0 1
-34.122067 -11.653714 29.293152 46.456574 0.329109 0.888536 0.042215 -0.011402 394633.000000 0 0 1
-35.325084 -12.284814 28.898042 47.263888 0.334682 0.912944 0.023997 -0.004324 -429110.000000 0 0 1
35.528963 -11.832714 29.459582 47.646483 -0.321490 0.904225 0.036277 0.002318 -185202.000000 0 0 1
34.239653 -12.407514 28.761252 46.405925 -0.347654 0.902340 0.032010 -0.005837 713329.000000 0 0 1
33.946173 -11.882414 27.486792 45.266524 -0.336708 0.918238 0.024884 -0.001109 -541493.000000 0 0 1
32.869653 -12.485814 26.855992 44.244253 -0.363023 0.918524 0.030234 0.006606 -568537.000000 0 0 1
32.820023 -12.106814 25.351302 43.202053 -0.353399 0.943685 0.017991 -0.000948 52659.700000 0 0 1
32.351503 -10.797014 25.107932 42.350957 -0.322117 0.936198 0.030131 -0.017758 45337.600000 0 0 1
32.605293 -10.470314 23.763672 41.682667 -0.310721 0.964158 0.016372 -0.013974 -388158.000000 0 0 1
32.134403 -9.061014 23.352152 40.743648 -0.274837 0.960454 0.036764 0.009583 -776478.000000 0 0 1
30.760253 -8.889214 23.361052 39.635212 -0.281320 0.940479 0.044803 -0.002380 -1021810.000000 0 0 1
30.378523 -7.543614 23.117252 38.912313 -0.243397 0.934668 0.055971 0.004454 -767253.000000 0 0 1
28.878763 -7.330514 23.096652 37.698471 -0.248587 0.911364 0.063092 0.011138 -657530.000000 0 0 1
28.393123 -8.040214 21.962552 36.785434 -0.275950 0.930984 0.055449 0.014518 -822466.000000 0 0 1
27.007953 -7.977414 21.853252 35.645944 -0.287206 0.910863 0.064439 -0.009404 -763109.000000 0 0 1
14.477060 -16.787814 26.897612 34.855380 -0.859173 0.689299 0.029649 -0.014225 -138998.000000 0 0 1
13.978260 -18.100714 26.616672 35.092376 -0.913207 0.709827 0.028680 -0.011119 293916.000000 0 0 1
15.010960 -19.044314 26.402492 35.848381 -0.903285 0.742908 0.023642 0.001390 -453086.000000 0 0 1
14.553060 -20.558914 26.349192 36.451892 -0.954807 0.762881 0.017854 -0.002959 -195447.000000 0 0 1
13.962160 -21.088514 27.477002 37.345053 -0.985980 0.744008 0.009624 0.001949 779247.000000 0 0 1
12.590160 -20.686814 27.664112 36.766282 -1.024071 0.719050 0.024741 -0.006623 167786.000000 0 0 1
11.984860 -21.274114 28.919252 37.849015 -1.057758 0.701200 0.024461 -0.006134 -277366.000000 0 0 1
12.337960 -20.687814 30.182402 38.615908 -1.033037 0.673561 0.029537 -0.006361 300195.000000 0 0 1
11.443160 -19.682714 30.714762 38.232862 -1.044180 0.637880 0.042729 -0.007755 397627.000000 0 0 1
11.442260 -18.317814 29.974772 36.945292 -1.012447 0.624375 0.052420 -0.011067 1132340.000000 0 0 1
12.523960 -17.450314 30.432402 37.249082 -0.948295 0.614612 0.039704 -0.001534 623789.000000 0 0 1
12.343060 -16.213714 29.866932 36.156179 -0.920120 0.598728 0.033186 0.000826 260089.000000 0 0 1
13.309560 -15.172514 30.459392 36.539351 -0.850713 0.585194 0.033101 -0.005147 294940.000000 0 0 1
12.905760 -13.904414 29.958842 35.460169 -0.822630 0.564495 0.049725 -0.003881 310947.000000 0 0 1
13.650060 -12.830314 30.574102 35.856894 -0.754451 0.549721 0.044563 0.002670 333493.000000 0 0 1
13.151760 -11.355614 30.262142 34.895788 -0.712239 0.521215 0.038989 0.007530 -103442.000000 0 0 1
13.325360 -11.008114 28.892212 33.667547 -0.690456 0.539117 0.060428 0.003773 602991.000000 0 0 1
14.629060 -10.630214 28.406372 33.673919 -0.628389 0.566896 0.047670 0.002718 330560.000000 0 0 1
14.605960 -9.675414 27.252762 32.398468 -0.585063 0.571345 0.040850 0.002591 76484.000000 0 0 1
14.731960 -8.238014 27.455392 32.228777 -0.509874 0.551212 0.033391 0.002629 347575.000000 0 0 1
16.075360 -7.910014 27.790572 33.065109 -0.457274 0.572627 0.036672 -0.004728 -66899.900000 0 0 1
16.478160 -6.454014 27.645472 32.824628 -0.373305 0.569413 0.035692 -0.004234 187274.000000 0 0 1
17.875860 -6.207814 27.574042 33.442654 -0.334244 0.601448 0.036866 -0.011060 289233.000000 0 0 1
18.261960 -4.886014 27.238412 33.155745 -0.261428 0.606708 0.045697 -0.015301 930858.000000 0 0 1
19.815160 -4.806214 26.975502 33.814464 -0.237957 0.647241 0.045603 -0.015570 275270.000000 0 0 1
20.203160 -5.696514 25.911692 33.347170 -0.274827 0.680865 0.051323 -0.010208 605339.000000 0 0 1
21.576560 -5.632614 25.532902 33.899902 -0.255354 0.717906 0.055607 -0.014306 1262130.000000 0 0 1
22.688760 -6.018814 26.607782 35.482108 -0.259305 0.722896 0.051374 -0.019368 -95721.600000 0 0 1
23.123560 -4.816014 27.277602 36.082691 -0.205338 0.713654 0.056341 -0.026850 118142.000000 0 0 1
23.865360 -5.160814 28.453002 37.493503 -0.212968 0.709208 0.057585 -0.032871 -210837.000000 0 0 1
24.567260 -3.951314 29.040132 38.242547 -0.159471 0.708456 0.063090 -0.037964 59675.300000 0 0 1
25.602860 -3.449914 28.182752 38.231870 -0.133940 0.741948 0.056441 -0.024926 331358.000000 0 0 1
25.751060 -2.046214 28.373162 38.371088 -0.079295 0.738556 0.045153 -0.031793 -669856.000000 0 0 1
26.716260 -1.299914 27.449602 38.326609 -0.048618 0.772451 0.051969 -0.029057 -227960.000000 0 0 1
28.068860 -1.589014 27.676452 39.450879 -0.056551 0.793237 0.059483 -0.031076 -38624.500000 0 0 1
28.982460 -0.844314 26.851712 39.518480 -0.029124 0.823753 0.053659 -0.008818 -436393.000000 0 0 1
30.397160 -0.925614 27.347942 40.899316 -0.030441 0.838384 0.048121 -0.013635 -1259880.000000 0 0 1
30.633660 -0.146914 28.481502 41.828682 -0.004796 0.821794 0.042189 -0.009651 -37599.900000 0 0 1
32.012560 -0.174314 28.782842 43.049813 -0.005445 0.838480 0.045625 -0.014776 33856.500000 0 0 1
32.379360 0.944986 29.762202 43.989824 0.029177 0.827701 0.039556 -0.010023 -47456.800000 0 0 1
32.269160 2.240386 29.218602 43.589502 0.069317 0.836166 0.026768 0.002522 -98281.800000 0 0 1
32.717860 3.185986 30.126102 44.589134 0.097072 0.828967 0.028949 -0.000694 -32467.600000 0 0 1
32.696560 4.591886 29.421532 44.224167 0.139527 0.842925 0.022473 0.003210 23783.100000 0 0 1
32.830060 5.724986 30.222782 44.988941 0.172646 0.834184 0.027998 0.010144 310647.000000 0 0 1
31.568760 6.142586 30.732612 44.483833 0.192177 0.808103 0.028750 0.008684 140143.000000 0 0 1
31.649860 7.187686 31.833482 45.461490 0.223312 0.795077 0.024929 0.007258 -134021.000000 0 0 1
32.018560 6.603986 33.036943 46.478387 0.203403 0.780158 0.026875 0.011729 44045.400000 0 0 1
31.957160 7.614586 33.988437 47.270031 0.233913 0.768395 0.034193 0.012023 -53612.600000 0 0 1
32.170860 7.034486 -33.044796 46.651975 0.215272 2.357920 0.040457 0.012437 -132056.000000 0 0 1
31.171060 6.124986 -32.612346 45.527086 0.194024 2.369322 0.035454 0.007962 -118653.000000 0 0 1
31.235460 4.776086 -33.107246 45.766305 0.151731 2.379507 0.038810 0.006478 -84703.300000 0 0 1
32.078060 3.829086 -32.220396 45.626941 0.118806 2.354871 0.040696 0.000466 37873.300000 0 0 1
32.171060 2.508286 -32.727106 45.960114 0.077810 2.363247 0.044601 -0.010190 264605.000000 0 0 1
32.709960 1.735786 -31.644536 45.544825 0.053016 2.338938 0.045309 -0.010852 62395.200000 0 0 1
32.736260 0.178786 -31.795176 45.635818 0.005461 2.341605 0.054600 -0.021003 -52374.700000 0 0 1
33.780560 -0.225014 -32.676956 46.999578 -0.006661 2.339579 0.063705 -0.016331 195529.000000 0 0 1
34.144760 -1.605714 -32.596186 47.232979 -0.046992 2.332444 0.056344 -0.020110 532963.000000 0 0 1
34.994760 -2.136114 -31.383106 47.054177 -0.060965 2.300913 0.059353 -0.017339 -173832.000000 0 0 1
34.354260 -1.868614 -30.161046 45.753640 -0.054339 2.290558 0.055456 -0.023841 -260757.000000 0 0 1
35.084060 -2.002414 -28.979336 45.548906 -0.057013 2.260391 0.053812 -0.022812 -249724.000000 0 0 1
34.089060 -1.630414 -27.869706 44.061806 -0.047792 2.255591 0.060554 -0.024101 -68240.100000 0 0 1
33.711060 -0.303714 -27.856906 43.732540 -0.009009 2.261375 0.037489 -0.014254 520893.000000 0 0 1
32.737560 -0.141114 -26.809046 42.314214 -0.004310 2.256956 0.034241 -0.011179 206816.000000 0 0 1
32.149760 1.269886 -26.603526 41.748859 0.039479 2.261692 0.019971 -0.005396 -228174.000000 0 0 1
31.329660 1.531486 -27.700326 41.847355 0.048844 2.294197 0.029524 -0.012693 -288034.000000 0 0 1
30.596360 2.690986 -27.552146 41.261355 0.087725 2.301974 0.010056 -0.004226 27039.500000 0 0 1
29.828160 3.238786 -28.829266 41.609319 0.108158 2.336239 0.024776 -0.007976 -29305.400000 0 0 1
28.919460 4.214786 -28.438696 40.778168 0.144723 2.342560 0.012951 -0.000835 -115190.000000 0 0 1
28.191760 4.696486 -29.551956 41.111439 0.165075 2.372908 -0.001759 0.002800 -611294.000000 0 0 1
27.034160 5.602686 -29.190726 40.178780 0.204352 2.384042 -0.010967 0.005848 -349765.000000 0 0 1
26.013560 4.889286 -28.498226 38.894207 0.185784 2.393094 -0.002120 0.006627 139105.000000 0 0 1
25.116560 5.690986 -27.795466 37.892174 0.222821 2.394314 -0.003186 0.002822 -529985.000000 0 0 1
23.786560 5.025786 -27.437566 36.658955 0.208224 2.416525 0.010926 0.009098 -354234.000000 0 0 1
22.942260 4.866286 -28.575856 36.967656 0.209012 2.454347 0.032402 0.005888 -515226.000000 0 0 1
21.752660 4.270486 -28.206966 35.875454 0.193855 2.475508 0.040501 0.002753 -572486.000000 0 0 1
20.823360 3.958186 -29.413386 36.255025 0.187843 2.517154 0.030684 0.008517 1131.040000 0 0 1
21.286160 2.815786 -30.112306 36.983513 0.131519 2.522162 0.024305 0.003623 145450.000000 0 0 1
20.604860 2.536886 -31.337026 37.589962 0.122504 2.556488 0.024428 -0.002730 61996.400000 0 0 1
20.961460 3.383086 -32.638186 38.936863 0.160016 2.564832 0.031567 -0.000383 735104.000000 0 0 1
22.168160 2.999186 -33.321646 40.134207 0.134476 2.550362 0.017062 -0.001302 382314.000000 0 0 1
22.163760 3.464886 33.858622 40.615809 0.155076 0.585146 0.040371 -0.014114 -443136.000000 0 0 1
23.460860 3.160886 33.124071 40.713723 0.133924 0.620505 0.049268 -0.011179 -398884.000000 0 0 1
23.648760 1.835386 32.752541 40.439602 0.077455 0.626793 0.053560 -0.020559 -125891.000000 0 0 1
25.000960 1.560686 32.466110 41.006488 0.062344 0.657159 0.044217 -0.025964 -406948.000000 0 0 1
25.337960 0.084886 32.264642 41.024707 0.003350 0.665726 0.038858 -0.036999 -442704.000000 0 0 1
24.817060 -0.692314 31.182022 39.858302 -0.027889 0.672411 0.042205 -0.037897 319631.000000 0 0 1
23.421560 -0.870414 31.044422 38.898371 -0.037146 0.646677 0.058076 -0.039700 120332.000000 0 0 1
22.614960 -1.731714 32.051682 39.265068 -0.076425 0.615837 0.056795 -0.041363 -296645.000000 0 0 1
22.853260 -3.117014 31.872092 39.342312 -0.135556 0.626435 0.061762 -0.048090 346022.000000 0 0 1
22.012260 -3.868214 32.739076 39.640254 -0.173954 0.598991 0.072002 -0.040734 -40107.700000 0 0 1
21.998060 -5.344014 32.349342 39.483580 -0.238315 0.610588 0.073454 -0.037930 1445050.000000 0 0 1
23.296760 -6.001814 32.516724 40.448710 -0.252142 0.636972 0.063226 -0.028061 1368290.000000 0 0 1
23.159260 -7.354214 32.167412 40.313499 -0.307479 0.646941 0.068072 -0.029410 -656519.000000 0 0 1
24.481460 -8.050314 31.890032 41.001507 -0.317695 0.679675 0.055172 -0.025350 -495012.000000 0 0 1
24.966460 -7.565114 30.664032 40.259632 -0.294217 0.704930 0.065170 -0.023568 -119384.000000 0 0 1
26.177460 -8.167214 30.246322 40.826496 -0.302424 0.736461 0.058237 -0.010792 178891.000000 0 0 1
26.639560 -7.858114 28.823982 40.027966 -0.286844 0.766856 0.061467 -0.016429 -109340.000000 0 0 1
25.748960 -8.413414 27.900502 38.887434 -0.315812 0.770635 0.050134 -0.013505 -70852.200000 0 0 1
26.148760 -8.067414 26.574332 38.144933 -0.299255 0.800055 0.063138 -0.009845 140762.000000 0 0 1
25.469160 -8.909914 25.443142 37.086630 -0.336525 0.814756 0.043691 -0.003436 258303.000000 0 0 1
24.144760 -8.497614 25.149422 35.884151 -0.338406 0.794207 0.040881 -0.002885 -65209.300000 0 0 1
23.586260 -9.390114 24.217432 35.085181 -0.378883 0.808966 0.051974 -0.011103 -976947.000000 0 0 1
22.152960 -9.067014 23.895672 33.822589 -0.388490 0.786255 0.038645 -0.011373 -1341270.000000 0 0 1
21.211460 -9.455714 24.825252 33.994554 -0.419342 0.752077 0.031688 -0.004677 -1238100.000000 0 0 1
19.986460 -8.887914 24.522402 32.860338 -0.418435 0.728368 0.031280 0.001293 -284303.000000 0 0 1
18.952260 -8.920714 25.696022 33.151966 -0.439929 0.683926 0.023121 0.002168 165124.000000 0 0 1
18.428360 -10.182214 26.097422 33.531439 -0.504783 0.678847 0.030200 0.001721 529521.000000 0 0 1
19.288260 -10.896114 26.962762 34.896315 -0.514218 0.687786 0.023906 -0.002515 -88699.100000 0 0 1
18.338560 -11.732414 27.822692 35.327815 -0.569148 0.663961 0.022734 -0.000504 208682.000000 0 0 1
17.729060 -12.742914 27.029512 34.746165 -0.623205 0.679458 0.027842 -0.001354 -18794.000000 0 0 1
16.882360 -13.616914 27.724292 35.200438 -0.678738 0.663872 0.019600 -0.001473 -776415.000000 0 0 1
17.509560 -14.781514 28.421212 36.508124 -0.701115 0.678540 0.021103 0.000323 -75917.000000 0 0 1
16.633660 -15.554214 29.294832 37.105248 -0.751875 0.660792 0.012984 -0.000955 698320.000000 0 0 1
17.348460 -16.619214 29.897002 38.353593 -0.763933 0.676913 0.021514 -0.004426 -113222.000000 0 0 1
17.864360 -17.792614 29.034972 38.454416 -0.783386 0.715067 0.019125 -0.001743 258431.000000 0 0 1
18.989760 -17.561214 28.187962 38.256613 -0.746334 0.742452 0.026331 0.000026 404948.000000 0 0 1
19.298260 -18.642214 27.337922 38.305574 -0.768108 0.776058 0.024618 0.002296 -261492.000000 0 0 1
20.363360 -18.130414 26.369472 37.930560 -0.727455 0.802093 0.026748 -0.004517 68968.100000 0 0 1
21.694460 -18.167514 26.885242 39.032351 -0.697149 0.810972 0.037244 0.002799 428485.000000 0 0 1
22.534360 -17.628714 25.844982 38.555571 -0.663857 0.836142 0.041694 0.003714 247054.000000 0 0 1
23.978160 -17.406614 26.354882 39.655040 -0.627922 0.843833 0.045152 0.002116 211522.000000 0 0 1
24.648860 -18.636514 26.660342 40.812496 -0.647381 0.858941 0.046655 -0.002230 966972.000000 0 0 1
26.075160 -18.454914 26.725002 41.650013 -0.615914 0.874140 0.029945 -0.000651 824437.000000 0 0 1
26.832460 -19.791414 26.828142 42.795212 -0.635513 0.893234 0.017035 0.003799 -227558.000000 0 0 1
26.690560 -20.430714 28.043332 43.774748 -0.653326 0.875480 0.019321 0.009790 15087.900000 0 0 1
27.396160 -21.656614 28.141122 44.849540 -0.668920 0.892514 0.014988 0.005705 -191586.000000 0 0 1
26.703560 -22.747714 28.955142 45.485590 -0.705573 0.880743 0.022603 0.001755 -121294.000000 0 0 1
26.496060 -22.305514 30.312102 46.026087 -0.699739 0.851859 0.026998 -0.002885 -44175.500000 0 0 1
25.935260 -23.398914 31.044292 46.732162 -0.734032 0.844236 0.051404 -0.009241 4500.720000 0 0 1
25.419660 -23.067014 32.438082 47.227909 -0.736915 0.813662 0.041804 -0.008035 52864.100000 0 0 1
24.924860 -24.255014 33.022155 47.958493 -0.771779 0.811299 0.043436 -0.012743 -125261.000000 0 0 1
24.868360 -24.171314 -34.061216 48.609199 -0.771185 2.347196 0.051507 -0.014201 -676290.000000 0 0 1
24.532860 -25.511354 -33.394916 48.661184 -0.804948 2.327150 0.042663 -0.014640 721668.000000 0 0 1
23.191960 -26.013394 -33.463706 48.315456 -0.842675 2.335896 0.036900 -0.013094 111823.000000 0 0 1
22.755260 -26.310564 33.727255 48.451784 -0.857732 0.800846 0.033257 -0.018273 -505957.000000 0 0 1
21.497160 -27.190844 33.653154 48.311538 -0.901812 0.800168 0.038789 -0.017903 -12632.200000 0 0 1
21.604260 -28.511554 34.216808 49.501947 -0.922362 0.807618 0.033039 -0.012472 -18687.600000 0 0 1
20.388160 -29.225094 34.146785 49.353684 -0.961666 0.806708 0.045357 -0.011938 16458.500000 0 0 1
20.698760 -30.774034 34.176094 50.432978 -0.978694 0.826229 0.030565 -0.013397 -73787.300000 0 0 1
21.246260 -31.144244 -33.076356 50.153892 -0.972124 2.290946 0.020985 -0.015832 420255.000000 0 0 1
22.048760 -32.321384 -33.232256 51.334224 -0.972136 2.274926 -0.008725 0.000028 -197844.000000 0 0 1
22.572060 -32.710534 -31.894646 50.958271 -0.966776 2.247078 -0.003902 0.001510 -455223.000000 0 0 1
23.457160 -33.884874 -32.026006 52.192798 -0.965284 2.231420 -0.012750 0.003407 873798.000000 0 0 1
24.090060 -34.318855 -30.862636 52.063587 -0.958764 2.205312 -0.002080 0.007480 184055.000000 0 0 1
25.183060 -33.317024 -30.374216 51.641104 -0.923554 2.199602 0.003732 0.007991 -886551.000000 0 0 1
25.819660 -33.806264 -29.234096 51.615412 -0.918551 2.172907 0.017374 0.011263 -506942.000000 0 0 1
26.446860 -32.719294 -28.622516 50.884546 -0.891018 2.168202 0.019612 0.008245 -270434.000000 0 0 1
27.060360 -33.023844 -27.250716 50.650162 -0.884326 2.138881 0.015430 0.005436 -294973.000000 0 0 1
28.076260 -33.944224 -27.375836 51.864469 -0.879731 2.126845 0.019480 0.011237 -453443.000000 0 0 1
29.084960 -33.877024 -26.375006 51.857773 -0.861362 2.104358 0.022721 0.008600 434680.000000 0 0 1
-26.408780 -30.882997 9.656804 41.766458 0.863335 1.337476 0.043556 -0.017502 -372947.000000 0 0 1
-25.990130 -32.182297 9.444004 42.430842 0.891444 1.346342 0.041815 -0.017213 -488634.000000 0 0 1
-24.821840 -32.477597 10.143404 42.116585 0.918221 1.327564 0.032342 -0.013335 -374210.000000 0 0 1
-24.917040 -33.601197 11.145604 43.291152 0.932724 1.310407 0.018145 -0.007349 -136914.000000 0 0 1
-24.863140 33.853486 10.594604 43.318355 -0.937332 1.323715 0.025239 0.003235 -102724.000000 0 0 1
-25.141810 32.852286 11.517904 42.942350 -0.917576 1.299254 0.022697 0.009510 -84401.700000 0 0 1
-25.229860 31.440586 10.849104 41.746369 -0.894556 1.307897 0.016348 0.003186 818284.000000 0 0 1
-26.434000 31.343586 10.052504 42.216461 -0.870168 1.330369 0.028349 -0.000329 665235.000000 0 0 1
-26.550420 30.211086 9.184104 41.255088 -0.849801 1.346298 0.037591 -0.007510 103191.000000 0 0 1
-25.627470 30.058886 7.899604 40.282845 -0.864809 1.373414 0.027849 0.001885 -299228.000000 0 0 1
-24.291340 29.852686 8.230204 39.357189 -0.887753 1.360126 0.023825 0.003517 -574447.000000 0 0 1
-23.514140 29.942686 7.051904 38.719615 -0.905080 1.387647 0.008315 0.004538 210915.000000 0 0 1
-22.212440 29.077686 7.067204 37.267274 -0.918458 1.380005 0.042793 0.005729 115944.000000 0 0 1
-22.271940 27.650186 7.002304 36.188456 -0.892717 1.376073 0.034967 0.000934 -29601.500000 0 0 1
-22.869240 27.031886 5.894904 35.895332 -0.868623 1.405824 0.038795 -0.004494 -436547.000000 0 0 1
-23.150240 25.530486 6.101804 34.999591 -0.834254 1.395562 0.038619 -0.004511 -417447.000000 0 0 1
-24.242040 25.283086 6.955804 35.711261 -0.806416 1.374764 0.048726 -0.009965 218084.000000 0 0 1
-24.509740 23.928386 7.281404 35.018764 -0.773397 1.361340 0.051659 -0.019965 -146229.000000 0 0 1
-25.116200 22.949086 6.234804 34.588392 -0.740342 1.389548 0.047044 -0.031474 -175144.000000 0 0 1
-26.480650 23.105286 5.886504 35.633271 -0.717432 1.404839 0.048336 -0.030169 319634.000000 0 0 1
-26.786890 22.496686 4.599604 35.281649 -0.698566 1.440056 0.054390 -0.028889 96483.400000 0 0 1
-26.623450 23.483486 3.447304 35.667438 -0.722815 1.473994 0.047078 -0.027221 888771.000000 0 0 1
-25.236670 23.847986 3.261604 34.874834 -0.757114 1.477136 0.045206 -0.027085 1249360.000000 0 0 1
-25.036130 24.604986 2.100904 35.165707 -0.776713 1.511018 0.050942 -0.025251 119487.000000 0 0 1
-23.739640 25.442886 2.200004 34.867621 -0.820015 1.507658 0.053925 -0.019933 260856.000000 0 0 1
-23.265340 25.972786 0.959604 34.882410 -0.840330 1.543283 0.040066 -0.023774 531853.000000 0 0 1
-21.965040 26.565786 1.057904 34.486565 -0.879916 1.540116 0.034556 -0.022956 97938.200000 0 0 1
-21.348640 27.009086 -0.263896 34.428546 -0.901922 1.578461 0.031973 -0.024974 -97707.500000 0 0 1
-21.077140 26.075686 -1.288096 33.553635 -0.891011 1.609195 0.035046 -0.023713 169070.000000 0 0 1
-19.976140 25.209486 -1.058096 32.182044 -0.900703 1.603681 0.040777 -0.028466 -19004.600000 0 0 1
-19.457940 24.441386 -2.272196 31.323404 -0.898434 1.643400 0.040610 -0.030265 19506.300000 0 0 1
-20.464340 23.544586 -2.695996 31.311422 -0.855276 1.657006 0.039096 -0.031374 308481.000000 0 0 1
-19.958040 22.694286 -3.658496 30.442381 -0.849463 1.691265 0.041716 -0.031266 533675.000000 0 0 1
-21.191540 22.115686 -4.424696 30.947744 -0.806734 1.714261 0.040253 -0.023305 939900.000000 0 0 1
-21.943740 22.919886 -5.327596 32.175024 -0.807153 1.737144 0.045298 -0.014828 387944.000000 0 0 1
-23.206940 22.327286 -5.564796 32.680831 -0.766082 1.741907 0.057286 -0.018499 348393.000000 0 0 1
-23.908840 22.639786 -6.907796 33.643873 -0.758142 1.777588 0.042974 -0.007541 -662985.000000 0 0 1
-23.242040 22.054686 -7.973796 33.017920 -0.759191 1.814707 0.043564 -0.010590 -167388.000000 0 0 1
-22.304540 22.868186 -8.629996 33.089625 -0.797875 1.834654 0.043270 -0.018395 -52972.500000 0 0 1
-21.525240 22.120686 -9.756096 32.370390 -0.799040 1.876946 0.044225 -0.027908 127994.000000 0 0 1
-22.319540 21.716986 -10.857096 32.979780 -0.771716 1.906257 0.034739 -0.019375 454039.000000 0 0 1
-21.439640 21.240486 -11.864296 32.428043 -0.780732 1.945359 0.032689 -0.010217 352789.000000 0 0 1
-22.133240 21.082386 -13.250796 33.315626 -0.761086 1.979843 0.031390 -0.007390 48992.900000 0 0 1
-23.119140 20.073186 -13.284396 33.375180 -0.714994 1.980167 0.022135 -0.008548 367421.000000 0 0 1
-23.943240 20.247886 -14.450696 34.526486 -0.701970 2.002633 0.027098 -0.010326 384669.000000 0 0 1
-24.992940 19.110986 -14.593096 34.681916 -0.652815 2.005090 0.044928 -0.016277 121750.000000 0 0 1
-24.673840 18.164286 -15.634296 34.397251 -0.634595 2.042631 0.041576 -0.013282 513881.000000 0 0 1
-25.441560 16.936786 -15.461996 34.252022 -0.587342 2.039151 0.059165 -0.019997 272088.000000 0 0 1
-25.292760 15.982486 -16.637196 34.233900 -0.563545 2.078287 0.062035 -0.014800 127391.000000 0 0 1
-24.034240 15.338686 -16.753596 33.069669 -0.568036 2.102051 0.065115 -0.006403 239540.000000 0 0 1
-24.021440 14.571586 -17.950296 33.340274 -0.545264 2.139330 0.064365 -0.015148 -81641.800000 0 0 1
-23.322840 13.220686 -17.722296 32.137536 -0.515692 2.154900 0.053747 -0.016972 422109.000000 0 0 1
-21.976340 13.372286 -17.266996 30.982684 -0.546636 2.161940 0.063817 -0.020225 531616.000000 0 0 1
-21.345640 12.125586 -17.182296 29.964938 -0.516602 2.181463 0.067594 -0.013791 1884050.000000 0 0 1
-19.977840 12.091986 -16.291496 28.473551 -0.544285 2.179936 0.065541 -0.016366 1558480.000000 0 0 1
-18.885340 12.797886 -16.782496 28.321267 -0.595576 2.205049 0.058673 -0.007668 -310195.000000 0 0 1
-17.869940 12.884586 -15.805396 27.113795 -0.624695 2.193124 0.055525 -0.005106 174720.000000 0 0 1
-17.006440 14.177586 -15.942996 27.283733 -0.694931 2.194864 0.037097 -0.000563 -45703.700000 0 0 1
-16.155940 14.217986 -17.057996 27.461624 -0.721681 2.241015 0.053842 -0.011822 366563.000000 0 0 1
-15.348540 15.403186 -17.168996 27.705780 -0.787175 2.239144 0.035183 -0.000718 420512.000000 0 0 1
-14.497340 15.406186 -18.472396 28.084744 -0.815781 2.288608 0.032227 0.002675 636514.000000 0 0 1
-13.477240 14.392386 -18.504996 27.040926 -0.818223 2.324485 0.028019 0.001965 248491.000000 0 0 1
-12.629640 14.569686 -19.632496 27.517603 -0.856605 2.365209 0.035037 0.005532 615188.000000 0 0 1
-11.460140 13.543486 -19.624796 26.455500 -0.868528 2.406553 0.031079 0.002844 254782.000000 0 0 1
-11.936640 12.299286 -20.105796 26.419668 -0.800360 2.435674 0.043533 0.002059 466802.000000 0 0 1
-11.063040 11.154386 -19.906596 25.359096 -0.789510 2.473474 0.027303 0.005624 178912.000000 0 0 1
-11.433740 9.985986 -20.815496 25.763059 -0.717911 2.511476 0.034159 0.004074 -76839.400000 0 0 1
-10.953140 10.135286 -22.153796 26.711159 -0.746635 2.548800 0.038540 0.003845 -115851.000000 0 0 1
-11.451440 9.183986 -23.058096 27.334171 -0.675956 2.574680 0.039889 0.014906 -92110.200000 0 0 1
-11.143140 9.411586 -24.577496 28.579728 -0.701355 2.605993 0.033363 -0.002057 -608725.000000 0 0 1
-9.813940 9.071386 -24.880596 28.242655 -0.746099 2.648680 0.015719 0.000554 -386159.000000 0 0 1
-9.671740 8.565786 -26.204836 29.216583 -0.724831 2.683543 0.005216 -0.009454 -156806.000000 0 0 1
-9.354040 9.638886 -27.317156 30.440651 -0.800394 2.684616 0.022011 -0.010131 449379.000000 0 0 1
-8.065240 10.257386 -27.313336 30.270124 -0.904474 2.695918 0.019101 -0.011464 554315.000000 0 0 1
-7.796740 11.176686 -26.274606 29.598351 -0.961690 2.663133 -0.002089 0.002300 -287083.000000 0 0 1
-6.368940 11.738486 -26.413926 29.598158 -1.073676 2.673472 0.006289 -0.000462 -318739.000000 0 0 1
-6.054340 12.357686 -27.657726 30.892026 -1.115241 2.679907 0.010190 -0.012629 -625120.000000 0 0 1
-4.695240 12.615886 -27.752546 30.844930 -1.214510 2.689979 0.029240 -0.015372 -884585.000000 0 0 1
-4.128340 12.623686 -29.190486 32.070004 -1.254728 2.714591 0.035828 -0.016477 1154250.000000 0 0 1
-2.723040 12.980786 -29.061716 31.945252 -1.364020 2.713442 0.056119 -0.027295 1224920.000000 0 0 1
-2.080240 12.901386 -30.332716 33.027971 -1.410931 2.734801 0.058791 -0.027097 258108.000000 0 0 1
-0.540140 12.833286 -30.362376 32.967543 -1.528732 2.741379 0.081160 -0.038442 -88961.700000 0 0 1
-0.072340 11.617386 -29.797016 31.981730 -1.564569 2.769831 0.064884 -0.021408 1026070.000000 0 0 1
1.363160 11.440886 -29.814736 31.963582 1.452207 2.772824 0.091655 -0.032449 1146710.000000 0 0 1
1.899260 10.783986 -31.111326 32.982058 1.396466 2.803172 0.097642 -0.033469 -328429.000000 0 0 1
1.819460 11.633486 -32.245506 34.328139 1.415655 2.791473 0.099418 -0.041410 144206.000000 0 0 1
1.974160 10.850586 -33.380866 35.155579 1.390825 2.822493 0.099175 -0.038281 -23072.900000 0 0 1
2.071460 11.631786 33.829233 35.833035 1.394558 0.336005 0.100819 -0.041477 -473570.000000 0 0 1
3.310560 12.254186 33.725583 36.035258 1.306938 0.359976 0.096916 -0.042079 -661882.000000 0 0 1
3.301560 13.056786 32.610395 35.281976 1.323126 0.391653 0.094224 -0.036476 -475285.000000 0 0 1
4.708060 13.474586 32.192322 35.214711 1.234654 0.417335 0.092732 -0.027055 -167196.000000 0 0 1
5.502160 12.349986 31.752932 34.511514 1.151675 0.402543 0.087329 -0.032853 -599660.000000 0 0 1
6.715160 12.775686 31.238352 34.411425 1.086863 0.432811 0.077469 -0.018312 -806041.000000 0 0 1
7.572760 11.595986 30.772772 33.745771 0.992280 0.422906 0.061086 -0.010997 -269605.000000 0 0 1
6.999060 10.818586 29.746902 32.417693 0.996570 0.408763 0.054153 -0.018412 -203807.000000 0 0 1
7.869160 9.817886 29.257132 31.847988 0.895134 0.406148 0.050617 -0.017727 -48.575100 0 0 1
7.297760 8.914686 28.149202 30.415564 0.884803 0.388478 0.026696 -0.010910 -183326.000000 0 0 1
6.566360 7.840986 28.630052 30.401941 0.873639 0.343095 0.030855 -0.009596 -84449.800000 0 0 1
5.926660 7.095686 27.583652 29.091785 0.874929 0.323403 0.048668 -0.013966 -336289.000000 0 0 1
5.133460 5.974086 28.202342 29.281636 0.860935 0.272352 0.054006 -0.026360 -449417.000000 0 0 1
5.952460 4.922986 28.682982 29.704899 0.691019 0.263064 0.031779 -0.015184 98617.100000 0 0 1
5.491160 4.350686 29.888362 30.698461 0.670033 0.230242 0.024101 -0.019011 -467920.000000 0 0 1
6.399860 3.253786 30.391782 31.228285 0.470357 0.231979 0.036576 -0.015090 -165027.000000 0 0 1
6.109460 1.993186 29.811022 30.495825 0.315358 0.212321 0.025611 -0.012614 635641.000000 0 0 1
7.029660 1.668086 28.707172 29.602371 0.232983 0.246554 0.018719 -0.007673 495429.000000 0 0 1
6.899860 0.314786 28.068132 28.905487 0.045590 0.241287 0.013295 -0.008990 -62450.900000 0 0 1
7.192660 -0.681114 29.038692 29.923969 -0.094414 0.243849 0.018195 -0.009235 6816.440000 0 0 1
7.287760 -2.002814 28.482412 29.468127 -0.268198 0.259378 0.029795 -0.010651 -391721.000000 0 0 1
8.131760 -2.940014 29.370502 30.616917 -0.346925 0.286319 0.023447 -0.007581 -393285.000000 0 0 1
9.478060 -2.573914 29.387862 30.985563 -0.265170 0.322528 0.018604 -0.005657 -548357.000000 0 0 1
10.297960 -3.570214 28.774072 30.769167 -0.333724 0.362088 0.029280 0.001261 504948.000000 0 0 1
11.830760 -3.356614 29.027732 31.525275 -0.276454 0.400730 0.023327 0.001576 1121130.000000 0 0 1
12.646260 -4.518714 28.729332 31.713108 -0.343178 0.437264 0.028718 -0.003090 580770.000000 0 0 1
12.806360 -5.495914 29.814572 32.910737 -0.405385 0.437243 0.043929 -0.003367 -348069.000000 0 0 1
12.203860 -6.891814 29.435192 32.601562 -0.514077 0.444381 0.053884 -0.001836 183717.000000 0 0 1
10.799360 -6.853514 29.246822 31.921363 -0.565489 0.412267 0.060542 -0.003174 -20276.300000 0 0 1
10.380960 -8.186014 28.953762 31.829161 -0.667727 0.428328 0.071299 -0.006161 480881.000000 0 0 1
8.850860 -8.208014 28.674952 31.112089 -0.747732 0.398444 0.067328 -0.005761 571230.000000 0 0 1
8.028560 -8.017214 29.834592 31.919217 -0.784691 0.363409 0.075600 -0.007326 613186.000000 0 0 1
6.659060 -7.907114 29.446682 31.208535 -0.870871 0.337620 0.057894 0.011931 308475.000000 0 0 1
5.782960 -7.145414 30.426282 31.784559 -0.890395 0.293400 0.043584 0.003100 -241696.000000 0 0 1
5.760060 -7.787414 31.711492 33.157817 -0.933944 0.296447 0.044820 -0.004499 243443.000000 0 0 1
4.919860 -7.047214 32.617208 33.730558 -0.961328 0.257644 0.043080 -0.009638 143783.000000 0 0 1
5.562260 -5.889114 33.380215 34.349078 -0.813933 0.238076 0.047820 -0.002254 -138490.000000 0 0 1
5.757060 -4.798414 32.587295 33.438007 -0.694827 0.226053 0.048316 -0.006950 -153917.000000 0 0 1
6.241560 -3.710714 33.355964 34.137176 -0.536378 0.214347 0.037328 -0.002319 -278494.000000 0 0 1
6.322260 -2.351114 32.579295 33.270245 -0.356031 0.204157 0.023917 -0.004814 206240.000000 0 0 1
5.088860 -1.783114 32.148572 32.597649 -0.337027 0.166181 0.032304 -0.004174 -189899.000000 0 0 1
5.211560 -0.441114 31.661862 32.090940 -0.084440 0.163711 0.019945 -0.010578 -594114.000000 0 0 1
3.908260 0.281486 31.312882 31.557096 0.071899 0.124489 0.027390 -0.009610 -227838.000000 0 0 1
3.125560 0.437586 32.505156 32.658013 0.139098 0.096790 0.028845 -0.017935 -737175.000000 0 0 1
1.981360 1.185286 32.235932 32.318509 0.539108 0.071501 0.038462 -0.016457 156082.000000 0 0 1
0.995760 1.263186 33.470517 33.509143 0.903235 0.048019 0.050250 -0.020360 298571.000000 0 0 1
1.573860 2.039086 -34.031576 34.128919 0.913460 3.066047 0.042728 -0.016826 -216358.000000 0 0 1
0.679060 2.357886 -33.003576 33.094664 1.290389 3.067382 0.034974 -0.013401 -189935.000000 0 0 1
1.237760 3.464886 -32.098916 32.309100 1.227695 3.027466 0.033211 -0.001310 784156.000000 0 0 1
2.391960 3.055986 -31.318466 31.557992 0.906686 3.018307 0.017450 0.000568 804504.000000 0 0 1
2.992060 4.292986 -30.785586 31.227143 0.962110 2.973226 0.016943 -0.001271 -77995.300000 0 0 1
4.030160 3.937586 -29.726356 30.255628 0.773780 2.954272 0.013006 0.000756 -663556.000000 0 0 1
3.469960 3.212186 -28.670566 29.057876 0.746841 2.978139 0.012089 -0.006756 -251878.000000 0 0 1
4.428060 2.729186 -27.749636 28.232933 0.552347 2.956297 0.018197 -0.011443 -232816.000000 0 0 1
3.875260 2.074486 -26.470806 26.833276 0.491499 2.977040 0.005698 -0.016748 -211672.000000 0 0 1
3.980760 0.671686 -26.582846 26.887643 0.167159 2.990878 0.019998 -0.019826 -20055.700000 0 0 1
3.413160 0.008886 -25.494066 25.721531 0.002603 3.008503 0.026691 -0.022318 -538759.000000 0 0 1
3.752960 -1.455014 -25.258536 25.577244 -0.369856 2.983564 0.030851 -0.023786 1092090.000000 0 0 1
5.140160 -1.578814 -24.860696 25.435568 -0.298006 2.928582 0.039466 -0.030925 958452.000000 0 0 1
5.654160 -2.883514 -25.066796 25.857851 -0.471601 2.893602 0.053647 -0.031656 -695619.000000 0 0 1
7.010060 -3.156814 -24.421396 25.602949 -0.423125 2.836606 0.059694 -0.037025 -144740.000000 0 0 1
7.967360 -2.919614 -25.433946 26.812098 -0.351251 2.819578 0.046396 -0.023116 -1324800.000000 0 0 1
9.276860 -3.218514 -25.112446 26.963937 -0.333946 2.768857 0.033363 -0.017839 -613427.000000 0 0 1
-29.336940 -5.185314 18.131352 34.875342 0.174943 1.024074 0.072449 0.005603 -33046.700000 0 0 1
-30.617440 -4.604514 18.088652 35.858452 0.149270 1.042056 0.064376 0.004115 -233152.000000 0 0 1
-31.399040 -5.215314 19.118252 37.129595 0.164595 1.029898 0.056956 -0.002522 377386.000000 0 0 1
-32.823250 -4.617514 19.257552 38.334587 0.139761 1.044477 0.046906 0.000714 494556.000000 0 0 1
-33.666120 -4.902314 18.133752 38.552215 0.144599 1.081088 0.039973 -0.003533 -482569.000000 0 0 1
-34.983271 -4.595814 18.428552 39.806561 0.130624 1.089473 0.025462 -0.000093 -1019880.000000 0 0 1
-35.982546 -4.768714 17.300252 40.209240 0.131761 1.126020 0.030573 -0.003744 325189.000000 0 0 1
34.709653 -4.720514 17.784152 39.285103 -0.135171 1.101011 0.020666 0.001285 652332.000000 0 0 1
33.686613 -4.847614 16.774552 37.943021 -0.142922 1.112859 0.024184 -0.002656 1154200.000000 0 0 1
32.336733 -5.382514 17.353252 37.091389 -0.164940 1.083938 0.025486 -0.001485 -141241.000000 0 0 1
31.672553 -4.438614 18.086452 36.741960 -0.139234 1.056117 0.035824 -0.002323 -168103.000000 0 0 1
30.544633 -5.115714 18.635552 36.144556 -0.165943 1.029107 0.056504 -0.005018 185325.000000 0 0 1
29.854413 -4.390414 19.812152 36.098242 -0.146014 0.989821 0.056209 0.002407 57383.700000 0 0 1
28.974683 -3.310314 19.570252 35.121008 -0.113755 0.979758 0.067886 0.001507 327982.000000 0 0 1
29.624053 -2.044014 19.292052 35.411097 -0.068889 0.994643 0.066024 -0.003795 -83119.200000 0 0 1
28.649313 -0.866014 19.513752 34.674481 -0.030219 0.973064 0.062845 0.002391 -83289.800000 0 0 1
29.049913 0.387786 19.038452 34.734860 0.013348 0.990696 0.063840 -0.001510 -253624.000000 0 0 1
28.242563 1.408086 19.556752 34.381559 0.049816 0.965732 0.061369 -0.003049 -19347.000000 0 0 1
28.449053 2.804686 18.926152 34.284313 0.098269 0.985993 0.061714 -0.001064 119099.000000 0 0 1
28.280693 2.768186 17.501952 33.373324 0.097572 1.018752 0.057078 -0.007847 -7541.970000 0 0 1
28.459203 4.006086 16.864652 33.322537 0.139847 1.040135 0.049739 -0.007066 152728.000000 0 0 1
28.229833 3.902986 15.302152 32.346756 0.137387 1.078029 0.055998 -0.008929 39683.400000 0 0 1
28.076603 5.175386 14.693652 32.108934 0.182285 1.095481 0.046747 -0.009511 -11422.100000 0 0 1
27.699183 4.959586 13.381552 31.159399 0.177174 1.126907 0.062059 -0.011409 -327276.000000 0 0 1
27.055743 6.160286 12.711452 30.521195 0.223872 1.141227 0.059514 -0.008019 618066.000000 0 0 1
25.921183 6.608286 13.495052 29.961535 0.249620 1.103569 0.059279 -0.005917 638561.000000 0 0 1
25.289583 7.773386 12.992752 29.475416 0.298209 1.114307 0.065982 -0.012001 64789.100000 0 0 1
24.127583 8.215086 13.946052 29.053748 0.328173 1.070132 0.066579 -0.013539 204904.000000 0 0 1
22.888383 7.563786 13.908052 27.830251 0.319166 1.047491 0.070141 -0.009970 175239.000000 0 0 1
22.848683 6.217086 14.260452 27.641906 0.265666 1.028739 0.079769 -0.011901 -1001950.000000 0 0 1
21.459183 5.584386 14.049352 26.250070 0.254586 1.006038 0.089510 -0.015739 -204254.000000 0 0 1
20.995983 5.547986 12.708452 25.161801 0.258336 1.041334 0.098486 -0.016766 80413.700000 0 0 1
19.869783 4.769886 12.456452 23.931638 0.235599 1.023358 0.091937 -0.013217 -542146.000000 0 1 0
19.534083 4.721586 10.925052 22.874233 0.237161 1.072859 0.097259 -0.015998 -183071.000000 0 1 0
20.546183 4.088286 10.171352 23.287682 0.196415 1.118792 0.099476 -0.021491 415722.000000 0 1 0
20.268783 3.878386 8.792252 22.431432 0.189062 1.168034 0.108210 -0.021463 753201.000000 0 1 0
21.529183 3.240786 8.058752 23.215338 0.149408 1.216287 0.113226 -0.017022 325942.000000 0 1 0
21.830083 1.914586 8.551652 23.523370 0.087480 1.198733 0.112307 -0.016732 423660.000000 0 1 0
22.754283 1.244886 7.729252 24.063426 0.054655 1.243796 0.110547 -0.008471 1273540.000000 0 1 0
24.301383 1.614386 7.904152 25.605450 0.066334 1.256981 0.105915 -0.007659 913634.000000 0 0 1
25.002183 1.159086 9.019052 26.604434 0.046326 1.224937 0.087200 -0.005901 146599.000000 0 0 1
24.600383 1.663586 10.261852 26.706778 0.067522 1.176410 0.088996 -0.005310 -792734.000000 0 0 1
25.393383 1.066086 11.435752 27.869999 0.041958 1.147986 0.066075 -0.004036 -103875.000000 0 0 1
26.776583 1.321386 11.261852 29.078528 0.049309 1.173105 0.070700 -0.002241 -7704.660000 0 0 1
27.492833 0.460686 12.107552 30.044316 0.016755 1.156015 0.067743 -0.008069 -268751.000000 0 0 1
29.018823 0.514086 11.954752 31.389050 0.017714 1.180073 0.073257 -0.004727 58880.300000 0 0 1
29.710003 1.646486 12.490952 32.271025 0.055362 1.173351 0.063080 -0.002578 780257.000000 0 0 1
31.126973 1.421186 12.415852 33.541938 0.045626 1.191616 0.066807 -0.007796 775546.000000 0 0 1
31.891233 2.707986 12.801852 34.471312 0.084710 1.190305 0.053081 -0.010761 -584908.000000 0 0 1
31.861303 3.666986 11.741752 34.153450 0.114588 1.219842 0.053694 -0.016324 196910.000000 0 0 1
32.558483 4.899186 11.961752 35.030563 0.149353 1.222320 0.043873 -0.014975 183682.000000 0 0 1
34.075643 4.796486 11.710852 36.349687 0.139841 1.242773 0.051451 -0.009776 -467642.000000 0 0 1
34.768053 3.950786 12.618452 37.197467 0.113147 1.224699 0.051906 -0.014047 870604.000000 0 0 1
-35.861162 3.972686 12.259652 38.106486 -0.110330 1.243250 0.063821 -0.007312 661261.000000 0 0 1
-35.009804 3.054486 13.120952 37.512340 -0.087026 1.213463 0.069644 -0.001925 -1077730.000000 0 0 1
-35.085078 1.675986 12.767452 37.373512 -0.047733 1.222159 0.065122 -0.003683 456505.000000 0 0 1
35.721163 0.967386 12.990252 38.022151 0.027075 1.222125 0.063346 -0.000641 208279.000000 0 0 1
35.404673 0.739386 14.446852 38.245903 0.020881 1.183446 0.063635 -0.001902 -588530.000000 0 0 1
-35.722983 -0.132114 15.068552 38.771256 0.003698 1.171627 0.049163 -0.000616 38275.100000 0 0 1
35.950733 -0.293614 16.407952 39.519138 -0.008167 1.142645 0.046696 -0.003762 135617.000000 0 0 1
-34.999874 -1.097814 17.187252 39.007666 0.031356 1.114516 0.043290 -0.002824 -128604.000000 0 0 1
-33.807370 -0.397514 17.437852 38.041753 0.011758 1.094617 0.050960 -0.000044 -287589.000000 0 0 1
-32.971590 -1.133814 18.323852 37.738241 0.034374 1.063803 0.050457 0.002699 119472.000000 0 0 1
-33.204830 -0.931214 19.917552 38.731600 0.028037 1.030669 0.044638 -0.002860 -544719.000000 0 0 1
-34.318931 -1.665914 20.328552 39.922605 0.048504 1.036542 0.035070 -0.006307 -291037.000000 0 0 1
-34.517315 -1.678914 21.729752 40.822126 0.048601 1.009477 0.027472 -0.000174 221356.000000 0 0 1
-35.067869 -3.009914 22.346252 41.691366 0.085621 1.005114 0.013753 0.000809 368458.000000 0 0 1
-34.082382 -4.061414 22.382252 40.976446 0.118605 0.992949 0.027651 -0.004638 539148.000000 0 0 1
-34.513336 -5.293814 23.013552 41.818877 0.152198 0.988055 0.024215 -0.011627 -79634.100000 0 0 1
-34.502787 -5.361914 24.532002 42.673312 0.154172 0.958340 0.019245 -0.015339 -42972.700000 0 0 1
-33.226280 -5.142414 25.078972 41.945023 0.153551 0.929916 0.036302 -0.015893 -633407.000000 0 0 1
-33.257600 -5.037714 26.458082 42.795755 0.150333 0.904294 0.038758 -0.023683 443846.000000 0 0 1
-32.134150 -4.196014 27.159642 42.283050 0.129843 0.873263 0.042124 -0.023721 255644.000000 0 0 1
-32.172710 -2.767014 26.889362 42.021155 0.085794 0.876427 0.035304 -0.013140 -122130.000000 0 0 1
-31.773140 -2.335714 25.617402 40.880794 0.073380 0.893566 0.032707 -0.012701 -440940.000000 0 0 1
-31.758420 -0.802314 25.306982 40.616306 0.025258 0.898129 0.035529 -0.003633 310875.000000 0 0 1
-33.004800 -0.101214 25.315842 41.595901 0.003067 0.916484 0.031670 -0.012502 131299.000000 0 0 1
-32.904600 1.224186 24.842022 41.247272 -0.037187 0.924454 0.032327 -0.006835 -530405.000000 0 0 1
-34.236690 1.899186 24.557182 42.175978 -0.055415 0.949296 0.035604 -0.003157 -79336.400000 0 0 1
-34.799064 1.617586 23.243752 41.879153 -0.046450 0.982410 0.035817 0.004359 428069.000000 0 0 1
-35.884764 2.443686 22.819552 42.596008 -0.067993 1.005436 0.034300 0.011425 561733.000000 0 0 1
-35.421279 3.726486 22.120352 41.926885 -0.104819 1.015031 0.042863 0.010752 -245696.000000 0 0 1
-34.804063 3.599786 20.876652 40.744520 -0.103064 1.032843 0.042104 -0.001454 125611.000000 0 0 1
-35.704109 3.382386 19.769852 40.952058 -0.094452 1.066997 0.048235 -0.007045 498249.000000 0 0 1
-35.009431 2.535286 18.643152 39.744875 -0.072291 1.082558 0.058089 -0.012706 -412032.000000 0 0 1
-34.094402 3.287886 17.951852 38.671792 -0.096137 1.088053 0.080672 -0.014550 -554048.000000 0 0 1
-33.605380 2.616086 16.825552 37.673130 -0.077691 1.107813 0.083690 -0.006388 -64111.200000 0 0 1
-32.586810 3.482186 16.033452 36.484208 -0.106455 1.115796 0.083471 -0.010263 173603.000000 0 0 1
-33.167010 4.538386 15.226652 36.776330 -0.135990 1.143915 0.080409 -0.008382 289931.000000 0 0 1
-32.187890 5.425686 14.703452 35.800696 -0.166993 1.147571 0.095444 -0.011112 -96088.100000 0 0 1
-32.845280 6.602586 13.989652 36.305880 -0.198377 1.175234 0.090937 -0.014505 -401061.000000 0 0 1
-31.888200 7.275986 13.262152 35.294220 -0.224331 1.185580 0.114985 -0.015049 -395227.000000 0 0 1
-32.361920 8.430986 12.713652 35.777260 -0.254857 1.207502 0.085337 -0.012501 -116088.000000 0 0 1
-31.162950 9.322486 12.307052 34.777892 -0.290679 1.209085 0.094094 -0.013356 201755.000000 0 0 1
-31.604280 10.638886 12.044252 35.455330 -0.324713 1.224196 0.075067 -0.003529 77340.800000 0 0 1
-30.907550 11.224686 10.964652 34.662571 -0.348359 1.248943 0.057192 -0.004124 -306641.000000 0 0 1
-31.208080 12.740786 10.806952 35.398618 -0.387601 1.260550 0.045233 0.008196 109144.000000 0 0 1
-30.657430 13.315786 9.607852 34.777852 -0.409756 1.290892 0.038445 0.009003 229872.000000 0 0 1
-30.815620 14.731486 9.638452 35.489701 -0.445936 1.295757 0.035316 0.010715 -140838.000000 0 0 1
-29.858360 15.334086 8.592152 34.647957 -0.474437 1.320197 0.044580 -0.000838 -1408650.000000 0 0 1
-28.556060 15.313086 9.021052 33.635079 -0.492223 1.299268 0.049498 0.002792 -1204140.000000 0 0 1
-27.799850 16.137686 8.163052 33.164620 -0.525954 1.322103 0.046263 -0.016051 460614.000000 0 0 1
-26.271420 16.285886 8.487852 32.054036 -0.554930 1.302802 0.058324 -0.012956 447807.000000 0 0 1
-25.942690 17.018286 9.672252 32.499195 -0.580578 1.268603 0.050447 -0.014365 211518.000000 0 0 1
-26.470540 18.350986 9.761952 33.656261 -0.606189 1.276519 0.055373 -0.025266 -251509.000000 0 0 1
-26.519160 18.861186 11.230652 34.425830 -0.618222 1.238486 0.075411 -0.011006 -325595.000000 0 0 1
-25.214140 19.003786 11.712952 33.676253 -0.645862 1.215562 0.062692 -0.002127 -102172.000000 0 0 1
-25.125960 19.617986 13.038652 34.441047 -0.662914 1.182536 0.073662 -0.013486 -238730.000000 0 0 1
-25.586310 18.741886 14.220152 34.758169 -0.632205 1.149310 0.072639 -0.004690 -281174.000000 0 0 1
-24.801040 17.639286 14.534452 33.726641 -0.618224 1.125252 0.075631 -0.010595 -25566.200000 0 0 1
-25.436850 16.912286 15.552852 34.277543 -0.586760 1.099846 0.071721 -0.010253 -37885.200000 0 0 1
-24.543940 15.711086 15.977152 33.234209 -0.569399 1.069293 0.075396 -0.014070 946164.000000 0 0 1
-23.346640 16.211686 16.634552 32.933155 -0.606951 1.041298 0.062949 -0.015948 709569.000000 0 0 1
-22.340640 15.215886 16.724352 31.785710 -0.597919 1.016718 0.034155 -0.026777 -73803.900000 0 0 1
-22.485440 14.125086 17.862952 32.003096 -0.560889 0.978626 0.043621 -0.007975 -446889.000000 0 0 1
-22.309340 14.716486 19.152852 32.880289 -0.583133 0.948992 0.046715 -0.006243 130154.000000 0 0 1
-22.508740 13.750386 20.114252 33.170765 -0.548389 0.919290 0.037190 -0.001785 -699355.000000 0 0 1
-22.159940 14.162386 21.556252 34.004531 -0.568673 0.884181 0.050353 -0.003827 -1047850.000000 0 0 1
-20.840940 14.173486 21.953352 33.424275 -0.597231 0.854218 0.050520 -0.012786 -1146750.000000 0 0 1
-20.263940 15.402586 21.619252 33.395494 -0.649933 0.866667 0.047276 0.001129 -1062610.000000 0 0 1
-18.753140 15.354086 21.940152 32.692484 -0.686068 0.835095 0.048107 -0.016685 136435.000000 0 0 1
-17.960740 14.581586 21.045052 31.274671 -0.681930 0.832660 0.034732 -0.014807 -249422.000000 0 0 1
-17.539240 15.349186 19.982152 30.700307 -0.718906 0.862056 0.032608 -0.018888 -2256070.000000 0 0 1
-16.298040 14.719886 19.304152 29.239553 -0.734563 0.849702 0.037532 -0.017786 -74897.000000 0 0 1
-15.218040 14.492286 20.166052 29.125329 -0.760975 0.806002 0.034934 -0.019597 -336800.000000 0 0 1
-14.689040 15.607786 20.836952 29.892298 -0.815714 0.799497 0.028462 -0.023851 -1651960.000000 0 0 1
-13.539140 15.237286 21.810652 29.852768 -0.844341 0.751585 0.006603 -0.017655 295170.000000 0 0 1
-12.395840 14.732686 21.125952 28.583470 -0.871326 0.739068 0.022324 -0.021178 -577241.000000 0 0 1
-11.532340 14.197686 22.053352 28.651693 -0.888619 0.692417 0.034503 -0.016726 -492517.000000 0 0 1
-10.248440 13.609886 21.440352 27.385183 -0.925369 0.671454 0.039731 -0.014117 -600216.000000 0 0 1
-9.706440 12.425986 22.035852 27.096105 -0.907661 0.621084 0.047047 -0.012640 323668.000000 0 0 1
-8.466840 11.942386 21.580152 26.077019 -0.954073 0.596059 0.054862 -0.015246 121719.000000 0 0 1
-7.211640 12.729186 21.996252 26.417325 -1.055340 0.586930 0.050716 -0.005682 -583138.000000 0 0 1
-6.768340 13.727086 21.145552 26.103212 -1.112712 0.626517 0.044254 -0.002782 7606.690000 0 0 1
-6.138940 14.878186 21.728352 27.040124 -1.179464 0.637545 0.034048 0.007188 -237068.000000 0 0 1
-7.124340 15.796786 22.455552 28.364529 -1.147112 0.657247 0.031956 -0.011716 771374.000000 0 0 1
-8.155840 16.389386 21.614452 28.325152 -1.109047 0.702726 0.003071 -0.011940 595778.000000 0 0 1
-7.613040 17.335586 20.630252 28.001575 -1.156996 0.742540 0.008813 0.000919 -971906.000000 0 0 1
-8.568840 17.627986 19.465252 27.623667 -1.118336 0.788855 0.016837 -0.000501 1764410.000000 0 0 1
-9.799640 18.370586 19.727652 28.682602 -1.080754 0.812354 0.011731 -0.006249 1012160.000000 0 0 1
-10.698240 17.863686 20.673652 29.342180 -1.031199 0.788978 0.017220 -0.011403 -689434.000000 0 0 1
-12.004340 18.669886 20.861752 30.461148 -0.999373 0.816379 0.014321 -0.013746 525871.000000 0 0 1
-12.939640 18.645986 19.791352 30.113198 -0.964133 0.853656 0.025575 -0.008580 183913.000000 0 0 1
-14.187940 19.200986 20.166352 31.251516 -0.934426 0.869391 0.013542 -0.011284 233239.000000 0 0 1
-15.058840 19.352186 18.900552 30.959759 -0.909523 0.914120 0.032714 -0.015415 71368.900000 0 0 1
-15.932540 18.286986 18.530952 30.523039 -0.854094 0.918373 0.045171 -0.020013 362468.000000 0 0 1
-16.693440 18.619886 17.398852 30.464589 -0.839897 0.962930 0.048051 -0.025630 -443477.000000 0 0 1
-17.444540 17.442286 16.654952 29.764623 -0.785334 0.976947 0.048147 -0.030645 1100930.000000 0 0 1
-18.508140 16.757886 17.331252 30.393261 -0.735809 0.964006 0.046067 -0.026478 683675.000000 0 0 1
-19.668140 17.567586 17.550252 31.677550 -0.729046 0.983601 0.061326 -0.022652 -328262.000000 0 0 1
33.873383 -9.579114 11.833104 37.137418 -0.275596 1.246512 0.046203 -0.008751 -299441.000000 0 0 1
32.498873 -9.832614 11.737804 35.925382 -0.293797 1.237958 0.042127 -0.000522 -168580.000000 0 0 1
32.191323 -11.119414 12.255904 36.195715 -0.332586 1.225367 0.063964 -0.006947 -1292410.000000 0 0 1
30.771643 -11.588714 12.122104 35.044796 -0.360176 1.217595 0.062802 0.002669 -1244140.000000 0 0 1
29.986223 -10.862914 13.029304 34.451984 -0.347558 1.182959 0.057475 0.006574 -563356.000000 0 0 1
28.617183 -11.118614 12.979304 33.332103 -0.370579 1.170823 0.054234 -0.001799 -227066.000000 0 0 1
28.041033 -11.907714 14.206204 33.614125 -0.401577 1.134455 0.036031 0.000320 -442001.000000 0 0 1
28.053443 -11.162314 15.421904 33.903216 -0.378690 1.098559 0.045699 -0.002890 98048.000000 0 0 1
27.217173 -11.718714 16.415404 33.875777 -0.406573 1.064917 0.046941 -0.014447 16225.500000 0 0 1
25.734383 -11.322114 16.356504 32.526665 -0.414474 1.043887 0.047680 -0.024754 -409262.000000 0 0 1
25.404083 -9.962614 16.627304 31.954473 -0.373735 1.023543 0.051223 -0.011110 -130685.000000 0 0 1
24.773383 -9.337214 15.531604 30.694214 -0.360440 1.040243 0.061567 -0.014215 22025.200000 0 0 1
24.650283 -7.788514 15.710404 30.250854 -0.306034 1.024721 0.077671 -0.035042 844725.000000 0 0 1
25.932583 -7.111214 15.626504 31.100737 -0.267640 1.044369 0.064792 -0.026046 935976.000000 0 0 1
25.875183 -5.794614 16.102804 31.022620 -0.220310 1.025038 0.066907 -0.019083 206593.000000 0 0 1
27.238253 -5.055514 16.041604 32.012711 -0.183515 1.045926 0.067098 -0.013097 106254.000000 0 0 1
27.490033 -4.516614 14.807104 31.549200 -0.162845 1.082260 0.083315 -0.015476 -291031.000000 0 0 1
28.631023 -3.719714 14.741504 32.417336 -0.129195 1.098715 0.076083 -0.011840 -476692.000000 0 0 1
28.891023 -3.155714 13.325104 31.971990 -0.108797 1.140902 0.075966 -0.017077 -143365.000000 0 0 1
29.391093 -4.091114 12.374804 32.151350 -0.138307 1.175705 0.059917 -0.010435 268623.000000 0 0 1
29.526093 -3.482114 11.108804 31.738318 -0.117391 1.213212 0.065349 -0.007653 -28744.600000 0 0 1
29.895813 -4.499114 9.919904 31.818330 -0.149372 1.253744 0.076671 -0.004667 -69571.700000 0 0 1
31.257813 -4.859114 9.947004 33.160289 -0.154218 1.266138 0.072093 -0.005314 -125759.000000 0 0 1
31.546243 -5.764114 8.957704 33.296110 -0.180726 1.298409 0.082813 -0.012283 905178.000000 0 0 1
33.033643 -6.256214 8.804604 34.754609 -0.187172 1.314669 0.069831 -0.014463 1305740.000000 0 0 1
34.053623 -5.333614 8.415804 35.481297 -0.155362 1.331324 0.072500 -0.010047 546740.000000 0 0 1
35.306163 -5.994514 8.356604 36.773525 -0.168183 1.341548 0.077269 -0.021786 10681.500000 0 0 1
-35.513558 -5.145714 8.001904 36.765768 0.143893 1.351395 0.069787 -0.020474 -304436.000000 0 0 1
-35.464656 -4.892614 6.606604 36.405037 0.137092 1.388310 0.083686 -0.026730 -209359.000000 0 0 1
-34.435772 -4.005514 6.284904 35.233032 0.115798 1.391456 0.072169 -0.008477 -483287.000000 0 0 1
-34.538604 -3.256414 4.951804 35.043399 0.094005 1.429017 0.084855 -0.030444 -292712.000000 0 0 1
-33.982770 -3.826114 3.797704 34.407708 0.112118 1.460197 0.086791 -0.039238 78872.900000 0 0 1
-34.137298 -3.033514 2.632604 34.372779 0.088629 1.494131 0.084911 -0.033652 86725.500000 0 0 1
-33.521970 -3.735514 1.387104 33.757971 0.110977 1.529695 0.097686 -0.042187 228470.000000 0 0 1
-34.249460 -4.883814 0.984804 34.609927 0.141640 1.542338 0.092433 -0.037866 191824.000000 0 0 1
-35.136289 -4.702314 -0.118396 35.449748 0.133040 1.574136 0.089863 -0.033030 -289986.000000 0 0 1
-34.510355 -4.866014 -1.492696 34.883676 0.140078 1.613600 0.105734 -0.030926 -1319360.000000 0 0 1
-34.116412 -6.208314 -1.613796 34.714220 0.180005 1.617301 0.093217 -0.039313 457448.000000 0 0 1
-33.197290 -6.443114 -2.699096 33.924312 0.191702 1.650443 0.096603 -0.038357 608687.000000 0 0 1
-31.748660 -5.966214 -2.356496 32.390218 0.185754 1.643614 0.094920 -0.043325 -616848.000000 0 0 1
-31.300150 -6.831114 -1.322796 32.064206 0.214876 1.612063 0.097122 -0.040882 492616.000000 0 0 1
-30.120430 -6.278614 -0.702796 30.775887 0.205508 1.593634 0.086710 -0.047758 492801.000000 0 0 1
-29.506460 -7.160414 0.375104 30.365168 0.238071 1.558443 0.070937 -0.036523 -249214.000000 0 0 1
-29.070600 -8.343014 -0.244296 30.245088 0.279480 1.578874 0.077581 -0.025764 113359.000000 0 0 1
-28.367270 -9.179714 0.625804 29.822153 0.312967 1.549810 0.084545 -0.018110 -199824.000000 0 0 1
-27.854780 -10.509014 -0.054196 29.771313 0.360767 1.572617 0.062904 -0.018596 418399.000000 0 0 1
-26.748560 -10.437414 -0.960496 28.728864 0.372034 1.604236 0.050580 -0.025207 465740.000000 0 0 1
-26.334720 -11.687114 -1.492996 28.850220 0.417679 1.622569 0.039426 -0.013139 -519996.000000 0 0 1
-27.257920 -12.483414 -2.410496 30.077240 0.429465 1.651026 0.047840 -0.020088 -543801.000000 0 0 1
-28.186190 -13.364414 -1.805996 31.246288 0.442753 1.628627 0.066874 -0.026027 277031.000000 0 0 1
-28.450280 -14.438214 -2.654296 32.014462 0.469621 1.653801 0.053451 -0.032287 28775.800000 0 0 1
-29.496730 -15.466514 -2.094796 33.371520 0.482935 1.633610 0.072980 -0.032980 225829.000000 0 0 1
-28.973110 -16.292714 -1.094996 33.257972 0.512267 1.603727 0.053355 -0.025974 -217256.000000 0 0 1
-29.965390 -16.755514 -0.249596 34.332698 0.509850 1.578066 0.049504 -0.013257 -347295.000000 0 0 1
-30.331460 -18.245514 -0.464696 35.399325 0.541549 1.583924 0.044445 -0.015056 686670.000000 0 0 1
-29.207910 -19.113214 -0.107996 34.905997 0.579452 1.573890 0.053066 -0.028243 1172510.000000 0 0 1
-29.430920 -20.514914 -0.224996 35.876056 0.608745 1.577068 0.051125 -0.028569 -291665.000000 0 0 1
-30.285310 -21.214314 0.852604 36.986134 0.611049 1.547742 0.053437 -0.024890 -548789.000000 0 0 1
-29.666530 -21.271914 2.133004 36.567022 0.622067 1.512432 0.051065 -0.023091 -7773.040000 0 0 1
-30.494670 -21.833214 3.143104 37.636329 0.621363 1.487186 0.050374 -0.014517 -125594.000000 0 0 1
-29.856320 -21.922514 4.533704 37.316899 0.633356 1.449003 0.028414 -0.002703 -169705.000000 0 0 1
-29.659210 -20.666114 5.119504 36.509812 0.608565 1.430110 0.014336 -0.005245 249397.000000 0 0 1
-28.706960 -20.755314 6.172404 35.957909 0.626000 1.398286 0.010533 -0.004255 255954.000000 0 0 1
-28.529490 -19.529614 7.085004 35.292137 0.600275 1.368670 0.007018 0.005719 43849.400000 0 0 1
-27.382050 -19.646214 7.891304 34.612470 0.622365 1.340783 0.001435 0.000713 -128208.000000 0 0 1
-27.256930 -18.589914 8.818304 34.150954 0.598560 1.309622 0.005117 -0.001285 574729.000000 0 0 1
-25.970480 -18.742914 9.708504 33.466666 0.625142 1.276470 0.007151 0.004454 408969.000000 0 0 1
-26.202720 -19.744514 10.703604 34.510803 0.645756 1.255443 0.004416 0.000101 -291627.000000 0 0 1
-25.072370 -20.243814 11.373604 34.173010 0.679246 1.231499 0.014282 0.002925 -389566.000000 0 0 1
-24.638440 -19.240614 12.512004 33.672009 0.662997 1.190081 0.009224 0.004341 -173666.000000 0 0 1
-23.952240 -18.065714 12.069904 32.338250 0.646209 1.188298 0.008705 0.005565 47757.900000 0 0 1
-23.905940 -16.978314 13.027904 32.085564 0.617548 1.152684 0.009414 0.008067 141250.000000 0 0 1
-23.245140 -17.186214 14.446804 32.317374 0.636648 1.107355 0.032769 -0.002855 -122985.000000 0 0 1
-23.930940 -18.012614 15.365104 33.663490 0.645221 1.096815 0.011688 0.001782 -160582.000000 0 0 1
-23.090840 -18.354814 16.471104 33.784366 0.671621 1.061531 0.028128 0.002913 -207088.000000 0 0 1
-23.911340 -18.900914 17.633404 35.212692 0.668896 1.046310 0.023425 0.005524 -238575.000000 0 0 1
-24.647740 -17.840114 18.177104 35.442741 0.626523 1.032285 0.028429 0.010228 -304109.000000 0 0 1
-25.745410 -18.353414 18.899404 36.835600 0.619319 1.032034 0.015112 0.014268 -43573.500000 0 0 1
-26.734800 -17.285214 19.436004 37.299952 0.573942 1.022689 0.018670 0.010199 -183777.000000 0 0 1
-26.262850 -16.643514 20.593204 37.293752 0.564851 0.985809 0.031927 0.005563 -206006.000000 0 0 1
-27.129740 -15.695014 21.133204 37.801701 0.524473 0.977552 0.046037 -0.007129 -284872.000000 0 0 1
-26.454960 -14.977914 22.357004 37.736434 0.515170 0.936698 0.044354 -0.002975 99319.100000 0 0 1
-25.556380 -14.000714 21.877504 36.438630 0.501181 0.926804 0.036513 -0.003288 310761.000000 0 0 1
-24.615540 -13.589314 22.885804 36.254025 0.504425 0.887616 0.030792 -0.001994 326556.000000 0 0 1
-23.401940 -12.882714 22.216004 34.744294 0.503225 0.877060 0.036859 -0.000602 -36757.900000 0 0 1
-23.678940 -11.579214 21.728904 34.160147 0.454816 0.881377 0.050538 -0.005287 284034.000000 0 0 1
-22.505740 -11.021714 21.177604 32.809715 0.455397 0.869161 0.055719 -0.007373 -208851.000000 0 0 1
-22.040740 -9.591314 21.605904 32.320313 0.410447 0.838616 0.056824 -0.010142 159945.000000 0 0 1
-21.525840 -9.550814 22.965404 32.893611 0.417595 0.797955 0.051658 -0.011631 1036080.000000 0 0 1
-20.096240 -9.684914 22.991604 32.035453 0.449085 0.770313 0.028438 -0.001970 778819.000000 0 0 1
-19.449840 -9.670414 24.399404 32.667172 0.461403 0.727395 0.024635 -0.000923 265129.000000 0 0 1
-19.792040 -10.903814 25.027504 33.719341 0.503549 0.734405 0.034294 0.004857 -152957.000000 0 0 1
-18.914140 -11.263814 26.064604 34.117177 0.537121 0.701348 0.030664 0.002527 -905892.000000 0 0 1
-19.097140 -12.629514 26.770204 35.225690 0.584299 0.707541 0.034792 -0.013102 174891.000000 0 0 1
-20.183340 -12.751614 27.685704 36.557750 0.563466 0.711606 0.034047 -0.007201 -284085.000000 0 0 1
-21.413940 -12.910714 27.016704 36.812303 0.542558 0.746744 0.021566 -0.000105 -21427.000000 0 0 1
-22.632740 -13.063214 27.985804 38.289603 0.523473 0.751159 0.009001 0.000656 164460.000000 0 0 1
-22.875540 -14.242914 28.759604 39.411493 0.556891 0.752875 0.014063 0.003323 52202.100000 0 0 1
-21.811940 -14.501014 29.681704 39.585903 0.586723 0.723029 0.015210 0.008665 381789.000000 0 0 1
-22.106240 -15.560314 30.774904 40.962226 0.613331 0.720767 0.007178 0.006049 -295271.000000 0 0 1
-22.000940 -16.929114 30.356204 41.135573 0.655847 0.740761 0.012307 0.008253 -262822.000000 0 0 1
-22.089040 -17.857614 31.458304 42.384490 0.679865 0.734430 0.021583 -0.001339 -277255.000000 0 0 1
-23.474340 -18.247714 32.017504 43.693755 0.660775 0.748412 0.050015 -0.005690 -75011.300000 0 0 1
-24.053640 -17.223214 32.796504 44.168172 0.621406 0.733946 0.061888 -0.006014 250293.000000 0 0 1
-25.227150 -17.617114 33.516604 45.498731 0.609611 0.742694 0.068467 -0.016647 629867.000000 0 0 1
-26.039880 -16.494914 -34.243245 46.073391 0.564651 2.408686 0.063693 -0.014055 -72842.400000 0 0 1
-25.503550 -16.016414 -33.066545 44.725306 0.560759 2.402864 0.082969 -0.018861 -85590.200000 0 0 1
-26.282380 -14.919014 -32.586045 44.443119 0.516288 2.393824 0.077886 -0.019381 -209423.000000 0 0 1
-25.794310 -14.671614 -31.151545 43.023499 0.517157 2.380465 0.070513 -0.009375 -83492.700000 0 0 1
-26.303200 -15.576814 -30.171245 42.951129 0.534666 2.349638 0.069406 -0.003232 98946.400000 0 0 1
-25.716840 -15.255814 -28.930545 41.606156 0.535421 2.339693 0.066731 -0.001278 -66136.800000 0 0 1
-26.428050 -15.989314 -27.752745 41.524871 0.544097 2.302772 0.061207 -0.004049 911433.000000 0 0 1
-27.616030 -15.307314 -27.266745 41.718514 0.506132 2.283113 0.065194 -0.008206 851482.000000 0 0 1
-27.495200 -14.091514 -26.546145 40.733949 0.473604 2.280614 0.043490 -0.004634 -776227.000000 0 0 1
-26.640080 -14.197414 -25.268545 39.366989 0.489647 2.267733 0.048635 -0.004851 291726.000000 0 0 1
-25.268440 -13.831314 -25.416045 38.415813 0.500826 2.293752 0.044902 -0.004720 654988.000000 0 0 1
-24.449140 -14.076414 -24.299345 37.233910 0.522392 2.281825 0.034107 -0.003048 191183.000000 0 0 1
-23.755340 -15.494114 -24.286045 37.338931 0.577946 2.278936 0.040445 -0.003442 -447303.000000 0 0 1
-22.930240 -15.752714 -25.397545 37.669341 0.601937 2.310709 0.068939 0.000217 149325.000000 0 0 1
-22.547540 -17.100414 -25.367645 38.004383 0.648866 2.301633 0.080130 -0.004383 -326986.000000 0 0 1
-21.666440 -17.475014 -26.547845 38.465554 0.678721 2.332523 0.075623 -0.001957 -161153.000000 0 0 1
-22.309840 -17.391314 -27.817345 39.673561 0.662137 2.347813 0.087547 -0.005636 275887.000000 0 0 1
-23.172340 -18.488114 -28.058345 40.817134 0.673430 2.328721 0.090315 -0.009391 41900.600000 0 0 1
-23.737640 -18.531514 -29.501245 42.157040 0.662849 2.345905 0.080164 -0.012716 710268.000000 0 0 1
-22.685240 -18.887514 -30.436845 42.399998 0.694300 2.371506 0.084920 -0.009554 871750.000000 0 0 1
-23.100840 -18.845014 -31.817645 43.602132 0.684284 2.388719 0.067130 -0.009018 -234074.000000 0 0 1
-22.130540 -19.386714 -32.922745 44.153286 0.719405 2.412301 0.068435 -0.014098 184857.000000 0 0 1
-20.924940 -18.582914 -32.975145 43.249717 0.726187 2.437866 0.062052 -0.006702 1238710.000000 0 0 1
-19.696640 -19.280714 -32.786545 42.832944 0.774728 2.442539 0.043706 -0.012270 353249.000000 0 0 1
-19.344440 -20.339314 -33.827645 43.956850 0.810463 2.448956 0.032097 -0.012010 -1439050.000000 0 0 1
-19.083240 -19.882714 33.380304 43.286685 0.805913 0.690159 0.037743 -0.009672 9083.560000 0 0 1
-19.100140 -20.921714 32.388504 43.029625 0.830881 0.718639 0.026679 -0.015963 -356373.000000 0 0 1
-20.483740 -21.361414 31.852704 43.479747 0.806369 0.748681 0.028280 -0.004816 129122.000000 0 0 1
-21.181240 -22.101814 32.850904 44.903419 0.806664 0.750145 0.034583 -0.007851 124310.000000 0 0 1
-22.412140 -22.710714 32.474004 45.526273 0.792015 0.776597 0.035892 -0.001079 185232.000000 0 0 1
-22.381840 -23.998114 31.637504 45.582759 0.820233 0.803673 0.032531 0.006548 -393669.000000 0 0 1
-21.678640 -25.038814 32.263804 46.236984 0.857200 0.798486 0.038118 0.008696 -258170.000000 0 0 1
-21.772240 -26.220424 31.473304 46.390839 0.877819 0.825162 0.038784 0.018621 12059.800000 0 0 1
-21.358740 -27.539384 32.128904 47.401265 0.911130 0.826021 0.041199 0.001150 367269.000000 0 0 1
-22.249240 -27.870714 33.191304 48.718252 0.897092 0.821272 0.026949 -0.004873 312351.000000 0 0 1
-21.670040 -28.963104 33.844104 49.536607 0.928452 0.818641 0.032697 -0.018755 125386.000000 0 0 1
-22.684840 -29.651484 -33.671645 50.275165 0.917733 2.304664 0.029859 -0.022483 661900.000000 0 0 1
-23.701540 -30.443624 34.196504 51.555583 0.909279 0.845585 0.021313 -0.014950 545691.000000 0 0 1
-24.845940 -29.808384 33.661104 51.370521 0.875947 0.856268 0.018197 -0.013297 -174183.000000 0 0 1
-25.935240 -29.377814 -33.812345 51.758742 0.847556 2.282689 0.004350 -0.011535 -1077180.000000 0 0 1
-26.677190 -28.387264 34.114504 51.781354 0.816444 0.851549 0.015054 -0.007347 -856334.000000 0 0 1
-27.796030 -28.280044 -33.546145 51.939619 0.794029 2.272956 0.012054 0.001896 -540375.000000 0 0 1
-28.825120 -27.219194 -33.939545 52.188742 0.756751 2.278806 0.006137 -0.005264 234951.000000 0 0 1
-29.840220 -27.805144 33.729004 52.926463 0.750109 0.879832 0.003180 -0.008036 397362.000000 0 0 1
-30.761260 -26.816054 33.242704 52.634905 0.716985 0.887218 0.007361 -0.005633 253644.000000 0 0 1
