# x y z rho theta phi s1 s2 stress_xx np intf bulk
-0.775438 -10.801505 -14.367292 17.991467 1.499129 2.495698 0.000365 -0.000749 1523660.000000 1 0 0
2.182562 -13.450205 -13.061892 18.875503 -1.409929 2.335055 -0.002999 0.008287 642515.000000 1 0 0
2.088162 -11.166305 -14.673392 18.556811 -1.385926 2.482794 -0.004480 0.005211 116312.000000 1 0 0
-5.559238 -6.246805 -16.389792 18.399809 0.843571 2.669808 0.017972 -0.010077 -842291.000000 1 0 0
4.470862 -14.045505 -11.436492 18.656317 -1.262625 2.230660 -0.002388 0.004442 -149451.000000 1 0 0
14.097262 -10.779005 -7.887592 19.419934 -0.652790 1.989044 0.049458 -0.010959 -199740.000000 1 0 0
7.140362 10.843895 -10.795892 16.885678 0.988491 2.264452 0.022418 -0.013755 280154.000000 1 0 0
5.702362 -4.174105 -12.617692 14.461889 -0.631878 2.631049 0.001180 0.000720 1871550.000000 1 0 0
13.709462 0.457595 -9.998692 16.974469 0.033366 2.200670 0.012860 0.002175 1026040.000000 1 0 0
14.089362 5.112095 -10.318992 18.196847 0.348062 2.173748 0.003567 0.000652 -618186.000000 1 0 0
4.122562 4.408395 -13.487492 14.776397 0.818891 2.720818 0.008356 0.002631 1710290.000000 1 0 0
10.356662 -4.980105 -13.729192 17.903983 -0.448219 2.444674 0.022997 -0.003251 -563109.000000 1 0 0
2.603962 -7.533205 -12.071092 14.465167 -1.237989 2.558010 -0.003078 0.001360 954456.000000 1 0 0
-5.542838 -1.950505 -15.151292 16.250821 0.338363 2.771628 0.017497 -0.008668 705218.000000 1 0 0
10.719862 -0.039705 -9.665092 14.433677 -0.003704 2.304495 0.010518 0.002120 1516930.000000 1 0 0
-1.589338 -9.510405 -16.958892 19.508404 1.405211 2.624605 0.018887 -0.007168 2008150.000000 1 0 0
8.786162 1.832795 -17.966492 20.083591 0.205651 2.678299 0.022225 -0.006974 -862654.000000 1 0 0
16.508062 -6.052805 -8.867192 19.692122 -0.351437 2.037888 0.062111 -0.002762 -2305020.000000 1 0 0
10.132462 7.542495 -9.878892 16.035852 0.639901 2.234515 0.013123 -0.003329 485240.000000 1 0 0
13.965562 -2.354005 -10.613592 17.698209 -0.166988 2.213921 0.027675 0.001890 -436569.000000 1 0 0
7.279562 -1.878205 -13.761692 15.681322 -0.252504 2.641598 0.011850 0.003120 532407.000000 1 0 0
-2.775838 6.656895 -13.861092 15.625281 -1.175732 2.661807 0.010027 -0.004896 -575105.000000 1 0 0
11.275862 1.900495 -13.986992 18.066347 0.166976 2.456249 0.005791 0.002925 473322.000000 1 0 0
-2.274338 10.683695 -12.920992 16.919397 -1.361048 2.439789 0.010914 -0.000665 -458935.000000 1 0 0
2.889562 -0.987305 -15.318992 15.620367 -0.329243 2.944839 0.009785 -0.003189 724894.000000 1 0 0
-8.971438 0.464095 -15.276192 17.721855 -0.051684 2.609993 0.027587 -0.003953 -200644.000000 1 0 0
2.384062 -1.760305 -18.036292 18.278136 -0.636012 2.978739 0.017097 -0.011293 835803.000000 1 0 0
1.052462 7.895795 -13.189992 15.408672 1.438283 2.598300 0.010867 -0.005095 362950.000000 1 0 0
9.435162 -9.176705 -9.894192 16.466002 -0.771512 2.215406 0.022267 0.001005 -464242.000000 1 0 0
3.988662 7.374595 -13.605792 15.981604 1.074993 2.589332 0.013854 -0.004698 642628.000000 1 0 0
-2.672438 9.126495 -15.546692 18.224557 -1.285938 2.592623 0.009263 -0.003614 97281.400000 1 0 0
5.562262 -7.695805 -15.309792 18.015380 -0.944954 2.586436 0.006484 -0.004881 -616319.000000 1 0 0
4.288962 7.250995 -16.466992 18.496864 1.036650 2.668709 0.024792 -0.007151 939922.000000 1 0 0
-0.233738 5.111995 -13.480692 14.419299 -1.525105 2.778791 0.011966 -0.004963 899320.000000 1 0 0
8.901862 4.425695 -16.610692 19.358332 0.461377 2.602285 0.015320 -0.002998 -1116450.000000 1 0 0
5.447262 0.383695 -14.402492 15.402976 0.070322 2.779185 0.004011 0.002722 1383710.000000 1 0 0
6.279062 7.968595 -11.576492 15.392865 0.903430 2.421992 0.005677 -0.004564 142119.000000 1 0 0
2.832262 -8.445005 -15.031892 17.472767 -1.247207 2.606662 -0.000883 -0.000979 -346210.000000 1 0 0
3.992962 11.486495 -13.847492 18.429226 1.236241 2.420959 0.033022 -0.017500 -2252210.000000 1 0 0
0.616862 -4.554605 -13.775392 14.521927 -1.436178 2.819555 0.005777 -0.002196 1542850.000000 1 0 0
8.507362 -0.139505 -11.680992 14.451306 -0.016397 2.512055 0.000441 0.003362 1009750.000000 1 0 0
-0.922538 -5.047705 -16.347092 17.133529 1.390028 2.837435 0.005172 -0.009671 -169649.000000 1 0 0
4.498862 0.931095 -11.693592 12.563710 0.204081 2.767237 0.000620 0.001115 880624.000000 1 0 0
-2.853838 -7.203705 -15.553892 17.377034 1.193602 2.679414 0.010777 -0.008752 2821640.000000 1 0 0
11.459562 -3.866305 -11.331492 16.573249 -0.325394 2.323647 0.021054 -0.003010 784874.000000 1 0 0
6.447062 -6.993605 -12.589492 15.778797 -0.826039 2.494557 0.005607 -0.002565 -617018.000000 1 0 0
3.415762 -3.932705 -14.698892 15.594583 -0.855629 2.801021 0.010108 -0.003358 1125400.000000 1 0 0
-0.511238 -1.465405 -18.304192 18.369873 1.235127 3.057004 0.019529 -0.019616 -926754.000000 1 0 0
14.913662 2.893495 -8.462592 17.389799 0.191636 2.079037 0.002303 0.002476 -1166920.000000 1 0 0
6.950262 4.442895 -14.387192 16.584232 0.568775 2.620996 0.009454 0.000997 2907920.000000 1 0 0
10.022562 -9.726405 -14.117792 19.858670 -0.770403 2.361592 0.031319 -0.011209 346811.000000 1 0 0
9.046962 -3.150105 -15.612892 18.317562 -0.335066 2.591250 0.022997 -0.005791 -1820410.000000 1 0 0
-5.189538 -2.084905 -18.066592 18.912427 0.382015 2.841389 0.015234 -0.005905 -942662.000000 1 0 0
5.073962 -9.056505 -11.154092 15.237426 -1.060113 2.392078 -0.002431 0.001478 1827350.000000 1 0 0
-2.436538 3.980795 -17.248792 17.869087 -1.021547 2.877335 0.014295 -0.001326 2145550.000000 1 0 0
9.738962 9.332195 -14.404392 19.733823 0.764072 2.389022 0.047317 -0.015579 372559.000000 1 0 0
9.892062 10.026995 -11.507992 18.188662 0.792172 2.255833 0.023099 -0.013759 -744674.000000 1 0 0
12.065362 -6.029805 -9.655592 16.588007 -0.463457 2.192084 0.025521 -0.000604 -965335.000000 1 0 0
8.205762 7.032595 -13.700892 17.450111 0.708562 2.473729 0.012111 0.000522 -571639.000000 1 0 0
4.028162 -4.135405 -17.629392 18.550556 -0.798534 2.825133 0.022472 -0.013241 431787.000000 1 0 0
9.342462 -7.458105 -12.407292 17.229214 -0.673705 2.374788 0.022656 -0.006039 784545.000000 1 0 0
12.108062 -8.799005 -8.884892 17.406004 -0.628426 2.106504 0.035058 -0.001181 1033850.000000 1 0 0
-2.906338 -2.463605 -13.911992 14.424274 0.703138 2.874282 0.009389 -0.005934 -2068240.000000 1 0 0
-0.375038 6.202695 -17.745092 18.801659 -1.510406 2.804755 0.028141 -0.006286 2752360.000000 1 0 0
1.205362 -8.448505 -17.422192 19.400075 -1.429081 2.686107 0.010575 -0.010703 2302300.000000 1 0 0
0.083462 8.645995 -15.970692 18.161036 1.561143 2.645383 0.018600 -0.007958 393003.000000 1 0 0
1.811162 3.493595 -14.952892 15.462034 1.092519 2.884257 0.016766 -0.003787 2492750.000000 1 0 0
-1.868438 -0.409605 -15.784592 15.900069 0.215809 3.020999 0.013874 -0.009911 975213.000000 1 0 0
14.229562 -4.399905 -8.500792 17.149434 -0.299884 2.089425 0.031198 -0.001859 -65688.100000 1 0 0
0.638362 0.721895 -14.583992 14.615795 0.846731 3.075612 0.008181 -0.005213 563820.000000 1 0 0
8.860862 2.805395 -12.679792 15.721395 0.306620 2.509057 0.001226 0.006114 1604590.000000 1 0 0
6.145362 0.996995 -17.158392 18.252942 0.160834 2.793527 0.017487 0.000805 965108.000000 1 0 0
15.258362 1.488395 -12.333592 19.676139 0.097239 2.248274 0.016697 -0.002469 -405085.000000 1 0 0
8.708862 -11.203905 -11.975992 18.568687 -0.910047 2.271762 0.025613 -0.004201 1297780.000000 1 0 0
-4.487638 0.836295 -15.069892 15.746109 -0.184242 2.847464 0.015258 -0.007120 749635.000000 1 0 0
2.411762 5.168695 -17.326992 18.241619 1.134216 2.823586 0.028028 -0.008101 2809880.000000 1 0 0
5.835962 -11.696505 -12.381292 18.004529 -1.107990 2.329080 -0.000675 0.001844 -419206.000000 1 0 0
12.784262 7.161895 -8.603292 16.992550 0.510650 2.101683 0.009590 -0.000551 -388085.000000 1 0 0
-5.063938 3.613995 -15.840892 17.018763 -0.619844 2.767364 0.016904 -0.002765 2201350.000000 1 0 0
-0.550638 -4.283905 -19.132492 19.613957 1.442961 2.919565 0.018911 -0.017014 -1515660.000000 1 0 0
9.757162 4.390195 -10.272392 14.832332 0.422809 2.335839 -0.003066 0.002210 959097.000000 1 0 0
13.299362 3.649695 -12.778792 18.801352 0.267833 2.318115 0.005864 -0.005683 595200.000000 1 0 0
-6.248238 5.761695 -17.245992 19.226592 -0.744909 2.683701 0.021018 0.003094 202083.000000 1 0 0
-10.132638 3.216295 -15.449192 18.753465 -0.307360 2.538887 0.032723 -0.003019 -185691.000000 1 0 0
10.542562 13.514595 -8.221092 19.009899 0.908316 2.018020 0.047719 -0.014490 958647.000000 1 0 0
7.517462 13.439795 -12.245792 19.674851 1.060808 2.242612 0.050010 -0.024692 -1245140.000000 1 0 0
5.394862 15.186095 -11.322292 19.695592 1.229452 2.183235 0.034611 -0.018980 570023.000000 1 0 0
14.168762 9.354195 -9.978992 19.693529 0.583511 2.102166 0.048094 -0.013205 288959.000000 1 0 0
8.483562 -17.126905 -1.852092 19.202394 -1.110887 1.667398 0.036471 -0.012272 -2064200.000000 1 0 0
0.700062 -15.973005 0.031108 15.988369 -1.526997 1.568851 0.009355 -0.005306 2083690.000000 1 0 0
-9.090038 -11.700905 7.628208 16.665219 0.910321 1.095353 0.040807 -0.015068 1694560.000000 1 0 0
2.027062 -15.905705 -2.632792 16.249062 -1.444037 1.733541 0.014339 -0.005642 1145960.000000 1 0 0
-1.422338 -11.079105 -9.509792 14.669893 1.443115 2.276083 0.000941 -0.001627 1794280.000000 1 0 0
-4.809238 -12.581205 -12.938292 18.676587 1.205680 2.336098 0.025257 -0.010321 117553.000000 1 0 0
-8.219638 -18.039505 -1.531092 19.882918 1.143257 1.647878 0.023256 -0.007559 -687484.000000 1 0 0
-11.288638 -7.134105 -8.835292 16.012220 0.563597 2.155299 0.011648 -0.004643 3630730.000000 1 0 0
-13.466638 -11.497005 -4.640192 18.304722 0.706661 1.827090 0.008164 -0.000856 -952872.000000 1 0 0
-5.697838 -13.512905 9.684408 17.574177 1.171759 0.987164 0.021378 -0.014697 -782941.000000 1 0 0
0.156462 -13.978005 -3.686792 14.456885 -1.559603 1.828665 0.007841 -0.002910 842793.000000 1 0 0
-14.717338 -11.629605 1.959508 18.859677 0.668735 1.466709 0.009356 0.001167 106221.000000 1 0 0
-3.967538 -16.476805 -7.469492 18.520793 1.334499 1.985920 0.002348 -0.006713 -156640.000000 1 0 0
0.420462 -15.220905 -9.245692 17.813915 -1.543179 2.116495 0.003835 0.000187 900909.000000 1 0 0
4.572962 -14.230405 -2.618792 15.174797 -1.259868 1.744240 0.012690 -0.002710 146252.000000 1 0 0
-3.518538 -18.142305 -2.429192 18.639321 1.379233 1.701494 0.014379 -0.010598 -129530.000000 1 0 0
-0.924738 -13.485405 0.707808 13.535593 1.502330 1.518480 0.007162 -0.001272 2646280.000000 1 0 0
-8.554838 -11.377805 -10.486592 17.680733 0.926088 2.205711 0.015534 -0.008935 2232050.000000 1 0 0
-3.633438 -14.197005 -0.385692 14.659658 1.320244 1.597109 0.002977 0.001508 4570330.000000 1 0 0
-1.558438 -14.901005 -7.309892 16.670429 1.466589 2.024719 -0.004355 0.001496 1100560.000000 1 0 0
-14.053738 -7.944205 -1.804892 16.244247 0.514494 1.682136 0.011111 -0.005233 1684160.000000 1 0 0
-10.736238 -7.206805 -11.618192 17.383533 0.591176 2.302778 0.019404 -0.007361 -1466840.000000 1 0 0
-9.492638 -14.668105 6.883108 18.778728 0.996419 1.195512 0.034898 -0.014852 973780.000000 1 0 0
-2.453738 -14.305205 -12.419192 19.102252 1.400922 2.278569 0.018053 -0.002294 -90484.000000 1 0 0
2.294162 -17.798105 -4.829292 18.583804 -1.442604 1.833679 0.024316 -0.008288 353073.000000 1 0 0
-6.687538 -9.654905 -9.249992 14.950007 0.965016 2.237919 0.007299 -0.007223 -66581.700000 1 0 0
-11.011438 -15.430905 0.525908 18.964207 0.951003 1.543061 0.019328 -0.008801 768730.000000 1 0 0
-12.618838 -11.046005 4.149608 17.276242 0.719033 1.328233 0.028141 -0.007891 2372490.000000 1 0 0
-16.927838 -8.795105 -1.558292 19.139849 0.479176 1.652303 0.006211 -0.005362 516162.000000 1 0 0
-1.423138 -19.277905 -4.133292 19.767322 1.497108 1.781448 0.021573 -0.010499 543336.000000 1 0 0
3.194962 -14.187905 -8.722692 16.958472 -1.349302 2.111053 0.003172 0.001816 1689400.000000 1 0 0
-4.214638 -7.896505 -13.007792 15.789890 1.080527 2.538887 0.007981 -0.006793 1568350.000000 1 0 0
5.616462 -16.505605 1.298508 17.483299 -1.242810 1.496457 0.022753 -0.007524 3648030.000000 1 0 0
-2.807038 -13.893705 -3.228292 14.537412 1.371443 1.794731 -0.000641 0.000852 -852127.000000 1 0 0
-0.387038 -14.048705 3.687908 14.529851 1.543254 1.314173 0.007250 -0.001159 -4653760.000000 1 0 0
1.250162 -16.207505 7.076508 17.729159 -1.493814 1.160212 0.021785 -0.014602 2436850.000000 1 0 0
-5.564738 -10.184305 -14.440792 18.526275 1.070719 2.464626 0.025045 -0.014719 1769670.000000 1 0 0
-0.361838 -17.257605 -5.845092 18.224186 1.549833 1.897299 0.016218 -0.008900 -868255.000000 1 0 0
-6.488538 -13.523705 -1.256592 15.052267 1.123447 1.654376 0.004094 0.000315 3110210.000000 1 0 0
-1.679938 -17.838205 -0.115192 17.917506 1.476897 1.577225 0.015797 -0.002329 2491510.000000 1 0 0
-9.412438 -9.800005 -4.805792 14.412832 0.805568 1.910745 0.009268 -0.002450 2202490.000000 1 0 0
-0.695238 -16.687405 4.851908 17.392350 1.529158 1.288077 0.023186 -0.009751 2436890.000000 1 0 0
-6.798938 -9.860305 -6.342292 13.552706 0.967134 2.057791 0.004453 -0.003819 2046440.000000 1 0 0
-6.083238 -14.553905 -8.544392 17.939581 1.174887 2.067224 0.011921 -0.006364 -146199.000000 1 0 0
-5.772038 -12.230105 -10.277492 16.985839 1.129837 2.220641 0.016537 -0.009045 -243491.000000 1 0 0
-10.760938 -12.235605 -8.732092 18.486677 0.849436 2.062746 0.016188 -0.015280 227009.000000 1 0 0
4.054362 -16.986905 6.605208 18.671410 -1.336504 1.209208 0.030866 -0.016411 866477.000000 1 0 0
-6.672238 -14.359605 -4.043592 16.342204 1.135824 1.820826 0.007798 -0.004506 82039.300000 1 0 0
-2.875038 -12.255805 -7.108992 14.457121 1.340377 2.084871 0.001070 -0.003669 1421800.000000 1 0 0
-7.025938 -12.853205 4.380608 15.289159 1.070545 1.280207 0.006839 -0.006070 1424540.000000 1 0 0
2.699162 -16.294205 2.360108 16.684025 -1.406635 1.428861 0.012904 -0.009803 2275620.000000 1 0 0
-6.141338 -12.004005 7.189308 15.280651 1.097906 1.080957 0.009994 -0.006584 748457.000000 1 0 0
-11.164738 -12.916205 -0.998192 17.101933 0.858003 1.629197 0.017002 0.003844 615325.000000 1 0 0
-14.295138 -8.745005 4.745108 17.416719 0.549012 1.294863 0.030584 -0.010747 526677.000000 1 0 0
-8.032438 -15.551005 4.506208 18.073730 1.094019 1.318815 0.024840 -0.006879 965952.000000 1 0 0
-16.430438 -9.217405 1.183308 18.876442 0.511246 1.508068 -0.001646 0.000298 -585006.000000 1 0 0
-6.629238 -17.098205 2.495608 18.507389 1.200925 1.435540 0.021649 -0.010395 1895410.000000 1 0 0
-11.618738 -14.971805 -4.659392 19.515633 0.910836 1.811877 0.028557 0.000934 203081.000000 1 0 0
-10.088338 -9.897405 -12.584292 18.923467 0.775845 2.298303 0.017343 -0.005385 1182430.000000 1 0 0
-4.361438 -16.084405 -4.513492 17.265625 1.306004 1.835284 -0.002354 -0.002376 -1249250.000000 1 0 0
-11.698838 -8.328905 0.004108 14.360831 0.618696 1.570510 0.010042 -0.002340 746449.000000 1 0 0
-9.614738 -11.302605 3.475208 15.240378 0.865916 1.340746 0.014032 -0.000560 1703960.000000 1 0 0
-14.128538 -12.922705 -0.571392 19.155635 0.740852 1.600630 0.011054 0.004602 1867610.000000 1 0 0
5.528062 -14.836105 -7.104892 17.353644 -1.214124 1.992612 0.011859 -0.007503 1876570.000000 1 0 0
-7.373738 -10.627205 -1.311592 13.001145 0.964207 1.671851 0.004368 0.000550 1595610.000000 1 0 0
-11.525738 -8.146905 -6.009492 15.340426 0.615305 1.973321 0.008792 -0.006809 840469.000000 1 0 0
-14.327538 -6.672105 -9.084292 18.229638 0.435820 2.092463 0.032683 -0.010036 893958.000000 1 0 0
-3.844138 -16.500605 1.462108 17.005443 1.341909 1.484711 0.015303 -0.007393 2659870.000000 1 0 0
-7.984338 -15.676505 0.196408 17.593778 1.099722 1.559633 0.023953 -0.008875 2324210.000000 1 0 0
1.216362 -18.489305 3.760808 18.907078 -1.505104 1.370551 0.016332 -0.012405 203048.000000 1 0 0
-14.000838 -8.617705 -4.587792 17.068571 0.551748 1.842929 0.015052 -0.009535 -899249.000000 1 0 0
-3.358738 -14.541205 11.102708 18.601018 1.343797 0.931181 0.005740 -0.011130 546114.000000 1 0 0
-10.718238 -12.178505 -3.833892 16.670193 0.849088 1.802858 0.015479 -0.003832 2514980.000000 1 0 0
-9.925638 -10.781105 0.497908 14.662824 0.826688 1.536833 0.009550 0.002122 2651600.000000 1 0 0
-0.111938 -13.212105 -11.184492 17.310838 1.562324 2.273257 0.001315 -0.000554 45216.700000 1 0 0
-5.871638 -12.647905 -6.304692 15.303423 1.136165 1.995421 -0.000984 -0.004230 2132280.000000 1 0 0
1.735762 -15.715505 9.915308 18.662885 -1.460793 1.010680 0.025419 -0.020619 831830.000000 1 0 0
-8.968238 -15.740305 -5.306792 18.877196 1.052907 1.855759 0.028193 -0.006504 473579.000000 1 0 0
-3.199738 -15.566205 5.897808 16.950787 1.368064 1.215427 0.009248 -0.006211 -1562190.000000 1 0 0
-17.451138 -5.354505 -6.457692 19.362715 0.297710 1.910822 0.033962 -0.013855 324583.000000 1 0 0
18.882562 5.660595 -2.895692 19.924320 0.291254 1.716647 0.029790 -0.005962 814666.000000 1 0 0
12.911662 -12.432505 -5.837192 18.850756 -0.766494 1.885624 0.050703 -0.006584 -1230030.000000 1 0 0
11.091062 -13.530405 -1.554892 17.564202 -0.884150 1.659439 0.037065 -0.012412 1008640.000000 1 0 0
18.671462 -2.974005 4.716008 19.486122 -0.157954 1.326350 0.052018 -0.012216 -139078.000000 1 0 0
8.759062 -16.738805 4.947108 19.529020 -1.088700 1.314685 0.031261 -0.026827 350107.000000 1 0 0
18.106962 -1.001805 6.776508 19.359410 -0.055271 1.213186 0.070221 -0.019050 -939210.000000 1 0 0
17.841562 -4.260905 -5.103792 19.040098 -0.234428 1.842170 0.054236 -0.012326 -689937.000000 1 0 0
5.301162 -11.810405 14.807908 19.668811 -1.148895 0.718396 0.006254 0.000713 -783102.000000 1 0 0
16.003662 -8.844005 -0.822292 18.303273 -0.504855 1.615737 0.044117 -0.008329 -58492.400000 1 0 0
13.901862 -12.521605 -1.353292 18.758565 -0.733210 1.643002 0.042239 -0.007610 1292340.000000 1 0 0
11.248962 -1.756505 13.803608 17.893128 -0.154897 0.689684 0.018670 -0.004057 -781931.000000 1 0 0
16.859562 -5.975305 -1.429592 17.944159 -0.340604 1.650550 0.040659 -0.009654 -816859.000000 1 0 0
17.697762 3.646895 -1.042592 18.099658 0.203221 1.628431 0.019641 -0.006116 100581.000000 1 0 0
9.758062 -11.085205 9.469508 17.543464 -0.848985 1.000628 0.011264 -0.007550 -471490.000000 1 0 0
9.057762 -11.035805 4.257008 14.898126 -0.883524 1.281017 0.005378 -0.008007 1333440.000000 1 0 0
13.946362 -10.056005 6.649708 18.434827 -0.624713 1.201763 0.016589 -0.015937 -580519.000000 1 0 0
16.281562 -0.537805 -4.774092 16.975584 -0.033020 1.855875 0.017174 -0.001773 -1393270.000000 1 0 0
15.727162 -0.496605 -1.734792 15.830343 -0.031566 1.680603 0.013835 -0.002909 1112480.000000 1 0 0
12.849362 -5.176905 -0.247692 13.855245 -0.382997 1.588674 0.010096 -0.004533 1386750.000000 1 0 0
14.265262 -7.576305 1.019908 16.184508 -0.488218 1.507737 0.024665 -0.005035 2828790.000000 1 0 0
15.541262 2.396595 3.587608 16.129024 0.153003 1.346488 0.030058 -0.012312 1091400.000000 1 0 0
15.933962 -7.090005 4.930308 18.123666 -0.418656 1.295287 0.036705 -0.015043 -2560990.000000 1 0 0
13.903162 -12.116005 3.134408 18.706149 -0.716820 1.402442 0.023643 -0.008800 4276.670000 1 0 0
14.037162 -0.794505 9.183708 16.793262 -0.056540 0.992177 0.035237 -0.012125 1427620.000000 1 0 0
14.156162 -2.813005 -1.589492 14.520207 -0.196157 1.680484 0.005467 -0.002299 377260.000000 1 0 0
15.010062 1.996195 9.026508 17.628517 0.132215 1.033238 0.046981 -0.016318 -1983150.000000 1 0 0
14.447462 -10.112805 -3.009092 17.890014 -0.610707 1.739799 0.051103 -0.008956 441488.000000 1 0 0
7.341962 -12.569005 6.115308 15.788644 -1.042126 1.173070 0.005609 -0.008695 39196.500000 1 0 0
12.483662 -4.631205 6.896608 14.995102 -0.355243 1.092887 0.014838 -0.005521 2984950.000000 1 0 0
15.008462 -9.054705 -5.706592 18.433850 -0.542847 1.885539 0.061775 -0.007350 -1183830.000000 1 0 0
14.312162 -4.560005 4.509808 15.683431 -0.308442 1.279126 0.020379 -0.010575 1189400.000000 1 0 0
17.239662 -4.191305 0.975308 17.768630 -0.238493 1.515879 0.035526 -0.010978 -1177550.000000 1 0 0
10.278162 -14.460105 1.182508 17.780145 -0.952862 1.504240 0.031685 -0.015931 1208280.000000 1 0 0
16.378762 -2.454705 8.637408 18.678711 -0.148764 1.090074 0.053225 -0.012770 1113010.000000 1 0 0
16.143562 -2.622705 3.261808 16.677307 -0.161054 1.373944 0.025331 -0.007657 1203090.000000 1 0 0
7.803662 -15.187005 2.712208 17.288676 -1.096140 1.413268 0.014575 -0.015167 1896800.000000 1 0 0
16.627462 -6.962305 7.822808 19.650509 -0.396542 1.161355 0.047102 -0.011645 -943485.000000 1 0 0
10.259262 -8.507405 5.143908 14.285943 -0.692318 1.202456 0.007360 -0.007478 318180.000000 1 0 0
11.071962 -11.883905 2.238308 16.395901 -0.820753 1.433852 0.019801 -0.012750 2140530.000000 1 0 0
12.426162 -7.204605 11.904908 18.655902 -0.525429 0.878728 0.015881 -0.014697 -267402.000000 1 0 0
15.279362 -9.851905 4.178908 18.654281 -0.572700 1.344860 0.028738 -0.013751 18539.500000 1 0 0
7.398462 -10.172305 7.827608 14.815008 -0.941973 1.014133 0.005796 -0.003365 2021540.000000 1 0 0
15.203762 -3.299805 -4.339092 16.151496 -0.213724 1.842787 0.028279 -0.004254 -257342.000000 1 0 0
11.814162 -8.958905 9.737208 17.738366 -0.648804 0.989707 0.007161 -0.009390 -1893510.000000 1 0 0
16.967862 -6.660605 2.247808 18.366400 -0.374061 1.448102 0.039262 -0.009438 307963.000000 1 0 0
17.542762 3.887395 1.869908 18.065351 0.218072 1.467103 0.031387 -0.007934 123289.000000 1 0 0
14.763762 -4.831305 8.741908 17.825014 -0.316257 1.058214 0.033352 -0.010929 928268.000000 1 0 0
12.884762 -12.598605 5.938508 18.973872 -0.774169 1.252464 0.011837 -0.012967 576817.000000 1 0 0
18.236962 0.735095 -0.946292 18.276286 0.040286 1.622597 0.036821 -0.003760 356956.000000 1 0 0
11.697862 -2.019505 10.915108 16.126313 -0.170954 0.827320 0.009896 -0.001171 1190480.000000 1 0 0
5.868962 -12.482205 10.636108 17.417719 -1.131283 0.913917 0.009523 -0.004244 -852835.000000 1 0 0
10.791562 -4.897705 10.972508 16.150581 -0.426047 0.823868 0.007799 -0.003318 1303010.000000 1 0 0
17.889762 1.352295 5.038708 18.634937 0.075447 1.296998 0.053085 -0.012523 -210059.000000 1 0 0
12.309362 -7.688905 7.105508 16.159452 -0.558339 1.115518 0.014318 -0.011009 -1159640.000000 1 0 0
10.747262 -7.773405 14.199208 19.430568 -0.626187 0.751352 0.023025 -0.011174 -1516720.000000 1 0 0
14.241162 -0.316605 3.728908 14.724663 -0.022228 1.314766 0.013454 -0.006499 1758390.000000 1 0 0
11.676262 -7.713005 2.614908 14.235985 -0.583771 1.386064 0.012253 -0.006997 2199830.000000 1 0 0
9.253762 6.122995 3.543708 11.648221 0.584540 1.261669 0.006096 -0.003632 1251060.000000 1 0 0
-4.051738 14.754595 -9.906092 18.227598 -1.302794 2.145358 0.010604 -0.002722 1146750.000000 1 0 0
8.897162 -6.397705 9.237508 14.332539 -0.623412 0.870410 0.002715 -0.003684 -468623.000000 1 0 0
5.810462 -10.502905 -8.478292 14.695371 -1.065481 2.185769 0.002353 -0.002066 1010980.000000 1 0 0
5.397862 1.123995 0.529508 5.539013 0.205296 1.475054 0.003658 -0.000290 3232540.000000 1 0 0
-0.635738 9.902295 10.993408 14.809275 -1.506683 0.734251 0.001508 0.001197 -310845.000000 1 0 0
-6.280038 -5.251805 1.092208 8.259131 0.696469 1.438165 0.003966 -0.000152 2733010.000000 1 0 0
-1.011638 4.005995 -10.914492 11.670371 -1.323437 2.779707 0.011175 -0.003654 1032450.000000 1 0 0
10.906262 5.799095 1.280308 12.418343 0.488702 1.467515 0.003428 -0.001303 1182100.000000 1 0 0
-10.192938 -1.829605 -13.698592 17.172503 0.177606 2.494276 0.024125 -0.003536 1494320.000000 1 0 0
7.472562 10.920395 -6.053092 14.551088 0.970702 1.999826 -0.001145 -0.001446 -531177.000000 1 0 0
-12.376438 -3.013005 -9.607192 15.954703 0.238802 2.216993 0.015850 -0.005070 -23680.600000 1 0 0
-3.864138 -8.665405 2.539908 9.822012 1.151335 1.309231 0.003258 0.001507 -1239490.000000 1 0 0
8.059162 -6.658405 -5.907892 12.007816 -0.690508 2.085186 0.006965 -0.005030 3085450.000000 1 0 0
14.289362 3.111695 -4.160792 15.204628 0.214416 1.847985 0.013936 -0.001190 2144770.000000 1 0 0
-2.546238 -4.796605 9.900308 11.291892 1.082781 0.501708 0.000447 -0.001928 2481470.000000 1 0 0
3.484262 -1.845005 -4.551992 6.022023 -0.486988 2.427810 -0.000455 -0.001903 -3619820.000000 1 0 0
-3.983238 8.451595 -3.485292 9.972107 -1.130371 1.927838 0.002088 -0.001007 71419.900000 1 0 0
5.799962 0.190795 11.662808 13.026782 0.032884 0.461704 0.002529 0.000204 2414160.000000 1 0 0
7.115962 4.721195 12.357908 15.021468 0.585783 0.604682 0.006046 -0.000134 1854050.000000 1 0 0
1.145262 -14.435405 12.544408 19.158672 -1.491625 0.856926 0.005419 -0.008867 1712700.000000 1 0 0
3.004362 8.773595 -9.139692 13.020605 1.240879 2.348915 0.006422 -0.001616 994669.000000 1 0 0
-4.434138 -8.895705 -4.588192 10.947449 1.108383 2.003262 0.002715 -0.001793 794689.000000 1 0 0
5.727862 -6.584305 -4.159092 9.667446 -0.854847 2.015529 0.004430 -0.004932 2120500.000000 1 0 0
-3.217538 3.439895 8.658808 9.856997 -0.818786 0.498203 0.000809 -0.000120 1400830.000000 1 0 0
-3.780738 3.176795 -11.098992 12.147989 -0.698811 2.722967 0.011894 -0.007237 711394.000000 1 0 0
3.137562 -6.223105 8.544008 11.025942 -1.103811 0.684239 0.001111 0.002627 335090.000000 1 0 0
-5.142538 -8.648605 10.474908 14.524729 1.034350 0.765296 0.005467 -0.005150 2088320.000000 1 0 0
-13.194638 -2.476505 6.558708 14.941492 0.185532 1.116356 0.025517 -0.007540 -1065360.000000 1 0 0
3.952862 -5.793405 -8.377492 10.925705 -0.972046 2.444589 0.002673 -0.003562 3014540.000000 1 0 0
2.942862 -0.531005 12.361008 12.717583 -0.178517 0.237360 0.002523 0.001762 842936.000000 1 0 0
1.472562 -1.429505 -7.549392 7.823378 -0.770562 2.876158 0.002767 -0.002709 -465258.000000 1 0 0
3.597962 -3.510605 3.467508 6.106823 -0.773110 0.966955 0.001198 0.002129 2637410.000000 1 0 0
1.585262 0.393195 -11.855092 11.967074 0.243125 3.004683 0.006510 -0.003288 56646.200000 1 0 0
4.059962 3.603195 -10.613592 11.921185 0.725863 2.668830 0.001268 0.002299 1124030.000000 1 0 0
2.823162 3.301395 3.294108 5.451660 0.863325 0.921985 -0.000652 0.001803 20436.400000 1 0 0
-5.392438 0.909495 2.625408 6.066163 -0.167089 1.123205 -0.000676 -0.002151 -11878.400000 1 0 0
-9.416838 -9.389205 5.714008 14.473558 0.783929 1.164958 0.017830 -0.003701 -1785110.000000 1 0 0
-3.096438 3.845095 -0.630892 4.977018 -0.892835 1.697899 -0.000023 -0.004089 -1008190.000000 1 0 0
-15.916438 -6.502205 5.002608 17.906360 0.387831 1.287652 0.052914 -0.020542 -204706.000000 1 0 0
1.045962 6.709595 -8.147692 10.606488 1.416151 2.446790 0.004201 -0.000981 1235630.000000 1 0 0
-1.634938 6.508295 -9.479592 11.614370 -1.324681 2.525591 0.009260 -0.003194 1491710.000000 1 0 0
2.039162 -0.380405 5.253408 5.648113 -0.184430 0.376064 0.003471 0.001046 3654820.000000 1 0 0
-3.445438 -0.607605 -6.282192 7.190700 0.174556 2.633461 0.010343 -0.006721 1089520.000000 1 0 0
1.942362 -1.097205 -2.387392 3.267456 -0.514197 2.390081 0.002449 -0.003010 1014510.000000 1 0 0
2.353262 -8.466705 -7.814392 11.759577 -1.299696 2.297638 0.000465 -0.000580 3025050.000000 1 0 0
-2.495938 13.969995 -5.528292 15.229987 -1.393998 1.942268 0.002836 -0.001542 1391920.000000 1 0 0
6.881862 -5.129505 -8.236292 11.895728 -0.640529 2.335570 0.006131 -0.004604 3766740.000000 1 0 0
-14.106638 -4.989805 -2.168992 15.119521 0.339985 1.714749 0.010858 -0.007549 -1532220.000000 1 0 0
-2.723938 6.910995 -6.823392 10.086643 -1.195347 2.313766 0.007397 -0.002116 -1607170.000000 1 0 0
-5.696338 -1.055305 -8.155392 10.003617 0.183183 2.523947 0.012340 -0.008438 -560164.000000 1 0 0
-5.699438 -10.676005 3.432308 12.579404 1.080433 1.294441 0.002262 0.000315 -3523080.000000 1 0 0
8.110962 -7.462905 6.633508 12.864139 -0.743810 1.029020 0.005988 -0.004713 806211.000000 1 0 0
8.916062 -5.899605 13.099608 16.908614 -0.584544 0.684509 0.010969 -0.001007 1259800.000000 1 0 0
-4.734538 9.490795 -0.781692 10.634947 -1.108065 1.644365 0.000744 -0.000985 342671.000000 1 0 0
2.727362 6.737295 12.149508 14.157690 1.186145 0.539129 0.006373 -0.000818 434201.000000 1 0 0
6.038762 -2.761105 10.851708 12.722025 -0.428850 0.549117 0.003786 0.000000 -763297.000000 1 0 0
-9.605838 -6.522505 -1.120292 11.664915 0.596503 1.666984 0.008300 -0.003259 628773.000000 1 0 0
0.947162 -13.386305 6.222208 14.792097 -1.500158 1.136641 0.006703 -0.002952 331754.000000 1 0 0
-0.455738 -3.164505 8.746208 9.312247 1.427764 0.350458 -0.000591 -0.000338 1711480.000000 1 0 0
4.187062 0.770895 3.294708 5.383388 0.182075 0.912192 0.000187 0.002927 1586290.000000 1 0 0
-10.298738 5.551395 8.410008 14.408686 -0.494387 0.947547 0.003751 -0.007245 1245330.000000 1 0 0
9.285762 7.930895 0.014208 12.211662 0.706865 1.569633 0.002076 -0.000917 868267.000000 1 0 0
4.286262 2.925795 8.159808 9.670304 0.598951 0.566470 0.001728 -0.001644 4264650.000000 1 0 0
1.376362 2.651695 -9.800292 10.245564 1.092025 2.845692 0.008705 -0.003728 2136820.000000 1 0 0
-1.424338 -10.184905 2.981108 10.707382 1.431850 1.288652 0.003246 -0.000814 -2480550.000000 1 0 0
-10.016038 9.495095 9.135208 16.550827 -0.758705 0.986097 0.010790 -0.010265 1990100.000000 1 0 0
9.849962 -2.073905 -7.676492 12.659043 -0.207518 2.222326 0.010807 0.000133 2681830.000000 1 0 0
-5.240138 -1.866805 6.770308 8.762481 0.342233 0.687796 -0.001170 -0.000706 328128.000000 1 0 0
3.177062 -7.808205 -5.033592 9.818291 -1.184366 2.109094 0.000416 -0.002789 1636100.000000 1 0 0
-5.039538 4.871195 -13.195392 14.941347 -0.768414 2.653323 0.010361 -0.007556 2591300.000000 1 0 0
-5.686438 9.565495 5.483308 12.405682 -1.034450 1.112970 -0.000184 0.000429 864011.000000 1 0 0
-0.419738 -1.774805 -9.417492 9.592459 1.338565 2.950304 0.006552 -0.005070 812253.000000 1 0 0
-16.773638 0.020495 6.362608 17.939847 -0.001222 1.208242 0.036431 -0.016592 -573672.000000 1 0 0
-5.849838 -2.822405 4.075808 7.668036 0.449530 1.010388 -0.002236 0.003488 2201420.000000 1 0 0
1.021762 -5.632905 -5.135392 7.690635 -1.391356 2.301973 0.001855 -0.002689 892622.000000 1 0 0
-7.026538 1.458095 -8.498192 11.122839 -0.204609 2.440334 0.008747 -0.005738 -402074.000000 1 0 0
8.101062 2.003995 4.731408 9.593197 0.242506 1.055027 0.000381 -0.002011 410725.000000 1 0 0
0.512762 -8.087305 -0.598392 8.125607 -1.507478 1.644506 -0.001238 0.001182 -189827.000000 1 0 0
5.420162 5.519995 -3.481092 8.483308 0.794523 1.993630 -0.003229 0.001172 30142.400000 1 0 0
-0.669438 -0.370705 -1.221592 1.441477 0.505722 2.581976 0.000097 -0.002942 64706.200000 1 0 0
9.087662 6.302495 -6.334992 12.745163 0.606365 2.090993 -0.002737 -0.000197 1006170.000000 1 0 0
-14.931138 -7.135105 2.481708 16.733424 0.445785 1.421939 0.008980 -0.008400 1542530.000000 1 0 0
-6.489338 6.823095 8.924908 12.973824 -0.810464 0.812182 0.000873 0.000441 -217750.000000 1 0 0
-9.397238 -3.134005 -9.600692 13.795048 0.321903 2.340541 0.007073 -0.004670 348404.000000 1 0 0
14.862862 3.477395 -1.205692 15.311781 0.229831 1.649621 0.009592 -0.002574 1215530.000000 1 0 0
11.987762 1.635395 -5.823492 13.427361 0.135585 2.019395 0.009686 0.000082 102718.000000 1 0 0
1.664062 -9.432805 12.794708 15.982849 -1.396181 0.642622 -0.001782 -0.001757 -680179.000000 1 0 0
-3.662538 6.363695 7.905908 10.789540 -1.048559 0.748459 -0.000127 0.001561 374291.000000 1 0 0
-4.065938 13.040295 -12.389692 18.441411 -1.268551 2.307488 0.001710 -0.001093 1122490.000000 1 0 0
-10.334538 7.702695 6.552008 14.459011 -0.640509 1.100508 0.003469 -0.008067 1274710.000000 1 0 0
8.149762 -9.309005 -7.182492 14.306096 -0.851700 2.096773 0.011781 -0.002642 1104990.000000 1 0 0
5.795762 -3.793705 -0.319592 6.934349 -0.579578 1.616901 0.003023 -0.002462 -888488.000000 1 0 0
-1.606838 -4.481005 4.151908 6.316618 1.226491 0.853567 -0.002115 0.003754 1012570.000000 1 0 0
9.885362 -2.039505 -2.694192 10.446944 -0.203461 1.831637 0.003249 -0.001398 -2265980.000000 1 0 0
13.535962 7.007195 1.521108 15.317860 0.477685 1.471330 0.008611 -0.004531 -1864710.000000 1 0 0
5.417462 -3.725805 -3.263892 7.340539 -0.602450 2.031568 0.003370 -0.004576 -1884000.000000 1 0 0
-12.163938 -5.944605 1.889608 13.670052 0.454573 1.432123 0.008934 -0.003329 987385.000000 1 0 0
3.700662 -5.741805 -0.328292 6.838932 -0.998289 1.618818 0.002828 -0.000873 -1296110.000000 1 0 0
-5.251838 3.695495 -8.697192 10.811089 -0.613176 2.505578 0.010011 -0.006901 1591680.000000 1 0 0
-1.680438 -9.280605 7.246408 11.893861 1.391667 0.915674 0.000792 -0.000768 2128730.000000 1 0 0
-7.399438 -7.526105 2.512108 10.849176 0.793885 1.337127 0.006533 0.000630 -3689630.000000 1 0 0
-5.815738 13.008395 -8.408692 16.545309 -1.150377 2.103916 0.010923 -0.009501 967107.000000 1 0 0
9.238162 -13.855105 -4.085192 17.146322 -0.982722 1.811365 0.029327 -0.004678 2205570.000000 1 0 0
-6.426738 -5.075105 -6.742092 10.607330 0.668420 2.259591 0.006493 -0.003924 2149670.000000 1 0 0
3.428662 0.422895 -6.227892 7.121882 0.122721 2.635144 0.000450 -0.004406 619153.000000 1 0 0
-3.697938 5.662795 4.970608 8.393386 -0.992299 0.937003 -0.000103 0.001738 -355014.000000 1 0 0
-2.742438 -10.863105 -2.872792 11.566371 1.323509 1.821798 0.004550 0.000286 1393310.000000 1 0 0
-12.551038 -0.487305 1.746108 12.681282 0.038806 1.432666 0.007952 -0.005425 1508940.000000 1 0 0
8.427862 -12.029705 -6.058292 15.888535 -0.959676 1.961998 0.017425 -0.008977 -288127.000000 1 0 0
6.129062 3.964495 1.058208 7.375800 0.574147 1.426829 0.001820 -0.000939 -478863.000000 1 0 0
3.484862 -4.773205 -11.051392 12.532399 -0.940161 2.650516 0.001073 -0.001127 -437324.000000 1 0 0
-7.702138 4.270795 8.615308 12.320152 -0.506288 0.796398 0.001765 -0.002918 2031390.000000 1 0 0
8.110762 8.800495 4.092808 12.648488 0.826161 1.241285 0.011379 -0.003392 2876510.000000 1 0 0
0.290262 10.682795 -6.468392 12.491856 1.543632 2.115084 0.003960 0.002525 2193160.000000 1 0 0
5.333262 8.084095 3.270508 10.222158 0.987616 1.245127 0.004132 0.000136 1984400.000000 1 0 0
8.062462 6.671895 -3.806392 11.135803 0.691301 1.919645 -0.000302 -0.000234 319762.000000 1 0 0
10.531262 2.480395 -8.280992 13.624782 0.231311 2.224070 0.002751 0.001263 1022530.000000 1 0 0
3.411562 -12.470805 -0.323992 12.933085 -1.303766 1.595850 0.004806 -0.005472 -1548750.000000 1 0 0
0.614262 2.154495 5.211308 5.672468 1.293058 0.406015 0.002684 0.000908 170595.000000 1 0 0
-4.916338 13.316995 1.530608 14.277798 -1.217140 1.463388 -0.000360 -0.001398 5882.320000 1 0 0
8.176362 4.044695 -8.049892 12.166069 0.459384 2.293837 -0.004307 0.001896 -199830.000000 1 0 0
-13.926838 -0.668605 -3.445092 14.362190 0.047972 1.813031 0.007400 -0.006140 1430460.000000 1 0 0
-8.526638 -0.055405 -0.440692 8.538198 0.006498 1.622433 0.005234 -0.004859 -173519.000000 1 0 0
1.767662 -3.801305 -1.101292 4.334442 -1.135527 1.827692 0.003245 -0.002137 -1878070.000000 1 0 0
8.075262 -5.580005 -0.353892 9.821993 -0.604660 1.606835 0.004771 -0.004175 2662610.000000 1 0 0
-2.285038 -1.165105 7.468908 7.897053 0.471524 0.330796 0.001068 -0.000231 1911760.000000 1 0 0
-5.831538 8.832695 -11.684892 15.765787 -0.987269 2.405586 0.007468 -0.002946 -831939.000000 1 0 0
-6.228538 9.067995 -8.829492 14.106139 -0.968937 2.247123 0.012304 -0.003669 71807.900000 1 0 0
-1.634638 14.020395 -8.373992 16.412412 -1.454730 2.106241 0.008445 0.000644 -437159.000000 1 0 0
-1.569138 7.144495 9.788908 12.220013 -1.354600 0.641740 -0.001806 -0.000629 1323310.000000 1 0 0
10.040862 2.301595 -3.981592 11.043973 0.225330 1.939624 0.001456 -0.000013 -2045010.000000 1 0 0
-3.004638 -7.515505 -6.983892 10.690435 1.190469 2.282710 0.006286 -0.002832 1079250.000000 1 0 0
-5.507738 -5.062405 -1.629792 7.656327 0.743292 1.785306 0.005299 -0.000453 -981523.000000 1 0 0
5.700162 7.384095 -8.853992 12.861178 0.913394 2.330115 -0.002200 0.000039 713742.000000 1 0 0
-9.639738 5.183895 -7.468292 13.250385 -0.493400 2.169568 0.002471 -0.002644 531213.000000 1 0 0
-0.428038 6.126495 -5.375592 8.161749 -1.501043 2.289796 0.007023 -0.002268 -161701.000000 1 0 0
-8.230038 2.798495 -6.367692 10.775556 -0.327769 2.203018 0.004404 -0.002777 1052520.000000 1 0 0
3.711262 1.450495 -2.037092 4.475170 0.372582 2.043392 0.000918 -0.002793 3369600.000000 1 0 0
-6.849738 12.509295 -3.414792 14.664999 -1.069819 1.805807 0.007222 -0.001061 2129810.000000 1 0 0
-6.634138 3.106095 -2.338892 7.689605 -0.437885 1.879856 0.004438 -0.003591 -552164.000000 1 0 0
12.059462 4.017295 -0.731892 12.732045 0.321562 1.628312 0.002312 0.000312 472223.000000 1 0 0
2.333362 12.445895 -5.570992 13.834047 1.385467 1.985263 0.004536 -0.003311 313077.000000 1 0 0
-9.185538 -1.415805 -4.275192 10.230145 0.152931 2.001930 0.003122 -0.002580 -318398.000000 1 0 0
-1.245438 5.686395 3.488508 6.786449 -1.355180 1.030908 0.000866 0.000141 1699730.000000 1 0 0
11.585262 2.717695 11.997008 16.897703 0.230416 0.781328 0.021534 -0.002729 582022.000000 1 0 0
-7.077038 -2.281205 -5.787792 9.422680 0.311823 2.232220 0.008141 -0.004587 401828.000000 1 0 0
7.549362 -7.338605 10.922008 15.170308 -0.771243 0.767052 0.003496 -0.000973 215930.000000 1 0 0
-5.510738 -1.954505 -10.934792 12.399919 0.340831 2.650555 0.014148 -0.005206 26870.500000 1 0 0
0.805562 -6.257205 4.451308 7.721119 -1.442759 0.956345 -0.003223 0.003502 -292005.000000 1 0 0
-4.806238 -9.347905 7.445608 12.881006 1.095892 0.954484 -0.000945 -0.001259 2285930.000000 1 0 0
-8.804338 9.189095 1.593108 12.825515 -0.806778 1.446261 0.003440 -0.002268 719705.000000 1 0 0
-8.183138 7.111195 -9.197492 14.217127 -0.715425 2.274348 0.010373 -0.004326 -163045.000000 1 0 0
-1.283938 -10.650605 -0.143692 10.728678 1.450825 1.584190 0.003233 -0.000477 199058.000000 1 0 0
-3.954438 10.219495 7.820808 13.462567 -1.201590 0.950926 -0.000107 0.001995 1702240.000000 1 0 0
-7.545738 11.885895 1.988608 14.218552 -1.005147 1.430476 -0.000064 -0.006776 696453.000000 1 0 0
-8.058538 -8.323205 -2.853492 11.931395 0.801553 1.812295 0.006543 -0.004365 -470372.000000 1 0 0
5.429662 4.625495 -7.995092 10.714380 0.705592 2.413135 0.000037 0.002693 1790250.000000 1 0 0
-8.969638 -0.128605 -10.227692 13.604287 0.014337 2.421583 0.014412 -0.007369 -942566.000000 1 0 0
-15.274338 -2.351405 -1.472092 15.524225 0.152746 1.665765 0.008863 -0.007430 -660861.000000 1 0 0
-7.200138 -5.772605 8.832808 12.774327 0.675798 0.807302 0.008422 -0.002822 -1040830.000000 1 0 0
8.086762 3.463095 -1.011492 8.855048 0.404614 1.685274 -0.000754 0.000110 -238936.000000 1 0 0
11.885662 7.189395 -5.814992 15.058901 0.544000 1.967250 0.003825 -0.001686 891831.000000 1 0 0
3.714562 13.405995 -9.514592 16.853669 1.300495 2.170674 0.011143 -0.006238 131379.000000 1 0 0
-9.779838 5.384195 -0.428492 11.172215 -0.503258 1.609159 0.002305 -0.004462 1291470.000000 1 0 0
11.297462 -1.359305 -5.248092 12.530875 -0.119744 2.002934 0.013712 -0.002341 -1065600.000000 1 0 0
10.550162 1.682495 -1.244292 10.755695 0.158144 1.686743 0.001816 -0.000524 -1387650.000000 1 0 0
14.615262 5.019395 4.803708 16.182578 0.330815 1.269410 0.022074 -0.016201 2864910.000000 1 0 0
0.920562 -0.774405 10.314508 10.384421 -0.699381 0.116104 0.002920 0.001386 2112870.000000 1 0 0
-7.916938 1.413795 -12.542492 14.899357 -0.176716 2.571432 0.011769 -0.006664 770964.000000 1 0 0
3.095562 -11.419805 -7.862692 14.206209 -1.306088 2.157320 -0.002546 -0.001599 5.432760 1 0 0
2.970862 5.069495 -6.801392 8.988033 1.040714 2.429072 0.000330 0.000001 -1952730.000000 1 0 0
6.426762 8.027295 0.544808 10.297454 0.895681 1.517865 0.001918 -0.000369 -718810.000000 1 0 0
-9.018338 -5.409205 6.717608 12.478628 0.540273 1.002343 0.004532 0.000567 -1337630.000000 1 0 0
-0.251738 -6.834305 -11.842792 13.675629 1.533979 2.617899 0.004775 -0.000203 2143540.000000 1 0 0
6.424162 -13.267005 -4.588792 15.438273 -1.119851 1.872592 0.014175 -0.005680 2792090.000000 1 0 0
-3.280338 -0.284805 10.052108 10.577646 0.086605 0.316546 0.002626 -0.001513 -233062.000000 1 0 0
8.529762 8.420895 6.971208 13.866004 0.778976 1.044013 0.011399 -0.005184 175599.000000 1 0 0
-7.991538 5.719495 -2.639392 10.175642 -0.621181 1.833180 0.004883 -0.005058 1170170.000000 1 0 0
-5.353838 5.837195 -6.469892 10.227215 -0.828563 2.255722 0.006327 -0.002896 -1165800.000000 1 0 0
3.338562 -13.601605 2.557108 14.236869 -1.330101 1.390205 0.008513 -0.008003 -1780720.000000 1 0 0
-11.246838 -7.067605 6.523808 14.798732 0.561046 1.114267 0.021976 -0.005727 305491.000000 1 0 0
-12.816638 -3.654405 -6.719192 14.925429 0.277759 2.037768 0.007127 -0.007292 406397.000000 1 0 0
6.045862 0.331995 -7.301592 9.485564 0.054858 2.449259 -0.001123 0.000968 19474.700000 1 0 0
-1.480938 2.104195 -2.471892 3.568062 -0.957523 2.336137 0.003576 -0.003288 1970610.000000 1 0 0
7.570862 0.927095 -4.959892 9.098241 0.121849 2.147363 0.000585 -0.000107 -166238.000000 1 0 0
3.737562 -4.479305 10.883208 12.348188 -0.875425 0.492062 0.001670 0.001793 -567767.000000 1 0 0
6.005262 -2.539605 2.058708 6.837473 -0.400088 1.264959 0.005599 -0.001031 -734978.000000 1 0 0
-6.313638 7.668595 1.129308 9.997235 -0.882002 1.457593 0.001087 -0.002949 1029000.000000 1 0 0
6.075962 -3.411805 7.929508 10.556269 -0.511648 0.720970 0.005527 -0.001613 216590.000000 1 0 0
6.731262 -2.287205 -7.825592 10.572658 -0.327549 2.404123 0.003654 -0.002815 1874880.000000 1 0 0
12.154262 -8.177405 -5.891392 15.789381 -0.592238 1.953170 0.027256 -0.006385 835613.000000 1 0 0
5.600862 -9.629405 10.049508 15.002923 -1.043985 0.836808 -0.000013 0.000611 3119400.000000 1 0 0
-6.590138 7.528395 -4.522392 10.979922 -0.851756 1.995311 0.005393 -0.003239 165917.000000 1 0 0
-1.223038 -7.476305 9.712708 12.317778 1.408644 0.662412 0.002686 -0.002895 -1032810.000000 1 0 0
10.181662 -9.355205 0.784308 13.849232 -0.743121 1.514134 0.008127 -0.007961 1553000.000000 1 0 0
11.119562 6.138695 9.761408 16.019155 0.504425 0.915545 0.020856 -0.013002 2292120.000000 1 0 0
-15.254938 -4.120005 -4.922392 16.550453 0.263783 1.872783 0.015758 -0.009663 1243700.000000 1 0 0
-4.738138 -4.587105 7.855708 10.256882 0.769203 0.698362 0.000692 -0.001266 -1106530.000000 1 0 0
2.966262 11.000695 -11.086492 15.897305 1.307417 2.342534 0.014485 -0.002537 285075.000000 1 0 0
9.943462 -1.366805 1.549908 10.155925 -0.136602 1.417586 0.003654 -0.001006 -53353.000000 1 0 0
-1.563538 -2.662805 0.559708 3.138224 1.039859 1.391485 -0.003070 0.000808 -384371.000000 1 0 0
1.492362 3.040795 0.837108 3.489173 1.114552 1.328517 0.002237 -0.001187 439833.000000 1 0 0
-8.857638 -2.405705 4.272008 10.123992 0.265199 1.135181 -0.001040 -0.000359 3827630.000000 1 0 0
9.903562 4.941695 -2.646592 11.380042 0.462833 1.805510 -0.000970 0.001453 818069.000000 1 0 0
2.506062 8.436695 2.523808 9.155751 1.282054 1.291528 -0.002126 0.000993 350660.000000 1 0 0
-8.162038 -0.040205 2.466108 8.526556 0.004926 1.277377 0.000743 -0.002799 859654.000000 1 0 0
6.851062 2.127495 13.708208 15.471853 0.301094 0.482130 0.000051 -0.000139 -322295.000000 1 0 0
6.820862 4.395695 3.805108 8.962430 0.572463 1.132318 0.001655 -0.000482 643621.000000 1 0 0
-0.356538 3.302095 7.723808 8.407625 -1.463240 0.406104 0.000337 0.000661 2715440.000000 1 0 0
2.666562 -10.274105 9.251308 14.080287 -1.316857 0.853911 0.004437 -0.004196 2155490.000000 1 0 0
1.351462 -4.639605 6.956508 8.470265 -1.287351 0.607135 -0.003002 0.002350 306665.000000 1 0 0
-0.123938 10.785795 -1.904992 10.953435 -1.559306 1.745603 0.003415 -0.000641 2084740.000000 1 0 0
8.804462 5.555195 8.019408 13.141143 0.562868 0.914418 0.008433 -0.006924 -1819280.000000 1 0 0
2.610262 11.416695 -2.921692 12.070240 1.346024 1.815282 0.004132 -0.005085 2455110.000000 1 0 0
1.566262 2.480195 -6.724592 7.336531 1.007531 2.730263 0.004184 -0.004691 537190.000000 1 0 0
-13.529238 -2.252705 3.659508 14.195314 0.164993 1.310055 0.012236 -0.007446 -1102400.000000 1 0 0
-0.997938 -10.590605 -5.308892 11.888697 1.476845 2.033702 0.000886 0.000118 -148552.000000 1 0 0
-5.670938 2.865895 0.441908 6.369315 -0.467931 1.501360 0.002422 -0.003682 220620.000000 1 0 0
3.756362 7.293295 -5.059792 9.638668 1.095187 2.123449 -0.001231 0.000331 -1568540.000000 1 0 0
3.007962 9.863195 -6.535592 12.208375 1.274788 2.135703 0.004032 0.000783 1497030.000000 1 0 0
-12.245338 1.644795 -2.522092 12.610099 -0.133521 1.772160 0.004645 -0.006096 973124.000000 1 0 0
-2.416838 9.639395 -5.804692 11.508844 -1.325135 2.099446 0.002695 0.000075 2897750.000000 1 0 0
-1.383938 3.297795 1.713208 3.965579 -1.173461 1.124065 -0.000862 -0.001190 -1463860.000000 1 0 0
12.882362 3.831895 9.643208 16.541769 0.289118 0.948428 0.031541 -0.014007 -139281.000000 1 0 0
-2.577338 -9.522505 11.520908 15.167468 1.306472 0.708129 -0.002169 -0.009063 -433838.000000 1 0 0
-0.506538 -8.927505 -7.616292 11.745843 1.514118 2.276309 0.002507 -0.002618 3005420.000000 1 0 0
2.303762 7.634895 -0.526692 7.992268 1.277743 1.636744 -0.000414 0.002430 2372820.000000 1 0 0
-11.902238 -1.277705 -5.449992 13.152878 0.106940 1.998033 0.002446 -0.001329 -1670320.000000 1 0 0
-6.281138 -7.140105 -10.969492 14.517698 0.849312 2.427358 0.008811 -0.004414 2021240.000000 1 0 0
-4.687138 -2.359705 -1.404692 5.432368 0.466398 1.832346 0.002301 -0.001484 -874716.000000 1 0 0
-10.573238 3.689995 4.446908 12.049249 -0.335778 1.192798 0.000171 -0.006991 3735530.000000 1 0 0
6.791862 9.342295 -3.629792 12.107158 0.942177 1.875285 -0.005395 0.001389 2003830.000000 1 0 0
1.285762 -2.699305 -11.609292 11.988123 -1.126263 2.889528 0.004662 -0.002138 -247910.000000 1 0 0
1.147462 8.803395 7.615708 11.696813 1.441184 0.861773 -0.005108 0.002203 580240.000000 1 0 0
10.419362 0.514395 10.366308 14.706735 0.049329 0.788559 0.004792 -0.001740 1670250.000000 1 0 0
-5.251438 -0.887505 -3.901692 6.602156 0.167420 2.203060 0.008639 -0.004523 -898772.000000 1 0 0
11.673762 5.736295 5.400908 14.083736 0.456731 1.177229 0.007041 -0.008250 2521860.000000 1 0 0
9.892862 -3.478705 3.632508 11.097983 -0.338133 1.237338 0.012491 -0.006535 -2281230.000000 1 0 0
7.237462 -1.647405 -3.403092 8.165527 -0.223809 2.000678 0.002287 -0.001455 -3673480.000000 1 0 0
2.247262 9.350395 10.450508 14.201873 1.334931 0.743869 0.000614 0.001748 2030610.000000 1 0 0
2.427762 -10.880105 6.351908 12.830333 -1.351255 1.052881 -0.003122 -0.000275 980408.000000 1 0 0
5.944662 -7.514405 -1.316092 9.671473 -0.901504 1.707300 0.003438 -0.003971 2324560.000000 1 0 0
-0.233438 -5.570005 -2.293492 6.028230 1.528911 1.961089 0.000390 0.000977 1570670.000000 1 0 0
7.785462 -5.083405 2.588308 9.651620 -0.578436 1.299300 0.006915 -0.005201 2035870.000000 1 0 0
-2.683638 -12.556505 4.686708 13.668685 1.360239 1.220816 0.006319 -0.002432 -209460.000000 1 0 0
4.918562 -10.252605 -1.263192 11.441320 -1.123489 1.681428 0.008289 -0.007643 1509460.000000 1 0 0
0.868562 0.198695 1.126608 1.436358 0.224894 0.669149 -0.000874 0.001162 -1693220.000000 1 0 0
-1.690638 8.488095 2.474008 9.001485 -1.374192 1.292368 -0.004059 0.000686 -171863.000000 1 0 0
-7.492938 0.586795 -2.999592 8.092342 -0.078154 1.950527 0.004972 -0.003683 -571406.000000 1 0 0
4.464662 -6.385905 12.948508 15.112142 -0.960646 0.541710 0.005016 -0.002674 -475523.000000 1 0 0
-5.143538 12.941495 8.465508 16.297334 -1.192494 1.024599 0.008176 -0.002127 1754510.000000 1 0 0
0.533562 6.085095 8.200208 10.225286 1.483337 0.640238 -0.000729 0.002405 1505680.000000 1 0 0
7.919662 -0.536605 -0.765692 7.974665 -0.067653 1.666960 0.002856 -0.000951 5146250.000000 1 0 0
2.473762 -9.235605 -2.475892 9.876535 -1.309089 1.824183 0.001644 -0.002400 769754.000000 1 0 0
-7.110938 12.092495 4.882308 14.853646 -1.039213 1.235876 0.001971 -0.002758 657988.000000 1 0 0
-15.042938 0.202995 0.173408 15.045307 -0.013494 1.559270 0.006743 -0.006727 1170430.000000 1 0 0
6.868162 -0.455205 3.848708 7.886153 -0.066181 1.060961 0.005129 0.000218 1659680.000000 1 0 0
-4.147838 -4.985605 5.115708 8.260223 0.876867 0.902922 0.001619 0.002051 -221940.000000 1 0 0
2.898862 5.136595 6.878208 9.060781 1.056999 0.708838 0.000650 -0.000063 533141.000000 1 0 0
2.071862 -7.180805 1.761108 7.678416 -1.289897 1.339378 -0.000917 0.001105 1600520.000000 1 0 0
-2.492538 6.387995 -1.827092 7.096302 -1.198775 1.831200 0.001765 0.000639 1549060.000000 1 0 0
2.724562 -3.773205 -6.495492 7.990728 -0.945404 2.519874 -0.001130 -0.003533 -753533.000000 1 0 0
-5.092438 0.914895 -12.186892 13.239724 -0.177761 2.740102 0.013153 -0.003180 973134.000000 1 0 0
-7.459138 6.392695 -11.972392 15.486881 -0.708560 2.454458 0.013149 -0.009005 3387270.000000 1 0 0
-1.077338 11.293595 -9.095992 14.541081 -1.475690 2.246617 0.006009 0.003732 112216.000000 1 0 0
4.635562 5.909695 -0.676192 7.541232 0.905641 1.660583 -0.000678 -0.000652 1299370.000000 1 0 0
-2.679238 13.333495 3.542708 14.053868 -1.372497 1.315967 -0.002194 -0.000452 642892.000000 1 0 0
1.511162 -7.933305 10.304408 13.092049 -1.382568 0.664746 -0.001992 -0.001182 285510.000000 1 0 0
12.913562 -0.299105 -1.094992 12.963355 -0.023158 1.655365 0.007230 -0.004669 420756.000000 1 0 0
-1.016038 3.139095 -5.435292 6.358353 -1.257766 2.596014 0.006312 -0.005810 2211590.000000 1 0 0
6.579962 1.120395 7.219108 9.831923 0.168656 0.746232 0.004084 -0.000985 1991350.000000 1 0 0
5.468062 -6.149305 6.820808 10.688174 -0.843971 0.878685 0.001843 0.000496 133166.000000 1 0 0
12.190962 -4.905005 2.649208 13.405108 -0.382529 1.371860 0.011701 -0.006049 -941871.000000 1 0 0
4.386162 -9.242605 13.867508 17.232874 -1.127708 0.635605 0.000663 -0.000450 120224.000000 1 0 0
-2.764838 -4.401405 -1.404992 5.384301 1.009919 1.834795 0.003066 -0.001731 1510290.000000 1 0 0
-9.262138 -5.105305 -7.556592 12.998208 0.503765 2.191191 0.007776 -0.003585 1596310.000000 1 0 0
-10.625738 -3.208805 7.844808 13.592047 0.293276 0.955548 0.003374 -0.001980 -205338.000000 1 0 0
12.106662 -0.671705 1.648608 12.236845 -0.055425 1.435660 0.007257 -0.003138 1189490.000000 1 0 0
-7.623438 4.696595 4.393908 9.974028 -0.552154 1.114602 0.002047 -0.004426 3185850.000000 1 0 0
-1.165538 10.636495 7.047808 12.812693 -1.461653 0.988355 -0.005922 0.003653 1362860.000000 1 0 0
7.409862 -10.046305 1.815808 12.614732 -0.935297 1.426351 0.007356 -0.008569 3371690.000000 1 0 0
-4.268638 -1.671405 1.640908 4.869029 0.373205 1.227058 -0.002276 0.001210 2881090.000000 1 0 0
6.773562 -14.946105 -0.941192 16.436333 -1.145285 1.628091 0.025916 -0.009973 -1951640.000000 1 0 0
-10.501838 1.627495 2.358508 10.885766 -0.153749 1.352405 0.001818 -0.003272 -1257690.000000 1 0 0
-2.978138 8.311395 -11.368592 14.394217 -1.226729 2.481284 0.005901 -0.002197 -1008650.000000 1 0 0
-1.236138 -5.197405 -6.894592 8.722182 1.337297 2.482367 0.002779 -0.002692 -400298.000000 1 0 0
12.833862 -0.398805 6.387708 14.341195 -0.031064 1.109164 0.013647 -0.008486 2814380.000000 1 0 0
5.985462 -13.197905 3.749708 14.968993 -1.145022 1.317601 0.009353 -0.009173 741459.000000 1 0 0
-5.641238 3.509395 -5.042992 8.340935 -0.556509 2.220069 0.006818 -0.004436 1575370.000000 1 0 0
-4.477538 7.982495 3.403108 9.764718 -1.059608 1.214815 0.001566 -0.000888 -512990.000000 1 0 0
13.939062 6.167695 -3.937192 15.742916 0.416579 1.823573 0.018133 0.001073 -1016260.000000 1 0 0
-6.664838 -8.545105 5.282508 12.055860 0.908395 1.117235 0.007760 -0.000321 1374980.000000 1 0 0
1.679262 11.270695 2.748308 11.721847 1.422891 1.334133 -0.002223 -0.001267 1579640.000000 1 0 0
-7.444638 7.208095 6.008508 11.978374 -0.769256 1.045334 0.001587 -0.003426 -467347.000000 1 0 0
-17.393438 -4.078905 5.135808 18.588859 0.230346 1.290871 0.056843 -0.023792 -925909.000000 1 0 0
7.446462 -13.060605 -8.613492 17.326899 -1.052617 2.091069 0.014591 -0.001626 86294.100000 1 0 0
-2.312938 12.732295 -2.752392 13.230143 -1.391097 1.780366 -0.002787 -0.000248 1153210.000000 1 0 0
-5.491838 13.835295 -5.711192 15.943444 -1.192927 1.937152 0.011945 -0.001303 2230300.000000 1 0 0
-5.766238 2.447095 7.487608 9.762277 -0.401348 0.696653 0.002096 -0.002983 913128.000000 1 0 0
-7.383338 5.016195 1.422008 9.038695 -0.596762 1.412816 0.002329 -0.002686 1898400.000000 1 0 0
10.819462 -5.718005 -5.084692 13.251809 -0.486181 1.964594 0.009522 -0.005813 3188890.000000 1 0 0
-9.479138 -0.860105 6.813308 11.705340 0.090489 0.949526 -0.000864 -0.002243 141432.000000 1 0 0
-11.303538 -4.587805 -2.474092 12.447452 0.385559 1.770892 0.005307 -0.006305 -783347.000000 1 0 0
6.553262 -4.297505 13.457908 15.573345 -0.580428 0.527312 0.001994 -0.004357 -593225.000000 1 0 0
0.270162 10.323595 -11.694392 15.601552 1.544633 2.418202 0.008529 0.001089 -1221420.000000 1 0 0
-11.831838 -3.239205 1.445508 12.352098 0.267223 1.453502 0.007745 -0.005085 5009190.000000 1 0 0
5.154962 5.993795 5.437808 9.595258 0.860497 0.968279 0.001287 -0.000065 -4760370.000000 1 0 0
-7.127738 -0.007305 8.220908 10.880626 0.001025 0.714296 -0.003877 -0.002026 -594026.000000 1 0 0
1.810662 2.156795 9.624008 10.027551 0.872421 0.284662 0.002977 0.000481 1628760.000000 1 0 0
10.556462 -4.933805 -2.069392 11.834851 -0.437207 1.746556 0.005429 -0.004311 364225.000000 1 0 0
-9.678838 -2.435805 -1.632592 10.113279 0.246543 1.732936 0.004331 -0.004262 -1704900.000000 1 0 0
-2.038838 -5.212805 -9.914192 11.385139 1.197968 2.627626 0.009554 -0.004837 -74948.800000 1 0 0
7.634162 -1.594505 6.474108 10.135924 -0.205904 0.877951 0.005218 -0.002887 3317590.000000 1 0 0
1.553362 -11.873805 -2.635192 12.261501 -1.440712 1.787402 0.003183 -0.000907 -4199520.000000 1 0 0
-0.845338 -1.476605 4.843508 5.133666 1.050852 0.337820 0.003096 0.000868 2554170.000000 1 0 0
7.684262 1.626995 9.846208 12.595349 0.208649 0.673355 0.002815 -0.002430 2147490.000000 1 0 0
-3.876838 10.664595 -7.952692 13.856723 -1.222124 2.182085 0.007904 0.002622 4063570.000000 1 0 0
-9.576838 12.560095 6.436908 17.055955 -0.919355 1.183810 0.008231 -0.004394 1340790.000000 1 0 0
-2.560338 -2.427805 -11.083892 11.631949 0.758835 2.833401 0.013211 -0.006379 -2009300.000000 1 0 0
1.134162 -11.867805 11.208608 16.363496 -1.475519 0.816225 -0.002243 -0.000167 2329150.000000 1 0 0
1.290062 3.401695 -2.062492 4.182065 1.208313 2.086533 0.002299 -0.001423 3763920.000000 1 0 0
-1.881638 -9.409705 -12.061192 15.412834 1.373432 2.469535 0.003499 -0.003242 1933190.000000 1 0 0
1.257462 -2.691905 1.592908 3.371189 -1.133791 1.078664 0.003084 0.000162 1677910.000000 1 0 0
-1.038538 -2.229705 -6.674492 7.113297 1.134903 2.788513 0.005505 -0.005871 -77249.100000 1 0 0
1.756862 5.858295 4.092508 7.358995 1.279438 0.981083 -0.002372 0.001397 -626196.000000 1 0 0
-11.075138 8.479895 3.583308 14.401646 -0.653454 1.319342 -0.003644 -0.008655 2702770.000000 1 0 0
-16.313438 -1.648205 3.883808 16.850187 0.100692 1.338215 0.031314 -0.014349 -849537.000000 1 0 0
-12.128938 0.236295 6.807408 13.910707 -0.019479 1.059435 -0.001830 -0.002819 -155042.000000 1 0 0
-5.196938 2.928495 4.701308 7.595166 -0.513152 0.903344 -0.002652 -0.001402 1273320.000000 1 0 0
5.182762 -6.004205 3.904108 8.840450 -0.858695 1.113394 0.001999 -0.000847 1320180.000000 1 0 0
9.906262 3.523295 6.271808 12.242680 0.341711 1.032947 0.003165 -0.004488 979062.000000 1 0 0
-12.329038 5.735895 3.144608 13.956870 -0.435451 1.343536 0.002666 -0.006965 856842.000000 1 0 0
-4.909438 12.296995 -1.251792 13.299837 -1.190946 1.665057 0.000589 0.001410 1380460.000000 1 0 0
-1.750438 -12.218405 10.335808 16.099142 1.428502 0.873679 0.004480 -0.006929 246847.000000 1 0 0
5.165462 6.411595 13.837708 16.101947 0.892623 0.536738 0.004866 -0.000140 1886900.000000 1 0 0
13.032762 -3.698705 -6.054792 14.838929 -0.276529 1.991096 0.008649 -0.004062 1959640.000000 1 0 0
3.510562 -2.593205 6.443708 7.782681 -0.636221 0.595346 0.001130 0.003197 2005830.000000 1 0 0
7.295362 -11.849105 -0.705192 13.932727 -1.018921 1.621432 0.012075 -0.005847 -1176830.000000 1 0 0
-6.037538 -6.591205 -4.107492 9.837039 0.829212 2.001548 0.007409 -0.002126 801725.000000 1 0 0
0.254862 -9.076205 5.013208 10.371822 -1.542723 1.066320 0.000988 -0.000488 1387670.000000 1 0 0
-10.299038 2.443095 -0.409592 10.592765 -0.232911 1.609473 0.004479 -0.003424 -1326310.000000 1 0 0
-1.884138 8.928295 -0.396192 9.133532 -1.362818 1.614188 0.000956 0.000393 -424245.000000 1 0 0
-3.521438 2.264395 -6.580392 7.799332 -0.571461 2.574958 0.011818 -0.007516 1792600.000000 1 0 0
-12.688138 3.015995 6.409508 14.531581 -0.233371 1.114001 0.001697 -0.006856 -247806.000000 1 0 0
11.384062 1.737695 7.898208 13.964174 0.151474 0.969630 0.013095 -0.013017 -3158970.000000 1 0 0
6.080562 2.678595 -3.297692 7.417741 0.414941 2.031489 -0.000539 -0.000473 620019.000000 1 0 0
10.549562 -2.411205 6.353208 12.548722 -0.224700 1.039927 0.011393 -0.007298 4536950.000000 1 0 0
-0.957738 11.022095 4.119708 11.805755 -1.484121 1.214338 -0.002565 0.001036 840535.000000 1 0 0
-1.496638 -12.235305 7.446108 14.400942 1.449080 1.027387 0.000542 -0.002362 -1060870.000000 1 0 0
8.079162 8.652395 -7.774492 14.162611 0.819645 2.151898 -0.002453 -0.000550 611135.000000 1 0 0
-4.705138 -5.995605 -8.709692 11.573432 0.905415 2.422736 0.008164 -0.005454 922917.000000 1 0 0
-8.566538 -5.212805 -11.698092 15.407929 0.546652 2.432919 0.011089 -0.004020 415509.000000 1 0 0
6.096362 -0.667405 -9.985492 11.718409 -0.109042 2.590819 0.000055 0.002753 -677586.000000 1 0 0
-11.167338 -5.386405 -5.305192 13.485839 0.449416 1.975112 0.002434 -0.007456 -1094390.000000 1 0 0
3.823762 8.982195 -2.796992 10.155007 1.168329 1.849833 0.002345 -0.000425 1312560.000000 1 0 0
11.726762 -10.359405 -3.965992 16.141974 -0.723567 1.819032 0.027295 -0.009300 -1136580.000000 1 0 0
3.949562 -11.193905 3.896908 12.493536 -1.231601 1.253590 0.005197 -0.002544 171390.000000 1 0 0
-1.112038 0.902595 3.236408 3.539158 -0.681810 0.416632 0.001357 -0.000535 -1948410.000000 1 0 0
-10.592938 -5.145305 4.484308 12.601330 0.452166 1.206962 0.008584 -0.001977 3903120.000000 1 0 0
4.608762 -8.625205 2.669308 10.137063 -1.080058 1.304333 0.002299 -0.000513 4778410.000000 1 0 0
-3.636238 -5.722605 2.690308 7.294394 1.004741 1.193059 -0.002304 0.002109 2414600.000000 1 0 0
9.991462 5.097495 12.193308 16.567756 0.471762 0.743704 0.017806 -0.003880 -71905.800000 1 0 0
1.599062 -12.285305 -5.326192 13.485327 -1.441363 1.976823 0.001732 -0.000709 2158800.000000 1 0 0
9.939862 -10.706005 -1.709792 14.708596 -0.822490 1.687304 0.013576 -0.009729 320740.000000 1 0 0
9.703162 -4.557205 -9.189092 14.119451 -0.439084 2.279448 0.012165 -0.001260 2102020.000000 1 0 0
-7.478438 -3.020405 -13.144592 15.421744 0.383848 2.591243 0.015270 -0.005079 2644880.000000 1 0 0
0.366962 6.168195 -2.594692 6.701770 1.511374 1.968351 0.003357 -0.000475 2605820.000000 1 0 0
-5.898638 -9.570505 0.912808 11.279260 1.018452 1.489780 0.003857 0.000552 1312330.000000 1 0 0
-8.947238 -4.118605 0.604208 9.868183 0.431404 1.509530 0.001564 -0.002963 2507160.000000 1 0 0
1.806862 3.943595 12.089608 12.844272 1.141164 0.344498 0.002258 0.000826 1265360.000000 1 0 0
6.718462 4.344095 9.561808 12.467440 0.573975 0.696734 0.004070 -0.000167 2438480.000000 1 0 0
-8.261938 9.864095 -3.566692 13.352202 -0.873559 1.841204 0.003302 -0.003872 1726610.000000 1 0 0
16.406762 2.108595 -5.994792 17.594475 0.127819 1.918479 0.020877 0.001499 581428.000000 1 0 0
-10.925238 2.595695 -5.089492 12.328884 -0.233262 1.996334 -0.000560 0.000591 983401.000000 1 0 0
-13.913738 3.907595 1.473908 14.527003 -0.273792 1.469162 0.002839 -0.000436 339297.000000 1 0 0
-17.511138 10.441595 3.406408 20.670522 -0.537682 1.405246 0.056062 -0.014122 177121.000000 1 0 0
-14.427238 2.793195 -1.175392 14.742072 -0.191240 1.650612 0.005824 -0.002754 1459340.000000 1 0 0
-14.504138 5.016995 5.115208 16.177318 -0.333018 1.249079 0.003408 -0.005106 1754590.000000 1 0 0
-17.507538 7.527795 3.196408 19.323525 -0.406077 1.404617 0.027445 -0.005861 -1801750.000000 1 0 0
-14.993638 12.546795 -3.392292 19.842855 -0.696785 1.742598 0.047866 -0.012056 -841507.000000 1 0 0
-8.561638 12.398795 -9.541892 17.834783 -0.966460 2.135323 0.016762 -0.015373 110013.000000 1 0 0
-12.557638 8.809195 -9.836392 18.222261 -0.611733 2.140997 0.008681 -0.000595 331193.000000 1 0 0
-13.884538 -3.535605 -12.254392 18.853409 0.249344 2.278358 0.031734 0.000866 -934334.000000 1 0 0
-14.862938 5.773795 -7.588292 17.658590 -0.370527 2.014982 0.018079 0.004499 297030.000000 1 0 0
-11.036638 13.354395 -8.297492 19.209259 -0.880139 2.017453 0.024140 -0.017477 2559870.000000 1 0 0
-10.947938 13.400295 3.940308 17.746867 -0.885780 1.346902 0.013828 -0.009149 -267009.000000 1 0 0
-15.385038 3.191195 3.063608 16.008398 -0.204522 1.378233 0.003924 0.000122 263756.000000 1 0 0
-11.231738 9.421495 -12.344992 19.165473 -0.697972 2.270677 0.030382 -0.012545 615029.000000 1 0 0
-13.256538 11.557295 -8.964292 19.739944 -0.717025 2.042180 0.025097 -0.018853 -742822.000000 1 0 0
-9.002138 14.647295 -3.450392 17.535306 -1.019715 1.768857 0.019937 -0.006249 -429480.000000 1 0 0
-16.694438 8.300495 -4.025392 19.073706 -0.461406 1.783439 0.031087 0.001426 -1440230.000000 1 0 0
-16.912138 6.657195 0.453508 18.180878 -0.375007 1.545850 0.022883 0.000880 -776106.000000 1 0 0
-10.567538 2.763695 -12.615292 16.687015 -0.255798 2.427968 0.021607 -0.007889 1320970.000000 1 0 0
-17.027038 0.768995 2.292608 17.197890 -0.045133 1.437091 0.023715 -0.005344 -294376.000000 1 0 0
-12.753238 1.219095 -6.947492 14.573912 -0.095301 2.067702 0.006088 -0.004263 838008.000000 1 0 0
-12.240238 8.906095 -5.322592 16.045932 -0.629016 1.908912 0.012380 -0.000691 -1583850.000000 1 0 0
-9.640038 13.795995 1.274808 16.878535 -0.960906 1.495196 0.021292 -0.011437 781507.000000 1 0 0
-12.279038 11.036295 2.781408 16.742485 -0.732147 1.403894 0.011026 -0.008533 353843.000000 1 0 0
-12.537638 6.746695 -3.594592 14.684392 -0.493673 1.818099 0.001350 0.001907 -337602.000000 1 0 0
-15.922738 3.656795 -9.414992 18.855975 -0.225744 2.093599 0.026983 -0.002089 -962599.000000 1 0 0
-15.119038 5.890095 -4.616492 16.869811 -0.371493 1.847986 0.007815 0.007177 658568.000000 1 0 0
-18.101438 5.116895 7.534008 20.263414 -0.275491 1.189845 0.033749 -0.011426 -734367.000000 1 0 0
-15.830438 10.126095 -1.987092 18.896801 -0.569072 1.676146 0.038245 -0.004013 -1902790.000000 1 0 0
-8.843938 9.778795 -8.409192 15.638241 -0.835556 2.138542 0.012093 -0.008554 -1134130.000000 1 0 0
-17.056838 4.177795 -1.232492 17.604225 -0.240205 1.640865 0.010113 0.002601 -688424.000000 1 0 0
-10.245438 5.313995 -4.539992 12.402382 -0.478471 1.945566 0.001848 -0.002916 -780294.000000 1 0 0
-18.165238 2.618895 6.097908 19.339570 -0.143184 1.250016 0.034932 -0.009878 -1421990.000000 1 0 0
-10.309738 10.015695 -5.714492 15.468040 -0.770932 1.949201 0.005099 -0.008295 618669.000000 1 0 0
-15.314738 0.393895 -5.910892 16.420566 -0.025714 1.939031 0.006588 -0.003060 -1540340.000000 1 0 0
-16.333838 -4.200205 -8.885292 19.062644 0.251694 2.055685 0.037467 -0.014487 -565941.000000 1 0 0
-10.018538 9.582995 -1.099792 13.907352 -0.763182 1.649959 -0.001859 -0.001618 1131570.000000 1 0 0
-17.383138 -3.022905 -3.275392 17.945463 0.172177 1.754344 0.028209 -0.009219 -1798830.000000 1 0 0
-12.019138 5.086595 -11.542492 17.423038 -0.400352 2.294927 0.017920 -0.005463 -1091630.000000 1 0 0
-16.446938 7.004795 5.940108 18.837564 -0.402635 1.249989 0.021754 -0.007160 -99685.600000 1 0 0
-12.217738 5.996595 -8.787992 16.200651 -0.456269 2.144143 0.010286 -0.001557 625648.000000 1 0 0
-14.528838 8.327395 0.033608 16.746157 -0.520453 1.568789 0.027605 -0.005803 969360.000000 1 0 0
-14.976938 11.857695 3.838808 19.484611 -0.669678 1.372482 0.030526 -0.015047 1929490.000000 1 0 0
-17.294738 4.078195 -4.086692 18.232956 -0.231575 1.796854 0.012362 0.001665 -431123.000000 1 0 0
-13.811138 13.496095 -0.818392 19.327749 -0.773862 1.613152 0.042235 -0.004205 315719.000000 1 0 0
-10.170138 6.889395 -12.983192 17.873409 -0.595406 2.383861 0.012170 -0.010682 2816060.000000 1 0 0
-15.784738 -1.172305 -8.452192 17.943573 0.074132 2.061269 0.010085 -0.006579 -183167.000000 1 0 0
-11.518538 11.813195 -0.066692 16.499477 -0.798027 1.574838 0.024628 -0.010916 211400.000000 1 0 0
-11.980938 7.317195 -0.833092 14.063366 -0.548277 1.630069 0.003066 -0.000476 1510690.000000 1 0 0
-11.483938 0.097895 -11.734492 16.419157 -0.008524 2.366967 0.016176 -0.008332 -1878550.000000 1 0 0
-19.114238 -1.192205 -4.714692 19.723178 0.062292 1.812177 0.031480 -0.009664 -925806.000000 1 0 0
-17.860638 1.469795 -5.068592 18.623998 -0.082107 1.846427 0.008411 -0.001017 -1204710.000000 1 0 0
-13.221738 -0.147605 -9.550192 16.310803 0.011163 2.196309 0.009238 -0.006022 -644847.000000 1 0 0
-6.124538 11.191695 -13.309992 18.436917 -1.070075 2.377370 -0.001630 -0.000158 -591119.000000 1 0 0
16.436962 5.669895 6.971008 18.732762 0.332167 1.189494 0.054073 -0.024816 126618.000000 1 0 0
14.761162 10.157395 -5.611792 18.776496 0.602706 1.874308 0.048255 -0.011356 910934.000000 1 0 0
2.315962 16.878895 4.368608 17.588221 1.434437 1.319786 0.010038 -0.009606 1778940.000000 1 0 0
-3.992738 18.076595 -5.722292 19.376529 -1.353408 1.870588 0.015205 -0.015845 584764.000000 1 0 0
5.348562 14.589395 5.729308 16.561478 1.219405 1.217554 0.012622 -0.008334 -534371.000000 1 0 0
9.894562 6.011695 14.973808 18.927698 0.545971 0.658182 0.028583 -0.005853 -281911.000000 1 0 0
4.640862 12.813595 -1.208492 13.681604 1.223310 1.659241 0.004168 -0.005490 1832070.000000 1 0 0
3.668062 13.781995 12.930008 19.250537 1.310677 0.834336 0.021523 -0.011116 -336940.000000 1 0 0
-0.780238 12.395295 9.238108 15.478849 -1.507933 0.931263 0.000364 0.002980 280618.000000 1 0 0
-7.791038 13.907395 8.330008 17.986243 -1.060149 1.089270 0.016300 -0.009688 711635.000000 1 0 0
11.418562 12.797195 -4.176192 17.651979 0.842268 1.809646 0.040712 -0.007288 1296830.000000 1 0 0
-5.810138 16.101195 0.910708 17.141633 -1.224487 1.517643 0.003982 -0.002244 189639.000000 1 0 0
3.182262 10.576295 6.799008 12.969631 1.278527 1.018991 -0.001393 0.002458 1682790.000000 1 0 0
-1.217038 15.481395 2.372308 15.709317 -1.492345 1.419204 -0.000650 -0.007277 -1348130.000000 1 0 0
9.863662 8.931395 9.492808 16.345490 0.735837 0.951134 0.028934 -0.007832 2489350.000000 1 0 0
7.136062 12.237695 6.244908 15.481713 1.042880 1.155596 0.015430 -0.007566 1135590.000000 1 0 0
11.840962 13.904495 -1.574592 18.330922 0.865379 1.656800 0.043676 -0.010947 -189286.000000 1 0 0
9.632562 15.871095 -1.197892 18.604109 1.025301 1.635229 0.033350 -0.011926 921114.000000 1 0 0
10.135462 13.744595 3.049908 17.347721 0.935399 1.394068 0.032869 -0.009338 3438180.000000 1 0 0
-6.028538 14.495795 6.219808 16.886603 -1.176674 1.193586 0.000104 -0.004680 -64928.300000 1 0 0
-1.034738 18.205095 -6.119392 19.233906 -1.514020 1.894581 0.018475 -0.003906 1480420.000000 1 0 0
-3.522538 15.637395 5.426808 16.922962 -1.349231 1.244352 -0.002551 -0.005993 1164600.000000 1 0 0
7.016262 12.279795 10.558308 17.649339 1.051697 0.929510 0.015044 -0.003212 1876260.000000 1 0 0
1.393162 14.555295 6.113808 15.848538 1.475372 1.174760 0.000237 -0.003181 -91257.600000 1 0 0
17.312462 7.754795 -1.610492 19.038169 0.421132 1.655490 0.030099 -0.004205 1092990.000000 1 0 0
2.037662 16.200795 -3.324692 16.663476 1.445678 1.771664 0.008428 -0.010386 750268.000000 1 0 0
6.689162 11.168895 0.542508 13.030097 1.031179 1.529149 0.006982 -0.002935 1926610.000000 1 0 0
12.672562 9.263795 3.230308 16.026435 0.631238 1.367845 0.019298 -0.008201 -1878790.000000 1 0 0
6.031762 14.349495 -3.458492 15.945261 1.172874 1.789432 0.002193 -0.005036 1385830.000000 1 0 0
3.058962 16.460195 1.613108 16.819554 1.387053 1.474742 0.013567 -0.016899 -244732.000000 1 0 0
2.763462 18.791795 -2.532892 19.162042 1.424786 1.703367 0.020965 -0.024241 1411940.000000 1 0 0
3.920662 12.033295 10.671808 16.554736 1.255825 0.870247 0.010664 -0.002062 3085560.000000 1 0 0
7.987862 11.552595 3.382508 14.446791 0.965842 1.334467 0.013207 -0.003424 1714240.000000 1 0 0
0.813762 12.429095 0.257608 12.458370 1.505417 1.550117 0.002548 -0.004683 -1115550.000000 1 0 0
11.906862 9.843895 -4.576292 16.112669 0.690835 1.858779 0.024370 -0.001708 524184.000000 1 0 0
-1.335638 16.425795 9.781108 19.164048 -1.489661 1.035160 0.006782 -0.004868 -491249.000000 1 0 0
7.955062 14.831895 -7.972292 18.623254 1.078495 2.013166 0.019238 -0.008102 442232.000000 1 0 0
14.410162 7.621195 -1.334192 16.355900 0.486481 1.652460 0.017398 -0.002765 -129468.000000 1 0 0
12.567962 8.295395 6.025708 16.219630 0.583403 1.190165 0.020058 -0.011953 699560.000000 1 0 0
-3.080338 14.259695 10.191208 17.795733 -1.358048 0.961029 0.009028 -0.002518 1423730.000000 1 0 0
-4.699938 16.930095 -3.046592 17.832534 -1.300007 1.742483 0.020593 -0.014749 -1052960.000000 1 0 0
-7.231438 16.397095 -1.680792 17.999541 -1.155436 1.664312 0.018244 -0.005986 742107.000000 1 0 0
8.308462 11.220295 -1.927592 14.094012 0.933413 1.707993 0.005692 -0.004679 -1098930.000000 1 0 0
8.503062 13.022695 -4.178592 16.104450 0.992356 1.833268 0.023525 -0.003280 2373670.000000 1 0 0
2.508562 14.940895 -7.324292 16.827611 1.404449 2.021117 0.006122 -0.005427 -272400.000000 1 0 0
11.356762 11.420695 9.552308 18.725782 0.788205 1.035478 0.038873 -0.013168 394884.000000 1 0 0
8.560262 15.610695 1.485308 17.865555 1.069214 1.487562 0.020268 -0.012212 226443.000000 1 0 0
5.935862 9.866595 7.769308 13.890511 1.029192 0.977225 0.007272 0.001631 3184300.000000 1 0 0
14.415962 11.312595 2.458008 18.488823 0.665359 1.437456 0.030161 -0.009623 1502870.000000 1 0 0
12.067962 12.576995 1.145608 17.467940 0.806050 1.505166 0.035756 -0.009896 2631170.000000 1 0 0
5.034662 15.927695 8.273808 18.641223 1.264640 1.110912 0.017037 -0.005941 -1366810.000000 1 0 0
11.650762 15.023495 5.073608 19.677072 0.911172 1.310007 0.044466 -0.011445 -839964.000000 1 0 0
5.933862 16.697195 1.870308 17.818673 1.229336 1.465639 0.012688 -0.020484 1571610.000000 1 0 0
-0.734938 16.098695 -4.225792 16.660296 -1.525176 1.827242 0.005956 -0.010015 1492080.000000 1 0 0
16.069362 6.358695 2.508008 17.462746 0.376797 1.426677 0.016285 -0.014055 141593.000000 1 0 0
7.632462 16.797495 -3.162792 18.719337 1.144305 1.740569 0.014980 -0.008801 60720.000000 1 0 0
14.973262 8.118395 7.431408 18.583131 0.496829 1.159388 0.053749 -0.022032 646044.000000 1 0 0
2.018662 13.001795 8.576308 15.705882 1.416766 0.993146 0.000986 0.001666 831253.000000 1 0 0
15.901162 7.476195 -5.867992 18.524950 0.439497 1.893110 0.024469 0.004182 -423484.000000 1 0 0
-2.998638 16.940595 0.639208 17.215812 -1.395602 1.533659 -0.001858 -0.008898 379270.000000 1 0 0
-2.975238 18.458095 4.486208 19.227048 -1.410982 1.335298 0.003203 -0.012947 -898.736000 1 0 0
-0.883438 18.967095 0.796608 19.004361 -1.524253 1.528867 0.009530 -0.020657 490651.000000 1 0 0
6.978562 16.911795 -6.023892 19.261268 1.179437 1.888879 0.018198 -0.008471 977370.000000 1 0 0
10.913462 9.998595 0.852508 14.825732 0.741678 1.513263 0.014019 -0.004214 -723616.000000 1 0 0
9.169462 8.747595 14.255108 19.073740 0.761857 0.726704 0.026922 -0.006483 1265420.000000 1 0 0
6.282962 12.422395 -8.356192 16.236301 1.102538 2.111409 0.020373 -0.008431 -145033.000000 1 0 0
6.349562 9.059695 13.255808 17.265905 0.959495 0.695482 0.013117 -0.004437 932521.000000 1 0 0
16.630662 9.333795 2.749408 19.268054 0.511432 1.427615 0.023818 -0.014096 -2250210.000000 1 0 0
2.598862 14.702795 -0.750192 14.949551 1.395844 1.620999 0.008986 -0.010228 -758591.000000 1 0 0
9.095662 13.000095 8.251808 17.883676 0.960298 1.091206 0.030300 -0.009345 2281830.000000 1 0 0
7.175362 9.366695 10.513408 15.803561 0.917102 0.842960 0.013681 -0.004321 545360.000000 1 0 0
4.294262 15.987295 -5.295092 17.380227 1.308385 1.880380 0.017477 -0.004482 3269230.000000 1 0 0
0.140762 16.361395 -8.138492 18.274302 1.562193 2.032363 0.008820 0.000401 671619.000000 1 0 0
-2.431838 15.613995 -1.983092 15.926184 -1.416290 1.695638 -0.004474 -0.006415 926398.000000 1 0 0
13.319662 10.452795 7.661108 18.584050 0.665382 1.145884 0.046162 -0.016863 60236.000000 1 0 0
-1.061038 15.864895 6.969208 17.360604 -1.504016 1.157710 0.001271 -0.004069 164410.000000 1 0 0
13.463862 13.224295 6.618308 19.998989 0.776422 1.233505 0.050166 -0.018404 -445666.000000 1 0 0
5.255962 17.356495 4.600208 18.709222 1.276751 1.322370 0.013651 -0.013238 -401362.000000 1 0 0
10.725562 9.500095 -1.833492 14.444763 0.724882 1.698071 0.009305 -0.002010 2182920.000000 1 0 0
3.174662 12.731695 4.717808 13.943897 1.326428 1.225642 -0.001262 -0.001049 1021290.000000 1 0 0
-0.217338 18.032395 3.469308 18.364384 -1.558744 1.380739 0.003209 -0.011172 2623070.000000 1 0 0
-7.693638 15.851195 -5.795792 18.548414 -1.118924 1.888587 0.032715 -0.011012 -1632010.000000 1 0 0
-12.381438 -9.124305 8.273208 17.464218 0.635086 1.077282 0.039124 -0.010839 527259.000000 1 0 0
-13.145438 -11.769705 6.926708 18.955415 0.730237 1.196711 0.045635 -0.010260 -1672530.000000 1 0 0
-6.377738 -12.217105 12.277808 18.457458 1.089678 0.843041 0.030088 -0.016473 -1201890.000000 1 0 0
-1.867438 -10.502305 14.338708 17.871325 1.394823 0.639607 0.004693 -0.006943 286538.000000 1 0 0
-8.852738 2.887695 11.032508 14.436966 -0.315310 0.701020 0.002586 -0.003338 1687980.000000 1 0 0
0.534362 10.110195 15.188308 18.253391 1.517992 0.587946 0.010300 -0.008123 -1207140.000000 1 0 0
1.087362 -6.761605 16.628508 17.983574 -1.411347 0.390681 0.005243 -0.010986 2015080.000000 1 0 0
6.043162 2.433095 17.786908 18.942382 0.382763 0.351084 0.010720 -0.004844 2294310.000000 1 0 0
-4.951638 -2.973405 17.564908 18.490155 0.540779 0.317689 0.032363 -0.020834 21935.500000 1 0 0
-4.424238 8.217095 13.028008 16.025714 -1.076888 0.621607 -0.000750 -0.000491 172578.000000 1 0 0
0.101762 -4.887505 18.681308 19.310342 -1.549978 0.255943 0.023123 -0.018165 -2377870.000000 1 0 0
-11.661238 2.080395 11.186708 16.292788 -0.176545 0.813987 0.018951 -0.007816 1872830.000000 1 0 0
-3.355938 -6.126505 14.308408 15.922528 1.069664 0.454167 0.019112 -0.011330 2759870.000000 1 0 0
-7.437538 -2.187605 14.592008 16.523597 0.286063 0.488365 0.017470 -0.007233 1331580.000000 1 0 0
-6.061638 -1.083605 10.692408 12.338770 0.176896 0.522509 0.006769 -0.004248 218809.000000 1 0 0
-3.988038 2.453195 11.238708 12.175022 -0.551476 0.394743 0.001876 0.001383 -655829.000000 1 0 0
-6.531638 6.263495 13.687608 16.408665 -0.764445 0.584171 0.001608 -0.001070 964837.000000 1 0 0
-9.086138 5.462695 12.651408 16.506273 -0.541310 0.697484 0.013174 -0.005916 724255.000000 1 0 0
-12.222538 -2.359205 15.845808 20.150581 0.190676 0.665886 0.023095 -0.004472 419701.000000 1 0 0
-3.469838 -7.539805 16.965208 18.886681 1.139490 0.454995 0.038971 -0.017013 -852966.000000 1 0 0
-0.466638 -5.364005 14.455008 15.425224 1.484020 0.356563 0.006887 -0.004024 2325590.000000 1 0 0
-14.248438 -2.295105 13.698208 19.897899 0.159706 0.811481 0.031837 -0.008629 -734949.000000 1 0 0
-6.484038 1.489995 12.244808 13.935500 -0.225873 0.497712 0.004897 -0.000501 2175520.000000 1 0 0
2.221362 -2.202005 14.597408 14.928750 -0.781022 0.211081 0.001194 0.001257 -1357390.000000 1 0 0
-12.688838 4.006995 9.173108 16.161947 -0.305878 0.967240 0.004735 -0.006746 105209.000000 1 0 0
-9.044338 -2.956605 12.569608 15.765043 0.315950 0.647973 0.009431 -0.001657 508976.000000 1 0 0
-7.170238 -7.257405 15.192808 18.300373 0.791440 0.591346 0.037185 -0.017253 -349893.000000 1 0 0
-3.061338 6.090495 19.485808 20.643707 -1.105037 0.336517 0.018390 -0.010381 -1157820.000000 1 0 0
0.638962 5.536495 16.276508 17.204237 1.455896 0.329897 0.005544 -0.000514 826085.000000 1 0 0
3.420662 1.463295 16.773608 17.181271 0.404224 0.218273 -0.005891 -0.001992 1835240.000000 1 0 0
-11.785238 11.338995 7.778808 18.110066 -0.766103 1.126825 0.014642 -0.016411 664587.000000 1 0 0
0.601062 -9.410705 15.433308 18.086172 -1.507013 0.548475 -0.007450 0.000773 463913.000000 1 0 0
-2.420338 -3.636405 18.987008 19.483017 0.983543 0.226130 0.038915 -0.021567 2513260.000000 1 0 0
-12.873738 2.392395 13.793608 19.018946 -0.183739 0.759390 0.028881 -0.014027 417434.000000 1 0 0
-5.305938 -0.573505 15.700608 16.582852 0.107669 0.327661 0.021407 -0.004651 562503.000000 1 0 0
-4.456238 -5.967205 11.651708 13.828517 0.929354 0.568730 0.006437 -0.004177 -4905.690000 1 0 0
2.440762 1.837295 13.961608 14.291937 0.645262 0.215419 0.003243 0.001043 165192.000000 1 0 0
0.045062 3.364095 14.379108 14.767461 1.557402 0.229843 0.004780 0.000944 -684767.000000 1 0 0
-13.158138 7.023995 12.127708 19.223798 -0.490331 0.888123 0.026473 -0.011527 100572.000000 1 0 0
0.841362 1.463095 18.231608 18.309562 1.048920 0.092310 0.003786 -0.003665 1423320.000000 1 0 0
-2.028038 6.475295 12.583308 14.296224 -1.267277 0.494547 -0.000832 0.001582 1427360.000000 1 0 0
-13.403338 -2.657605 10.933708 17.500237 0.195741 0.895953 0.033276 -0.011593 414239.000000 1 0 0
-2.607038 3.640895 13.603508 14.321599 -0.949384 0.318010 0.001767 0.002605 -295201.000000 1 0 0
3.526462 6.261095 16.315608 17.827964 1.057849 0.414868 0.001014 0.001725 187771.000000 1 0 0
-3.774038 12.461395 12.314908 17.921682 -1.276719 0.813236 0.014193 -0.001664 -827930.000000 1 0 0
3.793562 -1.449105 17.094108 17.569847 -0.364885 0.233239 0.006944 -0.003124 50917.400000 1 0 0
-15.857738 0.243495 9.174308 18.321983 -0.015354 1.046358 0.035969 -0.013442 578234.000000 1 0 0
-4.702338 4.667695 15.337608 16.707530 -0.781701 0.407774 0.002341 -0.001768 1065560.000000 1 0 0
-8.023138 -8.187805 10.527708 15.564174 0.795556 0.827924 0.023617 -0.010461 3497850.000000 1 0 0
-2.557938 -0.438705 14.775508 15.001704 0.169855 0.173874 0.011645 0.000439 1426900.000000 1 0 0
-1.921938 1.027995 17.320908 17.457505 -0.491156 0.125178 0.004079 -0.003008 1128540.000000 1 0 0
-0.655938 -2.477105 14.416908 14.642866 1.311937 0.175904 0.007377 -0.001319 107834.000000 1 0 0
5.098562 -8.305905 16.514608 19.175913 -1.020257 0.533138 0.003116 -0.004208 1649360.000000 1 0 0
-4.540738 10.000495 10.725508 15.351375 -1.144578 0.797263 -0.001750 -0.000365 -4471.360000 1 0 0
-6.260938 2.140595 15.276108 16.647551 -0.329438 0.408749 0.011849 -0.000216 583267.000000 1 0 0
-4.844938 6.868695 17.375508 19.301831 -0.956479 0.450568 0.006595 0.001634 -701557.000000 1 0 0
-4.137038 9.210695 15.772508 18.727626 -1.148645 0.569436 0.013123 -0.006064 -393118.000000 1 0 0
-4.599538 -9.767405 18.485408 21.407201 1.130693 0.528601 0.053837 -0.020541 1635320.000000 1 0 0
-6.815938 -4.096005 11.183708 13.722594 0.541114 0.618093 0.010102 -0.003291 607380.000000 1 0 0
-2.383538 -0.797005 19.601008 19.761477 0.322691 0.127525 0.028676 -0.012051 90553.200000 1 0 0
-5.669138 -4.554205 15.155308 16.809618 0.676770 0.447376 0.029557 -0.013805 1348400.000000 1 0 0
-12.875638 0.002595 9.713908 16.128920 -0.000202 0.924459 0.017566 -0.007326 2984650.000000 1 0 0
-14.478938 8.894595 10.340708 19.891800 -0.550877 1.024124 0.017459 -0.013446 -738229.000000 1 0 0
-8.506938 10.319395 12.980308 18.637229 -0.881375 0.800327 0.018081 -0.014975 -1623550.000000 1 0 0
-10.579038 7.154295 10.831208 16.745598 -0.594622 0.867403 0.014446 -0.006480 -881434.000000 1 0 0
-9.911838 -6.440105 14.801808 18.942360 0.576192 0.673869 0.040589 -0.018272 1076850.000000 1 0 0
-0.909938 -13.315405 14.495908 19.704297 1.502565 0.744137 0.002912 -0.013764 1102920.000000 1 0 0
3.899262 -5.694705 16.924008 18.277197 -0.970401 0.387219 0.007088 -0.009915 1158240.000000 1 0 0
-7.305638 9.264595 10.485308 15.784383 -0.903073 0.844261 0.003101 -0.006068 1070660.000000 1 0 0
-10.374638 -6.720905 11.841008 17.117626 0.574842 0.806896 0.038002 -0.016226 2970420.000000 1 0 0
-10.878538 -3.943805 10.696708 15.758037 0.347794 0.824656 0.019922 -0.003712 -1229970.000000 1 0 0
-10.054938 -10.271805 9.824408 17.410650 0.796067 0.971241 0.047907 -0.016358 1777800.000000 1 0 0
-9.763138 -3.596705 15.233308 18.447461 0.352969 0.599235 0.029263 -0.017989 481202.000000 1 0 0
5.629562 -3.304405 16.082708 17.356974 -0.530786 0.385569 0.008207 -0.003555 -191967.000000 1 0 0
-11.516338 0.391795 15.319008 19.169025 -0.034008 0.644909 0.033664 -0.009049 -839764.000000 1 0 0
-3.147438 3.257595 18.845008 19.381760 -0.802595 0.235892 0.014388 -0.006725 -609907.000000 1 0 0
0.491862 7.399295 14.022108 15.862251 1.504420 0.486462 0.006180 -0.001859 1107840.000000 1 0 0
-13.290538 -7.213905 12.109708 19.373276 0.497287 0.895572 0.061307 -0.025575 980731.000000 1 0 0
-1.458138 -1.055405 12.143708 12.276387 0.626523 0.147154 0.005180 -0.000245 1097430.000000 1 0 0
2.059662 -4.855205 13.077408 14.100844 -1.169589 0.383341 0.002651 -0.001103 -116038.000000 1 0 0
-14.648838 -4.008905 8.644708 17.475432 0.267127 1.053332 0.048932 -0.018140 -1591450.000000 1 0 0
8.029662 1.004995 16.135108 18.050684 0.124513 0.464874 0.020778 -0.008986 496290.000000 1 0 0
-1.398038 11.334095 13.416208 17.618481 -1.448068 0.705195 0.009449 -0.003374 551195.000000 1 0 0
2.846662 -12.283505 -13.886792 18.757158 -1.343070 2.404382 -0.001589 0.009111 -1199710.000000 1 0 0
0.786162 -10.698605 -13.913392 17.568741 -1.497445 2.484776 -0.005025 0.004079 -409480.000000 1 0 0
3.199062 -14.398605 -12.313092 19.213694 -1.352169 2.266401 0.000882 0.005976 -1307450.000000 1 0 0
-5.199838 -10.136705 -16.027292 19.663804 1.096826 2.523639 0.026484 -0.018542 -219937.000000 1 0 0
-1.162238 -12.256005 -14.921392 19.344467 1.476249 2.451759 0.011429 -0.004184 -283712.000000 1 0 0
5.726162 -14.918605 -11.880992 19.912601 -1.204310 2.210125 0.002796 0.003961 -11643.500000 1 0 0
1.812262 -11.800905 -16.127792 20.066174 -1.418417 2.504335 -0.007735 0.004088 -819895.000000 1 0 0
1.409062 -14.463505 -14.008392 20.184486 -1.473681 2.337851 0.016623 0.014194 -929380.000000 1 0 0
-0.991938 -10.569005 -15.945792 19.156098 1.477217 2.554245 0.006762 -0.007228 -469637.000000 1 0 0
-5.831538 -5.620305 -14.944492 16.998015 0.766955 2.644957 0.016884 -0.007782 -177283.000000 1 0 0
-6.453738 -7.573105 -16.407692 19.188929 0.865031 2.596464 0.021155 -0.011121 211994.000000 1 0 0
4.857362 -12.494905 -11.412792 17.605920 -1.200028 2.276062 -0.003384 0.004448 -308743.000000 1 0 0
-1.854238 -15.476405 -13.336492 20.513881 1.451554 2.278539 0.008286 0.006607 -45081.100000 1 0 0
15.952162 -7.550805 -8.784292 19.714206 -0.442093 2.032620 0.054552 0.003085 549286.000000 1 0 0
19.194562 -3.771105 -4.375292 20.044840 -0.193996 1.790843 0.057233 -0.019816 892113.000000 1 0 0
14.857162 -11.893705 -8.748192 20.945795 -0.675068 2.001663 0.054173 -0.011090 181004.000000 1 0 0
17.713262 -3.504905 -6.493392 19.188751 -0.195346 1.916008 0.053263 -0.008151 392696.000000 1 0 0
9.559762 -9.299705 -15.580492 20.509152 -0.771610 2.433625 0.045857 -0.018150 67374.600000 1 0 0
1.336462 1.995695 -15.300592 15.487965 0.980716 2.985885 0.012146 -0.007884 64275.300000 1 0 0
4.756762 -4.292005 -13.901392 15.306757 -0.734082 2.709728 0.001495 0.000981 -464056.000000 1 0 0
13.196062 -5.584005 -8.664992 16.745126 -0.400308 2.114680 0.028161 -0.000349 -1491570.000000 1 0 0
3.016262 0.893195 -12.260692 12.657812 0.287899 2.890440 0.003725 -0.000981 -3143900.000000 1 0 0
0.592862 6.357595 -12.892292 14.386859 1.477813 2.681735 0.011668 -0.004104 391124.000000 1 0 0
3.235562 -1.142205 -16.842192 17.188163 -0.339359 2.940614 0.015033 -0.004642 39333.800000 1 0 0
13.135862 4.409095 -11.393592 17.938923 0.323837 2.258976 -0.005990 -0.000376 741401.000000 1 0 0
-3.917938 9.528595 -16.465092 19.422761 -1.180692 2.582471 0.009593 -0.003257 -414518.000000 1 0 0
-0.255338 -5.090205 -17.774592 18.490849 1.520676 2.862349 0.009571 -0.010318 239159.000000 1 0 0
-0.376738 -8.712605 -17.663792 19.699263 1.527583 2.682992 0.014370 -0.003582 790934.000000 1 0 0
5.615562 -10.115805 -12.270292 16.864878 -1.064025 2.385562 0.002358 0.000900 129505.000000 1 0 0
2.010162 -9.712305 -18.034192 20.581587 -1.366707 2.638778 0.014818 -0.011369 -199501.000000 1 0 0
11.235562 8.715595 -14.289992 20.159448 0.659757 2.358661 0.055404 -0.024092 328124.000000 1 0 0
11.087162 -3.788305 -12.903092 17.428890 -0.329247 2.404354 0.021468 -0.003553 695799.000000 1 0 0
4.923162 7.526495 -12.326892 15.259028 0.991537 2.511279 0.006814 -0.003446 25626.400000 1 0 0
9.671962 -5.945405 -12.682692 17.021909 -0.551162 2.411452 0.020679 -0.004550 -1026590.000000 1 0 0
-3.198838 0.417495 -15.888192 16.212388 -0.129781 2.941274 0.015544 -0.007169 -2653080.000000 1 0 0
-0.687938 10.827295 -12.870592 16.833173 -1.507344 2.441212 0.008256 0.001528 -1196310.000000 1 0 0
6.643662 -5.461605 -12.556592 15.219572 -0.688059 2.541050 0.005652 0.000436 279023.000000 1 0 0
18.011962 -6.047205 -8.367292 20.760806 -0.323908 1.985625 0.065551 -0.006562 -422475.000000 1 0 0
13.140662 4.773695 -13.929992 19.736004 0.348453 2.354371 0.007730 -0.010354 322983.000000 1 0 0
14.100462 0.809295 -11.468392 18.193461 0.057332 2.252811 0.005139 0.003447 86326.400000 1 0 0
15.040862 6.102795 -11.092892 19.660211 0.385451 2.170297 0.018887 -0.010821 -277566.000000 1 0 0
8.297162 1.447795 -11.890592 14.571383 0.172754 2.525294 -0.003677 0.007298 864676.000000 1 0 0
9.961262 1.196495 -9.029992 13.498115 0.119542 2.303634 0.000880 0.002878 433952.000000 1 0 0
-0.117538 -5.771505 -13.061492 14.280289 1.550434 2.725442 0.005488 -0.003443 66192.100000 1 0 0
10.643562 -5.798005 -9.035092 15.117380 -0.498798 2.211379 0.017891 -0.002398 -2007710.000000 1 0 0
10.328062 8.545395 -11.118092 17.415643 0.691224 2.263210 0.024697 -0.014055 795029.000000 1 0 0
8.669962 8.166995 -14.701792 18.921172 0.755534 2.460686 0.035680 -0.006495 659024.000000 1 0 0
8.693962 10.572795 -10.618392 17.323950 0.882608 2.230562 0.027395 -0.012840 -1516430.000000 1 0 0
7.209162 1.905795 -17.906892 19.397445 0.258445 2.747010 0.023932 -0.000597 -1904840.000000 1 0 0
12.154362 2.538495 -12.843392 17.864076 0.205895 2.373088 0.002263 -0.002288 -1679750.000000 1 0 0
2.657562 -0.968805 -19.439692 19.644410 -0.349574 2.997098 0.023449 -0.011863 -582727.000000 1 0 0
10.328362 -2.235505 -15.690292 18.917130 -0.213155 2.548869 0.024094 0.001300 -361721.000000 1 0 0
8.350462 -0.888505 -13.098292 15.559078 -0.106003 2.571484 0.005346 0.005257 313800.000000 1 0 0
0.566162 4.526495 -14.688092 15.380174 1.446365 2.840462 0.014362 -0.006387 406804.000000 1 0 0
4.073062 -7.757205 -15.779892 18.049074 -1.087296 2.634741 0.010769 -0.007776 -2137060.000000 1 0 0
11.423262 -5.773705 -14.602092 19.417716 -0.467985 2.421885 0.042030 -0.005929 -690875.000000 1 0 0
-5.888338 4.283195 -16.978792 18.474243 -0.628882 2.736465 0.022552 -0.004320 -496455.000000 1 0 0
11.407262 7.787895 -8.998192 16.484672 0.599030 2.148202 0.018235 -0.006507 -2484310.000000 1 0 0
9.493562 6.231895 -13.260492 17.458663 0.580885 2.433397 0.004408 0.000722 -1284730.000000 1 0 0
12.124662 0.489095 -10.155192 15.823229 0.040317 2.267627 0.011053 0.003291 -2068940.000000 1 0 0
5.505862 -7.287005 -13.780492 16.532299 -0.923738 2.556299 0.005747 -0.003629 -1897980.000000 1 0 0
8.667162 -10.267105 -10.697492 17.174675 -0.869698 2.243195 0.020488 0.001078 -307418.000000 1 0 0
10.200162 4.684695 -15.731692 19.325523 0.430541 2.521866 0.023285 -0.008420 -553510.000000 1 0 0
9.958662 -0.450305 -11.030492 14.867733 -0.045187 2.406708 0.004324 0.003348 506846.000000 1 0 0
-1.665438 5.521195 -14.031692 15.170553 -1.277832 2.751647 0.011382 -0.008327 -631526.000000 1 0 0
1.380662 -0.631005 -14.973792 15.050543 -0.428685 3.040559 0.008459 -0.005034 -1078540.000000 1 0 0
11.395162 -10.563305 -14.291092 21.110861 -0.747533 2.314413 0.064955 -0.023787 567942.000000 1 0 0
9.371162 -7.818405 -10.828892 16.315975 -0.695311 2.296549 0.022367 -0.003007 63926.800000 1 0 0
14.221462 -1.019005 -9.719792 17.255802 -0.071530 2.169143 0.022408 0.004575 838958.000000 1 0 0
4.014662 11.238695 -12.240692 17.095623 1.227706 2.368871 0.027430 -0.013917 -858511.000000 1 0 0
-1.220138 3.021495 -16.820892 17.133610 -1.187002 2.950242 0.012888 -0.009999 -20517.900000 1 0 0
6.215362 -0.510105 -17.748392 18.812133 -0.081888 2.803698 0.015495 0.002828 273482.000000 1 0 0
6.435362 -6.694905 -16.218892 18.689251 -0.805162 2.621593 0.016316 -0.004070 174623.000000 1 0 0
-1.651038 -5.166805 -19.850492 20.578237 1.261504 2.874852 0.018565 -0.019464 -1194530.000000 1 0 0
0.043262 -4.336405 -15.266792 15.870766 -1.560820 2.864827 0.005515 -0.006121 -94638.300000 1 0 0
0.585362 0.805995 -13.010892 13.048969 0.942663 3.065180 0.009415 -0.005186 477248.000000 1 0 0
15.547662 0.463895 -13.530692 20.616126 0.029828 2.286722 0.023452 -0.006161 410752.000000 1 0 0
-0.111038 7.116695 -16.441392 17.915889 -1.555195 2.733045 0.021175 -0.005378 -138081.000000 1 0 0
-4.921738 -0.541305 -18.346992 19.003385 0.109542 2.877996 0.020727 -0.010380 -138831.000000 1 0 0
10.370862 -8.425805 -13.170392 18.761882 -0.682286 2.348965 0.023424 -0.012388 780248.000000 1 0 0
4.307062 8.485495 -17.475992 19.898862 1.101104 2.642967 0.047879 -0.015808 -425670.000000 1 0 0
9.440762 0.685295 -17.051592 19.502677 0.072462 2.634831 0.018313 0.003715 -34639.000000 1 0 0
3.387862 5.027295 -18.611092 19.573555 0.977807 2.826696 0.030725 -0.004408 -432007.000000 1 0 0
1.543362 -8.249005 -15.895592 17.974924 -1.385838 2.655833 -0.001604 -0.005002 -787580.000000 1 0 0
4.593362 7.764695 -14.986192 17.492153 1.036598 2.599708 0.019140 -0.002911 162851.000000 1 0 0
-5.531438 -0.359205 -15.194092 16.173629 0.064848 2.791778 0.015570 -0.006355 -439842.000000 1 0 0
2.919462 3.432395 -13.800992 14.517988 0.865977 2.826002 0.008620 -0.001322 -608994.000000 1 0 0
-2.446438 -10.338105 -18.019792 20.918279 1.338428 2.608890 0.037084 -0.009166 109341.000000 1 0 0
6.178662 -9.178105 -15.382292 18.948044 -0.978287 2.518049 0.006679 -0.008904 6816.030000 1 0 0
-1.813338 5.440395 -17.543892 18.457363 -1.249067 2.825667 0.019298 -0.002927 1887010.000000 1 0 0
10.013762 -12.172205 -11.919492 19.761384 -0.882382 2.218267 0.046476 -0.006305 745089.000000 1 0 0
10.863662 3.608895 -9.401992 14.813532 0.320729 2.258403 0.000322 -0.000494 -1180580.000000 1 0 0
4.941662 -0.457805 -10.997892 12.065788 -0.092378 2.717698 0.001370 -0.000366 -728581.000000 1 0 0
6.296962 9.559595 -11.285792 16.075034 0.988325 2.349096 0.015473 -0.016376 450882.000000 1 0 0
10.916162 -9.650305 -9.517992 17.403539 -0.723926 2.149453 0.036118 -0.003756 -595633.000000 1 0 0
3.228562 -2.345505 -14.575492 15.111915 -0.628281 2.874352 0.008029 -0.001713 26976.100000 1 0 0
9.217762 -4.372205 -14.638992 17.843301 -0.442897 2.532941 0.023425 -0.008682 -272037.000000 1 0 0
-4.038138 -6.644505 -16.496992 18.237509 1.024704 2.701152 0.015032 -0.011805 -1108980.000000 1 0 0
5.898762 -7.666905 -11.239492 14.829127 -0.915007 2.430936 0.001073 -0.000292 143837.000000 1 0 0
5.405462 6.172595 -16.893392 18.780486 0.851559 2.689462 0.025568 -0.016831 -1765720.000000 1 0 0
9.217562 1.465295 -19.443992 21.568017 0.157649 2.694065 0.036279 -0.009849 419053.000000 1 0 0
13.044162 5.792895 -9.329492 17.051312 0.417936 2.149743 -0.003231 -0.000674 773964.000000 1 0 0
-1.520038 -0.763305 -17.286792 17.370272 0.465375 3.043514 0.017190 -0.013774 306898.000000 1 0 0
-0.378838 -0.433205 -19.490892 19.499386 0.852249 3.112075 0.022982 -0.023133 -332491.000000 1 0 0
2.828162 6.555595 -16.627892 18.095887 1.163507 2.736021 0.025860 -0.002012 29079.100000 1 0 0
7.676262 3.968895 -15.738492 17.954868 0.477182 2.639461 0.011521 0.005250 -694883.000000 1 0 0
3.147962 -9.967705 -14.817492 18.133474 -1.264893 2.527219 0.000794 0.001650 551126.000000 1 0 0
8.819862 -10.492105 -13.369692 19.147399 -0.871774 2.343748 0.022885 -0.009271 306873.000000 1 0 0
3.920162 0.152295 -14.869392 15.378221 0.038830 2.883632 0.008235 -0.002100 -353258.000000 1 0 0
-1.073438 -2.782405 -18.962092 19.195181 1.202595 2.985594 0.022960 -0.014257 -180870.000000 1 0 0
9.412862 10.042595 -13.017592 18.945010 0.817755 2.328321 0.042226 -0.022545 47467.700000 1 0 0
4.557162 2.065095 -10.590992 11.713303 0.425474 2.700264 0.000303 0.002086 -326059.000000 1 0 0
-0.398038 7.197095 -18.997692 20.319176 -1.515547 2.778953 0.034751 -0.008281 -112780.000000 1 0 0
0.855562 -1.715705 -17.632992 17.736912 -1.108217 3.033290 0.015980 -0.014411 -3826890.000000 1 0 0
-4.443838 -2.240205 -14.076292 14.930111 0.466934 2.801766 0.014626 -0.008199 -3652190.000000 1 0 0
10.015562 6.001495 -10.429592 15.655856 0.539844 2.299869 0.002936 0.002920 113901.000000 1 0 0
8.486862 5.800895 -17.315192 20.136859 0.599576 2.605822 0.040637 -0.014957 -88523.500000 1 0 0
11.360262 0.336295 -13.701592 17.801749 0.029594 2.449131 0.003696 0.012092 521750.000000 1 0 0
6.875862 12.043095 -11.825592 18.225209 1.052020 2.276880 0.036492 -0.021783 -90411.700000 1 0 0
-0.827438 0.607295 -15.091692 15.126554 -0.633148 3.073687 0.011439 -0.007890 -1641440.000000 1 0 0
-4.043738 -2.862905 -18.922392 19.560291 0.616065 2.885504 0.012372 -0.016223 1993.630000 1 0 0
5.632362 -12.234505 -13.919592 19.369090 -1.139355 2.372655 -0.001647 0.004152 -679004.000000 1 0 0
2.198662 -4.702505 -14.106492 15.031327 -1.133443 2.788978 0.005238 -0.003034 -1010380.000000 1 0 0
12.004462 2.138995 -15.423392 19.661217 0.176333 2.472618 0.024712 -0.003245 240353.000000 1 0 0
9.783062 2.483095 -13.944792 17.214276 0.248567 2.515070 0.004071 0.003226 -9606.720000 1 0 0
-2.198138 -4.145905 -16.440192 17.096791 1.083286 2.863553 0.006144 -0.012588 -1919070.000000 1 0 0
-2.863538 10.107395 -14.288092 17.734398 -1.294720 2.507604 0.010524 -0.003778 210047.000000 1 0 0
3.584562 5.843295 -13.693092 15.313196 1.020547 2.677442 0.011635 -0.003140 -286643.000000 1 0 0
-5.175438 -2.503705 -16.558492 17.528188 0.450577 2.807408 0.020285 -0.009462 373290.000000 1 0 0
-4.223738 6.128095 -13.678792 15.572504 -0.967327 2.643288 0.009730 -0.005804 -1819450.000000 1 0 0
5.939762 -1.109205 -14.081292 15.322986 -0.184616 2.736245 0.009624 0.004767 -1216200.000000 1 0 0
6.790462 -2.960505 -12.688092 14.692265 -0.411134 2.613143 0.006948 0.001885 1508840.000000 1 0 0
2.852562 -3.262605 -18.267592 18.774627 -0.852351 2.908660 0.019728 -0.015136 -136606.000000 1 0 0
7.339262 -11.998705 -12.000692 18.489194 -1.021839 2.277151 0.011780 -0.000812 -1711610.000000 1 0 0
-5.957838 -5.333505 -17.608192 19.338835 0.730161 2.715311 0.031444 -0.013098 147782.000000 1 0 0
0.603062 8.763595 -11.930492 14.815564 1.502090 2.506923 0.008890 -0.000740 297550.000000 1 0 0
0.260662 8.555995 -14.384692 16.738948 1.540340 2.604803 0.009869 -0.007488 -593084.000000 1 0 0
7.763362 -2.419505 -15.152392 17.196476 -0.302116 2.649050 0.013124 -0.001238 -1353660.000000 1 0 0
14.240162 1.526495 -8.895292 16.859378 0.106789 2.126589 0.003138 0.004790 261075.000000 1 0 0
2.832562 10.767895 -14.633092 18.387451 1.313568 2.491156 0.029338 -0.008646 -922856.000000 1 0 0
6.313862 1.022195 -15.557892 16.821348 0.160504 2.751542 0.013567 0.003976 175389.000000 1 0 0
16.525362 -5.745805 -10.472192 20.390407 -0.334621 2.110153 0.066422 -0.004661 420310.000000 1 0 0
4.942062 -4.154905 -11.247192 12.968676 -0.699083 2.620465 0.001090 0.000092 -1408090.000000 1 0 0
8.866662 -3.878505 -17.028392 19.586389 -0.412348 2.624782 0.016501 -0.011894 310165.000000 1 0 0
13.435962 -9.696605 -8.869292 18.793977 -0.625135 2.062266 0.052094 -0.009388 400703.000000 1 0 0
2.449762 -7.726405 -13.680692 15.901572 -1.263759 2.606724 -0.003273 0.001289 168648.000000 1 0 0
-6.628838 -2.486905 -18.563092 19.867425 0.358915 2.777222 0.013113 -0.003357 -1430270.000000 1 0 0
-1.438238 -6.494005 -15.810092 17.152249 1.352843 2.743367 0.005161 -0.006552 390859.000000 1 0 0
1.726062 -7.211005 -18.310992 19.755260 -1.335852 2.756842 0.020684 -0.018360 -207905.000000 1 0 0
5.315162 10.839095 -14.453692 18.832051 1.114883 2.445736 0.049654 -0.028921 -963403.000000 1 0 0
5.385862 -3.269105 -17.539492 18.636747 -0.545535 2.796737 0.013880 -0.008267 -446889.000000 1 0 0
4.018462 13.037795 -14.155592 19.659932 1.271819 2.374631 0.038035 -0.018707 193533.000000 1 0 0
9.793562 10.371795 -15.608192 21.144826 0.814065 2.401130 0.072681 -0.026470 280714.000000 1 0 0
2.537762 3.932995 -16.275592 16.935277 0.997768 2.861561 0.019965 -0.006234 -78604.600000 1 0 0
16.595962 1.789695 -11.498992 20.269578 0.107424 2.174023 0.034060 -0.001502 -104077.000000 1 0 0
10.082962 -3.759805 -10.519492 15.048654 -0.356917 2.344839 0.016076 -0.001037 -83262.900000 1 0 0
14.856762 -2.265705 -11.937292 19.192596 -0.151337 2.242057 0.041481 0.000925 153633.000000 1 0 0
-2.646838 -8.696005 -16.047692 18.443283 1.275332 2.626223 0.015818 -0.003860 385851.000000 1 0 0
14.015162 8.068895 -9.038292 18.526267 0.522380 2.080437 0.038975 -0.005850 343759.000000 1 0 0
-8.232338 0.000295 -16.579192 18.510565 -0.000036 2.680712 0.021897 -0.007062 -955584.000000 1 0 0
-3.500638 4.047395 -16.028792 16.898463 -0.857709 2.819375 0.013303 -0.003646 740797.000000 1 0 0
15.061062 4.016395 -9.632592 18.323588 0.260609 2.124327 0.005236 0.004246 818957.000000 1 0 0
5.415862 1.232095 -12.981992 14.120260 0.223690 2.737317 0.004176 0.002537 189868.000000 1 0 0
7.861262 -7.686405 -12.945492 16.984288 -0.774152 2.437507 0.018204 -0.006304 -1339350.000000 1 0 0
3.279262 -6.112005 -11.926692 13.796962 -1.078355 2.614838 -0.000650 -0.000531 -1411960.000000 1 0 0
-3.191138 3.386195 -18.550892 19.125514 -0.815046 2.895843 0.018006 -0.007243 -2461.950000 1 0 0
0.881562 5.243095 -17.896592 18.669634 1.404217 2.852818 0.031015 -0.014032 464888.000000 1 0 0
6.393762 7.038495 -10.247592 13.979763 0.833360 2.393563 0.000852 -0.001075 268139.000000 1 0 0
9.789162 3.662395 -11.693892 15.684003 0.358006 2.412221 0.003801 0.001965 -55481.500000 1 0 0
4.674562 1.591595 -17.544992 18.226669 0.328169 2.867237 0.018539 -0.002721 663471.000000 1 0 0
2.628762 8.134095 -13.377692 15.875659 1.258213 2.572990 0.015333 -0.005739 -925236.000000 1 0 0
14.489762 -3.628605 -9.861892 17.899075 -0.245379 2.154325 0.032890 0.001340 154413.000000 1 0 0
-1.319938 9.346795 -16.381192 18.906303 -1.430506 2.618825 0.016349 -0.002591 -109686.000000 1 0 0
-5.206138 2.045195 -15.834792 16.793670 -0.374321 2.802036 0.018405 -0.008047 502476.000000 1 0 0
4.564162 4.286395 -11.984092 13.521214 0.754024 2.660128 0.004312 -0.000011 431885.000000 1 0 0
9.315462 3.297195 -17.656392 20.233574 0.340188 2.631355 0.018697 -0.005083 707833.000000 1 0 0
-4.283338 14.303895 -13.368192 20.041381 -1.279842 2.301011 0.003992 -0.006824 -142452.000000 1 0 0
15.607362 -5.058305 -8.039792 18.270590 -0.313415 2.026440 0.045711 -0.002672 -396546.000000 1 0 0
1.297562 9.293595 -16.779392 19.225051 1.432074 2.631682 0.023367 -0.011020 -761308.000000 1 0 0
0.512362 -3.246205 -12.885292 13.297786 -1.414253 2.891867 0.005298 -0.003049 -106611.000000 1 0 0
7.583662 3.685695 -13.064592 15.549272 0.452389 2.568459 0.002664 0.004157 215208.000000 1 0 0
-2.862538 7.620495 -15.109992 17.163273 -1.211468 2.647433 0.008374 -0.004850 76784.000000 1 0 0
12.158462 -5.268205 -11.020992 17.234978 -0.408876 2.264585 0.031223 -0.005450 -897927.000000 1 0 0
0.793262 -4.352005 -20.011692 20.494805 -1.390501 2.924035 0.026178 -0.019860 -504260.000000 1 0 0
3.492462 -4.534805 -16.171492 17.154559 -0.914526 2.801409 0.014589 -0.011323 694654.000000 1 0 0
-5.651238 4.106195 -14.423092 16.025696 -0.628357 2.690561 0.013406 -0.004707 368111.000000 1 0 0
12.351662 -7.562905 -9.906892 17.547296 -0.549413 2.170723 0.029616 0.000699 328038.000000 1 0 0
-1.968838 -1.778705 -14.970092 15.203413 0.734706 2.966173 0.011718 -0.006134 215571.000000 1 0 0
7.107462 6.028795 -14.257192 17.033201 0.703468 2.562617 0.013043 -0.000088 -157462.000000 1 0 0
4.183862 -5.462305 -18.495292 19.733659 -0.917164 2.785442 0.028670 -0.016630 -31257.000000 1 0 0
7.568362 7.721595 -12.434392 16.477781 0.795420 2.425865 0.009054 -0.006688 -1171020.000000 1 0 0
12.422862 -2.620505 -10.958692 16.771627 -0.207894 2.282872 0.023757 -0.001777 -188804.000000 1 0 0
7.520962 -0.818405 -10.679592 13.087718 -0.108390 2.525255 0.001118 0.002883 -1558810.000000 1 0 0
5.383462 4.120395 -14.456092 15.966776 0.653272 2.703084 0.006495 -0.000785 46753.500000 1 0 0
14.726462 2.910995 -12.796392 19.725370 0.195155 2.276708 0.014012 -0.011573 283185.000000 1 0 0
-6.525538 6.608395 -15.879392 18.395886 -0.791707 2.612377 0.018240 0.001507 489355.000000 1 0 0
-11.149038 3.772495 -16.534092 20.295541 -0.326276 2.522950 0.053420 -0.016230 -64077.600000 1 0 0
-5.010338 6.440095 -18.054592 19.812789 -0.909620 2.717128 0.016951 0.009655 451154.000000 1 0 0
-9.930038 1.665795 -15.722192 18.669972 -0.166206 2.571982 0.042847 -0.008144 96745.700000 1 0 0
-7.652438 5.962095 -18.010892 20.457239 -0.661873 2.647536 0.029027 -0.002969 225998.000000 1 0 0
-8.685038 3.913495 -15.480992 18.177086 -0.423354 2.589972 0.024697 -0.002799 -449134.000000 1 0 0
9.047662 13.513595 -11.929292 20.168923 0.980819 2.203676 0.067828 -0.030856 -2355180.000000 1 0 0
13.707362 9.115395 -11.524892 20.094909 0.586848 2.181596 0.025699 -0.009574 263241.000000 1 0 0
8.112962 16.030395 -9.041592 20.113282 1.102282 2.037039 0.042116 -0.018945 -444419.000000 1 0 0
7.271262 13.709895 -13.815492 20.777399 1.083152 2.298195 0.064100 -0.023924 46295.600000 1 0 0
4.866962 15.823695 -12.675592 20.850595 1.272405 2.224241 0.055071 -0.029526 39449.200000 1 0 0
11.142162 10.951095 -11.255492 19.255139 0.776750 2.195115 0.059007 -0.024745 -569771.000000 1 0 0
15.760662 9.702695 -9.881892 20.980767 0.551831 2.061218 0.064358 -0.003930 1175160.000000 1 0 0
13.414462 10.621395 -9.310192 19.479259 0.669713 2.069120 0.082447 -0.017558 47301.100000 1 0 0
10.240162 11.950595 -8.157592 17.726364 0.862325 2.049012 0.034832 -0.004187 59903.700000 1 0 0
5.242662 16.260095 -10.114192 19.853793 1.258895 2.105323 0.036451 -0.020412 -243421.000000 1 0 0
6.889562 14.657095 -11.447692 19.832957 1.131395 2.186099 0.047140 -0.015537 -741667.000000 1 0 0
10.691062 14.046095 -9.720192 20.151272 0.920203 2.074145 0.061963 -0.014480 -278757.000000 1 0 0
8.387562 -18.435705 -0.917692 20.274826 -1.143823 1.616074 0.055219 -0.011758 -486519.000000 1 0 0
7.571662 -17.281505 -3.123892 19.124308 -1.157852 1.734878 0.043119 -0.011310 -498933.000000 1 0 0
4.571962 -18.184905 5.680608 19.592419 -1.324486 1.276633 0.035264 -0.006951 -81698.700000 1 0 0
9.976562 -16.885105 -2.311692 19.747974 -1.037132 1.688125 0.055207 -0.013502 -1293490.000000 1 0 0
-9.769038 -12.247005 -9.954792 18.561280 0.897479 2.136868 0.022095 -0.011256 -959378.000000 1 0 0
-5.081538 -6.948505 -12.059992 14.817124 0.939362 2.521669 0.005497 -0.006226 1050400.000000 1 0 0
-10.773738 -9.419605 -5.539192 15.345521 0.718440 1.940099 0.006147 -0.003296 -1034990.000000 1 0 0
-4.594038 -11.292405 -13.853492 18.453803 1.184420 2.419936 0.026082 -0.015164 -409341.000000 1 0 0
-2.662038 -15.445905 7.377608 17.323150 1.400127 1.130860 0.001877 -0.007990 -120625.000000 1 0 0
-4.789338 -12.015605 -11.446492 17.272368 1.191503 2.295222 0.019287 -0.008824 -296857.000000 1 0 0
-14.330638 -12.736805 -4.140292 19.614673 0.726582 1.783477 0.021901 -0.007393 -353633.000000 1 0 0
-3.221938 -12.350905 -3.217792 13.163583 1.315617 1.817745 0.000537 -0.000786 481018.000000 1 0 0
-2.425838 -17.520705 -1.489792 17.750472 1.433216 1.654825 0.007935 -0.001589 -1134230.000000 1 0 0
-5.782238 -12.232605 3.628908 14.008564 1.129234 1.308759 0.002477 -0.001634 -109327.000000 1 0 0
-8.877338 -10.626205 -11.858492 18.230392 0.874828 2.279012 0.014342 -0.008592 -256936.000000 1 0 0
-9.938938 -12.204305 -7.364492 17.377091 0.887349 2.008438 0.013175 -0.005131 10928.800000 1 0 0
-10.950338 -14.922605 6.187508 19.516129 0.937738 1.248183 0.057645 -0.025802 290189.000000 1 0 0
-9.481738 -15.826205 0.755408 18.464635 1.031027 1.529874 0.026918 -0.004450 -865367.000000 1 0 0
-14.784438 -7.863205 -8.101492 18.602252 0.488807 2.021403 0.028563 -0.008196 151431.000000 1 0 0
-2.290238 -16.594905 5.062308 17.500372 1.433654 1.277334 0.017123 -0.007412 -5050.830000 1 0 0
4.422662 -15.614505 5.899408 17.267765 -1.294785 1.222132 0.024151 -0.013689 -536789.000000 1 0 0
4.160262 -14.500305 -9.990292 18.093440 -1.291393 2.155737 0.001156 0.001007 -168863.000000 1 0 0
-7.544838 -14.183105 -0.229892 16.066670 1.081909 1.585105 0.007692 0.002778 1008940.000000 1 0 0
2.960562 -14.677905 9.659508 17.818864 -1.371765 0.997869 0.024407 -0.018883 37070.500000 1 0 0
2.327762 -17.137105 10.418108 20.189993 -1.435791 1.028618 0.046516 -0.023372 -355034.000000 1 0 0
-8.265838 -17.215505 -5.437692 19.856137 1.123163 1.848195 0.032041 -0.003451 -198953.000000 1 0 0
-6.547738 -9.070205 -7.730592 13.597924 0.945526 2.175493 0.005725 -0.005045 248039.000000 1 0 0
-6.004938 -13.041005 -4.727192 15.115337 1.139273 1.888874 -0.000089 -0.003282 439462.000000 1 0 0
2.310762 -19.401105 -4.951792 20.155960 -1.452250 1.819011 0.027397 -0.010931 219108.000000 1 0 0
-5.491638 -13.034705 8.202308 16.350519 1.172056 1.045286 0.013263 -0.007919 1005270.000000 1 0 0
2.353562 -17.406905 3.465608 17.903911 -1.436403 1.376000 0.016452 -0.010727 117573.000000 1 0 0
-17.724938 -9.670605 -2.611392 20.359602 0.499454 1.699414 0.030068 -0.014455 441212.000000 1 0 0
-3.423038 -15.457505 2.615908 16.046639 1.352865 1.407046 0.009737 -0.002940 -34752.400000 1 0 0
-10.104338 -10.417005 -14.122492 20.249850 0.800633 2.342577 0.031234 -0.009805 -417917.000000 1 0 0
6.013062 -14.393505 -5.655592 16.592637 -1.175072 1.918617 0.009318 -0.008486 325598.000000 1 0 0
-7.298838 -12.368805 -10.669792 17.891474 1.037688 2.209757 0.015834 -0.011837 -1331250.000000 1 0 0
-7.084538 -14.367305 4.123808 16.541339 1.112683 1.318836 0.010088 -0.005653 498626.000000 1 0 0
3.241462 -14.976305 -3.085592 15.630664 -1.357645 1.769508 0.011583 -0.004294 -301802.000000 1 0 0
-7.481438 -11.420505 7.799608 15.723667 0.990852 1.051761 0.019375 -0.015443 282888.000000 1 0 0
-12.664438 -12.355605 -0.990792 17.720909 0.773055 1.626736 0.011902 0.004823 270220.000000 1 0 0
-1.843638 -13.711605 4.077008 14.423214 1.437140 1.284220 0.002345 -0.001576 -4075990.000000 1 0 0
-3.184038 -14.058205 5.234108 15.335159 1.348064 1.222482 0.005731 -0.005028 463052.000000 1 0 0
-14.323938 -10.168305 -4.412192 18.111793 0.617327 1.816881 0.010593 -0.008128 723639.000000 1 0 0
-6.485338 -8.657905 -10.505192 15.079058 0.927894 2.341547 0.012947 -0.005378 304647.000000 1 0 0
1.039062 -19.408205 2.450708 19.589896 -1.517310 1.445367 0.021899 -0.011654 248979.000000 1 0 0
6.359262 -14.199305 -8.314392 17.640566 -1.149726 2.061586 0.011738 0.003630 -1735680.000000 1 0 0
-3.885938 -16.759205 -5.883692 18.182114 1.342954 1.900326 -0.002972 -0.006013 -178955.000000 1 0 0
-3.642638 -13.615905 -13.237992 19.336652 1.309390 2.324860 0.031005 -0.005689 -989120.000000 1 0 0
-8.168338 -14.636705 -4.450292 17.342433 1.061777 1.830312 0.011586 -0.007088 -1607450.000000 1 0 0
-4.544738 -14.505605 10.046608 18.220909 1.267175 0.986781 0.017881 -0.006854 -1393700.000000 1 0 0
-0.331938 -12.127205 -10.049592 15.753526 1.543432 2.262599 0.000897 -0.000207 688096.000000 1 0 0
2.496162 -17.226405 6.927808 18.734310 -1.426895 1.192011 0.025338 -0.014877 -309482.000000 1 0 0
-2.906438 -19.190605 -3.456492 19.714817 1.420488 1.747032 0.011686 -0.010047 618217.000000 1 0 0
0.635462 -15.350705 -3.092692 15.672035 -1.529424 1.769438 0.007340 -0.005562 -1054340.000000 1 0 0
6.058662 -17.809305 0.508008 18.818523 -1.242882 1.543798 0.025711 -0.008317 -960663.000000 1 0 0
-7.088538 -16.794705 4.007008 18.664554 1.171410 1.354427 0.021183 -0.007104 1177080.000000 1 0 0
-5.283738 -13.513705 -9.481592 17.333167 1.198080 2.149597 0.013301 -0.009560 50444.400000 1 0 0
5.793562 -15.099405 -2.178092 16.318746 -1.204425 1.704668 0.019749 -0.006140 -1512990.000000 1 0 0
-8.749538 -10.370505 -0.528692 13.578707 0.869974 1.609742 0.004203 0.002353 -137069.000000 1 0 0
-7.421838 -18.528005 -2.839192 20.160150 1.189795 1.712098 0.022119 -0.008707 16543.600000 1 0 0
8.057962 -15.868005 -0.993992 17.824487 -1.100919 1.626591 0.028782 -0.011466 -729205.000000 1 0 0
-8.161638 -10.217205 -9.399992 16.104765 0.896779 2.194047 0.012006 -0.007914 -1208020.000000 1 0 0
-9.102838 -15.216405 -6.817392 18.996775 1.031683 1.937854 0.023132 -0.005870 -167608.000000 1 0 0
-11.505038 -10.470405 -11.937092 19.608402 0.738352 2.225311 0.037282 -0.000100 1135310.000000 1 0 0
6.578162 -16.281305 2.573908 17.747622 -1.186819 1.425255 0.022072 -0.012376 873305.000000 1 0 0
-2.200838 -11.148105 -6.163192 12.927059 1.375885 2.067769 0.002124 -0.001508 -1021550.000000 1 0 0
-12.540838 -15.257105 -3.355792 20.032803 0.882804 1.739105 0.026422 -0.004415 -38662.100000 1 0 0
-0.395038 -19.764505 -3.038092 20.000543 1.550812 1.723287 0.040926 -0.010155 -675905.000000 1 0 0
-5.846938 -15.625705 -4.659092 17.322138 1.212738 1.843117 0.001474 -0.004922 -2783090.000000 1 0 0
1.887062 -15.991705 -1.038292 16.136098 -1.453337 1.635187 0.012638 -0.007148 457488.000000 1 0 0
-13.171338 -11.989205 5.313008 18.586372 0.738449 1.280898 0.035343 -0.011059 497131.000000 1 0 0
1.966762 -15.193905 -8.867092 17.701644 -1.442068 2.095457 0.008119 0.003510 -1203780.000000 1 0 0
-11.812438 -16.812505 0.321408 20.549873 0.958329 1.555155 0.039762 -0.015610 231646.000000 1 0 0
-7.580938 -16.728905 -0.906592 18.388822 1.145314 1.620118 0.021415 -0.007250 424422.000000 1 0 0
-2.930338 -14.556705 -1.789392 14.956151 1.372146 1.690726 0.001817 -0.000609 269867.000000 1 0 0
-1.896738 -10.385005 -13.303692 16.983350 1.390146 2.470813 0.007357 -0.002305 -119577.000000 1 0 0
1.704662 -19.448105 4.958808 20.142602 -1.483368 1.322054 0.030524 -0.018709 -430059.000000 1 0 0
-17.467338 -9.306805 2.420308 19.939468 0.489551 1.449113 0.039820 -0.009303 345251.000000 1 0 0
-2.732438 -15.674905 -8.059892 17.836219 1.398211 2.039672 -0.004667 -0.002556 -712312.000000 1 0 0
-10.403238 -12.264705 0.168508 16.083492 0.867333 1.560319 0.010235 0.003675 -95818.000000 1 0 0
-6.841938 -11.434505 -6.598192 14.869302 1.031584 2.030571 0.003764 -0.003774 28423.700000 1 0 0
-2.287238 -13.628605 -6.647692 15.334997 1.404520 2.019167 -0.005192 -0.001060 545374.000000 1 0 0
-14.252538 -14.500305 -0.873492 20.350839 0.794015 1.613731 0.035861 -0.001871 -84211.000000 1 0 0
-9.477538 -11.364505 -4.459892 15.455301 0.875689 1.863526 0.008725 -0.002555 1059460.000000 1 0 0
9.546262 -15.203605 -4.949692 18.622034 -1.010118 1.839828 0.033312 -0.004954 553137.000000 1 0 0
-5.676038 -10.879705 -9.417392 15.468441 1.089933 2.225360 0.009199 -0.007800 -894123.000000 1 0 0
-10.433638 -16.047305 -4.721392 19.714673 0.994295 1.812633 0.027413 -0.000785 -392813.000000 1 0 0
2.141562 -17.374905 -3.284292 17.811799 -1.448159 1.756246 0.019596 -0.006218 402171.000000 1 0 0
-0.370538 -14.344605 -8.203792 16.528980 1.544971 2.090160 0.000991 -0.003325 -874021.000000 1 0 0
-0.737738 -18.232205 -7.080392 19.572672 1.530355 1.940939 0.012164 -0.010587 77146.800000 1 0 0
-1.966238 -10.096905 -10.639192 14.798851 1.378467 2.373044 0.003744 -0.003328 284951.000000 1 0 0
-5.089438 -17.340105 2.119508 18.195437 1.285307 1.454046 0.020013 -0.007784 233181.000000 1 0 0
0.320062 -12.795905 -2.674292 13.076294 -1.545789 1.776764 0.002867 -0.000684 -2516440.000000 1 0 0
2.698562 -14.904105 3.165008 15.473585 -1.391675 1.364800 0.012350 -0.007313 -1082090.000000 1 0 0
-9.322938 -13.105205 6.833808 17.474681 0.952466 1.169003 0.035460 -0.016409 -606439.000000 1 0 0
-1.021938 -17.797205 -4.535392 18.394418 1.513438 1.819929 0.018019 -0.010626 -505300.000000 1 0 0
-9.729538 -17.715305 -1.994192 20.309425 1.068555 1.669145 0.032466 -0.010355 -335014.000000 1 0 0
1.421462 -16.097905 1.428508 16.223555 -1.482724 1.482631 0.007746 -0.010579 -247863.000000 1 0 0
-0.258938 -18.043505 4.177808 18.522667 1.556447 1.343288 0.015999 -0.009834 -3741.700000 1 0 0
-17.337438 -9.322405 -0.092492 19.685084 0.493354 1.575495 0.010739 -0.002085 925161.000000 1 0 0
-14.770638 -7.222805 -10.513392 19.515944 0.454807 2.139699 0.051890 -0.012298 702880.000000 1 0 0
2.762562 -12.625405 -8.847392 15.662341 -1.355382 2.171088 -0.002475 0.001143 616069.000000 1 0 0
-11.412338 -14.711505 1.891408 18.714894 0.911023 1.469559 0.022128 -0.008443 -558602.000000 1 0 0
-2.225938 -15.612205 10.742808 19.081500 1.429174 0.972790 0.016097 -0.009335 -224046.000000 1 0 0
-7.007638 -15.981405 1.428208 17.508628 1.157558 1.489134 0.022368 -0.008024 -892846.000000 1 0 0
-12.455038 -15.201405 -6.000992 20.548055 0.884377 1.867162 0.020706 0.004979 -19394.600000 1 0 0
1.004262 -13.770405 -5.061192 14.705382 -1.497996 1.922154 0.006057 -0.002499 839505.000000 1 0 0
5.909562 -16.376905 -7.227992 18.851255 -1.224491 1.964295 0.032440 -0.013176 72839.700000 1 0 0
-6.608438 -12.793205 5.903808 15.562534 1.093990 1.181692 0.014688 -0.008633 -367403.000000 1 0 0
-2.552838 -13.570905 0.636108 13.823569 1.384858 1.524764 0.005911 -0.000522 1220190.000000 1 0 0
-4.197438 -15.564305 0.229508 16.121995 1.307379 1.556560 0.007688 -0.002376 306479.000000 1 0 0
-17.403538 -7.269505 -1.790792 18.945600 0.395674 1.665461 -0.003785 -0.006214 189172.000000 1 0 0
1.209562 -12.742905 -11.926592 17.495378 -1.476159 2.320879 -0.000601 0.006323 312217.000000 1 0 0
1.207962 -17.123205 -5.832592 18.129601 -1.500368 1.898338 0.024398 -0.007915 -1372280.000000 1 0 0
-12.753438 -6.443105 -9.039292 16.907767 0.467803 2.134859 0.018108 -0.002700 293404.000000 1 0 0
-11.734938 -13.506605 -8.851092 19.961938 0.855472 2.030183 0.032715 -0.011868 217486.000000 1 0 0
-4.323138 -9.899305 3.544708 11.368848 1.159048 1.253719 0.003121 -0.000020 -4382980.000000 1 0 0
-7.093838 -14.298805 9.741008 18.699347 1.110262 1.022859 0.027885 -0.017699 -920588.000000 1 0 0
-5.345638 -15.885505 -7.999592 18.571984 1.246189 2.016103 0.009900 -0.009527 -697968.000000 1 0 0
-0.255238 -13.481705 2.160708 13.656140 1.551866 1.411906 0.005406 -0.002947 559595.000000 1 0 0
-10.985438 -13.516005 -4.639992 18.024754 0.888316 1.831151 0.022982 -0.002699 -1081120.000000 1 0 0
-9.714338 -10.587405 6.664708 15.839186 0.828376 1.136499 0.037759 -0.007364 -589603.000000 1 0 0
-15.416738 -7.940005 -4.876192 18.013793 0.475595 1.844908 0.021655 -0.008452 -286300.000000 1 0 0
-14.577838 -7.299205 5.459308 17.192899 0.464212 1.247670 0.039811 -0.013923 17347.900000 1 0 0
-1.598538 -19.429105 -0.026492 19.494772 1.488706 1.572155 0.029516 -0.007541 -324818.000000 1 0 0
-15.328338 -12.117105 -1.331792 19.584582 0.668924 1.638851 0.012034 0.004475 1097690.000000 1 0 0
-4.413338 -12.126505 -6.769992 14.572661 1.221756 2.053943 -0.002218 -0.004282 -1187490.000000 1 0 0
-7.408738 -18.469105 2.168408 20.017473 1.189306 1.462258 0.032391 -0.010122 204217.000000 1 0 0
-2.581238 -11.907005 -8.682492 14.960789 1.357316 2.189955 0.001223 -0.002837 975137.000000 1 0 0
-1.447638 -20.346805 -5.330592 21.083248 1.499768 1.826406 0.029395 -0.013287 -90486.000000 1 0 0
-5.364138 -8.722105 -13.767892 17.158203 1.019417 2.502117 0.017779 -0.010403 756250.000000 1 0 0
-8.255238 -19.259705 -0.467192 20.959567 1.165857 1.593088 0.030912 -0.003882 -16075.300000 1 0 0
-17.174738 -7.279305 5.615308 19.480543 0.400886 1.278395 0.063911 -0.025002 -432373.000000 1 0 0
-3.531838 -14.771805 -4.290392 15.782508 1.336109 1.846106 -0.002049 0.000792 -2453580.000000 1 0 0
-2.904438 -14.894205 -10.997092 18.740574 1.378209 2.197906 0.006141 -0.002450 -613699.000000 1 0 0
-0.043938 -16.791205 6.347608 17.951006 1.568180 1.209372 0.028507 -0.012998 -505022.000000 1 0 0
-11.125638 -11.610405 3.862708 16.537891 0.806716 1.335052 0.025484 -0.007274 -234522.000000 1 0 0
-0.189438 -14.634605 -0.124492 14.636360 1.557853 1.579302 0.003191 -0.001227 677734.000000 1 0 0
-7.133638 -9.524205 -2.447392 12.148621 0.927935 1.773639 0.005472 0.000095 -511057.000000 1 0 0
-11.140838 -14.480105 -0.757892 18.285680 0.915001 1.612256 0.016648 -0.006209 -41467.700000 1 0 0
0.255662 -14.701005 -10.707292 18.188760 -1.553407 2.200217 0.000673 0.003431 -114822.000000 1 0 0
-1.402938 -14.022205 -3.923792 14.628281 1.471077 1.842355 -0.002759 0.000461 -2876630.000000 1 0 0
-11.175438 -8.070605 -7.560892 15.722346 0.625453 2.072478 0.009822 -0.006360 510178.000000 1 0 0
-0.182838 -17.256805 -0.189892 17.258818 1.560202 1.581799 0.012277 -0.008259 -92030.300000 1 0 0
-12.889238 -9.536405 4.639708 16.691386 0.636989 1.289116 0.029465 -0.006875 91080.000000 1 0 0
4.015062 -16.703105 1.509608 17.245096 -1.334894 1.483146 0.016748 -0.012634 1180220.000000 1 0 0
-3.921638 -17.967005 -8.138892 20.110546 1.355898 1.987455 0.013518 -0.010860 -102100.000000 1 0 0
-13.384938 -11.333905 2.768608 17.756102 0.702613 1.414233 0.017439 -0.002554 -251549.000000 1 0 0
-8.524138 -12.338705 4.038708 15.531121 0.966241 1.307733 0.019821 -0.005929 661696.000000 1 0 0
-8.227638 -9.371705 -5.829192 13.765985 0.850313 2.008045 0.007276 -0.005079 12441.000000 1 0 0
3.734962 -17.259705 -5.267392 18.428043 -1.357685 1.860675 0.010112 -0.010161 -895854.000000 1 0 0
-2.710938 -13.050105 11.292008 17.468940 1.365976 0.867933 0.004662 -0.008934 205297.000000 1 0 0
0.023662 -16.769305 -9.452992 19.250174 -1.569385 2.084103 0.011058 -0.002459 -370144.000000 1 0 0
-7.134238 -10.696405 -14.268192 19.206554 0.982580 2.408161 0.030387 -0.013240 773089.000000 1 0 0
-4.511738 -19.039905 -1.582192 19.631023 1.338126 1.651480 0.023990 -0.010797 -991647.000000 1 0 0
-2.519738 -17.385605 1.154108 17.605121 1.426866 1.505194 0.020330 -0.006358 654060.000000 1 0 0
3.948962 -14.524105 -7.320292 16.737102 -1.305324 2.023467 0.009961 -0.006357 900903.000000 1 0 0
-0.964638 -15.840805 -6.165392 17.025677 1.509976 1.941341 0.000308 -0.001713 -485209.000000 1 0 0
-9.526938 -15.271905 8.352308 19.843252 1.013045 1.136343 0.048447 -0.021158 -219169.000000 1 0 0
-7.198638 -12.172805 -1.736892 14.248311 1.036746 1.693002 0.002056 0.000097 796791.000000 1 0 0
-7.381338 -15.041405 -9.339492 19.182130 1.114588 2.079316 0.023924 -0.007934 -419120.000000 1 0 0
-5.023238 -13.334405 -0.543292 14.259538 1.210525 1.608906 0.004270 -0.000719 2993920.000000 1 0 0
-6.497338 -13.754705 -7.247792 16.850454 1.129494 2.015427 0.007387 -0.006477 312637.000000 1 0 0
5.858362 -15.336405 0.289208 16.419785 -1.205911 1.553182 0.015549 -0.005829 -419808.000000 1 0 0
-14.414738 -12.850305 1.007208 19.337256 0.728082 1.518686 0.007596 0.000133 1066580.000000 1 0 0
0.841362 -15.222405 11.160808 18.894262 -1.515581 0.938872 0.018705 -0.015688 155027.000000 1 0 0
-9.334838 -10.883405 1.966108 14.472501 0.861841 1.434524 0.010694 0.001584 331481.000000 1 0 0
-9.381038 -8.923305 -3.488592 13.408934 0.760397 1.833994 0.007693 -0.001512 -508576.000000 1 0 0
-12.188338 -7.225505 -12.213892 18.706754 0.535124 2.282221 0.032959 -0.005271 -1867110.000000 1 0 0
-13.181338 -8.461505 -0.540192 15.672796 0.570682 1.605270 0.012238 -0.004556 -557481.000000 1 0 0
-11.220838 -9.780905 0.483208 14.893179 0.716943 1.538346 0.010391 0.001811 1520330.000000 1 0 0
-15.879438 -12.170305 2.917608 20.218439 0.653927 1.425986 0.040757 -0.004295 -24703.000000 1 0 0
-10.355338 -12.589705 -2.329192 16.466901 0.882471 1.712719 0.015254 -0.001931 532379.000000 1 0 0
-3.349138 -8.795705 -12.030392 15.274537 1.206977 2.477718 0.005927 -0.003987 -586979.000000 1 0 0
-0.183538 -15.575505 3.911508 16.060197 1.559013 1.324769 0.015647 -0.007018 -1291050.000000 1 0 0
-15.731938 -7.776605 1.250408 17.593549 0.459093 1.499664 0.004425 -0.004791 553409.000000 1 0 0
-6.160238 -13.329905 -13.360592 19.852967 1.137896 2.309023 0.030122 -0.009151 -808232.000000 1 0 0
-15.302038 -10.383605 1.166208 18.529211 0.596203 1.507816 0.000349 0.000761 843491.000000 1 0 0
-9.940238 -8.304905 -12.483592 17.989437 0.696006 2.337743 0.017296 -0.005669 309672.000000 1 0 0
-13.185538 -11.810405 -6.212492 18.760041 0.730439 1.908324 0.019054 -0.000938 -131669.000000 1 0 0
-12.139638 -11.390405 -3.806192 17.076277 0.753567 1.795578 0.011438 -0.000678 -908011.000000 1 0 0
-11.729038 -10.923005 -8.832392 18.300096 0.749830 2.074465 0.021431 -0.017038 984317.000000 1 0 0
-13.102238 -8.387105 -5.847292 16.619356 0.569404 1.930328 0.013295 -0.009623 -1158860.000000 1 0 0
-13.338338 -8.142605 -3.239892 15.959642 0.548080 1.775223 0.013850 -0.006646 132482.000000 1 0 0
-4.270838 -16.996105 -3.214792 17.816917 1.324610 1.752225 -0.000283 -0.008377 -81607.800000 1 0 0
-15.334238 -8.916905 -1.774692 17.826934 0.526708 1.670513 0.008096 -0.003961 -204865.000000 1 0 0
-9.394938 -15.446005 3.664608 18.446497 1.024337 1.370804 0.029488 -0.017759 -1097750.000000 1 0 0
4.825862 -17.069305 7.997708 19.457992 -1.295266 1.147219 0.039740 -0.028433 21204.600000 1 0 0
-8.379038 -15.528905 6.103308 18.670981 1.075991 1.237788 0.029786 -0.005557 182622.000000 1 0 0
0.848462 -15.851505 8.588908 18.048807 -1.517322 1.074842 0.022781 -0.021156 431017.000000 1 0 0
-10.798838 -7.839105 -10.136592 16.757594 0.627912 2.220431 0.012741 -0.006387 612251.000000 1 0 0
-4.652638 -16.197205 5.871608 17.845791 1.291078 1.235532 0.013631 -0.007209 -1267710.000000 1 0 0
-1.358638 -13.243005 -12.103592 17.992221 1.468561 2.308665 0.005770 -0.000185 -2422300.000000 1 0 0
-6.337938 -14.510405 -2.474292 16.026335 1.158986 1.725805 0.004857 0.000054 227659.000000 1 0 0
-17.628038 -6.858205 -7.001292 20.169303 0.371032 1.925301 0.048431 -0.018850 385685.000000 1 0 0
-17.072038 -4.249505 -10.302592 20.387648 0.243958 2.100566 0.053872 -0.015472 384839.000000 1 0 0
-15.154538 -5.324405 -8.763992 18.298002 0.337869 2.070265 0.026259 -0.019899 585966.000000 1 0 0
-16.091238 -5.246005 -5.660792 17.846374 0.315151 1.893567 0.023871 -0.011844 -384899.000000 1 0 0
-15.262138 -4.364505 -12.406992 20.147337 0.278536 2.234214 0.064818 -0.009649 -220709.000000 1 0 0
-18.758838 -5.027105 -5.524392 20.191203 0.261834 1.847934 0.047187 -0.017375 940910.000000 1 0 0
-17.402638 -4.306405 -7.688492 19.506661 0.242584 1.975936 0.042012 -0.018677 824617.000000 1 0 0
12.275462 -7.857705 8.685208 16.966536 -0.569395 1.033399 0.015046 -0.008113 317479.000000 1 0 0
16.152562 -3.377505 1.845008 16.604724 -0.206130 1.459453 0.025937 -0.008832 65683.700000 1 0 0
12.045362 -2.094705 12.471008 17.464380 -0.172179 0.775484 0.016721 -0.002026 159529.000000 1 0 0
9.594962 -9.916005 5.228008 14.755423 -0.801851 1.208619 0.005970 -0.006973 -188805.000000 1 0 0
16.861362 -1.769605 7.272908 18.448095 -0.104567 1.165560 0.049380 -0.020090 -837020.000000 1 0 0
5.321962 -12.894805 9.194708 16.707541 -1.179372 0.988034 0.012095 -0.002771 -162559.000000 1 0 0
15.244262 -8.955705 -2.217592 17.818807 -0.531163 1.695572 0.041419 -0.009612 492386.000000 1 0 0
11.136162 -8.493105 6.471008 15.427925 -0.651554 1.137974 0.011853 -0.010162 -3142070.000000 1 0 0
20.002462 -3.355805 3.846808 20.643591 -0.166222 1.383357 0.078292 -0.013820 713904.000000 1 0 0
13.583562 -8.496705 6.559208 17.312722 -0.558969 1.182225 0.018149 -0.015290 -1531720.000000 1 0 0
8.308962 -10.938105 8.887008 16.360315 -0.921158 0.996546 0.006245 -0.004628 -2498100.000000 1 0 0
16.776762 0.096495 -0.712092 16.792145 0.005752 1.613215 0.021298 -0.002157 -229225.000000 1 0 0
12.569262 -12.483205 2.427608 17.880437 -0.781963 1.434607 0.019909 -0.012063 -1250610.000000 1 0 0
10.457262 -11.604005 3.654508 16.042527 -0.837331 1.340977 0.008519 -0.009226 1143300.000000 1 0 0
16.361762 2.892795 2.295108 16.773284 0.174994 1.433535 0.021897 -0.007964 -134682.000000 1 0 0
18.320162 -3.059005 0.579508 18.582833 -0.165448 1.539606 0.037920 -0.013275 -22185.000000 1 0 0
13.460362 -11.518705 -0.191692 17.717185 -0.707823 1.581616 0.037734 -0.008672 -530221.000000 1 0 0
16.856462 -7.485005 -0.857292 18.463493 -0.417890 1.617245 0.039667 -0.009465 17453.000000 1 0 0
10.208062 -5.623805 9.661408 15.138511 -0.503548 0.878638 0.007426 -0.007675 -474374.000000 1 0 0
11.506862 -13.419405 5.659208 18.561113 -0.861976 1.260967 0.015257 -0.015620 279436.000000 1 0 0
13.095162 -1.622805 10.156008 16.651164 -0.123295 0.914827 0.022051 -0.004364 899849.000000 1 0 0
15.550562 -2.054805 -1.345592 15.743342 -0.131376 1.656371 0.009651 -0.003647 117951.000000 1 0 0
10.449562 -12.347305 8.731208 18.381601 -0.868452 1.075836 0.012132 -0.020225 361091.000000 1 0 0
14.573862 1.160995 3.204808 14.967169 0.079495 1.355003 0.017801 -0.008268 1082800.000000 1 0 0
14.924462 -5.918505 5.120508 16.851940 -0.377541 1.262062 0.028817 -0.014558 -973584.000000 1 0 0
14.280862 -3.381805 -3.019792 14.983283 -0.232523 1.773730 0.011481 -0.004313 1165880.000000 1 0 0
14.087862 0.763395 9.595408 17.062312 0.054135 0.973542 0.036728 -0.011563 767812.000000 1 0 0
15.498962 -3.491305 4.374508 16.478573 -0.221562 1.302109 0.025988 -0.010449 -1261490.000000 1 0 0
18.820862 5.090795 -4.396192 19.986685 0.264166 1.792566 0.048068 -0.004114 736165.000000 1 0 0
17.937362 -5.859205 -5.262992 19.590261 -0.315722 1.842791 0.049707 -0.009054 363335.000000 1 0 0
17.410762 0.160195 5.938808 18.396460 0.009201 1.242085 0.055988 -0.010748 863228.000000 1 0 0
16.931662 -6.572405 3.824608 18.560854 -0.370269 1.363252 0.036503 -0.016577 -331108.000000 1 0 0
9.945162 -6.435805 14.170608 18.469758 -0.574354 0.696281 0.018212 -0.003676 -1020410.000000 1 0 0
8.596162 -12.285905 5.160608 15.857784 -0.960287 1.239329 0.006620 -0.009465 -1478680.000000 1 0 0
17.019062 -10.095705 -0.716792 19.801149 -0.535404 1.607004 0.062256 -0.010138 297125.000000 1 0 0
14.910662 -8.837605 0.327508 17.336042 -0.535037 1.551903 0.036931 -0.006781 -82000.600000 1 0 0
10.099862 -12.953105 1.581608 16.501261 -0.908541 1.474801 0.020675 -0.016204 208299.000000 1 0 0
16.765162 -8.205405 8.829508 20.648475 -0.455157 1.128948 0.047395 -0.007696 585276.000000 1 0 0
19.070562 -0.131305 -2.006492 19.176277 -0.006885 1.675622 0.052841 -0.006591 -768659.000000 1 0 0
13.368762 -1.025105 7.754008 15.488682 -0.076529 1.046477 0.016238 -0.010801 22897.500000 1 0 0
12.883862 -9.790305 -3.096692 16.475238 -0.649800 1.759881 0.026769 -0.007438 -1945610.000000 1 0 0
8.858262 -15.273105 1.540308 17.723123 -1.045219 1.483777 0.029246 -0.010141 1662960.000000 1 0 0
11.479962 -8.217805 11.086408 17.950774 -0.621277 0.905108 0.015582 -0.008246 185152.000000 1 0 0
13.932362 -3.977505 -0.514992 14.498154 -0.278089 1.606325 0.010565 -0.005763 217559.000000 1 0 0
7.271162 -13.252305 10.874008 18.620887 -1.068974 0.947188 0.018231 -0.002338 143737.000000 1 0 0
15.462162 -6.701005 1.722808 16.939598 -0.408948 1.468917 0.027611 -0.010314 141317.000000 1 0 0
15.657862 -6.034105 -2.526592 16.969465 -0.367833 1.720243 0.050044 -0.011690 539596.000000 1 0 0
11.184662 -8.607805 3.847808 14.628622 -0.655933 1.304632 0.016120 -0.011318 289566.000000 1 0 0
10.762562 -14.502305 -0.337092 18.062758 -0.932353 1.589460 0.043477 -0.016660 641472.000000 1 0 0
13.826162 -12.770805 4.599808 19.375615 -0.745739 1.331106 0.023708 -0.012974 741509.000000 1 0 0
12.757162 -11.047905 6.303608 18.014906 -0.713719 1.213321 0.004792 -0.013152 -427035.000000 1 0 0
11.085562 -10.576705 1.327608 15.379171 -0.761912 1.484364 0.012336 -0.009159 565941.000000 1 0 0
13.985662 -7.517305 11.675008 19.708232 -0.493196 0.936771 0.028164 -0.020272 -165964.000000 1 0 0
15.382562 -1.807305 -4.955392 16.261780 -0.116954 1.880447 0.019372 -0.001660 -604755.000000 1 0 0
12.895362 -11.346605 -7.012892 18.553071 -0.721597 1.958422 0.050452 -0.009927 -99449.800000 1 0 0
17.794462 -5.398305 1.859708 18.688047 -0.294546 1.471118 0.055132 -0.008221 -644.237000 1 0 0
10.614962 -9.805605 9.089508 17.071803 -0.745784 1.009330 0.004660 -0.009394 -870735.000000 1 0 0
16.516462 2.017795 9.502908 19.161688 0.121566 1.051888 0.070927 -0.020941 -844831.000000 1 0 0
18.105862 3.661195 0.429808 18.477319 0.199520 1.547533 0.021878 -0.006504 354397.000000 1 0 0
13.358962 -4.006805 5.674208 15.056991 -0.291396 1.184405 0.021173 -0.014024 -837660.000000 1 0 0
12.070662 -6.165705 6.636708 15.091809 -0.472251 1.115470 0.016784 -0.011527 2436.660000 1 0 0
16.704662 -10.223705 3.489208 19.893327 -0.549216 1.394488 0.038213 -0.010182 512439.000000 1 0 0
16.313462 -8.150405 -5.569392 19.067676 -0.463337 1.867203 0.065910 -0.008186 -5703.400000 1 0 0
14.090062 -0.299105 5.315508 15.062335 -0.021225 1.210127 0.018667 -0.009212 1696470.000000 1 0 0
18.164862 -4.228305 5.596208 19.471988 -0.228701 1.279287 0.052699 -0.008701 -42096.300000 1 0 0
13.616062 -13.406605 7.136208 20.397540 -0.777647 1.213379 0.017782 -0.011205 16113.300000 1 0 0
15.003862 -13.551205 -0.805192 20.233620 -0.734570 1.610602 0.041625 -0.008435 274385.000000 1 0 0
17.930962 -6.052705 8.026508 20.556738 -0.325546 1.169669 0.069753 -0.008224 154839.000000 1 0 0
14.379562 3.415895 9.346408 17.487009 0.233229 1.006907 0.040728 -0.018820 -807930.000000 1 0 0
18.831662 3.738495 2.820808 19.405278 0.195974 1.424917 0.063470 -0.013509 341144.000000 1 0 0
14.678062 -10.414205 8.003908 19.696794 -0.617079 1.152334 0.014250 -0.019578 -373804.000000 1 0 0
14.762562 -4.757305 10.309008 18.623663 -0.311747 0.984183 0.030969 -0.013486 121218.000000 1 0 0
17.839562 -7.956905 1.864008 19.622356 -0.419544 1.475659 0.069596 -0.011947 315710.000000 1 0 0
18.278862 -5.780505 -2.155492 19.291894 -0.306288 1.682761 0.040538 -0.010960 -25056.800000 1 0 0
14.324762 -12.955605 -5.345992 20.040612 -0.735252 1.840824 0.066251 -0.012569 -1257870.000000 1 0 0
15.501562 -1.430405 9.432508 18.202107 -0.092014 1.026040 0.055784 -0.014442 -282705.000000 1 0 0
12.968762 -9.971805 10.104208 19.228122 -0.655494 1.017504 0.005704 -0.020075 -1705410.000000 1 0 0
16.548762 2.125495 4.733508 17.343165 0.127739 1.294357 0.037083 -0.014790 -1783020.000000 1 0 0
14.920262 2.376595 -0.026092 15.108379 0.157959 1.572523 0.007816 -0.002202 -1160370.000000 1 0 0
15.156162 -10.056505 -6.954092 19.473108 -0.585825 1.935971 0.065872 -0.008503 525620.000000 1 0 0
16.203662 -0.091805 -3.220892 16.520934 -0.005666 1.767011 0.016389 -0.002239 99351.900000 1 0 0
12.034862 2.758795 13.559508 18.338733 0.225340 0.738630 0.037174 -0.007133 -103094.000000 1 0 0
17.648962 -2.926505 9.549008 20.278901 -0.164322 1.080504 0.056596 -0.016453 699130.000000 1 0 0
7.859062 -18.022805 4.568808 20.185647 -1.159593 1.342478 0.043721 -0.024211 -355445.000000 1 0 0
6.847562 -11.114705 6.615608 14.635301 -1.018636 1.101756 0.007337 -0.006800 340120.000000 1 0 0
17.916762 2.130995 -1.595892 18.113486 0.118383 1.659016 0.023038 -0.001397 405334.000000 1 0 0
17.635262 -2.321805 3.729508 18.174226 -0.130904 1.364119 0.035978 -0.009485 -1626330.000000 1 0 0
12.643962 -13.448505 -1.871892 18.553599 -0.816223 1.671859 0.043404 -0.008885 116565.000000 1 0 0
15.107662 -8.292705 4.249908 17.750271 -0.502004 1.329020 0.025042 -0.008891 -323686.000000 1 0 0
11.800662 -2.642005 15.052208 19.308153 -0.220254 0.676805 0.027873 -0.004548 84812.700000 1 0 0
12.070062 -13.666805 -6.443092 19.338598 -0.847360 1.910463 0.040658 -0.012343 -234459.000000 1 0 0
10.652062 -12.029305 -1.230992 16.114774 -0.846045 1.647260 0.028640 -0.013186 -915790.000000 1 0 0
13.157362 -8.073005 2.074608 15.575416 -0.550340 1.437202 0.016990 -0.005031 278121.000000 1 0 0
8.790662 -7.804205 10.024608 15.449081 -0.726024 0.864684 0.005310 -0.001638 -1374970.000000 1 0 0
15.643762 -3.721005 8.090008 18.000594 -0.233519 1.104669 0.045599 -0.015453 -1166630.000000 1 0 0
10.277062 -17.254705 5.224708 20.751877 -1.033612 1.316287 0.038033 -0.022664 500027.000000 1 0 0
15.228262 -6.316005 8.212508 18.418392 -0.393162 1.108632 0.034987 -0.009326 -187124.000000 1 0 0
16.620262 -4.806505 -0.336292 17.304586 -0.281515 1.590231 0.031446 -0.007124 -828474.000000 1 0 0
14.101262 -10.546205 3.354108 17.925347 -0.642150 1.382572 0.026603 -0.013151 46808.700000 1 0 0
15.042462 -10.078205 -4.458492 18.647360 -0.590296 1.812230 0.060057 -0.012062 244599.000000 1 0 0
13.571562 -6.583205 -0.042392 15.084021 -0.451635 1.573607 0.019364 -0.006430 123958.000000 1 0 0
17.835662 -0.885905 -4.959692 18.533597 -0.049630 1.841703 0.043342 -0.007496 -43679.900000 1 0 0
14.318362 0.210895 -1.601492 14.409190 0.014728 1.682170 0.008827 -0.003333 -1967160.000000 1 0 0
4.867462 -12.910305 11.798908 18.154404 -1.210255 0.863317 0.005752 -0.002910 -762638.000000 1 0 0
12.087062 -7.506705 13.419008 19.558053 -0.555756 0.814666 0.023251 -0.011878 -738649.000000 1 0 0
12.087862 -5.671605 11.538508 17.647115 -0.438704 0.858139 0.014192 -0.006653 622628.000000 1 0 0
13.255862 -4.638305 8.268808 16.297390 -0.336591 1.038666 0.020687 -0.010125 -1431800.000000 1 0 0
15.430862 -1.194505 3.118908 15.788158 -0.077256 1.371941 0.022587 -0.005148 116559.000000 1 0 0
15.185862 -10.366005 5.693108 19.247752 -0.598958 1.270524 0.026978 -0.015849 61834.500000 1 0 0
13.744862 -8.128605 -5.759892 16.975624 -0.534066 1.916973 0.041388 -0.007147 -1627520.000000 1 0 0
9.724062 -2.165105 13.559508 16.825734 -0.219081 0.633638 0.011987 -0.001855 -922706.000000 1 0 0
9.968562 -9.013505 13.595108 19.116549 -0.735127 0.779636 0.022669 -0.008615 -842581.000000 1 0 0
20.318462 6.429695 -2.743092 21.487332 0.306476 1.698807 0.084541 -0.012808 1064930.000000 1 0 0
11.316662 -3.466005 10.463008 15.797296 -0.297203 0.846873 0.012991 -0.001206 835486.000000 1 0 0
10.202962 -13.981005 -2.797792 17.532729 -0.940367 1.731057 0.031578 -0.008970 822284.000000 1 0 0
15.122962 -12.783505 2.330808 19.938772 -0.701762 1.453630 0.033289 -0.006278 124460.000000 1 0 0
11.389762 -0.198505 14.128808 18.149085 -0.017427 0.678546 0.034968 -0.007524 45857.000000 1 0 0
19.083362 -1.903105 5.872908 20.057108 -0.099397 1.273633 0.082152 -0.016780 1086870.000000 1 0 0
19.001762 -0.279105 7.908508 20.583716 -0.014687 1.176442 0.090518 -0.019617 460327.000000 1 0 0
18.972362 0.750595 0.461408 18.992810 0.039542 1.546500 0.056580 -0.013288 -203525.000000 1 0 0
18.714262 0.868595 3.721708 19.100502 0.046380 1.374693 0.060078 -0.016478 621662.000000 1 0 0
16.656762 -3.874905 -4.140492 17.595633 -0.228567 1.808338 0.037899 -0.008761 -1831950.000000 1 0 0
11.035362 -8.172405 15.721208 20.873998 -0.637435 0.717962 0.035117 -0.013573 288371.000000 1 0 0
16.593862 -7.516805 6.279708 19.268974 -0.425335 1.238836 0.041887 -0.014398 59304.100000 1 0 0
18.798862 2.365695 5.927708 19.852744 0.125184 1.267588 0.059970 -0.017157 445744.000000 1 0 0
15.081962 1.808395 7.472308 16.928416 0.119335 1.113631 0.032064 -0.014969 -342291.000000 1 0 0
8.763162 -15.569205 3.882408 18.282949 -1.058139 1.356816 0.021264 -0.024137 119846.000000 1 0 0
11.405062 -15.136305 2.028508 19.060378 -0.925065 1.464169 0.036601 -0.015409 -832902.000000 1 0 0
8.145562 -16.035705 6.218008 19.030439 -1.100798 1.237944 0.026128 -0.017565 -198532.000000 1 0 0
14.591762 -11.633305 -2.493692 18.827422 -0.673063 1.703637 0.047586 -0.008028 522223.000000 1 0 0
13.684262 -4.718505 3.087908 14.800625 -0.332046 1.360619 0.014341 -0.004400 -2652570.000000 1 0 0
-0.959038 10.321095 -5.570292 11.767452 -1.478142 2.063903 0.000085 0.000335 -76466.300000 1 0 0
8.279862 -1.816805 -7.974092 11.638000 -0.216001 2.325643 0.003510 -0.001477 -7753.820000 1 0 0
2.907362 -10.220305 7.694108 13.118943 -1.293648 0.944080 0.001596 -0.002261 659123.000000 1 0 0
-6.387938 1.343995 8.473808 10.696611 -0.207371 0.656398 -0.000639 -0.002951 -571491.000000 1 0 0
7.189262 -6.297605 -7.221792 11.979132 -0.719381 2.217883 0.005592 -0.004436 493587.000000 1 0 0
-11.339738 -4.478605 -4.028992 12.840574 0.376143 1.889958 0.005855 -0.007777 66762.900000 1 0 0
2.126162 -3.143405 2.866308 4.755763 -0.976094 0.923913 0.000871 0.001693 1470410.000000 1 0 0
-3.647238 -4.181805 8.874108 10.466118 0.853572 0.558805 0.000862 -0.002267 -1589850.000000 1 0 0
-4.813738 -1.148905 -2.397192 5.498962 0.234289 2.021874 0.002472 -0.002217 -168590.000000 1 0 0
4.988062 -5.249005 -3.666192 8.116266 -0.810883 2.039477 0.005657 -0.004486 242922.000000 1 0 0
2.698862 14.405795 -8.834592 17.113177 1.385598 2.113257 0.018011 -0.005465 -123645.000000 1 0 0
5.543162 -5.505305 13.670708 15.745580 -0.781972 0.519182 0.002364 -0.002030 -1118940.000000 1 0 0
-4.741438 -0.840505 9.874508 10.986063 0.175445 0.453723 0.005390 -0.002104 -4299440.000000 1 0 0
-0.964038 11.922995 -2.557792 12.232313 -1.490117 1.781452 -0.000949 -0.001062 -689905.000000 1 0 0
3.206162 9.497995 -10.522792 14.533429 1.245245 2.380439 0.010517 -0.000822 -188048.000000 1 0 0
-10.714438 2.650695 1.119108 11.094042 -0.242525 1.469750 0.002112 -0.003223 408564.000000 1 0 0
5.802362 -9.024705 -0.825392 10.760761 -0.999399 1.647576 0.005216 -0.004606 446137.000000 1 0 0
-6.973238 5.413495 9.431608 12.918483 -0.660137 0.752348 0.003146 -0.001303 195986.000000 1 0 0
-5.529438 -1.797105 5.212608 7.808684 0.314238 0.839897 -0.002753 -0.000030 557301.000000 1 0 0
6.605562 -3.777305 -7.367492 10.591573 -0.519454 2.340050 0.005270 -0.005119 622592.000000 1 0 0
6.244962 4.743995 11.014808 13.521503 0.649650 0.618733 0.005483 0.000133 267500.000000 1 0 0
3.743262 -9.806105 3.206008 10.974980 -1.206140 1.274354 -0.002026 -0.000566 804236.000000 1 0 0
-6.559038 6.715095 -5.900292 11.087242 -0.797154 2.131957 0.003605 -0.003378 -186599.000000 1 0 0
-11.120338 8.304695 5.231108 14.832207 -0.641452 1.210357 0.002758 -0.009158 694111.000000 1 0 0
-9.119338 -5.504605 5.082108 11.802153 0.543076 1.125629 0.003496 0.000219 73648.200000 1 0 0
3.230362 9.882895 -8.049192 13.149006 1.254879 2.229576 0.005214 -0.002019 629148.000000 1 0 0
-8.095938 -8.573205 6.004108 13.232285 0.814022 1.099831 0.007348 -0.001683 -1536970.000000 1 0 0
-7.744338 -5.666005 -7.548492 12.208936 0.631642 2.237344 0.008003 -0.005247 1135370.000000 1 0 0
9.225862 -1.570105 6.910208 11.633260 -0.168570 0.934769 0.004850 -0.005817 3728620.000000 1 0 0
-4.058238 -0.463305 -4.825792 6.322358 0.113672 2.439187 0.009369 -0.006205 -1336110.000000 1 0 0
9.052262 1.200395 -4.539492 10.197617 0.131838 2.032141 -0.000365 0.000460 -3490130.000000 1 0 0
-1.971938 -10.654505 10.601808 15.159332 1.387787 0.796297 -0.003629 -0.006445 308683.000000 1 0 0
-12.870438 0.164295 -2.612692 13.133976 -0.012765 1.771058 0.005820 -0.003827 -400942.000000 1 0 0
-9.821138 -4.990705 -6.077092 12.581452 0.470154 2.074897 0.004178 -0.006580 -565273.000000 1 0 0
-5.639138 8.279595 -0.158392 10.018815 -0.972876 1.586606 0.000525 -0.000300 913860.000000 1 0 0
6.289462 9.620495 0.339108 11.498968 0.991785 1.541302 0.004534 -0.001518 258832.000000 1 0 0
-0.577838 -12.074905 -0.011292 12.088728 1.522978 1.571730 0.006351 -0.000264 3454.020000 1 0 0
6.136662 4.816195 2.398408 8.161294 0.665418 1.272517 0.003096 -0.000510 500467.000000 1 0 0
3.399062 -7.350605 -8.415392 11.679205 -1.137663 2.375384 0.000352 -0.003692 1049930.000000 1 0 0
-6.562538 -9.928805 4.547708 12.740868 0.986755 1.205808 0.005783 -0.000214 -2375070.000000 1 0 0
-0.052138 6.473995 -9.214092 11.261209 -1.562743 2.529096 0.008094 -0.002121 -1303830.000000 1 0 0
-17.207938 -2.902305 4.064808 17.918124 0.167088 1.341950 0.052838 -0.019690 80067.100000 1 0 0
-8.364338 0.871395 -9.118792 12.404590 -0.103805 2.396632 0.008998 -0.006786 164427.000000 1 0 0
-10.027138 -5.772105 -11.832292 16.548832 0.522321 2.367410 0.012034 -0.001857 -1291190.000000 1 0 0
2.137862 9.413695 6.472708 11.622567 1.347483 0.980137 -0.003655 0.002869 18341.300000 1 0 0
-11.444238 1.649995 -1.147292 11.619352 -0.143190 1.669697 0.003084 -0.005322 -1804040.000000 1 0 0
-5.964938 -5.380805 -3.095292 8.608971 0.733959 1.938574 0.008920 -0.003651 461646.000000 1 0 0
-6.939838 -8.402705 1.250808 10.969563 0.880458 1.456522 0.005179 0.000978 97574.600000 1 0 0
-0.019838 11.082995 -7.993792 13.665061 -1.569006 2.195652 0.007994 0.002118 -80382.000000 1 0 0
-2.885638 9.263095 -4.320792 10.620786 -1.268805 1.989771 0.004036 -0.001663 244524.000000 1 0 0
3.565362 -4.884005 9.327508 11.116101 -0.940213 0.575172 0.001085 0.001307 -1032050.000000 1 0 0
-9.008338 1.497995 -0.458692 9.143552 -0.164782 1.620983 0.004229 -0.003941 -1354050.000000 1 0 0
2.478962 3.618295 -10.475892 11.357008 0.970128 2.745088 0.004340 -0.000869 -1170090.000000 1 0 0
-13.725338 0.380995 1.069708 13.772230 -0.027751 1.493047 0.007489 -0.006149 241065.000000 1 0 0
9.518262 -12.615205 -5.040192 16.587472 -0.924417 1.879533 0.029519 -0.005871 -1112470.000000 1 0 0
-4.795438 9.377395 -8.244392 13.375417 -1.098084 2.234939 0.009920 -0.002791 -802393.000000 1 0 0
-2.414138 7.156595 8.384108 11.284422 -1.245453 0.733284 -0.000207 0.002061 -2106710.000000 1 0 0
-10.717838 -1.140505 -4.420892 11.649768 0.106013 1.960034 0.002169 -0.003419 -3059230.000000 1 0 0
2.809062 -7.180605 9.764708 12.441922 -1.197898 0.668386 0.000028 -0.000049 -499638.000000 1 0 0
-16.106038 -6.568805 3.401708 17.723579 0.387253 1.377667 0.036561 -0.014808 14042.300000 1 0 0
-10.689838 -0.088005 6.180308 12.348141 0.008232 1.046614 0.001125 -0.003431 -1274700.000000 1 0 0
-8.453738 9.745795 9.464808 16.000900 -0.856273 0.937857 0.005428 -0.009963 924585.000000 1 0 0
0.239162 -6.014105 -3.761992 7.097833 -1.531050 2.129420 -0.000603 -0.000455 551358.000000 1 0 0
4.952762 1.597695 -3.047292 6.030628 0.312048 2.100529 -0.001882 -0.001332 -237377.000000 1 0 0
0.281262 5.358195 3.814108 6.583068 1.518352 0.952827 0.000548 0.000888 -1487280.000000 1 0 0
6.081862 -11.309905 -1.596992 12.940378 -1.077409 1.694523 0.004251 -0.006491 -1164270.000000 1 0 0
6.276262 -13.436805 5.284608 15.743769 -1.133818 1.228487 0.011415 -0.009718 -198427.000000 1 0 0
8.368262 -8.202805 -6.043192 13.184612 -0.775414 2.046936 0.012095 -0.004314 680494.000000 1 0 0
-13.127938 -1.430105 -4.554392 13.968910 0.108508 1.902906 0.003318 -0.002369 -3695440.000000 1 0 0
-6.780138 -1.481205 -7.114692 9.938968 0.215083 2.368620 0.008422 -0.005223 -933255.000000 1 0 0
-5.718038 12.884195 -4.479992 14.790834 -1.153108 1.878520 0.005584 -0.000491 797400.000000 1 0 0
-4.287538 6.938395 -6.755792 10.590800 -1.017287 2.262555 0.006354 -0.002227 -3477040.000000 1 0 0
-9.362638 -3.600005 -8.104692 12.895932 0.367080 2.250380 0.004979 -0.003587 534410.000000 1 0 0
-2.057338 -6.184305 9.280108 11.340135 1.249642 0.612276 0.001971 -0.000157 55278.100000 1 0 0
7.558062 -5.971505 10.047708 13.919037 -0.668665 0.764298 0.006033 -0.002391 405272.000000 1 0 0
9.713262 -4.866305 12.156908 16.303950 -0.464444 0.729299 0.009673 -0.000266 -122036.000000 1 0 0
-6.552838 2.829195 -9.100192 11.565359 -0.407575 2.476483 0.007364 -0.006650 -105314.000000 1 0 0
7.436262 5.578695 8.822108 12.815983 0.643630 0.811560 0.007382 -0.005297 -476967.000000 1 0 0
12.716162 3.492095 11.174208 17.284630 0.268012 0.867832 0.029683 -0.008508 -392547.000000 1 0 0
-7.437138 -7.348005 -3.932892 11.170131 0.779370 1.930600 0.005073 -0.005108 -716566.000000 1 0 0
2.357362 1.480195 -5.788392 6.422898 0.560684 2.693354 -0.000137 -0.003076 -620045.000000 1 0 0
12.885162 6.878395 -7.044392 16.216140 0.490338 2.020175 0.008860 0.000457 165577.000000 1 0 0
0.870162 -7.812005 0.949508 7.917459 -1.459866 1.450581 -0.002901 0.000879 122453.000000 1 0 0
-10.215338 -5.969405 -8.545692 14.595060 0.528838 2.196317 0.006538 -0.002797 419617.000000 1 0 0
-6.752638 0.276295 3.143008 7.453385 -0.040894 1.135490 -0.001227 -0.001757 -985876.000000 1 0 0
10.694762 -7.910105 1.353708 13.370872 -0.636827 1.469380 0.009057 -0.007715 274401.000000 1 0 0
6.286662 1.208495 10.553108 12.343041 0.189915 0.545276 0.003908 -0.001431 304461.000000 1 0 0
-13.086138 5.232795 1.837708 14.212893 -0.380397 1.441135 0.002130 -0.002376 -190866.000000 1 0 0
2.042462 7.401795 3.700608 8.523657 1.301555 1.121694 -0.003306 0.002554 -142241.000000 1 0 0
10.217962 -9.410105 -0.806092 13.914259 -0.744263 1.628762 0.007304 -0.007138 848641.000000 1 0 0
6.734962 -11.689805 -9.099092 16.272822 -1.048106 2.164167 0.002784 -0.002766 56897.900000 1 0 0
10.280462 3.596895 11.763808 16.031617 0.336565 0.746915 0.014288 -0.005293 -1342500.000000 1 0 0
-11.059938 -3.137305 -1.930392 11.657243 0.276403 1.737159 0.005544 -0.004284 -1044790.000000 1 0 0
12.323362 1.093295 6.795108 14.115029 0.088486 1.068534 0.014897 -0.011266 -765722.000000 1 0 0
-9.605038 8.883595 2.986508 13.419920 -0.746397 1.346374 0.002733 -0.005574 1963670.000000 1 0 0
-6.658938 7.528595 -8.913292 13.433837 -0.846619 2.296278 0.010984 -0.005149 -470318.000000 1 0 0
8.473062 5.537895 12.030808 15.722640 0.578894 0.699460 0.014611 -0.001756 -1426610.000000 1 0 0
1.237462 4.805395 -2.786592 5.691066 1.318757 2.082477 0.002019 -0.000472 612264.000000 1 0 0
1.541562 0.559795 9.620708 9.759498 0.348328 0.168848 0.003849 0.000894 520357.000000 1 0 0
2.479562 12.611095 -3.984492 13.456007 1.376655 1.871416 0.005177 -0.005198 634464.000000 1 0 0
2.082062 0.676595 12.919108 13.103286 0.314199 0.167863 0.004755 -0.000381 18958.200000 1 0 0
-12.323938 -1.808805 0.829208 12.483541 0.145731 1.504323 0.007122 -0.006079 226792.000000 1 0 0
3.239462 8.726495 -1.306792 9.399657 1.215342 1.710274 0.001696 0.000121 557078.000000 1 0 0
3.712262 -2.758805 -5.838492 7.448482 -0.639109 2.471638 0.000052 -0.002713 -1549170.000000 1 0 0
-7.810638 -7.144505 9.369808 14.136595 0.740886 0.846238 0.012252 -0.004243 -94967.600000 1 0 0
-7.069538 10.918995 -3.458692 13.459769 -0.996214 1.830677 0.006168 -0.000637 110740.000000 1 0 0
0.208762 0.476495 2.534408 2.587248 1.157866 0.202451 0.003288 0.001042 -2469370.000000 1 0 0
-7.182438 4.513995 -1.967492 8.708306 -0.561096 1.798697 0.004248 -0.004565 -1002770.000000 1 0 0
-6.891438 -3.822005 -5.886092 9.835940 0.506369 2.212333 0.005061 -0.004082 37941.200000 1 0 0
2.987362 -6.073705 13.460708 15.066681 -1.113689 0.465919 0.001755 -0.002542 -1060390.000000 1 0 0
-5.456338 -0.595905 -11.773792 12.990339 0.108782 2.705360 0.014589 -0.006984 -680527.000000 1 0 0
11.765162 2.430895 -0.625292 12.029933 0.203751 1.622798 0.001661 -0.001173 -1514440.000000 1 0 0
6.188062 -10.907805 10.821608 16.564405 -1.054764 0.858855 0.007383 -0.001838 619308.000000 1 0 0
-8.185638 6.235595 -10.537992 14.728768 -0.650993 2.368093 0.008113 -0.005256 575647.000000 1 0 0
2.894662 8.080195 11.247008 14.147926 1.226798 0.651858 0.004176 0.001127 1152380.000000 1 0 0
-6.079838 -10.289105 -0.459092 11.959969 1.037094 1.609191 0.006464 0.000877 202580.000000 1 0 0
11.272062 4.374595 6.070608 13.529551 0.370199 1.105495 0.007456 -0.009784 593210.000000 1 0 0
-7.806138 10.450895 1.453208 13.125122 -0.929260 1.459849 -0.001513 -0.002126 1059060.000000 1 0 0
4.317262 -2.668105 -3.583792 6.212979 -0.553556 2.185631 0.002600 -0.003656 -4891200.000000 1 0 0
6.307662 6.426595 6.352008 11.019788 0.794738 0.956458 0.003453 -0.002627 -4891250.000000 1 0 0
-0.267638 10.511195 -10.224092 14.665910 -1.545340 2.342187 0.006296 0.001342 1090.970000 1 0 0
13.970562 6.542795 -2.416592 15.614887 0.437990 1.726183 0.012092 -0.000339 646957.000000 1 0 0
1.439862 9.546595 -6.333192 11.546429 1.421100 2.151363 0.002855 0.000152 154131.000000 1 0 0
0.469162 7.376295 7.263808 10.363047 1.507278 0.794091 -0.003978 0.002701 296972.000000 1 0 0
12.248462 6.266295 1.954308 13.896424 0.472883 1.429695 0.005117 -0.005023 -2460330.000000 1 0 0
-6.847738 6.698395 -3.186592 10.095265 -0.774374 1.891940 0.000974 -0.004633 678558.000000 1 0 0
0.958462 9.914295 11.172608 14.967935 1.474421 0.728106 0.001706 -0.000978 -890830.000000 1 0 0
-3.734738 13.588795 -10.943292 17.842625 -1.302579 2.231057 0.004100 -0.000828 -111060.000000 1 0 0
-10.079238 -5.565505 -2.224992 11.726742 0.504512 1.761690 0.003885 -0.006114 -417769.000000 1 0 0
-3.990238 3.963495 -12.482392 13.690924 -0.782036 2.718266 0.011216 -0.007938 -921608.000000 1 0 0
-3.268638 8.420095 2.476508 9.365633 -1.200508 1.303189 -0.001004 0.000873 -2570460.000000 1 0 0
6.978362 8.883095 7.038608 13.309730 0.904912 1.013573 0.014461 -0.002149 493815.000000 1 0 0
-1.281438 -2.363505 -8.243892 8.671217 1.073979 2.826344 0.007010 -0.006274 -1444680.000000 1 0 0
0.757262 -1.242305 4.831108 5.045430 -1.023375 0.292516 0.003667 0.000218 160713.000000 1 0 0
2.642562 -8.656605 -6.266092 11.008354 -1.274516 2.176344 -0.000500 -0.001231 300020.000000 1 0 0
5.425262 3.967795 8.669708 10.969991 0.631461 0.659479 0.001322 -0.001771 898504.000000 1 0 0
6.129162 -7.434305 -2.899492 10.061937 -0.881328 1.863106 0.004063 -0.005654 765432.000000 1 0 0
1.723362 2.231395 -8.308292 8.773644 0.913160 2.814437 0.005501 -0.003101 79942.800000 1 0 0
-5.478238 10.882895 -0.755892 12.207370 -1.104448 1.632757 -0.000036 -0.001316 674677.000000 1 0 0
-5.523438 3.238795 -3.505592 7.299818 -0.530339 2.071713 0.004060 -0.001399 688301.000000 1 0 0
2.147262 13.793795 -6.319792 15.323815 1.416367 1.995901 0.003028 -0.002560 427005.000000 1 0 0
-4.992538 -2.645305 2.717708 6.269689 0.487243 1.122459 0.001076 0.001281 762975.000000 1 0 0
10.452062 -3.365705 -1.968192 11.155597 -0.311528 1.748156 0.002122 -0.002306 237948.000000 1 0 0
2.296662 -3.384005 7.095008 8.189339 -0.974522 0.522907 0.000652 0.002196 -1709490.000000 1 0 0
-2.793938 9.851595 -11.662392 15.520033 -1.294450 2.421040 0.004400 -0.000083 -2398700.000000 1 0 0
0.551862 -1.958205 9.252708 9.473738 -1.296100 0.216435 0.001030 0.000570 666371.000000 1 0 0
9.511262 2.776295 4.909408 11.057767 0.284005 1.110763 0.002585 -0.006446 73735.800000 1 0 0
13.366862 2.054795 -5.044292 14.433990 0.152529 1.927805 0.010633 -0.001820 114894.000000 1 0 0
-6.550238 3.797395 7.600908 10.728449 -0.525385 0.783452 -0.001751 -0.002415 -130431.000000 1 0 0
10.663462 0.038795 1.937108 10.838050 0.003638 1.391099 0.003444 0.000764 1950770.000000 1 0 0
15.255262 6.795795 -4.558792 17.311512 0.419082 1.837278 0.018501 0.001880 -483753.000000 1 0 0
8.161562 -5.051405 -9.217892 13.307792 -0.554220 2.335979 0.008807 0.001245 1205580.000000 1 0 0
4.417062 5.651395 -2.258692 7.520000 0.907384 1.875864 -0.000718 -0.000479 123340.000000 1 0 0
-1.660038 -10.332805 1.361408 10.553483 1.411500 1.441435 0.003270 0.000566 -1405460.000000 1 0 0
-2.828638 12.180495 -12.932492 17.989303 -1.342614 2.373013 0.005423 0.000539 81688.800000 1 0 0
8.298462 4.124195 -9.633792 13.367252 0.461231 2.375609 -0.000365 -0.000331 -479970.000000 1 0 0
4.157562 7.684395 -9.020592 12.558119 1.074859 2.372163 0.003976 -0.002249 -1767830.000000 1 0 0
-1.776138 -5.120405 -2.453292 5.949105 1.236909 1.995861 0.002349 -0.001028 262564.000000 1 0 0
-3.253338 -8.991605 7.427608 12.107953 1.223631 0.910376 0.001663 0.002418 -688189.000000 1 0 0
1.009562 7.160895 -1.412892 7.368440 1.430737 1.763740 0.002379 -0.000567 1450360.000000 1 0 0
0.543062 -0.388205 -2.207492 2.306218 -0.620619 2.847935 -0.000484 -0.005194 -2909670.000000 1 0 0
4.202862 -6.781205 7.483508 10.938541 -1.015959 0.817371 0.001693 0.002192 -1172310.000000 1 0 0
-13.972238 3.798595 5.955908 15.656487 -0.265451 1.180555 -0.000246 -0.002338 -942134.000000 1 0 0
4.169162 6.315795 12.606008 14.703150 0.987342 0.540663 0.005857 0.002355 -2002950.000000 1 0 0
8.302062 10.117295 -7.169192 14.922507 0.883631 2.071939 0.009285 -0.003117 -278273.000000 1 0 0
12.506462 5.355395 9.413408 16.544005 0.404587 0.965517 0.033093 -0.013220 881464.000000 1 0 0
7.515962 4.056295 0.335408 8.547264 0.494894 1.531545 0.002978 0.000838 -2083710.000000 1 0 0
-10.739238 -7.698505 -1.051292 13.255317 0.621950 1.650191 0.010401 -0.003446 -853796.000000 1 0 0
10.364762 6.788795 0.157908 12.391165 0.579874 1.558052 0.001804 -0.001322 -552954.000000 1 0 0
14.615362 3.545195 4.147708 15.600664 0.237970 1.301693 0.019549 -0.012092 322082.000000 1 0 0
2.093162 5.605195 8.196308 10.147857 1.213401 0.630575 -0.000368 0.002080 1019950.000000 1 0 0
4.198662 0.087295 11.618208 12.353912 0.020788 0.346851 0.002936 0.000738 -1096840.000000 1 0 0
-1.118738 -1.825805 -0.717092 2.258176 1.021064 1.893945 -0.002456 -0.002121 -1332030.000000 1 0 0
3.116562 -5.100405 -9.537692 11.255872 -1.022297 2.581776 0.001005 -0.002355 586799.000000 1 0 0
-3.997838 -5.420305 -1.379292 6.874944 0.935300 1.772793 0.003034 -0.000876 -2328970.000000 1 0 0
-1.104238 -8.459305 8.469408 12.021233 1.440995 0.789025 0.000624 0.001863 -483649.000000 1 0 0
3.920062 8.619795 -5.989392 11.204489 1.143979 2.134775 0.000088 0.001092 364902.000000 1 0 0
-14.278938 -1.870005 -2.555592 14.625869 0.130221 1.746429 0.006020 -0.008951 -1392830.000000 1 0 0
8.887062 -10.636405 -6.706292 15.397641 -0.874762 2.021435 0.009770 -0.006256 324386.000000 1 0 0
14.751962 6.038595 1.630908 16.023261 0.388534 1.468836 0.009499 -0.007295 -1053190.000000 1 0 0
-5.834538 0.429495 -8.653092 10.445205 -0.073480 2.547090 0.012205 -0.007928 -718349.000000 1 0 0
-8.139238 -4.487105 -13.027492 16.003026 0.503835 2.521913 0.015689 -0.005821 689106.000000 1 0 0
0.837262 -10.610905 12.135508 16.141959 -1.492054 0.720010 -0.002260 -0.002813 -569768.000000 1 0 0
0.263062 11.704595 3.368508 12.182512 1.548325 1.290642 -0.002665 -0.000573 -995205.000000 1 0 0
5.123662 -13.179705 -3.645492 14.602950 -1.200022 1.823106 0.008854 -0.005189 751176.000000 1 0 0
-7.346038 1.654895 -6.970192 10.260922 -0.221578 2.317598 0.009035 -0.003454 -151857.000000 1 0 0
1.475362 2.780595 4.011408 5.099000 1.082976 0.665343 0.002360 0.000767 -829029.000000 1 0 0
17.223762 5.428495 2.002908 18.169705 0.305320 1.460338 0.020858 -0.013535 -369399.000000 1 0 0
2.483462 -8.218505 -3.662992 9.334287 -1.277341 1.974061 0.000143 -0.001613 768887.000000 1 0 0
-0.342038 -9.448105 -0.751192 9.484090 1.534610 1.650085 0.003140 0.000251 -535656.000000 1 0 0
0.821262 11.954795 -5.703292 13.270989 1.502207 2.015019 0.005023 -0.000164 -781623.000000 1 0 0
6.054062 -4.984005 7.790008 11.053334 -0.688758 0.788704 0.004658 0.000663 -747808.000000 1 0 0
-5.990838 -1.967405 -9.418292 11.334242 0.317306 2.551626 0.013178 -0.006228 -206876.000000 1 0 0
2.021562 -1.336805 11.350608 11.606466 -0.584259 0.210361 0.003927 0.000413 -224806.000000 1 0 0
17.987562 2.163095 -5.603992 18.964074 0.119680 1.870781 0.030564 -0.004104 278289.000000 1 0 0
-9.002238 4.774395 7.816808 12.842804 -0.487637 0.916435 0.004558 -0.007649 224013.000000 1 0 0
11.393162 -7.130005 -4.972092 14.330485 -0.559185 1.925123 0.013182 -0.006139 -13683.600000 1 0 0
10.805062 0.561595 8.862208 13.985832 0.051928 0.884526 0.008999 -0.007552 20579.000000 1 0 0
-8.352938 -7.424505 -1.546992 11.282199 0.726620 1.708348 0.005801 -0.002154 -567796.000000 1 0 0
10.337062 -10.368905 -3.223892 14.992082 -0.786936 1.787529 0.018746 -0.006540 -120802.000000 1 0 0
7.648262 -13.902405 -3.773792 16.309944 -1.067846 1.804292 0.020097 -0.005683 -994283.000000 1 0 0
1.799662 -1.191405 -11.711392 11.908608 -0.584776 2.959347 0.003719 -0.002999 333943.000000 1 0 0
-11.750438 -2.546505 -6.330292 13.587865 0.213415 2.055423 0.007210 -0.004467 -132004.000000 1 0 0
2.723562 -11.996705 -6.453492 13.891950 -1.347554 2.053922 0.003747 -0.002860 1082630.000000 1 0 0
-5.572138 1.468695 1.157208 5.877492 -0.257717 1.372614 -0.001446 -0.001611 338878.000000 1 0 0
0.062062 6.876395 -4.025792 7.968417 1.561771 2.100432 0.007024 -0.001733 949301.000000 1 0 0
5.467262 -11.673505 3.686208 13.407080 -1.132789 1.292264 0.001405 -0.007302 -2176780.000000 1 0 0
-4.346138 -9.160305 1.096508 10.198158 1.127794 1.463068 0.003683 0.000461 120712.000000 1 0 0
7.203562 -6.211505 -4.609892 10.570014 -0.711582 2.022089 0.008573 -0.005425 107338.000000 1 0 0
-6.883438 -6.114605 2.232708 9.473916 0.726317 1.332889 0.003881 -0.000046 -76161.400000 1 0 0
-6.169438 -0.686205 7.210208 9.514196 0.110771 0.710805 -0.001904 -0.001351 -1367390.000000 1 0 0
4.149662 -5.015605 3.167308 7.239325 -0.879599 1.117964 -0.000322 0.001227 -502165.000000 1 0 0
-2.498938 10.637595 -8.857792 14.066400 -1.340064 2.251980 0.000670 0.002294 949388.000000 1 0 0
-2.286538 -4.821205 2.754808 6.005101 1.127946 1.094214 -0.003346 0.004318 -246903.000000 1 0 0
15.128862 4.978195 6.333408 17.139923 0.317893 1.192312 0.035197 -0.021978 89248.600000 1 0 0
6.789162 0.303195 0.115708 6.796914 0.044629 1.553772 0.004069 -0.000671 3886790.000000 1 0 0
-9.825138 9.235795 0.452408 13.492143 -0.754489 1.537259 -0.003968 -0.003503 -3002370.000000 1 0 0
7.124062 10.471195 -2.634192 12.935887 0.973381 1.775865 -0.000730 -0.000939 -662642.000000 1 0 0
1.634362 -4.201205 -5.330692 6.981228 -1.199789 2.439628 -0.000058 -0.002805 151399.000000 1 0 0
0.793962 -8.086605 -8.104392 11.476268 -1.472928 2.354895 0.003015 -0.003008 1568770.000000 1 0 0
-10.439938 0.295495 -10.603392 14.883264 -0.028297 2.363762 0.010971 -0.007035 -4707950.000000 1 0 0
5.669462 -2.455905 0.510508 6.199588 -0.408780 1.488358 0.002069 -0.001495 195664.000000 1 0 0
-3.430138 5.264195 -1.224392 6.401307 -0.993299 1.763254 -0.000294 -0.002675 909222.000000 1 0 0
-0.312638 4.551895 -5.178592 6.901834 -1.502221 2.419344 0.005174 -0.002788 -1251880.000000 1 0 0
3.974762 -9.729105 10.064108 14.551305 -1.182947 0.807054 0.001397 -0.001183 368969.000000 1 0 0
7.378062 -13.463805 -0.802292 15.373793 -1.069496 1.623006 0.019461 -0.007991 646001.000000 1 0 0
13.013262 -0.090705 0.477608 13.022340 -0.006970 1.534112 0.006263 -0.006462 430765.000000 1 0 0
9.251462 2.442595 -0.739092 9.596983 0.258132 1.647886 0.001802 -0.000289 -1259620.000000 1 0 0
-0.716738 -5.862705 4.376508 7.351111 1.449146 0.933091 -0.003496 0.002734 -998239.000000 1 0 0
11.406862 -3.699805 3.290508 12.435132 -0.313643 1.302993 0.010568 -0.006407 -2307650.000000 1 0 0
1.887562 -8.196105 11.787908 14.480808 -1.344443 0.619728 -0.005924 -0.001129 152453.000000 1 0 0
9.454962 -5.854905 -5.952192 12.613676 -0.554448 2.062223 0.007818 -0.005737 657270.000000 1 0 0
3.191362 6.334495 -0.162492 7.094859 1.104108 1.593701 -0.002470 0.001567 -333282.000000 1 0 0
6.352862 -1.272905 11.334108 13.055311 -0.197749 0.519312 0.000730 0.000306 213665.000000 1 0 0
-4.829838 -7.596605 -3.787892 9.766466 1.004476 1.969091 0.006665 -0.002047 -161164.000000 1 0 0
-3.373238 -8.482705 -5.733492 10.779979 1.192308 2.131598 0.004287 -0.000640 -497326.000000 1 0 0
9.726962 5.411095 2.239308 11.353777 0.507666 1.372265 0.005303 -0.002565 -518904.000000 1 0 0
8.933462 -1.357605 0.270008 9.040063 -0.150815 1.540924 0.005233 -0.000828 1555810.000000 1 0 0
-3.940738 9.554995 9.248808 13.869672 -1.179623 0.840840 -0.002714 0.001049 265039.000000 1 0 0
-14.305038 -3.470505 -6.094492 15.931772 0.238009 1.963337 0.011115 -0.008490 802015.000000 1 0 0
10.632062 6.170995 -5.905192 13.637933 0.525893 2.018612 -0.002594 0.000561 120961.000000 1 0 0
-1.862438 4.423795 2.702708 5.508473 -1.172315 1.057966 -0.000070 -0.000827 565856.000000 1 0 0
6.941262 -3.732205 2.591808 8.296261 -0.493338 1.253071 0.005874 -0.003365 -1300730.000000 1 0 0
8.413962 -11.050205 -1.504692 13.970178 -0.920020 1.678713 0.014828 -0.009899 -2350260.000000 1 0 0
4.559662 0.435495 1.720708 4.892955 0.095222 1.211441 0.003033 0.001300 222093.000000 1 0 0
-10.865538 2.249495 3.764508 11.717152 -0.204146 1.243714 0.001656 -0.005108 86846.300000 1 0 0
-0.921238 -3.017205 4.376408 5.394919 1.274458 0.624579 0.000214 0.002107 450376.000000 1 0 0
8.681762 -8.693505 -8.582392 14.986910 -0.786074 2.180542 0.016024 -0.000578 -394392.000000 1 0 0
11.978662 -4.883705 1.072808 12.980363 -0.387127 1.488053 0.007810 -0.006394 503413.000000 1 0 0
2.884062 4.872295 3.464908 6.637971 1.036331 1.021622 -0.000453 -0.000105 123690.000000 1 0 0
6.018862 7.523395 1.980608 9.836208 0.896044 1.368051 0.001404 -0.000489 -415538.000000 1 0 0
-1.700638 -1.352605 -10.285992 10.513008 0.671900 2.933400 0.010202 -0.004761 1442050.000000 1 0 0
-1.043338 -8.740705 5.890708 10.591927 1.451993 0.981049 -0.003626 0.001286 2209.580000 1 0 0
-4.381538 -0.247605 2.301708 4.955506 0.056451 1.087755 -0.002969 -0.000653 -89128.200000 1 0 0
-8.547638 6.117995 -8.028692 13.226938 -0.621220 2.223071 0.006642 -0.006262 -1321730.000000 1 0 0
6.507062 11.245295 -9.391892 16.031412 1.046225 2.196716 0.015240 -0.008722 297116.000000 1 0 0
-11.063338 -5.778305 3.058408 12.850685 0.481323 1.330495 0.008725 -0.001427 171731.000000 1 0 0
1.581462 -6.309505 3.024708 7.173544 -1.325208 1.135535 -0.004962 0.002446 322881.000000 1 0 0
10.117062 2.275995 7.229408 12.641180 0.221282 0.961984 0.008830 -0.007306 -2513890.000000 1 0 0
-4.069738 -2.595705 -10.758892 11.792125 0.567755 2.719856 0.012659 -0.008762 -2979530.000000 1 0 0
-8.303138 11.745395 5.913408 15.552003 -0.955436 1.180747 0.007734 -0.000638 374141.000000 1 0 0
6.845162 6.005095 -2.986692 9.583201 0.720118 1.887735 -0.000520 0.001155 -2519290.000000 1 0 0
3.967262 -9.806305 -2.454992 10.859547 -1.186363 1.798835 0.003117 -0.004915 -1224440.000000 1 0 0
8.401362 -12.971705 -7.358292 17.117023 -0.996062 2.015158 0.017728 -0.004601 319970.000000 1 0 0
-1.212538 9.488695 3.608908 10.223982 -1.443698 1.210037 -0.005205 0.001530 9598.240000 1 0 0
0.481762 -13.204905 4.692308 14.022102 -1.534329 1.229577 0.004840 -0.002530 -1796320.000000 1 0 0
-11.106938 -6.944405 -5.050392 14.039063 0.558766 1.938784 0.006422 -0.007724 132488.000000 1 0 0
3.704262 10.431995 -3.416092 11.585239 1.229597 1.870112 0.006478 -0.001598 -827934.000000 1 0 0
11.678862 -8.233405 -7.438292 16.109406 -0.614063 2.050748 0.029365 -0.001317 421189.000000 1 0 0
11.852662 -4.825505 -5.943892 14.110314 -0.386633 2.005613 0.007805 -0.004671 1018110.000000 1 0 0
1.343462 -10.287705 -2.742992 10.731531 -1.440942 1.829266 0.000062 -0.000328 -1112480.000000 1 0 0
2.359662 -11.976405 -3.990292 12.842301 -1.376262 1.886741 0.005768 -0.000468 -1791060.000000 1 0 0
-7.611638 -5.751505 7.295708 12.010170 0.647088 0.917936 0.003794 0.001293 -2557040.000000 1 0 0
-7.222538 -0.791905 9.634808 12.067381 0.109207 0.646134 0.002274 -0.003339 24839.900000 1 0 0
16.163662 2.655395 -7.477292 18.006249 0.162827 1.999026 0.015740 0.001343 -231714.000000 1 0 0
-2.029438 6.276395 -5.515692 8.598524 -1.258063 2.267209 0.005047 -0.000025 -4210.360000 1 0 0
7.632862 1.161595 8.370608 11.387579 0.151025 0.745034 0.003132 -0.003208 -733499.000000 1 0 0
7.957262 8.282595 -3.813092 12.102028 0.805428 1.891336 -0.001043 0.001463 -211891.000000 1 0 0
8.081562 0.607695 3.952808 9.016963 0.075054 1.117007 0.005788 -0.002017 687833.000000 1 0 0
-6.961338 5.857895 5.330808 10.544794 -0.699533 1.040789 0.005522 -0.005730 -417026.000000 1 0 0
-6.028738 -2.052505 -4.559792 7.832634 0.328145 2.192171 0.009111 -0.004407 -548202.000000 1 0 0
-15.004838 -2.231405 3.187508 15.501114 0.147630 1.363688 0.013896 -0.008765 -3128020.000000 1 0 0
1.094562 1.301195 -10.613992 10.749326 0.871435 2.982744 0.007928 -0.006132 647973.000000 1 0 0
1.475062 -9.264205 9.373608 13.261441 -1.412900 0.785787 0.000934 -0.002063 -1432470.000000 1 0 0
-0.143038 -6.709205 -1.159092 6.810094 1.549480 1.741831 -0.000998 0.001905 462233.000000 1 0 0
-0.540338 -10.242605 -8.462992 13.297562 1.518091 2.260660 0.001845 -0.001706 258676.000000 1 0 0
-4.403538 6.434695 3.774008 8.662539 -0.970656 1.120014 0.000257 -0.000281 -512929.000000 1 0 0
10.868862 -1.210705 -8.606392 13.916464 -0.110935 2.237543 0.012524 0.001340 979357.000000 1 0 0
3.051962 -1.062205 6.306008 7.085795 -0.334928 0.473559 0.002127 0.003205 970892.000000 1 0 0
2.010162 -12.315805 6.724208 14.175146 -1.409005 1.076553 0.003752 -0.003363 25862.300000 1 0 0
2.818162 -4.948305 -1.393992 5.862676 -1.053090 1.810870 0.006874 -0.001083 -1639660.000000 1 0 0
-1.001538 9.457095 -1.649392 9.651955 -1.465286 1.742526 0.002438 -0.000947 451130.000000 1 0 0
4.610062 -2.487005 2.778208 5.929275 -0.494725 1.083139 0.003192 0.002797 -1475080.000000 1 0 0
17.619662 6.642095 -2.707392 19.023667 0.360497 1.713598 0.019087 -0.008027 444319.000000 1 0 0
-7.176938 3.582895 -5.491792 9.721387 -0.463026 2.171131 0.003883 -0.005594 -822220.000000 1 0 0
-13.719738 -6.094605 2.274708 15.183863 0.418038 1.420419 0.006875 -0.006983 1035410.000000 1 0 0
6.682262 -6.042705 3.294008 9.592570 -0.735180 1.220271 0.004381 -0.003543 1290260.000000 1 0 0
-4.637538 1.981095 3.558208 6.171899 -0.403722 0.956336 -0.001445 -0.002767 516795.000000 1 0 0
6.959862 -11.981805 -5.408792 14.874756 -1.044562 1.942950 0.013975 -0.005607 -187295.000000 1 0 0
2.950962 -12.261905 3.319008 13.041407 -1.334626 1.313468 0.001910 -0.004491 -907288.000000 1 0 0
3.373962 11.379695 -6.143992 13.365243 1.282563 2.048453 0.003279 0.001080 -595587.000000 1 0 0
-5.469838 -8.355905 6.349408 11.834494 0.991189 1.004492 0.004867 0.002329 244769.000000 1 0 0
-4.038638 6.463395 6.351008 9.920755 -1.012307 0.876072 0.001473 0.000654 363307.000000 1 0 0
4.371462 4.366095 -6.833192 9.212219 0.784784 2.406477 -0.000460 0.001527 -2127840.000000 1 0 0
-0.322738 -2.839205 1.582808 3.266577 1.457610 1.064952 -0.001297 0.001687 -1090540.000000 1 0 0
-13.144738 -0.886805 6.581308 14.726988 0.067363 1.107513 0.014022 -0.006715 -1071440.000000 1 0 0
-0.466438 -9.254405 -6.010492 11.044799 1.520437 2.146222 0.002374 -0.000487 173770.000000 1 0 0
2.071962 -1.674105 -3.903592 4.725853 -0.679588 2.542784 -0.000300 -0.001472 -1682990.000000 1 0 0
11.369562 -2.004905 1.067708 11.594248 -0.174545 1.478576 0.007065 -0.003927 1128100.000000 1 0 0
0.467862 -4.200105 -1.930692 4.646218 -1.459861 1.999333 0.001020 -0.000922 -1434310.000000 1 0 0
1.167162 -7.352205 -11.370792 13.590883 -1.413360 2.561932 -0.001537 -0.001315 -1027230.000000 1 0 0
-4.498538 4.139895 -10.005792 11.725675 -0.743905 2.593123 0.010522 -0.006471 260939.000000 1 0 0
-1.115838 5.692895 -2.239992 6.218659 -1.377245 1.939284 0.003558 -0.000705 -1477940.000000 1 0 0
-11.259538 1.705595 -3.794492 12.003517 -0.150337 1.892428 0.001827 -0.001649 383026.000000 1 0 0
-1.739338 -11.374605 4.020908 12.189119 1.419058 1.234623 0.008665 -0.002264 53883.000000 1 0 0
-3.529638 -5.605405 -9.729192 11.770135 1.008835 2.543835 0.007299 -0.004905 -2202080.000000 1 0 0
-12.789538 -3.747005 -8.284392 15.692147 0.284999 2.126960 0.019552 -0.006477 -156945.000000 1 0 0
11.315362 4.437795 0.582208 12.168419 0.373757 1.522932 0.004297 -0.000006 265765.000000 1 0 0
-8.962238 -2.394305 -3.063692 9.769371 0.261058 1.889780 0.004262 -0.005276 -114559.000000 1 0 0
-2.411138 -6.144805 -6.449192 9.228450 1.196871 2.344568 0.002789 -0.002566 -826322.000000 1 0 0
-0.179238 2.707895 -1.864892 3.292817 -1.504702 2.172869 0.002992 -0.002896 -912954.000000 1 0 0
8.022562 5.992395 -5.265292 11.313426 0.641542 2.054885 -0.001800 0.001025 -1329690.000000 1 0 0
-9.708038 -1.031405 -0.898192 9.803904 0.105845 1.662541 0.004448 -0.005446 -342987.000000 1 0 0
6.182362 0.504995 -8.905892 10.853181 0.081502 2.533220 -0.001421 0.002059 326126.000000 1 0 0
-4.263238 2.504895 7.968708 9.378166 -0.531220 0.555364 -0.001262 0.000725 -1897360.000000 1 0 0
-10.164138 -3.410805 1.403808 10.812676 0.323764 1.440599 0.004198 -0.004419 3267050.000000 1 0 0
-1.919338 -8.204405 -7.941092 11.578301 1.340989 2.326581 0.005715 -0.004562 223479.000000 1 0 0
-9.423638 -9.941805 4.233008 14.337461 0.812149 1.271088 0.009729 -0.001047 -333591.000000 1 0 0
-1.107138 -10.684605 7.429808 13.060956 1.467545 0.965682 0.002911 -0.002627 -158077.000000 1 0 0
9.529062 3.788295 -3.718692 10.907927 0.378394 1.918688 -0.002098 0.000796 -671011.000000 1 0 0
12.931762 -0.916305 3.009708 13.308960 -0.070739 1.342682 0.009122 -0.002986 -97722.300000 1 0 0
6.570462 11.895595 -6.853492 15.219938 1.066155 2.037894 0.001363 -0.001840 -565960.000000 1 0 0
-11.928138 -0.020705 -6.398192 13.535796 0.001736 2.063134 -0.000118 -0.001742 351063.000000 1 0 0
-7.608038 -6.503705 -11.556192 15.288100 0.707301 2.427816 0.012326 -0.003974 -1468660.000000 1 0 0
4.040762 6.129295 6.526208 9.822800 0.987943 0.844114 0.000394 -0.000017 -3695370.000000 1 0 0
-4.282738 -1.340805 -7.481292 8.724066 0.303406 2.601277 0.012048 -0.008347 -664164.000000 1 0 0
9.528362 9.200595 0.881508 13.274701 0.767899 1.504342 0.011525 -0.003672 -1513580.000000 1 0 0
-9.017238 3.998895 4.869408 11.000585 -0.417412 1.112245 0.004610 -0.006040 2244590.000000 1 0 0
-6.973638 7.882995 -12.151192 16.075594 -0.846531 2.427791 0.010553 -0.007857 -950457.000000 1 0 0
11.250762 -3.557605 7.237308 13.842501 -0.306261 1.020626 0.010891 -0.004614 1430660.000000 1 0 0
11.806762 6.913195 6.479108 15.138386 0.529711 1.128527 0.015432 -0.012246 290687.000000 1 0 0
-9.973838 -0.692905 -14.825992 17.882047 0.069361 2.548291 0.028570 -0.002979 351443.000000 1 0 0
1.760162 -12.989505 12.170508 17.887053 -1.436110 0.822476 0.005527 -0.004286 198457.000000 1 0 0
2.851962 3.097595 13.039408 13.702370 0.826661 0.312340 0.003511 0.001399 -745907.000000 1 0 0
-2.622238 -1.335105 11.067408 11.451906 0.470938 0.259864 0.008941 -0.001626 -143566.000000 1 0 0
2.592662 -9.984705 -8.359292 13.277575 -1.316744 2.251809 -0.005039 -0.000924 -1028870.000000 1 0 0
13.963262 3.630495 -7.417292 16.222497 0.254371 2.045666 0.012452 0.000136 -2631900.000000 1 0 0
7.362662 -1.554905 4.893408 8.976189 -0.208130 0.994223 0.005184 -0.001220 483028.000000 1 0 0
-1.235738 8.712895 10.110508 13.403879 -1.429907 0.716213 0.001728 0.000612 -68548.900000 1 0 0
-12.269938 -4.688705 0.907308 13.166569 0.365006 1.501832 0.007828 -0.005884 207008.000000 1 0 0
-4.861538 4.860295 -5.337292 8.703086 -0.785270 2.230983 0.005549 -0.004734 -308477.000000 1 0 0
-11.152038 0.279695 1.757608 11.293156 -0.025075 1.414526 0.001486 -0.006378 -2064340.000000 1 0 0
-1.366238 2.237895 -4.101492 4.867959 -1.022691 2.572794 0.005737 -0.005408 861130.000000 1 0 0
3.119662 -9.878705 13.179408 16.763588 -1.264911 0.666173 0.001422 -0.000908 -2835280.000000 1 0 0
8.873562 4.696195 -1.513992 10.153154 0.486761 1.720470 0.000763 -0.001472 -1830140.000000 1 0 0
4.031162 2.332895 3.713408 5.956683 0.524622 0.897710 0.000810 0.001960 159155.000000 1 0 0
-5.568538 -3.285605 7.422608 9.843725 0.533056 0.716598 -0.001122 -0.002274 -128978.000000 1 0 0
1.802862 -5.913905 7.775008 9.933545 -1.274895 0.671801 -0.000865 0.000093 -1174290.000000 1 0 0
-5.957538 -6.321205 -9.601592 12.947604 0.815007 2.406208 0.005654 -0.004285 -798685.000000 1 0 0
-11.678738 -5.843605 5.514308 14.175621 0.463938 1.171251 0.012838 -0.002172 -954328.000000 1 0 0
10.486362 6.261995 4.494408 13.014457 0.538326 1.218196 0.005069 -0.006909 -1577350.000000 1 0 0
1.499362 -3.753205 0.445808 4.066125 -1.190731 1.460936 0.004080 -0.000192 -1168310.000000 1 0 0
8.715162 4.395595 6.919708 11.964851 0.467131 0.954108 0.005534 -0.002852 212976.000000 1 0 0
-7.912738 11.897395 3.515608 14.714582 -0.983892 1.329543 0.002749 -0.004672 300367.000000 1 0 0
-6.161738 13.104395 -6.906292 16.043350 -1.131268 2.015817 0.013827 -0.008104 166316.000000 1 0 0
4.456162 -6.920805 -1.033992 8.296027 -0.998736 1.695758 0.004991 -0.004851 765026.000000 1 0 0
-1.897738 -8.148105 11.021308 13.836988 1.341970 0.649294 -0.000223 -0.003317 -229018.000000 1 0 0
11.465762 8.735295 -5.676492 15.491664 0.651048 1.945957 0.018379 -0.004683 409733.000000 1 0 0
-3.268238 -2.978305 -1.862292 4.797896 0.739016 1.969417 0.005396 -0.002071 -2430010.000000 1 0 0
-2.113038 5.788595 4.831308 7.830345 -1.220791 0.905874 -0.000772 -0.000321 -372881.000000 1 0 0
0.249362 -11.510505 -5.641092 12.820913 -1.549136 2.026385 -0.001950 -0.002584 -420012.000000 1 0 0
-8.931338 6.235495 -1.466292 10.990915 -0.609489 1.704605 0.002257 -0.004271 -617076.000000 1 0 0
2.872862 0.021395 3.887308 4.833731 0.007447 0.636461 0.000979 0.002591 913280.000000 1 0 0
-10.162238 3.929195 -1.048692 10.945748 -0.368942 1.666752 0.005822 -0.004745 60043.600000 1 0 0
6.457262 5.462795 13.570108 15.990191 0.702163 0.557365 0.008447 0.001585 95453.200000 1 0 0
-8.690238 -1.699805 5.675508 10.517650 0.193161 1.000814 -0.001492 -0.001085 269301.000000 1 0 0
12.876662 -1.856205 -1.464192 13.091898 -0.143166 1.682870 0.007056 -0.004545 -1362040.000000 1 0 0
5.075062 -5.562205 5.423808 9.279659 -0.831162 0.946553 0.002081 -0.000957 142204.000000 1 0 0
-9.071838 -1.220505 3.159908 9.683640 0.133735 1.238395 -0.000035 -0.001561 1028820.000000 1 0 0
1.915662 5.412395 5.593508 8.015679 1.230616 0.798446 0.002553 -0.000416 -565929.000000 1 0 0
9.238962 2.971395 -7.461392 12.241731 0.311168 2.226232 -0.000534 0.000539 -187632.000000 1 0 0
2.242662 -2.349705 -1.461092 3.561662 -0.808703 1.993500 0.004235 -0.002538 -47039.900000 1 0 0
-6.205138 0.344395 -3.874992 7.323791 -0.055445 2.128332 0.006205 -0.002742 -2391560.000000 1 0 0
-4.152538 4.117195 5.121608 7.773399 -0.781124 0.851490 0.000200 -0.000494 648517.000000 1 0 0
-6.414638 1.845995 -12.263992 13.962836 -0.280207 2.643156 0.015206 -0.005799 -1446260.000000 1 0 0
-0.211438 3.109995 6.160808 6.904515 -1.502914 0.468411 0.001217 0.001014 1289260.000000 1 0 0
-8.769638 9.409495 -2.094292 13.031930 -0.820581 1.732201 -0.000338 -0.000748 140681.000000 1 0 0
-1.298638 -3.744105 -6.252792 7.402850 1.236932 2.576701 0.002619 -0.002471 395259.000000 1 0 0
-3.364038 7.008495 -3.037392 8.346347 -1.123281 1.943268 0.003146 0.000395 1047350.000000 1 0 0
6.932562 -0.316805 -4.215592 8.119852 -0.045666 2.116677 0.001919 -0.000976 -316965.000000 1 0 0
-5.045338 -10.865805 6.948508 13.849293 1.136088 1.045207 0.002153 -0.002771 379493.000000 1 0 0
9.625962 8.363595 -1.470892 12.836370 0.715341 1.685636 0.002799 0.000108 514721.000000 1 0 0
13.716162 4.598095 -4.160692 15.052805 0.323458 1.850849 0.005897 -0.003362 402090.000000 1 0 0
4.705962 1.062695 -6.886792 8.408526 0.222094 2.530506 -0.002362 -0.000221 -1731610.000000 1 0 0
9.008162 -4.756205 3.524708 10.779241 -0.485787 1.237679 0.007010 -0.004952 -1346020.000000 1 0 0
-8.820138 -3.354205 -0.740892 9.465434 0.363400 1.649150 0.002923 -0.003736 -486603.000000 1 0 0
-8.506738 -4.193805 -10.456092 14.116744 0.458030 2.404889 0.007429 -0.005034 46385.900000 1 0 0
10.517762 -1.062705 10.538208 14.926704 -0.100697 0.786966 0.008217 -0.000282 -216961.000000 1 0 0
2.167162 -11.630105 9.972408 15.472713 -1.386569 0.870407 0.004307 -0.003889 994602.000000 1 0 0
-6.318238 -10.616905 1.994708 12.514697 1.033979 1.410724 0.004535 0.000898 -591698.000000 1 0 0
-3.720338 -1.481505 6.871308 7.953027 0.378969 0.527662 0.000756 0.001833 -2175510.000000 1 0 0
4.748662 -7.560505 3.839608 9.718725 -1.009980 1.164649 0.000359 0.000949 342764.000000 1 0 0
11.508562 -9.504205 -5.273792 15.830028 -0.690298 1.910440 0.024059 -0.006150 891886.000000 1 0 0
11.476562 1.254595 11.319808 16.168597 0.108886 0.795244 0.014729 -0.003624 60499.600000 1 0 0
-10.118038 -3.505105 4.415808 11.582737 0.333483 1.179659 0.004159 -0.000526 2245190.000000 1 0 0
1.853462 8.762195 9.047908 12.730908 1.362340 0.780298 -0.000665 0.001437 -566198.000000 1 0 0
6.465962 8.822895 4.065408 11.669605 0.938354 1.214959 0.006501 -0.001363 797856.000000 1 0 0
-4.240138 3.552395 0.446508 5.549563 -0.697370 1.490251 0.001901 -0.004146 -1471100.000000 1 0 0
4.816362 7.010695 4.308208 9.534561 0.968847 1.101956 0.001598 0.000622 -1245760.000000 1 0 0
-8.257338 12.991995 1.131708 15.435554 -1.004631 1.497412 0.002901 -0.005572 -141249.000000 1 0 0
8.849562 8.175395 -9.135492 15.119823 0.745820 2.219566 0.001936 -0.005472 -630734.000000 1 0 0
7.173062 1.950395 5.990408 9.546824 0.265487 0.892488 0.004377 -0.000819 -1208500.000000 1 0 0
11.692462 -6.275205 3.221008 13.655283 -0.492565 1.332672 0.011879 -0.006063 -92616.800000 1 0 0
11.373462 4.733595 -2.019792 12.483674 0.394390 1.733305 0.001069 -0.000150 270298.000000 1 0 0
-3.991738 14.358995 -5.836992 16.005786 -1.299647 1.944086 0.007102 -0.000968 -1702710.000000 1 0 0
7.115462 -3.055305 6.813008 10.314154 -0.405583 0.849246 0.005291 -0.001843 -760254.000000 1 0 0
-7.862138 -0.489905 0.970208 7.936909 0.062231 1.448250 0.004604 -0.001837 364456.000000 1 0 0
-3.252138 1.113595 10.821408 11.354266 -0.329906 0.307578 0.004993 -0.000508 -380690.000000 1 0 0
7.058762 -1.339305 -1.841992 7.417061 -0.187508 1.821768 0.004449 -0.000882 -1758600.000000 1 0 0
-7.691738 5.313295 2.957308 9.805081 -0.604511 1.264416 0.003876 -0.003826 887368.000000 1 0 0
9.463862 -2.205705 2.804308 10.114048 -0.228978 1.289846 0.004871 -0.003831 -1709350.000000 1 0 0
0.166962 3.395495 1.663008 3.784555 1.521664 1.115844 0.001799 -0.000043 -4131610.000000 1 0 0
-7.431438 -3.049505 3.899608 8.929316 0.389398 1.118847 -0.002436 0.000563 488146.000000 1 0 0
-2.264638 8.390995 -6.761992 11.011899 -1.307188 2.231994 0.004908 -0.001301 -845215.000000 1 0 0
4.402262 9.683095 7.343308 12.925417 1.144096 0.966566 0.000739 0.002241 -191644.000000 1 0 0
-11.832238 -3.198505 6.817608 14.025408 0.264011 1.063187 0.017156 -0.006651 -2439190.000000 1 0 0
-4.843338 2.249795 -5.640292 7.767393 -0.434858 2.383502 0.008005 -0.005478 302398.000000 1 0 0
-2.815838 2.817495 -1.825592 4.381782 -0.785692 2.000534 0.001061 -0.002033 1784090.000000 1 0 0
2.194662 5.371295 11.445908 12.832621 1.182906 0.469182 0.005291 -0.001067 82627.200000 1 0 0
-0.699238 1.644395 4.566108 4.903296 -1.168735 0.373016 0.003158 -0.000619 -870873.000000 1 0 0
5.096062 1.619795 7.638108 9.323855 0.307754 0.610781 0.003212 0.001421 1191670.000000 1 0 0
3.395162 -8.129705 1.743608 8.981057 -1.175190 1.375413 0.002301 -0.001060 2050570.000000 1 0 0
5.054962 6.451195 -4.706192 9.450863 0.906154 2.092046 0.000101 -0.000942 -2423520.000000 1 0 0
-4.102938 2.792195 -7.975692 9.393728 -0.597543 2.584970 0.012372 -0.008276 827392.000000 1 0 0
-8.788638 -2.121305 -12.966892 15.807605 0.236839 2.532722 0.018240 -0.005704 -101675.000000 1 0 0
-7.842938 8.067095 1.156608 11.310501 -0.799486 1.468358 0.001904 -0.003684 -1882000.000000 1 0 0
7.370562 0.825595 -6.554792 9.898086 0.111548 2.294585 0.000307 0.000554 387958.000000 1 0 0
8.856862 8.887195 5.516208 13.706013 0.787108 1.156587 0.015170 -0.004752 573899.000000 1 0 0
9.387162 -1.112305 -1.420492 9.558966 -0.117942 1.719952 0.003355 -0.000672 1990520.000000 1 0 0
5.442762 0.275995 4.109408 6.825472 0.050665 0.924706 0.003201 0.003061 -831901.000000 1 0 0
-4.258138 -7.286805 -7.928492 11.579734 1.041954 2.324970 0.005493 -0.005541 -971776.000000 1 0 0
-2.213638 7.394295 -0.666892 7.747293 -1.279917 1.656984 0.001680 -0.000013 65341.100000 1 0 0
13.533662 -3.387605 -7.526392 15.851891 -0.245270 2.065527 0.018234 -0.002411 833449.000000 1 0 0
-4.743438 -5.169605 1.580808 7.191938 0.828362 1.349184 0.000328 0.001752 1562450.000000 1 0 0
-8.990338 1.327695 2.486708 9.421925 -0.146620 1.303704 0.001487 -0.003354 -2787180.000000 1 0 0
-1.086138 11.134595 10.173908 15.121750 -1.473558 0.832810 0.002539 -0.001075 371581.000000 1 0 0
-8.530238 0.227595 7.491408 11.355085 -0.026675 0.850323 -0.003782 -0.002370 -440857.000000 1 0 0
-6.118238 12.961695 -2.042692 14.477948 -1.129779 1.712359 0.002500 0.000029 910088.000000 1 0 0
-12.906438 -0.846005 3.291308 13.346332 0.065455 1.321618 0.010150 -0.006962 442291.000000 1 0 0
-6.708638 12.767795 8.733108 16.860889 -1.087009 1.026343 0.011811 -0.005300 -10318.800000 1 0 0
-7.959638 0.906095 -14.074392 16.194609 -0.113348 2.624133 0.017442 -0.005817 432293.000000 1 0 0
7.303862 2.871395 3.740208 8.693703 0.374573 1.126059 0.002582 0.000590 -785720.000000 1 0 0
-1.669538 0.581095 -2.019292 2.683760 -0.334943 2.422512 0.003645 -0.004715 232696.000000 1 0 0
-6.261038 9.561995 -10.332692 15.407689 -0.991066 2.305840 0.009710 -0.005206 -194170.000000 1 0 0
-10.077438 13.539295 5.259508 17.678509 -0.930947 1.268714 0.000908 -0.005748 438020.000000 1 0 0
-5.700638 8.220395 2.488708 10.308532 -0.964463 1.326965 0.001105 -0.002429 -2027630.000000 1 0 0
-2.467038 -10.777705 -1.247892 11.126654 1.345771 1.683186 0.003669 0.000525 244982.000000 1 0 0
-2.174238 -12.479605 8.851308 15.453591 1.398304 0.960919 -0.000398 -0.002634 431160.000000 1 0 0
-14.573238 -6.451505 -1.677892 16.025495 0.416763 1.675690 0.012860 -0.007599 70442.700000 1 0 0
-2.747138 -9.448205 3.361708 10.397904 1.287840 1.241575 0.002124 0.000583 -1565060.000000 1 0 0
4.653062 -2.739505 7.594108 9.318066 -0.532109 0.618089 0.003468 0.001910 -315303.000000 1 0 0
-15.202138 -1.377605 -0.222992 15.266058 0.090372 1.585404 0.013701 -0.011148 330670.000000 1 0 0
5.407662 8.808095 -2.932692 10.743651 1.020188 1.847275 -0.001497 0.001286 228777.000000 1 0 0
-5.647738 -5.663705 8.601108 11.745363 0.786810 0.749106 0.003643 0.000000 -2670520.000000 1 0 0
3.439762 3.629895 6.957008 8.567850 0.812286 0.623243 0.002059 -0.000895 276392.000000 1 0 0
3.346262 2.508595 9.405408 10.293309 0.643290 0.418401 0.003724 -0.000413 -529565.000000 1 0 0
9.994262 -3.261705 5.145608 11.704754 -0.315459 1.115624 0.011488 -0.005388 -1536.160000 1 0 0
6.543162 10.025095 -5.069792 13.000704 0.992541 1.971388 -0.001991 -0.000976 533278.000000 1 0 0
-4.563138 12.017995 -8.366792 15.338111 -1.207918 2.147770 0.005346 -0.002148 -550885.000000 1 0 0
-3.260538 -7.214905 2.310608 8.247719 1.146349 1.286845 0.002087 -0.001948 744866.000000 1 0 0
-7.441138 -4.108705 1.201408 8.584600 0.504501 1.430386 0.002146 -0.001796 2593890.000000 1 0 0
-2.018938 -3.951405 -10.935992 11.801934 1.098434 2.756137 0.010988 -0.005215 -612945.000000 1 0 0
-5.174238 8.187495 -4.428892 10.650019 -1.007202 1.999682 0.009385 -0.002187 -2951440.000000 1 0 0
-10.884538 -3.271305 -10.120392 15.218309 0.291958 2.298309 0.017547 -0.001927 -1414900.000000 1 0 0
4.664862 -11.308905 -7.763992 14.489025 -1.179565 2.136314 0.003114 -0.002885 -2708560.000000 1 0 0
-9.386038 -3.979405 7.242108 12.505259 0.400998 0.953141 0.002775 -0.000803 -556451.000000 1 0 0
-5.628638 -9.746205 -5.260292 12.423395 1.047070 2.008012 0.003508 -0.005212 -85670.300000 1 0 0
4.840962 4.343195 -9.459692 11.479723 0.731253 2.539293 -0.000026 0.005550 -22105.100000 1 0 0
-3.266238 -7.143405 -14.015392 16.066355 1.141939 2.630773 0.006090 -0.006515 -345958.000000 1 0 0
0.653462 -0.787005 -8.756792 8.816337 -0.877842 3.025304 0.006889 -0.005952 181160.000000 1 0 0
-7.780138 2.136995 -2.883192 8.567969 -0.268062 1.914003 0.005935 -0.003981 -239269.000000 1 0 0
-2.312338 7.511695 -12.606192 14.855590 -1.272170 2.584096 0.008680 -0.005070 51425.000000 1 0 0
-9.915138 8.764195 7.681308 15.301097 -0.723860 1.044875 0.004716 -0.010230 -128671.000000 1 0 0
-10.695338 -3.175505 -14.358892 18.183835 0.288615 2.481037 0.029060 0.002190 -630289.000000 1 0 0
-3.286038 4.866195 8.007108 9.929334 -0.976855 0.632741 0.000458 -0.000811 -244844.000000 1 0 0
8.662662 -2.213805 -3.589592 9.634720 -0.250202 1.952571 0.003028 -0.001452 -6094250.000000 1 0 0
1.882762 -8.445405 -1.258192 8.743723 -1.351450 1.715194 0.002432 -0.000084 -1515210.000000 1 0 0
-13.560538 -2.914305 5.108208 14.780905 0.211691 1.217923 0.031399 -0.013097 314283.000000 1 0 0
7.027062 2.784295 -2.003192 7.819507 0.377248 1.829863 -0.000066 -0.001350 -240188.000000 1 0 0
-11.179438 4.419695 8.974808 15.002024 -0.376484 0.929494 0.002409 -0.006036 -2550260.000000 1 0 0
-1.665538 -2.482905 7.987808 8.529004 0.979936 0.358151 0.001523 -0.001104 -817097.000000 1 0 0
2.968562 12.055295 -9.916492 15.889598 1.329354 2.244759 0.008006 -0.003172 572941.000000 1 0 0
3.602562 -4.977805 -7.044292 9.347676 -0.944324 2.424299 0.000329 -0.003600 -316316.000000 1 0 0
8.337362 -13.749905 -9.763592 18.812209 -1.025715 2.116480 0.019138 0.004738 342828.000000 1 0 0
-6.236438 -5.810405 -0.396692 8.532955 0.750048 1.617303 0.007013 -0.001698 -288709.000000 1 0 0
-1.227438 -3.890705 9.960508 10.763638 1.265199 0.388747 -0.000183 -0.000755 938764.000000 1 0 0
2.770862 3.345795 1.725108 4.674187 0.879117 1.192787 -0.001352 0.001286 -247219.000000 1 0 0
-9.154038 13.293095 7.794608 17.923691 -0.967741 1.120894 0.012400 -0.010726 -269305.000000 1 0 0
4.160562 -11.080905 -0.124592 11.836902 -1.211612 1.581322 0.002807 -0.005286 -910080.000000 1 0 0
-12.502538 -1.502405 -9.115492 15.545510 0.119595 2.197372 0.013493 -0.003344 92418.900000 1 0 0
-4.235438 1.101195 -13.529292 14.219470 -0.254364 2.828750 0.014049 -0.005026 358775.000000 1 0 0
3.957262 -3.088105 4.989108 7.077253 -0.662653 0.788444 0.001139 0.004621 165933.000000 1 0 0
1.655662 -1.169305 1.123008 2.317248 -0.614906 1.064856 0.002788 0.000527 29702.000000 1 0 0
8.221962 -8.896105 7.350708 14.169483 -0.824760 1.025384 0.007850 -0.005669 -1377010.000000 1 0 0
0.034562 2.371195 -6.358092 6.785949 1.556222 2.784593 0.005005 -0.006008 -1077750.000000 1 0 0
-3.840438 -9.812805 -3.410292 11.075658 1.197752 1.883791 0.004415 -0.000532 193141.000000 1 0 0
-9.465038 2.220095 -5.577792 11.208369 -0.230393 2.091678 0.002375 -0.002356 -930893.000000 1 0 0
9.008862 -7.507305 5.279708 12.860581 -0.694733 1.147757 0.006075 -0.004983 941809.000000 1 0 0
-5.488338 -4.249705 4.690408 8.377456 0.658882 0.976550 -0.002153 0.002602 -242299.000000 1 0 0
-0.212538 -12.474705 10.552708 16.340840 1.553760 0.868742 0.003996 -0.002696 -1534200.000000 1 0 0
-14.287638 -8.366905 3.206708 16.864894 0.529767 1.379491 0.018897 -0.008986 -1070060.000000 1 0 0
10.935162 -1.306805 -3.678192 11.610969 -0.118941 1.893135 0.010482 -0.002476 286812.000000 1 0 0
-13.837738 2.884995 2.749208 14.400150 -0.205543 1.378702 0.004175 -0.004037 -758877.000000 1 0 0
-6.247538 6.090995 1.088408 8.792985 -0.772712 1.446697 0.003690 -0.002479 489640.000000 1 0 0
7.126162 -6.864705 -0.472392 9.906034 -0.766713 1.618502 0.003319 -0.005063 -407840.000000 1 0 0
-6.889438 7.729495 10.150008 14.499383 -0.842799 0.795356 0.004634 -0.002945 265019.000000 1 0 0
-12.602738 -5.154905 -1.872692 13.744418 0.388267 1.707473 0.009023 -0.008887 -5232590.000000 1 0 0
-9.369038 -5.669005 0.221708 10.952883 0.544145 1.550553 0.005000 -0.002220 -1018630.000000 1 0 0
-1.922138 1.878695 2.242308 3.500293 -0.773969 0.875510 -0.000105 -0.001802 -53380.600000 1 0 0
-7.209238 7.343195 7.575208 12.778083 -0.794603 0.936230 0.001168 -0.003633 -306431.000000 1 0 0
5.616762 7.190995 -0.508092 9.138741 0.907697 1.626423 0.001882 -0.000104 -1371060.000000 1 0 0
-0.055438 -4.233205 7.570408 8.673763 1.557701 0.509899 -0.001680 0.002061 -830834.000000 1 0 0
6.383562 0.707195 13.062408 14.555978 0.110334 0.456975 0.000932 -0.000157 649641.000000 1 0 0
5.823262 6.142695 -7.867692 11.556110 0.812087 2.319685 -0.004681 0.001712 -804331.000000 1 0 0
9.998462 5.335595 8.956508 14.444960 0.490197 0.901998 0.012267 -0.009771 -3007200.000000 1 0 0
-1.276838 -5.006805 -8.512192 9.957702 1.321098 2.596029 0.007634 -0.002634 733660.000000 1 0 0
10.094562 -3.618005 -7.984192 13.369273 -0.344148 2.210808 0.013556 -0.004009 695520.000000 1 0 0
8.409062 -5.582305 1.196108 10.163913 -0.586046 1.452841 0.006635 -0.005253 1147490.000000 1 0 0
15.711462 3.086795 -4.945492 16.758169 0.193997 1.870366 0.012470 -0.001465 240225.000000 1 0 0
-6.923338 3.520095 1.137808 7.849731 -0.470376 1.425335 0.002315 -0.003412 -273960.000000 1 0 0
-1.834638 3.862395 0.278308 4.285026 -1.127348 1.505802 0.001432 -0.003930 -1646510.000000 1 0 0
-2.660638 10.026995 6.922608 12.471653 -1.311426 0.982352 -0.002884 0.003352 -340690.000000 1 0 0
5.509362 -5.736005 -8.809092 11.868232 -0.805550 2.407205 0.001857 -0.004878 48966.000000 1 0 0
-1.233438 -0.857105 6.296108 6.472787 0.607289 0.234183 0.001153 -0.000684 707551.000000 1 0 0
-5.648238 5.032395 -7.829192 10.886866 -0.727802 2.373362 0.008079 -0.004652 86820.300000 1 0 0
6.761762 -1.238805 2.486108 7.310048 -0.181198 1.223779 0.003930 0.000062 -1515980.000000 1 0 0
8.653062 7.567795 3.241308 11.943747 0.718592 1.295969 0.008442 -0.003874 -215465.000000 1 0 0
-5.202038 -4.829505 -7.721692 10.488558 0.748279 2.398237 0.008502 -0.005747 465783.000000 1 0 0
-2.256938 7.827395 -10.045292 12.933282 -1.290072 2.460207 0.007463 -0.001985 101913.000000 1 0 0
-2.662438 -1.917805 1.517608 3.615202 0.624233 1.137588 -0.003772 0.000201 1541500.000000 1 0 0
5.977462 -2.116605 -9.245792 11.211367 -0.340321 2.540433 0.000960 -0.000450 1157880.000000 1 0 0
1.058062 -7.742105 5.062908 9.310892 -1.434974 0.995883 -0.000983 0.002849 36980.600000 1 0 0
1.829262 11.767895 1.249608 11.974602 1.416585 1.466251 0.001046 -0.002287 -64218.200000 1 0 0
-1.113538 7.020395 2.621808 7.576265 -1.413492 1.217433 -0.002086 0.000452 532083.000000 1 0 0
8.760362 7.818995 -6.639492 13.489384 0.728680 2.085413 -0.000885 -0.001960 -205544.000000 1 0 0
3.744862 -11.012705 5.459208 12.849381 -1.243014 1.131987 0.005583 -0.000684 482590.000000 1 0 0
8.006662 -7.083105 12.434508 16.397987 -0.724270 0.710103 0.006334 -0.000501 490168.000000 1 0 0
-8.638138 0.058295 -3.969492 9.506718 -0.006749 2.001539 0.004605 -0.002772 -834118.000000 1 0 0
-3.343038 -4.916605 11.270208 12.742311 0.973655 0.485437 0.004609 -0.004045 -217976.000000 1 0 0
-8.197138 0.168895 -11.594192 14.200243 -0.020601 2.526082 0.013846 -0.007319 -1621180.000000 1 0 0
1.417962 -5.138705 5.389508 7.580481 -1.301559 0.779917 -0.002299 0.004568 -281840.000000 1 0 0
6.716562 3.715195 -7.661592 10.845039 0.505250 2.355281 -0.003106 0.001650 -1950650.000000 1 0 0
16.230062 4.242595 -1.210292 16.819017 0.255682 1.642818 0.014948 -0.002146 -1854360.000000 1 0 0
7.801962 7.403595 0.155308 10.756763 0.759205 1.556358 0.004464 -0.001364 -2990780.000000 1 0 0
5.451562 -10.454105 13.929408 18.249280 -1.090116 0.702413 0.004070 -0.003215 378955.000000 1 0 0
-5.335138 -9.160205 8.933908 13.863180 1.043399 0.870513 0.002641 -0.005359 87510.700000 1 0 0
-12.629838 -3.253105 2.859808 13.351928 0.252093 1.354937 0.012384 -0.005779 -257947.000000 1 0 0
-2.178638 -1.461805 -5.898492 6.455660 0.590977 2.723077 0.007773 -0.006249 -1053780.000000 1 0 0
-2.444638 12.944695 -4.308592 13.860208 -1.384142 1.886895 0.001921 -0.000250 299372.000000 1 0 0
3.906062 -0.377705 -4.932092 6.302818 -0.096397 2.469502 0.001613 -0.001193 -384821.000000 1 0 0
-8.990438 3.740595 -7.451392 12.261455 -0.394277 2.223968 0.003327 -0.003561 705717.000000 1 0 0
-4.513938 8.010595 -11.287492 14.558597 -1.057651 2.458009 0.011111 -0.004601 -2360810.000000 1 0 0
-10.042138 -6.443905 7.381008 14.030243 0.570509 1.016814 0.008537 -0.000166 -1054960.000000 1 0 0
8.078762 5.288895 4.173308 10.519283 0.579649 1.162845 0.002244 -0.002923 -1765240.000000 1 0 0
-6.653838 -7.699605 3.908408 10.901060 0.858128 1.204099 0.007329 0.003524 -945128.000000 1 0 0
-4.145138 11.776895 8.022308 14.840312 -1.232366 0.999675 0.000555 0.002333 -20031.800000 1 0 0
-7.358238 9.791595 -7.928092 14.590190 -0.926345 2.145261 0.008330 -0.005801 -1966220.000000 1 0 0
13.072962 5.448595 4.676708 14.915131 0.394891 1.251862 0.008166 -0.011172 244700.000000 1 0 0
5.350362 3.978295 -3.879892 7.714063 0.639364 2.097820 -0.001485 0.000452 688476.000000 1 0 0
-2.784538 -4.198405 5.163108 7.213732 0.985172 0.773123 0.001054 0.002566 -2099810.000000 1 0 0
12.445562 -2.390005 -5.354092 13.757560 -0.189727 1.970532 0.009274 -0.005286 -2460900.000000 1 0 0
-5.218838 9.593695 7.017208 12.981389 -1.072582 0.999695 -0.002933 0.001156 384663.000000 1 0 0
1.735862 3.738695 -0.565192 4.160589 1.136117 1.707062 0.000597 -0.001307 689885.000000 1 0 0
-0.113438 9.735995 7.731908 12.433216 -1.559145 0.899661 -0.004582 0.002695 -1689690.000000 1 0 0
-5.667138 2.089695 5.943208 8.473783 -0.353270 0.793487 -0.002287 -0.003252 687671.000000 1 0 0
8.884462 0.928995 10.632708 13.887087 0.104185 0.698738 0.010434 -0.000669 -298693.000000 1 0 0
0.461462 -2.849005 -10.230092 10.629420 -1.410218 2.866617 0.004430 -0.004263 -1388560.000000 1 0 0
1.167762 10.638095 -2.842392 11.073027 1.461462 1.830398 0.003909 -0.002037 673952.000000 1 0 0
2.337262 -4.286005 11.595108 12.580904 -1.071550 0.398502 -0.001290 0.000711 -694735.000000 1 0 0
6.570162 -2.940405 9.369008 11.814877 -0.420806 0.655105 0.003870 -0.001548 115549.000000 1 0 0
-10.547038 -8.258205 5.682208 14.550788 0.664281 1.169612 0.016257 -0.004462 -625005.000000 1 0 0
-2.851738 0.824095 -6.755292 7.378720 -0.281316 2.727570 0.011046 -0.007990 1087010.000000 1 0 0
10.985762 2.604095 -5.149692 12.409175 0.232747 1.998729 0.003509 -0.000051 -3109890.000000 1 0 0
-2.060838 -4.096105 0.012608 4.585334 1.104655 1.568047 -0.002080 0.000429 544937.000000 1 0 0
-1.267438 -6.436105 -10.638292 12.498124 1.376358 2.589047 0.007532 -0.002846 1170130.000000 1 0 0
0.359962 6.855695 -6.642292 9.552496 1.518339 2.339698 0.006198 -0.000766 -2139070.000000 1 0 0
2.059262 3.925495 -6.243992 7.657514 1.087673 2.524229 0.002754 -0.002207 -1969150.000000 1 0 0
1.621362 -14.821705 6.453308 16.246751 -1.461838 1.162326 0.014696 -0.009195 -507337.000000 1 0 0
-1.613338 5.429995 -10.600892 12.019427 -1.281988 2.650843 0.010684 -0.004222 -266021.000000 1 0 0
13.615662 4.402295 -0.753292 14.329477 0.312717 1.623390 0.007033 -0.002911 226138.000000 1 0 0
-2.437438 3.353195 -6.177692 7.439684 -0.942244 2.550568 0.009364 -0.006245 205754.000000 1 0 0
5.639762 7.922295 14.117908 17.143074 0.952138 0.603183 0.010413 -0.002053 575858.000000 1 0 0
15.859162 0.597195 -5.768492 16.886242 0.037638 1.919425 0.011023 -0.000131 251340.000000 1 0 0
6.222862 -8.256505 10.636908 14.833667 -0.924936 0.771194 0.001602 0.000979 1391800.000000 1 0 0
0.145362 -5.893305 -6.456592 8.742983 -1.546136 2.401622 0.001534 -0.002502 -205103.000000 1 0 0
8.694362 5.446295 -7.587992 12.760552 0.559618 2.207620 -0.002829 0.000508 -467710.000000 1 0 0
-16.016438 -0.799705 5.226008 16.866445 0.049889 1.255765 0.029397 -0.018290 -152071.000000 1 0 0
-0.362238 3.979295 -12.371492 13.000763 -1.480016 2.829189 0.009825 -0.002196 574511.000000 1 0 0
-11.376838 3.691695 5.821908 13.302468 -0.313773 1.117806 0.002929 -0.005971 -863590.000000 1 0 0
5.221462 -9.479105 -9.609492 14.472713 -1.067309 2.296916 -0.002873 -0.000924 71948.500000 1 0 0
1.541062 11.242895 -11.820192 16.385802 1.434575 2.376572 0.011492 0.001189 -1677450.000000 1 0 0
5.909362 2.427295 1.233708 6.506486 0.389743 1.380029 0.003914 0.000730 -413501.000000 1 0 0
5.694962 4.572695 4.925708 8.809355 0.676529 0.977442 0.000387 0.000152 143556.000000 1 0 0
0.379462 -1.537305 -6.367392 6.561325 -1.328798 2.897856 0.003032 -0.003176 -106887.000000 1 0 0
12.651062 6.830395 -4.492492 15.062741 0.495061 1.873657 0.008132 -0.001266 -1451460.000000 1 0 0
7.413062 3.169395 12.634108 14.987303 0.404022 0.567983 0.003117 0.000344 -287712.000000 1 0 0
-2.417138 -0.162705 8.693208 9.024461 0.067212 0.271783 -0.002377 -0.000434 909190.000000 1 0 0
2.211162 -15.294705 13.357108 20.426198 -1.427221 0.858042 0.011093 -0.009903 -131455.000000 1 0 0
18.823862 4.404695 -1.860092 19.421614 0.229860 1.666718 0.022238 -0.006445 741636.000000 1 0 0
-0.280538 -13.214705 7.191408 15.047374 1.549570 1.072514 0.000966 -0.004721 -2003880.000000 1 0 0
4.336862 1.627895 -0.585792 4.669215 0.359088 1.696586 0.002657 -0.001052 839406.000000 1 0 0
2.756262 -0.518405 -7.360192 7.876430 -0.185911 2.777530 -0.001209 -0.002139 23002.300000 1 0 0
7.200862 -11.363105 0.878408 13.481252 -1.005961 1.505592 0.007269 -0.008177 625750.000000 1 0 0
-11.699138 -7.358405 1.260708 13.878232 0.561449 1.479830 0.009547 -0.003469 405700.000000 1 0 0
0.223062 -7.003805 10.078208 12.274906 -1.538958 0.607563 -0.001634 -0.001057 -1887130.000000 1 0 0
-4.529438 -7.172805 10.572108 13.554866 1.007555 0.676212 0.005635 -0.002162 -1569350.000000 1 0 0
11.729262 0.656695 -1.669792 11.865709 0.055929 1.711989 0.005252 -0.002671 429143.000000 1 0 0
6.575562 -9.632505 -7.343992 13.782503 -0.971815 2.132760 0.002463 -0.004326 240575.000000 1 0 0
-11.112538 4.770395 3.455208 12.577107 -0.405491 1.292496 0.000783 -0.008370 -31277.200000 1 0 0
6.029862 -9.097505 1.954508 11.088008 -0.985473 1.393598 0.004195 -0.004369 4495180.000000 1 0 0
11.622262 -1.306805 5.914408 13.105912 -0.111969 1.102600 0.013296 -0.009404 -454432.000000 1 0 0
-6.549938 3.527295 4.168508 8.527600 -0.493989 1.060053 -0.001881 -0.004409 -1123910.000000 1 0 0
9.451262 6.310695 -3.191092 11.803995 0.588724 1.844543 -0.000149 0.000389 -1279120.000000 1 0 0
-2.389938 6.624395 11.057208 13.109396 -1.224552 0.567111 -0.001535 -0.000636 115530.000000 1 0 0
1.792462 9.743395 3.012308 10.354742 1.388864 1.275617 -0.004365 0.000374 -501306.000000 1 0 0
2.799962 6.194495 -5.690492 8.865284 1.146274 2.267750 0.000012 -0.000187 -2565880.000000 1 0 0
11.798762 0.066695 -5.834692 13.162784 0.005653 2.030042 0.007737 -0.001391 239916.000000 1 0 0
-2.541338 -12.431305 6.286708 14.160453 1.369144 1.110780 0.006076 -0.003292 -507585.000000 1 0 0
10.920762 1.876195 -2.766992 11.421007 0.170140 1.815503 0.003226 -0.000224 316461.000000 1 0 0
-8.846838 5.273895 0.823808 10.332433 -0.537572 1.490981 0.000511 -0.004293 -181199.000000 1 0 0
1.185462 -10.275505 5.557608 11.742160 -1.455936 1.077759 -0.001292 -0.001403 -226455.000000 1 0 0
9.383062 -5.708105 -1.310692 11.060842 -0.546530 1.689574 0.007381 -0.005384 824618.000000 1 0 0
-7.723538 8.615595 -4.440992 12.393705 -0.839940 1.937271 0.002734 -0.004630 -678703.000000 1 0 0
-7.464338 -0.143405 -1.598692 7.634967 0.019210 1.781748 0.004138 -0.003043 -1894180.000000 1 0 0
4.038262 8.869295 2.709008 10.114874 1.143537 1.299662 0.001519 -0.000830 -261186.000000 1 0 0
-1.419838 -10.553205 -3.746392 11.288114 1.437058 1.909101 0.001487 0.000497 -247151.000000 1 0 0
3.115862 7.883095 -3.709592 9.252722 1.194384 1.983316 0.003897 -0.001338 -63299.900000 1 0 0
-4.301538 1.649795 -11.025892 11.949701 -0.366233 2.745802 0.013241 -0.006591 -354414.000000 1 0 0
1.248562 2.930095 10.937508 11.391815 1.167980 0.283366 0.003162 0.000596 693618.000000 1 0 0
2.195262 5.527795 -8.141692 10.082800 1.192765 2.510669 0.003044 0.001263 1119590.000000 1 0 0
15.571762 6.056495 3.973908 17.174192 0.370936 1.337292 0.021175 -0.014831 582834.000000 1 0 0
-4.519838 8.923795 4.675308 11.041810 -1.101968 1.133581 0.000968 -0.000184 -754122.000000 1 0 0
-0.759938 -8.270205 -12.390692 14.916536 1.479165 2.551103 0.000719 -0.004304 498089.000000 1 0 0
14.359862 -4.202505 -5.328692 15.882747 -0.284706 1.912934 0.025820 -0.006534 163616.000000 1 0 0
-5.970038 -6.113005 -5.624992 10.229893 0.797230 2.152991 0.003654 -0.002623 372969.000000 1 0 0
-9.001638 2.574595 -12.349792 15.497593 -0.278577 2.492917 0.017692 -0.006393 -294161.000000 1 0 0
10.578262 5.509295 13.637208 18.116992 0.480159 0.718597 0.028558 -0.003113 837955.000000 1 0 0
-0.499638 10.778595 5.623608 12.167692 -1.524475 1.090350 -0.006126 0.005317 651152.000000 1 0 0
0.499462 11.103195 -0.530492 11.127077 1.525843 1.618490 0.001702 -0.001378 -246726.000000 1 0 0
-1.637538 -0.471005 3.811908 4.175406 0.280070 0.420358 0.000836 0.000952 615158.000000 1 0 0
-4.917038 6.740395 8.832008 12.149673 -0.940553 0.756950 -0.002010 0.001474 -1460070.000000 1 0 0
3.539762 -8.713705 -11.539492 14.886855 -1.184931 2.457743 -0.006313 0.003123 224149.000000 1 0 0
6.731562 -3.755005 11.958508 14.227435 -0.508828 0.572546 0.007876 -0.000333 -369057.000000 1 0 0
-2.456938 -1.888805 -12.524392 12.902113 0.655402 2.899024 0.010294 -0.006928 986041.000000 1 0 0
-16.034038 -4.938805 5.398408 17.624556 0.298798 1.259492 0.041428 -0.020007 1355110.000000 1 0 0
-9.006938 7.149095 5.897108 12.923249 -0.670907 1.096944 -0.002522 -0.005939 -3344880.000000 1 0 0
-12.765538 1.468895 6.018108 14.189229 -0.114563 1.132793 0.000620 -0.006136 334033.000000 1 0 0
-3.604238 3.574495 10.196208 11.389917 -0.781255 0.461926 0.001833 0.001679 540186.000000 1 0 0
2.123462 -12.262005 -1.237792 12.505918 -1.399323 1.669935 0.003298 -0.002120 -2139340.000000 1 0 0
10.396962 -5.097905 -3.653992 12.142369 -0.455879 1.876463 0.007722 -0.004246 825123.000000 1 0 0
3.081862 -13.326505 1.008608 13.715352 -1.343533 1.497191 0.005132 -0.003597 415931.000000 1 0 0
10.016862 -1.767805 -6.108392 11.864869 -0.174684 2.111606 0.011291 -0.001178 131375.000000 1 0 0
11.975862 -5.351405 -1.560592 13.209627 -0.420231 1.689213 0.008483 -0.005581 -1855860.000000 1 0 0
1.413862 0.964595 5.882108 6.126063 0.598708 0.283159 0.004040 -0.000515 358029.000000 1 0 0
-10.726338 11.470095 6.609308 17.038203 -0.818894 1.172432 0.007494 -0.010627 -258755.000000 1 0 0
4.802462 -13.962305 3.050208 15.076915 -1.239513 1.367080 0.009620 -0.010692 -3591030.000000 1 0 0
5.224562 -3.426405 -1.716292 6.479349 -0.580460 1.838883 0.004168 -0.002500 -1460130.000000 1 0 0
2.138762 -2.899405 -7.683892 8.486640 -0.935243 2.703142 -0.002894 -0.001032 77735.600000 1 0 0
-2.911338 14.874295 -8.787592 17.519770 -1.377510 2.096222 0.007065 -0.002585 -1470970.000000 1 0 0
-2.306438 6.101695 -8.130792 10.424017 -1.209399 2.465471 0.009629 -0.004708 -473191.000000 1 0 0
2.642462 -3.528705 -11.506592 12.322176 -0.928033 2.775719 0.001054 -0.001077 -1650250.000000 1 0 0
14.557162 2.783195 -2.611092 15.049085 0.188911 1.745184 0.011800 0.000243 548212.000000 1 0 0
-3.536238 13.173195 2.211108 13.817636 -1.308537 1.410085 -0.003789 -0.001311 -2234770.000000 1 0 0
7.944662 -4.916005 13.890708 16.740266 -0.554115 0.592086 0.006661 -0.003614 -1142630.000000 1 0 0
-11.631438 7.152095 2.881608 13.955160 -0.551299 1.362810 -0.002134 -0.005381 1059250.000000 1 0 0
-2.290438 11.897295 4.044008 12.772852 -1.380606 1.248643 -0.004878 0.000126 77721.000000 1 0 0
1.643862 1.473495 0.654508 2.302575 0.730801 1.282572 0.001865 0.000830 -867290.000000 1 0 0
-6.968538 8.603495 5.367508 12.304097 -0.890008 1.119383 0.002610 -0.002451 -326225.000000 1 0 0
-1.202238 8.979695 1.042708 9.119624 -1.437704 1.456209 -0.001467 0.001732 343126.000000 1 0 0
4.815062 12.905095 -8.520592 16.196506 1.213681 2.124776 0.012859 -0.015596 -3056390.000000 1 0 0
8.976962 6.876495 7.142108 13.374668 0.653673 1.007469 0.008184 -0.005698 -1189420.000000 1 0 0
7.310562 -13.695405 2.959508 15.804022 -1.080478 1.382421 0.014919 -0.013295 303476.000000 1 0 0
4.142562 -13.518805 -1.232692 14.192901 -1.273451 1.657759 0.005748 0.002261 -2641540.000000 1 0 0
12.228062 -11.805505 -4.506692 17.584246 -0.767818 1.829980 0.037174 -0.008627 -807023.000000 1 0 0
3.122762 -0.063805 -1.998592 3.708111 -0.020429 2.140020 0.001458 -0.002222 1154250.000000 1 0 0
-13.463038 -3.273105 -10.736392 17.528169 0.238491 2.230044 0.018441 -0.007384 30092.100000 1 0 0
-6.523438 13.570095 4.981208 15.859229 -1.122690 1.251300 0.006185 -0.005965 472939.000000 1 0 0
7.283062 -4.257805 -0.620092 8.459102 -0.529032 1.644167 0.001653 -0.001633 -1497010.000000 1 0 0
11.770662 2.059495 -7.345492 14.026627 0.173215 2.121964 0.012922 -0.000100 -925593.000000 1 0 0
-7.509738 -4.525305 9.799808 13.149554 0.542323 0.729875 0.007759 -0.003315 443714.000000 1 0 0
0.977262 2.762395 8.446208 8.940039 1.230764 0.333929 0.004424 0.000008 -727129.000000 1 0 0
1.625962 8.036395 -8.801092 12.028576 1.371166 2.391583 0.005819 -0.000959 -199266.000000 1 0 0
-8.630938 -2.058205 -5.606092 10.495597 0.234096 2.134284 0.005276 -0.003625 -918159.000000 1 0 0
6.666762 -0.440205 7.012608 9.685875 -0.065934 0.761208 0.006186 -0.001125 192817.000000 1 0 0
-11.077238 6.428495 7.287208 14.735472 -0.525834 1.053497 0.008972 -0.007724 1168480.000000 1 0 0
-5.964838 10.990095 4.930808 13.441516 -1.073539 1.195193 -0.001313 0.000795 -135497.000000 1 0 0
6.028862 -1.240905 -6.897592 9.244663 -0.202992 2.413006 0.001375 -0.000676 -856519.000000 1 0 0
4.551062 -5.715505 11.497108 13.622138 -0.898336 0.566095 0.004196 -0.000591 -1873720.000000 1 0 0
-8.956738 -7.452505 2.758808 11.973888 0.693984 1.338306 0.006905 -0.000531 -2497260.000000 1 0 0
-1.326038 12.823895 -9.373092 15.939433 -1.467759 2.199435 0.013659 0.003096 570687.000000 1 0 0
-4.647538 9.262895 -2.323092 10.620621 -1.105760 1.791313 0.001562 -0.001457 443044.000000 1 0 0
-3.248838 9.675695 -0.318092 10.211523 -1.246852 1.601952 0.001154 -0.001601 -3113640.000000 1 0 0
-3.486338 10.676695 -6.406992 12.930426 -1.255175 2.089204 0.010864 0.000627 640672.000000 1 0 0
4.868362 -4.935905 0.288208 6.938816 -0.792287 1.529249 0.003475 -0.001555 -1726810.000000 1 0 0
-2.223138 3.006795 -10.840292 11.467131 -0.934132 2.809420 0.012946 -0.004907 -1550110.000000 1 0 0
-3.596938 12.035195 -2.149692 12.743825 -1.280378 1.740292 -0.002413 0.000701 -510416.000000 1 0 0
-0.346238 0.363995 0.128208 0.518469 -0.810395 1.320923 -0.000197 -0.000455 -1107850.000000 1 0 0
-4.911638 -1.909605 0.161308 5.272267 0.370807 1.540196 -0.002997 0.000183 690760.000000 1 0 0
2.519462 2.469895 -2.509692 4.329738 0.775464 2.189084 -0.001983 -0.001452 1833750.000000 1 0 0
6.056062 -9.596805 8.533408 14.198366 -1.007858 0.926028 0.004132 -0.000623 819487.000000 1 0 0
-4.285138 -5.390905 6.613408 9.547849 0.899183 0.805627 0.000030 0.000985 41087.400000 1 0 0
-6.233538 5.332995 -12.133592 14.646566 -0.707697 2.547087 0.010211 -0.006590 2066340.000000 1 0 0
-12.868138 3.045695 7.978308 15.444048 -0.232408 1.027928 0.002695 -0.005318 474201.000000 1 0 0
4.736662 -7.510705 -5.025792 10.203198 -1.008141 2.085837 0.001470 -0.004871 -138721.000000 1 0 0
-5.980938 2.454395 -1.051492 6.549909 -0.389414 1.732029 0.001564 -0.003236 -817133.000000 1 0 0
-6.874738 -2.663805 -14.585892 16.343382 0.369665 2.673576 0.017811 -0.006811 177532.000000 1 0 0
2.733462 -6.093205 0.852208 6.732400 -1.149100 1.443873 0.000631 0.000447 -326979.000000 1 0 0
4.840762 -7.952705 12.995208 15.986054 -1.024009 0.621666 0.002207 -0.002280 -254061.000000 1 0 0
-10.031238 -1.740805 8.008808 12.953653 0.171827 0.904261 0.004512 -0.002746 -165932.000000 1 0 0
-4.465538 13.182695 0.007008 13.918496 -1.244186 1.570293 -0.003040 0.000445 950714.000000 1 0 0
6.843462 2.278095 -4.598692 8.553985 0.321348 2.138394 -0.001373 0.000569 -1627780.000000 1 0 0
5.135662 4.482895 -0.081392 6.817478 0.717637 1.582735 -0.000233 -0.000790 -931205.000000 1 0 0
-5.986338 12.192395 1.898708 13.714804 -1.114383 1.431908 0.001561 -0.001800 -861432.000000 1 0 0
6.546662 -7.235605 6.469708 11.707685 -0.835344 0.985312 0.003512 -0.001334 -1556340.000000 1 0 0
-0.393538 4.883995 7.704608 9.130677 -1.490393 0.566442 -0.002271 0.000421 -588988.000000 1 0 0
-5.803038 -3.494605 -1.585492 6.957104 0.542038 1.800712 0.003373 -0.002008 -282610.000000 1 0 0
2.336062 -6.484005 -5.161692 8.610608 -1.224992 2.213619 0.000064 -0.000826 -1034230.000000 1 0 0
-14.395438 -4.811105 -3.747092 15.633811 0.322540 1.812831 0.012604 -0.011286 -75347.700000 1 0 0
-12.356138 -5.055205 -6.218492 14.727487 0.388348 2.006708 0.011485 -0.010430 -2409490.000000 1 0 0
-14.835538 -3.885805 -1.236992 15.385799 0.256171 1.651282 0.010021 -0.009946 645371.000000 1 0 0
11.892662 3.011095 8.693108 15.035699 0.247978 0.954319 0.018949 -0.012549 -1248570.000000 1 0 0
8.776362 -6.476805 7.653508 13.324778 -0.635766 0.958948 0.006658 -0.006760 -23967.400000 1 0 0
-8.810238 -1.648005 -9.768192 13.257216 0.184919 2.399152 0.005068 -0.004912 -154648.000000 1 0 0
-8.890738 5.086295 -3.764392 10.912666 -0.519644 1.922989 0.004965 -0.006039 -1597340.000000 1 0 0
-4.084238 -6.294005 4.193808 8.595552 0.995188 1.061109 0.001722 0.002937 -946306.000000 1 0 0
-0.137638 -9.355305 3.458008 9.974893 1.556085 1.216776 -0.000278 -0.000497 492301.000000 1 0 0
7.895862 -10.492605 3.277708 13.534503 -0.925686 1.326190 0.005722 -0.007621 -24246.000000 1 0 0
-0.115638 6.438295 9.635108 11.588802 -1.552837 0.589146 -0.001535 0.000520 847906.000000 1 0 0
0.036362 3.563895 -9.788692 10.417349 1.560594 2.792411 0.010026 -0.003341 115159.000000 1 0 0
4.518862 -3.083005 11.018908 12.302088 -0.598715 0.460807 0.002975 0.000481 -2817240.000000 1 0 0
8.635462 -9.287705 1.196808 12.738329 -0.821773 1.476704 0.006770 -0.007651 -887540.000000 1 0 0
-0.297638 -0.369605 11.272208 11.282192 0.892840 0.042074 0.005667 0.000660 -1746950.000000 1 0 0
10.804462 6.040295 11.317708 16.772361 0.509769 0.830125 0.024238 -0.009506 -493199.000000 1 0 0
-6.454138 -2.809705 -11.875692 13.805159 0.410591 2.606528 0.013798 -0.005798 -77808.100000 1 0 0
-1.756738 2.852695 8.437508 9.078300 -1.018828 0.377972 0.000210 -0.000330 670928.000000 1 0 0
-1.807438 13.444595 -6.888292 15.214222 -1.437162 2.040647 0.006607 -0.002049 494052.000000 1 0 0
7.816262 3.183595 9.761608 12.904194 0.386787 0.712901 0.007155 -0.003474 407585.000000 1 0 0
6.531162 8.477695 -7.965992 13.341081 0.914371 2.210680 0.000851 -0.001356 -1025680.000000 1 0 0
6.626662 -3.014205 -3.957892 8.286314 -0.426888 2.068765 0.005205 -0.002384 -2162860.000000 1 0 0
1.977862 8.151695 0.999008 8.447490 1.332764 1.452258 -0.000406 0.002586 780745.000000 1 0 0
-17.775338 6.259695 6.430208 19.912157 -0.338594 1.241974 0.031826 -0.007431 396133.000000 1 0 0
-14.624338 2.968195 -10.114592 18.027380 -0.200243 2.166472 0.024451 -0.006976 -145002.000000 1 0 0
-18.236938 0.115695 -4.313792 18.740547 -0.006344 1.803064 0.025929 -0.005744 650893.000000 1 0 0
-13.050338 7.833495 0.221908 15.222490 -0.540605 1.556218 0.006187 -0.003781 -1678460.000000 1 0 0
-12.755038 -4.383305 -12.974192 18.714540 0.331009 2.336810 0.037256 0.004363 -1047570.000000 1 0 0
-17.282438 -0.685205 -8.753092 19.384757 0.039627 2.039293 0.030338 -0.012504 -47152.700000 1 0 0
-16.746738 -2.192805 -2.041892 17.012670 0.130198 1.691108 0.026248 -0.009263 -281342.000000 1 0 0
-15.510438 4.030495 1.698708 16.115340 -0.254234 1.465191 0.004878 -0.000211 -740845.000000 1 0 0
-13.310538 5.846595 4.400408 15.189361 -0.413875 1.276880 0.000990 -0.004616 236595.000000 1 0 0
-10.051838 13.925095 2.769908 17.395980 -0.945556 1.410889 0.022662 -0.013097 -590938.000000 1 0 0
-11.906838 2.428295 -6.341892 13.707261 -0.201182 2.051797 0.001872 -0.000346 201859.000000 1 0 0
-16.031338 10.674995 3.975108 19.666235 -0.587460 1.367265 0.032702 -0.009059 -319986.000000 1 0 0
-12.737138 1.077595 -8.537392 15.371498 -0.084402 2.159645 0.008297 -0.003487 688062.000000 1 0 0
-12.339238 14.251195 3.893508 19.248708 -0.857179 1.367117 0.037439 -0.016029 779052.000000 1 0 0
-10.655138 11.056495 -1.204092 15.402204 -0.803882 1.649053 0.008092 -0.006306 528419.000000 1 0 0
-17.258038 5.492895 8.882108 20.171852 -0.308142 1.114839 0.033871 -0.010672 1063450.000000 1 0 0
-11.826838 12.191795 -9.090392 19.265233 -0.800592 2.062190 0.022310 -0.021377 -1505030.000000 1 0 0
-17.104338 -0.723805 2.882108 17.360553 0.042292 1.404009 0.024091 -0.008152 676833.000000 1 0 0
-12.948238 14.862895 -0.960292 19.735366 -0.854135 1.619474 0.042058 -0.013464 106549.000000 1 0 0
-16.449938 4.666795 -10.596192 20.116131 -0.276433 2.125570 0.043056 -0.003021 728100.000000 1 0 0
-12.083838 7.602495 -8.869592 16.807342 -0.561575 2.126712 0.008297 -0.001917 -61400.100000 1 0 0
-14.840038 13.439795 -2.064192 20.127486 -0.735925 1.673533 0.060153 -0.015135 821629.000000 1 0 0
-11.827338 10.481295 -5.426292 16.708923 -0.725134 1.901548 0.015919 -0.007587 634774.000000 1 0 0
-17.814038 2.819195 -0.800292 18.053484 -0.156955 1.615140 0.025722 -0.001194 -93536.200000 1 0 0
-9.364338 15.234295 0.704808 17.896126 -1.019647 1.531403 0.027461 -0.012100 -12451.000000 1 0 0
-8.243938 13.256995 -3.647792 16.031744 -1.014461 1.800342 0.009293 -0.003801 -287962.000000 1 0 0
-18.073538 11.574295 2.391008 21.594768 -0.569597 1.459847 0.102883 -0.005307 109248.000000 1 0 0
-8.047338 15.512395 -7.319092 18.946323 -1.092247 1.967420 0.042820 -0.019459 -193099.000000 1 0 0
-6.368838 15.158295 -5.368892 17.296272 -1.173036 1.886418 0.014366 -0.005423 -1735060.000000 1 0 0
-17.374138 5.203695 -0.073592 18.136828 -0.291005 1.574854 0.025153 0.002154 549125.000000 1 0 0
-5.454638 12.240695 -12.332992 18.212369 -1.151595 2.314715 -0.002230 -0.000418 -90597.300000 1 0 0
-11.322738 3.627395 -11.503692 16.543800 -0.310033 2.339700 0.021493 -0.005878 478518.000000 1 0 0
-11.754538 10.939995 1.253508 16.106643 -0.749522 1.492892 0.011898 -0.008406 -369246.000000 1 0 0
-12.915638 0.107295 -11.092492 17.025528 -0.008307 2.280384 0.014755 -0.009694 -661832.000000 1 0 0
-14.140738 -2.133105 -12.929692 19.279200 0.149719 2.305888 0.044544 -0.012082 88156.700000 1 0 0
-18.701538 -2.302105 -3.679992 19.198686 0.122481 1.763669 0.026209 -0.006703 -439591.000000 1 0 0
-18.274938 4.755395 -5.173992 19.579513 -0.254569 1.838228 0.037734 0.000399 19594.600000 1 0 0
-8.467838 15.515195 -2.239492 17.816871 -1.071201 1.696825 0.026326 -0.004464 377664.000000 1 0 0
-16.116338 9.032395 -5.326392 19.227349 -0.510831 1.851489 0.026445 0.001554 90883.500000 1 0 0
-18.497838 1.324295 2.164808 18.671105 -0.071470 1.454591 0.053710 -0.008861 -1175390.000000 1 0 0
-15.658338 -2.749205 -8.791592 18.166831 0.173803 2.075944 0.017545 -0.007665 -99862.400000 1 0 0
-9.801938 10.350695 -7.205792 15.973050 -0.812622 2.038818 0.013002 -0.011095 601048.000000 1 0 0
-14.083338 12.068595 -7.718892 20.089119 -0.708510 1.965173 0.031800 -0.013684 -416816.000000 1 0 0
-11.006138 6.429295 -3.754592 13.287884 -0.528688 1.857256 0.002602 -0.001893 -2223480.000000 1 0 0
-13.153538 5.140795 -12.603092 18.928319 -0.372576 2.299406 0.038002 -0.014208 -1131390.000000 1 0 0
-17.555738 9.025495 2.691808 19.922583 -0.474868 1.435268 0.027978 -0.012527 776884.000000 1 0 0
-13.365538 8.582295 -6.410692 17.128642 -0.570817 1.954403 0.001438 -0.003004 -701934.000000 1 0 0
-15.777938 7.038495 -3.668192 17.661805 -0.419604 1.780010 0.006145 0.006974 -386534.000000 1 0 0
-14.810738 -0.330905 -9.436292 17.564483 0.022338 2.137954 0.016894 -0.008987 77600.700000 1 0 0
-9.983938 5.778495 -6.040692 13.021520 -0.524670 2.053190 0.001580 -0.001491 359072.000000 1 0 0
-12.888238 12.187095 -0.746692 17.753578 -0.757444 1.612867 0.031146 -0.011862 -1156700.000000 1 0 0
-10.838238 3.411495 -14.057192 18.075131 -0.304947 2.461809 0.031017 -0.004603 445973.000000 1 0 0
-10.972038 6.278995 -11.736092 17.249558 -0.519782 2.319065 0.013038 -0.010454 -873958.000000 1 0 0
-5.677238 11.471395 -14.824092 19.585139 -1.111234 2.429361 0.007162 -0.013270 -428767.000000 1 0 0
-15.596438 13.280195 3.400908 20.764841 -0.705358 1.406273 0.043327 -0.014979 188756.000000 1 0 0
-15.013738 10.997695 -2.993192 18.849956 -0.632212 1.730262 0.037696 -0.005726 406002.000000 1 0 0
-18.120438 7.753895 -4.432192 20.201918 -0.404332 1.791990 0.037579 0.001842 -982667.000000 1 0 0
-4.133638 16.213995 -10.624892 19.820922 -1.321171 2.136541 0.011208 -0.003028 -98887.400000 1 0 0
-15.778938 4.470495 -4.430092 16.987817 -0.276085 1.834627 0.008599 0.004721 -257991.000000 1 0 0
-18.782838 -1.766005 -6.206692 19.860433 0.093747 1.888636 0.042113 -0.012649 781743.000000 1 0 0
-10.755638 8.456895 -5.689392 14.817962 -0.666316 1.964869 0.003796 -0.003667 -299938.000000 1 0 0
-11.441338 13.326795 -6.711692 18.803045 -0.861376 1.935794 0.026860 -0.014787 57609.000000 1 0 0
-9.391938 10.504195 -4.483192 14.786671 -0.841243 1.878836 0.001136 -0.004493 -821640.000000 1 0 0
-11.100838 6.221295 -0.074692 12.725514 -0.510819 1.576666 0.001143 -0.001044 -708300.000000 1 0 0
-14.706938 9.275795 -1.240392 17.431953 -0.562694 1.642013 0.031965 -0.006211 569940.000000 1 0 0
-18.522438 3.353995 4.721908 19.406865 -0.179136 1.325018 0.031339 -0.008212 103197.000000 1 0 0
-14.636238 13.558995 0.554008 19.959277 -0.747210 1.543036 0.033289 0.002898 -24217.900000 1 0 0
-16.953638 2.469695 -9.163892 19.429415 -0.144656 2.061958 0.034349 -0.005114 4394.170000 1 0 0
-9.170038 8.355995 -9.068792 15.367343 -0.738984 2.202021 0.010740 -0.003921 -2218070.000000 1 0 0
-17.675138 4.677595 -2.625192 18.471113 -0.258712 1.713403 0.016787 0.006783 1013240.000000 1 0 0
-13.563038 5.824495 -4.393492 15.400763 -0.405624 1.860092 0.002715 0.005057 -1816400.000000 1 0 0
-12.264138 9.509195 3.233108 15.852030 -0.659539 1.365400 0.002220 -0.005634 1112820.000000 1 0 0
-17.443638 2.509495 -3.932592 18.056670 -0.142883 1.790348 0.009988 -0.000327 697899.000000 1 0 0
-11.323938 1.347895 -12.763692 17.116081 -0.118473 2.412401 0.022682 -0.001848 537285.000000 1 0 0
-11.236438 11.861795 3.634708 16.738304 -0.812465 1.351903 0.010613 -0.007989 -94759.500000 1 0 0
-16.329238 12.909595 -4.174192 21.230298 -0.668972 1.768701 0.059184 -0.012672 -28463.400000 1 0 0
-11.158738 4.067195 -4.582592 12.730265 -0.349521 1.939039 -0.001446 -0.000630 -551926.000000 1 0 0
-11.420638 14.842495 -8.826192 20.703437 -0.914960 2.011212 0.044054 -0.018632 246575.000000 1 0 0
-15.561738 7.108195 -0.189492 17.109355 -0.428473 1.581872 0.022184 0.000679 -1318820.000000 1 0 0
-12.657138 8.342795 -3.908192 15.655010 -0.582772 1.823110 0.006905 0.000080 426811.000000 1 0 0
-19.126938 1.886395 -5.945492 20.118328 -0.098307 1.870803 0.043410 -0.006489 144027.000000 1 0 0
-12.948938 9.990695 -8.851592 18.596765 -0.657148 2.066868 0.020104 -0.010593 820390.000000 1 0 0
-16.544938 11.048395 -0.931692 19.916577 -0.588774 1.617593 0.041116 -0.004386 -149069.000000 1 0 0
-10.762138 6.456195 -14.444192 19.134805 -0.540345 2.426244 0.030227 -0.018320 -173233.000000 1 0 0
-13.630538 12.731095 -4.219892 19.122757 -0.751292 1.793302 0.035549 -0.014820 35613.200000 1 0 0
-18.074238 7.678095 -0.016592 19.637502 -0.401709 1.571641 0.055595 -0.004235 380473.000000 1 0 0
-12.720638 6.545495 -2.019692 14.447744 -0.475225 1.711049 0.002121 0.001870 367115.000000 1 0 0
-13.909238 8.389695 -10.670292 19.434738 -0.542750 2.152002 0.021615 -0.004463 386624.000000 1 0 0
-15.028738 1.317795 -0.957792 15.116776 -0.087461 1.634198 0.004584 -0.003469 -832366.000000 1 0 0
-13.395738 2.728595 -2.431392 13.885341 -0.200942 1.746809 0.000929 -0.001013 92142.100000 1 0 0
-11.379238 9.226895 -10.819792 18.212374 -0.681324 2.206930 0.018509 -0.008689 -581585.000000 1 0 0
-15.493638 4.363895 -8.025692 17.986332 -0.274545 2.033323 0.020705 -0.001264 736020.000000 1 0 0
-18.468338 10.283595 4.695808 21.653694 -0.508067 1.352200 0.086040 -0.025226 431994.000000 1 0 0
-15.411338 6.275595 -6.147092 17.739199 -0.386703 1.924661 0.013308 0.007168 658189.000000 1 0 0
-7.710438 11.188595 -13.031092 18.826707 -0.967400 2.335274 0.015227 -0.006348 -358628.000000 1 0 0
-16.880938 9.277595 -2.789692 19.463356 -0.502528 1.714622 0.044774 -0.003808 335825.000000 1 0 0
-20.681538 -0.914305 -4.580692 21.202469 0.044180 1.788559 0.057755 -0.014537 48453.600000 1 0 0
-15.613638 4.338695 4.163908 16.731649 -0.271040 1.319289 0.009367 -0.001702 334811.000000 1 0 0
-7.030538 12.496595 -9.244092 17.060088 -1.058334 2.143439 0.012774 -0.012268 -2532880.000000 1 0 0
-17.035338 1.510395 5.835008 18.070178 -0.088431 1.241996 0.023429 -0.014455 391829.000000 1 0 0
-10.487438 14.248395 -3.150292 17.970183 -0.936287 1.747014 0.036031 -0.012440 -1474290.000000 1 0 0
-10.078138 8.467295 -12.910992 18.437941 -0.698756 2.346531 0.007879 -0.007739 320045.000000 1 0 0
-13.774638 11.619695 2.768308 18.232430 -0.700742 1.418373 0.027762 -0.011746 973494.000000 1 0 0
-16.831538 6.601295 2.057208 18.196425 -0.373762 1.457498 0.016250 0.000629 984748.000000 1 0 0
-9.423738 13.195995 -8.455692 18.287697 -0.950646 2.051463 0.028603 -0.016634 770547.000000 1 0 0
-5.560838 9.828495 -12.875592 17.126095 -1.055913 2.421601 0.002163 -0.003294 -687566.000000 1 0 0
-16.216038 1.813995 3.232608 16.634308 -0.111401 1.375218 0.012045 -0.004307 149613.000000 1 0 0
-18.635838 -4.960305 4.717008 19.853192 0.260139 1.330908 0.073250 -0.020548 -851944.000000 1 0 0
-5.374838 14.423595 -9.048092 17.854886 -1.214095 2.102215 0.011740 -0.006238 95867.100000 1 0 0
-15.375538 -0.871805 -6.928992 16.887218 0.056640 1.993590 0.011615 -0.006220 603500.000000 1 0 0
-9.001938 10.872195 -9.541992 17.037873 -0.879227 2.165238 0.011976 -0.009860 299980.000000 1 0 0
-16.700138 1.128795 -6.089392 17.811499 -0.067489 1.919713 0.008676 -0.005020 -1470770.000000 1 0 0
-11.118538 8.531195 -1.477192 14.092029 -0.654478 1.675814 0.002930 -0.002443 -1142570.000000 1 0 0
-10.816938 10.979395 -12.659592 19.945389 -0.792851 2.258433 0.035384 -0.012898 -60071.400000 1 0 0
-14.121738 11.736295 -10.325992 21.066329 -0.693407 2.083076 0.047235 -0.015719 274035.000000 1 0 0
-13.274938 5.654995 -7.663192 16.337915 -0.402709 2.059004 0.008253 0.005497 -960743.000000 1 0 0
-8.905338 15.431095 -4.877992 18.472102 -1.047383 1.838040 0.026008 -0.008424 -108378.000000 1 0 0
-8.681538 6.211395 -12.983392 16.808302 -0.621034 2.453469 0.014592 -0.008002 1013830.000000 1 0 0
-16.509738 7.476395 4.430508 18.657367 -0.425219 1.331039 0.028004 -0.001424 180537.000000 1 0 0
-12.714538 5.316795 -10.160692 17.122133 -0.396069 2.206103 0.012929 -0.003199 195754.000000 1 0 0
-12.606838 9.237495 -13.171292 20.438851 -0.632361 2.271067 0.058259 -0.023725 -526705.000000 1 0 0
-10.904438 5.187295 -8.462792 14.745632 -0.444023 2.182079 0.003931 -0.001131 -1325460.000000 1 0 0
-17.684738 -4.506505 -2.727292 18.452552 0.249514 1.719140 0.025187 -0.010712 98538.200000 1 0 0
-8.861138 13.043395 -10.968292 19.208159 -0.974059 2.178547 0.029000 -0.013895 241118.000000 1 0 0
-15.170338 6.070995 6.117408 17.447602 -0.380669 1.212568 0.013021 -0.011498 -219845.000000 1 0 0
-16.299138 -3.094405 -4.416592 17.168096 0.187618 1.830978 0.014735 -0.010016 -1531640.000000 1 0 0
-11.211138 -1.248805 -12.571392 16.890501 0.110932 2.410264 0.020928 -0.003208 395567.000000 1 0 0
-15.445138 6.872195 -8.602692 18.968017 -0.418640 2.041526 0.018076 0.004228 68441.700000 1 0 0
-14.800738 9.229395 1.318508 17.492342 -0.557575 1.495348 0.027685 -0.011372 -249208.000000 1 0 0
-19.663838 5.120995 7.849108 21.783012 -0.254768 1.202173 0.072010 -0.021139 -559395.000000 1 0 0
-16.385238 0.680795 0.851508 16.421467 -0.041525 1.518920 0.018496 -0.006165 -562449.000000 1 0 0
-17.593738 3.693595 7.109508 19.332029 -0.206933 1.194199 0.026386 -0.006192 724153.000000 1 0 0
-15.496838 3.964995 -1.402792 16.057428 -0.250485 1.658269 0.002295 0.000379 -1705360.000000 1 0 0
-10.791838 13.153395 0.379608 17.018216 -0.883704 1.548489 0.025636 -0.017090 -793653.000000 1 0 0
-13.542038 3.237495 0.082208 13.923898 -0.234665 1.564892 0.003968 -0.003065 -415490.000000 1 0 0
-15.139438 0.003795 -4.335292 15.747932 -0.000251 1.849691 0.008451 -0.002097 585754.000000 1 0 0
-18.952138 6.943795 3.548008 20.493613 -0.351197 1.396792 0.035874 -0.003254 64540.200000 1 0 0
-14.202638 1.385095 -6.305592 15.601087 -0.097216 1.986875 0.008464 -0.001712 -1913420.000000 1 0 0
-14.252238 12.034795 5.243208 19.376631 -0.701242 1.296786 0.024902 -0.019161 291061.000000 1 0 0
17.661462 5.343095 5.984608 19.398233 0.293775 1.257167 0.048718 -0.022828 -580609.000000 1 0 0
18.495262 7.811695 -0.521692 20.084060 0.399634 1.596775 0.039614 -0.003949 337851.000000 1 0 0
16.797062 5.016595 8.399708 19.438689 0.290226 1.123962 0.066856 -0.022257 337289.000000 1 0 0
11.513662 12.407695 10.797308 20.077280 0.822755 1.002986 0.040397 -0.009829 554723.000000 1 0 0
-2.274538 16.211395 -0.532492 16.378840 -1.431401 1.603313 -0.004873 -0.009771 -675577.000000 1 0 0
15.110262 12.479095 3.233408 19.862094 0.690317 1.407276 0.045019 -0.013653 -85723.000000 1 0 0
13.597962 11.650595 6.669808 19.108304 0.708423 1.214236 0.048322 -0.013331 814783.000000 1 0 0
-0.727138 15.747895 8.511408 17.915608 -1.524655 1.075738 0.002155 -0.003855 -445849.000000 1 0 0
0.676262 12.986495 9.398408 16.044827 1.518769 0.944980 -0.000908 -0.000466 -2082720.000000 1 0 0
0.702362 15.475295 -3.808792 15.952585 1.525441 1.811882 0.008193 -0.008533 344833.000000 1 0 0
5.456962 10.398795 13.394108 17.813352 1.087531 0.719836 0.015378 -0.009564 109814.000000 1 0 0
-1.483638 16.500395 -2.892692 16.817607 -1.481122 1.743660 0.001352 -0.006029 -1360500.000000 1 0 0
8.523862 10.088195 3.316508 13.617163 0.869251 1.324768 0.013773 -0.005187 226346.000000 1 0 0
12.685262 13.564495 -4.780692 19.177237 0.818881 1.822743 0.063718 -0.016769 573887.000000 1 0 0
2.346262 11.552795 7.855108 14.165971 1.370431 0.983028 -0.000925 0.001117 829222.000000 1 0 0
-0.478838 15.036695 -8.681392 17.369458 -1.538962 2.094173 0.012067 0.000371 -1590800.000000 1 0 0
2.374862 15.899595 0.239508 16.077763 1.422526 1.555899 0.011706 -0.012339 -434637.000000 1 0 0
1.786562 13.320295 5.184908 14.405046 1.437469 1.202596 -0.000032 0.000321 -552957.000000 1 0 0
17.313062 9.179195 -2.352492 19.736615 0.487506 1.690275 0.020306 -0.004416 235285.000000 1 0 0
-7.288138 14.856495 7.113308 18.011984 -1.114722 1.164815 0.015744 -0.013648 -778098.000000 1 0 0
8.466662 15.768795 -0.122292 17.898442 1.078047 1.577629 0.017647 -0.016601 -175429.000000 1 0 0
15.535162 10.207795 1.964808 18.692266 0.581334 1.465488 0.028454 -0.013612 541355.000000 1 0 0
14.360062 7.387795 8.714508 18.350301 0.475155 1.075949 0.050878 -0.020263 -879498.000000 1 0 0
4.193862 18.258595 -1.889392 18.829089 1.345020 1.671310 0.026985 -0.026783 878918.000000 1 0 0
-0.400638 17.471595 -4.940792 18.161183 -1.547870 1.846321 0.014155 -0.009812 -122436.000000 1 0 0
1.405662 13.654195 -0.684492 13.743415 1.468210 1.620622 0.004006 -0.008220 -607213.000000 1 0 0
10.309562 14.752195 4.296008 18.503244 0.960843 1.336482 0.036124 -0.014767 -510396.000000 1 0 0
-1.669538 15.251495 -5.160992 16.187381 -1.461763 1.895289 0.004456 -0.005369 -561757.000000 1 0 0
15.093162 8.761595 -6.311892 18.558262 0.525959 1.917833 0.039511 -0.005217 192597.000000 1 0 0
-2.400138 18.432195 0.850008 18.607230 -1.441310 1.525099 0.004389 -0.016968 310342.000000 1 0 0
-3.926338 19.173995 3.406708 19.866149 -1.368815 1.398462 0.017274 -0.020986 -88389.200000 1 0 0
1.711662 17.588895 -2.584692 17.860002 1.473787 1.716026 0.011891 -0.017338 -181097.000000 1 0 0
2.958662 12.038595 3.295408 12.827360 1.329808 1.310978 -0.001213 -0.000308 410686.000000 1 0 0
-2.625038 15.981795 1.838608 16.299972 -1.407998 1.457758 -0.000411 -0.010660 -1272540.000000 1 0 0
11.819762 12.734495 -2.619792 17.570927 0.822634 1.720452 0.032119 -0.004005 589044.000000 1 0 0
7.129562 11.729495 4.737708 14.520936 1.024638 1.238444 0.012023 -0.003672 151444.000000 1 0 0
7.087162 15.602795 2.052308 17.259405 1.144435 1.451605 0.015123 -0.012881 -1036130.000000 1 0 0
5.461462 12.273795 10.221308 16.880425 1.152134 0.920387 0.012957 0.001572 -106822.000000 1 0 0
-1.376438 14.105695 3.122308 14.512547 -1.473524 1.353956 -0.004058 -0.004089 -1080460.000000 1 0 0
4.561062 15.904495 1.611408 16.623865 1.291513 1.473710 0.008435 -0.017492 -929502.000000 1 0 0
7.253062 13.153295 11.885608 19.154210 1.066859 0.901388 0.022875 -0.004703 401070.000000 1 0 0
0.612262 17.201795 -9.370192 19.597886 1.535218 2.069312 0.013302 -0.002676 322209.000000 1 0 0
9.827562 9.775395 15.346708 20.679961 0.782737 0.734591 0.030938 -0.009174 -11360.400000 1 0 0
13.517762 7.492095 -0.009492 15.455144 0.506093 1.571411 0.006925 -0.001768 194964.000000 1 0 0
12.316262 13.635295 -0.040792 18.374255 0.836181 1.573016 0.039305 -0.011086 688552.000000 1 0 0
9.337662 12.431795 3.454208 15.927116 0.926584 1.352183 0.020706 -0.005112 682307.000000 1 0 0
-0.625638 12.790995 0.857408 12.834957 -1.521923 1.503944 0.001843 -0.004117 -589076.000000 1 0 0
15.918762 7.494595 -0.854292 17.615498 0.440018 1.619312 0.020651 -0.005270 -1196410.000000 1 0 0
-4.257538 18.275095 -2.290592 18.903771 -1.341910 1.692266 0.013156 -0.017216 -29405.500000 1 0 0
11.502062 9.171895 -3.171292 15.049192 0.673162 1.783116 0.016060 -0.001973 139610.000000 1 0 0
14.749462 9.718995 7.770808 19.297434 0.582634 1.156347 0.046914 -0.019009 -82407.500000 1 0 0
4.393862 13.776995 4.709808 15.208350 1.262067 1.255934 0.008421 -0.001522 292010.000000 1 0 0
2.108462 15.856095 5.607908 16.950221 1.438597 1.233597 0.003264 -0.003810 -173522.000000 1 0 0
5.904762 18.493195 5.458308 20.165754 1.261734 1.296705 0.023581 -0.023297 -369974.000000 1 0 0
10.728462 16.938895 -0.750192 20.064617 1.006206 1.608194 0.054844 -0.024635 -726180.000000 1 0 0
9.990062 13.573395 -4.410892 17.421090 0.936314 1.826775 0.041701 -0.009609 1529110.000000 1 0 0
16.589062 7.832895 2.222108 18.479421 0.441139 1.450257 0.019629 -0.014682 151006.000000 1 0 0
3.988762 14.029995 -0.458092 14.593178 1.293802 1.602192 0.006491 -0.008107 -837827.000000 1 0 0
5.623962 13.190795 -2.448992 14.547288 1.167779 1.739949 0.003259 -0.005201 -210597.000000 1 0 0
-6.241338 16.646395 -2.874892 18.008936 -1.212082 1.731119 0.018440 -0.009819 -1984100.000000 1 0 0
18.060562 9.940995 2.454308 20.761284 0.503170 1.452304 0.041494 -0.017587 -760347.000000 1 0 0
7.913462 12.943495 9.383108 17.838152 1.022047 1.016890 0.024709 -0.004773 1525200.000000 1 0 0
-2.598638 15.714695 6.733208 17.292792 -1.406916 1.170854 0.000594 -0.001556 -1727500.000000 1 0 0
11.403862 16.030195 6.262108 20.645320 0.952461 1.262623 0.045844 -0.014864 42659.600000 1 0 0
13.532062 11.854795 1.232708 18.032539 0.719426 1.502383 0.038461 -0.011095 965876.000000 1 0 0
17.456762 7.841595 -5.553792 19.926710 0.422189 1.853248 0.038402 0.010000 852572.000000 1 0 0
9.481562 9.197295 7.966808 15.425962 0.770181 1.028091 0.023374 -0.007226 -164187.000000 1 0 0
-1.992938 14.097295 -1.986092 14.375330 -1.430357 1.709399 -0.004441 -0.004906 478921.000000 1 0 0
10.899162 11.554295 0.797208 15.903742 0.814567 1.520648 0.019445 -0.005145 -181634.000000 1 0 0
11.732962 9.695395 -0.527892 15.229634 0.690596 1.605465 0.012955 -0.002149 92462.500000 1 0 0
-0.356638 16.267995 11.019408 19.652028 -1.548877 0.975534 0.011477 -0.004860 -639014.000000 1 0 0
2.134062 20.023495 -1.689392 20.207638 1.464619 1.654496 0.035994 -0.029061 -186816.000000 1 0 0
9.341862 14.306095 1.829608 17.183778 0.992316 1.464121 0.026823 -0.010454 -871176.000000 1 0 0
8.463862 11.742795 -5.151092 15.364373 0.946266 1.912680 0.014000 -0.001836 -1263030.000000 1 0 0
10.541962 10.232995 10.137808 17.849995 0.770527 0.966790 0.026566 -0.008244 101985.000000 1 0 0
-5.082238 15.715495 5.762408 17.493178 -1.258021 1.235119 -0.005241 -0.003429 103433.000000 1 0 0
14.319862 9.160795 -1.811292 17.095596 0.569119 1.676946 0.026833 -0.001487 -698541.000000 1 0 0
12.259262 9.509395 7.015708 17.027574 0.659741 1.146126 0.026745 -0.012948 -2032290.000000 1 0 0
3.077562 13.039895 9.781208 16.588619 1.339026 0.940191 0.005228 -0.001779 -420315.000000 1 0 0
8.436462 12.579695 -2.655592 15.377737 0.980047 1.744357 0.013349 -0.006704 -956882.000000 1 0 0
9.332762 16.885195 2.115308 19.408369 1.065868 1.461590 0.022121 -0.019559 -212512.000000 1 0 0
9.361262 14.305695 -7.454792 18.651007 0.991353 1.981985 0.042271 -0.016509 -580612.000000 1 0 0
6.298962 11.366795 7.300608 14.905698 1.064769 1.058952 0.010301 -0.002369 -551283.000000 1 0 0
5.449362 17.051495 -5.555592 18.743363 1.261472 1.871721 0.027102 -0.004322 -685013.000000 1 0 0
-4.145438 17.040495 -4.508292 18.107673 -1.332162 1.822414 0.014099 -0.013118 -142229.000000 1 0 0
-0.168338 18.469695 -0.532092 18.478125 -1.561682 1.599596 0.006151 -0.017819 -495224.000000 1 0 0
6.569962 15.657295 -2.703292 17.193693 1.173500 1.728677 0.009054 -0.005523 561096.000000 1 0 0
-0.959138 20.565395 0.791408 20.602955 -1.524192 1.532375 0.017779 -0.021650 -17238.700000 1 0 0
-1.477138 18.858595 4.100708 19.355732 -1.492629 1.357318 0.004667 -0.012009 145282.000000 1 0 0
7.168162 13.856195 -4.467992 16.227743 1.093385 1.849730 0.006671 -0.003274 -222741.000000 1 0 0
-1.010338 12.040095 7.722908 14.339734 -1.487078 1.002061 -0.002178 0.005825 364637.000000 1 0 0
7.580462 10.854895 10.934208 17.171169 0.961182 0.880485 0.019083 -0.004120 131754.000000 1 0 0
1.420362 16.067095 -7.243792 17.681672 1.482624 1.992897 0.008423 -0.006088 -1151710.000000 1 0 0
8.908362 7.263595 14.812508 18.749110 0.684042 0.659925 0.021811 -0.000183 638355.000000 1 0 0
11.295062 11.317895 -4.789592 16.691716 0.786408 1.861832 0.037184 -0.004755 -278316.000000 1 0 0
-3.353838 16.888895 4.487208 17.793764 -1.374764 1.315865 -0.001573 -0.007867 -111228.000000 1 0 0
3.877262 15.567395 -6.782392 17.417744 1.326700 1.970772 0.023585 -0.007264 36883.600000 1 0 0
-4.488438 14.032595 9.478708 17.518724 -1.261222 0.999097 0.011686 -0.007533 -273959.000000 1 0 0
6.258062 17.575995 0.505208 18.663713 1.228735 1.543724 0.015288 -0.025320 -429831.000000 1 0 0
9.783262 10.723595 -2.150992 14.674280 0.831221 1.717909 0.020342 -0.003003 -1663570.000000 1 0 0
7.195162 18.203495 -2.549892 19.739290 1.194381 1.700337 0.025355 -0.007557 50832.300000 1 0 0
3.377162 10.515795 10.330108 15.122774 1.260049 0.818821 0.004543 0.000014 1247730.000000 1 0 0
0.070062 18.461695 1.960908 18.565674 1.567001 1.464979 0.004756 -0.017327 -18267.800000 1 0 0
-0.991438 17.263895 -7.421792 18.817758 -1.513431 1.976215 0.013348 0.001428 416620.000000 1 0 0
10.111462 8.707095 12.957508 18.599790 0.710910 0.800082 0.032799 -0.009318 -165808.000000 1 0 0
3.659762 11.505995 5.616608 13.316459 1.262841 1.135389 -0.001482 0.001235 514331.000000 1 0 0
13.282462 13.846395 8.105808 20.829080 0.806182 1.171079 0.053803 -0.017423 -134119.000000 1 0 0
-0.621938 17.363995 6.665908 18.609929 -1.534994 1.204467 0.004930 -0.005115 -643077.000000 1 0 0
12.226462 13.655395 5.719808 19.200844 0.840552 1.268311 0.043296 -0.012058 -337073.000000 1 0 0
4.818162 14.713995 -4.484492 16.119151 1.254346 1.852725 0.010171 -0.005855 87110.500000 1 0 0
3.702562 17.603495 4.750708 18.605409 1.363487 1.312597 0.011303 -0.010743 -1315050.000000 1 0 0
7.009362 11.700995 2.078908 13.797330 1.031083 1.419546 0.012310 -0.002707 1071570.000000 1 0 0
6.395462 8.693195 11.710608 15.925198 0.936519 0.744612 0.010166 -0.002062 467610.000000 1 0 0
-5.392138 14.838695 1.795608 15.889816 -1.222249 1.457551 0.002368 0.000003 -65528.300000 1 0 0
6.615962 13.753395 6.202808 16.474273 1.122430 1.184765 0.018449 -0.007762 -402786.000000 1 0 0
5.859362 15.950695 5.053808 17.728446 1.218756 1.281719 0.015292 -0.010843 825175.000000 1 0 0
1.138662 17.973095 4.311008 18.517924 1.507527 1.335839 0.011114 -0.008904 -95051.500000 1 0 0
7.456062 18.152495 -6.899892 20.801790 1.181061 1.908898 0.031472 -0.011142 317966.000000 1 0 0
-2.526838 18.720595 -5.736592 19.742191 -1.436631 1.865624 0.019719 -0.009083 -237149.000000 1 0 0
13.486662 9.979795 -4.658592 17.412319 0.637054 1.841641 0.031436 -0.005803 -1245700.000000 1 0 0
-1.507638 18.015095 9.531008 20.436652 -1.487303 1.085615 0.014496 -0.012424 42174.100000 1 0 0
3.395162 11.872295 -1.600792 12.451549 1.292257 1.699715 0.004002 -0.006451 119965.000000 1 0 0
4.355862 14.050095 -10.802192 18.250098 1.270169 2.204208 0.025142 -0.021384 513186.000000 1 0 0
11.611262 13.272795 2.506408 17.812091 0.852070 1.429614 0.038430 -0.016333 1244380.000000 1 0 0
15.933062 6.425795 -7.096492 18.587994 0.383347 1.962516 0.015322 0.002636 25341.700000 1 0 0
2.390862 16.036195 2.981908 16.485374 1.422795 1.388913 0.010056 -0.009197 -619940.000000 1 0 0
13.475362 10.573395 3.521008 17.486554 0.665309 1.368055 0.026017 -0.006855 -847440.000000 1 0 0
-4.957338 19.361495 -5.576392 20.749430 -1.320140 1.842891 0.015920 -0.018507 19938.700000 1 0 0
5.442262 12.105395 0.005008 13.272484 1.148297 1.570419 0.006363 -0.005507 1385130.000000 1 0 0
4.591362 15.436195 9.696508 18.798378 1.281689 1.028836 0.016247 -0.003996 -350170.000000 1 0 0
7.815762 9.416495 13.737108 18.397409 0.878024 0.727729 0.017148 -0.009038 -1575540.000000 1 0 0
-5.063838 13.522095 7.010708 16.051154 -1.212476 1.118788 0.000737 0.000711 -1611840.000000 1 0 0
-4.563238 16.972595 0.487008 17.582074 -1.308148 1.543094 0.003392 -0.011016 -2355720.000000 1 0 0
-0.664438 16.509895 3.431608 16.875842 -1.530573 1.366024 0.001305 -0.010228 -1572010.000000 1 0 0
7.869062 16.808195 -4.686192 19.141525 1.132937 1.818128 0.022337 -0.014348 558361.000000 1 0 0
2.885862 16.509295 -4.631592 17.387831 1.397743 1.840421 0.008911 -0.006673 1222960.000000 1 0 0
9.347462 14.582295 7.976108 19.069260 1.000764 1.139256 0.024658 -0.008475 206575.000000 1 0 0
12.825362 11.023795 9.041908 19.177332 0.710001 1.079817 0.045950 -0.018388 375313.000000 1 0 0
3.771462 12.388095 12.229008 17.811161 1.275269 0.814005 0.018038 -0.005811 392452.000000 1 0 0
-3.322038 19.020295 5.939008 20.200975 -1.397883 1.272391 0.012985 -0.014771 32106.500000 1 0 0
-2.751138 15.806495 10.225808 19.025804 -1.398472 1.003362 0.015233 -0.001879 220785.000000 1 0 0
1.896562 14.282995 7.617408 16.298031 1.438784 1.084469 0.003148 -0.002088 -309253.000000 1 0 0
4.289362 17.296895 7.925308 19.503634 1.327715 1.152340 0.022142 -0.012363 -70634.300000 1 0 0
-1.919638 13.471595 9.448108 16.566099 -1.429254 0.963891 0.004404 0.003025 -1078110.000000 1 0 0
5.812962 17.679795 3.141808 18.874232 1.253139 1.403558 0.011146 -0.020091 576296.000000 1 0 0
7.113562 15.500895 -6.800592 18.361062 1.140555 1.950216 0.017247 -0.007651 -646898.000000 1 0 0
10.999362 7.722595 9.483908 16.448980 0.612131 0.956278 0.023118 -0.011047 1533400.000000 1 0 0
9.051462 16.424495 -2.554492 18.926660 1.067113 1.706177 0.035638 -0.012298 -608918.000000 1 0 0
14.465162 11.356895 -6.627892 19.548630 0.665602 1.916699 0.071932 -0.009513 523279.000000 1 0 0
11.072562 6.273595 16.057208 20.488864 0.515490 0.670189 0.050884 -0.015192 225306.000000 1 0 0
8.513362 8.560695 10.268408 15.849386 0.788170 0.866006 0.015844 -0.004096 -916219.000000 1 0 0
16.224462 9.321895 4.303708 19.200334 0.521502 1.344728 0.027345 -0.014265 -112313.000000 1 0 0
-3.374438 14.215795 4.668308 15.338473 -1.337737 1.261537 -0.004004 -0.002442 -1294090.000000 1 0 0
4.888362 14.828095 12.858308 20.226334 1.252347 0.881854 0.022261 0.003175 -497593.000000 1 0 0
15.955262 10.638795 -4.626092 19.727014 0.588087 1.807506 0.054802 -0.012593 489001.000000 1 0 0
14.786562 13.829195 5.927908 21.095714 0.751955 1.285960 0.052042 -0.017337 -175832.000000 1 0 0
6.130962 9.456195 9.300408 14.611842 0.995579 0.880847 0.005139 -0.001978 746561.000000 1 0 0
10.471362 12.210495 8.491608 18.189366 0.861924 1.085077 0.033721 -0.010791 138284.000000 1 0 0
7.928262 11.457595 -0.406692 13.939126 0.965483 1.599977 0.005852 -0.003441 -503385.000000 1 0 0
7.256062 13.615595 -8.716692 17.720485 1.081159 2.085066 0.023030 -0.009692 -1166430.000000 1 0 0
2.697162 15.198395 -2.249992 15.598986 1.395161 1.715541 0.010663 -0.010003 202034.000000 1 0 0
11.962362 13.835795 -7.507392 19.770895 0.857890 1.960289 0.052116 -0.021727 499845.000000 1 0 0
-8.072038 14.749795 9.701308 19.412100 -1.070056 1.047480 0.030063 -0.012705 347351.000000 1 0 0
11.480762 9.459595 2.205008 15.038414 0.689176 1.423641 0.023924 -0.006918 -1409850.000000 1 0 0
12.031762 8.750095 4.565708 15.561914 0.628781 1.273026 0.016241 -0.008950 446669.000000 1 0 0
14.137162 7.927295 6.065408 17.305795 0.511053 1.212708 0.027698 -0.016047 -1281310.000000 1 0 0
16.309162 7.282095 7.061208 19.206206 0.419942 1.194313 0.062261 -0.023531 54616.000000 1 0 0
13.568062 8.129295 2.652408 16.037862 0.539794 1.404649 0.010686 -0.006876 -2499090.000000 1 0 0
-4.200138 17.262995 -7.098992 19.132377 -1.332131 1.950932 0.020090 -0.016605 108663.000000 1 0 0
3.002362 19.421295 -3.994992 20.053949 1.417419 1.771350 0.028961 -0.020672 341285.000000 1 0 0
-0.186338 14.772895 6.182008 16.015317 -1.558184 1.174498 0.000124 -0.001737 -358039.000000 1 0 0
6.588562 16.298695 8.272308 19.429043 1.186641 1.130983 0.023225 -0.007425 -1110080.000000 1 0 0
12.836162 15.031995 -2.166992 19.885266 0.864029 1.679988 0.065640 -0.019158 100391.000000 1 0 0
12.760862 15.669695 4.151608 20.630434 0.887357 1.368176 0.056444 -0.017625 -453199.000000 1 0 0
3.032162 18.051495 1.401808 18.357984 1.404377 1.494362 0.021910 -0.020291 -823123.000000 1 0 0
10.394862 14.533195 -1.467292 17.928187 0.949909 1.652731 0.031836 -0.006317 -1465830.000000 1 0 0
-6.472538 15.648095 -0.450492 16.939881 -1.178595 1.597393 0.010747 -0.007202 203052.000000 1 0 0
-3.976338 15.682095 -2.448792 16.362639 -1.322471 1.721018 0.006578 -0.007875 -356298.000000 1 0 0
-6.855738 17.072895 1.625608 18.469637 -1.188949 1.482667 0.012180 -0.002807 130796.000000 1 0 0
-0.079838 19.439095 -6.425392 20.473653 -1.566689 1.890028 0.025260 -0.006614 73807.500000 1 0 0
4.658062 14.917295 7.129308 17.177028 1.268131 1.142800 0.014730 -0.002907 -873379.000000 1 0 0
8.612262 12.311295 6.890608 16.529354 0.960378 1.140796 0.027339 -0.008696 79050.500000 1 0 0
-7.503838 17.446895 -5.686692 19.825242 -1.164617 1.861724 0.035084 -0.012198 160187.000000 1 0 0
-7.732938 17.810595 -1.249592 19.457058 -1.161179 1.635064 0.042235 -0.008802 28550.300000 1 0 0
-13.762138 -9.173405 9.134208 18.893955 0.587934 1.066209 0.062296 -0.019768 675920.000000 1 0 0
-12.515738 -13.012105 7.662408 19.613033 0.804840 1.169427 0.057010 -0.016989 -522113.000000 1 0 0
-3.936538 -15.006805 12.533608 19.944720 1.314259 0.891279 0.016797 -0.012928 -42687.600000 1 0 0
-2.195638 -14.047305 15.165308 20.787837 1.415748 0.753165 0.025973 -0.006589 -74979.500000 1 0 0
-6.934538 -13.657505 12.780408 19.948786 1.100971 0.875438 0.031752 -0.018235 224814.000000 1 0 0
-9.869738 -11.629905 9.015108 17.718312 0.867086 1.037004 0.047573 -0.016791 445983.000000 1 0 0
-10.585438 -10.669805 11.284308 18.794463 0.789367 0.926788 0.069825 -0.021580 318060.000000 1 0 0
-5.850038 -12.337005 10.756208 17.381618 1.128012 0.903548 0.028926 -0.011312 584831.000000 1 0 0
-12.400038 -10.416705 7.376808 17.795673 0.698692 1.143372 0.033861 -0.009495 -587576.000000 1 0 0
-7.598938 -11.204805 12.409708 18.365521 0.974861 0.828873 0.030938 -0.019095 -578784.000000 1 0 0
-14.664238 -11.709905 7.423608 20.180973 0.673847 1.194099 0.055511 -0.008474 -637887.000000 1 0 0
-11.071038 -9.188205 9.178008 17.065369 0.692727 1.002953 0.043662 -0.010676 -193478.000000 1 0 0
-5.168838 -11.826905 13.238308 18.489060 1.158772 0.772730 0.023492 -0.016903 -658798.000000 1 0 0
3.859962 -12.441905 14.664508 19.614996 -1.269973 0.726329 0.003167 -0.008606 -1200010.000000 1 0 0
6.459962 -12.830005 14.346108 20.301501 -1.104349 0.786040 0.016737 0.000585 150447.000000 1 0 0
6.627262 -8.700105 16.081708 19.448233 -0.919821 0.597227 0.003626 -0.001337 525049.000000 1 0 0
0.744662 -1.732505 14.512808 14.634811 -1.164852 0.129214 0.005318 -0.000124 -3210420.000000 1 0 0
-0.044438 -6.383505 15.604408 16.859675 1.563835 0.388321 0.010503 -0.006303 -692169.000000 1 0 0
-1.394538 -4.767505 18.435708 19.093170 1.286226 0.263188 0.032635 -0.022423 -3657000.000000 1 0 0
-5.232738 12.817795 12.790008 18.848388 -1.183207 0.824978 0.018266 -0.004439 -1226140.000000 1 0 0
-4.028138 8.905795 11.692008 15.239492 -1.146027 0.696305 -0.002062 0.003695 -451601.000000 1 0 0
-0.484238 -3.922605 15.052508 15.562754 1.447970 0.256777 0.007284 -0.006286 -269043.000000 1 0 0
-4.537338 9.289095 14.210308 17.572922 -1.116424 0.628946 0.006009 -0.006039 418085.000000 1 0 0
-13.350938 -2.932705 16.853608 21.700055 0.216229 0.681447 0.026526 -0.005410 152263.000000 1 0 0
-0.329338 0.904895 17.321708 17.348454 -1.221747 0.055536 0.002750 0.000226 -1154120.000000 1 0 0
-3.293838 -7.248805 15.423708 17.357572 1.144292 0.476541 0.023079 -0.014450 386356.000000 1 0 0
-7.486038 5.547695 12.647108 15.708820 -0.637763 0.634959 0.002684 -0.002225 -935932.000000 1 0 0
-9.851138 9.759395 13.589608 19.415668 -0.780720 0.795497 0.030947 -0.016641 -773468.000000 1 0 0
-5.540938 2.263695 11.218608 12.715481 -0.387847 0.490114 0.004854 -0.000557 -2481530.000000 1 0 0
-7.207638 -7.411905 16.797908 19.724504 0.799369 0.551716 0.041411 -0.024933 5322.630000 1 0 0
-4.740838 3.257795 18.696608 19.561491 -0.602068 0.298474 0.010112 -0.004275 -920196.000000 1 0 0
1.048862 -8.365005 16.584308 18.604104 -1.446060 0.470299 0.004809 -0.003751 637870.000000 1 0 0
-15.083238 -3.690705 13.908908 20.846656 0.239974 0.840352 0.053295 -0.015809 392164.000000 1 0 0
-14.297238 2.270895 13.061908 19.498241 -0.157519 0.836720 0.029031 -0.006999 -678933.000000 1 0 0
-5.473638 0.982395 16.043408 16.979892 -0.177587 0.333668 0.018935 -0.005041 375588.000000 1 0 0
4.446462 5.843095 15.099008 16.789664 0.920307 0.452622 0.002427 0.001117 -95042.700000 1 0 0
-1.281838 -11.913305 13.815108 18.287349 1.463612 0.714462 0.004000 -0.009339 -148047.000000 1 0 0
-5.671338 -4.130405 16.715508 18.128224 0.629464 0.397399 0.031943 -0.017982 296490.000000 1 0 0
-12.811038 -1.551605 9.943508 16.291210 0.120528 0.914281 0.016142 -0.004498 -761679.000000 1 0 0
-14.433438 10.474895 10.231008 20.560182 -0.627792 1.049952 0.016596 -0.010027 154683.000000 1 0 0
-3.431038 -3.309605 17.779808 18.407799 0.767385 0.261959 0.029870 -0.017411 -2264660.000000 1 0 0
-7.962838 9.274095 11.932908 17.082445 -0.861324 0.797430 0.003965 -0.007669 -38174.000000 1 0 0
-4.218838 10.726295 16.296408 19.960584 -1.196064 0.615596 0.013962 -0.012355 192567.000000 1 0 0
-12.456638 12.739995 8.187808 19.609067 -0.796644 1.140047 0.019121 -0.017048 -214250.000000 1 0 0
-12.617638 3.233895 10.554708 16.764985 -0.250899 0.889799 0.011860 -0.007211 733832.000000 1 0 0
-10.078338 -3.350805 13.685008 17.322824 0.320979 0.659989 0.021963 -0.007371 -2221660.000000 1 0 0
-4.254438 -6.375305 17.760208 19.343467 0.982334 0.407410 0.044454 -0.019440 -367546.000000 1 0 0
0.863662 -3.647705 18.053008 18.438079 -1.338309 0.204732 0.009604 -0.012164 -1072180.000000 1 0 0
-6.042538 1.932495 13.677208 15.076897 -0.309535 0.434304 0.007186 0.000333 -832265.000000 1 0 0
-10.676838 8.674495 10.340208 17.209347 -0.682292 0.926234 0.016715 -0.012814 151966.000000 1 0 0
4.512562 2.502295 17.236508 17.992273 0.506305 0.290869 0.000533 -0.001735 -64360.700000 1 0 0
0.563062 -5.317305 13.200908 14.242708 -1.465297 0.384853 0.003081 -0.002179 -1250960.000000 1 0 0
-3.985238 5.758195 20.765008 21.914025 -0.965393 0.325262 0.032932 -0.013528 13146.700000 1 0 0
-10.833238 10.862895 9.036008 17.804802 -0.786765 1.038511 0.016711 -0.014147 1310740.000000 1 0 0
0.638962 4.217895 13.161108 13.835233 1.420451 0.313452 0.005111 0.001290 -1930300.000000 1 0 0
-3.169638 7.273295 13.336808 15.518308 -1.159821 0.536654 -0.002693 0.003001 -299510.000000 1 0 0
0.679962 8.975495 14.135308 16.757947 1.495183 0.567032 0.005530 -0.001867 136659.000000 1 0 0
-4.116338 -6.703605 13.039108 15.228292 1.020111 0.542845 0.017783 -0.009813 -157132.000000 1 0 0
-5.054138 8.250495 16.646708 19.254295 -1.021174 0.526500 0.009423 0.000982 84947.900000 1 0 0
1.515962 -10.650905 15.743908 19.068575 -1.429414 0.599449 -0.004504 -0.000571 -837486.000000 1 0 0
-15.024338 -1.071905 14.471608 20.887966 0.071224 0.805403 0.036082 -0.008113 522306.000000 1 0 0
-13.720738 -5.265105 8.447208 16.950967 0.366405 1.049123 0.053685 -0.016477 -605823.000000 1 0 0
-14.113338 -1.907405 12.157908 18.725363 0.134335 0.864166 0.031721 -0.008948 416524.000000 1 0 0
9.355562 1.479995 16.884808 19.360105 0.156894 0.511228 0.037847 -0.012309 -706023.000000 1 0 0
5.060662 -6.749505 16.792808 18.792672 -0.927434 0.465532 0.005480 -0.008353 -227253.000000 1 0 0
-6.058238 -2.639105 11.115008 12.930990 0.410833 0.536381 0.008045 -0.004385 511897.000000 1 0 0
0.716662 -6.229205 18.087708 19.143713 -1.456251 0.333697 0.021411 -0.017038 -181898.000000 1 0 0
-8.739938 11.807495 12.304708 19.162706 -0.933595 0.873539 0.019239 -0.007181 168025.000000 1 0 0
-6.631238 -5.781405 14.808808 17.224945 0.717040 0.536055 0.031816 -0.013428 -580396.000000 1 0 0
-4.252238 -8.892905 17.185708 19.811962 1.124772 0.520761 0.044622 -0.019422 -265657.000000 1 0 0
2.534262 -6.142205 16.209708 17.518670 -1.179477 0.389018 0.004981 -0.009578 351651.000000 1 0 0
2.216362 5.383095 16.226008 17.238715 1.180222 0.344472 0.003546 0.003160 -2015800.000000 1 0 0
0.915462 -8.733005 14.012608 16.536524 -1.466350 0.559778 -0.004166 -0.004148 -354791.000000 1 0 0
-9.942538 -2.730105 11.231008 15.246084 0.267983 0.742695 0.004801 -0.004179 587132.000000 1 0 0
-1.386738 10.111895 12.376108 16.041868 -1.434507 0.689620 0.003006 -0.002273 -668685.000000 1 0 0
-12.287138 -3.747705 11.374808 17.158243 0.296047 0.846063 0.025263 -0.004537 -1260640.000000 1 0 0
-1.694138 6.669495 19.988708 21.140026 -1.322044 0.331551 0.025553 -0.012082 -1463490.000000 1 0 0
0.168262 -13.158105 15.665808 20.459266 -1.558009 0.698656 0.002695 -0.019014 -851043.000000 1 0 0
4.074562 -8.800905 15.362708 18.167850 -1.137208 0.563111 0.001851 -0.002837 -5924.560000 1 0 0
4.406562 -4.362505 16.213608 17.358868 -0.780374 0.365278 0.005620 -0.003032 146176.000000 1 0 0
8.006062 1.899995 14.794408 16.928719 0.233009 0.507579 0.007152 0.000639 348297.000000 1 0 0
-6.175838 -0.090705 11.925108 13.429721 0.014686 0.477897 0.008876 -0.001901 77828.700000 1 0 0
-3.518638 -11.019605 18.505108 21.823187 1.261722 0.558679 0.054856 -0.013726 847055.000000 1 0 0
3.218862 -1.449305 13.627808 14.077596 -0.423065 0.253465 0.001615 0.001766 117289.000000 1 0 0
-2.583238 8.797795 15.971608 18.416476 -1.285200 0.521153 0.015267 -0.005532 -431222.000000 1 0 0
-3.297038 4.000095 14.987608 15.858739 -0.881449 0.332990 0.000980 0.004096 -465346.000000 1 0 0
-4.471338 -8.946305 19.885008 22.258544 1.107311 0.466017 0.067001 -0.026800 -258774.000000 1 0 0
-5.705738 -3.162805 18.984208 20.073837 0.506154 0.330997 0.047934 -0.028730 -601403.000000 1 0 0
-6.593938 -8.581605 11.189208 15.566706 0.915635 0.768735 0.020484 -0.010929 703126.000000 1 0 0
-11.666338 2.467195 12.708608 17.426968 -0.208409 0.753572 0.030971 -0.014688 462009.000000 1 0 0
-11.792938 -7.453905 11.572408 18.126078 0.563664 0.878327 0.055010 -0.017607 652061.000000 1 0 0
-11.077738 -7.051805 15.726808 20.488453 0.566879 0.695718 0.047742 -0.029288 45584.800000 1 0 0
0.172362 5.904395 17.745408 18.702703 1.541612 0.321333 0.007291 -0.003577 -279681.000000 1 0 0
-2.057838 -0.080305 13.291808 13.450401 0.039004 0.153716 0.009375 0.000963 121164.000000 1 0 0
-6.156138 -10.268605 18.427808 21.975586 1.030737 0.576165 0.066829 -0.020588 991035.000000 1 0 0
0.365762 2.714895 19.121908 19.317137 1.436878 0.142293 0.006537 -0.008709 -416663.000000 1 0 0
-0.743338 10.958495 14.853508 18.473437 -1.503068 0.636726 0.017784 -0.005285 -590092.000000 1 0 0
-12.840438 -2.503905 14.373008 19.435270 0.192585 0.738421 0.029135 -0.008447 -1447630.000000 1 0 0
-13.826838 8.404595 11.676708 19.954051 -0.546169 0.945695 0.027213 -0.014704 -181137.000000 1 0 0
-18.126138 -0.715005 6.853408 19.391681 0.039426 1.209572 0.071892 -0.024495 126019.000000 1 0 0
-2.066138 -7.867005 17.665408 19.448016 1.313963 0.431499 0.044631 -0.020088 -1547190.000000 1 0 0
5.621262 2.717495 14.493608 15.781256 0.450305 0.406763 0.004348 -0.000291 -3103360.000000 1 0 0
-14.363238 -6.682405 11.004208 19.288590 0.435458 0.963678 0.078767 -0.024126 1312880.000000 1 0 0
3.176062 7.826595 16.295408 18.354380 1.185297 0.478208 0.008524 -0.012361 -59550.800000 1 0 0
1.042462 2.178695 14.611208 14.809485 1.124512 0.163820 0.004661 -0.000413 -2157090.000000 1 0 0
-14.390938 0.602595 9.668608 17.347743 -0.041849 0.979617 0.020749 -0.008719 -249790.000000 1 0 0
-9.414538 -5.081105 15.494708 18.829156 0.494907 0.604282 0.031974 -0.015596 -623419.000000 1 0 0
-2.595938 -0.114905 18.230808 18.415060 0.044234 0.141579 0.016900 -0.008025 168791.000000 1 0 0
6.788762 3.816695 17.506308 19.160513 0.512168 0.418583 0.022471 -0.006872 -540694.000000 1 0 0
-4.084938 -0.849105 14.714408 15.294492 0.204944 0.276296 0.019305 -0.001992 -1416630.000000 1 0 0
4.727662 -9.138105 17.830108 20.585638 -1.093360 0.523363 0.004630 -0.002222 -219949.000000 1 0 0
1.913662 6.933395 13.489908 15.287632 1.301495 0.489843 0.006075 0.000915 -1501890.000000 1 0 0
-3.809238 -0.836505 20.385308 20.755019 0.216168 0.189030 0.042272 -0.018026 -22447.400000 1 0 0
-10.746638 1.399495 16.332708 19.601177 -0.129498 0.585834 0.032787 -0.013613 -82806.700000 1 0 0
-3.871238 7.069095 18.602608 20.273520 -1.069776 0.408843 0.016573 -0.003064 -963723.000000 1 0 0
-12.792138 1.169695 14.812608 19.606640 -0.091185 0.714396 0.041546 -0.010648 -511216.000000 1 0 0
-16.174738 -4.485505 8.517908 18.822769 0.270518 1.101194 0.070998 -0.023954 -659107.000000 1 0 0
-2.352838 0.798295 15.787208 15.981522 -0.327102 0.156099 0.008666 0.002587 -147974.000000 1 0 0
-13.821538 -8.623405 12.599908 20.595040 0.557816 0.912471 0.078811 -0.031375 488994.000000 1 0 0
6.052262 -3.208705 14.547908 16.080027 -0.487488 0.440076 0.001495 -0.004387 966967.000000 1 0 0
-15.766538 0.237195 7.577608 17.494574 -0.015043 1.122822 0.034973 -0.016250 452808.000000 1 0 0
-14.169238 5.825195 12.387008 19.701222 -0.390052 0.890861 0.038488 -0.012281 -517737.000000 1 0 0
0.488462 9.670295 16.705608 19.308820 1.520328 0.525287 0.009826 -0.009490 -97649.100000 1 0 0
-10.246738 -5.441705 10.895108 15.915752 0.488191 0.816812 0.019971 -0.010027 38376.600000 1 0 0
-3.234538 -10.873205 15.068708 18.861462 1.281655 0.645307 0.024828 -0.012016 -1569140.000000 1 0 0
-3.545338 2.742895 12.702908 13.470589 -0.658474 0.339232 0.004732 0.000168 -1754730.000000 1 0 0
-12.421838 -7.770605 7.348508 16.391611 0.559002 1.105924 0.040540 -0.012421 46949.800000 1 0 0
-8.201438 -1.774405 13.262508 15.694146 0.213069 0.564117 0.014427 -0.002867 -678576.000000 1 0 0
-9.836038 6.457995 9.648808 15.216860 -0.580976 0.883970 0.002019 -0.006145 -622215.000000 1 0 0
-17.859238 -3.382805 6.502208 19.304778 0.187197 1.227260 0.074628 -0.032783 590046.000000 1 0 0
-1.437338 0.075495 20.526608 20.577008 -0.052476 0.070005 0.014967 -0.012306 -1257940.000000 1 0 0
-2.740938 2.699295 20.269808 20.631627 -0.777744 0.187556 0.022107 -0.008399 -565434.000000 1 0 0
-3.867338 11.385195 11.139808 16.391287 -1.243344 0.823555 0.003770 -0.003583 -621980.000000 1 0 0
-4.135238 -4.778205 14.734308 16.032194 0.857408 0.405146 0.023910 -0.012177 499996.000000 1 0 0
-0.284938 -14.280505 13.358008 19.556338 1.550846 0.818862 0.010312 -0.015889 1700350.000000 1 0 0
-12.025138 0.406195 8.396708 14.672206 -0.033766 0.961505 0.003328 -0.003222 -212180.000000 1 0 0
-7.855938 2.061295 15.501908 17.500681 -0.256603 0.482605 0.015922 -0.000721 -14631.500000 1 0 0
3.541262 -2.204005 18.452408 18.917968 -0.556712 0.222311 0.010271 -0.006288 -525269.000000 1 0 0
-2.178638 4.921495 12.787608 13.874094 -1.154048 0.398383 -0.001808 0.000761 -435707.000000 1 0 0
-10.400538 -6.184405 13.316208 17.992761 0.536457 0.737597 0.029567 -0.014326 -504272.000000 1 0 0
2.385062 -3.737905 14.221608 14.896798 -1.002850 0.302229 0.002039 -0.000755 -616722.000000 1 0 0
6.741462 1.228095 17.050808 18.376223 0.180195 0.382128 0.008707 -0.003214 -1195350.000000 1 0 0
-1.849238 -5.785005 13.818308 15.094091 1.261401 0.414102 0.006523 -0.007373 -722762.000000 1 0 0
-12.843738 3.776295 14.618108 19.821985 -0.285960 0.741481 0.022877 -0.005947 75142.900000 1 0 0
-13.319438 -6.264005 13.385308 19.895015 0.439599 0.832813 0.046442 -0.029206 -487506.000000 1 0 0
-9.674838 6.812895 12.103608 16.926764 -0.613531 0.774090 0.015612 -0.005658 -460338.000000 1 0 0
-1.060138 -2.444905 12.881708 13.154461 1.161655 0.203994 0.005555 -0.001640 229463.000000 1 0 0
0.064462 6.724295 15.398808 16.803083 1.561210 0.411736 0.005267 -0.000814 477974.000000 1 0 0
-16.402738 -1.066105 9.926308 19.202030 0.064904 1.027523 0.055804 -0.011845 102918.000000 1 0 0
-1.299238 2.823495 13.852608 14.197003 -1.139532 0.220713 0.004705 0.002411 -3535940.000000 1 0 0
-10.979338 -3.283105 16.152408 19.804669 0.290563 0.617055 0.017372 -0.015309 -2275850.000000 1 0 0
-5.192638 -1.468005 17.056508 17.889745 0.275519 0.306406 0.034451 -0.010243 142048.000000 1 0 0
-12.013038 6.562495 11.124908 17.639246 -0.499984 0.888353 0.022851 -0.006766 -1702030.000000 1 0 0
-2.659038 4.768195 18.687608 19.468766 -1.062090 0.284235 0.013180 -0.006953 177196.000000 1 0 0
5.195462 -1.851005 16.521408 17.417691 -0.342253 0.322198 0.008334 -0.000823 -1138920.000000 1 0 0
-8.043238 -4.116205 12.175808 15.162029 0.473011 0.638407 0.019242 -0.006498 -2280990.000000 1 0 0
-11.953238 -0.847005 16.201808 20.151821 0.070742 0.636826 0.052326 -0.009576 334781.000000 1 0 0
2.026062 2.067495 17.322808 17.563005 0.795519 0.165575 -0.001329 -0.003387 -35161.400000 1 0 0
-9.065938 -7.637405 11.599908 16.585507 0.700082 0.796238 0.031898 -0.012666 688365.000000 1 0 0
-7.274838 6.841595 14.992608 18.014133 -0.754717 0.587608 0.009153 -0.002617 -710664.000000 1 0 0
-5.691738 3.526195 15.862308 17.217513 -0.554655 0.399414 0.009512 -0.000385 386493.000000 1 0 0
-9.407138 4.271195 11.653208 15.573522 -0.426207 0.725345 0.003942 -0.005993 -28709.700000 1 0 0
-10.601938 -0.037805 14.057008 17.606873 0.003566 0.646193 0.022378 -0.004010 -249554.000000 1 0 0
8.284462 -0.517705 15.613808 17.683080 -0.062410 0.488623 0.016034 -0.008894 77462.600000 1 0 0
-8.662538 -7.460705 14.692008 18.616035 0.710995 0.661271 0.042645 -0.015975 -835142.000000 1 0 0
-0.075638 4.226395 15.743108 16.300723 -1.552902 0.262316 0.005709 -0.001199 -26376.800000 1 0 0
-8.076238 3.167195 9.662508 12.985407 -0.373731 0.731602 -0.001031 -0.001798 -814501.000000 1 0 0
-2.123438 -9.588305 13.053108 16.334877 1.352853 0.645009 -0.001378 -0.006851 502659.000000 1 0 0
-6.119638 10.270695 10.613208 15.986786 -1.033445 0.844810 0.008855 -0.005339 -1825180.000000 1 0 0
-8.514638 -2.673705 15.671808 18.034781 0.304262 0.517665 0.024152 -0.014901 32647.700000 1 0 0
4.350462 5.893895 17.646708 19.106826 0.934935 0.393478 0.008379 -0.003521 21787.300000 1 0 0
-6.719338 -0.873705 15.102808 16.553177 0.129303 0.421732 0.017031 -0.004491 -1069450.000000 1 0 0
-0.958738 -9.809505 15.478108 18.349860 1.473370 0.567030 -0.002712 -0.005016 -229233.000000 1 0 0
-4.280438 5.804595 16.361808 17.880834 -0.935394 0.415171 0.002667 -0.001410 150592.000000 1 0 0
3.809162 0.092195 17.467408 17.878158 0.024199 0.214772 0.003152 -0.000146 -460378.000000 1 0 0
1.384862 0.305895 19.187708 19.240051 0.217394 0.073780 0.004212 -0.006435 -223130.000000 1 0 0
-6.244538 6.358195 17.973808 20.061871 -0.794416 0.460301 0.010522 -0.002469 -658013.000000 1 0 0
-12.184638 0.604095 11.000108 16.426585 -0.049538 0.837055 0.018352 -0.008793 -309698.000000 1 0 0
-5.402038 5.209695 14.072708 15.948794 -0.767275 0.489925 0.002322 0.000166 -841582.000000 1 0 0
-8.668238 -9.469205 9.912608 16.219247 0.829530 0.913267 0.033871 -0.012152 -311695.000000 1 0 0
6.915762 -3.675605 16.920208 18.644872 -0.488515 0.433504 0.013252 -0.005589 -981369.000000 1 0 0
-16.744338 1.512195 9.608308 19.364379 -0.090067 1.051598 0.046799 -0.011606 221664.000000 1 0 0
-4.141538 -9.556205 11.317608 15.380560 1.161843 0.743892 0.004466 -0.008266 -1243050.000000 1 0 0
-11.094538 -3.889405 9.138208 14.890369 0.337182 0.910059 0.014993 -0.003596 -438745.000000 1 0 0
3.702462 -5.438205 18.519608 19.653452 -0.973056 0.341336 0.004964 -0.009949 -230604.000000 1 0 0
2.564062 -1.864905 16.116608 16.425508 -0.628830 0.194244 0.002462 -0.001977 274965.000000 1 0 0
-3.184338 -4.217805 20.295208 20.972013 0.924119 0.254743 0.053182 -0.025151 -814981.000000 1 0 0
-6.259638 -3.303805 14.387808 16.034563 0.485635 0.457183 0.025875 -0.006324 749269.000000 1 0 0
-9.656838 5.095795 14.087808 17.823804 -0.485552 0.659346 0.027937 -0.007263 -13875.100000 1 0 0
-5.863138 -5.203705 11.802508 14.168773 0.725882 0.586298 0.011473 -0.005748 -420914.000000 1 0 0
6.111662 2.245195 19.371908 20.436833 0.352058 0.324244 0.023810 -0.012885 85346.000000 1 0 0
-2.866138 11.964995 13.533208 18.289986 -1.335683 0.737838 0.013289 -0.007556 -608001.000000 1 0 0
3.409162 1.386095 15.163508 15.603705 0.386165 0.238095 0.000116 -0.000198 -974921.000000 1 0 0
-5.756838 7.379895 12.924608 15.957742 -0.908326 0.626768 -0.002265 -0.006165 -940278.000000 1 0 0
-1.729938 -1.717305 15.317108 15.509855 0.781733 0.157818 0.012085 -0.001280 113679.000000 1 0 0
-7.475138 10.427495 14.215108 19.148881 -0.948839 0.734230 0.029640 -0.012971 110197.000000 1 0 0
-10.167838 2.136295 10.558408 14.813124 -0.207091 0.777351 0.001949 -0.004534 -412553.000000 1 0 0
-13.750138 5.228395 9.109508 17.302761 -0.363359 1.016345 0.011702 -0.009783 273733.000000 1 0 0
0.229362 -4.906905 20.285908 20.872191 -1.524088 0.237578 0.020720 -0.021654 -543070.000000 1 0 0
-14.382538 -2.957105 7.488108 16.482525 0.202778 1.099203 0.037182 -0.012847 310569.000000 1 0 0
-2.368938 2.508595 17.674208 18.007847 -0.814023 0.192795 0.007190 -0.002264 -10308.000000 1 0 0
-6.236238 -8.352205 14.508508 17.864680 0.929438 0.622997 0.029619 -0.014039 -264131.000000 1 0 0
-8.035838 1.872295 11.978608 14.545351 -0.228909 0.603181 0.000223 -0.000174 910725.000000 1 0 0
-14.528338 -3.407005 10.089408 18.013229 0.230345 0.976277 0.035280 -0.018058 251679.000000 1 0 0
-0.572738 7.097395 12.873508 14.711501 -1.490274 0.505228 0.003398 0.001574 -356457.000000 1 0 0
-1.763238 -2.228105 19.351108 19.558600 0.901345 0.145791 0.034184 -0.016246 -460574.000000 1 0 0
-12.873838 10.230795 7.400108 18.032373 -0.671499 1.147927 0.013976 -0.018030 -182838.000000 1 0 0
-19.483038 1.960395 6.728408 20.705154 -0.100283 1.239824 0.067183 -0.018402 195138.000000 1 0 0
-16.133138 8.371895 6.765808 19.394404 -0.478673 1.214449 0.021447 -0.007568 475755.000000 1 0 0
-12.415438 7.325095 13.494308 19.745796 -0.533033 0.818384 0.030583 -0.010313 -323669.000000 1 0 0
-16.061338 8.600395 10.544908 21.050616 -0.491621 1.046122 0.028002 0.002832 235683.000000 1 0 0
1.812862 11.047995 15.045108 18.753665 1.408156 0.639743 0.013658 -0.011566 -805818.000000 1 0 0
2.239962 14.456495 12.570908 19.288219 1.417074 0.860920 0.010320 -0.009273 95442.100000 1 0 0
-3.203138 13.814795 11.699608 18.384490 -1.342959 0.880994 0.005026 -0.004708 110187.000000 1 0 0
8.982262 4.835595 15.582108 18.624342 0.493854 0.579653 0.027676 -0.006073 30078.400000 1 0 0
-0.493138 12.532195 12.933708 18.016101 -1.531467 0.770019 0.009596 -0.008264 -650135.000000 1 0 0
3.628262 13.370895 14.490508 20.047941 1.305822 0.762961 0.017597 -0.010382 38248.800000 1 0 0
-2.762338 -4.048305 -13.771792 14.617850 0.972018 2.799699 0.005911 -0.008183 -433973.000000 1 0 0
5.617662 -11.621605 16.369108 20.846283 -1.120532 0.667730 0.000793 -0.003653 122841.000000 1 0 0
7.828262 -13.482505 7.325008 17.225428 -1.044746 1.131565 0.000519 -0.010495 -230042.000000 1 0 0
-0.137038 15.482495 1.207308 15.530101 -1.561945 1.492978 0.000506 -0.011228 -2748340.000000 1 0 0
-13.941238 8.174995 9.045108 18.520330 -0.530352 1.060555 0.017384 -0.010599 257619.000000 1 0 0
-15.524638 -9.763005 5.063208 19.025423 0.561379 1.301422 0.044051 -0.014349 4759.520000 1 0 0
9.714962 -11.204805 11.079908 18.511955 -0.856495 0.929135 0.018309 -0.005639 -31956.800000 1 0 0
-4.410738 -10.602405 -16.278592 19.921299 1.176562 2.527237 0.022822 -0.023742 -77295.100000 1 0 0
-2.089638 -12.410005 -14.784992 19.415736 1.403978 2.436413 0.016210 -0.004772 -142983.000000 1 0 0
5.692462 -15.816205 -11.571792 20.407421 -1.225318 2.173702 0.017946 0.001865 220665.000000 1 0 0
2.615162 -11.948205 -16.613792 20.630481 -1.355319 2.506983 0.011837 0.001069 182643.000000 1 0 0
0.488962 -14.262805 -14.133192 20.085164 -1.536527 2.351336 0.018739 0.011428 327817.000000 1 0 0
-6.613638 -6.003705 -14.565392 17.086115 0.737095 2.591487 0.020475 -0.006063 33883.700000 1 0 0
-6.160838 -8.243505 -17.013692 19.884089 0.928989 2.597589 0.017989 -0.016225 -107580.000000 1 0 0
-2.250638 -16.318105 -13.144292 21.074115 1.433738 2.244286 0.010322 -0.001970 141223.000000 1 0 0
16.574662 -8.249005 -8.950192 20.563838 -0.461796 2.021100 0.077034 -0.005982 -118141.000000 1 0 0
18.950562 -2.972205 -3.922792 19.579226 -0.155573 1.772516 0.051544 -0.021183 120895.000000 1 0 0
15.781162 -11.941005 -8.532292 21.550700 -0.647751 1.977863 0.068191 -0.007362 77691.400000 1 0 0
18.451062 -3.719305 -7.052092 20.099924 -0.198911 1.929277 0.146759 -0.007707 -270004.000000 1 0 0
8.840462 -9.735505 -16.022292 20.727944 -0.833544 2.454322 0.042490 -0.006157 115577.000000 1 0 0
-4.737738 9.387195 -16.006392 19.151245 -1.103394 2.560364 0.009952 -0.012091 476327.000000 1 0 0
2.772662 -9.386005 -18.497392 20.926974 -1.283561 2.654937 0.021116 -0.006939 99199.000000 1 0 0
11.407662 7.900095 -14.745892 20.248151 0.605692 2.386574 0.061079 -0.045942 475735.000000 1 0 0
18.417462 -6.840505 -8.696892 21.485608 -0.355623 1.987532 0.052167 -0.001516 -10229.200000 1 0 0
12.374462 5.317195 -13.787992 19.274559 0.405837 2.367916 0.013313 -0.009220 152794.000000 1 0 0
15.912062 5.961995 -10.741192 20.102545 0.358494 2.134499 0.017040 -0.015559 166956.000000 1 0 0
3.528862 -0.590405 -19.452092 19.778406 -0.165772 2.959691 0.029523 -0.003359 257591.000000 1 0 0
10.114162 -1.468805 -15.171792 18.293085 -0.144214 2.548781 0.010087 0.010209 186142.000000 1 0 0
12.253562 -5.978805 -14.188492 19.677632 -0.453940 2.376108 0.042012 -0.001401 169473.000000 1 0 0
10.134962 6.830995 -12.896792 17.768152 0.593064 2.383048 0.017823 -0.004110 378702.000000 1 0 0
10.827062 5.386395 -15.862392 19.946278 0.461641 2.490226 0.038477 -0.029904 649228.000000 1 0 0
11.833862 -10.409905 -15.119692 21.840593 -0.721469 2.335433 0.070202 -0.023695 347145.000000 1 0 0
-0.716838 2.574695 -17.491392 17.694398 -1.299257 2.989969 0.023579 -0.009453 432570.000000 1 0 0
6.485862 -1.095105 -17.050392 18.275162 -0.167267 2.773407 0.018580 0.004824 52937.300000 1 0 0
7.027362 -6.106105 -15.765692 18.309161 -0.715367 2.608190 0.011364 -0.010152 281007.000000 1 0 0
-2.130438 -4.729405 -20.544192 21.188909 1.147555 2.894276 0.031137 -0.024711 283000.000000 1 0 0
16.002062 -0.323005 -13.253492 20.780409 -0.020182 2.262419 0.025464 0.000224 103732.000000 1 0 0
-4.015538 -0.312605 -18.517292 18.950261 0.077692 2.927419 0.017716 -0.016316 266313.000000 1 0 0
3.502162 8.988995 -17.508292 19.990185 1.199283 2.637979 0.049006 -0.028990 -318437.000000 1 0 0
9.692662 -0.143505 -17.441692 19.954471 -0.014804 2.634323 0.026388 -0.000013 38938.200000 1 0 0
4.162562 4.494695 -18.474492 19.463712 0.823744 2.821405 0.030482 -0.005336 431690.000000 1 0 0
-1.965938 -11.151905 -18.116692 21.364560 1.396302 2.582956 0.042366 -0.012573 375104.000000 1 0 0
6.150562 -9.454405 -16.290692 19.814183 -0.994035 2.536015 0.013262 -0.003690 184468.000000 1 0 0
9.894462 -13.060305 -11.603892 20.077905 -0.922450 2.187003 0.024392 0.033258 293561.000000 1 0 0
6.099962 6.722995 -17.235792 19.480265 0.833947 2.656823 0.044414 -0.013075 260830.000000 1 0 0
9.045662 2.070995 -20.155392 22.189026 0.225070 2.710117 0.051064 -0.011394 40764.100000 1 0 0
-0.932038 -0.669705 -20.226092 20.258628 0.623060 3.084910 0.029239 -0.020513 175671.000000 1 0 0
-0.905338 6.833695 -19.713992 20.884456 -1.439082 2.805211 0.029948 -0.011864 52512.100000 1 0 0
8.753662 5.754795 -18.225792 21.021983 0.581571 2.619921 0.046860 -0.021458 247400.000000 1 0 0
11.781462 0.174395 -12.865592 17.445823 0.014801 2.400098 -0.020111 0.002152 -104195.000000 1 0 0
-4.014338 -2.611505 -19.838092 20.407958 0.576758 2.904719 0.002274 -0.017641 480615.000000 1 0 0
5.342462 -11.550805 -14.512092 19.301912 -1.137581 2.421656 -0.010491 0.002576 -13064.800000 1 0 0
11.461262 2.553195 -16.083592 19.913846 0.219188 2.510967 0.022617 0.004750 -148756.000000 1 0 0
-2.786838 -4.255705 -17.177692 17.915094 0.991021 2.853681 0.006278 -0.009265 264081.000000 1 0 0
-6.683538 -4.761305 -17.388292 19.227387 0.618995 2.700651 0.030195 -0.019283 29609.600000 1 0 0
3.140362 10.045095 -15.167292 18.461110 1.267796 2.534975 0.027131 -0.025542 127570.000000 1 0 0
16.708062 -6.500205 -11.019892 21.044002 -0.371028 2.121937 0.054422 -0.008348 7020.350000 1 0 0
9.718962 -4.096105 -17.387292 20.336033 -0.398864 2.596346 0.021213 -0.023355 102591.000000 1 0 0
-7.071938 -1.791105 -19.034392 20.384515 0.248053 2.775595 0.013393 0.002640 542774.000000 1 0 0
1.603762 -7.385105 -19.236792 20.667995 -1.356955 2.767262 0.026069 -0.022865 226489.000000 1 0 0
6.169462 11.092995 -14.124792 18.990170 1.063237 2.409526 0.049673 -0.011325 529454.000000 1 0 0
5.990062 -3.523705 -18.226992 19.506937 -0.531741 2.777326 0.019583 -0.012667 454074.000000 1 0 0
4.873862 13.393095 -14.366892 20.237024 1.221785 2.360197 0.046952 -0.028521 -112831.000000 1 0 0
10.298362 11.086495 -15.238092 21.474778 0.822236 2.359700 0.104170 -0.034356 41993.800000 1 0 0
17.148062 1.024695 -11.387492 20.610216 0.059685 2.156177 0.048542 0.002338 256632.000000 1 0 0
14.786162 -3.084505 -12.413792 19.551138 -0.205658 2.258727 0.035388 0.003698 173421.000000 1 0 0
-8.702838 -0.174805 -17.385692 19.443051 0.020083 2.677405 0.040929 -0.013521 282100.000000 1 0 0
-3.383138 4.094295 -19.154392 19.877113 -0.880220 2.871104 0.025284 -0.011517 34739.200000 1 0 0
4.173062 2.102095 -16.920292 17.553619 0.466627 2.872154 0.018089 -0.006514 553824.000000 1 0 0
-5.120738 14.282395 -13.816292 20.520690 -1.226538 2.309440 0.005020 -0.011757 325257.000000 1 0 0
1.098762 9.545095 -17.673592 20.116461 1.456188 2.643643 0.027745 -0.013261 392893.000000 1 0 0
1.391562 -5.061805 -19.810192 20.493951 -1.302510 2.882552 0.024617 -0.010677 575921.000000 1 0 0
3.979962 -6.262305 -18.025192 19.492668 -1.004652 2.751087 0.025605 -0.023654 62937.100000 1 0 0
-7.090238 7.367995 -15.961092 18.955614 -0.804607 2.571822 0.019643 0.000144 28279.300000 1 0 0
-11.705038 3.128995 -16.957392 20.841105 -0.261213 2.521202 0.069793 -0.020590 309705.000000 1 0 0
-4.586438 7.198095 -17.669492 19.622919 -1.003491 2.691603 0.009966 0.022803 498147.000000 1 0 0
-8.314938 5.389595 -17.642492 20.234709 -0.575096 2.629850 0.038702 -0.011053 456230.000000 1 0 0
-8.660438 4.611595 -14.837092 17.787898 -0.489300 2.557317 0.017690 -0.020732 608726.000000 1 0 0
9.574162 14.070995 -12.490192 21.110718 0.973334 2.203902 0.075716 -0.036120 275645.000000 1 0 0
13.860562 9.901595 -12.035692 20.857005 0.620307 2.185918 0.048099 -0.020655 307910.000000 1 0 0
8.513362 15.756295 -9.858292 20.443192 1.075419 2.073993 0.046920 -0.020141 -28512.100000 1 0 0
8.015862 14.143095 -14.215892 21.595666 1.055170 2.289322 0.074836 -0.033419 91204.600000 1 0 0
4.151662 15.420595 -13.153592 20.689322 1.307804 2.259798 0.047390 -0.024900 122946.000000 1 0 0
10.821562 11.789695 -10.944792 19.387924 0.828188 2.170643 0.059030 -0.028317 145212.000000 1 0 0
15.919562 10.639195 -9.897692 21.554333 0.589139 2.047888 0.067632 -0.021099 213396.000000 1 0 0
13.398662 11.438895 -9.793892 20.156706 0.706658 2.078175 0.088391 -0.021820 105185.000000 1 0 0
10.360962 11.539995 -7.309492 17.144962 0.839181 2.011233 0.037157 -0.012177 -10646.700000 1 0 0
6.078662 16.700295 -10.014392 20.399462 1.221717 2.083935 0.066905 -0.020671 -253456.000000 1 0 0
11.411262 13.634395 -10.182992 20.489192 0.873929 2.090927 0.091398 -0.044040 -12346.300000 1 0 0
8.522462 -19.310105 -1.263592 21.144956 -1.155161 1.630591 0.051313 -0.011361 116443.000000 1 0 0
7.431162 -16.514605 -3.666592 18.476965 -1.147963 1.770564 0.039211 -0.029121 288871.000000 1 0 0
3.950962 -18.897705 5.587008 20.098458 -1.364694 1.289104 0.038649 -0.011709 -72284.000000 1 0 0
10.433962 -17.716405 -2.359992 20.695606 -1.038546 1.685078 0.054438 -0.017538 556462.000000 1 0 0
-3.164938 -14.799705 7.859108 17.053260 1.360118 1.091836 0.023693 -0.036431 157191.000000 1 0 0
-15.210538 -12.798005 -4.492992 20.379803 0.699475 1.793085 0.020288 -0.000129 156964.000000 1 0 0
-9.182338 -12.775605 -7.305392 17.346474 0.947604 2.005504 0.013472 -0.004362 234334.000000 1 0 0
-11.734338 -14.974205 6.721408 20.176690 0.906113 1.231178 0.064594 -0.023626 276693.000000 1 0 0
-15.221038 -7.602105 -7.299192 18.513514 0.463205 1.976062 0.072620 -0.023125 -102822.000000 1 0 0
4.829562 -15.013105 6.511908 17.062325 -1.259561 1.179211 0.025810 -0.020817 137658.000000 1 0 0
2.798762 -14.189905 8.860708 16.961680 -1.376060 1.021138 0.017603 -0.010729 422877.000000 1 0 0
3.242062 -17.380405 10.331708 20.477637 -1.386380 1.041952 0.041622 -0.018146 286343.000000 1 0 0
-7.365838 -17.321905 -5.152792 19.515512 1.168729 1.838000 -0.015409 -0.010624 -103386.000000 1 0 0
2.231962 -19.823205 -4.104392 20.366323 -1.458675 1.773714 0.040482 -0.014547 101644.000000 1 0 0
-18.585138 -9.903905 -2.282392 21.182634 0.489615 1.678754 0.053479 -0.022604 -29951.400000 1 0 0
-4.118038 -14.869605 2.887508 15.697168 1.300624 1.385792 0.008269 -0.001837 116677.000000 1 0 0
-10.862538 -10.179605 -14.643392 20.881763 0.752954 2.347949 0.042194 0.001039 202887.000000 1 0 0
0.915162 -20.327505 2.655908 20.520692 -1.525806 1.441006 0.028623 -0.009799 264969.000000 1 0 0
5.403262 -18.489805 0.408808 19.267466 -1.286484 1.549577 0.018594 -0.004410 102966.000000 1 0 0
-7.855038 -19.090505 -3.470392 20.933051 1.180447 1.737351 0.028636 -0.015074 -72244.100000 1 0 0
-9.196538 -15.867605 -7.502792 19.815375 1.045527 1.959117 0.033977 -0.001711 27967.700000 1 0 0
-11.861938 -11.149505 -12.497492 20.523263 0.754448 2.225523 0.034026 0.003827 307491.000000 1 0 0
-13.465138 -15.275105 -3.574692 20.674070 0.848292 1.744577 0.028551 0.004550 204920.000000 1 0 0
-0.427638 -20.711105 -2.964892 20.926617 1.550152 1.712955 0.049119 -0.008398 400760.000000 1 0 0
-12.128838 -16.902505 -0.569792 20.811728 0.948371 1.598178 0.034841 -0.008605 210466.000000 1 0 0
1.142762 -20.157705 5.247108 20.860755 -1.514166 1.316535 0.039844 -0.020355 43985.000000 1 0 0
-18.376538 -9.146705 2.196208 20.644192 0.461837 1.464211 0.073774 -0.003321 -56297.300000 1 0 0
-14.992238 -14.879205 -0.413392 21.126496 0.781614 1.590365 0.049104 -0.010598 -196847.000000 1 0 0
10.246762 -15.807605 -4.732692 19.423565 -0.995675 1.816931 0.038871 0.000320 -22736.700000 1 0 0
-0.082438 -18.886905 -7.291092 20.245542 1.566432 1.939207 0.027772 -0.011752 131911.000000 1 0 0
-10.301538 -18.416905 -1.706192 21.171092 1.060801 1.651474 0.032671 0.043770 288701.000000 1 0 0
-14.435538 -6.711405 -11.240492 19.487852 0.435194 2.185596 0.043007 -0.012976 -112850.000000 1 0 0
-12.330438 -14.781805 2.125208 19.366413 0.875568 1.460838 0.039927 -0.027457 197611.000000 1 0 0
-2.484638 -16.196305 10.039708 19.216905 1.418575 1.021085 0.016960 -0.024449 422795.000000 1 0 0
-12.176938 -14.552005 -6.636092 20.101651 0.874023 1.907234 0.012778 0.002557 211192.000000 1 0 0
5.161362 -16.936405 -7.400092 19.189654 -1.274988 1.966686 0.026867 -0.009018 86420.600000 1 0 0
-17.202038 -7.077905 -2.699192 18.796076 0.390344 1.714899 -0.013898 -0.011202 -134848.000000 1 0 0
-12.641638 -13.238705 -8.943092 20.372855 0.808464 2.025249 0.057533 -0.033742 113540.000000 1 0 0
-7.776838 -13.670605 9.944208 18.607845 1.053579 1.006987 0.045005 -0.020951 402836.000000 1 0 0
-15.982238 -8.615305 -5.232192 18.895270 0.494401 1.851368 0.045086 -0.001502 173475.000000 1 0 0
-0.941338 -19.717005 -0.649092 19.750132 1.523090 1.603667 0.026228 -0.007271 224092.000000 1 0 0
-15.094338 -11.307905 -1.771092 18.943192 0.642956 1.664428 0.013421 -0.001922 130060.000000 1 0 0
-6.868938 -19.052805 1.648308 20.320152 1.224780 1.489590 0.032428 -0.021552 129132.000000 1 0 0
-2.155338 -20.949505 -5.134392 21.676928 1.468275 1.809929 0.028675 -0.010433 49263.100000 1 0 0
-9.088938 -19.714405 -0.441392 21.713161 1.138808 1.591126 0.034978 -0.009516 -100899.000000 1 0 0
-17.909638 -7.426605 5.031608 20.030643 0.393089 1.316881 0.076390 -0.022753 61475.600000 1 0 0
-2.707638 -15.814305 -10.865992 19.377650 1.401226 2.166086 0.009104 0.001369 -18109.000000 1 0 0
-3.227238 -18.542705 -7.840792 20.389335 1.398479 1.965521 0.003743 0.000181 173722.000000 1 0 0
4.349062 -17.959905 -5.454492 19.267174 -1.333216 1.857819 0.022587 0.014312 571704.000000 1 0 0
0.737962 -17.362805 -9.253092 19.688354 -1.528319 2.060062 0.018614 -0.002059 -62069.400000 1 0 0
-7.699338 -10.183705 -14.834192 19.571431 0.923438 2.430963 0.027867 -0.010414 373729.000000 1 0 0
-5.154238 -19.550105 -2.061092 20.322915 1.313019 1.672388 0.026581 -0.013049 367047.000000 1 0 0
-9.946338 -16.123705 8.386808 20.718157 1.018060 1.154031 0.052681 -0.022565 297013.000000 1 0 0
-7.266638 -15.104905 -10.280392 19.663383 1.122401 2.120951 0.024098 -0.011771 344830.000000 1 0 0
-12.630338 -8.065905 -12.184792 19.314591 0.568329 2.253457 0.041336 -0.010119 347048.000000 1 0 0
-16.001538 -13.101705 3.059508 20.906087 0.686086 1.423924 0.051398 -0.006066 153874.000000 1 0 0
-6.368738 -13.999705 -12.720092 19.958790 1.143859 2.261809 0.025548 -0.010292 543878.000000 1 0 0
-13.818738 -11.457105 -6.826292 19.204714 0.692234 1.934190 0.021217 -0.011601 228549.000000 1 0 0
-11.262138 -10.231305 -8.378492 17.369930 0.737475 2.074139 0.002512 -0.011391 342838.000000 1 0 0
-9.978438 -14.739705 3.915808 18.225303 0.975690 1.354252 0.026661 -0.012561 444936.000000 1 0 0
5.146562 -17.931405 8.235408 20.392261 -1.291296 1.155075 0.047410 -0.027495 273996.000000 1 0 0
-4.807838 -16.869505 5.218608 18.301075 1.293156 1.281630 0.016527 0.000851 398893.000000 1 0 0
-18.390938 -7.262305 -6.604892 20.846877 0.376089 1.893181 0.049529 -0.026026 149465.000000 1 0 0
-16.967538 -5.110005 -10.691492 20.695833 0.292524 2.113673 0.068338 -0.006536 -209015.000000 1 0 0
-15.798338 -3.980805 -13.090892 20.899898 0.246838 2.247673 0.070509 -0.012086 334912.000000 1 0 0
-19.468538 -4.634305 -6.018792 20.898005 0.233692 1.862942 0.061089 -0.019434 -9302.900000 1 0 0
5.619962 -13.767805 8.967708 17.365374 -1.183244 1.028139 0.027755 -0.006299 288504.000000 1 0 0
19.964862 -3.181205 2.913708 20.425608 -0.158012 1.427658 0.063364 -0.012799 40549.200000 1 0 0
17.983662 -2.177805 0.466808 18.121061 -0.120512 1.545033 0.030911 -0.020794 28293.700000 1 0 0
14.251862 -11.325305 0.296808 18.206213 -0.671473 1.554493 0.038138 -0.004457 166117.000000 1 0 0
11.683162 -14.208805 5.160908 19.105533 -0.882636 1.297272 0.037869 0.001800 539725.000000 1 0 0
10.337162 -12.269605 7.791008 17.835356 -0.870672 1.118725 0.026133 -0.041912 -23906.900000 1 0 0
17.949162 4.833095 -4.672392 19.166702 0.263027 1.817054 0.026131 0.002110 -1737.950000 1 0 0
18.646362 -6.292605 -4.802492 20.257039 -0.325470 1.810153 0.046462 -0.012332 -126728.000000 1 0 0
17.858662 -9.773805 -0.410292 20.362402 -0.500758 1.590947 0.076313 -0.015017 269176.000000 1 0 0
17.540162 -8.754905 8.823408 21.497864 -0.462955 1.147869 0.078588 -0.011424 -43766.900000 1 0 0
19.872462 0.291395 -2.290592 20.006161 0.014662 1.685542 0.073265 -0.011570 -352688.000000 1 0 0
7.728362 -13.032105 11.677108 19.128988 -1.035521 0.914180 0.027059 -0.010852 334213.000000 1 0 0
16.048062 -6.202805 -3.376192 17.533219 -0.368827 1.764566 0.049528 -0.008104 330286.000000 1 0 0
14.373562 -7.053405 10.942208 19.392826 -0.456197 0.971284 0.036602 -0.047199 321348.000000 1 0 0
17.126462 1.930295 8.779908 19.342402 0.112235 1.099636 0.117990 -0.039659 355283.000000 1 0 0
16.654762 -10.210605 2.540608 19.700057 -0.549977 1.441472 0.030516 -0.011063 249199.000000 1 0 0
16.293862 -7.328605 -6.045692 18.861304 -0.422668 1.897090 0.065747 -0.004767 8361.460000 1 0 0
18.860162 -4.760005 5.965408 20.345748 -0.247221 1.273222 0.156930 -0.019685 -68386.400000 1 0 0
13.090762 -13.388705 7.927608 20.334022 -0.796650 1.170307 0.009572 -0.017499 227836.000000 1 0 0
15.329962 -14.125605 -1.487892 20.898667 -0.744534 1.642052 0.048854 -0.012307 228811.000000 1 0 0
18.688662 -6.539305 8.329208 21.480324 -0.336592 1.172596 0.085845 -0.011601 382302.000000 1 0 0
19.653362 3.606695 2.362708 20.120768 0.181496 1.453098 0.075803 -0.013834 347671.000000 1 0 0
15.576362 -10.126805 8.117108 20.274680 -0.576473 1.158890 0.040005 -0.038691 176350.000000 1 0 0
14.096862 -4.163805 10.636208 18.143531 -0.287205 0.944404 0.027626 -0.012349 -89966.900000 1 0 0
18.736662 -7.890105 2.169608 20.445622 -0.398567 1.464480 0.075544 -0.011161 -26685.000000 1 0 0
18.747762 -5.063805 -1.744492 19.497794 -0.263807 1.660387 0.044752 -0.012016 235566.000000 1 0 0
14.491862 -13.791705 -5.764892 20.819682 -0.760648 1.851359 0.074093 -0.013345 445410.000000 1 0 0
13.867662 -9.666405 10.139008 19.711695 -0.608741 1.030529 0.016414 -0.013588 500116.000000 1 0 0
14.239662 2.431795 0.634408 14.459740 0.169144 1.526908 0.002365 -0.004213 -125032.000000 1 0 0
12.896962 3.112395 13.744708 19.103288 0.236800 0.767722 0.034255 -0.013506 291830.000000 1 0 0
18.473562 -3.116105 9.117208 20.835213 -0.167106 1.117884 0.080073 -0.020779 334629.000000 1 0 0
6.946662 -17.781005 4.461608 19.604239 -1.198351 1.341201 0.026794 -0.036813 352021.000000 1 0 0
12.657762 -2.317305 15.302308 19.993736 -0.181069 0.699203 0.026941 0.009274 279190.000000 1 0 0
11.256462 -13.386205 -6.845392 18.781848 -0.871609 1.943858 0.035594 -0.018020 35440.600000 1 0 0
10.484262 -18.179005 5.151808 21.608727 -1.047668 1.330065 0.020971 -0.007034 596704.000000 1 0 0
18.401462 -0.385205 -4.383792 18.920355 -0.020930 1.804618 0.061885 -0.015164 187661.000000 1 0 0
4.021362 -13.094405 11.408008 17.826313 -1.272834 0.876359 0.002564 -0.022231 -315677.000000 1 0 0
9.351362 -2.733305 14.223408 17.240193 -0.284368 0.600569 0.016033 -0.003995 451999.000000 1 0 0
9.086862 -9.060905 13.945808 18.951428 -0.783968 0.743844 0.020741 -0.013753 408328.000000 1 0 0
21.038062 5.821895 -2.866792 22.016199 0.269975 1.701380 0.099743 -0.010688 346739.000000 1 0 0
14.865562 -13.354505 1.616608 20.048470 -0.731904 1.490074 0.035253 -0.014529 211695.000000 1 0 0
10.546762 0.155895 14.386608 17.839086 0.014780 0.632646 0.012180 -0.020345 76984.600000 1 0 0
19.530462 0.441995 7.587508 20.957208 0.022627 1.200333 0.106942 -0.026269 265649.000000 1 0 0
19.858562 1.091895 0.435308 19.893321 0.054928 1.548912 0.070029 -0.015287 -31933.100000 1 0 0
18.305662 0.310895 3.070208 18.563946 0.016982 1.404647 0.054416 -0.011156 -24731.300000 1 0 0
10.250762 -8.512505 16.135108 20.925644 -0.693020 0.690279 0.024963 -0.004490 225611.000000 1 0 0
19.240562 2.978895 5.352008 20.192004 0.153604 1.302535 0.072578 -0.013315 135577.000000 1 0 0
15.210562 2.612595 6.983208 16.939659 0.170102 1.145885 0.038144 -0.019165 89295.500000 1 0 0
11.241862 -16.065805 2.137908 19.724609 -0.960246 1.462195 0.012039 -0.007704 240746.000000 1 0 0
8.626562 -16.242305 7.010808 19.682009 -1.082566 1.206594 0.023890 -0.009111 337318.000000 1 0 0
6.038762 6.628295 7.240508 11.525012 0.831905 0.891504 0.007683 -0.001256 -1178420.000000 1 0 0
18.603562 2.112895 -6.325492 19.762811 0.113090 1.896600 0.045204 -0.002539 145049.000000 1 0 0
14.346562 4.414995 -7.042892 16.580662 0.298542 2.009499 0.014034 -0.003361 216744.000000 1 0 0
-10.575338 -3.968505 -13.849692 17.871787 0.358999 2.457428 0.020049 -0.004695 -331156.000000 1 0 0
7.830562 -14.236105 -10.403292 19.292819 -1.067915 2.140320 0.007585 0.009782 -10748.800000 1 0 0
1.824062 -16.060505 13.764808 21.230566 -1.457707 0.865383 0.008201 -0.015020 378536.000000 1 0 0
-9.429738 -8.046605 2.187908 12.587881 0.706420 1.396098 0.010556 0.001088 353825.000000 1 0 0
-13.848138 2.953095 -9.567092 17.088620 -0.210101 2.165003 0.019864 -0.004593 389323.000000 1 0 0
-13.033338 -5.139505 -13.477292 19.440160 0.375613 2.336814 0.047639 0.003865 129578.000000 1 0 0
-17.950938 -1.356305 -8.825192 20.048934 0.075413 2.026598 0.060568 -0.025099 444794.000000 1 0 0
-12.581338 14.494595 4.779408 19.779436 -0.855944 1.326746 0.045358 -0.032095 389452.000000 1 0 0
-17.815738 6.115095 9.334208 21.021949 -0.330641 1.110714 0.057425 -0.015718 290200.000000 1 0 0
-13.189638 15.474395 -0.274492 20.334670 -0.864938 1.584295 0.057613 -0.018901 191918.000000 1 0 0
-15.976138 5.488395 -10.650892 19.970002 -0.330906 2.133346 0.031581 -0.008703 -42341.200000 1 0 0
-18.317438 2.781495 0.004508 18.527419 -0.150698 1.570553 0.048105 -0.003370 -23735.400000 1 0 0
-9.700538 15.414895 -0.165192 18.213916 -1.009113 1.579866 0.028051 -0.014727 -138761.000000 1 0 0
-18.917838 11.971895 2.568708 22.534621 -0.564215 1.456559 0.141458 -0.023345 43552.500000 1 0 0
-8.791238 15.973595 -7.688492 19.787737 -1.067676 1.969852 0.061359 -0.033437 -45022.100000 1 0 0
-14.877938 -1.686105 -12.530492 19.524580 0.112848 2.267614 0.051995 -0.032465 89050.300000 1 0 0
-19.165738 4.766695 -4.844292 20.335045 -0.243763 1.811333 0.069031 -0.003835 -83114.600000 1 0 0
-16.756938 9.059295 -6.027292 19.979841 -0.495621 1.877239 0.034885 0.004986 6846.780000 1 0 0
-19.061438 1.091895 2.893408 19.310682 -0.057220 1.420395 0.054727 -0.019970 334118.000000 1 0 0
-13.733138 11.799695 -6.877792 19.368426 -0.709819 1.933821 0.025520 -0.012326 179517.000000 1 0 0
-13.835238 4.517195 -12.381892 19.108378 -0.315587 2.275729 0.078546 -0.037079 85043.500000 1 0 0
-13.964338 9.299795 -6.581592 18.022383 -0.587518 1.944633 0.007650 -0.004819 308661.000000 1 0 0
-6.408138 11.469795 -15.430892 20.266546 -1.061301 2.436262 0.015224 -0.024118 100653.000000 1 0 0
-14.894638 13.832895 3.077608 20.558962 -0.748456 1.420535 0.043430 -0.026437 77917.900000 1 0 0
-18.821838 8.386695 -4.532392 21.098361 -0.419175 1.787306 0.078330 -0.005120 294284.000000 1 0 0
-5.019738 16.389195 -10.919192 20.323195 -1.273585 2.138002 0.007791 0.000774 -138836.000000 1 0 0
-19.417438 -1.558905 -6.882592 20.660038 0.080112 1.910423 0.053475 -0.019015 -294901.000000 1 0 0
-12.265738 13.680895 -6.399392 19.456810 -0.839885 1.905937 0.058489 -0.014391 180689.000000 1 0 0
-19.207138 2.855795 4.291308 19.886805 -0.147603 1.353299 0.052559 -0.012295 -73020.800000 1 0 0
-15.294838 12.879095 0.634508 20.005143 -0.699863 1.539074 0.047897 -0.004245 95612.800000 1 0 0
-16.585038 1.708795 -8.730592 18.820380 -0.102670 2.053178 -0.021134 -0.008294 74604.800000 1 0 0
-16.572838 13.823195 -4.082392 21.963734 -0.695183 1.757753 0.043511 0.031495 240967.000000 1 0 0
-10.779938 15.531195 -8.693092 20.808531 -0.964053 2.001781 0.042158 -0.014085 30867.400000 1 0 0
-19.007738 2.025595 -6.877692 20.315014 -0.106166 1.916174 0.046273 -0.012241 140044.000000 1 0 0
-17.072238 10.550795 -0.317792 20.071910 -0.553556 1.586630 0.047205 -0.003623 51910.500000 1 0 0
-11.699638 6.489595 -14.594392 19.798804 -0.506432 2.399617 0.040988 -0.022411 443952.000000 1 0 0
-12.923238 12.128795 -4.021192 18.173820 -0.753697 1.793906 0.037021 -0.015537 422615.000000 1 0 0
-18.962438 7.341195 -0.003692 20.333893 -0.369375 1.570978 0.063636 -0.005022 230247.000000 1 0 0
-14.503638 9.105995 -10.860092 20.278468 -0.560641 2.135953 0.021480 0.006381 532263.000000 1 0 0
-18.580738 11.043395 5.254808 22.244402 -0.536252 1.332312 0.084433 -0.032356 200313.000000 1 0 0
-8.219838 11.842995 -13.494592 19.746551 -0.964063 2.323192 0.016895 -0.015147 572562.000000 1 0 0
-21.188838 -1.377505 -5.236892 21.869829 0.064920 1.812603 0.064668 -0.021494 268536.000000 1 0 0
-10.796538 13.483495 -3.621392 17.648919 -0.895615 1.777455 0.029114 -0.001928 409912.000000 1 0 0
-18.880038 -4.882305 3.802208 19.868304 0.253053 1.378238 0.074312 -0.020726 -71635.300000 1 0 0
-11.597838 11.514395 -12.740092 20.721995 -0.781788 2.232941 0.055523 -0.016899 348111.000000 1 0 0
-15.038238 11.921995 -10.158792 21.713674 -0.670322 2.057655 0.042373 0.006740 185908.000000 1 0 0
-12.660538 9.714695 -13.990992 21.222921 -0.654495 2.290604 0.065529 -0.025092 364334.000000 1 0 0
-18.310438 -5.030205 -3.213892 19.258873 0.268104 1.738459 0.023686 -0.012050 -553848.000000 1 0 0
-9.546238 12.498595 -11.337392 19.387677 -0.918531 2.195397 0.034259 -0.017150 -43733.800000 1 0 0
-15.580138 7.708995 -8.173692 19.208814 -0.459476 2.010330 0.012026 0.001910 77328.600000 1 0 0
-14.626938 8.871395 2.181108 17.245469 -0.545193 1.443982 0.029284 -0.007799 -124888.000000 1 0 0
-19.979638 5.974895 7.577608 22.187957 -0.290584 1.222264 0.080762 -0.024629 165930.000000 1 0 0
-18.951538 6.012695 3.736608 20.230559 -0.307222 1.385029 0.032331 -0.000811 221275.000000 1 0 0
-14.850838 12.369495 5.900608 20.208141 -0.694492 1.274488 0.048894 -0.027626 -27634.500000 1 0 0
17.937262 6.010895 5.367808 19.664425 0.323346 1.294317 0.042343 -0.024823 -72703.900000 1 0 0
18.169062 8.208995 0.277208 19.939390 0.424360 1.556893 0.040008 -0.002953 38639.700000 1 0 0
16.231762 5.298695 9.109208 19.352621 0.315534 1.080716 0.038360 -0.001762 40117.500000 1 0 0
11.912962 13.201495 10.461408 20.631025 0.836660 1.039012 0.049938 -0.015384 55975.000000 1 0 0
15.615662 12.157795 3.970808 20.184851 0.661533 1.372783 0.048433 -0.017566 179776.000000 1 0 0
5.218162 10.661395 14.275308 18.565532 1.115629 0.693655 0.017444 -0.002159 307875.000000 1 0 0
12.513062 14.467295 -5.021192 19.776039 0.857704 1.827510 0.048236 0.023899 181748.000000 1 0 0
17.533662 9.162695 -3.276392 20.052906 0.481546 1.734920 0.023360 -0.005499 -208429.000000 1 0 0
14.865062 7.427295 9.518108 19.150174 0.463366 1.050630 0.063195 -0.019099 64996.000000 1 0 0
4.724362 18.962095 -1.534092 19.601890 1.326620 1.649139 0.023598 -0.022650 661147.000000 1 0 0
-4.781038 18.764795 3.339608 19.650162 -1.321317 1.400014 0.012787 -0.032515 177033.000000 1 0 0
6.833362 12.823695 12.671508 19.279759 1.081200 0.853640 0.027823 -0.000261 -65873.700000 1 0 0
-0.088238 17.258395 -10.009292 19.951088 -1.565684 2.096349 0.013956 0.006378 162004.000000 1 0 0
10.469662 9.422795 15.951608 21.280430 0.732820 0.723353 0.040826 -0.006702 -10803.000000 1 0 0
-1.259638 12.085495 0.911508 12.185103 -1.466944 1.495921 -0.004296 0.000358 570451.000000 1 0 0
-4.491538 19.089495 -2.720192 19.798540 -1.339711 1.708626 0.019398 -0.007346 43946.500000 1 0 0
5.422862 18.607295 6.269008 20.370060 1.287214 1.257963 0.025957 -0.018287 79819.900000 1 0 0
11.133362 17.426895 -1.457592 20.730967 1.002292 1.641164 0.053580 -0.018395 371526.000000 1 0 0
18.488062 10.357795 3.193308 21.431043 0.510673 1.421236 0.045317 -0.013219 325016.000000 1 0 0
12.067862 16.709695 6.266408 21.543330 0.945321 1.275655 0.063344 -0.007615 -47859.300000 1 0 0
17.939062 8.146895 -6.313192 20.689085 0.426294 1.880888 0.041143 0.016084 373729.000000 1 0 0
0.418162 15.736495 10.879108 19.135494 1.544230 0.966078 0.003316 -0.000511 402525.000000 1 0 0
1.242062 20.163595 -1.984892 20.299091 1.509275 1.668735 0.034837 -0.022809 273971.000000 1 0 0
14.789962 9.868695 -1.386392 17.834131 0.588411 1.648613 0.043381 -0.006990 -72176.800000 1 0 0
10.278862 16.803695 2.089908 19.808758 1.021816 1.465095 0.048838 -0.036382 299955.000000 1 0 0
0.048762 17.545795 -0.490592 17.552720 1.568017 1.598750 0.007328 -0.017025 37777.600000 1 0 0
-0.079238 20.881295 0.960108 20.903506 -1.567002 1.524850 0.029760 -0.019186 316414.000000 1 0 0
6.149262 17.142495 -0.333092 18.215091 1.226379 1.589084 0.016790 -0.031096 -13664.800000 1 0 0
7.960562 18.759895 -2.465292 20.527589 1.169485 1.691183 0.035454 -0.016147 200456.000000 1 0 0
10.168662 9.625495 12.721208 18.917742 0.757964 0.833284 0.028965 -0.009469 150527.000000 1 0 0
12.974862 14.745195 8.103808 21.247107 0.849176 1.179478 0.053268 -0.016393 236779.000000 1 0 0
0.078262 17.710995 7.206008 19.120984 1.566378 1.184388 0.011503 0.000535 252672.000000 1 0 0
7.123262 18.090895 -7.787592 20.944401 1.195691 1.951767 0.033563 -0.017249 230207.000000 1 0 0
-0.740638 18.572595 9.590608 20.915774 -1.530939 1.094451 0.019744 -0.002844 -24130.600000 1 0 0
16.068362 6.768595 -7.972092 19.171865 0.398679 1.999643 0.038812 0.004378 -141456.000000 1 0 0
-5.203738 19.744395 -6.410092 21.401152 -1.313101 1.874987 0.015508 -0.014703 229426.000000 1 0 0
3.789862 15.804495 10.049308 19.108472 1.335444 1.017013 0.017633 -0.002055 188072.000000 1 0 0
9.044962 14.893595 7.131108 18.827725 1.025022 1.182345 0.030167 -0.009864 85449.700000 1 0 0
-2.582438 19.051295 6.534508 20.305680 -1.436066 1.243159 0.014718 -0.016799 -5108.840000 1 0 0
4.808162 18.066195 8.129008 20.385941 1.310684 1.160637 0.024229 -0.015892 178356.000000 1 0 0
14.371662 12.210395 -6.221292 19.858069 0.704271 1.889450 0.030360 -0.006301 11189.300000 1 0 0
11.827162 6.660195 15.628708 20.700156 0.512866 0.715136 0.062154 -0.019441 215648.000000 1 0 0
16.912562 9.116095 4.925508 19.834278 0.494369 1.319837 0.034368 -0.017694 149052.000000 1 0 0
5.296162 14.921995 12.005408 19.870709 1.229742 0.922065 0.015730 -0.020549 398229.000000 1 0 0
15.750862 10.659995 -3.698592 19.375364 0.594977 1.762867 0.053207 -0.017405 98862.800000 1 0 0
15.530262 13.254495 5.789408 21.222345 0.706501 1.294496 0.057636 -0.019988 471118.000000 1 0 0
12.561562 14.291395 -8.087092 20.674571 0.849728 1.972689 0.091112 -0.034614 264608.000000 1 0 0
-8.175738 15.691695 9.633308 20.146280 -1.090472 1.072229 0.031207 -0.009564 160126.000000 1 0 0
-3.738638 17.637495 -7.840092 19.660257 -1.361917 1.980981 0.006415 0.035866 -12862.100000 1 0 0
2.409762 19.215395 -4.708392 19.930061 1.446040 1.809297 0.026661 -0.031162 8311.130000 1 0 0
6.934162 16.170395 9.147908 19.830494 1.165696 1.091331 0.023367 -0.023717 454217.000000 1 0 0
13.446762 15.335295 -1.505492 20.451240 0.850919 1.644477 0.079587 -0.025773 153107.000000 1 0 0
12.739362 16.618695 4.189208 21.354668 0.916776 1.373343 0.070824 -0.031250 309658.000000 1 0 0
2.197962 18.279995 1.008908 18.439283 1.451132 1.516054 0.011855 -0.026346 -543164.000000 1 0 0
-6.802238 17.999295 1.421908 19.294219 -1.209471 1.497033 -0.007006 0.018169 197109.000000 1 0 0
0.249562 19.935095 -5.685192 20.731419 1.558278 1.848586 0.033560 -0.002650 155952.000000 1 0 0
-7.465138 17.872995 -6.534892 20.442042 -1.175145 1.896187 0.050952 -0.019513 91713.700000 1 0 0
-7.165538 18.553995 -1.416892 19.939991 -1.202244 1.641914 0.041106 -0.012595 12765.500000 1 0 0
-14.469938 -9.588105 8.655208 19.396481 0.585197 1.108253 0.067605 -0.019829 377146.000000 1 0 0
-13.089638 -13.745405 7.850608 20.540370 0.809830 1.178616 0.060258 -0.013695 76712.300000 1 0 0
-4.220238 -15.910805 12.602208 20.731130 1.311523 0.917398 0.048932 -0.011468 180059.000000 1 0 0
-2.320138 -14.895805 14.756708 21.095698 1.416280 0.796081 0.025753 -0.027095 391143.000000 1 0 0
-7.384738 -13.576305 13.613108 20.595317 1.072615 0.848671 0.026692 -0.016831 201437.000000 1 0 0
-9.866938 -10.996805 11.812808 18.916358 0.839500 0.896336 0.054138 -0.017210 -301097.000000 1 0 0
-7.565938 -10.713805 13.222308 18.624136 0.955931 0.781361 0.036738 -0.005194 489809.000000 1 0 0
-15.216138 -12.281505 6.902908 20.736835 0.679078 1.231439 0.057048 -0.017966 290666.000000 1 0 0
-4.366138 -12.333505 13.198708 18.584520 1.230557 0.781015 0.018729 -0.019264 416457.000000 1 0 0
3.745962 -13.140005 14.030308 19.584215 -1.293082 0.772155 0.007275 0.012318 432674.000000 1 0 0
6.447662 -13.668605 14.792208 21.147400 -1.130033 0.796125 0.015837 0.000931 300695.000000 1 0 0
7.105862 -9.290405 16.651808 20.349142 -0.917852 0.612340 0.011990 -0.006662 566870.000000 1 0 0
-5.357438 13.744295 12.958608 19.635002 -1.199119 0.850011 0.018197 -0.004923 205176.000000 1 0 0
-13.710838 -2.334605 17.498008 22.352130 0.168657 0.671589 0.041749 -0.012282 249671.000000 1 0 0
-9.951738 8.849695 13.844308 19.209869 -0.726850 0.766003 0.018908 -0.014476 321715.000000 1 0 0
-7.291338 -8.321405 17.059008 20.332711 0.851279 0.575366 0.046853 -0.019737 238320.000000 1 0 0
-5.042338 2.445495 18.306908 19.145456 -0.451570 0.297060 0.021470 -0.003917 605697.000000 1 0 0
-15.847838 -3.500505 14.439608 21.723484 0.217392 0.843704 0.064702 -0.022494 73009.400000 1 0 0
-14.587438 2.992895 12.516908 19.453117 -0.202361 0.871813 0.032818 -0.001767 339470.000000 1 0 0
-13.538738 10.791995 10.193008 20.091341 -0.672982 1.038709 -0.045727 0.020197 -189825.000000 1 0 0
-4.312438 11.333495 15.571708 19.736345 -1.207209 0.661639 0.014215 -0.011075 192655.000000 1 0 0
-13.390538 12.777595 8.017908 20.170778 -0.761979 1.162004 0.030358 -0.033451 214760.000000 1 0 0
-4.064538 -6.417805 18.690008 20.174862 1.006235 0.386058 0.057656 -0.024729 375457.000000 1 0 0
1.769962 -3.826805 17.831308 18.323011 -1.137582 0.232190 0.025743 -0.015332 -33570.600000 1 0 0
-4.246038 6.515195 21.276308 22.652988 -0.993218 0.350423 0.033240 -0.007444 279720.000000 1 0 0
2.072462 -10.512105 16.501208 19.674585 -1.376143 0.575892 -0.003355 -0.007873 327747.000000 1 0 0
-15.000238 -0.267405 13.966908 20.497638 0.017825 0.821135 0.024465 -0.005939 -40547.800000 1 0 0
-13.928038 -5.748405 7.656008 16.901149 0.391425 1.100683 0.045953 -0.017668 95577.200000 1 0 0
10.153762 1.062295 16.583408 19.474002 0.104242 0.551830 0.039303 0.002028 581711.000000 1 0 0
-7.919238 12.283895 12.350108 19.134617 -0.998167 0.869207 0.023350 -0.002415 252203.000000 1 0 0
-1.889238 7.423095 20.533208 21.915387 -1.321579 0.357052 0.042550 -0.006569 464641.000000 1 0 0
0.731162 -13.922805 15.693308 20.991879 -1.518329 0.726371 -0.000137 -0.003810 482519.000000 1 0 0
-3.328138 -11.548805 17.739508 21.427588 1.290218 0.595476 0.044229 -0.019073 435703.000000 1 0 0
-2.313238 9.334295 16.707708 19.277646 -1.327869 0.522272 0.027006 -0.009393 361203.000000 1 0 0
-4.932538 -9.347305 20.612308 23.163965 1.085238 0.473794 0.102416 -0.033807 315786.000000 1 0 0
-6.652938 -3.096605 18.952608 20.323678 0.435627 0.369416 0.044358 -0.029663 560762.000000 1 0 0
-10.802038 -7.725005 16.337808 21.054303 0.620817 0.682522 0.060041 -0.025670 239635.000000 1 0 0
-0.349538 6.697895 17.725808 18.952262 -1.518657 0.361727 0.015731 -0.008519 136558.000000 1 0 0
-6.434538 -11.129205 18.718408 22.707736 1.046585 0.601799 0.083974 -0.029485 594746.000000 1 0 0
0.019662 3.462795 18.649308 18.968079 1.565118 0.183592 0.006207 -0.010468 88712.500000 1 0 0
-18.202038 -1.098305 7.719308 19.801721 0.060267 1.170349 0.051548 -0.018541 15603.700000 1 0 0
-1.658838 -8.709505 17.502008 19.619569 1.382588 0.468893 0.038570 -0.017646 323865.000000 1 0 0
5.889462 3.504495 14.953008 16.448699 0.536768 0.429751 0.004923 -0.002476 464929.000000 1 0 0
-13.939338 -6.747805 10.156608 18.520116 0.450834 0.990335 0.061719 -0.018926 239613.000000 1 0 0
3.668362 8.297595 16.957408 19.231761 1.154532 0.491259 0.015221 -0.004953 134837.000000 1 0 0
6.294562 4.541495 17.870908 19.483738 0.625007 0.409747 0.025907 -0.019276 163292.000000 1 0 0
5.465262 -9.427305 18.354308 21.345346 -1.045417 0.535774 0.018400 0.005408 382883.000000 1 0 0
-4.631738 -0.780905 19.913308 20.459781 0.167028 0.231644 0.038905 -0.014160 925351.000000 1 0 0
-11.386538 1.773395 16.927008 20.477348 -0.154504 0.597720 0.051375 -0.016291 319970.000000 1 0 0
-16.700138 -3.766005 8.847708 19.270686 0.221797 1.093783 0.063606 -0.029755 254260.000000 1 0 0
-13.886738 -9.164505 11.821708 20.410350 0.583336 0.953047 0.120077 -0.039655 91943.600000 1 0 0
-14.998138 5.661995 11.952508 19.996619 -0.360972 0.930134 0.053196 -0.042989 343403.000000 1 0 0
1.302562 9.531795 17.175108 19.685937 1.434983 0.510591 0.017768 -0.014923 159474.000000 1 0 0
-3.962538 -10.300605 14.857208 18.507857 1.203558 0.638901 0.032437 -0.017042 593571.000000 1 0 0
-18.314138 -4.017105 7.043708 20.028944 0.215925 1.211435 0.110935 -0.020438 -137219.000000 1 0 0
-0.650438 -0.417205 20.728008 20.742407 0.570321 0.037263 0.024352 -0.025954 228728.000000 1 0 0
-1.799038 2.764195 20.375308 20.640506 -0.993834 0.160475 0.016379 -0.013487 142020.000000 1 0 0
-8.171538 2.062395 16.397908 18.436889 -0.247225 0.474749 0.020074 0.006447 612613.000000 1 0 0
2.757562 -1.861905 18.866308 19.157463 -0.593887 0.174566 0.004805 -0.005010 248723.000000 1 0 0
-13.354438 4.489695 14.253608 20.041550 -0.324324 0.779588 0.052318 -0.004603 135219.000000 1 0 0
-13.449738 -5.353305 13.148208 19.555784 0.378801 0.833426 0.047204 -0.021855 -25406.500000 1 0 0
-17.342938 -1.179905 10.000408 20.054372 0.067929 1.048739 0.068975 -0.019597 328033.000000 1 0 0
-7.309638 7.789695 14.943808 18.369201 -0.817181 0.620608 0.016626 -0.004917 -112175.000000 1 0 0
-9.979738 0.611695 13.751008 17.001751 -0.061217 0.628688 0.029290 -0.008496 250690.000000 1 0 0
7.618262 -0.890005 15.048008 16.890014 -0.116298 0.471383 0.009443 -0.005547 160300.000000 1 0 0
3.944662 6.144495 18.468308 19.859345 1.000078 0.376504 0.005384 -0.009294 76969.600000 1 0 0
1.256062 0.516995 20.104908 20.150739 0.390466 0.067458 0.001542 -0.002965 43751.700000 1 0 0
-7.036938 6.715295 17.590308 20.100562 -0.762014 0.505123 0.019138 -0.009018 668042.000000 1 0 0
7.726862 -3.508205 16.454808 18.514119 -0.426198 0.476140 0.007640 -0.003296 434826.000000 1 0 0
-16.438438 2.308195 9.189708 18.973685 -0.139502 1.065188 0.038176 -0.011775 246483.000000 1 0 0
4.250862 -5.915905 19.130808 20.470847 -0.947730 0.363834 0.019246 -0.015135 15706.200000 1 0 0
-3.826838 -3.694505 20.759908 21.430535 0.767806 0.250829 0.053942 -0.022906 438056.000000 1 0 0
-9.363238 5.751795 14.709008 18.360509 -0.550865 0.641629 0.019230 -0.004710 -463765.000000 1 0 0
6.723962 2.887495 19.710908 21.025441 0.405620 0.355482 0.047619 -0.027497 222343.000000 1 0 0
-7.675338 11.177095 14.763308 20.044788 -0.969051 0.742891 0.036641 -0.013600 290223.000000 1 0 0
-14.273638 5.160395 8.319608 17.308446 -0.346912 1.069381 0.010617 -0.021383 222425.000000 1 0 0
0.363862 -5.747605 20.707408 21.493350 -1.507574 0.271263 0.015296 -0.013062 -87851.200000 1 0 0
-5.964638 -8.090305 13.636608 16.940691 0.935500 0.635185 0.019255 -0.011620 128744.000000 1 0 0
-12.771538 9.816895 6.551108 17.389670 -0.655333 1.184539 -0.003550 -0.025240 91229.500000 1 0 0
-19.425738 1.553495 7.584908 20.911802 -0.079801 1.199623 0.047866 -0.014290 -55370.400000 1 0 0
-15.835738 9.032695 6.151408 19.240582 -0.518370 1.245373 0.020486 -0.017599 59228.400000 1 0 0
-12.856738 7.395795 14.332508 20.625573 -0.522020 0.802529 0.029670 -0.012313 34192.300000 1 0 0
-16.554138 9.352795 10.850808 21.891877 -0.514273 1.052208 0.033416 -0.007674 313085.000000 1 0 0
2.257762 10.816395 14.238308 18.022800 1.365016 0.659961 0.011644 -0.051340 313304.000000 1 0 0
1.679762 14.313395 13.324708 19.627601 1.453975 0.824566 0.016745 -0.025987 421761.000000 1 0 0
8.780562 4.884095 16.509208 19.326319 0.507621 0.546720 0.032164 -0.011298 176462.000000 1 0 0
-0.411538 13.131995 13.665808 18.957135 -1.539468 0.765726 0.006735 0.010560 199378.000000 1 0 0
4.422562 13.300795 15.006808 20.534714 1.249793 0.751300 0.037342 0.006340 29783.300000 1 0 0
-3.545938 -4.576105 -13.672492 14.847608 0.911560 2.741064 0.006281 -0.010169 130287.000000 1 0 0
5.012062 -12.131005 16.894708 21.394233 -1.178996 0.660501 -0.039526 0.015092 283033.000000 1 0 0
8.613662 -13.965805 7.096808 17.877459 -1.018139 1.162584 0.002840 -0.005555 210505.000000 1 0 0
-0.480038 15.091295 0.412508 15.104562 -1.538998 1.543483 0.000536 -0.010146 -344083.000000 1 0 0
-14.616138 7.661995 8.616408 18.616663 -0.482831 1.089608 0.030348 -0.007940 -18785.200000 1 0 0
-16.275038 -9.859905 4.488708 19.551038 0.544695 1.339141 0.051016 -0.012860 412223.000000 1 0 0
9.316762 -10.467505 11.527508 18.145362 -0.843497 0.882417 0.011323 0.002831 122962.000000 1 0 0
-25.939148 5.969595 30.796844 40.705296 -0.226200 0.712728 0.085249 -0.024019 238166.000000 0 0 1
-24.733838 5.239395 30.557684 39.660888 -0.208745 0.691212 0.083446 -0.026807 138580.000000 0 0 1
-23.842338 5.558295 31.609824 39.981655 -0.229036 0.658995 0.074450 -0.029063 -563424.000000 0 0 1
-22.526038 4.800995 31.588464 39.093516 -0.209989 0.630007 0.071498 -0.030868 -688039.000000 0 0 1
-22.578238 3.422695 31.861874 39.200392 -0.150447 0.621863 0.059935 -0.028353 45015.300000 0 0 1
-21.411038 2.850695 31.297264 38.027329 -0.132363 0.604088 0.058845 -0.026552 262741.000000 0 0 1
-20.797038 1.686995 32.063131 38.254505 -0.080940 0.576908 0.051316 -0.025006 -158070.000000 0 0 1
-21.619838 0.568595 31.938804 38.572372 -0.026294 0.595224 0.060649 -0.023931 120007.000000 0 0 1
-21.417538 -0.266405 33.057777 39.390336 0.012438 0.574920 0.053005 -0.019164 -277525.000000 0 0 1
-22.216738 -1.549205 33.038584 39.843839 0.069619 0.593118 0.061015 -0.028209 -392965.000000 0 0 1
-21.702838 -2.517905 32.082717 38.815638 0.115501 0.597862 0.097791 -0.022814 295550.000000 0 0 1
-21.924638 -3.886105 32.382134 39.298781 0.175426 0.602364 0.093927 -0.032241 -510504.000000 0 0 1
-23.289138 -4.469805 31.925974 39.769724 0.189621 0.638869 0.064323 -0.020567 561239.000000 0 0 1
-24.439738 -4.117505 32.689698 41.022811 0.166908 0.648706 0.040020 -0.018270 539106.000000 0 0 1
-24.509538 -4.838705 33.890164 42.103132 0.194915 0.635235 0.031487 -0.019004 -739046.000000 0 0 1
-25.789458 -4.415205 -33.350562 42.389269 0.169558 2.476353 0.035781 -0.017966 -164026.000000 0 0 1
-25.767828 -5.003005 -32.086482 41.455438 0.191771 2.455930 0.048808 -0.022036 212491.000000 0 0 1
-26.751628 -4.554405 -31.173982 41.330489 0.168631 2.425324 0.062909 -0.025730 -243131.000000 0 0 1
-26.716038 -5.133405 -29.718172 40.289804 0.189833 2.400321 0.058361 -0.024013 -609459.000000 0 0 1
-26.931168 -6.494905 -29.633102 40.565901 0.236648 2.389840 0.052943 -0.019051 524303.000000 0 0 1
-26.737738 -6.881605 -28.304652 39.540061 0.251907 2.368633 0.050829 -0.020205 -283348.000000 0 0 1
-26.984418 -8.390005 -28.147772 39.885437 0.301445 2.354229 0.046006 -0.010652 -570837.000000 0 0 1
-28.337828 -8.700505 -28.077872 40.830114 0.297892 2.329079 0.042070 -0.007097 -785069.000000 0 0 1
-28.654938 -10.039005 -28.321842 41.521245 0.336979 2.321434 0.042740 0.002780 950805.000000 0 0 1
-29.973278 -10.645505 -27.697022 42.176406 0.341270 2.287224 0.070713 0.003323 1109630.000000 0 0 1
-29.905868 -10.881305 -26.303792 41.287446 0.348961 2.261512 0.079536 -0.003274 -250070.000000 0 0 1
-31.182528 -11.335905 -25.902552 42.092695 0.348680 2.233651 0.070514 -0.006511 212549.000000 0 0 1
-31.098068 -12.082805 -24.570792 41.434380 0.370587 2.205582 0.067682 -0.003962 -20289.700000 0 0 1
-30.880218 -11.299705 -23.414692 40.367301 0.350787 2.189575 0.076888 -0.010419 189241.000000 0 0 1
-30.751268 -12.164105 -22.332092 39.903988 0.376677 2.164754 0.081656 -0.015968 -195072.000000 0 0 1
-30.530028 -11.334305 -21.032592 38.767499 0.355480 2.144244 0.096036 -0.023227 -32802.500000 0 0 1
-30.336938 -11.964505 -19.770292 38.135857 0.375659 2.115796 0.101326 -0.020389 1151920.000000 0 0 1
-29.137998 -12.789305 -19.628192 37.387901 0.413603 2.123497 0.101578 -0.022016 742344.000000 0 0 1
-28.826858 -13.029905 -18.199392 36.496356 0.424521 2.092852 0.103043 -0.031500 -234932.000000 0 0 1
-28.295708 -11.864805 -17.644692 35.394291 0.397045 2.092685 0.098074 -0.030118 55965.200000 0 0 1
-28.224188 -11.978805 -16.220392 34.687140 0.401376 2.057392 0.103703 -0.035328 -241906.000000 0 0 1
-27.905078 -10.658905 -15.522792 33.663967 0.364867 2.050042 0.101630 -0.023753 -391706.000000 0 0 1
-26.596268 -10.279405 -15.844792 32.620317 0.368813 2.077999 0.097850 -0.021275 640.041000 0 0 1
-26.153878 -9.028205 -15.293192 31.613534 0.332388 2.075736 0.101122 -0.033365 -356763.000000 0 0 1
-24.735638 -8.514905 -15.538092 30.426759 0.331531 2.106762 0.105689 -0.025155 -647779.000000 0 0 1
-23.749838 -9.196005 -14.828192 29.470266 0.369426 2.098045 0.093221 -0.021341 -118000.000000 0 0 1
-22.587438 -8.369205 -14.832392 28.288439 0.354841 2.122721 0.140190 -0.052948 227397.000000 0 0 1
-21.465538 -8.848205 -13.882192 27.051346 0.390984 2.109681 0.122339 -0.022918 -19244.900000 0 0 1
-20.893638 -10.089905 -14.286892 27.248221 0.449889 2.122717 0.114244 -0.005522 281984.000000 0 0 1
-19.757138 -10.486805 -13.547092 26.150359 0.487972 2.115361 0.117376 -0.007483 156074.000000 0 0 1
-18.980238 -11.632105 -14.266792 26.440436 0.549817 2.140737 0.107462 -0.005354 171837.000000 0 0 1
-18.077738 -11.349505 -15.340992 26.286154 0.560622 2.193970 0.127967 -0.016325 663127.000000 0 0 1
-18.705738 -10.789305 -16.490892 27.171000 0.523179 2.222988 0.121206 -0.028202 -238159.000000 0 0 1
-17.831138 -10.792705 -17.753992 27.379485 0.544288 2.276332 0.126822 -0.026115 -295259.000000 0 0 1
-18.596238 -10.459005 -18.876292 28.487282 0.512333 2.295110 0.102346 -0.019864 535010.000000 0 0 1
-17.879738 -10.564605 -20.098192 28.900402 0.533679 2.339814 0.096886 -0.029970 -424755.000000 0 0 1
-18.871238 -10.995105 -21.150492 30.403277 0.527556 2.340141 0.110020 -0.025590 -452493.000000 0 0 1
-19.856838 -10.007005 -21.369492 30.839737 0.466809 2.336328 0.105726 -0.033102 22171.600000 0 0 1
-20.926838 -10.634405 -22.059692 32.212624 0.470163 2.325146 0.107333 -0.019283 135332.000000 0 0 1
-22.036538 -9.671605 -22.562592 32.988172 0.413576 2.323974 0.084596 -0.019212 -32764.300000 0 0 1
-21.616738 -8.662505 -23.432792 33.036617 0.381137 2.359298 0.088117 -0.034631 -265186.000000 0 0 1
-22.556838 -8.301205 -24.394892 34.246630 0.352631 2.363608 0.077253 -0.025949 103178.000000 0 0 1
-21.793938 -7.618805 -25.591222 34.466398 0.336304 2.407588 0.078762 -0.033250 603910.000000 0 0 1
-20.957138 -8.487905 -26.373462 34.739109 0.384820 2.432859 0.084745 -0.034614 293462.000000 0 0 1
-20.211338 -7.698705 -27.263462 34.800353 0.363942 2.470954 0.078633 -0.042374 -720720.000000 0 0 1
-19.127238 -8.526705 -27.911022 34.893854 0.419346 2.497898 0.091214 -0.041604 -654774.000000 0 0 1
-19.584238 -9.385605 -28.941692 36.183608 0.446904 2.497852 0.093817 -0.037475 737934.000000 0 0 1
-18.487738 -10.198605 -29.348772 36.154646 0.504103 2.517950 0.084173 -0.032902 157201.000000 0 0 1
-18.935138 -11.262305 -30.285772 37.451394 0.536575 2.512682 0.085486 -0.024620 -246147.000000 0 0 1
-19.396738 -10.786305 -31.556542 38.579699 0.507506 2.528647 0.086381 -0.024056 496378.000000 0 0 1
-20.013338 -11.872605 -32.238372 39.759339 0.535430 2.516378 0.074673 -0.018527 327247.000000 0 0 1
-20.475738 -11.587005 -33.725992 41.121248 0.514961 2.532486 0.080534 -0.019774 -395662.000000 0 0 1
-19.415538 -11.707805 33.390831 40.360667 0.542631 0.596492 0.078914 -0.023485 -497172.000000 0 0 1
-19.858738 -11.373005 32.052101 39.383396 0.520100 0.620052 0.070690 -0.020481 200722.000000 0 0 1
-19.371638 -12.388105 30.961664 38.566179 0.568956 0.638788 0.078296 -0.019046 -1012800.000000 0 0 1
-18.018438 -12.323705 30.683074 37.656193 0.599873 0.618375 0.084407 -0.024283 -654015.000000 0 0 1
-17.483438 -13.244805 29.772704 36.979851 0.648324 0.634942 0.077386 -0.021543 -46157.000000 0 0 1
-17.490038 -14.761205 30.164104 37.863806 0.700987 0.649068 0.071240 -0.015551 -1398540.000000 0 0 1
-18.724638 -15.378705 29.996114 38.560128 0.687600 0.679471 0.062771 -0.013564 -477210.000000 0 0 1
-18.867838 -16.591705 30.793854 39.743445 0.721297 0.684372 0.073300 -0.014837 -82278.800000 0 0 1
-19.229838 -16.445405 32.256681 40.996725 0.707507 0.665171 0.049948 -0.015705 -303295.000000 0 0 1
-18.149438 -15.869405 32.970839 40.845028 0.718476 0.631373 0.071689 -0.012054 113583.000000 0 0 1
-18.460338 -15.522205 -33.693182 41.436137 0.699153 2.520315 0.064636 -0.005251 -210217.000000 0 0 1
-17.200738 -15.182405 -32.893882 40.104592 0.723152 2.532561 0.058542 -0.003551 -17337.700000 0 0 1
-16.636938 -13.912305 -33.196312 39.652680 0.696445 2.562897 0.058690 -0.009298 -622505.000000 0 0 1
-15.431038 -13.532905 -32.614492 38.535199 0.719957 2.579902 0.068352 -0.006495 -189446.000000 0 0 1
-15.467038 -13.155505 -31.097962 37.140003 0.704814 2.563154 0.081840 -0.001301 -157492.000000 0 0 1
-15.747538 -14.302305 -30.299872 37.021928 0.737341 2.529470 0.061171 -0.003282 -141925.000000 0 0 1
-16.235838 -14.017105 -29.005032 36.074555 0.712190 2.504839 0.054304 -0.004385 -116968.000000 0 0 1
-16.523538 -15.265905 -28.134932 36.022903 0.745857 2.467108 0.053608 0.000921 638048.000000 0 0 1
-15.358338 -15.914905 -27.614182 35.379454 0.803193 2.466285 0.074297 -0.014941 67922.200000 0 0 1
-14.600438 -16.626405 -28.528362 36.103706 0.850186 2.481896 0.080944 -0.015379 -396563.000000 0 0 1
-13.282338 -17.122605 -27.863852 35.298702 0.911037 2.480584 0.097914 -0.020074 72829.200000 0 0 1
-12.293938 -16.120505 -27.802212 34.408932 0.919263 2.511536 0.077533 -0.020620 -15274.700000 0 0 1
-11.268138 -16.474705 -26.867182 33.469872 0.970913 2.502651 0.091456 -0.028527 918059.000000 0 0 1
-9.825238 -16.004805 -27.238522 33.085135 1.020224 2.537972 0.085099 -0.037174 736383.000000 0 0 1
-9.685438 -14.545305 -27.225412 32.351146 0.983338 2.570960 0.087774 -0.033446 428051.000000 0 0 1
-8.326138 -14.215605 -26.911552 31.553758 1.040955 2.592272 0.101201 -0.039543 738192.000000 0 0 1
-8.002938 -12.754405 -27.279272 31.158956 1.010427 2.637240 0.092664 -0.047951 -65459.100000 0 0 1
-7.936038 -12.543305 -28.628262 32.247366 1.006685 2.663275 0.097308 -0.039815 -11348.000000 0 0 1
-7.844038 -11.151705 -28.852142 31.911370 0.957796 2.700144 0.082661 -0.040705 -60904.100000 0 0 1
-6.785738 -10.820105 -29.911692 32.524302 1.010658 2.738041 0.070003 -0.025873 -873903.000000 0 0 1
-5.441038 -10.954005 -29.568582 31.998378 1.109779 2.749379 0.081131 -0.028948 197315.000000 0 0 1
-4.474038 -10.645005 -30.575132 32.682898 1.172918 2.780492 0.073296 -0.027933 362559.000000 0 0 1
-4.395538 -9.094405 -30.888682 32.498302 1.120579 2.825543 0.056881 -0.025074 -1142370.000000 0 0 1
-3.238538 -8.803005 -31.623552 32.985301 1.218274 2.853250 0.058900 -0.031741 -28203.200000 0 0 1
-3.398738 -7.463305 -32.028952 33.062155 1.143467 2.890936 0.053786 -0.029607 76518.400000 0 0 1
-2.102738 -6.830305 -32.574832 33.349577 1.272150 2.925623 0.068330 -0.036781 -33806.900000 0 0 1
-1.653938 -7.272005 -33.829422 34.641700 1.347162 2.924613 0.071751 -0.038152 -348859.000000 0 0 1
-0.627838 -6.473705 33.620921 34.244261 1.474116 0.191093 0.076458 -0.033496 -32996.500000 0 0 1
0.089862 -7.169705 32.451951 33.234649 -1.558263 0.217457 0.054817 -0.025573 153981.000000 0 0 1
-0.638238 -7.032105 31.223964 32.012401 1.480284 0.222400 0.046851 -0.018668 85067.600000 0 0 1
-0.084338 -7.776905 30.189764 31.175459 1.559952 0.252134 0.035981 -0.023664 -24150.500000 0 0 1
-0.296238 -7.075905 28.848234 29.704828 1.528955 0.240734 0.034226 -0.023160 -29370.300000 0 0 1
0.649362 -6.056505 28.672814 29.312680 -1.463987 0.209327 0.035354 -0.022496 -127818.000000 0 0 1
0.732462 -5.617705 27.344724 27.925420 -1.441143 0.204289 0.040369 -0.022515 -244285.000000 0 0 1
-0.373338 -4.634705 26.918734 27.317359 1.490417 0.171044 0.045289 -0.017186 685033.000000 0 0 1
-1.697738 -5.131805 26.876204 27.414378 1.251303 0.198472 0.042810 -0.015548 144858.000000 0 0 1
-2.709838 -4.220105 26.430594 26.902209 0.999977 0.187521 0.047264 -0.025613 2055140.000000 0 0 1
-4.157638 -4.705205 26.933814 27.656017 0.847102 0.229034 0.052303 -0.018144 1531200.000000 0 0 1
-4.614238 -5.860905 26.213494 27.254150 0.903853 0.277232 0.060243 -0.015692 -569547.000000 0 0 1
-5.866238 -6.250305 26.697694 28.040077 0.817085 0.310679 0.050137 -0.017198 37125.700000 0 0 1
-6.190438 -7.766405 26.568104 28.363757 0.897839 0.357736 0.071333 -0.018416 215219.000000 0 0 1
-5.461038 -8.456005 27.551404 29.332692 0.997367 0.350291 0.063392 -0.020353 -207017.000000 0 0 1
-5.759038 -9.824305 27.597864 29.855077 1.040583 0.391352 0.054741 -0.024127 80263.600000 0 0 1
-5.028538 -10.619405 28.703684 31.015471 1.128553 0.388539 0.050149 -0.023557 38594.800000 0 0 1
-5.415838 -11.940505 28.705414 31.558006 1.144979 0.428457 0.063884 -0.027812 163478.000000 0 0 1
-4.856138 -12.558105 29.888494 32.781247 1.201813 0.423257 0.063422 -0.026187 136790.000000 0 0 1
-4.949538 -14.149305 29.847014 33.399776 1.234293 0.465429 0.078170 -0.035066 645427.000000 0 0 1
-6.299138 -14.616205 29.688624 33.685709 1.163880 0.492102 0.086699 -0.036489 508539.000000 0 0 1
-6.397838 -16.026305 29.782854 34.420825 1.190972 0.525134 0.084541 -0.033501 140351.000000 0 0 1
-6.652638 -16.601005 31.198934 35.961430 1.189655 0.520508 0.083038 -0.029952 -73542.500000 0 0 1
-7.959738 -16.431605 31.687704 36.571378 1.119693 0.522725 0.093405 -0.031513 -417630.000000 0 0 1
-7.937538 -16.822805 32.999828 37.881393 1.129936 0.513286 0.095777 -0.027169 -396302.000000 0 0 1
-9.257038 -17.263605 33.694602 38.975005 1.078597 0.526605 0.098257 -0.023171 287785.000000 0 0 1
-9.964238 -18.408205 33.233625 39.276225 1.074662 0.562075 0.095815 -0.020175 461865.000000 0 0 1
-10.590938 -18.089805 31.958242 38.219606 1.041133 0.580526 0.098789 -0.024444 -884094.000000 0 0 1
-11.225438 -19.381805 31.397034 38.567325 1.045831 0.619647 0.104417 -0.019133 -766947.000000 0 0 1
-12.324938 -19.722505 32.160477 39.688507 1.012256 0.626095 0.104436 -0.018504 -559507.000000 0 0 1
-12.543538 -21.112205 32.036146 40.365582 1.034699 0.654011 0.093235 -0.017789 -242581.000000 0 0 1
-12.081938 -21.938305 33.231193 41.612193 1.067398 0.645843 0.085528 -0.011812 -378771.000000 0 0 1
-10.695738 -22.166005 33.189354 41.319049 1.121223 0.638072 0.077193 -0.016062 -147319.000000 0 0 1
-10.206938 -23.003005 -33.697442 42.057549 1.153175 2.500131 0.056660 -0.011402 337093.000000 0 0 1
-10.524138 -24.513705 -33.726762 43.002020 1.165275 2.472374 0.075530 -0.008960 -207174.000000 0 0 1
-9.839038 -25.116295 33.187709 42.767499 1.197432 0.682492 0.071143 -0.013364 -121131.000000 0 0 1
-10.072038 -26.483265 33.250295 43.685139 1.207372 0.705735 0.066619 -0.009979 -778464.000000 0 0 1
-9.366638 -27.169865 32.100778 43.085907 1.238812 0.730200 0.047932 -0.008378 -173974.000000 0 0 1
-7.958438 -27.100055 32.119296 42.771473 1.285158 0.721295 0.071404 -0.020579 -483887.000000 0 0 1
-7.342138 -28.120475 32.890497 43.891376 1.315402 0.723699 0.064790 -0.014671 -648290.000000 0 0 1
-5.861038 -27.704505 32.926077 43.428308 1.362315 0.710293 0.080546 -0.024852 -220393.000000 0 0 1
-5.573238 -26.546285 33.748613 43.298211 1.363858 0.677015 0.079118 -0.018085 -14840.600000 0 0 1
-5.319738 -25.391605 32.938639 41.928357 1.364276 0.667142 0.078094 -0.019131 15879.900000 0 0 1
-4.916638 -24.134205 33.698922 41.740275 1.369826 0.631153 0.091088 -0.028282 -906339.000000 0 0 1
-3.623538 -24.156305 -33.813702 41.713589 1.421903 2.516000 0.084113 -0.032143 -1053530.000000 0 0 1
-3.311238 -22.893205 -33.243412 40.499229 1.427154 2.533678 0.077832 -0.032580 76952.400000 0 0 1
34.884782 -15.939105 2.200308 38.416721 -0.428583 1.513490 0.132537 -0.051403 417710.000000 0 0 1
35.873022 -16.349805 3.189808 39.552051 -0.427641 1.490060 0.123609 -0.048941 803003.000000 0 0 1
35.289152 -16.723805 4.441608 39.303153 -0.442557 1.457545 0.123401 -0.052314 386619.000000 0 0 1
36.277622 -16.515605 5.667208 40.261003 -0.427216 1.429566 0.105051 -0.028636 762070.000000 0 0 1
-36.657808 -17.408005 5.494608 40.951486 0.443349 1.436217 0.109566 -0.024974 -114076.000000 0 0 1
-35.855996 -17.355705 6.632808 40.383995 0.450798 1.405805 0.104067 -0.015499 251621.000000 0 0 1
-34.548451 -18.200705 6.542508 39.593756 0.484870 1.404794 0.076400 -0.024340 216121.000000 0 0 1
-34.830297 -19.562605 6.537308 40.479396 0.511747 1.408589 0.096260 -0.027985 -461342.000000 0 0 1
-33.705668 -20.214505 7.006208 39.922239 0.540225 1.394386 0.082708 -0.020899 -487547.000000 0 0 1
-33.981568 -21.711305 7.369808 40.993192 0.568542 1.390032 0.077995 -0.019522 -268479.000000 0 0 1
-34.060448 -22.497805 6.184208 41.285709 0.583739 1.420440 0.088510 -0.020780 171859.000000 0 0 1
-34.391017 -23.849805 6.380108 42.335104 0.606343 1.419515 0.102968 -0.024836 -406675.000000 0 0 1
-34.000368 -24.781805 5.213508 42.395088 0.629839 1.447510 0.095287 -0.023001 -59353.800000 0 0 1
-34.527646 -24.500405 3.934708 42.519526 0.617132 1.478125 0.098887 -0.026039 -45040.300000 0 0 1
-33.756208 -25.099505 2.915208 42.165924 0.639362 1.501605 0.086025 -0.020099 -153138.000000 0 0 1
-34.251269 -24.820805 1.527808 42.326776 0.627091 1.534693 0.084245 -0.019126 -238068.000000 0 0 1
-35.299377 -25.724345 1.156008 43.693527 0.629760 1.544336 0.075943 -0.018319 369303.000000 0 0 1
-35.836949 -25.359575 -0.119292 43.902268 0.615834 1.573514 0.056818 -0.017952 44707.500000 0 0 1
-36.795158 -24.151805 -0.215992 44.014088 0.580851 1.575704 0.067351 -0.023782 -1220770.000000 0 0 1
35.901772 -24.425005 -0.006092 43.422554 -0.597401 1.570937 0.060916 -0.016480 -874492.000000 0 0 1
35.155402 -23.331605 0.348408 42.194638 -0.585925 1.562539 0.082682 -0.020909 572607.000000 0 0 1
33.593892 -23.430205 0.284108 40.958574 -0.609015 1.563860 0.051742 -0.005117 740917.000000 0 0 1
33.096072 -23.290805 -1.008692 40.482454 -0.613227 1.595716 0.043919 -0.011042 -1292590.000000 0 0 1
31.729172 -23.136005 -0.954592 39.280101 -0.630037 1.595101 0.032135 -0.002198 -894399.000000 0 0 1
31.097502 -23.005505 -2.376192 38.755054 -0.636932 1.632148 0.030866 -0.000459 9744.220000 0 0 1
31.456742 -21.812005 -3.010592 38.397316 -0.606281 1.649283 0.053776 -0.011312 -7284.610000 0 0 1
30.795262 -21.665205 -4.222092 37.888723 -0.613087 1.682462 0.052869 -0.026041 -87818.600000 0 0 1
31.016612 -20.249805 -4.776592 37.348369 -0.578390 1.699040 0.054778 -0.024865 133049.000000 0 0 1
30.328102 -19.328505 -3.951592 36.180105 -0.567405 1.680235 0.066940 -0.031519 97286.800000 0 0 1
30.351152 -17.960405 -4.418792 35.542852 -0.534334 1.695442 0.066831 -0.025797 450431.000000 0 0 1
29.367322 -17.224905 -3.409092 34.216354 -0.530458 1.670595 0.082727 -0.026261 466029.000000 0 0 1
29.867872 -16.866905 -2.100892 34.365623 -0.514072 1.631968 0.087719 -0.027196 115322.000000 0 0 1
30.374062 -17.917405 -1.219592 35.286038 -0.532954 1.605366 0.075958 -0.019475 229942.000000 0 0 1
29.383392 -19.077105 -0.842392 35.043249 -0.575846 1.594837 0.059704 -0.022568 -100973.000000 0 0 1
28.420072 -18.760305 0.107708 34.053798 -0.583448 1.567633 0.049547 -0.003366 -199220.000000 0 0 1
27.687272 -19.929905 0.437908 34.117121 -0.623906 1.557961 0.038916 0.001830 -944923.000000 0 0 1
26.515772 -19.789205 1.365408 33.114395 -0.641141 1.529552 0.047747 0.007901 -1509100.000000 0 0 1
25.859072 -21.046005 1.673408 33.383023 -0.683143 1.520648 0.043782 0.008043 256993.000000 0 0 1
24.858472 -20.934205 2.671308 32.608595 -0.699911 1.488784 0.055012 0.000134 248281.000000 0 0 1
23.523672 -20.310805 2.187608 31.155699 -0.712234 1.500523 0.050462 -0.009305 -797686.000000 0 0 1
23.470372 -18.937405 1.919608 30.218679 -0.678912 1.507230 0.088487 -0.025208 -148483.000000 0 0 1
23.587972 -18.096605 3.009708 29.882066 -0.654416 1.469906 0.119646 -0.031264 -320555.000000 0 0 1
23.322172 -16.648005 2.582508 28.770630 -0.619946 1.480913 0.108601 -0.024040 293630.000000 0 0 1
21.996572 -16.510305 2.092308 27.582913 -0.643876 1.494868 0.101793 -0.026089 -10395.200000 0 0 1
21.899472 -15.238105 1.500408 26.721489 -0.607916 1.514617 0.122122 -0.039777 1298070.000000 0 0 1
20.418472 -14.874005 1.040608 25.283055 -0.629571 1.529626 0.087080 -0.026043 1044250.000000 0 0 1
19.495972 -14.893405 2.121808 24.625363 -0.652352 1.484526 0.080272 -0.021223 260408.000000 0 1 0
18.472272 -13.919405 1.909908 23.208240 -0.645756 1.488409 0.080007 -0.023079 -223092.000000 0 1 0
18.766772 -12.465605 2.361008 22.652978 -0.586319 1.466382 0.100758 -0.025899 -692669.000000 0 1 0
19.710272 -11.842605 1.506508 23.043691 -0.541033 1.505374 0.103688 -0.026400 425736.000000 0 1 0
20.083072 -10.611105 2.059208 22.807141 -0.486078 1.480385 0.098553 -0.021621 -287904.000000 0 1 0
21.050172 -9.734105 1.237508 23.224857 -0.433138 1.517487 0.106216 -0.023633 -185651.000000 0 1 0
20.557872 -9.347005 -0.016092 22.583022 -0.426729 1.571509 0.111617 -0.020443 433689.000000 0 1 0
21.596372 -8.767405 -0.775192 23.321055 -0.385639 1.604042 0.120812 -0.012220 -398501.000000 0 1 0
21.126372 -8.004805 -2.036792 22.683673 -0.362186 1.660709 0.150614 -0.014743 239664.000000 0 1 0
22.159172 -7.514405 -2.896692 23.577235 -0.326941 1.693967 0.147609 -0.021279 1577250.000000 0 1 0
23.160272 -8.411005 -3.492592 24.886571 -0.348355 1.711602 0.137768 -0.018927 400480.000000 0 1 0
22.604972 -9.580905 -4.423692 24.946895 -0.400888 1.749063 0.111798 -0.022032 -661247.000000 0 1 0
21.977472 -9.226105 -5.612092 24.487260 -0.397456 1.802036 0.120026 -0.031739 -12420.800000 0 1 0
20.589072 -8.998805 -5.494292 23.131702 -0.412047 1.810611 0.109333 -0.021706 -47022.400000 0 1 0
19.832572 -8.964205 -6.864692 22.821304 -0.424511 1.876330 0.107601 -0.025555 -22097.800000 0 1 0
19.779072 -10.238805 -7.541592 23.514260 -0.477674 1.897290 0.100357 -0.015173 412076.000000 0 1 0
20.836672 -10.412405 -8.466392 24.784368 -0.463420 1.919417 0.092906 -0.007396 -84777.100000 0 1 0
20.821572 -11.772605 -9.237492 25.641048 -0.514593 1.939345 0.081483 -0.011631 -516142.000000 0 0 1
19.663072 -11.953605 -9.994092 25.087984 -0.546224 1.980526 0.100636 -0.027845 -110641.000000 0 0 1
19.569972 -13.226305 -10.617692 25.896995 -0.594331 1.993247 0.096866 -0.020120 -558701.000000 0 0 1
18.459572 -13.452005 -11.620792 25.627233 -0.629747 2.041434 0.118542 -0.026071 -306885.000000 0 0 1
18.216072 -14.836905 -11.809392 26.294881 -0.683517 2.036569 0.108504 -0.034186 117744.000000 0 0 1
17.142872 -15.125505 -12.677392 26.141447 -0.722961 2.077107 0.120752 -0.035558 -140141.000000 0 0 1
16.994172 -16.601805 -12.948692 27.057170 -0.773720 2.069819 0.106177 -0.036417 -207864.000000 0 0 1
16.307972 -17.368205 -11.945992 26.651665 -0.816871 2.035577 0.096177 -0.035296 467556.000000 0 0 1
16.439972 -18.736705 -12.275692 27.785417 -0.850597 2.028404 0.090085 -0.033624 -675967.000000 0 0 1
15.387072 -19.565305 -11.568292 27.447924 -0.904374 2.005855 0.078229 -0.026125 -1489530.000000 0 0 1
14.099572 -19.391205 -11.981292 26.802390 -0.942105 2.034231 0.063385 -0.018198 -1248110.000000 0 0 1
13.233872 -20.355805 -11.426892 26.834083 -0.994331 2.010681 0.054601 -0.012454 1170640.000000 0 0 1
11.786672 -20.419805 -12.057592 26.481684 -1.047297 2.043526 0.043532 -0.018460 960615.000000 0 0 1
10.857172 -21.053005 -11.220892 26.210983 -1.094663 2.013184 0.048091 -0.019741 223977.000000 0 0 1
9.518972 -20.852105 -11.697892 25.734447 -1.142551 2.042676 0.035062 -0.013326 874223.000000 0 0 1
8.457772 -21.490005 -10.776292 25.484950 -1.195847 2.007384 0.023316 -0.007170 -143992.000000 0 0 1
8.629872 -22.879205 -10.627392 26.662224 -1.210105 1.980779 0.055249 -0.013165 64542.300000 0 0 1
7.662472 -23.421705 -9.730092 26.494611 -1.254619 1.946845 0.051481 -0.025424 286243.000000 0 0 1
7.617672 -24.988905 -9.699792 27.866831 -1.274903 1.926315 0.061421 -0.026619 -106182.000000 0 0 1
8.743872 -25.457975 -9.020492 28.388960 -1.239957 1.894148 0.064038 -0.024296 -714856.000000 0 0 1
9.049372 -26.796155 -9.440392 29.816875 -1.245111 1.892952 0.048386 -0.019490 233208.000000 0 0 1
10.506972 -27.282665 -9.288092 30.675869 -1.203187 1.878406 0.047764 -0.011261 366854.000000 0 0 1
11.034872 -27.070885 -7.973692 30.301501 -1.183731 1.837077 0.052760 -0.018615 -760736.000000 0 0 1
12.358772 -27.466035 -7.812392 31.115202 -1.147971 1.824592 0.074050 -0.008742 -761609.000000 0 0 1
12.715672 -27.795605 -6.290392 31.206618 -1.141747 1.773759 0.065365 -0.015892 43394.700000 0 0 1
12.115272 -28.924195 -5.724892 31.877316 -1.174135 1.751367 0.071841 -0.020183 -1151360.000000 0 0 1
10.738872 -28.986695 -5.742092 31.440793 -1.215998 1.754459 0.071496 -0.023846 -1311930.000000 0 0 1
10.226072 -30.056365 -4.730392 32.098820 -1.242852 1.718705 0.071306 -0.025858 -60435.800000 0 0 1
10.559572 -31.393695 -5.055092 33.505561 -1.246325 1.722248 0.091076 -0.031903 55446.000000 0 0 1
9.841572 -31.960095 -6.181792 34.007628 -1.272077 1.753589 0.105816 -0.037703 385992.000000 0 0 1
10.053972 -33.429295 -6.403092 35.490840 -1.278649 1.752205 0.102861 -0.033153 -112997.000000 0 0 1
9.509672 33.795525 -5.447392 35.528094 1.296501 1.724730 0.097419 -0.029243 -167956.000000 0 0 1
10.022772 32.467006 -5.420892 34.408553 1.271371 1.729000 0.097131 -0.023989 167229.000000 0 0 1
9.349272 31.722217 -4.252092 33.343489 1.284188 1.698668 0.092135 -0.021766 929331.000000 0 0 1
8.001672 31.305777 -4.489992 32.622668 1.320557 1.708869 0.098706 -0.025937 302915.000000 0 0 1
7.510072 30.327817 -3.538092 31.443533 1.328050 1.683557 0.075489 -0.023956 -74409.500000 0 0 1
6.048372 29.892057 -3.704192 30.721961 1.371151 1.691662 0.070790 -0.028291 -44624.900000 0 0 1
5.835472 29.177947 -4.936992 30.162547 1.373405 1.735216 0.072461 -0.026483 -72827.400000 0 0 1
5.660172 30.037817 -6.058292 31.161048 1.384545 1.766461 0.073414 -0.029501 -293522.000000 0 0 1
5.813972 29.254837 -7.339392 30.716680 1.374617 1.812069 0.088260 -0.032186 862519.000000 0 0 1
4.772672 28.252607 -7.521292 29.623606 1.403448 1.827502 0.083733 -0.027859 609583.000000 0 0 1
5.179372 26.970327 -7.006592 28.342843 1.381067 1.820595 0.075061 -0.024641 -586930.000000 0 0 1
4.249872 25.789477 -7.294992 27.136239 1.407473 1.842973 0.071942 -0.024559 -530114.000000 0 0 1
2.910072 25.902647 -6.874592 26.956922 1.458919 1.828666 0.072532 -0.025562 24320.700000 0 0 1
2.086372 26.641757 -7.811092 27.841504 1.492644 1.855169 0.066623 -0.027377 -121399.000000 0 0 1
1.600972 25.850437 -9.054192 27.436957 1.508943 1.907100 0.063345 -0.017984 -49219.500000 0 0 1
2.686772 25.525687 -9.947792 27.527041 1.465925 1.940547 0.051483 -0.023581 498350.000000 0 0 1
2.347872 24.835657 -11.147192 27.323657 1.476540 1.991024 0.067765 -0.021843 -376947.000000 0 0 1
1.965272 23.323427 -11.102892 25.905960 1.486733 2.013722 0.069837 -0.016766 88990.200000 0 0 1
0.781972 22.839367 -10.505792 25.151935 1.536572 2.001701 0.078920 -0.016434 166584.000000 0 0 1
0.952572 21.443767 -10.364292 23.836130 1.526404 2.020628 0.043936 -0.011951 507983.000000 0 1 0
-0.184328 20.842667 -9.422392 22.874270 -1.561953 1.995358 0.050267 -0.010476 -215294.000000 0 1 0
-1.423628 20.794967 -10.018592 23.126382 -1.502443 2.018848 0.050342 -0.015827 -1369760.000000 0 1 0
-2.324728 20.206267 -9.121192 22.291113 -1.456250 1.992357 0.044033 -0.015778 -478643.000000 0 1 0
-3.645128 19.923667 -9.832892 22.515000 -1.389843 2.022753 0.029033 -0.025984 -886857.000000 0 1 0
-4.722228 19.552367 -9.026592 22.047083 -1.333818 1.992618 0.031872 -0.026583 -60678.500000 0 1 0
-5.738528 19.262367 -9.993492 22.446366 -1.281254 2.032212 0.035553 -0.019619 -328481.000000 0 1 0
-6.811328 18.247167 -9.607392 21.717626 -1.213533 2.029044 0.045602 -0.019975 -603873.000000 0 1 0
-7.923128 18.778667 -8.968692 22.267728 -1.171536 1.985334 0.073369 -0.012422 -659374.000000 0 1 0
-9.139128 18.422867 -9.575692 22.685228 -1.110293 2.006569 0.085888 -0.030490 190614.000000 0 1 0
-10.299028 18.702067 -8.568192 23.005460 -1.067424 1.952435 0.097816 -0.034018 239577.000000 0 1 0
-10.369428 17.694267 -7.538692 21.850492 -1.040710 1.923048 0.070456 -0.029283 -215424.000000 0 1 0
-11.522328 17.952267 -6.764592 22.378732 -1.000185 1.877878 0.097481 -0.022807 -143306.000000 0 1 0
-12.013328 16.791367 -5.816092 21.449871 -0.949779 1.845382 0.077357 -0.028452 157785.000000 0 1 0
-13.056528 17.192167 -4.949692 22.148205 -0.921277 1.796180 0.094463 -0.016984 147560.000000 0 1 0
-13.521428 16.088467 -4.169092 21.425431 -0.871877 1.766632 0.086789 -0.019885 714996.000000 0 1 0
-14.742128 16.440467 -3.221992 22.315925 -0.839809 1.715684 0.078961 -0.024267 1333690.000000 0 1 0
-15.987828 16.515167 -3.930992 23.319821 -0.801621 1.740174 0.116481 -0.033190 31368.200000 0 1 0
-17.040428 16.834467 -3.103792 24.153860 -0.779318 1.699654 0.115225 -0.033657 -539609.000000 0 1 0
-18.370128 17.244967 -3.757992 25.474948 -0.753816 1.718854 0.112226 -0.034034 51703.400000 0 0 1
-18.291328 18.384667 -4.550592 26.330145 -0.787943 1.744497 0.112773 -0.027179 -99545.400000 0 0 1
-19.502228 18.448967 -5.268792 27.358023 -0.757652 1.764594 0.081224 -0.026213 90054.600000 0 0 1
-19.647228 19.384167 -6.424092 28.337756 -0.778659 1.799482 0.084823 -0.013366 -87886.700000 0 0 1
-19.587528 20.758367 -6.085692 29.182472 -0.814410 1.780878 0.084702 -0.026558 -101832.000000 0 0 1
-19.891328 21.646167 -7.140992 30.252524 -0.827620 1.809091 0.083764 -0.015319 -396045.000000 0 0 1
-19.828428 23.135677 -6.825392 31.225183 -0.862224 1.791162 0.074479 -0.019179 671565.000000 0 0 1
-18.524328 23.748337 -6.738992 30.863380 -0.908354 1.790919 0.087950 -0.016446 952120.000000 0 0 1
-17.964328 23.571717 -5.413992 30.127300 -0.919587 1.751482 0.076441 -0.023589 -529685.000000 0 0 1
-16.586228 24.213287 -5.334892 29.830308 -0.970205 1.750605 0.068110 -0.021476 -1111100.000000 0 0 1
-16.226628 24.558087 -4.031392 29.709514 -0.986905 1.706910 0.055002 -0.029585 220033.000000 0 0 1
-14.961928 25.195907 -3.887992 29.560269 -1.034931 1.702706 0.070789 -0.029716 272503.000000 0 0 1
-14.621028 26.458157 -4.677692 30.589039 -1.065952 1.724319 0.069940 -0.023635 -1141640.000000 0 0 1
-15.416628 27.566917 -4.500092 31.903889 -1.060884 1.712320 0.085262 -0.027677 -521584.000000 0 0 1
-14.996428 28.640127 -5.283192 32.757622 -1.088435 1.732785 0.070954 -0.031846 -121218.000000 0 0 1
-15.489328 30.061947 -4.868392 34.166375 -1.095026 1.713774 0.071510 -0.024981 840852.000000 0 0 1
-16.879628 30.261157 -5.147492 35.030788 -1.061986 1.718272 0.090344 -0.030518 486818.000000 0 0 1
-17.465828 31.444077 -4.724592 36.278187 -1.063773 1.701400 0.101174 -0.025315 19226.600000 0 0 1
12.564162 -8.657805 18.516574 23.993317 -0.603364 0.689225 0.055527 -0.006379 -217663.000000 0 1 0
12.647362 -10.060905 18.738874 24.745161 -0.671988 0.711667 0.048722 -0.009402 -419267.000000 0 1 0
13.376362 -10.753305 17.807074 24.731610 -0.677117 0.766976 0.065770 -0.012672 -707823.000000 0 1 0
13.910962 -12.033605 18.315474 25.957255 -0.713164 0.787525 0.108843 -0.027407 -997642.000000 0 0 1
14.993362 -11.772405 19.183774 27.044549 -0.665635 0.782235 0.097096 -0.018673 136006.000000 0 0 1
15.417762 -12.967105 19.829574 28.267742 -0.699275 0.793308 0.109836 -0.020036 430761.000000 0 0 1
16.349362 -13.958505 19.021874 28.704933 -0.706675 0.846419 0.109972 -0.024803 -264267.000000 0 0 1
15.632162 -14.412505 17.903474 27.796028 -0.744826 0.870948 0.116290 -0.033865 235851.000000 0 0 1
16.091262 -15.630305 17.279374 28.316284 -0.770868 0.914449 0.129090 -0.033019 -297477.000000 0 0 1
15.170262 -15.997105 16.089874 27.293374 -0.811921 0.940337 0.126305 -0.037602 -330799.000000 0 0 1
13.829762 -16.183305 16.483074 26.923102 -0.863655 0.911921 0.157246 -0.042287 85260.100000 0 0 1
12.976262 -16.147705 15.334374 25.773529 -0.893865 0.933573 0.153112 -0.044814 -98904.700000 0 0 1
12.691962 -17.432405 14.511674 25.991601 -0.941481 0.978435 0.121663 -0.027867 -597390.000000 0 0 1
13.804562 -18.056505 13.917174 26.651286 -0.918067 1.021373 0.114260 -0.026637 -58442.300000 0 0 1
13.425462 -19.131505 13.145374 26.815264 -0.958899 1.058454 0.101043 -0.023117 -497113.000000 0 0 1
14.626562 -19.986205 12.756174 27.858655 -0.939024 1.095177 0.099800 -0.026471 -685698.000000 0 0 1
15.256762 -20.601905 13.840574 29.133636 -0.933370 1.075750 0.099112 -0.017664 -33101.600000 0 0 1
15.478562 -21.923605 13.434174 30.011787 -0.956040 1.106683 0.066258 -0.020836 -138474.000000 0 0 1
16.375662 -22.749105 14.403474 31.514190 -0.946880 1.096124 0.070321 -0.027553 -44348.200000 0 0 1
17.743462 -22.449705 14.411974 32.039424 -0.901958 1.104233 0.038641 -0.020766 -888917.000000 0 0 1
18.384462 -23.078605 15.418074 33.291552 -0.898131 1.089281 0.039451 -0.029591 475551.000000 0 0 1
19.832462 -22.477805 15.567974 33.777805 -0.847839 1.091794 0.021072 -0.018631 1017490.000000 0 0 1
20.806862 -22.895905 14.648974 34.230694 -0.833163 1.128575 0.023597 -0.014908 301049.000000 0 0 1
22.140162 -22.455105 14.867374 34.863410 -0.792460 1.130236 0.026094 -0.007890 1630740.000000 0 0 1
23.308262 -23.402005 14.338274 36.007152 -0.787405 1.161236 0.017919 -0.016594 911433.000000 0 0 1
23.451962 -24.507405 15.196674 37.169158 -0.807402 1.149601 0.026643 -0.018068 444054.000000 0 0 1
24.672062 -25.115345 14.788274 38.186179 -0.794301 1.173130 0.032895 -0.026064 239124.000000 0 0 1
25.167062 -26.310275 15.644174 39.627664 -0.807603 1.164969 0.043862 -0.023376 -280167.000000 0 0 1
25.626162 -26.001135 16.933674 40.243118 -0.792661 1.136487 0.051254 -0.016965 114312.000000 0 0 1
26.072362 -27.132115 17.626574 41.552567 -0.805314 1.132719 0.073344 -0.010582 38722.200000 0 0 1
26.551162 -26.849425 19.061974 42.299110 -0.790983 1.103306 0.073126 -0.007331 28638.100000 0 0 1
25.453862 -26.478935 19.866774 41.757895 -0.805134 1.074967 0.079371 0.001834 234452.000000 0 0 1
25.860562 -26.102765 21.208474 42.425492 -0.790059 1.047314 0.084344 0.005294 501845.000000 0 0 1
24.608662 -25.814685 22.102774 41.958513 -0.809312 1.015992 0.073352 -0.002678 366799.000000 0 0 1
23.935862 -27.005895 22.326274 42.434731 -0.845591 1.016750 0.081555 0.001170 -127577.000000 0 0 1
22.702162 -26.877665 22.998494 42.032461 -0.869418 0.991828 0.076431 0.001667 1029660.000000 0 0 1
21.765862 -28.178085 23.067834 42.425018 -0.913088 0.995919 0.071076 -0.000196 475311.000000 0 0 1
22.538662 -29.079435 23.793194 43.814620 -0.911441 0.996740 0.084103 -0.007914 420265.000000 0 0 1
22.580662 -30.372325 23.208584 44.395977 -0.931493 1.020707 0.093441 -0.012423 -13176.700000 0 0 1
23.772262 -31.159295 23.821124 45.863581 -0.919073 1.024658 0.079872 -0.006842 17331.600000 0 0 1
23.750862 -31.333515 25.215544 46.708846 -0.922194 1.000543 0.066405 -0.008717 758623.000000 0 0 1
25.023762 -31.689235 25.763534 47.897348 -0.902391 1.002863 0.062867 -0.002548 310042.000000 0 0 1
24.753862 -32.106785 27.230944 48.837728 -0.913999 0.979329 0.052437 -0.015907 255703.000000 0 0 1
24.362562 -33.465025 27.447364 49.666892 -0.941524 0.985281 0.048403 -0.012215 396890.000000 0 0 1
23.054062 -33.823885 27.031014 49.053243 -0.972532 0.987169 0.052197 -0.004201 60678.500000 0 0 1
22.495262 32.912083 27.684034 48.535016 0.971233 0.963812 0.098723 -0.023761 60760.300000 0 0 1
22.111562 33.083637 29.039454 49.261934 0.981627 0.940368 0.086641 -0.033366 656361.000000 0 0 1
21.197462 32.028667 29.431934 48.388084 0.986151 0.916945 0.083062 -0.039319 232818.000000 0 0 1
20.860662 31.923107 30.937054 49.105532 0.991988 0.889228 0.074386 -0.037428 -434360.000000 0 0 1
22.000762 31.726127 31.715514 49.964533 0.964474 0.883098 0.061430 -0.032698 -372736.000000 0 0 1
21.832262 32.339774 32.977408 51.088336 0.976985 0.869121 0.062636 -0.033564 56907.300000 0 0 1
23.150762 32.437108 33.782052 52.243189 0.950927 0.867637 0.040026 -0.028990 105992.000000 0 0 1
23.577062 31.187827 -33.670192 51.596902 0.923485 2.281757 0.044199 -0.023423 -1361160.000000 0 0 1
24.728962 31.290467 -32.972152 51.747248 0.901996 2.261626 0.035356 -0.026039 -1427040.000000 0 0 1
25.217662 29.935987 -32.401322 50.812789 0.870739 2.262254 0.039790 -0.010767 27626.400000 0 0 1
25.757262 29.018127 -33.382532 51.184780 0.844860 2.281275 0.041876 -0.006917 917902.000000 0 0 1
24.693262 28.295457 33.936073 50.616669 0.853274 0.835978 0.053330 -0.012993 596924.000000 0 0 1
25.145962 27.648877 32.587658 49.585636 0.832771 0.853699 0.073653 -0.015341 529720.000000 0 0 1
26.185262 26.655457 32.688683 49.646061 0.794296 0.852059 0.078747 -0.017435 654991.000000 0 0 1
26.154362 25.892687 31.460624 48.417484 0.780371 0.863504 0.091590 -0.025715 247874.000000 0 0 1
27.327162 24.833537 31.348494 48.437655 0.737628 0.866900 0.081175 -0.021895 502978.000000 0 0 1
27.352862 23.923187 32.441348 48.712822 0.718611 0.842001 0.084234 -0.022941 -13362.700000 0 0 1
28.019662 24.436437 33.546793 50.076225 0.717195 0.836703 0.084129 -0.030104 -1240620.000000 0 0 1
27.929262 23.508187 -33.160672 49.318442 0.699658 2.308214 0.065596 -0.029970 278628.000000 0 0 1
26.752862 23.611577 -32.350362 48.163971 0.723108 2.307259 0.076210 -0.028946 344455.000000 0 0 1
25.576562 23.101127 -32.913512 47.656289 0.734588 2.333175 0.064559 -0.020273 -558806.000000 0 0 1
25.334662 21.573567 -32.764092 46.698497 0.705389 2.348450 0.052603 -0.011911 -405748.000000 0 0 1
25.080762 21.150367 -31.416762 45.424615 0.700586 2.334532 0.025217 -0.020131 344669.000000 0 0 1
24.918562 19.722467 -31.392632 44.669988 0.669522 2.350077 0.023832 -0.014834 -301559.000000 0 0 1
24.751462 18.980667 -30.040172 43.304879 0.654198 2.337396 0.024113 -0.005648 703256.000000 0 0 1
23.509762 19.108467 -29.290902 42.140235 0.682490 2.339330 0.016955 -0.011456 911855.000000 0 0 1
23.582962 18.632967 -28.020022 41.090938 0.668677 2.321157 0.024217 -0.008242 -2820.990000 0 0 1
22.263062 18.826167 -27.215232 39.884049 0.701948 2.321781 0.036036 -0.014273 32653.400000 0 0 1
22.209862 18.220967 -25.925002 38.696090 0.687057 2.304957 0.045179 -0.008186 25921.500000 0 0 1
23.026262 18.834367 -24.932892 38.814833 0.685592 2.268363 0.051246 -0.007580 42308.100000 0 0 1
23.266262 17.916867 -23.733092 37.757022 0.656228 2.250515 0.079056 -0.011650 -92847.500000 0 0 1
24.105462 16.826967 -24.055692 37.985477 0.609420 2.256589 0.071346 -0.015033 148928.000000 0 0 1
24.089862 15.821767 -23.023392 36.888025 0.581128 2.244830 0.092413 -0.015858 -189308.000000 0 0 1
25.254662 14.819967 -23.216292 37.368779 0.530673 2.241165 0.115796 -0.018234 389289.000000 0 0 1
26.480862 15.357367 -22.706492 38.113903 0.525540 2.209000 0.135923 -0.029702 300847.000000 0 0 1
27.542362 14.440767 -22.546592 38.411799 0.482907 2.198108 0.129043 -0.035144 41514.500000 0 0 1
27.453062 13.332867 -21.439692 37.297404 0.452110 2.183194 0.124411 -0.024167 159618.000000 0 0 1
26.270162 12.519967 -21.527592 36.198180 0.444741 2.207707 0.114405 -0.019398 526552.000000 0 0 1
25.734962 11.986667 -20.324292 34.914829 0.435894 2.192118 0.089675 -0.024016 -581781.000000 0 0 1
24.285462 11.542967 -20.459692 33.787909 0.443696 2.221232 0.095640 -0.028085 -738538.000000 0 0 1
23.446462 12.645867 -20.444192 33.580047 0.494630 2.225368 0.116488 -0.028541 -1075610.000000 0 0 1
22.158962 12.339767 -20.878592 32.851257 0.508106 2.259516 0.097675 -0.023540 -719525.000000 0 0 1
21.150362 13.466867 -20.731492 32.534429 0.566983 2.261678 0.094587 -0.024391 -778640.000000 0 0 1
21.393962 14.662067 -21.445892 33.654184 0.600817 2.261712 0.090971 -0.019117 75009.500000 0 0 1
20.449462 15.696367 -21.303392 33.442353 0.654651 2.261420 0.079696 -0.016788 -21813.600000 0 0 1
19.158462 15.715967 -22.167492 33.248098 0.687006 2.300608 0.064388 -0.000955 272024.000000 0 0 1
18.186962 14.790967 -21.691192 31.938161 0.682782 2.317417 0.048311 -0.003518 129413.000000 0 0 1
17.024662 14.985067 -22.464892 31.922762 0.721766 2.351425 0.046899 -0.017769 -444403.000000 0 0 1
15.898062 14.002267 -22.274192 30.740063 0.722079 2.381247 0.022432 -0.001854 -408107.000000 0 0 1
14.685362 14.290567 -22.920192 30.744355 0.771774 2.412094 0.032855 -0.010148 -620617.000000 0 0 1
13.714562 13.341367 -22.562692 29.583042 0.771606 2.438259 0.052416 -0.003683 -469942.000000 0 0 1
12.454562 13.585867 -23.402292 29.788575 0.828815 2.474483 0.053944 -0.004524 -692303.000000 0 0 1
11.907862 14.842967 -23.105892 29.933144 0.894681 2.452647 0.056457 -0.007204 -162346.000000 0 0 1
11.439562 15.401767 -24.324392 30.979898 0.931956 2.473762 0.059766 -0.025938 -470484.000000 0 0 1
11.208362 16.912067 -24.321492 31.673023 0.985515 2.446342 0.065179 -0.028808 261871.000000 0 0 1
12.313362 17.811167 -24.288192 32.538790 0.965914 2.413490 0.046691 -0.020996 179369.000000 0 0 1
13.404562 17.724267 -25.202182 33.600326 0.923286 2.418946 0.053965 -0.023830 205938.000000 0 0 1
13.152762 17.709567 -26.682692 34.620658 0.931988 2.450760 0.084610 -0.041923 -562495.000000 0 0 1
14.386162 17.699067 -27.362022 35.621607 0.888287 2.446712 0.067887 -0.045594 -97523.200000 0 0 1
14.228262 17.311767 -28.764512 36.462829 0.882853 2.479768 0.089510 -0.049412 208283.000000 0 0 1
15.451962 17.543367 -29.723642 37.815708 0.848698 2.475130 0.068446 -0.044379 375985.000000 0 0 1
16.515062 16.646767 -29.531162 37.708774 0.789370 2.470492 0.040337 -0.039356 -21784.700000 0 0 1
17.391062 16.715567 -30.664062 39.014663 0.765595 2.475048 0.034769 -0.025973 321133.000000 0 0 1
18.696762 15.892667 -30.630872 39.247880 0.704507 2.466176 0.045834 -0.020178 -268905.000000 0 0 1
19.773862 16.510167 -29.997432 39.540323 0.695691 2.432041 0.047937 -0.021097 -51001.800000 0 0 1
20.979362 15.773067 -30.157282 39.979807 0.644676 2.425403 0.059024 -0.015507 502470.000000 0 0 1
22.085162 16.529567 -30.953862 41.462303 0.642506 2.413664 0.059662 -0.018625 -94589.300000 0 0 1
21.861362 16.684467 -32.318302 42.435401 0.651892 2.436557 0.060008 -0.020090 154948.000000 0 0 1
23.063762 17.135567 -32.908312 43.686632 0.638983 2.423833 0.051694 -0.015330 -42142.900000 0 0 1
22.941162 17.557067 33.593065 44.306225 0.653227 0.710245 0.031246 0.000407 -126800.000000 0 0 1
23.901462 18.517867 33.237356 44.932317 0.659159 0.738141 0.032345 0.004500 78352.700000 0 0 1
23.738062 18.843967 31.886024 43.992150 0.670967 0.760035 0.062079 0.000346 -121370.000000 0 0 1
24.548662 20.086467 31.496904 44.700760 0.685759 0.788913 0.076033 -0.001571 391685.000000 0 0 1
25.938362 19.848167 31.323924 45.254134 0.653162 0.806294 0.056450 -0.000695 89747.900000 0 0 1
26.624862 21.074467 31.198364 46.112410 0.669557 0.827699 0.064766 -0.013810 183766.000000 0 0 1
28.165562 21.039867 31.109664 46.944500 0.641583 0.846391 0.065810 -0.011927 238928.000000 0 0 1
28.781262 20.501167 32.266270 47.851553 0.618940 0.830781 0.055892 -0.015643 23716.300000 0 0 1
30.191962 20.614567 32.213614 48.726091 0.599077 0.848491 0.049922 -0.008050 78845.000000 0 0 1
30.931362 19.797067 33.268824 49.552878 0.569336 0.834727 0.027938 -0.003251 -180130.000000 0 0 1
31.022062 20.364067 -33.421202 49.940368 0.580888 2.303958 0.027810 -0.011120 84566.100000 0 0 1
29.839862 20.069867 -32.698802 48.604821 0.592089 2.308713 0.030530 -0.020294 -156101.000000 0 0 1
29.920762 20.281367 -31.128052 47.702636 0.595695 2.281733 0.054531 -0.026158 -36276.200000 0 0 1
30.845362 19.329167 -30.630242 47.573783 0.559783 2.270312 0.061778 -0.032419 -66624.300000 0 0 1
31.230862 19.654467 -29.360502 47.156165 0.561706 2.242886 0.051248 -0.038325 -1003880.000000 0 0 1
32.612662 19.147667 -29.048622 47.686910 0.530898 2.225788 0.083534 -0.024418 -1131890.000000 0 0 1
33.636862 19.822967 -29.729422 49.073690 0.532532 2.221582 0.044730 -0.025400 424469.000000 0 0 1
34.879362 19.424067 -29.103242 49.405091 0.508120 2.200708 0.079160 -0.022904 1108300.000000 0 0 1
36.122562 20.336667 -29.372262 50.805013 0.512762 2.187240 0.072001 -0.029179 434177.000000 0 0 1
36.725362 20.113767 -30.607802 51.866689 0.501061 2.202009 0.052781 -0.025945 201494.000000 0 0 1
-36.119748 20.874767 -30.741662 51.821249 -0.524035 2.205855 0.049246 -0.039639 713437.000000 0 0 1
-35.197048 20.676267 -32.008322 51.873624 -0.531135 2.235777 0.057928 -0.040948 482954.000000 0 0 1
-34.333348 19.557867 -31.798522 50.719177 -0.517802 2.248432 0.096978 -0.033270 391821.000000 0 0 1
-33.606948 19.179067 -32.978522 50.841386 -0.518587 2.276612 0.105144 -0.024565 71697.300000 0 0 1
-32.672248 18.009667 -32.601792 49.544937 -0.503781 2.288989 0.085958 -0.013766 -73169.600000 0 0 1
-33.400248 16.837667 -32.266312 49.398365 -0.466937 2.282581 0.089409 -0.015753 176764.000000 0 0 1
-32.768748 15.655167 -32.750062 48.902369 -0.445687 2.304605 0.072801 -0.008035 -148014.000000 0 0 1
-33.703648 14.461567 -32.900912 49.270101 -0.405322 2.302000 0.074867 -0.001301 -277437.000000 0 0 1
-33.021548 13.224267 -33.180832 48.644337 -0.380915 2.321442 0.080655 -0.004638 639693.000000 0 0 1
-33.897748 12.051967 -33.236832 48.979529 -0.341601 2.316632 0.082191 -0.009993 314334.000000 0 0 1
-33.238048 10.652367 -33.227652 48.190431 -0.310145 2.331605 0.072949 -0.002024 -69359.100000 0 0 1
-32.699948 10.117267 33.551403 47.930599 -0.300055 0.795399 0.056136 -0.000233 257238.000000 0 0 1
-33.142848 8.756067 33.439187 47.888374 -0.258290 0.797813 0.081152 -0.011317 -299057.000000 0 0 1
-32.417848 7.944867 32.395140 46.513255 -0.240340 0.800328 0.092717 -0.017168 -411734.000000 0 0 1
-31.078548 7.721867 32.736075 45.794694 -0.243531 0.774395 0.074755 -0.000723 -696555.000000 0 0 1
-30.345948 7.115467 31.756764 44.497174 -0.230318 0.776058 0.085800 -0.015798 -324607.000000 0 0 1
20.747962 -4.113605 -31.247682 37.733504 -0.195727 2.546533 0.106084 -0.043706 -500224.000000 0 0 1
21.919662 -4.255405 -31.999472 39.019819 -0.191751 2.532352 0.108080 -0.047123 -586812.000000 0 0 1
22.944562 -3.406405 -31.589182 39.190981 -0.147386 2.508213 0.096248 -0.042376 -166553.000000 0 0 1
22.946362 -1.998305 -32.299062 39.670621 -0.086867 2.522113 0.098367 -0.033171 -170414.000000 0 0 1
23.978862 -1.183505 -31.739492 39.796757 -0.049316 2.494002 0.084101 -0.023929 456766.000000 0 0 1
23.849862 0.160895 -32.050632 39.951031 0.006746 2.501848 0.080372 -0.028607 -530894.000000 0 0 1
24.932962 0.923595 -31.328842 40.049994 0.037026 2.469055 0.078995 -0.018809 264559.000000 0 0 1
26.259062 0.764295 -31.842612 41.280437 0.029098 2.451792 0.086608 -0.024894 339199.000000 0 0 1
27.219162 1.501595 -31.127792 41.377253 0.055111 2.422331 0.086533 -0.022984 313443.000000 0 0 1
28.677062 1.253995 -31.610542 42.698627 0.043700 2.404339 0.071639 -0.025580 221257.000000 0 0 1
28.971362 1.921195 -32.819652 43.819635 0.066217 2.417305 0.071427 -0.021227 -23767.400000 0 0 1
29.880462 1.187495 -33.620122 44.995164 0.039721 2.414626 0.060175 -0.015830 -419147.000000 0 0 1
30.656562 2.076495 33.402200 45.385500 0.067631 0.743703 0.073320 -0.022018 -198479.000000 0 0 1
29.916962 2.825495 32.392525 44.184655 0.094165 0.747902 0.089463 -0.014464 498202.000000 0 0 1
29.526662 4.117495 32.908186 44.404124 0.138557 0.736079 0.075360 -0.011111 66229.200000 0 0 1
28.689762 4.952395 31.903014 43.190636 0.170934 0.739722 0.076016 -0.004325 -117450.000000 0 0 1
28.632362 6.300795 32.246870 43.581795 0.216606 0.737851 0.081937 -0.011451 359340.000000 0 0 1
28.059962 7.106195 31.203234 42.561735 0.248035 0.747885 0.078770 -0.010413 -57078.600000 0 0 1
28.232062 8.675495 31.356834 43.076265 0.298133 0.755487 0.071593 -0.010448 -174078.000000 0 0 1
29.567062 9.049995 31.153334 43.893551 0.297029 0.781657 0.083923 -0.017538 -237921.000000 0 0 1
29.786462 10.454595 31.141474 44.343244 0.337552 0.792198 0.078769 -0.018895 269942.000000 0 0 1
31.181562 10.925795 30.621194 45.047979 0.337025 0.823380 0.079521 -0.014395 911155.000000 0 0 1
32.239162 10.548895 31.532424 46.313460 0.316227 0.821877 0.084862 -0.022953 688220.000000 0 0 1
33.571062 10.735695 31.108234 47.010569 0.309513 0.847674 0.081598 -0.023689 263949.000000 0 0 1
34.181762 12.158295 31.224164 47.866120 0.341740 0.860151 0.078490 -0.015953 -486674.000000 0 0 1
34.442262 12.627295 32.542854 49.038305 0.351406 0.845147 0.071548 -0.014291 312425.000000 0 0 1
35.032262 13.921795 32.561606 49.812990 0.378262 0.858363 0.069200 0.000714 -334281.000000 0 0 1
34.077162 15.048595 32.257126 49.277129 0.415850 0.857134 0.055836 -0.001232 -635563.000000 0 0 1
33.631062 15.157095 30.888274 48.113110 0.423425 0.873702 0.059673 -0.009743 388800.000000 0 0 1
32.615262 16.091295 30.600324 47.529622 0.458327 0.871322 0.055821 -0.008323 28110.700000 0 0 1
31.152162 15.679195 30.815044 46.538815 0.466292 0.847130 0.056769 0.001303 -435670.000000 0 0 1
30.583362 14.950195 29.767934 45.221458 0.454675 0.852278 0.056019 -0.000883 -297553.000000 0 0 1
29.199962 14.829395 29.951134 44.380392 0.469913 0.830004 0.042632 -0.004260 -213818.000000 0 0 1
28.515262 14.135095 28.723504 42.871445 0.460204 0.836599 0.043167 0.005495 19607.300000 0 0 1
28.655262 12.745095 28.753744 42.548083 0.418499 0.828755 0.065896 -0.000459 44815.300000 0 0 1
27.633962 12.220895 27.958074 41.166006 0.416384 0.824186 0.047080 -0.010713 -39194.600000 0 0 1
27.556262 10.704695 27.914504 40.659041 0.370525 0.814062 0.051027 -0.003605 729575.000000 0 0 1
28.689862 10.163795 27.195734 40.816895 0.340469 0.841579 0.076912 -0.007518 1029310.000000 0 0 1
28.392262 8.785795 27.040874 40.181086 0.300098 0.832572 0.075707 -0.001984 228449.000000 0 0 1
29.563762 7.901995 26.529504 40.500274 0.261181 0.856554 0.085641 -0.010237 -2794.540000 0 0 1
29.892562 8.148095 25.181654 39.925837 0.266114 0.888328 0.087027 -0.007521 228411.000000 0 0 1
30.859862 7.191695 24.798304 40.236892 0.228957 0.906751 0.098452 -0.002459 -18617.200000 0 0 1
31.511962 7.470295 23.432504 39.973633 0.232765 0.944437 0.114283 -0.009585 198664.000000 0 0 1
32.383662 8.628595 23.231634 40.778218 0.260399 0.964647 0.110357 -0.018280 552692.000000 0 0 1
31.911762 9.933995 23.027404 40.587020 0.301787 0.967501 0.117401 -0.028333 -516376.000000 0 0 1
31.306462 10.205595 21.658174 39.412248 0.315127 0.988996 0.109252 -0.008812 311192.000000 0 0 1
32.279862 10.350795 20.628874 39.682224 0.310300 1.024119 0.112528 -0.023084 420631.000000 0 0 1
31.666062 10.004695 19.382874 38.451648 0.306019 1.042475 0.113764 -0.033098 -1044410.000000 0 0 1
32.392162 10.503895 18.109874 38.568790 0.313574 1.082018 0.122555 -0.058485 1372630.000000 0 0 1
33.664162 9.885595 17.742074 39.316434 0.285624 1.102616 0.128990 -0.048337 778921.000000 0 0 1
34.656162 10.092295 18.702674 40.653340 0.283375 1.092742 0.107295 -0.031044 -1945240.000000 0 0 1
35.971862 9.479195 18.240574 41.431251 0.257659 1.114907 0.110721 -0.033159 -569749.000000 0 0 1
35.909562 8.069395 18.380274 41.139352 0.221043 1.107632 0.095480 -0.026382 -93559.400000 0 0 1
-36.927248 7.478195 18.009974 41.760079 -0.199809 1.124894 0.103289 -0.024974 -502365.000000 0 0 1
36.839862 6.058095 17.500674 41.232870 0.162985 1.132458 0.108449 -0.023311 -695128.000000 0 0 1
36.137462 5.997295 16.288574 40.089916 0.164459 1.152394 0.104602 -0.020032 -24568.800000 0 0 1
36.130362 4.739495 15.710574 39.682339 0.130433 1.163739 0.127060 -0.018934 -652619.000000 0 0 1
34.806362 4.038195 15.958874 38.502929 0.115502 1.143420 0.112392 -0.019414 -954284.000000 0 0 1
34.785562 3.241895 17.113274 38.902563 0.092928 1.115308 0.115377 -0.009975 658058.000000 0 0 1
33.533562 2.580995 17.346474 37.842589 0.076816 1.094619 0.098504 -0.014108 538601.000000 0 0 1
33.510562 1.730395 18.620974 38.375679 0.051591 1.064172 0.100494 -0.022399 231974.000000 0 0 1
34.237262 0.508495 18.463674 38.901876 0.014851 1.076262 0.113343 -0.022239 123270.000000 0 0 1
34.148762 -0.255805 19.622474 39.385846 -0.007491 1.049262 0.118330 -0.029164 176469.000000 0 0 1
34.756062 -1.691905 19.579174 39.927315 -0.048641 1.058282 0.119423 -0.021165 -40111.500000 0 0 1
34.485862 -2.448005 20.749374 40.321259 -0.070867 1.030254 0.135131 -0.014884 49391.900000 0 0 1
35.099662 -3.710005 20.741174 40.938328 -0.105308 1.039508 0.096601 -0.017011 -82458.400000 0 0 1
34.692762 -4.594805 21.998174 41.335453 -0.131676 1.009615 0.106351 -0.017842 -27159.500000 0 0 1
35.029962 -4.073705 23.278654 42.256231 -0.115772 0.987363 0.097465 -0.018099 91617.200000 0 0 1
34.421562 -4.719905 24.347704 42.425607 -0.136271 0.959546 0.098867 -0.020521 -177138.000000 0 0 1
34.747062 -4.148405 25.791074 43.471222 -0.118826 0.935656 0.080373 -0.015705 -224123.000000 0 0 1
33.876562 -4.551305 26.804924 43.437769 -0.133550 0.905760 0.088648 -0.016844 -148454.000000 0 0 1
34.165562 -3.918205 28.059834 44.384595 -0.114184 0.886410 0.088456 -0.015296 406192.000000 0 0 1
33.127762 -4.329005 29.175754 44.355536 -0.129940 0.852942 0.083161 -0.020514 329128.000000 0 0 1
33.103262 -5.697005 29.538944 44.730650 -0.170429 0.849480 0.076611 -0.026222 114729.000000 0 0 1
32.211662 -5.989805 30.601334 44.832027 -0.183852 0.819513 0.090590 -0.034493 -41697.400000 0 0 1
32.478462 -7.452005 30.960294 45.485412 -0.225541 0.822127 0.083997 -0.028552 502293.000000 0 0 1
33.672262 -7.579405 31.732584 46.885238 -0.221403 0.827370 0.075345 -0.025508 453666.000000 0 0 1
34.401162 -8.761505 31.394774 47.390250 -0.249384 0.846681 0.067997 -0.022589 539887.000000 0 0 1
35.778962 -8.933305 32.084934 48.881296 -0.244678 0.854780 0.070857 -0.019833 379964.000000 0 0 1
35.680762 -9.570705 33.372434 49.783878 -0.262063 0.836121 0.047169 -0.028032 -73843.400000 0 0 1
36.960762 -9.615605 33.947161 51.097628 -0.254515 0.844161 0.029080 -0.023268 -455688.000000 0 0 1
36.964062 -10.011205 -32.503952 50.230200 -0.264491 2.274571 0.039504 -0.024169 -444653.000000 0 0 1
36.322162 -9.081205 -31.628002 49.011206 -0.244996 2.272241 0.030083 -0.020848 475628.000000 0 0 1
36.959062 -7.802805 -31.420612 49.133603 -0.208065 2.264635 0.026901 -0.016169 -378925.000000 0 0 1
36.197062 -6.819005 -30.581002 47.874041 -0.186203 2.263708 0.030463 -0.013569 -456516.000000 0 0 1
36.394562 -7.013605 -29.197392 47.183075 -0.190376 2.238024 0.017321 -0.011044 27967.900000 0 0 1
35.860662 -5.869505 -28.599712 46.242640 -0.162237 2.237591 0.030898 -0.019062 -403426.000000 0 0 1
36.272862 -5.467905 -27.197002 45.665035 -0.149617 2.208779 0.033962 -0.021347 152850.000000 0 0 1
-36.396748 -5.073405 -27.186792 45.711972 0.138499 2.207740 0.026999 -0.018814 229397.000000 0 0 1
-36.140748 -4.581805 -25.895952 44.696163 0.126104 2.188761 0.028681 -0.016595 708334.000000 0 0 1
-34.613448 -4.611805 -25.555982 43.272020 0.132457 2.202585 0.068210 -0.018132 -537869.000000 0 0 1
-34.309648 -4.074805 -24.264692 42.220034 0.118212 2.183058 0.081823 -0.020194 99171.700000 0 0 1
-32.928848 -4.120705 -23.976192 40.940775 0.124492 2.196455 0.110696 -0.016855 203975.000000 0 0 1
-32.029848 -3.135405 -24.775192 40.614678 0.097579 2.226864 0.130294 -0.018125 -823072.000000 0 0 1
-31.927848 -3.436305 -26.133592 41.402419 0.107214 2.253908 0.122948 -0.014105 -366306.000000 0 0 1
-31.157048 -2.493105 -26.814382 41.182379 0.079847 2.279846 0.126457 -0.014686 161844.000000 0 0 1
-30.494548 -2.998605 -28.145522 41.606244 0.098017 2.313760 0.106279 -0.019001 140159.000000 0 0 1
-31.515848 -3.219005 -29.093222 43.011931 0.101786 2.313659 0.097001 -0.020195 -348160.000000 0 0 1
-31.027048 -3.873605 -30.220342 43.485073 0.124203 2.339159 0.068085 -0.013133 -913460.000000 0 0 1
-32.094648 -4.379105 -31.225492 44.991937 0.135606 2.337860 0.050090 -0.011926 23002.700000 0 0 1
-33.052748 -5.328605 -30.673132 45.406158 0.159840 2.312477 0.048433 -0.011266 1266550.000000 0 0 1
-33.955648 -4.839605 -29.650832 45.338501 0.141574 2.283640 0.056635 -0.019140 -611683.000000 0 0 1
-35.084348 -3.904705 -30.128072 46.409686 0.110839 2.277297 0.068424 -0.022547 -1118800.000000 0 0 1
-34.711548 -2.614305 -30.624262 46.363473 0.075173 2.292315 0.082579 -0.014921 -148457.000000 0 0 1
-34.375648 -1.604605 -29.649902 45.424406 0.046645 2.281980 0.098352 -0.016780 -383252.000000 0 0 1
-34.006848 -0.246305 -30.250692 45.515171 0.007243 2.297793 0.092484 -0.022054 356724.000000 0 0 1
-35.081548 0.427595 -30.915662 46.761908 -0.012188 2.293119 0.105240 -0.013540 280234.000000 0 0 1
-34.692648 1.737995 -31.359992 46.797965 -0.050055 2.305159 0.115757 -0.010450 335534.000000 0 0 1
-35.887748 2.615095 -31.839232 48.046913 -0.072740 2.295174 0.084243 -0.007235 94455.600000 0 0 1
-36.447948 2.082195 -32.997302 49.209861 -0.057066 2.305736 0.074169 -0.005978 -374227.000000 0 0 1
36.486862 2.817495 -33.426202 49.563499 0.077067 2.310964 0.055279 -0.009598 -233785.000000 0 0 1
35.538162 2.157295 33.501252 48.887103 0.060629 0.815811 0.038410 -0.007007 98378.700000 0 0 1
35.882862 2.253395 32.090725 48.192035 0.062716 0.842107 0.052800 -0.006407 622301.000000 0 0 1
-37.007948 1.509695 31.686494 48.743218 -0.040771 0.863120 0.041418 -0.006686 238256.000000 0 0 1
-36.737948 1.655495 30.141554 47.549246 -0.045032 0.884209 0.070882 -0.010693 -59920.300000 0 0 1
-36.150248 2.877795 29.787994 46.930233 -0.079439 0.883138 0.086133 -0.014290 54428.000000 0 0 1
-35.950548 2.950395 28.402204 45.911131 -0.081885 0.903793 0.105377 -0.019540 127823.000000 0 0 1
-35.599648 4.377395 27.915084 45.450506 -0.122348 0.909442 0.106817 -0.025079 263571.000000 0 0 1
-35.011148 4.512895 26.594274 44.197309 -0.128192 0.925147 0.107683 -0.022847 499457.000000 0 0 1
-34.357848 5.773495 26.442004 43.737565 -0.166485 0.921582 0.100878 -0.020119 190791.000000 0 0 1
-33.516548 5.769995 25.112734 42.276486 -0.170483 0.934760 0.107077 -0.021240 183640.000000 0 0 1
-32.338348 4.988695 25.119024 41.250712 -0.153059 0.916078 0.098843 -0.016518 441545.000000 0 0 1
-31.457448 5.204095 24.026894 39.924245 -0.163948 0.925028 0.099119 -0.020978 238075.000000 0 0 1
-31.848148 4.466695 22.719874 39.375736 -0.139341 0.955743 0.122458 -0.025116 -32735.000000 0 0 1
-31.709448 3.047895 22.840274 39.197664 -0.095825 0.948756 0.128590 -0.026080 -55886.700000 0 0 1
-32.413148 2.582095 21.726874 39.106732 -0.079494 0.981737 0.144408 -0.024806 -474362.000000 0 0 1
-32.080448 1.132795 21.411274 38.586021 -0.035296 0.982557 0.134400 -0.032392 878120.000000 0 0 1
-30.768748 0.915095 20.818674 37.161411 -0.029732 0.976141 0.124899 -0.025810 1194800.000000 0 0 1
-30.657348 1.291995 19.436174 36.322268 -0.042118 1.006166 0.138548 -0.030750 18452.900000 0 0 1
-29.261148 1.051195 18.782974 34.786778 -0.035909 1.000424 0.134007 -0.027669 217564.000000 0 0 1
-28.984248 -0.353405 18.564174 34.421506 0.012192 1.001168 0.134492 -0.026350 290611.000000 0 0 1
-27.775048 -0.677305 17.891674 33.045787 0.024381 0.998670 0.128851 -0.028321 -263207.000000 0 0 1
-27.740248 -0.449205 16.353174 32.204805 0.016192 1.038183 0.157178 -0.020835 -466581.000000 0 0 1
-27.496948 0.874995 15.990374 31.820431 -0.031811 1.044286 0.151277 -0.024925 228463.000000 0 0 1
-27.814948 1.050695 14.641874 31.450911 -0.037757 1.086544 0.160430 -0.019092 -108457.000000 0 0 1
-27.344348 2.386295 14.013474 30.818586 -0.087048 1.098751 0.152095 -0.019225 116409.000000 0 0 1
-25.965548 2.334195 13.695974 29.448903 -0.089655 1.087076 0.141320 -0.028023 116369.000000 0 0 1
-25.580548 3.578495 13.183674 28.999644 -0.138989 1.098856 0.141447 -0.027726 -278949.000000 0 0 1
-24.062748 3.654795 12.928674 27.559463 -0.150734 1.082503 0.123047 -0.033435 -470977.000000 0 0 1
-23.427548 3.934995 14.142574 27.646819 -0.166411 1.033815 0.087646 -0.023629 90164.900000 0 0 1
-22.032448 4.053695 13.915174 26.372207 -0.181953 1.014970 0.077688 -0.017568 -122441.000000 0 0 1
-21.282748 4.553095 15.124274 26.503391 -0.210757 0.963494 0.052963 -0.019902 -458601.000000 0 0 1
-21.626848 5.860095 15.569474 27.284974 -0.264610 0.963530 0.049373 -0.011383 631458.000000 0 0 1
-20.683048 6.349495 16.533374 27.229709 -0.297858 0.918288 0.032811 -0.005835 164844.000000 0 0 1
-20.793848 7.840595 16.976274 27.965210 -0.360578 0.918454 0.029562 -0.012321 -302755.000000 0 0 1
-20.229948 8.705695 15.966274 27.202240 -0.406382 0.943513 0.029387 -0.013596 642209.000000 0 0 1
-20.509548 10.112695 16.125674 27.981164 -0.458090 0.956597 0.033293 -0.012968 -248018.000000 0 0 1
-19.870448 10.866695 17.332574 28.519080 -0.500443 0.917568 0.035180 -0.012694 -284892.000000 0 0 1
-20.350348 10.547895 18.619274 29.530868 -0.478192 0.888596 0.041140 -0.015117 593809.000000 0 0 1
-19.692848 11.347295 19.638374 30.037229 -0.522746 0.858199 0.047421 -0.008274 13244.700000 0 0 1
-12.352938 -33.992476 -19.909892 41.285437 1.222232 2.074017 0.152697 -0.046498 154394.000000 0 0 1
-13.448938 33.890595 -19.053092 41.139600 -1.193022 2.052323 0.189735 -0.045230 -592128.000000 0 0 1
-14.401838 -33.194876 -19.079692 40.906569 1.161447 2.056037 0.165119 -0.068330 -127993.000000 0 0 1
-15.731338 -33.598776 -18.373992 41.399956 1.132901 2.030650 0.153360 -0.051674 -365455.000000 0 0 1
-16.346138 33.416595 -19.054292 41.796305 -1.115856 2.044162 0.142137 -0.063753 -243380.000000 0 0 1
-17.284038 32.627995 -18.379792 41.244888 -1.083648 2.032670 0.137291 -0.058400 -519167.000000 0 0 1
-18.653038 33.206995 -18.112192 42.174541 -1.058999 2.014689 0.123791 -0.048233 -1315390.000000 0 0 1
-18.682838 33.989195 -16.938992 42.323082 -1.068207 1.982565 0.135791 -0.049644 763791.000000 0 0 1
-19.992838 -33.664876 -16.520592 42.496675 1.034890 1.970071 0.092724 -0.040908 790855.000000 0 0 1
-20.455438 33.783495 -15.142092 42.296956 -1.026353 1.936916 0.090893 -0.042487 -521310.000000 0 0 1
-20.417038 32.363095 -15.163492 41.160137 -1.007984 1.948086 0.102697 -0.047499 -18703.800000 0 0 1
-21.038538 31.851195 -14.037892 40.671626 -0.987057 1.923197 0.090417 -0.042390 -447104.000000 0 0 1
-20.924138 30.263495 -13.891092 39.327613 -0.965866 1.931801 0.087681 -0.039148 -498115.000000 0 0 1
-19.697238 29.721595 -13.551392 38.144392 -0.985528 1.933995 0.103362 -0.043299 -636916.000000 0 0 1
-19.846938 28.311195 -13.553792 37.136640 -0.959381 1.944398 0.100654 -0.040732 228092.000000 0 0 1
-18.600838 27.504195 -13.090292 35.690723 -0.976160 1.946331 0.102032 -0.037900 116158.000000 0 0 1
-17.452238 27.784095 -13.856092 35.616399 -1.009944 1.970382 0.133353 -0.044996 -79111.600000 0 0 1
-16.356738 26.986995 -13.385192 34.278334 -1.025906 1.971955 0.144208 -0.047254 602904.000000 0 0 1
-15.008238 27.464395 -13.971992 34.274725 -1.070674 1.990672 0.127127 -0.048116 57324.600000 0 0 1
-15.001038 27.295695 -15.371292 34.732733 -1.068279 2.029247 0.102224 -0.039572 210076.000000 0 0 1
-13.763438 27.754695 -15.898592 34.821266 -1.110437 2.044940 0.127666 -0.045385 294478.000000 0 0 1
-13.797938 27.813295 -17.421692 35.601655 -1.110280 2.082141 0.141174 -0.058782 52909.200000 0 0 1
-13.677638 26.577195 -18.057692 34.921417 -1.095507 2.114250 0.115708 -0.053538 173677.000000 0 0 1
-14.102938 26.745095 -19.410392 35.929880 -1.085541 2.141506 0.100933 -0.050878 -10046.500000 0 0 1
-13.409638 25.772895 -20.373092 35.484129 -1.091041 2.182358 0.076333 -0.032199 -894033.000000 0 0 1
-12.202138 26.223295 -20.894792 35.681168 -1.135278 2.196413 0.058657 -0.028921 -943610.000000 0 0 1
-11.504038 25.112895 -21.383492 34.932136 -1.141233 2.229565 0.055700 -0.022759 278155.000000 0 0 1
-10.222638 25.582395 -22.139892 35.343120 -1.190638 2.247758 0.069949 -0.028160 75874.800000 0 0 1
-10.472038 26.292095 -23.336492 36.681463 -1.191760 2.260350 0.065882 -0.024753 -551161.000000 0 0 1
-9.318538 26.511895 -24.094892 37.017288 -1.232799 2.279578 0.070618 -0.028662 -433348.000000 0 0 1
-9.598738 27.294695 -25.368422 38.479774 -1.232634 2.290639 0.067828 -0.025275 568081.000000 0 0 1
-10.576838 26.529195 -26.129422 38.709358 -1.191423 2.311782 0.062960 -0.018403 450769.000000 0 0 1
-10.825638 27.133395 -27.395932 40.049378 -1.191171 2.324102 0.082977 -0.010533 54940.500000 0 0 1
-12.169038 26.613095 -27.961652 40.474638 -1.141923 2.333452 0.058997 -0.004044 -56441.100000 0 0 1
-12.545938 27.318495 -29.057862 41.809809 -1.140279 2.339218 0.070365 -0.002231 -560290.000000 0 0 1
-13.719238 26.772395 -29.593982 42.199318 -1.097247 2.348003 0.054629 0.005895 -170225.000000 0 0 1
-13.936538 27.100095 -31.108972 43.547795 -1.095805 2.366511 0.052632 -0.004339 121913.000000 0 0 1
-13.015238 26.455895 -31.986322 43.502134 -1.113602 2.396879 0.054678 -0.010791 163838.000000 0 0 1
-13.146238 25.056695 -32.154482 42.831907 -1.087616 2.419937 0.041987 -0.007715 248508.000000 0 0 1
-12.291638 24.363295 -33.294722 43.048729 -1.103544 2.455014 0.035171 -0.008032 360527.000000 0 0 1
-12.809538 24.598295 33.397923 43.411769 -1.090688 0.693006 0.036978 -0.006545 2138.130000 0 0 1
-12.136038 23.791695 32.464547 42.038970 -1.099105 0.688423 0.037514 -0.012183 -1225980.000000 0 0 1
-12.786138 23.702195 31.052414 41.103915 -1.076089 0.714439 0.041797 -0.002660 -498589.000000 0 0 1
-13.935538 22.899895 30.981654 40.969102 -1.024120 0.713280 0.054112 -0.010562 -94461.000000 0 0 1
-14.327238 22.798795 29.591464 40.008869 -1.009741 0.738287 0.071433 -0.011183 142624.000000 0 0 1
-15.603738 21.938895 29.445104 39.897443 -0.952569 0.740665 0.064107 -0.021426 229045.000000 0 0 1
-15.312838 20.598995 29.725074 39.273167 -0.931547 0.712270 0.041960 -0.017961 699045.000000 0 0 1
-16.533438 19.842495 29.758864 39.403924 -0.876117 0.714798 0.046067 -0.022502 690375.000000 0 0 1
-16.283938 18.359795 29.822944 38.621972 -0.845247 0.688538 0.036096 -0.025195 -36564.300000 0 0 1
-16.012238 17.730295 28.610194 37.273293 -0.836271 0.695741 0.047230 -0.021026 200750.000000 0 0 1
-15.331538 16.480695 28.692104 36.467879 -0.821506 0.665226 0.025583 -0.022165 178965.000000 0 0 1
-14.901438 15.907295 27.326314 34.954576 -0.818035 0.673303 0.033571 -0.019541 610117.000000 0 0 1
-13.916638 16.702795 26.631304 34.378519 -0.876141 0.684636 0.020325 -0.018729 420937.000000 0 0 1
-13.317538 16.064195 25.519754 32.964724 -0.878609 0.685420 0.011181 -0.014344 1046290.000000 0 0 1
-12.085038 16.890495 24.920144 32.439953 -0.949748 0.694782 0.022193 -0.009575 890246.000000 0 0 1
-12.414538 18.047695 24.174844 32.623046 -0.968255 0.736185 0.022946 -0.009907 -55323.900000 0 0 1
-12.904938 19.180095 24.890474 33.969828 -0.978539 0.748482 0.021179 -0.012186 -102673.000000 0 0 1
-11.813938 19.953095 25.648814 34.576825 -1.036217 0.735058 0.015585 -0.012086 6235.400000 0 0 1
-11.478238 19.406895 26.928474 35.121507 -1.036686 0.697075 0.025748 -0.013948 468665.000000 0 0 1
-12.495238 19.662095 27.905774 36.351908 -1.004683 0.695620 0.039093 -0.018733 235373.000000 0 0 1
-12.177238 19.002995 29.268874 36.960330 -1.000911 0.656883 0.033706 -0.011287 164050.000000 0 0 1
-11.005938 19.620795 29.785134 37.326405 -1.059599 0.646886 0.031689 -0.012636 194534.000000 0 0 1
-11.177338 20.091195 31.090344 38.667797 -1.063106 0.636742 0.036025 -0.020426 -728585.000000 0 0 1
-9.991238 20.883995 31.589994 39.164957 -1.124565 0.632439 0.017095 -0.016342 -816226.000000 0 0 1
-8.853438 20.143095 31.891544 38.745300 -1.156686 0.603935 0.029372 -0.023972 -201298.000000 0 0 1
-7.791338 21.003095 32.301584 39.309379 -1.215571 0.606361 0.035077 -0.024880 190303.000000 0 0 1
-6.527738 20.281395 32.781495 39.096967 -1.259409 0.576333 0.042945 -0.021912 -436727.000000 0 0 1
-6.759638 19.499995 33.939203 39.721682 -1.237111 0.546353 0.042669 -0.025764 1722130.000000 0 0 1
-5.560538 18.944595 -33.345862 38.752597 -1.285299 2.607009 0.038189 -0.023387 1959210.000000 0 0 1
-4.623538 17.914995 33.946159 38.660909 -1.318226 0.499027 0.032338 -0.019138 122314.000000 0 0 1
-5.097938 16.564995 -33.905392 38.078388 -1.272241 2.669042 0.037842 -0.014197 224278.000000 0 0 1
-4.968338 15.854495 32.817380 36.783554 -1.267118 0.468658 0.030537 -0.009656 -337880.000000 0 0 1
-5.771538 14.564595 32.746403 36.301033 -1.193508 0.446233 0.043171 -0.010566 -399703.000000 0 0 1
-5.149738 13.476595 33.373058 36.357935 -1.205794 0.408033 0.052893 -0.010541 -588038.000000 0 0 1
-5.847838 12.338595 33.098739 35.804535 -1.128208 0.391262 0.059560 -0.014542 -301572.000000 0 0 1
-5.170638 11.039495 33.599552 35.742634 -1.132766 0.348045 0.081081 -0.030344 256840.000000 0 0 1
-5.113838 10.836895 -32.989182 35.098088 -1.129887 2.793174 0.075097 -0.035669 -173427.000000 0 0 1
-4.417838 9.631695 -32.676932 34.352129 -1.140750 2.828010 0.096379 -0.040596 280290.000000 0 0 1
-4.417938 9.280395 -31.203012 32.852274 -1.126491 2.823385 0.089148 -0.037003 -163480.000000 0 0 1
-5.480938 8.466795 -30.823312 32.431526 -0.996290 2.825354 0.089460 -0.032591 -467547.000000 0 0 1
-5.692638 8.631495 -29.468072 31.229411 -0.987758 2.804137 0.116529 -0.035239 296547.000000 0 0 1
-6.780838 7.676895 -28.897602 30.659190 -0.847297 2.800958 0.090268 -0.037971 -154873.000000 0 0 1
-6.252538 6.494095 -28.419222 29.814756 -0.804347 2.834423 0.089826 -0.027707 677867.000000 0 0 1
-7.266838 5.616395 -27.805652 29.283188 -0.657984 2.822573 0.096296 -0.049315 427920.000000 0 0 1
-6.950838 5.192095 -26.357042 27.748255 -0.641562 2.823594 0.092917 -0.050671 -307005.000000 0 0 1
-7.128038 6.214495 -25.449032 27.149256 -0.717036 2.785812 0.071251 -0.035441 421391.000000 0 0 1
-5.937338 6.980395 -25.194672 26.809502 -0.865970 2.792743 0.073205 -0.034067 203996.000000 0 0 1
-6.127838 8.218695 -24.318792 26.391306 -0.930119 2.742644 0.043200 -0.009814 17244.700000 0 0 1
-6.253738 7.930995 -22.976492 25.098389 -0.903096 2.727438 0.036149 -0.007773 303177.000000 0 0 1
-7.622138 7.798295 -22.592792 25.086743 -0.796821 2.691914 0.047342 -0.010105 209692.000000 0 0 1
-7.622638 7.781295 -21.085592 23.733002 -0.795698 2.664754 0.038462 -0.010405 98760.200000 0 1 0
-7.242338 9.065595 -20.571092 23.617924 -0.896738 2.628020 0.028407 -0.004402 38530.600000 0 1 0
-7.016338 9.059295 -19.143292 22.310658 -0.911805 2.602225 0.025508 -0.006798 192377.000000 0 1 0
-8.286738 9.267195 -18.240992 22.074527 -0.841194 2.543368 0.032876 -0.005840 141220.000000 0 1 0
-7.966638 9.322595 -16.885892 20.868911 -0.863666 2.513485 0.026753 -0.000641 31363.400000 0 1 0
-9.023538 9.745295 -16.036092 20.821894 -0.823834 2.449881 0.029229 -0.008658 253807.000000 0 1 0
-9.574438 11.165095 -16.271992 21.934150 -0.861945 2.406631 0.050784 -0.016827 173099.000000 0 1 0
-8.590638 12.109395 -15.836792 21.708075 -0.953777 2.388438 0.033268 -0.019188 420487.000000 0 1 0
-8.998438 13.446095 -16.074492 22.806987 -0.981026 2.352945 0.060718 -0.024898 -396737.000000 0 1 0
-7.870638 14.401995 -15.790092 22.774798 -1.070647 2.336874 0.055728 -0.022246 -693289.000000 0 1 0
-7.440638 14.564395 -14.455592 21.827708 -1.098484 2.294626 0.045264 -0.021261 268276.000000 0 1 0
-8.272538 15.336595 -13.584992 22.095204 -1.076129 2.232978 0.049907 -0.031335 -517349.000000 0 1 0
-7.411138 15.995495 -12.453092 21.583798 -1.136915 2.185804 0.023864 -0.027810 164885.000000 0 1 0
-6.945538 17.318295 -12.640792 22.537823 -1.189383 2.166233 0.031574 -0.029131 -24970.000000 0 1 0
-5.942538 17.350295 -13.633492 22.852103 -1.240815 2.210050 0.023123 -0.022909 -647939.000000 0 1 0
-5.672638 18.768595 -14.129792 24.167954 -1.277285 2.195245 0.040924 -0.011979 -71472.600000 0 1 0
-5.163538 19.596195 -13.152092 24.158860 -1.313156 2.146470 0.044838 -0.028483 -283716.000000 0 1 0
-5.217138 20.951595 -13.602392 25.518874 -1.326750 2.132977 0.052158 -0.017880 -191073.000000 0 0 1
-4.618938 21.998895 -12.654392 25.795729 -1.363840 2.083530 0.051772 -0.016462 -587626.000000 0 0 1
-4.804638 23.369995 -12.915492 27.130263 -1.368032 2.066959 0.058782 -0.019589 1011820.000000 0 0 1
-6.171538 23.837295 -12.833792 27.767080 -1.317456 2.051265 0.065863 -0.023696 1334840.000000 0 0 1
-6.971238 23.840095 -11.479492 27.362877 -1.286311 2.003722 0.060177 -0.027164 -33152.500000 0 0 1
-7.338538 22.475995 -11.214292 26.168394 -1.255203 2.013676 0.058880 -0.027920 -77483.500000 0 0 1
-8.212538 22.221595 -10.137592 25.768505 -1.216791 1.975134 0.074557 -0.027568 -18328.200000 0 0 1
-7.781938 22.687095 -8.700292 25.513877 -1.240361 1.918779 0.072709 -0.024003 -59333.900000 0 0 1
-7.566138 24.104695 -8.697792 26.719550 -1.266649 1.902360 0.062462 -0.016691 -38081.300000 0 0 1
-7.269638 24.538995 -7.404292 26.642700 -1.282785 1.852415 0.063101 -0.020983 -45699.000000 0 0 1
-7.392238 26.094295 -7.286292 28.082868 -1.294740 1.833256 0.081311 -0.025859 809615.000000 0 0 1
-6.271838 26.842095 -7.826192 28.654551 -1.341258 1.847433 0.064982 -0.024486 702810.000000 0 0 1
-6.004538 26.767895 -9.204892 28.936218 -1.350131 1.894531 0.063964 -0.022584 -320616.000000 0 0 1
-5.433938 28.130495 -9.696592 30.246923 -1.379978 1.897139 0.051833 -0.020528 684366.000000 0 0 1
-6.365638 29.242695 -9.755692 31.477454 -1.356457 1.885912 0.043516 -0.014826 567394.000000 0 0 1
-7.303738 29.195995 -10.841692 31.988952 -1.325665 1.916565 0.050509 -0.013209 251463.000000 0 0 1
-8.321838 30.348195 -10.700492 33.238028 -1.303163 1.898569 0.053762 -0.017727 121110.000000 0 0 1
-9.372838 30.076495 -9.774592 32.984668 -1.268701 1.871652 0.068003 -0.018296 585045.000000 0 0 1
-10.515938 30.890895 -10.038092 34.140821 -1.242680 1.869227 0.058277 -0.029315 1347570.000000 0 0 1
-11.764638 30.642695 -9.100892 34.061822 -1.204220 1.841270 0.079308 -0.033062 803615.000000 0 0 1
-12.546138 29.522195 -9.413092 33.430105 -1.168948 1.856232 0.093530 -0.040496 -467434.000000 0 0 1
-13.662438 29.328595 -8.569792 33.470436 -1.134848 1.829720 0.100854 -0.032671 104419.000000 0 0 1
-14.604438 28.268795 -9.166992 33.112658 -1.093935 1.851303 0.112100 -0.036840 -203235.000000 0 0 1
-14.356638 26.920795 -8.757892 31.741817 -1.080871 1.850333 0.100281 -0.034556 698004.000000 0 0 1
-15.492138 26.076895 -9.079292 31.661402 -1.034730 1.861642 0.126301 -0.032281 762969.000000 0 0 1
-15.364138 24.592695 -8.602092 30.246543 -1.012381 1.859176 0.110966 -0.029933 492737.000000 0 0 1
-14.242638 23.866595 -9.136192 29.256403 -1.032762 1.888389 0.113337 -0.032021 456485.000000 0 0 1
-14.325138 22.462395 -8.816892 28.062544 -1.003089 1.890397 0.106209 -0.027714 170150.000000 0 0 1
-13.264338 21.482395 -9.428592 26.950590 -1.017644 1.928204 0.117806 -0.027318 156809.000000 0 0 1
-13.378538 21.269095 -10.835192 27.363499 -1.009316 1.977923 0.120401 -0.022452 -82728.600000 0 0 1
-12.554338 20.265595 -11.353092 26.404516 -1.016169 2.015253 0.117063 -0.020796 -380223.000000 0 0 1
-12.781038 19.903895 -12.814692 26.902348 -0.999968 2.067285 0.123538 -0.017374 -255743.000000 0 0 1
-14.020038 19.301895 -13.084592 27.209028 -0.942600 2.072468 0.136214 -0.023394 -341163.000000 0 0 1
-14.351238 19.167595 -14.461492 27.973014 -0.928112 2.114116 0.139720 -0.023152 883770.000000 0 0 1
-15.766238 18.581995 -14.843792 28.534242 -0.867192 2.117893 0.128857 -0.021138 981825.000000 0 0 1
-16.749538 19.587795 -14.929992 29.784785 -0.863348 2.095853 0.118666 -0.017929 -263538.000000 0 0 1
-18.053538 19.059295 -15.045692 30.258219 -0.812492 2.091215 0.094975 -0.013496 469641.000000 0 0 1
-19.073738 20.149195 -15.593892 31.827143 -0.812810 2.082835 0.069401 -0.014170 389459.000000 0 0 1
-19.324438 21.244295 -14.710292 32.266805 -0.832686 2.044174 0.081056 -0.018670 363566.000000 0 0 1
-19.940838 22.306495 -15.431192 33.665092 -0.841335 2.046961 0.075476 -0.020867 73894.600000 0 0 1
-20.348738 23.591095 -14.576492 34.396003 -0.859056 2.008416 0.073952 -0.018031 525986.000000 0 0 1
-21.688838 23.541795 -14.079892 34.969489 -0.826342 1.985189 0.078282 -0.018072 625395.000000 0 0 1
-22.085638 24.765295 -13.518492 35.830781 -0.842531 1.957661 0.071390 -0.029317 -166793.000000 0 0 1
-26.383898 -0.741205 3.720508 26.655236 0.028086 1.430760 0.203363 -0.051565 -74925.300000 0 0 1
-26.773728 -0.193305 4.951208 27.228374 0.007220 1.387939 0.185996 -0.044264 69046.100000 0 0 1
-28.150348 -0.346105 5.199308 28.628564 0.012294 1.388170 0.177657 -0.042837 -101539.000000 0 0 1
-28.604378 0.225995 6.579708 29.352241 -0.007901 1.344711 0.199590 -0.035610 -92762.400000 0 0 1
-29.161058 1.529295 6.369408 29.887713 -0.052395 1.356038 0.216973 -0.038500 176723.000000 0 0 1
-29.563228 2.183895 7.484608 30.574061 -0.073738 1.323480 0.225929 -0.033531 -562336.000000 0 0 1
-28.445088 2.896095 8.268408 29.763685 -0.101464 1.289291 0.226571 -0.030620 108025.000000 0 0 1
-27.712718 1.914095 9.015708 29.205162 -0.068960 1.256968 0.200884 -0.036129 1049720.000000 0 0 1
-26.468928 2.348195 9.586208 28.249133 -0.088484 1.224576 0.189644 -0.042359 785003.000000 0 0 1
-25.801258 1.078095 10.326408 27.811902 -0.041760 1.190393 0.184842 -0.036171 316665.000000 0 0 1
-24.735938 0.432295 9.620108 26.544302 -0.017475 1.199936 0.179606 -0.038765 749202.000000 0 0 1
-25.129048 -0.605105 8.756308 26.617816 0.024075 1.235590 0.161586 -0.033644 172507.000000 0 0 1
-23.879138 -1.185005 8.010508 25.214791 0.049584 1.247503 0.148103 -0.044725 336280.000000 0 0 1
-23.008038 -1.862405 8.889808 24.735946 0.080770 1.203184 0.151264 -0.053333 -456847.000000 0 1 0
-21.886738 -2.292005 8.164008 23.471975 0.104341 1.215552 0.162713 -0.051053 -544504.000000 0 1 0
-20.704338 -2.551805 9.107308 22.762345 0.122631 1.159166 0.137840 -0.042884 -238160.000000 0 1 0
-20.031638 -1.386005 9.608908 22.260248 0.069081 1.124462 0.120025 -0.037075 972151.000000 0 1 0
-20.766738 -0.672305 10.606908 23.328435 0.032363 1.098787 0.133269 -0.036472 -278178.000000 0 1 0
-20.175438 0.770395 10.871708 22.931110 -0.038166 1.076851 0.089222 -0.024457 -183424.000000 0 1 0
-20.468438 1.811895 9.942308 22.827383 -0.088291 1.120155 0.097123 -0.019585 1225420.000000 0 1 0
-21.847838 2.145895 9.693208 23.997732 -0.097906 1.154996 0.119664 -0.022006 620282.000000 0 1 0
-22.178038 3.604895 9.198108 24.278917 -0.161134 1.182241 0.110478 -0.027341 -446976.000000 0 1 0
-22.114338 4.442595 10.339908 24.813188 -0.198253 1.140973 0.091966 -0.023506 562880.000000 0 1 0
-22.462438 5.796195 9.991608 25.258448 -0.252531 1.164103 0.080849 -0.015293 -157106.000000 0 0 1
-22.489638 6.854995 11.079608 25.991008 -0.295861 1.130413 0.071675 -0.021197 227282.000000 0 0 1
-23.559838 6.737095 12.026108 27.296184 -0.278524 1.114554 0.082144 -0.020611 643829.000000 0 0 1
-23.577138 7.702695 13.044908 28.024678 -0.315770 1.086620 0.097500 -0.023591 99667.400000 0 0 1
-24.376138 7.154895 14.268808 29.137390 -0.285502 1.059042 0.125914 -0.029980 1306490.000000 0 0 1
-25.806388 7.310595 14.153608 30.327200 -0.276053 1.085244 0.143877 -0.042382 2079930.000000 0 0 1
-26.630428 6.623695 15.184508 31.362753 -0.243780 1.065396 0.139844 -0.042931 1121860.000000 0 0 1
-28.161158 6.526695 15.012908 32.573547 -0.227742 1.091796 0.146160 -0.038897 302851.000000 0 0 1
-28.596228 5.597195 13.998108 32.326767 -0.193288 1.122957 0.163305 -0.025340 33533.100000 0 0 1
-29.871498 5.930095 13.511908 33.317324 -0.195972 1.153214 0.176071 -0.021499 -330132.000000 0 0 1
-30.562158 4.929295 12.542908 33.401616 -0.159910 1.185841 0.192495 -0.023327 -181269.000000 0 0 1
-30.967558 3.712395 13.118108 33.835725 -0.119311 1.172661 0.179148 -0.031844 228220.000000 0 0 1
-31.278218 2.725095 12.165208 33.671135 -0.086905 1.201140 0.173058 -0.020376 -59656.800000 0 0 1
-32.467878 1.824895 12.595208 34.873093 -0.056147 1.201271 0.146836 -0.009138 52241.400000 0 0 1
-32.208958 0.791495 13.502608 34.933706 -0.024569 1.173940 0.145858 -0.011218 193905.000000 0 0 1
-33.446678 0.138695 13.728308 36.154750 -0.004147 1.181314 0.119628 -0.013412 370285.000000 0 0 1
-33.277838 -1.036405 14.770508 36.423296 0.031134 1.153245 0.108729 -0.018703 -7144.920000 0 0 1
-33.060028 -2.281305 14.228108 36.063955 0.068896 1.165246 0.101498 -0.018039 98804.700000 0 0 1
-33.101708 -3.333505 15.178008 36.567844 0.100367 1.142783 0.105047 -0.016579 -233762.000000 0 0 1
-32.964768 -4.767205 14.651508 36.387757 0.143619 1.156387 0.091166 -0.016938 -208885.000000 0 0 1
-34.007908 -5.265305 13.839008 37.091500 0.153606 1.188443 0.062547 -0.014730 65924.500000 0 0 1
-33.899708 -6.627305 13.430508 37.060625 0.193062 1.199962 0.059778 -0.011952 -191857.000000 0 0 1
-34.964626 -6.940905 12.325808 37.717725 0.195965 1.237890 0.056247 -0.004593 152092.000000 0 0 1
-36.293868 -7.088505 12.723008 39.107118 0.192881 1.239428 0.046871 -0.004777 -306354.000000 0 0 1
-37.014728 -5.849705 12.799308 39.599639 0.156741 1.241669 0.054811 -0.011001 514237.000000 0 0 1
35.486882 -5.960505 12.578708 38.119160 -0.166410 1.234510 0.074293 -0.012491 293221.000000 0 0 1
34.653882 -6.345905 13.604908 37.765799 -0.181116 1.202267 0.067752 -0.007558 490638.000000 0 0 1
33.288382 -6.340805 13.121908 36.338776 -0.188226 1.201350 0.092644 -0.015284 1125080.000000 0 0 1
32.455622 -7.503405 13.703308 36.020121 -0.227198 1.180530 0.104353 -0.023371 -150902.000000 0 0 1
32.007742 -7.384405 15.054408 36.133920 -0.226740 1.141063 0.104722 -0.014086 -66308.100000 0 0 1
30.997312 -8.330005 15.245908 35.533928 -0.262531 1.127353 0.102818 -0.012570 -402119.000000 0 0 1
30.540362 -8.468705 16.672108 35.810499 -0.270499 1.086524 0.111469 -0.024173 -137930.000000 0 0 1
31.499822 -9.009605 17.542808 37.163987 -0.278583 1.079195 0.082386 -0.021115 -197255.000000 0 0 1
30.908392 -9.161005 18.804208 37.320919 -0.288144 1.042744 0.093407 -0.031268 -390062.000000 0 0 1
31.857242 -9.649705 19.905208 38.784249 -0.294119 1.031853 0.092569 -0.020800 367426.000000 0 0 1
32.940592 -8.796605 20.259608 39.659987 -0.260955 1.034644 0.088286 -0.022381 854595.000000 0 0 1
34.168072 -8.991205 19.531508 40.370518 -0.257313 1.065798 0.027592 -0.012787 639199.000000 0 0 1
35.320782 -8.149905 20.167008 41.481162 -0.226771 1.063092 0.023183 -0.009137 146625.000000 0 0 1
35.714462 -8.705205 21.382308 42.526539 -0.239083 1.043962 0.016810 -0.008947 197177.000000 0 0 1
36.902502 -8.065405 21.849808 43.637822 -0.215176 1.046380 0.016026 -0.001916 155032.000000 0 0 1
-36.781218 -8.711105 23.165608 44.332682 0.232551 1.020969 0.025548 -0.004645 -210347.000000 0 0 1
36.297512 -8.433205 24.159008 44.410427 -0.228286 0.995607 0.038094 -0.007466 7639.050000 0 0 1
36.635012 -9.032705 25.376308 45.471649 -0.241738 0.978740 0.046337 -0.018599 2632.070000 0 0 1
36.050222 -8.357105 26.654208 45.605992 -0.227795 0.946600 0.064765 -0.018633 776913.000000 0 0 1
-36.981498 -7.593805 27.371408 46.631438 0.202525 0.943481 0.046589 -0.025770 781116.000000 0 0 1
36.495382 -6.769905 28.446208 46.764637 -0.183415 0.916899 0.057551 -0.028570 66135.200000 0 0 1
-36.508808 -6.140805 29.389608 47.268928 0.166641 0.899817 0.063662 -0.018968 10269.500000 0 0 1
-35.896437 -7.117105 30.145108 47.412392 0.195729 0.881743 0.062907 -0.024414 -242234.000000 0 0 1
-34.490473 -6.978905 30.257708 46.409339 0.199647 0.860611 0.042711 -0.028462 605753.000000 0 0 1
-33.947398 -7.608605 31.627908 47.017457 0.220485 0.832966 0.034430 -0.023445 192923.000000 0 0 1
-34.084378 -9.061405 31.741808 47.448880 0.259842 0.837976 0.038200 -0.023249 305988.000000 0 0 1
-33.462998 -9.564605 32.920708 47.906439 0.278403 0.813186 0.023882 -0.016773 -193128.000000 0 0 1
-33.428738 -11.105205 32.944808 48.230348 0.320735 0.818836 0.032227 -0.021032 817083.000000 0 0 1
-34.807535 -11.524705 32.971308 49.310145 0.319737 0.838402 0.032290 -0.025798 836469.000000 0 0 1
-34.954726 -12.911705 32.946908 49.739760 0.353838 0.846797 0.036204 -0.025684 -4243.380000 0 0 1
-36.450168 -13.266905 33.026008 50.944506 0.349069 0.865481 0.038719 -0.027636 -233197.000000 0 0 1
-36.738958 -14.621705 33.164708 51.608557 0.378772 0.872883 0.036846 -0.036555 -921315.000000 0 0 1
35.962302 -14.742005 33.474908 51.295062 -0.389037 0.859792 0.025450 -0.031476 -982058.000000 0 0 1
35.568962 -16.247605 33.509808 51.497990 -0.428487 0.862289 0.023473 -0.027233 981.159000 0 0 1
36.170952 -16.808405 -33.279459 51.945959 -0.435006 2.266148 0.030066 -0.037386 489931.000000 0 0 1
35.762602 -18.142005 -33.113559 52.005806 -0.469462 2.261044 0.030940 -0.042604 -420880.000000 0 0 1
36.076182 -18.724305 -31.738459 51.569568 -0.478749 2.233752 0.036159 -0.031216 327836.000000 0 0 1
35.060862 -18.582405 -30.739059 50.194219 -0.487362 2.229892 0.042006 -0.024564 468738.000000 0 0 1
35.526652 -19.273805 -29.586759 50.089908 -0.497080 2.202689 0.033314 -0.020154 -482388.000000 0 0 1
34.434282 -19.417105 -28.507359 48.738212 -0.513444 2.195563 0.026346 -0.015373 1145800.000000 0 0 1
33.203392 -20.081305 -28.857059 48.357563 -0.543939 2.210233 0.029813 -0.010967 988722.000000 0 0 1
32.273112 -19.357405 -29.613659 47.887699 -0.540272 2.237499 0.016261 -0.006569 -308773.000000 0 0 1
30.950102 -20.139705 -29.916059 47.523543 -0.576878 2.251706 0.008735 -0.008111 247744.000000 0 0 1
30.011762 -19.338705 -30.603459 47.024069 -0.572408 2.279439 0.004569 -0.001829 -144630.000000 0 0 1
28.816672 -20.097805 -30.643359 46.619071 -0.609004 2.288045 0.014687 -0.003450 29961.000000 0 0 1
27.735772 -19.469305 -31.550859 46.301011 -0.612038 2.320510 0.020952 0.002138 104905.000000 0 0 1
28.194872 -19.465305 -32.880359 47.486492 -0.604243 2.335627 0.017559 -0.001072 -290368.000000 0 0 1
27.162272 -19.323605 -33.801259 47.473317 -0.618345 2.363146 0.041596 -0.007612 -349217.000000 0 0 1
27.631672 -19.554005 32.719508 47.079025 -0.615853 0.802389 0.047302 -0.011428 54205.200000 0 0 1
28.673772 -18.673005 32.361708 47.097202 -0.577234 0.813271 0.047460 -0.012835 -75325.300000 0 0 1
28.978382 -18.657205 30.983208 46.344332 -0.572027 0.838548 0.052361 -0.013182 -266185.000000 0 0 1
27.978772 -18.009905 29.991708 44.795880 -0.571933 0.837235 0.059141 -0.009892 -136061.000000 0 0 1
27.692172 -16.679905 30.337308 44.333146 -0.542133 0.817149 0.068002 -0.016641 425880.000000 0 0 1
27.028872 -15.956305 29.288908 42.930219 -0.533288 0.819968 0.089394 -0.020088 1081.120000 0 0 1
26.843672 -14.451405 29.569108 42.470672 -0.493858 0.800672 0.104415 -0.034457 -772060.000000 0 0 1
28.000672 -13.748505 29.818708 43.153382 -0.456427 0.807934 0.095660 -0.024009 -644412.000000 0 0 1
27.676072 -12.559405 30.503708 43.060188 -0.426010 0.783572 0.107199 -0.027800 -305583.000000 0 0 1
28.840172 -11.593305 30.659808 43.659868 -0.382216 0.792254 0.085028 -0.024366 -337538.000000 0 0 1
29.369602 -11.083005 29.482008 43.065013 -0.360841 0.816751 0.081198 -0.025382 1087840.000000 0 0 1
30.737762 -10.625105 29.622308 43.990726 -0.332812 0.832030 0.074180 -0.023246 1315660.000000 0 0 1
31.313022 -9.856805 28.373908 43.390559 -0.304963 0.858044 0.078279 -0.025868 542.581000 0 0 1
30.877912 -8.539705 28.324908 42.762980 -0.269819 0.846819 0.077499 -0.024449 -98734.900000 0 0 1
31.350782 -7.922405 27.170108 42.235658 -0.247520 0.871998 0.083176 -0.022156 30383.100000 0 0 1
30.887692 -6.440805 26.987608 41.519447 -0.205577 0.863213 0.088604 -0.031736 -776020.000000 0 0 1
29.609702 -6.327505 26.487108 40.228580 -0.210530 0.852085 0.098867 -0.022279 -1242330.000000 0 0 1
29.327072 -4.968205 26.328308 39.723293 -0.167814 0.846254 0.114668 -0.018117 214520.000000 0 0 1
27.826272 -4.677005 26.075208 38.419946 -0.166522 0.824820 0.089922 -0.011158 5599.330000 0 0 1
27.436172 -5.057405 24.801308 37.328619 -0.182287 0.844099 0.120503 -0.017477 -1367560.000000 0 0 1
26.075572 -4.873005 24.745208 36.276810 -0.184749 0.820136 0.117860 -0.016340 -1169920.000000 0 0 1
25.511272 -5.285105 23.336508 34.976420 -0.204278 0.840344 0.129192 -0.019085 -65481.900000 0 0 1
25.706472 -4.309005 22.349808 34.335174 -0.166079 0.861987 0.141864 -0.012649 207259.000000 0 0 1
25.106772 -4.681905 21.123108 33.142962 -0.184362 0.879764 0.135642 -0.009163 78977.700000 0 0 1
25.521472 -3.737905 19.954008 32.611040 -0.145427 0.912362 0.154204 -0.013404 9114.900000 0 0 1
24.973572 -2.480205 20.244608 32.243990 -0.098989 0.892000 0.134735 -0.008746 502.249000 0 0 1
25.363472 -1.465905 19.313608 31.913478 -0.057732 0.920796 0.143164 -0.021020 236519.000000 0 0 1
24.187972 -0.552105 18.833208 30.660276 -0.022822 0.909356 0.090562 -0.017392 703528.000000 0 0 1
23.222572 -1.309605 18.061408 29.448555 -0.056334 0.910538 0.110682 -0.019961 871649.000000 0 0 1
22.153572 -0.380705 17.696908 28.356767 -0.017183 0.896842 0.110013 -0.024589 1352360.000000 0 0 1
20.928172 -1.159105 17.098208 27.049596 -0.055328 0.886528 0.083947 -0.024195 -185494.000000 0 0 1
21.227972 -1.860505 15.917508 26.598033 -0.087421 0.929235 0.109387 -0.023859 -263526.000000 0 0 1
20.196972 -2.673005 15.421508 25.551625 -0.131582 0.922859 0.096776 -0.023714 -175693.000000 0 0 1
20.639472 -3.260305 14.069008 25.190363 -0.156670 0.978211 0.111307 -0.029457 -192538.000000 0 0 1
19.697672 -4.201505 13.672608 24.343195 -0.210150 0.974405 0.100421 -0.024181 149093.000000 0 1 0
19.773572 -4.455805 12.285008 23.701683 -0.221639 1.025913 0.102361 -0.028038 216586.000000 0 1 0
18.677572 -5.437405 11.733108 22.717458 -0.283290 1.028061 0.072921 -0.021758 214391.000000 0 1 0
18.784572 -6.769705 12.180908 23.389390 -0.345898 1.023023 0.095275 -0.031716 99115.400000 0 1 0
17.567872 -7.444505 12.046808 22.564937 -0.400817 1.007622 0.070863 -0.016986 -498851.000000 0 1 0
17.609372 -9.000605 12.242608 23.259027 -0.472509 1.016483 0.089738 -0.033334 -505727.000000 0 1 0
18.323172 -9.780105 11.332708 23.660502 -0.490286 1.071314 0.075934 -0.036610 277524.000000 0 1 0
17.987172 -11.191105 11.258008 23.990038 -0.556563 1.082323 0.079526 -0.034698 46787.200000 0 1 0
18.728572 -11.874305 10.099908 24.367328 -0.565060 1.143419 0.082351 -0.038741 148829.000000 0 1 0
18.048572 -11.601505 8.895708 23.226698 -0.571292 1.177760 0.068462 -0.031761 577867.000000 0 1 0
18.841772 -12.025805 7.796308 23.673081 -0.568072 1.235200 0.094927 -0.049126 217296.000000 0 1 0
18.637172 -11.181305 6.569408 22.705129 -0.540380 1.277263 0.095302 -0.034095 -136595.000000 0 1 0
19.035272 -9.848405 6.707908 22.457264 -0.477452 1.267470 0.086451 -0.022979 458113.000000 0 1 0
19.327372 -9.344205 5.441008 22.146468 -0.450336 1.322572 0.059476 -0.032545 -488290.000000 0 1 0
20.062872 -7.992705 5.389008 22.258562 -0.379112 1.326257 0.092752 -0.020763 -258994.000000 0 1 0
20.443372 -7.659205 4.077408 22.208560 -0.358468 1.386153 0.088423 -0.020835 415081.000000 0 1 0
21.202372 -6.504805 4.069608 22.548055 -0.297680 1.389316 0.121023 -0.013791 -350290.000000 0 1 0
21.786872 -6.054605 2.683208 22.771158 -0.271062 1.452688 0.130765 -0.021466 -35929.900000 0 1 0
20.865372 -5.326505 1.919008 21.619852 -0.249942 1.481918 0.096823 -0.039571 352935.000000 0 1 0
21.341872 -5.121705 0.593308 21.955851 -0.235530 1.543770 0.093607 -0.025077 156282.000000 0 1 0
-26.314058 -14.905505 0.577708 30.247933 0.515382 1.551696 0.144027 -0.031921 -528851.000000 0 0 1
-25.410508 -14.240805 -0.292992 29.130401 0.510815 1.580854 0.153197 -0.027884 -609232.000000 0 0 1
-24.126038 -14.750205 -0.311092 28.279516 0.548746 1.581797 0.145652 -0.020506 79957.100000 0 0 1
-23.196938 -14.356805 0.918808 27.295787 0.554208 1.537129 0.154921 -0.035722 -29167.000000 0 0 1
-23.535538 -15.198305 2.028008 28.089550 0.573389 1.498536 0.139642 -0.018001 -48634.300000 0 0 1
-22.756238 -14.769405 3.090008 27.304392 0.575691 1.457384 0.112636 -0.005023 -60943.600000 0 0 1
-23.262138 -15.354805 4.383008 28.215383 0.583427 1.414824 0.111904 -0.003466 -220601.000000 0 0 1
-23.054338 -16.775405 4.430508 28.853875 0.629041 1.416637 0.135734 -0.020225 232297.000000 0 0 1
-23.600938 -17.372105 5.589408 29.833467 0.634531 1.382329 0.132765 -0.023049 -111925.000000 0 0 1
-23.879838 -18.831205 5.305008 30.870763 0.667740 1.398093 0.108466 -0.018862 -138838.000000 0 0 1
-24.431438 -19.527205 6.370908 31.918574 0.674293 1.369848 0.097811 -0.022958 135834.000000 0 0 1
-24.627538 -20.924905 6.141908 32.895141 0.704294 1.382982 0.108237 -0.030027 -71961.100000 0 0 1
-25.110508 -21.866605 7.283108 34.084156 0.716455 1.355456 0.092533 -0.020252 -24960.600000 0 0 1
-24.133338 -22.057005 8.275608 33.725586 0.740477 1.322884 0.085194 -0.015883 13883.900000 0 0 1
-24.456338 -23.228105 9.007508 34.911209 0.759646 1.309832 0.071543 -0.010827 433145.000000 0 0 1
-23.511238 -23.446905 10.234708 34.746005 0.784028 1.271804 0.086774 -0.018364 399738.000000 0 0 1
-23.815538 -22.522805 11.280608 34.665670 0.757508 1.239349 0.075974 -0.020049 81298.300000 0 0 1
-22.847538 -22.547805 12.306408 34.378207 0.778796 1.204702 0.079995 -0.024037 -267586.000000 0 0 1
-23.146738 -21.619305 13.509408 34.433558 0.751291 1.167630 0.062287 -0.016747 -149327.000000 0 0 1
-24.338838 -22.055205 14.137608 35.758678 0.736215 1.164335 0.058577 -0.014041 135227.000000 0 0 1
-24.671738 -21.235005 15.258208 35.950424 0.710674 1.132471 0.054236 -0.001219 -128094.000000 0 0 1
-26.073738 -21.512705 15.878308 37.346445 0.689843 1.131655 0.048040 -0.007463 480478.000000 0 0 1
-27.238898 -21.186405 15.107408 37.670347 0.661057 1.158142 0.049697 -0.006568 760992.000000 0 0 1
-27.495918 -22.227905 14.164308 38.088487 0.679846 1.189764 0.042593 -0.005029 -537618.000000 0 0 1
-28.527668 -23.296205 14.622608 39.627789 0.684792 1.192865 0.030699 -0.011824 -357236.000000 0 0 1
-28.086338 -24.006605 15.718408 40.152556 0.707241 1.168571 0.032078 -0.008931 -321699.000000 0 0 1
-29.068268 -24.798605 16.331908 41.553173 0.706300 1.166865 0.028973 -0.010598 -220140.000000 0 0 1
-29.240938 -26.210465 15.707408 42.293540 0.730802 1.190290 0.047909 -0.011793 3376.080000 0 0 1
-29.824448 -26.269905 14.394608 42.270679 0.722116 1.223311 0.054584 -0.023072 103861.000000 0 0 1
-31.113938 -26.843885 14.516008 43.581943 0.711856 1.231235 0.071670 -0.032174 -355879.000000 0 0 1
-31.727388 -27.173985 13.193908 43.807896 0.708246 1.264870 0.106429 -0.040204 -421937.000000 0 0 1
-31.134838 -28.293965 12.534208 43.897983 0.737632 1.281237 0.094299 -0.039570 135050.000000 0 0 1
-31.873838 -28.815575 11.454008 44.468789 0.735049 1.310286 0.096942 -0.029320 -229763.000000 0 0 1
-31.137878 -29.945565 10.755808 44.519565 0.765881 1.326785 0.081931 -0.026692 -43905.800000 0 0 1
-31.409588 -31.201425 11.341808 45.702601 0.782073 1.320010 0.088110 -0.022358 271981.000000 0 0 1
-30.683978 -32.225755 10.663308 45.757097 0.809901 1.335592 0.088270 -0.025794 -134202.000000 0 0 1
-30.950958 -33.619525 11.304108 47.074591 0.826703 1.328295 0.097583 -0.025578 803560.000000 0 0 1
-32.324678 -34.036525 11.284808 48.277497 0.811188 1.334865 0.091140 -0.027930 657773.000000 0 0 1
-32.394868 32.790070 11.952508 47.618049 -0.791461 1.317075 0.103608 -0.028409 -520341.000000 0 0 1
-33.801048 32.356829 12.384208 48.402932 -0.763572 1.312063 0.118574 -0.025303 315806.000000 0 0 1
-34.823509 32.142238 11.400808 48.741960 -0.745380 1.334708 0.083275 -0.023079 791062.000000 0 0 1
-35.385650 33.370404 10.851908 49.834646 -0.756096 1.351279 0.100379 -0.023118 -1189650.000000 0 0 1
-36.812688 33.138862 10.410508 50.613603 -0.732927 1.363632 0.091662 -0.010646 -887093.000000 0 0 1
-36.926588 32.329457 9.292008 49.951057 -0.719117 1.383684 0.072067 -0.009192 -846510.000000 0 0 1
35.781062 32.168819 8.987808 48.947911 0.732288 1.386129 0.062373 -0.014052 -1021080.000000 0 0 1
35.603912 31.582617 7.577808 48.192566 0.725617 1.412901 0.054726 -0.013656 -94647.900000 0 0 1
35.726772 30.189777 7.490908 47.370229 0.701595 1.411994 0.078309 -0.016321 196792.000000 0 0 1
35.451012 29.748787 6.169808 46.688662 0.698162 1.438261 0.100587 -0.013553 36850.100000 0 0 1
35.543272 28.197747 5.962008 45.760056 0.670664 1.440136 0.109811 -0.013747 404757.000000 0 0 1
34.454282 27.419347 6.464208 44.505102 0.672186 1.425034 0.112244 -0.022498 279906.000000 0 0 1
34.721382 26.940547 7.745008 44.624574 0.659876 1.396354 0.096440 -0.020474 -188002.000000 0 0 1
33.762772 25.889267 8.339408 43.355792 0.654166 1.377242 0.086668 -0.018119 -391900.000000 0 0 1
33.837852 24.685457 7.510508 42.553258 0.630266 1.393370 0.098953 -0.026392 284894.000000 0 0 1
32.760222 23.836297 7.845708 41.266892 0.629009 1.379511 0.096011 -0.026533 -178411.000000 0 0 1
33.067382 22.351367 7.300408 40.575009 0.594391 1.389887 0.080772 -0.031055 861968.000000 0 0 1
34.277542 21.722167 7.750508 41.314317 0.564841 1.382080 0.092446 -0.030656 1252880.000000 0 0 1
35.517002 22.158767 7.165708 42.471352 0.557802 1.401267 0.093283 -0.033364 327641.000000 0 0 1
36.588752 21.075467 7.177508 42.830231 0.522593 1.402421 0.075556 -0.028717 -362211.000000 0 0 1
36.398662 20.258967 6.087008 42.099169 0.507885 1.425700 0.090281 -0.026139 96096.300000 0 0 1
36.905662 18.959767 6.286608 41.964534 0.474576 1.420423 0.097361 -0.031256 -359025.000000 0 0 1
36.470022 17.894167 5.274908 40.964477 0.456143 1.441670 0.089986 -0.026152 -428369.000000 0 0 1
-36.832308 17.762167 4.103108 41.096824 -0.449342 1.470790 0.101960 -0.019964 63685.300000 0 0 1
36.659792 16.648567 3.427208 40.408674 0.426289 1.485881 0.097213 -0.015472 -621139.000000 0 0 1
-36.593458 16.256467 2.152608 40.099721 -0.418058 1.517089 0.115737 -0.007554 659070.000000 0 0 1
-35.441515 15.409067 2.310208 38.715338 -0.410121 1.511089 0.123013 -0.022892 321532.000000 0 0 1
-34.322912 16.160067 2.676508 38.031220 -0.440036 1.500362 0.125285 -0.025815 -903812.000000 0 0 1
-32.977258 15.406367 2.749308 36.502252 -0.437050 1.495406 0.117223 -0.017443 155030.000000 0 0 1
-32.992628 14.438467 3.757008 36.209086 -0.412517 1.466851 0.125162 -0.022653 227382.000000 0 0 1
-31.681518 14.021967 4.103908 34.888052 -0.416676 1.452893 0.115794 -0.026071 154945.000000 0 0 1
-31.549298 13.237067 5.361708 34.631287 -0.397260 1.415348 0.124062 -0.017646 -103316.000000 0 0 1
-31.877038 11.871767 5.197708 34.410762 -0.356510 1.419167 0.146385 -0.026815 263505.000000 0 0 1
-31.388708 11.148267 6.297608 33.899774 -0.341271 1.383939 0.154351 -0.021792 -84189.100000 0 0 1
-31.663228 9.583167 6.260608 33.668862 -0.293895 1.383761 0.170872 -0.042830 -647466.000000 0 0 1
-33.012218 9.290167 6.381008 34.883105 -0.274321 1.386835 0.161606 -0.018379 -581875.000000 0 0 1
-33.414168 7.981567 5.966808 34.868536 -0.234474 1.398827 0.187179 -0.033369 -352437.000000 0 0 1
-34.893190 7.619267 6.106108 36.233582 -0.214985 1.401468 0.165151 -0.031362 -373150.000000 0 0 1
-35.309404 7.317067 7.395608 36.810168 -0.204335 1.368507 0.159590 -0.029548 487233.000000 0 0 1
-36.588728 6.660667 7.405408 37.920173 -0.180070 1.374244 0.120039 -0.024993 820788.000000 0 0 1
-37.004018 5.897867 8.726908 38.473901 -0.158055 1.341978 0.101920 -0.025955 -67828.100000 0 0 1
36.427022 6.659567 9.788108 38.302544 0.180823 1.312383 0.108202 -0.026915 -99066.700000 0 0 1
-36.926108 7.738967 10.375008 39.128887 -0.206590 1.302437 0.129743 -0.029385 -657743.000000 0 0 1
36.346532 8.653067 11.344708 39.046746 0.233721 1.276003 0.107778 -0.029717 -815022.000000 0 0 1
36.001182 8.029667 12.525308 38.954384 0.219447 1.243443 0.094106 -0.039514 592956.000000 0 0 1
35.481072 8.993667 13.475408 39.004861 0.248249 1.218046 0.106635 -0.040805 -382980.000000 0 0 1
35.058452 8.411867 14.830408 38.984556 0.235487 1.180549 0.120190 -0.047359 -392767.000000 0 0 1
33.702152 8.053167 14.823408 37.688486 0.234553 1.166563 0.107856 -0.045837 -233619.000000 0 0 1
33.264452 7.381267 15.956908 37.624856 0.218359 1.132822 0.103704 -0.037538 756571.000000 0 0 1
31.723532 7.045867 16.008408 36.225624 0.218555 1.113071 0.095366 -0.020991 544649.000000 0 0 1
30.885592 8.177167 16.057808 35.758063 0.258818 1.105074 0.071341 -0.027190 498799.000000 0 0 1
29.490232 7.853867 16.011808 34.463532 0.260280 1.087612 0.075044 -0.024570 914979.000000 0 0 1
28.854072 7.344267 17.358408 34.464621 0.249239 1.042968 0.076276 -0.027058 -542109.000000 0 0 1
28.819572 8.300167 18.409708 35.190593 0.280416 1.020262 0.097518 -0.029491 132395.000000 0 0 1
27.980172 7.992967 19.495408 35.026397 0.278254 0.980518 0.093338 -0.023255 -191276.000000 0 0 1
28.347272 6.806367 20.387108 35.574269 0.235646 0.960530 0.089653 -0.025073 -60683.000000 0 0 1
27.370072 6.642367 21.377508 35.358729 0.238084 0.921546 0.074407 -0.013786 75682.800000 0 0 1
27.895372 5.778867 22.367808 36.219690 0.204273 0.905161 0.078918 -0.010125 -251029.000000 0 0 1
27.029672 5.665467 23.629008 36.345986 0.206611 0.863063 0.088410 0.008014 494753.000000 0 0 1
25.771772 5.040867 23.375108 35.156653 0.193158 0.843457 0.057255 0.000012 392323.000000 0 0 1
24.667672 5.863067 23.713808 34.716196 0.233352 0.818830 0.061907 0.010697 571031.000000 0 0 1
23.274372 5.319367 23.278308 33.344740 0.224691 0.798041 0.047482 0.004984 262782.000000 0 0 1
23.110572 5.343867 21.846608 32.247942 0.227237 0.826496 0.055970 -0.000498 814712.000000 0 0 1
21.734772 5.244667 21.451108 30.984785 0.236777 0.806110 0.060624 -0.005099 -501998.000000 0 0 1
21.262372 3.807367 21.283608 30.324520 0.177188 0.792789 0.081107 -0.010328 132771.000000 0 0 1
19.921872 3.567067 20.875208 29.075407 0.177175 0.769918 0.073865 -0.018134 405070.000000 0 0 1
18.902972 4.035267 21.723508 29.077767 0.210316 0.727133 0.086319 -0.017772 -1326590.000000 0 0 1
17.569172 3.914567 20.997208 27.656507 0.219228 0.708692 0.117499 -0.021491 -939173.000000 0 0 1
16.907272 2.726567 21.042108 27.130432 0.159889 0.683146 0.098572 -0.019637 -891157.000000 0 0 1
15.670572 2.835267 20.410308 25.887956 0.178993 0.662577 0.108431 -0.025994 -465180.000000 0 0 1
14.636572 1.779467 20.939508 25.609739 0.120983 0.613499 0.114201 -0.025875 -286432.000000 0 0 1
14.953072 0.486567 20.569308 25.434770 0.032528 0.628844 0.086606 -0.026494 402333.000000 0 0 1
14.174672 -0.436633 21.367708 25.645485 -0.030794 0.585935 0.090494 -0.030471 94206.600000 0 0 1
14.584172 -1.902933 21.453608 26.011085 -0.129746 0.600971 0.064801 -0.015265 -449316.000000 0 0 1
14.035472 -2.557733 20.373208 24.871753 -0.180255 0.610903 0.061119 -0.011746 217221.000000 0 1 0
14.420972 -3.948633 20.275908 25.192630 -0.267261 0.635399 0.050889 -0.004508 -172734.000000 0 0 1
13.884272 -4.398233 18.896208 23.857580 -0.306778 0.656649 0.045776 -0.006527 624872.000000 0 1 0
12.466272 -4.306633 18.769708 22.940291 -0.332627 0.612526 0.044801 -0.006757 298873.000000 0 1 0
12.074272 -4.997133 17.579808 21.904544 -0.392403 0.639215 0.045573 -0.009097 321482.000000 0 1 0
10.567472 -5.265333 17.350508 20.986551 -0.462253 0.597501 0.038170 -0.007329 461916.000000 0 1 0
9.935572 -6.115233 18.281008 21.686561 -0.551731 0.568026 0.036696 0.003016 -153075.000000 0 1 0
8.530572 -6.123733 18.161808 20.979086 -0.622610 0.524229 0.034117 -0.007826 216758.000000 0 1 0
7.705172 -6.910933 19.193008 21.806014 -0.731112 0.494575 0.028800 -0.011935 -524091.000000 0 1 0
7.695872 -8.320333 18.929608 22.063192 -0.824368 0.539487 0.024219 -0.015802 924883.000000 0 1 0
8.917572 -9.024233 19.300408 23.096875 -0.791343 0.581520 0.049786 -0.020621 1035120.000000 0 1 0
9.061472 -10.479033 18.833408 23.379856 -0.857816 0.634210 0.068900 -0.031255 138705.000000 0 1 0
9.030972 -10.591633 17.400008 22.282312 -0.864765 0.674709 0.046775 -0.026127 -104588.000000 0 1 0
9.459972 -11.829433 16.923808 22.712152 -0.896240 0.730047 0.055527 -0.032103 189538.000000 0 1 0
9.560772 -11.890933 15.357508 21.648457 -0.893598 0.782144 0.053484 -0.030748 68956.300000 0 1 0
10.122372 -13.102633 14.931308 22.295411 -0.913022 0.836987 0.043604 -0.027105 -158430.000000 0 1 0
9.811372 -13.364833 13.582808 21.433023 -0.937537 0.884427 0.029623 -0.017663 -205271.000000 0 1 0
10.743272 -14.535833 13.050708 22.294154 -0.934315 0.945439 0.060327 -0.022769 1092310.000000 0 1 0
12.080672 -14.134333 12.755808 22.548451 -0.863578 0.969506 0.037326 -0.028475 236610.000000 0 1 0
12.134772 -13.445333 11.512608 21.460891 -0.836587 1.004576 -0.000529 -0.026194 -163056.000000 0 1 0
13.556772 -13.204833 10.897708 21.838355 -0.772248 1.048332 0.016905 -0.028962 657585.000000 0 1 0
14.259972 -14.302233 10.368808 22.702706 -0.786878 1.096490 0.028653 -0.025137 -76160.000000 0 1 0
15.448472 -13.882133 9.719108 22.930983 -0.732046 1.133114 0.045879 -0.035790 43032.900000 0 1 0
16.329872 -15.110033 9.313308 24.118780 -0.746619 1.174349 0.045908 -0.041408 56733.900000 0 1 0
16.987772 -15.764533 10.363908 25.387310 -0.748067 1.150280 0.054385 -0.030371 -54386.100000 0 0 1
16.123072 -16.515933 11.216608 25.662069 -0.797434 1.118437 0.070284 -0.025119 -450815.000000 0 0 1
16.676472 -17.047233 12.510408 26.929968 -0.796392 1.087666 0.072670 -0.022221 -314463.000000 0 0 1
17.750272 -17.948133 12.223608 28.046822 -0.790941 1.119838 0.096007 -0.034656 293869.000000 0 0 1
18.095972 -18.771833 13.302808 29.271328 -0.803728 1.099024 0.072368 -0.028444 477280.000000 0 0 1
19.429972 -19.598533 13.140608 30.566352 -0.789717 1.126409 0.046084 -0.027448 1472410.000000 0 0 1
20.584772 -18.758833 12.949708 30.713541 -0.739021 1.135556 0.059547 -0.030807 974111.000000 0 0 1
21.787672 -19.506633 12.681908 31.875417 -0.730216 1.161615 0.049536 -0.029879 1037850.000000 0 0 1
22.578972 -18.839333 11.508108 31.577951 -0.695353 1.197770 0.086058 -0.030045 -301542.000000 0 0 1
22.120572 -19.185133 10.179908 31.000316 -0.714451 1.236208 0.086562 -0.031496 1303020.000000 0 0 1
20.840372 -18.725033 9.648708 29.631833 -0.731985 1.239129 0.087096 -0.034184 1212190.000000 0 0 1
20.553872 -17.190833 9.732408 28.508002 -0.696533 1.222399 0.142107 -0.040468 -297612.000000 0 0 1
21.331972 -16.472533 8.806508 28.354047 -0.657558 1.254982 0.139987 -0.041202 -8822.180000 0 0 1
21.000972 -15.111033 8.842008 27.341640 -0.623720 1.241487 0.148162 -0.052010 147836.000000 0 0 1
-35.717836 24.475395 8.368208 44.100291 -0.600753 1.379885 0.110490 -0.018225 404791.000000 0 0 1
-34.614775 23.726295 8.921608 42.903552 -0.600886 1.361322 0.117953 -0.036085 391982.000000 0 0 1
-33.659438 24.648495 9.355908 42.755574 -0.632071 1.350188 0.117329 -0.026803 193653.000000 0 0 1
-32.423578 23.896595 10.019808 41.505809 -0.635137 1.326980 0.135340 -0.036752 157871.000000 0 0 1
-31.499678 23.413595 9.127408 40.295604 -0.639197 1.342302 0.136302 -0.033119 -415976.000000 0 0 1
-30.626598 22.486895 9.743308 39.224750 -0.633330 1.319771 0.134538 -0.030850 118515.000000 0 0 1
-30.012678 21.424195 8.776108 37.904842 -0.619953 1.337146 0.124012 -0.035113 -114464.000000 0 0 1
-30.965068 20.631595 8.126008 38.085826 -0.587739 1.355783 0.131089 -0.048530 195111.000000 0 0 1
-30.369818 19.983495 6.998108 37.022148 -0.581982 1.380627 0.121846 -0.043630 221069.000000 0 0 1
-31.431758 19.243695 6.140108 37.362764 -0.549369 1.405710 0.119873 -0.031857 -47014.800000 0 0 1
-31.953718 18.091295 6.738608 37.332879 -0.515174 1.389301 0.114271 -0.029849 154754.000000 0 0 1
-32.989228 17.574195 5.930808 37.845951 -0.489484 1.413439 0.081441 -0.023543 118503.000000 0 0 1
-33.848578 16.421695 6.560908 38.189577 -0.451699 1.398141 0.101216 -0.016154 -61006.900000 0 0 1
-34.605338 16.931695 7.625608 39.272912 -0.455035 1.375385 0.081305 -0.024420 -14338.100000 0 0 1
-35.504799 15.934495 8.062908 39.743042 -0.421854 1.366502 0.087913 -0.032520 -303764.000000 0 0 1
-36.300268 16.372095 9.282408 40.889094 -0.423701 1.341786 0.088443 -0.033879 299423.000000 0 0 1
36.540732 17.090895 8.966708 41.324638 0.437493 1.352074 0.104122 -0.027388 699810.000000 0 0 1
35.931132 17.610595 10.154708 41.283137 0.455713 1.322269 0.122219 -0.026210 -306940.000000 0 0 1
34.767722 18.549095 9.933508 40.639120 0.490099 1.323862 0.097918 -0.022719 -886622.000000 0 0 1
33.670052 17.965895 9.285508 39.276793 0.490155 1.332125 0.092084 -0.026722 -155718.000000 0 0 1
32.763282 19.045295 9.110208 38.976298 0.526556 1.334877 0.090248 -0.031102 -370059.000000 0 0 1
31.440942 18.911195 8.367708 37.632230 0.541509 1.346567 0.089917 -0.033885 -473259.000000 0 0 1
30.948922 20.258795 8.195408 37.886928 0.579594 1.352761 0.082205 -0.034290 855314.000000 0 0 1
29.601612 20.478495 7.716508 36.812616 0.605204 1.359614 0.063652 -0.037408 1029140.000000 0 0 1
29.328332 19.962995 6.278208 36.028991 0.597637 1.395648 0.038613 -0.017067 -662039.000000 0 0 1
29.325472 18.520995 6.113808 35.219160 0.563308 1.396319 0.052488 -0.022762 222971.000000 0 0 1
28.974372 18.020295 4.792908 34.456019 0.556395 1.431242 0.054368 -0.023974 -297655.000000 0 0 1
27.589672 18.303395 4.181508 33.371984 0.585748 1.445166 0.067745 -0.013416 -765590.000000 0 0 1
26.566672 17.730795 4.966308 32.323883 0.588515 1.416543 0.071486 -0.021114 770983.000000 0 0 1
25.221372 17.946295 4.522808 31.283269 0.618436 1.425712 0.091220 -0.021205 677786.000000 0 0 1
24.616072 19.342595 4.927308 31.691724 0.666004 1.414687 0.096158 -0.017213 -717931.000000 0 0 1
25.210572 20.418895 4.283908 32.723938 0.680769 1.439509 0.087059 -0.022782 16216.700000 0 0 1
24.615572 21.643595 4.633808 33.103532 0.721240 1.430356 0.079968 -0.015339 -185482.000000 0 0 1
25.481872 22.922995 4.461708 34.564380 0.732583 1.441351 0.050681 -0.009746 81128.500000 0 0 1
26.719872 22.906595 5.148608 35.569254 0.708709 1.425537 0.051295 -0.017777 364594.000000 0 0 1
27.466172 24.079795 4.927708 36.857964 0.719796 1.436700 0.053173 -0.012459 -613863.000000 0 0 1
28.749372 24.116195 5.778308 37.967172 0.697981 1.418010 0.056454 -0.016572 -32084.400000 0 0 1
29.725882 23.081495 5.565308 38.044134 0.660233 1.423984 0.047126 -0.018170 811276.000000 0 0 1
30.436162 23.000495 4.361308 38.397966 0.647137 1.456969 0.049097 -0.021446 -258023.000000 0 0 1
31.427092 24.101895 3.928908 39.799495 0.654239 1.471918 0.074791 -0.032120 -303877.000000 0 0 1
30.696702 25.227395 3.511308 39.887821 0.687909 1.482653 0.066356 -0.025179 -51631.100000 0 0 1
31.471402 26.151195 2.808208 41.014878 0.693331 1.502275 0.112657 -0.020863 -400961.000000 0 0 1
30.868952 27.613095 2.795108 41.511298 0.729783 1.503412 0.100492 -0.012342 1128860.000000 0 0 1
29.568592 27.850795 2.249408 40.682039 0.755490 1.515476 0.126842 -0.013211 804233.000000 0 0 1
28.444072 27.591195 3.082308 39.747200 0.770179 1.493171 0.090531 -0.009604 712099.000000 0 0 1
27.106872 28.037695 2.387808 39.071684 0.802276 1.509645 0.048872 -0.003922 356991.000000 0 0 1
26.940872 29.434595 2.356608 39.971985 0.829604 1.511806 0.053391 -0.012894 -827663.000000 0 0 1
25.611172 29.790195 2.240608 39.349819 0.860687 1.513825 0.033421 -0.008334 -754245.000000 0 0 1
25.310972 31.279195 2.684708 40.326679 0.890474 1.504173 0.050594 -0.020517 -235570.000000 0 0 1
25.057772 31.347395 4.029708 40.333481 0.896447 1.470720 0.026557 -0.030287 -217777.000000 0 0 1
26.196872 31.296395 4.872708 41.103330 0.873864 1.451969 0.048442 -0.032301 -212563.000000 0 0 1
26.093372 31.257795 6.437408 41.223223 0.875205 1.413995 0.037249 -0.033741 -375638.000000 0 0 1
25.663872 30.042995 6.993608 40.126381 0.863847 1.395612 0.038594 -0.035313 -81691.700000 0 0 1
26.422072 28.877395 6.710508 39.712225 0.829770 1.401003 0.058025 -0.037479 -253235.000000 0 0 1
25.803372 27.517695 7.107908 38.386976 0.817538 1.384557 0.068063 -0.038505 -331760.000000 0 0 1
24.628472 27.277195 6.383108 37.300819 0.836383 1.398825 0.043924 -0.041770 -84752.200000 0 0 1
24.115672 25.965695 6.518808 36.031623 0.822322 1.388875 0.062118 -0.039169 -706809.000000 0 0 1
22.817372 25.725895 5.776308 34.868609 0.845243 1.404370 0.069158 -0.022442 -762199.000000 0 0 1
22.883672 25.597895 4.324208 34.606553 0.841324 1.445515 0.071840 -0.024915 233427.000000 0 0 1
23.418472 26.674195 3.604408 35.678135 0.850301 1.469598 0.056703 -0.022500 -336091.000000 0 0 1
23.611672 26.418695 2.040808 35.491174 0.841446 1.513263 0.053386 -0.012506 329259.000000 0 0 1
24.699072 25.545095 1.706708 35.573992 0.802235 1.522802 0.031405 0.006751 407894.000000 0 0 1
24.904872 25.544495 0.318408 35.677378 0.798076 1.561872 0.036083 0.001501 -416602.000000 0 0 1
26.237172 24.951895 -0.144292 36.207832 0.760295 1.574781 0.060857 -0.003093 -1007860.000000 0 0 1
27.333272 25.837095 0.025908 37.612019 0.757266 1.570108 0.080168 0.004321 475481.000000 0 0 1
28.507672 25.427095 -0.665192 38.205589 0.728343 1.588208 0.081618 0.013672 813711.000000 0 0 1
29.379192 24.310295 0.031108 38.133035 0.691266 1.569981 0.081807 0.005090 -136281.000000 0 0 1
28.607172 23.121095 -0.095892 36.782667 0.679737 1.573403 0.070207 -0.001523 509059.000000 0 0 1
29.200012 22.047695 0.624308 36.594144 0.646730 1.553735 0.070342 -0.006174 -369924.000000 0 0 1
28.159372 21.203095 1.331108 35.274543 0.645398 1.533052 0.074014 -0.012772 -426617.000000 0 0 1
27.471372 20.373595 0.449408 34.204702 0.638123 1.557657 0.084363 -0.024465 687047.000000 0 0 1
26.300972 19.815195 1.063708 32.947149 0.645675 1.538505 0.097657 -0.021443 469420.000000 0 0 1
25.746272 18.618195 0.173408 31.773225 0.626089 1.565339 0.092846 -0.028630 -517298.000000 0 0 1
24.460672 18.174195 0.477408 30.477103 0.639004 1.555131 0.104974 -0.025118 -132800.000000 0 0 1
24.003672 16.973795 -0.160292 29.399179 0.615497 1.576249 0.117894 -0.049025 -292657.000000 0 0 1
22.551472 16.797395 0.302508 28.121396 0.640195 1.560039 0.109586 -0.033603 -517875.000000 0 0 1
21.932172 15.629895 -0.287892 26.933190 0.619164 1.581486 0.114130 -0.035655 486498.000000 0 0 1
20.543372 15.513295 -0.089192 25.742969 0.646788 1.574261 0.125936 -0.032499 51178.900000 0 0 1
19.558572 16.349395 -0.923692 25.508698 0.696263 1.607015 0.136157 -0.039539 -374341.000000 0 0 1
19.324172 17.638595 -0.299292 26.165498 0.739828 1.582235 0.098947 -0.033415 655101.000000 0 0 1
18.310072 18.358495 -1.022892 25.948784 0.786719 1.610226 0.084857 -0.036614 431860.000000 0 0 1
18.177872 19.759495 -0.357592 26.851454 0.827064 1.584114 0.083800 -0.031231 -194729.000000 0 0 1
17.366772 19.785895 0.798608 26.338645 0.850419 1.540471 0.086726 -0.029789 190535.000000 0 0 1
17.556472 21.014295 1.525008 27.425462 0.874808 1.515162 0.098267 -0.033309 -112848.000000 0 0 1
16.632172 22.170295 1.106208 27.737607 0.927167 1.530905 0.082917 -0.040971 309852.000000 0 0 1
15.282472 21.990495 1.508008 26.821818 0.963462 1.514543 0.071531 -0.038319 385296.000000 0 0 1
14.365972 22.898695 0.958708 27.049039 1.010494 1.535346 0.057039 -0.040359 1232050.000000 0 0 1
12.845072 22.873395 1.380808 26.269654 1.059112 1.518209 0.047347 -0.040540 1159330.000000 0 0 1
12.599372 23.093295 2.752708 26.450366 1.071349 1.466537 0.044831 -0.021130 39792.600000 0 0 1
11.209372 23.019195 3.010408 25.779758 1.117637 1.453755 0.035758 -0.026968 299447.000000 0 0 1
10.967272 23.419395 4.524508 26.253006 1.132830 1.397589 0.041938 -0.021249 375223.000000 0 0 1
11.674672 22.499395 5.380808 25.912813 1.092153 1.361624 0.047804 -0.037638 212888.000000 0 0 1
11.027972 22.458595 6.598008 25.875440 1.114346 1.312958 0.033077 -0.026255 -995402.000000 0 0 1
11.454572 21.311195 7.611708 25.363603 1.077608 1.265995 0.042266 -0.026405 1275980.000000 0 0 1
12.696472 21.523895 8.351708 26.348235 1.037853 1.248259 0.051381 -0.021974 1387120.000000 0 0 1
13.872972 21.671695 7.594808 26.829142 1.001382 1.283792 0.064778 -0.018478 -942689.000000 0 0 1
15.221972 21.711695 8.299008 27.784523 0.959335 1.267475 0.075267 -0.020504 -833687.000000 0 0 1
15.655172 20.410595 8.666708 27.143851 0.916496 1.245818 0.085825 -0.022657 1893280.000000 0 0 1
16.984872 20.355395 9.318308 28.100870 0.875419 1.232795 0.078794 -0.030369 1836430.000000 0 0 1
17.118772 21.155095 10.598108 29.204628 0.890469 1.199427 0.070479 -0.017760 -797044.000000 0 0 1
16.635672 20.546795 11.755908 28.932988 0.890200 1.152379 0.074546 -0.028754 -32337.200000 0 0 1
16.821372 21.368395 12.892808 30.096368 0.903904 1.128093 0.074311 -0.020668 -239492.000000 0 0 1
17.763172 20.778295 13.963708 30.696140 0.863470 1.098535 0.076821 -0.012520 1110680.000000 0 0 1
19.144772 21.115395 13.702008 31.624789 0.834306 1.122681 0.067026 -0.013778 462527.000000 0 0 1
19.994972 20.573095 14.676308 32.224916 0.799648 1.097937 0.053955 -0.016608 -969836.000000 0 0 1
21.389672 21.136095 14.538008 33.400693 0.779435 1.120469 0.055417 -0.015897 -995964.000000 0 0 1
21.892472 20.747995 13.264408 32.950025 0.758564 1.156483 0.056380 -0.022059 -288706.000000 0 0 1
23.221772 21.214095 13.165808 34.097317 0.740247 1.174370 0.079875 -0.018898 -125105.000000 0 0 1
24.026072 20.522895 12.081608 33.829080 0.706923 1.205596 0.080924 -0.017796 -268584.000000 0 0 1
23.757172 21.122495 10.817108 33.579352 0.726760 1.242812 0.093652 -0.020290 761954.000000 0 0 1
24.756172 20.786295 9.839808 33.789939 0.698449 1.275310 0.103665 -0.034028 -59523.300000 0 0 1
24.635072 21.634095 8.552008 33.883000 0.720630 1.315638 0.099055 -0.030583 -18306.000000 0 0 1
25.071072 22.994295 8.661808 35.104461 0.742218 1.321478 0.082270 -0.023298 1037580.000000 0 0 1
26.504572 23.102995 8.668008 36.212914 0.716936 1.329087 0.068359 -0.029064 244489.000000 0 0 1
26.984672 24.419995 9.304108 37.564280 0.735548 1.320506 0.078249 -0.027143 -94083.600000 0 0 1
28.366172 24.612595 9.059108 38.632720 0.714666 1.334099 0.062142 -0.024931 320540.000000 0 0 1
28.786572 25.755095 9.722308 39.831080 0.729874 1.324217 0.071969 -0.028118 -530769.000000 0 0 1
30.034362 26.475695 9.267308 41.096330 0.722507 1.343338 0.069361 -0.037166 -669909.000000 0 0 1
29.851232 27.211295 8.084108 41.193488 0.739167 1.373267 0.078292 -0.044532 -92638.400000 0 0 1
31.010002 27.892995 7.683808 42.410852 0.732530 1.388615 0.095104 -0.037654 -754038.000000 0 0 1
31.016972 28.667095 6.348008 42.710094 0.746047 1.421613 0.123588 -0.025206 137673.000000 0 0 1
30.408882 29.972995 6.442208 43.180813 0.778179 1.421046 0.131371 -0.031558 313788.000000 0 0 1
30.406702 30.695695 5.209908 43.519380 0.790128 1.450794 0.157950 -0.028327 -6024.350000 0 0 1
30.534102 32.198795 5.430708 44.705553 0.811928 1.449018 0.106746 -0.026503 -527794.000000 0 0 1
29.410172 32.728195 6.025908 44.411762 0.838745 1.434694 0.093783 -0.035772 -489219.000000 0 0 1
29.563382 -33.961576 6.219708 45.454010 -0.854524 1.433530 0.072692 -0.028176 -385028.000000 0 0 1
28.258872 -33.373976 6.743308 44.247693 -0.868202 1.417801 0.070505 -0.033574 1271990.000000 0 0 1
27.131372 -33.630176 5.805608 43.598225 -0.891949 1.437238 0.057048 -0.030789 2070820.000000 0 0 1
26.018772 -32.708176 5.981208 42.220565 -0.898816 1.428652 0.037084 -0.033409 1023290.000000 0 0 1
24.908672 -32.843476 4.901508 41.510970 -0.921937 1.452443 0.039052 -0.032389 -44163.800000 0 0 1
25.198472 -32.336676 3.666308 41.159026 -0.908834 1.481601 0.036018 -0.019856 207633.000000 0 0 1
24.088172 -32.457676 2.762808 40.513873 -0.932344 1.502549 0.036290 -0.022946 316325.000000 0 0 1
24.454272 -31.919176 1.385808 40.233888 -0.917051 1.536346 0.033780 -0.014396 65315.600000 0 0 1
24.743672 -30.541676 1.559108 39.337948 -0.889890 1.531152 0.046067 -0.008295 98273.500000 0 0 1
25.375372 -29.877776 0.485608 39.202383 -0.866705 1.558409 0.041162 -0.009562 -325835.000000 0 0 1
25.731372 -28.399376 0.798308 38.330998 -0.834646 1.549968 0.038293 -0.009607 40071.600000 0 0 1
24.607172 -27.536076 0.908008 36.940126 -0.841510 1.546213 0.045984 -0.007258 -29476.200000 0 0 1
23.956572 -27.246876 -0.275092 36.282024 -0.849569 1.578378 0.059022 -0.010453 -497947.000000 0 0 1
22.830272 -26.213976 -0.170792 34.762380 -0.854282 1.575709 0.061872 -0.008702 -331485.000000 0 0 1
23.211372 -24.826776 -0.058592 33.987351 -0.819013 1.572520 0.062705 -0.014508 -285595.000000 0 0 1
23.455872 -24.218976 1.216208 33.737456 -0.801403 1.534739 0.050087 -0.004804 417001.000000 0 0 1
22.206472 -24.084976 2.140908 32.829818 -0.825956 1.505538 0.054797 -0.012222 425107.000000 0 0 1
22.449372 -23.438476 3.381108 32.630789 -0.806950 1.466993 0.046893 -0.010616 -540833.000000 0 0 1
21.271972 -23.291076 4.128708 31.812219 -0.830676 1.440645 0.062270 -0.013164 -284780.000000 0 0 1
21.377572 -22.364576 5.340008 31.395709 -0.807958 1.399878 0.064930 -0.012913 -24644.000000 0 0 1
21.380372 -20.968576 5.083408 30.375032 -0.775675 1.402650 0.098154 -0.018060 955801.000000 0 0 1
20.123072 -20.443376 4.591008 29.050766 -0.793294 1.412097 0.071613 -0.017610 407764.000000 0 0 1
19.852072 -18.964376 4.991108 27.904543 -0.762533 1.390965 0.083134 -0.016738 251807.000000 0 0 1
19.361372 -18.720276 6.331208 27.665785 -0.768565 1.339904 0.098702 -0.021271 392044.000000 0 0 1
17.949372 -18.897176 6.427108 26.843825 -0.811115 1.329022 0.055826 -0.017872 381443.000000 0 0 1
19.131462 -25.930075 -11.905492 34.352909 -0.935143 1.924702 0.106071 -0.028410 135103.000000 0 0 1
19.078962 -24.601705 -12.332292 33.486357 -0.911165 1.947953 0.122312 -0.026441 -352306.000000 0 0 1
17.786662 -24.168505 -12.696892 32.583631 -0.936352 1.971071 0.090236 -0.027910 -102864.000000 0 0 1
17.757062 -22.635905 -13.081492 31.604159 -0.905600 1.997549 0.092765 -0.029684 31430.100000 0 0 1
17.828162 -21.716805 -12.005592 30.554823 -0.883418 1.974601 0.107666 -0.035521 1110440.000000 0 0 1
19.145162 -21.450105 -11.412292 30.933552 -0.842116 1.948653 0.100342 -0.036702 848216.000000 0 0 1
19.433362 -22.213605 -10.149792 31.210865 -0.852057 1.902020 0.109403 -0.027530 15830.900000 0 0 1
18.671662 -21.962705 -8.969392 30.190087 -0.866213 1.872448 0.097008 -0.030960 806545.000000 0 0 1
17.265562 -22.269305 -9.072192 29.602808 -0.911294 1.882272 0.095072 -0.010153 367880.000000 0 0 1
16.540862 -21.587605 -7.937092 28.330588 -0.916995 1.854757 0.085663 -0.025424 -1111650.000000 0 0 1
16.412162 -20.196105 -8.251892 27.300832 -0.888395 1.877857 0.082616 -0.033681 412366.000000 0 0 1
15.568362 -19.410305 -7.409592 25.962201 -0.894796 1.860219 0.078925 -0.039579 961124.000000 0 0 1
14.028762 -19.538905 -7.696992 25.255072 -0.948097 1.880493 0.068100 -0.016373 371276.000000 0 0 1
13.555762 -20.808805 -7.417392 25.918772 -0.993407 1.861032 0.056042 -0.021274 -651785.000000 0 0 1
12.223862 -20.883605 -7.850092 25.439570 -1.041231 1.884494 0.058325 -0.018587 113795.000000 0 0 1
11.459862 -22.240005 -7.675992 26.169966 -1.094998 1.868487 0.062023 -0.017653 319466.000000 0 0 1
11.444862 -22.566305 -6.284092 26.071302 -1.101432 1.814228 0.061975 -0.018509 353277.000000 0 0 1
10.723062 -23.812905 -6.097292 26.818193 -1.147689 1.800159 0.045395 -0.016332 477008.000000 0 0 1
10.958962 -24.408005 -4.642292 27.155118 -1.148782 1.742595 0.059684 -0.015082 262967.000000 0 0 1
10.220962 -25.575165 -4.306592 27.876582 -1.190597 1.725905 0.048045 -0.013375 -270806.000000 0 0 1
10.902062 -26.140615 -3.174092 28.500203 -1.175675 1.682399 0.052863 -0.018893 555834.000000 0 0 1
9.908262 -26.837545 -2.190092 28.691880 -1.217125 1.647202 0.047689 -0.015101 54837.200000 0 0 1
9.124662 -25.969635 -1.433192 27.563298 -1.232911 1.622816 0.037827 -0.012092 -616156.000000 0 0 1
8.388962 -26.760315 -0.541892 28.049648 -1.267014 1.590117 0.037625 -0.017472 -65281.700000 0 0 1
7.565462 -26.060765 0.539908 27.142055 -1.288261 1.550903 0.042078 -0.017180 148373.000000 0 0 1
6.375862 -25.396295 0.164808 26.184930 -1.324825 1.564502 0.043146 -0.022989 -292643.000000 0 0 1
5.624262 -25.150495 1.323008 25.805621 -1.350792 1.519506 0.049848 -0.018909 -1352460.000000 0 0 1
4.220062 -24.705305 1.065708 25.085787 -1.401613 1.528301 0.041649 -0.024252 -1179840.000000 0 0 1
3.372562 -25.766325 0.703508 25.995626 -1.440646 1.543730 0.042514 -0.024848 43172.700000 0 0 1
2.037762 -25.268325 0.614708 25.357811 -1.490326 1.546553 0.047219 -0.024127 20236.100000 0 0 1
1.046162 -26.316275 0.148408 26.337479 -1.531064 1.565161 0.063818 -0.023697 -320956.000000 0 0 1
0.749262 -27.296845 1.140208 27.330920 -1.543355 1.529066 0.060073 -0.023275 -127116.000000 0 0 1
1.292062 -28.556695 0.923508 28.600823 -1.525582 1.538501 0.050740 -0.024275 -301345.000000 0 0 1
0.714962 -29.499415 1.975108 29.574105 -1.546565 1.503962 0.076130 -0.032066 133537.000000 0 0 1
1.141562 -29.324075 3.332808 29.534931 -1.531887 1.457713 0.049740 -0.029064 -273536.000000 0 0 1
0.451162 -30.224035 4.098908 30.504047 -1.555870 1.436016 0.075401 -0.030330 -340305.000000 0 0 1
0.693962 -30.177155 5.611508 30.702301 -1.547804 1.386992 0.067782 -0.029182 -300160.000000 0 0 1
1.994262 -30.557045 6.007408 31.205753 -1.505625 1.377077 0.037293 -0.014669 3422.700000 0 0 1
2.057562 -30.368955 7.390808 31.323011 -1.503148 1.332596 0.045640 -0.007361 1307240.000000 0 0 1
3.443562 -30.985845 7.876008 32.156060 -1.460117 1.323348 0.054963 -0.012336 1219530.000000 0 0 1
3.649662 -32.367695 7.697908 33.470068 -1.458514 1.338725 0.060029 -0.016738 1113590.000000 0 0 1
5.061762 -32.615375 7.936808 33.946679 -1.416829 1.334810 0.053800 -0.015792 1292440.000000 0 0 1
5.327262 33.986055 7.645308 35.240352 1.415313 1.352110 0.047287 -0.014462 -351265.000000 0 0 1
5.202962 33.690519 6.265308 34.660871 1.417573 1.389037 0.040471 -0.009693 26944.000000 0 0 1
4.932662 32.348685 6.032008 33.273919 1.419478 1.388505 0.040384 -0.015304 -576280.000000 0 0 1
5.079362 31.972097 4.501008 32.684461 1.413244 1.432646 0.043779 -0.010888 -984028.000000 0 0 1
6.385462 31.997147 4.073208 32.881341 1.373821 1.446601 0.044385 -0.008539 -1156390.000000 0 0 1
7.038362 30.756937 4.399508 31.857234 1.345832 1.432253 0.034787 -0.011342 -983536.000000 0 0 1
8.384262 30.688297 3.715008 32.029185 1.304098 1.454546 0.029936 -0.009201 -691595.000000 0 0 1
9.384862 31.458937 4.373708 33.119023 1.280881 1.438349 0.036262 -0.008634 -68941.800000 0 0 1
10.556362 31.504587 3.572508 33.417639 1.247480 1.463687 0.032215 -0.013806 539156.000000 0 0 1
11.821262 31.985297 4.348708 34.376049 1.216782 1.443952 0.058731 -0.030283 267604.000000 0 0 1
12.325662 31.017397 5.220608 33.782475 1.192551 1.415639 0.062432 -0.020129 -431134.000000 0 0 1
13.615362 31.417257 5.624508 34.699527 1.161856 1.407986 0.084186 -0.020308 -134830.000000 0 0 1
14.314562 30.401667 6.526408 34.231010 1.130741 1.378964 0.064956 -0.022683 -268411.000000 0 0 1
13.800162 30.151187 7.833608 34.072041 1.141559 1.338808 0.060559 -0.014435 156.723000 0 0 1
14.466062 29.037377 8.424808 33.517363 1.108600 1.316715 0.052121 -0.014948 230934.000000 0 0 1
14.327962 29.023987 9.967108 33.867766 1.112234 1.272079 0.045669 0.004713 190185.000000 0 0 1
15.138662 30.047317 10.519808 35.251762 1.104091 1.267760 0.050238 -0.000484 181126.000000 0 0 1
14.620562 30.462157 11.804108 35.791630 1.123310 1.234704 0.047235 -0.000021 -229479.000000 0 0 1
15.473062 31.383207 12.698208 37.223189 1.112735 1.222670 0.050084 0.000370 507355.000000 0 0 1
16.562062 30.607087 13.270508 37.245161 1.074797 1.206490 0.052918 -0.006529 797351.000000 0 0 1
17.083062 31.266757 14.418108 38.435959 1.070748 1.186270 0.051200 -0.005927 298065.000000 0 0 1
18.171162 30.494187 15.219708 38.622870 1.033405 1.165752 0.049071 -0.013509 1085620.000000 0 0 1
19.482762 30.345077 14.656508 38.925762 1.000037 1.184754 0.046221 -0.010090 844259.000000 0 0 1
19.941262 29.015167 14.616608 38.120586 0.968665 1.177288 0.043560 -0.007063 -253016.000000 0 0 1
21.355962 28.791287 14.077008 38.512043 0.932596 1.196603 0.066249 -0.011426 -275667.000000 0 0 1
22.380562 29.104107 14.985508 39.654811 0.915256 1.183271 0.064526 -0.016852 153009.000000 0 0 1
23.665162 29.062627 14.377808 40.142216 0.887408 1.204487 0.063377 -0.013465 219515.000000 0 0 1
24.840862 29.237807 15.354208 41.323958 0.866526 1.190111 0.079247 -0.018099 -263702.000000 0 0 1
25.050862 28.105937 16.179708 40.978925 0.842808 1.164914 0.076305 -0.013180 -387121.000000 0 0 1
25.937562 28.380557 17.190408 42.115594 0.830344 1.150346 0.070591 -0.014429 -300154.000000 0 0 1
26.927562 27.228167 17.625708 42.156046 0.790949 1.139437 0.049048 -0.002272 219240.000000 0 0 1
26.311862 26.040777 18.071808 41.194980 0.780220 1.116656 0.058298 0.005431 12724.800000 0 0 1
25.996162 26.052407 19.451108 41.627803 0.786479 1.084604 0.074342 0.000900 -201609.000000 0 0 1
25.344862 24.782047 19.889508 40.646087 0.774171 1.059471 0.079684 -0.006671 -132967.000000 0 0 1
26.286962 23.712767 19.965908 40.644030 0.733959 1.057285 0.056296 -0.003337 286467.000000 0 0 1
25.694262 22.435567 20.032108 39.557997 0.717795 1.039793 0.063919 -0.012138 -569141.000000 0 0 1
26.701662 21.326767 20.096608 39.644462 0.673951 1.039187 0.041135 -0.018224 -364585.000000 0 0 1
26.036862 20.042567 20.171708 38.555421 0.656038 1.020210 0.034356 -0.005796 542918.000000 0 0 1
26.892762 18.908867 20.010608 38.486236 0.612818 1.024013 0.042868 -0.022099 141958.000000 0 0 1
27.527262 18.412167 21.340808 39.397819 0.589527 0.998368 0.080843 -0.007234 212080.000000 0 0 1
26.569362 17.848967 22.236508 38.974080 0.591539 0.963626 0.052964 0.000363 565363.000000 0 0 1
27.219462 17.583967 23.465908 40.009297 0.573563 0.944051 0.082233 -0.000967 -126654.000000 0 0 1
26.291062 16.940767 24.511108 39.736683 0.572396 0.906077 0.054151 0.010333 -86625.100000 0 0 1
26.131862 15.585467 24.228708 38.894875 0.537780 0.898316 0.047456 -0.004240 408213.000000 0 0 1
24.976562 15.123867 24.914208 38.383300 0.544470 0.864409 0.038382 0.003080 56542.600000 0 0 1
24.583862 13.742367 24.363508 37.239756 0.509726 0.857627 0.036871 0.005904 -876028.000000 0 0 1
23.404162 13.197367 24.852808 36.600374 0.513445 0.824354 0.015129 0.007925 -230431.000000 0 0 1
23.021762 12.046067 24.112508 35.447458 0.482072 0.822717 0.028002 0.000708 57281.600000 0 0 1
21.694362 11.440767 24.634708 34.762125 0.485296 0.783192 0.024710 -0.005086 231249.000000 0 0 1
20.582862 12.319167 24.474508 34.269777 0.539327 0.775356 0.037396 -0.004899 -26452.300000 0 0 1
19.412362 11.555567 24.639908 33.428969 0.536933 0.742053 0.048504 -0.008820 -442123.000000 0 0 1
18.104462 12.353767 24.637108 32.975357 0.598789 0.727052 0.033969 -0.015567 -211852.000000 0 0 1
17.865762 12.940767 25.923208 34.039119 0.626871 0.705062 0.052782 -0.007852 327862.000000 0 0 1
16.706962 13.750467 26.012508 33.835610 0.688632 0.693848 0.075469 -0.009526 914.616000 0 0 1
16.595062 14.196567 27.495808 35.113502 0.707661 0.671233 0.054987 0.005436 -16118.500000 0 0 1
16.011862 13.183367 28.314908 35.098645 0.688817 0.632210 0.081745 0.007151 207525.000000 0 0 1
15.937362 13.470167 29.719008 36.313418 0.701697 0.612170 0.064424 0.007413 472390.000000 0 0 1
17.284962 13.237867 30.486708 37.462653 0.653575 0.620153 0.052713 0.003080 1516880.000000 0 0 1
18.409662 14.108567 30.218608 38.093721 0.653894 0.654635 0.069398 -0.006271 901859.000000 0 0 1
19.610162 13.446167 29.920408 38.217649 0.601046 0.671491 0.053368 0.001079 -292521.000000 0 0 1
20.776862 14.389067 29.578608 38.905235 0.605710 0.707063 0.052330 -0.000661 -432720.000000 0 0 1
20.715062 15.131967 28.378808 38.255025 0.630892 0.734998 0.060958 -0.006065 108172.000000 0 0 1
20.873462 14.394067 27.150008 37.148533 0.603703 0.751230 0.048502 -0.001602 -492273.000000 0 0 1
20.656762 15.369867 25.976108 36.574483 0.639689 0.780979 0.052527 -0.000880 -491266.000000 0 0 1
21.734162 16.185467 25.668808 37.326007 0.640102 0.812491 0.060838 -0.002277 -188546.000000 0 0 1
21.348762 17.011067 24.581708 36.734267 0.672797 0.837696 0.044302 -0.005801 297256.000000 0 0 1
22.554262 17.823067 24.013608 37.456773 0.668756 0.874863 0.052416 -0.009016 -193229.000000 0 0 1
22.310962 18.508267 22.810208 36.886862 0.692507 0.904113 0.050703 -0.019345 -742335.000000 0 0 1
23.350762 19.192567 22.219508 37.514254 0.687967 0.936892 0.047919 -0.014342 -683053.000000 0 0 1
23.539062 20.586867 22.861008 38.736704 0.718594 0.939534 0.068341 -0.024830 -308375.000000 0 0 1
22.504962 21.420767 22.433508 38.322120 0.760721 0.945431 0.066924 -0.016979 -49890.600000 0 0 1
22.474762 22.617867 23.093308 39.369832 0.788572 0.943975 0.089586 -0.016003 284870.000000 0 0 1
21.549362 23.733417 22.415308 39.116443 0.833592 0.960585 0.089220 -0.023536 489025.000000 0 0 1
22.128462 24.542217 21.419808 39.380165 0.837071 0.995690 0.088662 -0.019775 347027.000000 0 0 1
21.298262 25.687717 21.164708 39.514803 0.878548 1.005561 0.083042 -0.023969 195411.000000 0 0 1
21.819862 26.465207 19.937308 39.673792 0.881310 1.044273 0.079478 -0.022550 -119668.000000 0 0 1
21.568162 25.894167 18.707108 38.544122 0.876293 1.064041 0.066240 -0.015890 -9932.640000 0 0 1
22.085662 26.638677 17.614508 38.828681 0.878572 1.099943 0.067552 -0.023653 -95005.500000 0 0 1
22.320362 25.864507 16.303008 37.854449 0.858819 1.125555 0.062498 -0.013538 -854722.000000 0 0 1
21.131362 25.476827 15.715608 36.641281 0.878363 1.127517 0.046860 -0.013441 -919479.000000 0 0 1
21.192462 25.143577 14.350708 35.878444 0.870463 1.159300 0.056556 -0.008129 -546718.000000 0 0 1
19.909462 24.538177 13.719108 34.448842 0.889163 1.161193 0.064641 -0.002247 235366.000000 0 0 1
18.773062 25.339277 13.569108 34.331145 0.933165 1.164465 0.058910 -0.001506 -321074.000000 0 0 1
18.035162 25.495307 14.760408 34.541966 0.955127 1.129272 0.052406 -0.010565 -1927900.000000 0 0 1
16.646962 26.123467 14.573608 34.233710 1.003442 1.131051 0.044924 -0.003492 -139061.000000 0 0 1
15.710662 25.076977 14.153508 32.802461 1.011121 1.124667 0.053026 -0.004499 524790.000000 0 0 1
15.225962 24.273657 15.227508 32.448688 1.010571 1.082322 0.076157 -0.010593 -838223.000000 0 0 1
14.207862 24.916377 16.172408 32.927738 1.052560 1.057389 0.093771 -0.016874 -616198.000000 0 0 1
14.773862 25.940357 16.996308 34.351763 1.053081 1.053223 0.081254 -0.013874 352088.000000 0 0 1
13.805262 26.433907 17.912008 34.787594 1.089503 1.029910 0.080226 -0.016483 73885.600000 0 0 1
14.288262 27.664887 18.690208 36.315620 1.094055 1.030185 0.082434 -0.021987 -325516.000000 0 0 1
14.400262 28.794087 17.920908 36.845976 1.107059 1.062862 0.071760 -0.016757 34537.600000 0 0 1
15.054762 29.836977 18.560508 38.228046 1.103502 1.063838 0.048066 -0.008791 -613129.000000 0 0 1
15.007662 31.066757 17.763908 38.806310 1.120778 1.095324 0.040837 -0.007736 1446590.000000 0 0 1
13.638962 31.581357 17.869008 38.764737 1.163123 1.091719 0.060346 -0.006217 1572010.000000 0 0 1
13.400562 32.747739 17.115308 39.305511 1.182379 1.120266 0.053867 -0.002719 230141.000000 0 0 1
11.985662 33.393457 17.138108 39.401698 1.226195 1.120804 0.066704 -0.010947 192848.000000 0 0 1
11.920362 -33.514985 16.307108 39.131458 -1.229077 1.140955 0.072632 -0.013488 25209.200000 0 0 1
12.598062 -32.342195 16.815008 38.567774 -1.199353 1.119663 0.058154 -0.018158 111390.000000 0 0 1
12.376362 -31.811145 18.238108 38.700799 -1.199759 1.080078 0.058681 -0.017223 -171508.000000 0 0 1
13.135862 -32.600135 19.134208 40.017965 -1.187759 1.072260 0.062026 -0.013138 236996.000000 0 0 1
12.802462 -32.415475 20.503208 40.435721 -1.194652 1.039030 0.064447 -0.017789 312227.000000 0 0 1
13.979362 -32.959005 21.388408 41.703507 -1.169651 1.032274 0.073157 -0.009146 1498210.000000 0 0 1
15.213162 -32.223775 21.270708 41.500060 -1.129709 1.032649 0.070238 -0.006080 950313.000000 0 0 1
16.331262 -32.742495 21.990408 42.689098 -1.108126 1.029638 0.074625 -0.005021 842333.000000 0 0 1
17.594462 -31.902355 21.637708 42.373526 -1.066795 1.034865 0.087432 -0.007716 143285.000000 0 0 1
17.580162 -30.642525 22.285308 41.769144 -1.049926 1.008021 0.084489 -0.014081 -293985.000000 0 0 1
18.630862 -29.831955 21.878708 41.421400 -1.012537 1.014319 0.082513 -0.014430 -593405.000000 0 0 1
-4.787438 12.908395 18.633074 23.167600 -1.215644 0.636345 0.039374 -0.004501 -25485.600000 0 1 0
-4.688838 14.167895 18.004274 23.385217 -1.251194 0.692112 0.047795 -0.009984 21269.800000 0 1 0
-5.984938 14.723295 18.030274 24.035093 -1.184704 0.722485 0.034358 -0.005033 94930.200000 0 1 0
-6.120038 16.185295 17.732074 24.775898 -1.209290 0.773173 0.044380 -0.004149 321218.000000 0 1 0
-5.385638 16.931395 18.735774 25.820660 -1.262831 0.758873 0.053797 -0.000601 452330.000000 0 0 1
-5.397638 18.283195 18.349274 26.459509 -1.283727 0.804481 0.063455 0.005657 -420120.000000 0 0 1
-4.753038 19.274595 19.336374 27.712755 -1.329024 0.798555 0.064229 -0.006888 -230236.000000 0 0 1
-5.424838 19.408195 20.611874 28.826312 -1.298240 0.774120 0.042824 -0.002838 -242872.000000 0 0 1
-4.796638 20.219095 21.531274 29.923491 -1.337869 0.767651 0.040706 -0.000357 -565234.000000 0 0 1
-5.689338 20.528795 22.718674 31.143830 -1.300442 0.753241 0.018371 -0.001960 -121194.000000 0 0 1
-6.045138 19.362495 23.514804 31.054725 -1.268177 0.711772 0.015417 -0.009657 -13546.000000 0 0 1
-6.846138 19.659395 24.622824 32.243525 -1.235693 0.701846 0.006389 -0.008435 -142952.000000 0 0 1
-6.031738 20.232095 25.793704 33.332188 -1.281059 0.685918 0.000525 -0.010659 -663111.000000 0 0 1
-5.646038 21.564895 25.525024 33.888779 -1.314728 0.717883 0.007993 -0.014752 -123645.000000 0 0 1
-4.534738 22.146395 26.154544 34.570028 -1.368826 0.712749 0.023420 -0.008264 357530.000000 0 0 1
-3.148238 21.537395 25.799214 33.754559 -1.425649 0.700813 0.043460 -0.005609 -348329.000000 0 0 1
-2.836538 20.299695 26.401734 33.424170 -1.431962 0.660151 0.053660 0.000391 320002.000000 0 0 1
-1.503338 19.983595 26.004874 32.830742 -1.495709 0.656572 0.054429 -0.001673 577321.000000 0 0 1
-0.863238 18.779395 26.717434 32.668520 -1.524861 0.613159 0.056996 0.006166 -131181.000000 0 0 1
-1.323338 17.589895 26.074124 31.480400 -1.495705 0.594792 0.063836 -0.000567 -78905.700000 0 0 1
-0.654238 16.418195 26.488104 31.170577 -1.530969 0.555230 0.063565 -0.005691 -145522.000000 0 0 1
0.836262 16.208795 26.140814 30.769572 1.519249 0.555632 0.078774 -0.004187 -83194.700000 0 0 1
1.152862 15.940195 24.769294 29.477735 1.498598 0.573013 0.067586 -0.005694 -145414.000000 0 0 1
0.924762 14.592895 24.385714 28.433622 1.507510 0.540140 0.075638 -0.003532 -152988.000000 0 0 1
1.154062 14.338895 22.896574 27.040505 1.490485 0.560948 0.089241 -0.018692 127991.000000 0 0 1
2.528062 14.465895 22.584474 26.939037 1.397783 0.576538 0.075095 -0.019036 -47118.600000 0 0 1
2.767062 14.020395 21.266374 25.621998 1.375941 0.591681 0.068214 -0.019321 345025.000000 0 0 1
4.296462 14.062295 21.011574 25.645545 1.274273 0.610595 0.058614 -0.017625 307643.000000 0 0 1
4.744662 15.137195 20.224974 25.704009 1.267052 0.665122 0.049880 -0.019443 -415782.000000 0 0 1
6.147762 15.137595 20.131974 25.927556 1.185021 0.681752 0.058697 -0.020420 -251134.000000 0 0 1
6.592662 16.131095 19.054374 25.821398 1.182819 0.740799 0.063008 -0.020836 -126685.000000 0 0 1
6.305562 15.646595 17.746674 24.485108 1.187707 0.760060 0.062017 -0.031120 238434.000000 0 1 0
6.707562 16.653395 16.832174 24.609938 1.187900 0.817621 0.057871 -0.021247 -160791.000000 0 1 0
6.813162 16.186495 15.347974 23.323425 1.172390 0.852571 0.050053 -0.019183 -60242.700000 0 1 0
7.838762 15.355695 14.832674 22.743170 1.098801 0.860338 0.043396 -0.018684 49440.500000 0 1 0
7.950462 14.107195 15.443474 22.376857 1.057591 0.809095 0.044640 -0.021652 -68598.400000 0 1 0
9.069562 13.234395 14.808674 21.833530 0.970003 0.825413 0.047464 -0.026217 -71405.900000 0 1 0
10.350562 13.783795 14.975174 22.833813 0.926705 0.855510 0.043899 -0.028798 -584681.000000 0 1 0
11.272862 13.020795 14.268574 22.365392 0.857225 0.878930 0.049906 -0.018562 -505937.000000 0 1 0
12.713762 13.537595 14.369474 23.481653 0.816770 0.912279 0.058026 -0.010219 -873511.000000 0 1 0
13.357562 13.266495 15.587374 24.441575 0.781978 0.879236 0.056676 -0.020893 1494600.000000 0 1 0
14.741162 13.712295 15.622674 25.483266 0.749254 0.910873 0.056378 -0.019711 1587930.000000 0 0 1
15.809962 12.929595 14.799474 25.222089 0.685509 0.943737 0.065467 -0.021171 -1235920.000000 0 0 1
17.121262 13.239595 15.128574 26.406406 0.658237 0.960741 0.066941 -0.037422 -424525.000000 0 0 1
17.959262 12.861295 14.053274 26.180958 0.621474 1.004187 0.065365 -0.030404 -454886.000000 0 0 1
19.316462 13.556895 14.174974 27.528985 0.611954 1.029893 0.065158 -0.034851 -569408.000000 0 0 1
20.190762 13.046895 15.135974 28.407500 0.573686 1.008871 0.047943 -0.039111 52182.600000 0 0 1
21.483262 13.619095 14.964174 29.511639 0.565002 1.039026 0.043919 -0.038925 126505.000000 0 0 1
22.321562 13.296695 16.212074 30.624918 0.537243 1.012932 0.059613 -0.032893 -428605.000000 0 0 1
22.783462 11.930295 16.303574 30.450363 0.482379 1.005798 0.066773 -0.033566 198698.000000 0 0 1
23.421062 11.909495 17.555674 31.600379 0.470421 0.981769 0.054153 -0.037828 -494081.000000 0 0 1
23.923362 10.449295 17.815074 31.605251 0.411808 0.971969 0.072721 -0.026778 -597415.000000 0 0 1
22.876362 9.624795 18.234974 30.797385 0.398249 0.937140 0.052765 -0.025703 117207.000000 0 0 1
22.674662 8.459495 17.452374 29.837707 0.357088 0.946027 0.050607 -0.012654 84440.700000 0 0 1
21.513062 7.559595 17.983274 29.040618 0.337918 0.903015 0.073659 -0.014326 219571.000000 0 0 1
21.399062 6.254995 17.434674 28.302168 0.284380 0.907117 0.085481 -0.028488 7304.850000 0 0 1
20.278862 5.608495 17.965074 27.666430 0.269824 0.864073 0.086032 -0.018365 -371835.000000 0 0 1
20.187162 4.178495 17.392474 26.971828 0.204105 0.869984 0.102156 -0.010932 -679606.000000 0 0 1
19.334762 4.208895 16.256074 25.608744 0.214341 0.883065 0.100533 -0.027966 658952.000000 0 0 1
18.807462 2.985095 15.737874 24.704496 0.157406 0.880138 0.087475 -0.027462 61173.600000 0 1 0
17.883262 2.186495 16.682574 24.554024 0.121661 0.823820 0.093903 -0.018382 -164364.000000 0 1 0
18.573062 1.463795 17.718874 25.711084 0.078650 0.810477 0.109437 -0.025848 295346.000000 0 0 1
17.627962 0.805695 18.540774 25.595986 0.045674 0.760687 0.098025 -0.023585 -192022.000000 0 0 1
18.228562 -0.142605 19.606274 26.771380 -0.007823 0.749016 0.102373 -0.025653 -39258.000000 0 0 1
18.698962 -1.372005 19.063774 26.738756 -0.073242 0.777080 0.098437 -0.029740 -274724.000000 0 0 1
17.913462 -2.379605 19.607374 26.664654 -0.132066 0.744640 0.068643 -0.012368 -183611.000000 0 0 1
18.025562 -3.671905 18.821474 26.318276 -0.200956 0.773960 0.059051 -0.004455 -275170.000000 0 0 1
17.528462 -3.528505 17.557074 25.058894 -0.198647 0.794513 0.058597 -0.011557 10914.100000 0 0 1
17.362262 -4.790905 16.912974 24.707279 -0.269238 0.816832 0.064628 -0.011610 -191876.000000 0 1 0
16.798962 -4.689605 15.488974 23.326077 -0.272230 0.844614 0.046666 -0.013654 -416571.000000 0 1 0
15.425562 -4.440905 15.343674 22.205809 -0.280312 0.807958 0.030732 -0.016242 -252193.000000 0 1 0
15.117362 -4.306105 13.944574 21.012576 -0.277496 0.845135 0.031077 -0.018306 153290.000000 0 1 0
15.586562 -3.017305 13.246174 20.676223 -0.191219 0.875455 0.033302 -0.014172 -200347.000000 0 1 0
15.010362 -1.852105 13.777674 20.458875 -0.122768 0.831954 0.034726 -0.003614 181126.000000 0 1 0
15.517962 -0.754505 13.063874 20.298799 -0.048583 0.871632 0.044097 -0.012163 -48574.700000 0 1 0
14.649962 0.494295 13.303074 19.794886 0.033728 0.833828 0.048778 -0.005631 -441225.000000 0 1 0
14.920062 1.724495 12.677274 19.654400 0.115072 0.869761 0.053908 -0.011891 409776.000000 0 1 0
16.093162 2.372195 13.203274 20.950982 0.146350 0.888988 0.080911 -0.025043 702973.000000 0 1 0
16.339162 3.775495 12.556674 20.949765 0.227085 0.928082 0.086278 -0.032755 26850.300000 0 1 0
15.322662 4.632195 13.014574 20.630569 0.293575 0.888162 0.083087 -0.023952 397405.000000 0 1 0
15.475362 5.873895 12.312674 20.629868 0.362766 0.931243 0.087209 -0.028171 1142510.000000 0 1 0
14.234762 6.837295 12.596774 20.200391 0.447783 0.897469 0.077190 -0.024257 1042090.000000 0 1 0
14.466762 8.052295 11.890674 20.384180 0.507901 0.947976 0.058925 -0.031597 -58911.600000 0 1 0
13.521462 9.046995 12.150174 20.305290 0.589674 0.929325 0.053215 -0.018710 -466211.000000 0 1 0
13.625662 9.851695 13.447574 21.530254 0.626012 0.896190 0.059015 -0.023368 -46741.700000 0 1 0
13.222462 9.061095 14.557674 21.653241 0.600779 0.833472 0.070309 -0.030779 653806.000000 0 1 0
13.711162 9.729595 15.756474 23.041864 0.617147 0.817812 0.088008 -0.036500 -10421.400000 0 1 0
13.380162 8.996495 17.053374 23.468772 0.591945 0.757376 0.089530 -0.037384 -411724.000000 0 1 0
12.062962 9.266095 17.464674 23.160104 0.655013 0.716537 0.066288 -0.035482 -315690.000000 0 1 0
11.699462 8.593895 18.659074 23.640929 0.633543 0.661177 0.086298 -0.028198 -358527.000000 0 1 0
12.313362 8.880295 20.010774 25.117914 0.624807 0.649025 0.106774 -0.026730 -42122.800000 0 0 1
13.710062 8.634695 20.124174 25.836141 0.562049 0.677861 0.117844 -0.028327 581695.000000 0 0 1
14.259662 9.178695 21.334274 27.253214 0.571921 0.671616 0.105320 -0.011411 36243.400000 0 0 1
15.787562 9.007195 21.477374 28.136352 0.518465 0.702341 0.095936 -0.017670 -211233.000000 0 0 1
16.466762 9.941195 20.731074 28.280012 0.543145 0.747980 0.104042 -0.015735 -84158.100000 0 0 1
17.230162 9.380795 19.652674 27.768785 0.498565 0.784523 0.080808 -0.027854 180591.000000 0 0 1
18.199062 10.409895 19.018374 28.306719 0.519578 0.834069 0.080267 -0.027500 302240.000000 0 0 1
19.181962 10.943995 19.914474 29.737266 0.518473 0.837018 0.062912 -0.025583 885363.000000 0 0 1
20.005762 11.884495 19.172974 30.150866 0.536036 0.881621 0.061448 -0.028267 459361.000000 0 0 1
20.963062 12.725695 20.040474 31.670395 0.545590 0.885655 0.050867 -0.028337 -219882.000000 0 0 1
20.215962 13.755595 20.698374 32.036296 0.597472 0.868344 0.040807 -0.028537 782175.000000 0 0 1
20.924962 14.479595 21.736974 33.466532 0.605321 0.863852 0.034619 -0.017190 -118354.000000 0 0 1
22.123062 15.333595 21.301174 34.326215 0.606083 0.901351 0.020816 -0.012142 483100.000000 0 0 1
23.281762 14.526395 21.071074 34.598364 0.557836 0.915973 0.004854 -0.003601 911792.000000 0 0 1
24.530462 15.218795 20.949274 35.668297 0.555287 0.943033 0.010969 -0.006169 841383.000000 0 0 1
25.781562 14.314795 20.846874 36.113633 0.506853 0.955430 0.011491 -0.017834 -22965.300000 0 0 1
25.966862 13.561495 19.689074 35.296625 0.481298 0.979043 0.023093 -0.032308 -499370.000000 0 0 1
26.948962 12.622795 19.865774 35.780309 0.438047 0.982175 0.052934 -0.039086 -646137.000000 0 0 1
27.271062 11.685795 18.596774 35.015835 0.404836 1.010903 0.088792 -0.045181 -550518.000000 0 0 1
28.112362 12.278995 17.663374 35.398777 0.411808 1.048372 0.103171 -0.051543 -61482.300000 0 0 1
28.300662 11.505195 16.499474 34.720738 0.386127 1.075599 0.123499 -0.059070 13666.400000 0 0 1
27.062562 11.338695 15.567274 33.215784 0.396761 1.083011 0.096658 -0.060481 114528.000000 0 0 1
26.710362 12.533295 14.900774 33.053896 0.438730 1.103132 0.109063 -0.054548 372277.000000 0 0 1
25.680962 12.308795 13.941274 31.707687 0.446948 1.115553 0.096535 -0.047155 245038.000000 0 0 1
25.372462 13.454795 12.890574 31.479521 0.487586 1.148900 0.077185 -0.046166 -86889.700000 0 0 1
24.665262 14.545795 13.432574 31.628933 0.532832 1.132174 0.071246 -0.049269 318615.000000 0 0 1
24.438462 15.658495 12.500374 31.601998 0.569832 1.164123 0.061461 -0.034894 -695577.000000 0 0 1
23.330862 16.565895 12.937174 31.402683 0.617434 1.146174 0.057847 -0.032466 -929104.000000 0 0 1
22.002462 16.143195 12.719174 30.107947 0.632987 1.134647 0.070927 -0.041786 433170.000000 0 0 1
21.089062 17.168895 13.136874 30.200943 0.683288 1.120778 0.059681 -0.033779 10142.800000 0 0 1
20.353262 17.842995 11.928074 29.578822 0.719772 1.155715 0.075930 -0.022023 374614.000000 0 0 1
19.249762 17.199695 11.271474 28.167872 0.729213 1.159112 0.070715 -0.022573 1638210.000000 0 0 1
17.995262 17.372495 11.981774 27.734383 0.767792 1.124066 0.060327 -0.014940 498983.000000 0 0 1
16.738362 16.712695 11.433174 26.271742 0.784631 1.120548 0.063447 -0.010781 -389329.000000 0 0 1
16.819962 15.322595 11.324374 25.415242 0.738847 1.108981 0.067887 -0.013200 -114373.000000 0 0 1
15.607562 14.734095 10.939574 24.090742 0.756618 1.099436 0.070700 -0.019675 -280576.000000 0 1 0
15.702762 13.366795 10.305974 23.053439 0.705213 1.107335 0.075128 -0.022292 -204931.000000 0 1 0
16.076862 12.313795 11.165674 23.125037 0.653620 1.066902 0.080712 -0.014861 373906.000000 0 1 0
16.430562 11.132895 10.498774 22.452817 0.595515 1.084231 0.074005 -0.008304 -120364.000000 0 1 0
17.221462 10.077995 11.317574 22.939752 0.529466 1.054847 0.097174 -0.020151 -952876.000000 0 1 0
17.765862 9.117295 10.414974 22.521604 0.474145 1.090047 0.098339 -0.020465 672493.000000 0 1 0
18.425562 8.053095 11.155874 22.995809 0.412042 1.064289 0.119811 -0.022645 696013.000000 0 1 0
19.674362 8.301695 12.038874 24.513938 0.399289 1.057441 0.102476 -0.029805 -698706.000000 0 1 0
19.239562 8.873395 13.203474 24.964568 0.432133 1.013506 0.087171 -0.032431 271587.000000 0 1 0
20.238962 9.174395 14.193874 26.367616 0.425598 1.002369 0.084312 -0.026172 -1083870.000000 0 0 1
19.698162 9.748295 15.490974 26.888978 0.459546 0.956836 0.069632 -0.026738 -142592.000000 0 0 1
18.856362 8.855595 16.191574 26.384674 0.439061 0.910092 0.069383 -0.027145 972107.000000 0 0 1
17.537462 8.637795 15.690074 25.066961 0.457657 0.894477 0.076598 -0.037052 -293424.000000 0 0 1
16.943462 7.241895 15.821674 24.286855 0.403915 0.861302 0.081683 -0.028414 -128259.000000 0 1 0
16.136262 7.042095 16.950574 24.439559 0.411499 0.804362 0.110270 -0.034119 -117720.000000 0 1 0
15.471462 5.826895 16.937474 23.668479 0.360192 0.773295 0.108216 -0.023248 -1076310.000000 0 1 0
14.518162 5.614195 18.117774 23.886188 0.368990 0.709782 0.111336 -0.014687 117407.000000 0 1 0
13.945362 4.290695 18.087774 23.238993 0.298487 0.678783 0.101229 -0.011018 537204.000000 0 1 0
13.226962 3.765295 16.982774 21.852794 0.277332 0.680681 0.074259 -0.008638 -573373.000000 0 1 0
12.897662 2.256395 16.995874 21.454621 0.173193 0.656427 0.055212 -0.011964 -202731.000000 0 1 0
14.078362 1.484095 16.955874 22.088560 0.105029 0.695659 0.066012 -0.013861 78991.300000 0 1 0
13.966062 0.114795 16.846474 21.883048 0.008219 0.692204 0.055731 -0.005191 -415757.000000 0 1 0
13.213162 -0.639605 17.933674 22.284825 -0.048369 0.635545 0.051016 -0.015092 228781.000000 0 1 0
11.807962 -0.517005 17.796774 21.363999 -0.043756 0.586241 0.044311 -0.002867 -127917.000000 0 1 0
11.076062 -1.320705 18.656474 21.736776 -0.118679 0.538867 0.041652 -0.012572 -360817.000000 0 1 0
-26.515828 14.250595 28.631764 41.544513 -0.493147 0.810436 0.079752 -0.017115 -921887.000000 0 0 1
-25.329918 14.121995 29.320814 41.240098 -0.508600 0.779908 0.081751 -0.016269 -522912.000000 0 0 1
-25.040038 12.744395 29.547634 40.773592 -0.470790 0.760233 0.081979 -0.012513 -693501.000000 0 0 1
-23.785138 12.571795 30.381474 40.580991 -0.486231 0.724754 0.066384 -0.018328 -695893.000000 0 0 1
-23.879138 13.052295 31.685394 41.767689 -0.500228 0.709619 0.072356 -0.027070 411674.000000 0 0 1
-22.773138 12.551995 32.429135 41.567021 -0.503745 0.675867 0.050260 -0.014688 -93051.700000 0 0 1
-23.021738 12.778995 33.948626 42.962919 -0.506738 0.659687 0.052506 -0.001052 -290594.000000 0 0 1
-23.856638 11.820395 -33.462592 42.762203 -0.460022 2.469511 0.047368 -0.007161 -152176.000000 0 0 1
-24.241838 12.332195 -32.176702 42.131816 -0.470596 2.439845 0.031251 -0.001295 21161.100000 0 0 1
-25.187848 11.386595 -31.404452 41.836848 -0.424572 2.419828 0.030720 -0.010159 11421.600000 0 0 1
-24.549938 10.300395 -30.722252 40.652852 -0.397262 2.427552 0.032640 -0.012402 329245.000000 0 0 1
-24.177738 9.196095 -31.562982 40.808737 -0.363456 2.455042 0.030808 -0.014149 76187.800000 0 0 1
-23.423138 8.066495 -30.801032 39.527400 -0.331661 2.464237 0.041221 -0.009164 -16969.600000 0 0 1
-24.214638 7.283895 -29.898902 39.157990 -0.292196 2.439582 0.043432 -0.011498 496845.000000 0 0 1
-23.426638 6.465295 -29.006182 37.841327 -0.269278 2.444203 0.040950 -0.005023 -11072.400000 0 0 1
-24.249938 5.697395 -27.965452 37.451119 -0.230760 2.413911 0.043737 -0.002617 -287048.000000 0 0 1
-25.017138 4.670295 -28.529542 38.230925 -0.184559 2.413196 0.057770 -0.011154 -54044.600000 0 0 1
-25.415938 3.767495 -27.502322 37.636972 -0.147162 2.390181 0.080379 -0.004125 -963603.000000 0 0 1
-25.988398 2.508795 -28.147382 38.392265 -0.096237 2.393742 0.097563 -0.001232 539158.000000 0 0 1
-27.348438 2.559495 -28.576822 39.637392 -0.093317 2.375977 0.118637 -0.018053 592192.000000 0 0 1
-27.718288 3.569695 -29.480302 40.621847 -0.128080 2.382884 0.114658 -0.014475 -1114610.000000 0 0 1
-29.134128 3.467195 -30.098642 42.032691 -0.118451 2.368962 0.117766 -0.024832 38314.300000 0 0 1
-30.094918 3.905995 -29.135242 42.069267 -0.129068 2.335820 0.103866 -0.018284 495160.000000 0 0 1
-31.407148 4.095595 -29.669452 43.398839 -0.129672 2.323543 0.102089 -0.023757 716938.000000 0 0 1
-31.712098 5.458495 -30.397412 44.265732 -0.170456 2.327740 0.096875 -0.034939 -145668.000000 0 0 1
-30.774168 5.723795 -31.461912 44.380887 -0.183892 2.358743 0.109755 -0.032262 544991.000000 0 0 1
-30.847808 7.027495 -32.050232 45.035434 -0.223989 2.362665 0.101238 -0.027546 -471280.000000 0 0 1
-30.310718 8.240595 -31.272502 44.323994 -0.265455 2.353986 0.082520 -0.025588 491292.000000 0 0 1
-28.900108 8.260195 -31.029102 43.200142 -0.278396 2.372100 0.050558 -0.028187 748928.000000 0 0 1
-28.319248 7.724595 -29.871462 41.880227 -0.266290 2.364934 0.048828 -0.029210 -686011.000000 0 0 1
-28.372258 8.492995 -28.517532 41.114056 -0.290853 2.337299 0.046456 -0.019109 485748.000000 0 0 1
-29.666078 8.682795 -27.926232 41.657431 -0.284732 2.305515 0.047856 -0.019193 893373.000000 0 0 1
-30.439748 7.504595 -27.605632 41.772816 -0.241719 2.292749 0.048373 -0.003115 1157440.000000 0 0 1
-31.924438 7.850595 -27.122082 42.619349 -0.241127 2.260592 0.043661 -0.003963 1220760.000000 0 0 1
-31.988078 8.533395 -25.900142 42.034192 -0.260697 2.234665 0.021645 -0.007262 -97488.900000 0 0 1
-32.052668 7.749395 -24.746092 41.228579 -0.237219 2.214569 0.020536 -0.009367 128808.000000 0 0 1
-31.510558 8.590095 -23.477692 40.223215 -0.266143 2.194056 0.027379 0.002547 545584.000000 0 0 1
-32.336818 9.708395 -23.067892 40.890713 -0.291665 2.170182 0.031452 -0.007169 401034.000000 0 0 1
-31.604778 10.510295 -22.155192 40.002260 -0.321049 2.157776 0.037410 -0.012526 -301900.000000 0 0 1
-32.284728 11.762795 -21.613192 40.593067 -0.349397 2.132272 0.023849 -0.001472 -217827.000000 0 0 1
-33.228508 11.372795 -20.614892 40.724047 -0.329763 2.101580 0.018062 -0.008122 374436.000000 0 0 1
-33.625448 12.409595 -19.687092 40.893158 -0.353547 2.073079 0.008444 -0.013238 -201138.000000 0 0 1
-32.555118 12.831695 -18.677492 39.665310 -0.375456 2.061081 0.014913 -0.007848 -297052.000000 0 0 1
-32.069978 11.821095 -17.774392 38.524678 -0.353151 2.050343 0.038999 -0.005085 201035.000000 0 0 1
-32.925758 11.305195 -16.746092 38.630876 -0.330742 2.019158 0.037387 0.015571 -6708.100000 0 0 1
-33.186398 12.202095 -15.478092 38.597921 -0.352341 1.983414 0.026771 0.013673 66134.900000 0 0 1
-34.015578 13.322995 -15.836892 39.816691 -0.373308 1.979854 -0.003188 0.004360 246010.000000 0 0 1
-34.483691 13.972795 -14.654492 39.988975 -0.384981 1.946001 -0.011162 -0.002430 -380735.000000 0 0 1
-35.176695 15.245495 -15.096792 41.203618 -0.408962 1.945928 -0.014347 0.002306 149249.000000 0 0 1
-36.226378 15.021295 -16.033892 42.368331 -0.393072 1.958907 -0.012654 -0.000198 590254.000000 0 0 1
-36.813228 16.193995 -16.629992 43.520293 -0.414420 1.962886 -0.012246 -0.001447 -366758.000000 0 0 1
36.852122 16.102495 -18.151592 44.123119 0.411948 1.994769 -0.008132 0.000682 -3247.260000 0 0 1
35.793222 15.232395 -18.460592 43.057800 0.402350 2.013894 0.035099 -0.011715 -304800.000000 0 0 1
34.538432 15.824095 -18.228892 42.137843 0.429618 2.018173 0.084738 -0.019732 -387654.000000 0 0 1
33.388622 14.762595 -18.428392 40.894254 0.416302 2.038273 0.111227 -0.025316 156944.000000 0 0 1
33.181722 14.422995 -19.789492 41.239223 0.410030 2.071304 0.109409 -0.023172 213580.000000 0 0 1
32.114742 13.532495 -20.024792 40.193002 0.398800 2.092336 0.070021 -0.017689 -100004.000000 0 0 1
32.354002 12.035395 -19.744492 39.767791 0.356130 2.090352 0.074767 0.000154 -123693.000000 0 0 1
32.571232 11.761795 -18.371892 39.201421 0.346538 2.058562 0.100855 -0.008894 188004.000000 0 0 1
33.117362 10.461495 -18.121492 39.173857 0.305972 2.051712 0.080910 -0.012189 32546.900000 0 0 1
33.136392 10.259395 -16.587392 38.450192 0.300251 2.016840 0.069197 -0.010581 186867.000000 0 0 1
31.812622 10.260495 -16.078192 37.092169 0.311995 2.019132 0.082809 -0.010240 214299.000000 0 0 1
31.862152 9.905395 -14.699492 36.460783 0.301411 1.985763 0.062650 -0.006606 -28720.900000 0 0 1
31.306262 10.937095 -13.720192 35.887962 0.336103 1.963087 0.080723 -0.020511 -360378.000000 0 0 1
29.903452 11.010795 -13.808092 34.729202 0.352806 1.979689 0.076724 -0.021590 66258.200000 0 0 1
29.372452 12.090595 -13.007692 34.323804 0.390492 1.959479 0.102314 -0.027618 910733.000000 0 0 1
27.814572 12.215895 -12.883392 32.997884 0.413828 1.971896 0.095941 -0.019163 594641.000000 0 0 1
27.230872 11.070995 -12.271692 31.854070 0.386149 1.966272 0.086240 -0.028838 502863.000000 0 0 1
25.819472 10.957495 -12.448392 30.686713 0.401353 1.988498 0.089013 -0.017894 540505.000000 0 0 1
25.347572 10.347795 -13.826592 30.671664 0.387586 2.038451 0.082125 -0.028561 -450484.000000 0 0 1
25.693572 8.979995 -14.132492 30.668018 0.336233 2.049717 0.088196 -0.028428 1936730.000000 0 0 1
27.119772 8.859395 -14.460892 31.985752 0.315748 2.039919 0.094584 -0.034420 1890620.000000 0 0 1
27.948872 7.846195 -13.557992 32.039373 0.273689 2.007734 0.101657 -0.031566 1405.230000 0 0 1
27.669372 6.470195 -13.593692 31.499938 0.229712 2.017003 0.098877 -0.040000 187140.000000 0 0 1
26.567772 6.162295 -12.768192 30.113903 0.227916 2.008650 0.126818 -0.038770 -202065.000000 0 0 1
26.165272 4.681895 -12.759592 29.484722 0.177062 2.018340 0.129740 -0.034156 -393070.000000 0 0 1
25.304572 4.307995 -11.729392 28.221603 0.168629 1.999418 0.135017 -0.032187 268975.000000 0 0 1
24.832772 2.970195 -11.931392 27.710048 0.119042 2.015932 0.125202 -0.028156 -359258.000000 0 0 1
24.305272 2.273595 -10.642992 26.630599 0.093272 1.981934 0.117690 -0.020647 -297724.000000 0 0 1
25.198172 1.942395 -9.600592 27.035017 0.076933 1.933835 0.132224 -0.017053 441077.000000 0 0 1
24.487572 1.461695 -8.449492 25.945552 0.059621 1.902509 0.139223 -0.008136 -48338.900000 0 0 1
25.410072 1.148595 -7.221792 26.441357 0.045172 1.847436 0.165895 -0.012945 -41412.100000 0 0 1
25.455872 -0.188305 -6.730692 26.331333 -0.007397 1.829280 0.133612 -0.020467 372808.000000 0 0 1
25.767772 -1.220205 -7.641792 26.904721 -0.047319 1.858793 0.103281 -0.014589 -521461.000000 0 0 1
25.985772 -2.599105 -6.908692 27.013807 -0.099689 1.829416 0.114976 -0.023812 62008.900000 0 0 1
27.154272 -2.654405 -6.091392 27.955419 -0.097443 1.790455 0.121814 -0.035760 625778.000000 0 0 1
27.213572 -3.854705 -5.383192 28.007428 -0.140710 1.764206 0.130762 -0.053230 -615749.000000 0 0 1
28.552372 -4.229405 -4.754292 29.252848 -0.147059 1.734045 0.136043 -0.055135 -243433.000000 0 0 1
29.603962 -4.429105 -5.691692 30.469771 -0.148510 1.758698 0.129110 -0.040554 301665.000000 0 0 1
30.840232 -4.574905 -5.046992 31.583569 -0.147268 1.731282 0.155061 -0.050312 -398310.000000 0 0 1
32.034812 -4.988705 -5.914792 32.956049 -0.154487 1.751249 0.168843 -0.044243 -327970.000000 0 0 1
31.855662 -6.192305 -6.649092 33.126097 -0.191992 1.772890 0.137297 -0.039491 44760.000000 0 0 1
32.550382 -6.111105 -7.862992 34.039678 -0.185583 1.803896 0.142109 -0.050282 -861005.000000 0 0 1
32.016092 -7.127705 -8.909792 33.988509 -0.219056 1.836037 0.106074 -0.049326 1301530.000000 0 0 1
30.696382 -6.781605 -9.392892 32.809823 -0.217433 1.861141 0.105617 -0.037698 1291690.000000 0 0 1
29.610802 -7.143505 -8.553192 31.638369 -0.236723 1.844545 0.098625 -0.024907 -940747.000000 0 0 1
28.459972 -6.164105 -8.618092 30.368367 -0.213294 1.858536 0.090820 -0.021886 -923556.000000 0 0 1
27.767272 -6.027105 -9.819592 30.062798 -0.213742 1.903538 0.066021 -0.013726 411196.000000 0 0 1
26.574972 -5.264505 -9.812092 28.813561 -0.195568 1.918285 0.087710 -0.011669 607260.000000 0 0 1
25.280872 -6.095505 -9.573792 27.711644 -0.236596 1.923546 0.118232 -0.011372 -530449.000000 0 0 1
25.182172 -6.603705 -8.216792 27.299568 -0.256463 1.876523 0.104306 -0.021149 226274.000000 0 0 1
23.937772 -7.159005 -7.891592 26.202014 -0.290601 1.876729 0.105505 -0.022378 -414378.000000 0 0 1
22.869172 -6.163905 -7.372592 24.806207 -0.263273 1.872563 0.121154 -0.016975 -392656.000000 0 1 0
22.402472 -5.208405 -8.289592 24.448223 -0.228434 1.916722 0.119330 -0.017865 405461.000000 0 1 0
21.869572 -4.105605 -7.605992 23.515640 -0.185571 1.900163 0.107493 -0.019535 -243727.000000 0 1 0
21.675472 -2.983605 -8.665592 23.533391 -0.136789 1.947896 0.097402 -0.011386 7583.830000 0 1 0
22.909772 -2.678305 -9.284492 24.864287 -0.116378 1.953475 0.096870 -0.001628 637231.000000 0 1 0
22.739372 -1.814205 -10.370592 25.058324 -0.079614 1.997484 0.105506 -0.008567 492351.000000 0 0 1
23.997772 -1.860905 -11.298492 26.589697 -0.077390 2.009670 0.096029 -0.000344 833236.000000 0 0 1
25.181572 -1.204905 -10.874892 27.455904 -0.047812 1.978046 0.086965 -0.007425 642664.000000 0 0 1
26.302072 -1.457505 -11.712292 28.828825 -0.055357 1.989165 0.093159 -0.003750 -262089.000000 0 0 1
27.495772 -0.699905 -11.093692 29.657670 -0.025449 1.954177 0.084959 -0.002745 -858779.000000 0 0 1
28.604972 -0.929005 -11.899292 30.995171 -0.032466 1.964821 0.076637 -0.009584 177717.000000 0 0 1
29.804562 -0.183405 -11.679892 32.011958 -0.006153 1.944279 0.092718 -0.012955 610598.000000 0 0 1
29.944552 1.191095 -12.395292 32.430513 0.039756 1.962984 0.092329 -0.019617 -322048.000000 0 0 1
30.144862 1.035895 -13.782092 33.162206 0.034350 1.999395 0.082241 -0.023263 313268.000000 0 0 1
30.359942 2.363195 -14.300192 33.642329 0.077683 2.009831 0.087952 -0.025361 -6736.480000 0 0 1
30.623512 2.174295 -15.816292 34.535231 0.070882 2.046513 0.079740 -0.017014 629990.000000 0 0 1
29.443412 1.753995 -16.533292 33.813323 0.059501 2.081691 0.093094 -0.010166 436016.000000 0 0 1
29.684132 1.653395 -17.915792 34.711051 0.055642 2.113135 0.065441 -0.007670 -161526.000000 0 0 1
28.605772 0.866095 -18.682892 34.177343 0.030268 2.149149 0.056109 -0.010357 -151271.000000 0 0 1
28.502572 -0.588205 -18.560992 34.018422 -0.020634 2.147920 0.067974 -0.013277 32306.800000 0 0 1
27.798972 -1.114505 -19.649792 34.060818 -0.040070 2.185728 0.044355 -0.013286 -324390.000000 0 0 1
27.743872 -2.707005 -19.704392 34.136687 -0.097263 2.186117 0.059867 -0.018345 955835.000000 0 0 1
26.693172 -3.268805 -18.825792 32.827138 -0.121852 2.181547 0.069154 -0.016495 1307700.000000 0 0 1
26.592572 -4.687305 -18.915092 32.968416 -0.174472 2.181854 0.064304 -0.011879 -150037.000000 0 0 1
27.531072 -5.456005 -17.963592 33.322944 -0.195641 2.140136 0.058666 -0.014388 -645761.000000 0 0 1
28.883272 -5.252705 -18.204092 34.543065 -0.179894 2.125860 0.057692 -0.015141 -430876.000000 0 0 1
29.633052 -5.454705 -16.973192 34.582667 -0.182037 2.083805 0.054773 -0.019658 395456.000000 0 0 1
31.146252 -5.167905 -17.151392 35.930023 -0.164426 2.068439 0.077510 -0.021362 -98490.500000 0 0 1
31.716902 -6.157805 -17.964692 36.967697 -0.191763 2.078254 0.070635 -0.023870 -23310.200000 0 0 1
32.995312 -5.712205 -18.392592 38.204808 -0.171423 2.073071 0.069595 -0.017375 296820.000000 0 0 1
33.879372 -6.725405 -19.176592 39.506767 -0.195963 2.077617 0.064623 -0.014246 -11992.500000 0 0 1
34.354902 -7.692805 -18.245692 39.652791 -0.220288 2.048945 0.065076 -0.019026 -5858.880000 0 0 1
34.905582 -8.771305 -18.947892 40.673801 -0.246189 2.055391 0.052185 -0.014100 -189933.000000 0 0 1
35.660332 -9.761805 -18.008192 41.124775 -0.267198 2.024048 0.047550 -0.014341 -518485.000000 0 0 1
34.865362 -10.376005 -17.042092 40.170734 -0.289255 2.008920 0.045302 -0.016971 192530.000000 0 0 1
35.599112 -11.270405 -16.214892 40.709232 -0.306609 1.980470 0.061031 -0.023270 274781.000000 0 0 1
36.783412 -10.775405 -15.305092 41.271959 -0.284969 1.950704 0.071476 -0.024206 -59953.900000 0 0 1
-36.879928 -11.722605 -14.336092 41.268294 0.307759 1.925580 0.068538 -0.021944 312323.000000 0 0 1
-36.227088 -12.952505 -14.711892 41.189914 0.343373 1.936035 0.057776 -0.023849 -530274.000000 0 0 1
-34.753715 -12.789205 -15.086392 39.987294 0.352615 1.957653 0.063086 -0.026750 -760264.000000 0 0 1
-34.586182 -12.193205 -16.342192 40.149041 0.338941 1.990005 0.079426 -0.025118 190549.000000 0 0 1
-33.213468 -12.023805 -16.676192 39.061512 0.347339 2.011882 0.077131 -0.020935 292572.000000 0 0 1
-32.910718 -11.034505 -17.755992 38.989113 0.323507 2.043628 0.094250 -0.018593 17644.600000 0 0 1
-33.128258 -9.661505 -17.361292 38.629530 0.283769 2.036924 0.107263 -0.024507 252600.000000 0 0 1
-34.123036 -9.098905 -18.205992 39.731974 0.260587 2.046788 0.106977 -0.027619 352371.000000 0 0 1
-34.801679 -7.845005 -17.518992 39.744384 0.221714 2.027277 0.105688 -0.029510 379611.000000 0 0 1
-35.785981 -7.185605 -18.307892 40.834400 0.198159 2.035709 0.097517 -0.020336 34859.700000 0 0 1
-36.312578 -6.054805 -17.692192 40.844554 0.165221 2.018791 0.100572 -0.020901 -86856.900000 0 0 1
24.302662 27.443395 -26.757742 45.384316 0.846019 2.201337 0.027790 0.004300 -51120.700000 0 0 1
24.986162 26.510295 -25.943952 44.723514 0.814986 2.189643 0.025220 -0.003222 -201257.000000 0 0 1
26.310262 26.348995 -26.414432 45.653277 0.786134 2.187793 0.044216 -0.009328 309316.000000 0 0 1
27.155962 25.388695 -25.512932 45.088156 0.751777 2.172255 0.067531 -0.005639 -405232.000000 0 0 1
27.421962 25.813095 -24.207292 44.769107 0.755185 2.142082 0.066409 -0.002063 91118.300000 0 0 1
27.746562 24.797995 -23.344092 43.929022 0.729341 2.131054 0.076642 -0.006461 -186317.000000 0 0 1
28.459162 25.321395 -22.098892 44.039278 0.727120 2.096474 0.085296 -0.002713 -121705.000000 0 0 1
27.592162 26.074795 -21.303692 43.532398 0.757132 2.082170 0.053916 -0.004626 79568.600000 0 0 1
28.349262 26.868795 -20.376992 44.054905 0.758593 2.051650 0.052890 -0.010174 400270.000000 0 0 1
27.533562 27.970595 -19.601692 43.871148 0.793272 2.033983 0.052029 -0.010865 -163015.000000 0 0 1
26.697362 27.381195 -18.651892 42.548468 0.798043 2.024579 0.058235 -0.009538 -455580.000000 0 0 1
26.108062 28.413495 -17.910692 42.541163 0.827658 2.005366 0.059686 -0.017844 -190902.000000 0 0 1
24.913462 27.952495 -17.052392 41.143732 0.842821 1.998145 0.072415 -0.020771 450981.000000 0 0 1
23.795762 27.570595 -17.860892 40.563376 0.858755 2.026752 0.084584 -0.017995 649157.000000 0 0 1
22.568762 27.521095 -17.152092 39.508910 0.883947 2.019871 0.067388 -0.018663 488757.000000 0 0 1
21.573862 26.398495 -17.525792 38.333608 0.885632 2.045631 0.068911 -0.023119 -127719.000000 0 0 1
21.016762 26.612395 -18.807392 38.776822 0.902345 2.077178 0.062838 -0.016819 -345630.000000 0 0 1
20.314062 25.477395 -19.213792 37.827617 0.897681 2.103577 0.061266 -0.010278 -61408.400000 0 0 1
19.502562 25.709995 -20.518092 38.240632 0.921840 2.137142 0.050456 -0.001676 277984.000000 0 0 1
18.472962 26.648195 -20.260392 38.234280 0.964638 2.129280 0.037133 0.001053 -216319.000000 0 0 1
17.595062 26.732695 -21.382692 38.489515 0.988689 2.159816 0.031528 0.003278 25909.700000 0 0 1
16.434962 27.718495 -21.161092 38.551456 1.035596 2.151850 0.028913 0.007484 323846.000000 0 0 1
15.626462 27.270695 -20.031792 37.271301 1.050457 2.138217 0.040846 0.008540 321235.000000 0 0 1
14.677162 28.246595 -19.658292 37.413069 1.091586 2.124028 0.040912 0.000565 144283.000000 0 0 1
14.146762 28.223195 -18.184392 36.432839 1.106152 2.093380 0.055380 0.000284 140091.000000 0 0 1
13.332462 27.115995 -17.892192 35.116411 1.113825 2.105413 0.049588 0.008300 -349720.000000 0 0 1
12.683162 27.266595 -16.675592 34.386119 1.135412 2.077104 0.066417 0.001894 101807.000000 0 0 1
11.754562 26.085995 -16.360792 32.959436 1.147437 2.090234 0.074188 -0.003886 354811.000000 0 0 1
12.611962 24.993195 -16.095392 32.292152 1.103463 2.092584 0.054205 -0.003024 483964.000000 0 0 1
11.752962 23.862995 -15.887492 30.983658 1.113152 2.109205 0.080231 -0.009229 959833.000000 0 0 1
12.486562 22.481195 -15.998392 30.286415 1.063799 2.127319 0.051150 -0.003759 397808.000000 0 0 1
12.759562 22.223095 -17.350392 30.946866 1.049595 2.165968 0.052103 0.004788 -8814.360000 0 0 1
13.748162 21.229895 -17.676892 30.857624 0.996121 2.180779 0.051197 0.002257 353149.000000 0 0 1
13.188662 19.833295 -17.834692 29.755280 0.983965 2.213522 0.055785 0.000845 -15787.200000 0 0 1
12.724062 19.355995 -16.573392 28.482164 0.989257 2.191843 0.063199 -0.010467 -185613.000000 0 0 1
12.426062 17.929795 -16.627192 27.428965 0.964757 2.222059 0.053841 -0.010791 -37638.600000 0 0 1
13.644162 16.977895 -16.775792 27.492532 0.893838 2.227102 0.062089 -0.011922 102149.000000 0 0 1
14.217262 16.621795 -15.533792 26.827473 0.863211 2.188329 0.069790 -0.019222 -210099.000000 0 0 1
15.328062 15.787895 -15.639392 26.996254 0.800175 2.188687 0.081271 -0.025598 -946626.000000 0 0 1
15.934762 15.268695 -14.301692 26.298063 0.764055 2.145791 0.127732 -0.026406 -1317780.000000 0 0 1
16.756562 16.070095 -13.513192 26.863297 0.764489 2.097904 0.094055 -0.027602 1498420.000000 0 0 1
18.066462 16.359095 -14.083992 28.149172 0.735843 2.094781 0.072440 -0.020977 491778.000000 0 0 1
19.003662 15.192595 -14.459392 28.302441 0.674409 2.107014 0.074826 -0.029010 -1435780.000000 0 0 1
19.329762 14.350595 -13.316692 27.512063 0.638625 2.076052 0.096991 -0.040077 1378650.000000 0 0 1
20.442062 14.877595 -12.517792 28.211981 0.629137 2.030525 0.096428 -0.028956 263903.000000 0 0 1
21.266962 13.711495 -11.943992 27.981203 0.572663 2.011811 0.109571 -0.038483 -605251.000000 0 0 1
20.647862 12.874495 -10.976992 26.694217 0.557539 1.994580 0.178934 -0.036937 463173.000000 0 0 1
21.500162 11.813995 -10.550092 26.704530 0.502447 1.976938 0.191903 -0.013945 -98519.000000 0 0 1
21.311962 10.464395 -11.309592 26.298482 0.456430 2.015342 0.143085 -0.022479 -266528.000000 0 0 1
21.744262 10.577495 -12.682992 27.304846 0.452749 2.053862 0.117898 -0.013818 448357.000000 0 0 1
21.544762 9.431095 -13.509292 27.122377 0.412615 2.092187 0.108023 -0.022491 -188452.000000 0 0 1
22.207162 8.086495 -13.118092 27.030239 0.349215 2.077516 0.105753 -0.002376 -56798.900000 0 0 1
21.543262 7.488995 -11.987892 25.766388 0.334558 2.054717 0.110831 -0.017105 478510.000000 0 0 1
22.217362 6.390895 -11.434392 25.791473 0.280091 2.030118 0.120367 0.005334 -1143630.000000 0 0 1
21.890662 5.026595 -12.063592 25.495059 0.225710 2.063686 0.107531 -0.005018 -678857.000000 0 0 1
20.621962 4.482395 -11.880792 24.217977 0.214031 2.083549 0.069292 -0.021384 -268834.000000 0 1 0
19.518462 5.164895 -12.417492 23.703178 0.258687 2.122190 0.022334 -0.033516 -898328.000000 0 1 0
18.562962 4.077195 -12.952492 22.999438 0.216208 2.169008 0.016035 -0.039309 -458664.000000 0 1 0
19.254462 3.331395 -13.913492 23.987867 0.171323 2.189552 0.035129 -0.038206 266145.000000 0 1 0
18.818762 2.037895 -13.969692 23.525542 0.107870 2.206582 0.047398 -0.026485 -723381.000000 0 1 0
19.824262 1.158295 -14.747592 24.735289 0.058362 2.209577 0.071686 -0.016037 -468910.000000 0 1 0
20.893162 0.874895 -13.887892 25.103052 0.041850 2.157039 0.085239 -0.010110 518279.000000 0 0 1
22.133462 0.528095 -14.530592 26.482204 0.023855 2.151596 0.086191 -0.014759 933777.000000 0 0 1
22.317162 -0.937005 -14.974592 26.891860 -0.041961 2.161379 0.087276 -0.010012 13720.300000 0 0 1
21.312362 -1.296205 -15.903992 26.623935 -0.060745 2.210998 0.074816 -0.013066 416080.000000 0 0 1
21.914562 -2.309505 -16.701592 27.650046 -0.104999 2.219351 0.072019 -0.013061 247842.000000 0 0 1
20.949162 -3.184705 -17.533692 27.503456 -0.150866 2.262057 0.065671 -0.020660 231463.000000 0 0 1
20.166162 -4.173605 -16.810192 26.583371 -0.204080 2.255389 0.079276 -0.021869 183959.000000 0 0 1
19.362262 -4.876605 -17.670292 26.663040 -0.246730 2.295250 0.069428 -0.019569 -574939.000000 0 0 1
18.770362 -6.120305 -17.000492 26.053817 -0.315192 2.281694 0.062718 -0.022271 149800.000000 0 0 1
19.801662 -7.022305 -16.585192 26.767278 -0.340795 2.239038 0.072677 -0.012664 677252.000000 0 0 1
19.215262 -8.173805 -15.970892 26.288910 -0.402193 2.223724 0.077850 -0.008349 43566.900000 0 0 1
20.175762 -9.259505 -15.416992 27.027457 -0.430265 2.177813 0.109268 -0.002409 -366055.000000 0 0 1
20.795462 -9.961605 -16.412092 28.302678 -0.446730 2.189375 0.098849 -0.008254 -455467.000000 0 0 1
21.602362 -10.942205 -15.872992 28.954201 -0.468856 2.151019 0.089874 -0.012495 -501424.000000 0 0 1
22.250762 -11.721905 -17.066192 30.393328 -0.484864 2.167007 0.075385 -0.010262 378171.000000 0 0 1
23.338162 -11.065405 -17.738692 31.333276 -0.442741 2.172599 0.067272 0.000717 414751.000000 0 0 1
23.819762 -11.894205 -18.796692 32.590931 -0.463121 2.185536 0.075826 0.005267 -127256.000000 0 0 1
22.998462 -11.932905 -20.155392 32.826260 -0.478619 2.231917 0.096040 0.003001 1175140.000000 0 0 1
21.679862 -12.510305 -20.056492 32.074710 -0.523371 2.246319 0.114043 -0.011482 779660.000000 0 0 1
21.608362 -13.947905 -19.959992 32.555593 -0.573196 2.230781 0.100941 0.002360 -119301.000000 0 0 1
20.152262 -14.318305 -19.579592 31.535503 -0.617742 2.240654 0.102830 -0.008349 278691.000000 0 0 1
19.236662 -13.982605 -20.577792 31.448497 -0.628535 2.284097 0.091547 0.004585 -533825.000000 0 0 1
17.905662 -14.338505 -20.327292 30.649703 -0.675217 2.295900 0.094624 -0.003531 78911.300000 0 0 1
16.889662 -13.726605 -21.325392 30.470522 -0.682450 2.346011 0.076119 -0.000285 -123519.000000 0 0 1
17.090062 -14.148805 -22.692392 31.736471 -0.691521 2.367457 0.076199 0.007633 105113.000000 0 0 1
16.273762 -13.430705 -23.579592 31.642003 -0.689977 2.411630 0.075637 0.001988 -140905.000000 0 0 1
16.401062 -14.015705 -24.997192 33.019607 -0.707136 2.429568 0.077271 -0.003766 -42980.400000 0 0 1
15.725862 -15.280105 -25.196482 33.401303 -0.771023 2.425469 0.074198 -0.007916 412097.000000 0 0 1
15.798962 -15.726605 -26.541872 34.661279 -0.783103 2.443003 0.069162 -0.007596 -145902.000000 0 0 1
16.643262 -17.035305 -26.714072 35.788845 -0.797038 2.413486 0.071363 -0.003422 292997.000000 0 0 1
18.025362 -16.713305 -26.817732 36.379101 -0.747647 2.399675 0.081761 0.001671 -22425.600000 0 0 1
18.712862 -17.963305 -26.750072 37.261480 -0.764964 2.371579 0.089872 -0.001933 328526.000000 0 0 1
20.246462 -17.711905 -26.889682 38.035323 -0.718725 2.355995 0.084431 0.012789 167732.000000 0 0 1
20.741062 -17.383405 -25.624712 37.269294 -0.697554 2.328914 0.094447 0.010860 -223215.000000 0 0 1
22.116962 -17.089005 -25.747282 38.001535 -0.657850 2.315199 0.090174 0.012596 -138600.000000 0 0 1
22.649362 -16.251705 -24.565792 37.156287 -0.622398 2.293144 0.100274 0.011587 76156.600000 0 0 1
22.303262 -14.866205 -24.615692 36.391920 -0.587921 2.313668 0.099249 0.007248 -350578.000000 0 0 1
20.957462 -14.568205 -24.365792 35.286536 -0.607451 2.332994 0.121394 0.008894 -357152.000000 0 0 1
20.726962 -13.340905 -23.595792 34.122545 -0.571898 2.334362 0.122474 0.016126 -124497.000000 0 0 1
21.082362 -12.183405 -24.318992 34.413874 -0.524008 2.355566 0.135886 -0.003304 166040.000000 0 0 1
20.747462 -11.000605 -23.690992 33.357662 -0.487526 2.360595 0.133808 -0.008464 -110029.000000 0 0 1
21.386062 -9.740205 -24.311492 33.812481 -0.427374 2.373172 0.146246 -0.008801 -130529.000000 0 0 1
20.846862 -8.574605 -23.777192 32.763858 -0.390222 2.382868 0.138007 -0.013428 61802.400000 0 0 1
20.843862 -7.545205 -24.705292 33.192592 -0.347313 2.410284 0.114205 -0.011418 -27613.500000 0 0 1
20.205762 -6.266605 -24.069692 32.045175 -0.300733 2.420550 0.101430 -0.017798 -74117.000000 0 0 1
18.877062 -6.493005 -23.666592 30.961430 -0.331286 2.440890 0.086904 -0.014825 -238666.000000 0 0 1
18.417062 -5.511605 -22.720392 29.762093 -0.290783 2.439357 0.072825 -0.016120 29024.800000 0 0 1
18.864962 -5.731605 -21.257892 28.993725 -0.294960 2.393797 0.078314 -0.015445 36300.300000 0 0 1
18.182562 -6.679605 -20.381392 28.118034 -0.352059 2.381615 0.087510 -0.013469 447889.000000 0 0 1
18.381962 -8.043805 -20.781292 28.887046 -0.412488 2.373732 0.098177 -0.013759 -43392.400000 0 0 1
18.080562 -9.088905 -19.688192 28.233665 -0.465797 2.342462 0.086821 -0.013924 -792355.000000 0 0 1
16.747962 -9.187305 -19.356692 27.195263 -0.501739 2.362807 0.074079 -0.017311 -1200050.000000 0 0 1
16.251762 -10.478805 -19.070692 27.159095 -0.572697 2.349257 0.088022 -0.012286 -186435.000000 0 0 1
14.779862 -10.484905 -18.612892 25.977246 -0.617010 2.369579 0.099217 -0.021010 -146168.000000 0 0 1
14.570962 -9.962705 -17.272492 24.696304 -0.599728 2.345348 0.111265 -0.027425 145446.000000 0 1 0
14.643662 -8.550805 -17.284692 24.213915 -0.528516 2.365753 0.109560 -0.043782 -291512.000000 0 1 0
13.333762 -7.803305 -16.886492 22.887429 -0.529488 2.400611 0.099042 -0.032783 650089.000000 0 1 0
12.274662 -7.894405 -17.860592 23.064902 -0.571542 2.456503 0.087123 -0.027673 300100.000000 0 1 0
11.394562 -6.846305 -17.577492 22.038062 -0.541037 2.494097 0.066336 -0.023550 -463708.000000 0 1 0
9.898462 -6.941805 -17.898792 21.599421 -0.611599 2.547524 0.055101 -0.021064 -68001.100000 0 1 0
9.544862 -6.584005 -19.179692 22.412365 -0.603845 2.597822 0.049945 -0.027482 -559078.000000 0 1 0
8.171962 -6.367505 -19.300392 21.905050 -0.661922 2.648965 0.052242 -0.034325 -558459.000000 0 1 0
7.766662 -5.967005 -20.716992 22.915496 -0.655101 2.699973 0.062563 -0.042639 -62791.200000 0 1 0
7.697862 -6.989705 -21.669292 24.034793 -0.737221 2.694205 0.057727 -0.032876 -249292.000000 0 1 0
6.872562 -6.588205 -22.688592 24.605056 -0.764276 2.744298 0.065498 -0.040407 -539608.000000 0 1 0
6.894562 -7.572505 -23.870292 25.974385 -0.832225 2.736317 0.051635 -0.034534 -53441.200000 0 0 1
6.445462 -8.872105 -23.507092 25.939191 -0.942515 2.705096 0.064211 -0.034840 105882.000000 0 0 1
6.311162 -9.708805 -24.608492 27.196866 -0.994389 2.701772 0.059172 -0.023201 -37093.200000 0 0 1
5.404162 -10.951705 -24.392292 27.278723 -1.112399 2.677409 0.053271 -0.025178 198919.000000 0 0 1
5.953562 -11.929105 -23.531492 27.045879 -1.107886 2.626117 0.046524 -0.032388 392251.000000 0 0 1
4.991262 -12.979005 -23.377792 27.200890 -1.203667 2.604988 0.053274 -0.038501 -152486.000000 0 0 1
5.580362 -14.211805 -22.640892 27.307981 -1.196636 2.548282 0.064606 -0.035680 84696.100000 0 0 1
6.682262 -14.888405 -23.227492 28.387209 -1.148921 2.529136 0.050225 -0.031838 798728.000000 0 0 1
7.940262 -14.199705 -23.330592 28.442853 -1.060929 2.532665 0.052571 -0.028222 397340.000000 0 0 1
8.764162 -14.043305 -22.039992 27.564220 -1.012858 2.497404 0.061255 -0.023806 -534895.000000 0 0 1
9.054962 -15.283605 -21.498892 27.888766 -1.035938 2.451018 0.055077 -0.011745 15631.800000 0 0 1
8.208462 -15.661105 -20.414392 27.007341 -1.088031 2.427798 0.046391 -0.014403 -243547.000000 0 0 1
8.857262 -15.781805 -19.034992 26.264946 -1.059370 2.381439 0.050172 -0.013334 -631059.000000 0 0 1
9.764762 -16.813405 -19.049492 27.219925 -1.044635 2.345965 0.070882 -0.019570 -732643.000000 0 0 1
10.235462 -17.213905 -17.723492 26.743324 -1.034354 2.295249 0.076575 -0.016060 -273102.000000 0 0 1
9.218262 -17.981505 -16.857292 26.314999 -1.097078 2.266071 0.047746 -0.015263 -607265.000000 0 0 1
8.953762 -19.376605 -17.046592 27.316826 -1.137933 2.244689 0.052918 -0.011106 237383.000000 0 0 1
8.296762 -19.684205 -18.277992 28.113861 -1.171900 2.278567 0.058689 -0.009189 459932.000000 0 0 1
6.765162 -19.359005 -18.345192 27.515170 -1.234604 2.300609 0.051919 -0.011121 125482.000000 0 0 1
6.384462 -17.969005 -18.328392 26.449508 -1.229404 2.336380 0.058632 -0.012213 -416019.000000 0 0 1
5.000662 -17.729905 -18.323792 25.983023 -1.295891 2.353532 0.053912 -0.004422 -113980.000000 0 0 1
4.613862 -16.284905 -18.165092 24.828540 -1.294710 2.391494 0.038810 0.006488 -120368.000000 0 1 0
4.572762 -15.996505 -16.818692 23.657276 -1.292362 2.361618 0.005972 0.013885 94529.400000 0 1 0
4.374262 -14.658605 -16.468392 22.477028 -1.280800 2.393043 -0.001285 0.017092 84751.100000 0 1 0
10.463962 29.678295 -18.036692 36.271449 1.231825 2.091245 0.064304 -0.018812 -692626.000000 0 0 1
9.448662 29.493295 -18.978392 36.322322 1.260761 2.120576 0.096298 -0.025161 -364784.000000 0 0 1
8.501762 28.636495 -18.340592 35.052905 1.282199 2.121428 0.093055 -0.020975 -108077.000000 0 0 1
7.464962 28.056095 -19.302192 34.863230 1.310749 2.157543 0.105451 -0.022262 -222050.000000 0 0 1
6.541262 29.017195 -19.759292 35.710158 1.349075 2.157146 0.118253 -0.037899 -316825.000000 0 0 1
5.762062 28.483995 -20.801992 35.738806 1.371199 2.192051 0.106380 -0.033490 329971.000000 0 0 1
4.726062 29.465195 -21.436192 36.742941 1.411756 2.193717 0.103805 -0.037053 -82098.300000 0 0 1
3.547262 29.611295 -20.716492 36.312325 1.451570 2.177921 0.103730 -0.029891 -768874.000000 0 0 1
2.660562 30.547795 -21.284092 37.326384 1.483920 2.177565 0.091235 -0.036772 -424610.000000 0 0 1
1.269762 30.354395 -20.621892 36.718715 1.528989 2.167136 0.089990 -0.032133 706025.000000 0 0 1
0.468962 29.135695 -20.792292 35.797040 1.554702 2.190554 0.101723 -0.046581 606699.000000 0 0 1
0.159062 28.935195 -22.175892 36.456015 1.565299 2.224703 0.120441 -0.053084 -726759.000000 0 0 1
-0.564438 27.576495 -22.407792 35.537176 -1.550331 2.253052 0.126041 -0.052019 565874.000000 0 0 1
-1.885338 27.642795 -21.878092 35.303393 -1.502698 2.239178 0.130458 -0.054147 310165.000000 0 0 1
-2.492638 26.353395 -21.826892 34.309298 -1.476492 2.260333 0.137747 -0.061634 -9371.420000 0 0 1
-3.662338 26.222595 -20.852392 33.702515 -1.432030 2.237908 0.105047 -0.063140 463258.000000 0 0 1
-4.875638 26.917395 -21.228092 34.625856 -1.391606 2.230738 0.094405 -0.062367 408725.000000 0 0 1
-5.850538 26.448295 -20.332692 33.869743 -1.353095 2.214698 0.079817 -0.061139 -252098.000000 0 0 1
-7.241638 27.129795 -20.476192 34.752576 -1.309952 2.200864 0.072590 -0.070737 -131465.000000 0 0 1
-8.188638 26.445295 -19.733792 33.997500 -1.270515 2.190075 0.071969 -0.046020 -759190.000000 0 0 1
-8.541238 27.104195 -18.507992 33.913654 -1.265521 2.148067 0.066110 -0.061060 -958449.000000 0 0 1
-9.717938 26.629295 -17.722892 33.431401 -1.220880 2.129547 0.096342 -0.051963 -837610.000000 0 0 1
-9.508338 25.513495 -16.949392 32.072244 -1.214062 2.127600 0.096334 -0.054205 -340380.000000 0 0 1
-10.741938 24.919395 -16.601692 31.811660 -1.163798 2.119843 0.076704 -0.045549 -32635.100000 0 0 1
-10.608038 24.296495 -15.205192 30.562199 -1.159135 2.091530 0.082172 -0.032313 67276.600000 0 0 1
-9.782438 23.159995 -15.096492 29.325510 -1.171143 2.111560 0.086997 -0.034481 -242225.000000 0 0 1
-10.021938 22.463895 -13.868392 28.238239 -1.151161 2.084173 0.096339 -0.033470 394123.000000 0 0 1
-9.121538 21.197895 -13.756692 26.866332 -1.164442 2.108357 0.084534 -0.025567 318123.000000 0 0 1
-9.770838 20.043595 -14.307692 26.493868 -1.117215 2.141278 0.098590 -0.022890 -67841.000000 0 0 1
-10.092138 19.997995 -15.695692 27.351889 -1.103430 2.181987 0.101209 -0.014905 280078.000000 0 0 1
-8.906738 19.879395 -16.704792 27.451237 -1.149575 2.224998 0.105359 -0.018476 812546.000000 0 0 1
-8.154838 18.624295 -16.644492 26.275557 -1.158084 2.256812 0.102014 -0.018851 18532.700000 0 0 1
-7.228038 18.516595 -17.669992 26.595817 -1.198633 2.297474 0.090433 -0.019058 -98097.300000 0 0 1
-6.710338 17.038395 -17.809692 25.544485 -1.195615 2.342285 0.066058 -0.014296 523875.000000 0 0 1
-7.744438 16.130695 -18.207892 25.528474 -1.123190 2.364904 0.084782 -0.021099 -17664.400000 0 0 1
-7.623938 15.636295 -19.524892 26.150327 -1.117134 2.413794 0.080276 -0.028444 513460.000000 0 0 1
-6.454538 14.659195 -19.882792 25.531911 -1.156033 2.463456 0.047439 -0.014663 572285.000000 0 0 1
-6.662238 13.476595 -19.050992 24.268176 -1.111674 2.473524 0.038426 -0.015437 102935.000000 0 1 0
-5.391738 12.908195 -18.867492 23.487754 -1.175126 2.503596 0.034885 -0.007598 457855.000000 0 1 0
-4.553238 13.294695 -17.599992 22.522003 -1.240832 2.467795 0.016493 0.001740 497036.000000 0 1 0
-3.878438 14.561795 -17.741592 23.277720 -1.310496 2.437456 0.013124 -0.009452 -312425.000000 0 1 0
-3.257038 15.024595 -16.577992 22.609215 -1.357319 2.393872 0.010268 0.003809 5091.000000 0 1 0
-2.446038 16.341395 -16.691292 23.486667 -1.422216 2.361248 0.026766 -0.005126 75558.300000 0 1 0
-3.208438 17.513095 -16.891492 24.542312 -1.389603 2.329884 0.029714 -0.009041 -421157.000000 0 1 0
-2.415638 18.646995 -17.064592 25.391850 -1.441968 2.307770 0.046542 -0.015769 93914.600000 0 0 1
-3.241338 19.917395 -17.507792 26.715758 -1.409472 2.285423 0.053034 -0.015168 470525.000000 0 0 1
-3.358338 19.922295 -18.898092 27.664312 -1.403795 2.322825 0.066316 -0.018262 -93147.700000 0 0 1
-4.065838 21.050595 -19.413792 28.923242 -1.380000 2.306647 0.098511 -0.025044 40359.200000 0 0 1
-3.186838 22.294795 -19.603492 29.858177 -1.428817 2.287037 0.085726 -0.034231 -380122.000000 0 0 1
-2.415338 22.156795 -20.795892 30.483218 -1.462214 2.321574 0.104355 -0.031032 504635.000000 0 0 1
-1.127838 22.761695 -20.928292 30.941238 -1.521287 2.313644 0.111746 -0.040693 905981.000000 0 0 1
-0.051838 22.109995 -20.024392 29.830033 -1.568452 2.306735 0.115141 -0.042484 -609480.000000 0 0 1
-0.142238 22.589695 -18.720792 29.339097 -1.564500 2.262803 0.094909 -0.030470 -387293.000000 0 0 1
0.606762 21.693595 -17.927992 28.149479 1.542834 2.261248 0.103412 -0.026695 70118.300000 0 0 1
0.532662 21.947195 -16.400292 27.403151 1.546531 2.212401 0.094855 -0.020235 -130453.000000 0 0 1
-0.633538 21.476595 -15.760992 26.646846 -1.541306 2.203686 0.067801 -0.005054 -216641.000000 0 0 1
-0.382738 21.264095 -14.380992 25.673355 -1.552799 2.165366 0.077789 -0.011568 132718.000000 0 0 1
-1.286738 20.282795 -13.602392 24.455522 -1.507441 2.160614 0.047735 -0.003033 57885.800000 0 1 0
-1.059738 18.906695 -13.955492 23.523221 -1.514804 2.205904 0.042022 0.000682 -488753.000000 0 1 0
-1.916338 18.166895 -13.183292 22.527930 -1.465700 2.195920 0.029253 0.009343 -508513.000000 0 1 0
-1.663538 16.632595 -13.057892 21.211297 -1.471111 2.233956 0.017992 0.012093 -309354.000000 0 1 0
-0.611438 16.331195 -12.153592 20.366433 -1.533374 2.210236 0.009185 0.005290 171396.000000 0 1 0
-0.354738 14.921595 -12.054192 19.185500 -1.547027 2.250159 0.007218 0.001904 -160128.000000 0 1 0
0.393762 14.225095 -13.176692 19.394164 1.543123 2.317762 0.021859 -0.001424 -618058.000000 0 1 0
-0.301138 14.028495 -14.365992 20.081611 -1.549333 2.367965 0.023997 -0.010368 -450733.000000 0 1 0
0.370862 13.097395 -15.164392 20.040911 1.542488 2.429004 0.026585 -0.015814 -311344.000000 0 1 0
-0.307738 12.702895 -16.505792 20.830253 -1.546575 2.485522 0.024062 -0.017586 -56267.700000 0 1 0
-0.359738 13.775795 -17.383992 22.183443 -1.544689 2.471312 0.029271 -0.022928 -197748.000000 0 1 0
-0.450238 13.339795 -18.750392 23.015866 -1.537058 2.522961 0.035949 -0.028921 -176561.000000 0 1 0
-1.041338 14.360195 -19.694092 24.395837 -1.498407 2.510313 0.034814 -0.011115 82559.200000 0 1 0
-0.182438 15.480095 -19.667292 25.029363 -1.559012 2.474734 0.041266 -0.024671 70783.500000 0 0 1
-0.940938 16.652495 -19.961392 26.012461 -1.514352 2.445538 0.064597 -0.033066 81112.000000 0 0 1
-0.123738 17.926395 -20.249492 27.044646 -1.563894 2.416960 0.087062 -0.041209 -41087.000000 0 0 1
0.782762 17.735495 -21.297692 27.726381 1.526690 2.446725 0.108268 -0.047041 -237857.000000 0 0 1
1.426962 18.953195 -21.617692 28.785143 1.495649 2.420374 0.110769 -0.046504 237356.000000 0 0 1
1.997362 18.999295 -23.087992 29.966950 1.466053 2.450341 0.119963 -0.054847 59012.400000 0 0 1
3.053762 18.109895 -23.355792 29.711728 1.403744 2.475238 0.115397 -0.050156 -195725.000000 0 0 1
3.492962 18.299695 -24.696092 30.935039 1.382190 2.495298 0.121026 -0.057779 519281.000000 0 0 1
4.564862 17.294495 -25.235752 30.931872 1.312733 2.524993 0.100646 -0.040169 863131.000000 0 0 1
5.857162 17.457795 -24.590192 30.720653 1.247093 2.498834 0.085608 -0.029659 674343.000000 0 0 1
6.764562 16.438795 -24.913692 30.605316 1.180416 2.521856 0.086214 -0.023133 57385.800000 0 0 1
7.338462 16.475795 -26.367682 31.946197 1.151767 2.541667 0.086047 -0.040689 -492026.000000 0 0 1
8.534962 17.282395 -26.434882 32.715895 1.112078 2.511569 0.073187 -0.034880 800506.000000 0 0 1
9.106162 17.418795 -27.748412 34.004573 1.089093 2.525288 0.089888 -0.044358 349686.000000 0 0 1
9.691562 16.125395 -28.457032 34.113889 1.029633 2.557436 0.073097 -0.043609 -1337410.000000 0 0 1
10.801062 15.678895 -27.809672 33.702649 0.967565 2.541260 0.075466 -0.037677 -1159530.000000 0 0 1
11.073362 14.306195 -28.085362 33.407696 0.912095 2.569344 0.063002 -0.031522 123216.000000 0 0 1
10.383462 13.231495 -27.156292 31.942964 0.905421 2.587065 0.062087 -0.031329 148234.000000 0 0 1
8.973962 13.274295 -27.153332 31.528437 0.976332 2.608487 0.079275 -0.031505 -415790.000000 0 0 1
8.505862 12.206095 -26.416182 30.317539 0.962185 2.628676 0.085007 -0.032276 566493.000000 0 0 1
6.958462 12.084995 -26.265212 29.737664 1.048366 2.653503 0.083369 -0.030082 44926.500000 0 0 1
6.372262 12.923295 -25.321302 29.133926 1.112697 2.624246 0.110176 -0.020577 178427.000000 0 0 1
4.946362 12.939295 -25.412792 28.943080 1.205663 2.642519 0.113317 -0.032307 795471.000000 0 0 1
4.269462 13.809595 -26.495472 30.181837 1.270951 2.642175 0.139183 -0.029560 -598955.000000 0 0 1
4.452762 13.310295 -27.763272 31.109329 1.247964 2.673526 0.139522 -0.044177 192770.000000 0 0 1
3.865162 14.152695 -28.764892 32.290204 1.304193 2.669952 0.135440 -0.059078 95867.500000 0 0 1
3.877962 13.451595 -30.204292 33.290889 1.290117 2.707576 0.165627 -0.060220 14987.700000 0 0 1
5.193562 13.308895 -30.696512 33.858170 1.198739 2.706001 0.151553 -0.054434 -338802.000000 0 0 1
5.242862 13.025395 -32.056452 34.996638 1.188127 2.728757 0.147586 -0.053656 -1246220.000000 0 0 1
6.444462 12.169595 -32.474112 35.273193 1.083786 2.740527 0.156588 -0.043016 154953.000000 0 0 1
7.707562 12.798895 -32.229812 35.524344 1.028757 2.707519 0.154458 -0.038504 534641.000000 0 0 1
8.115562 12.851695 -30.857792 34.398136 1.007552 2.683907 0.131736 -0.037132 -1266840.000000 0 0 1
8.159962 11.521195 -30.000852 33.156810 0.954551 2.701747 0.124797 -0.034832 -503897.000000 0 0 1
9.112862 10.602695 -30.452762 33.508687 0.860821 2.711200 0.095041 -0.032933 -321745.000000 0 0 1
8.930562 9.370395 -29.804912 32.494493 0.809427 2.731866 0.094702 -0.035735 3869.980000 0 0 1
9.971062 8.250295 -30.052982 32.721112 0.691241 2.734961 0.082132 -0.035297 1536510.000000 0 0 1
11.287262 8.509495 -29.468442 32.683373 0.645994 2.694329 0.066989 -0.033825 887186.000000 0 0 1
12.140962 7.440695 -29.635532 32.879046 0.549821 2.693673 0.046819 -0.028592 -535053.000000 0 0 1
13.417862 7.551995 -28.743752 32.607897 0.512641 2.649819 0.038700 -0.023685 405717.000000 0 0 1
14.081762 6.359495 -28.410302 32.340137 0.424194 2.643477 0.047168 -0.027572 267488.000000 0 0 1
14.877462 5.808095 -29.444352 33.496906 0.372199 2.644593 0.047774 -0.025368 -501656.000000 0 0 1
15.605662 4.464595 -29.119742 33.338097 0.278645 2.633076 0.056655 -0.032419 168111.000000 0 0 1
16.559362 4.601195 -28.094532 32.934575 0.271024 2.592581 0.043665 -0.031187 248035.000000 0 0 1
17.303062 3.438395 -27.792822 32.918984 0.196161 2.576016 0.048671 -0.030344 -82125.100000 0 0 1
17.980362 3.624595 -26.436292 32.176213 0.198920 2.535026 0.043853 -0.025835 -174682.000000 0 0 1
19.007562 4.596295 -26.387352 32.843656 0.237260 2.503819 0.069702 -0.031181 214709.000000 0 0 1
19.396662 4.790195 -25.055602 32.046212 0.242115 2.468438 0.075027 -0.026169 -171199.000000 0 0 1
20.559062 5.771595 -24.826892 32.746922 0.273688 2.431259 0.068062 -0.018567 -388038.000000 0 0 1
20.196362 7.121795 -24.987392 32.908704 0.339014 2.433024 0.070286 -0.015049 348007.000000 0 0 1
21.187262 8.059595 -25.437772 34.072532 0.363495 2.413699 0.082153 -0.029632 -128706.000000 0 0 1
21.462662 8.059295 -26.956852 35.387427 0.359212 2.436827 0.112346 -0.027694 346492.000000 0 0 1
20.293262 8.338295 -27.721412 35.352798 0.389859 2.472099 0.091229 -0.022106 851360.000000 0 0 1
19.466462 7.245995 -28.158872 34.990994 0.356340 2.506044 0.077842 -0.023034 -193664.000000 0 0 1
18.106962 7.695195 -28.688572 34.786668 0.401858 2.540468 0.068826 -0.018197 -553971.000000 0 0 1
18.143662 8.005795 -30.046252 36.000868 0.415549 2.558199 0.053403 -0.015295 962531.000000 0 0 1
17.035562 8.860095 -30.401772 35.958023 0.479593 2.578259 0.030705 -0.008112 517404.000000 0 0 1
16.386362 8.781495 -31.844872 36.874428 0.491956 2.613170 0.019119 -0.004470 216999.000000 0 0 1
15.551162 7.636695 -31.929452 36.326955 0.456477 2.644445 0.034563 -0.014976 -273978.000000 0 0 1
14.427162 7.917495 -32.680142 36.589909 0.501914 2.675089 0.026912 -0.003468 -447058.000000 0 0 1
13.796762 6.632895 -33.369792 36.713608 0.448135 2.711487 0.042278 -0.010142 182631.000000 0 0 1
13.276662 5.694395 -32.441482 35.512613 0.405172 2.722651 0.050955 -0.014841 412948.000000 0 0 1
12.627462 4.583595 -33.104122 35.725972 0.348197 2.756097 0.053779 -0.024614 463428.000000 0 0 1
12.067262 3.460695 -32.113122 34.479673 0.279288 2.768937 0.056049 -0.023989 554913.000000 0 0 1
13.112962 2.851195 -31.341952 34.093945 0.214101 2.737049 0.065411 -0.032027 677097.000000 0 0 1
12.584362 1.944795 -30.369742 32.931287 0.153328 2.744568 0.059773 -0.029798 58043.000000 0 0 1
11.947462 0.599595 -30.889912 33.125338 0.050144 2.772115 0.058683 -0.021161 538699.000000 0 0 1
12.796262 -0.440005 -31.480192 33.984415 -0.034372 2.755301 0.058399 -0.027322 293628.000000 0 0 1
13.690562 -1.028805 -30.568302 33.509865 -0.075006 2.719462 0.062351 -0.034252 239667.000000 0 0 1
14.344862 -2.338905 -31.076222 34.307100 -0.161626 2.704119 0.069160 -0.039508 979361.000000 0 0 1
13.346562 -3.382105 -31.210322 34.112367 -0.248182 2.726123 0.063855 -0.037336 1058310.000000 0 0 1
13.928262 -4.414005 -32.037542 35.211987 -0.306897 2.713713 0.084918 -0.037455 180372.000000 0 0 1
12.984462 -5.619405 -32.175162 35.148471 -0.408441 2.727315 0.069384 -0.029681 -177297.000000 0 0 1
12.930962 -6.402005 -31.004092 34.197210 -0.459713 2.706015 0.078169 -0.028985 63403.600000 0 0 1
12.466162 -7.706405 -31.228212 34.496306 -0.553684 2.702794 0.079808 -0.034721 -317264.000000 0 0 1
12.652262 -8.571805 -29.927172 33.603440 -0.595460 2.669456 0.062199 -0.033461 730332.000000 0 0 1
14.006062 -8.641305 -29.418172 33.708616 -0.552803 2.631542 0.049594 -0.023335 981676.000000 0 0 1
14.055362 -9.111605 -28.083952 32.699892 -0.575155 2.603796 0.053576 -0.013233 60221.200000 0 0 1
14.408762 -10.610305 -27.939242 33.178189 -0.634726 2.571955 0.055829 -0.018973 97459.300000 0 0 1
13.299262 -11.432505 -28.259532 33.259190 -0.710061 2.586167 0.041475 -0.019913 259296.000000 0 0 1
13.677062 -12.818005 -28.506222 34.116975 -0.752986 2.559918 0.046492 -0.021194 309678.000000 0 0 1
-9.915538 -2.938605 -17.646592 20.453741 0.288117 2.611492 0.029162 -0.012180 -183273.000000 0 1 0
-10.685038 -2.735805 -18.753392 21.756479 0.250656 2.609936 0.044198 -0.015173 -70511.200000 0 1 0
-11.619938 -3.758405 -19.122792 22.689860 0.312824 2.573243 0.049822 -0.015394 7955.410000 0 1 0
-12.481838 -3.255405 -20.271392 24.027552 0.255128 2.574884 0.080684 -0.034048 29926.700000 0 1 0
-13.478938 -2.275505 -19.915392 24.155383 0.167242 2.540062 0.088846 -0.029406 203480.000000 0 1 0
-14.389238 -2.018205 -20.944992 25.491489 0.139349 2.535090 0.089690 -0.023041 163458.000000 0 0 1
-15.270538 -0.820405 -20.495492 25.572008 0.053673 2.500565 0.091421 -0.022909 350023.000000 0 0 1
-14.626938 0.417695 -20.828692 25.454984 -0.028549 2.529167 0.095377 -0.027135 -187564.000000 0 0 1
-15.489438 1.488095 -20.626592 25.837829 -0.095778 2.495280 0.099832 -0.023932 -188577.000000 0 0 1
-15.060138 2.874195 -21.256892 26.209239 -0.188580 2.516734 0.125227 -0.026301 9820.040000 0 0 1
-13.915538 3.541395 -20.784692 25.262365 -0.249202 2.537034 0.121719 -0.027119 75182.400000 0 0 1
-13.804838 4.820995 -21.336692 25.866387 -0.335984 2.540788 0.132143 -0.034124 186695.000000 0 0 1
-12.545838 5.579795 -20.833792 24.951534 -0.418482 2.558875 0.102259 -0.033623 156265.000000 0 1 0
-12.674038 6.107595 -19.516992 24.059238 -0.449062 2.517007 0.105403 -0.035541 385588.000000 0 1 0
-11.384438 6.436395 -19.034792 23.094500 -0.514565 2.539608 0.072108 -0.024923 93058.600000 0 1 0
-11.399138 6.961595 -17.591592 22.087740 -0.548259 2.492184 0.079048 -0.026415 -14566.700000 0 1 0
-11.843438 8.303195 -17.555692 22.746701 -0.611450 2.452449 0.074890 -0.032887 -312537.000000 0 1 0
-12.994638 8.422295 -16.778392 22.832217 -0.575064 2.396251 0.108683 -0.032422 -426801.000000 0 1 0
-13.779838 9.716695 -16.862492 23.846210 -0.614166 2.356235 0.119630 -0.033625 58979.900000 0 1 0
-13.066438 10.755095 -16.146992 23.390794 -0.688673 2.332719 0.084561 -0.019795 385488.000000 0 1 0
-13.710138 11.967495 -16.304392 24.434034 -0.717636 2.301350 0.099965 -0.029059 -573299.000000 0 1 0
-13.005538 13.096695 -15.633992 24.188616 -0.788890 2.273570 0.105240 -0.023607 -509830.000000 0 1 0
-13.043538 13.139895 -14.230892 23.351853 -0.789078 2.226115 0.115913 -0.023205 -177522.000000 0 1 0
-12.635238 14.360395 -13.705692 23.531175 -0.849216 2.192534 0.108122 -0.026103 -1186320.000000 0 1 0
-13.088938 14.609795 -12.234592 23.118211 -0.840250 2.128476 0.080494 -0.024990 1566650.000000 0 1 0
-14.480238 14.907795 -11.952392 23.974556 -0.799946 2.092716 0.077508 -0.028654 1485500.000000 0 1 0
-15.456238 14.052395 -12.553692 24.371301 -0.737860 2.111922 0.075792 -0.020946 -335515.000000 0 1 0
-16.861538 14.189495 -11.877592 25.034585 -0.699556 2.065132 0.056484 -0.015853 150410.000000 0 0 1
-17.873538 13.550195 -12.579492 25.716041 -0.648674 2.081933 0.050998 -0.021053 772418.000000 0 0 1
-19.153338 14.165895 -12.226592 26.777089 -0.636815 2.044973 0.106283 -0.021401 616934.000000 0 0 1
-20.368538 13.481595 -12.805992 27.579416 -0.584684 2.053676 0.096305 -0.029289 -913777.000000 0 0 1
-20.637738 12.235495 -12.245892 26.936693 -0.535160 2.042739 0.104995 -0.030991 131672.000000 0 0 1
-21.732438 11.701495 -12.948292 27.872605 -0.493920 2.053926 0.135355 -0.031290 -224169.000000 0 0 1
-22.449138 10.525095 -12.268592 27.663329 -0.438412 2.030292 0.125086 -0.030627 -923577.000000 0 0 1
-21.606738 9.488695 -12.037492 26.491276 -0.413798 2.042489 0.116796 -0.038381 -223952.000000 0 0 1
-22.173238 8.374195 -11.335492 26.273047 -0.361111 2.016895 0.113866 -0.030179 209984.000000 0 0 1
-21.156638 7.197295 -11.327892 25.054451 -0.327910 2.039949 0.111358 -0.034442 167525.000000 0 0 1
-21.031638 6.506295 -12.564492 25.348139 -0.300019 2.089411 0.115402 -0.036798 704796.000000 0 0 1
-19.840238 5.722995 -12.551392 24.164543 -0.280831 2.116961 0.115799 -0.041158 283564.000000 0 1 0
-19.942738 4.476795 -13.441992 24.463067 -0.220822 2.152539 0.124709 -0.053606 376512.000000 0 1 0
-20.934338 3.515495 -13.042992 24.914350 -0.166377 2.121766 0.124281 -0.048645 847622.000000 0 1 0
-20.640838 2.348895 -13.810592 24.945820 -0.113311 2.157505 0.120852 -0.050253 -355476.000000 0 1 0
-21.567538 1.151595 -13.584992 25.515424 -0.053344 2.132256 0.124990 -0.043001 56716.900000 0 0 1
-22.851438 1.234095 -14.174492 26.918905 -0.053953 2.125349 0.093232 -0.037483 597114.000000 0 0 1
-23.445438 -0.086705 -14.320392 27.473072 0.003698 2.119114 0.096293 -0.041001 663581.000000 0 0 1
-24.736838 -0.163805 -15.206892 29.037692 0.006622 2.121979 0.098479 -0.039565 565713.000000 0 0 1
-25.893528 0.374495 -14.585992 29.721477 -0.014462 2.083754 0.116429 -0.046318 -107069.000000 0 0 1
-27.039858 -0.084505 -15.261592 31.049593 0.003125 2.084634 0.104583 -0.032496 -150364.000000 0 0 1
-28.333708 0.198195 -14.479192 31.819574 -0.006995 2.043214 0.111757 -0.034753 -203938.000000 0 0 1
-28.424118 -0.526105 -13.231992 31.357501 0.018507 2.006416 0.120741 -0.029133 190392.000000 0 0 1
-29.622858 -0.191305 -12.552892 32.173365 0.006458 1.971606 0.168837 -0.031321 240130.000000 0 0 1
-29.836968 -0.726805 -11.132492 31.854439 0.024354 1.927812 0.154008 -0.036252 -58944.500000 0 0 1
-30.321338 -2.089305 -10.993692 32.320427 0.068797 1.917869 0.159151 -0.027334 750126.000000 0 0 1
-29.483948 -3.035705 -11.639492 31.843311 0.102600 1.944992 0.163383 -0.032486 23558.800000 0 0 1
-29.859578 -4.463505 -11.138592 32.180514 0.148384 1.924238 0.167859 -0.032245 -158943.000000 0 0 1
-31.063618 -4.998505 -11.633092 33.544929 0.159544 1.924944 0.173279 -0.033701 55459.900000 0 0 1
-31.424948 -6.206305 -10.966592 33.857225 0.194987 1.900653 0.172671 -0.035278 95808.900000 0 0 1
-30.666928 -7.534505 -11.356792 33.558992 0.240916 1.916026 0.161539 -0.034789 -364843.000000 0 0 1
-29.340538 -7.561005 -10.930092 32.210291 0.252211 1.917007 0.151400 -0.033582 -320660.000000 0 0 1
-28.547508 -8.388205 -11.802192 32.009591 0.285790 1.948415 0.143198 -0.030943 295589.000000 0 0 1
-27.057378 -8.385205 -11.378892 30.526915 0.300519 1.952767 0.139053 -0.039244 -35316.400000 0 0 1
-26.342068 -7.182905 -11.723892 29.714446 0.266206 1.976377 0.106793 -0.024300 1117260.000000 0 0 1
-24.940038 -7.208105 -11.455692 28.375961 0.281351 1.986366 0.120976 -0.031429 483790.000000 0 0 1
-24.515838 -6.904705 -9.983292 27.356304 0.274531 1.944360 0.124329 -0.031689 -504886.000000 0 0 1
-24.769438 -5.586805 -9.464792 27.098334 0.221840 1.927594 0.111929 -0.022622 757734.000000 0 0 1
-26.139698 -5.359205 -9.178192 28.217797 0.202219 1.902086 0.123918 -0.022731 -129198.000000 0 0 1
-26.315638 -4.115505 -8.338692 27.910284 0.155133 1.874197 0.125748 -0.035773 -228776.000000 0 0 1
-26.021768 -4.189805 -6.940092 27.255307 0.159641 1.828264 0.123737 -0.031747 468461.000000 0 0 1
-26.106888 -2.889205 -6.413492 27.037936 0.110220 1.810282 0.146366 -0.038472 -90625.700000 0 0 1
-25.906348 -2.900105 -4.906492 26.525895 0.111482 1.756838 0.137161 -0.032300 -799873.000000 0 0 1
-24.578738 -3.024305 -4.516492 25.172594 0.122430 1.751194 0.117576 -0.027276 -409660.000000 0 0 1
-24.453638 -3.107005 -3.144292 24.849959 0.126380 1.697667 0.093962 -0.019528 1075650.000000 0 1 0
-22.938338 -3.380105 -2.773892 23.351380 0.146303 1.689867 0.079424 -0.006158 1138230.000000 0 1 0
-22.635738 -4.744005 -3.044292 23.327021 0.206590 1.701675 0.081935 -0.006858 988283.000000 0 1 0
-21.227738 -4.978405 -2.906892 21.996622 0.230360 1.703336 0.066788 -0.008584 331818.000000 0 1 0
-20.859238 -6.445605 -2.850292 22.017670 0.299697 1.700615 0.066270 -0.008173 -528378.000000 0 1 0
-21.431738 -7.111105 -1.767492 22.649751 0.320372 1.648912 0.073182 -0.006650 141096.000000 0 1 0
-21.903138 -8.298605 -2.289692 23.534166 0.362166 1.668243 0.074994 -0.015406 -77690.500000 0 1 0
-22.609238 -9.025905 -1.113292 24.369735 0.379828 1.616496 0.115337 -0.016700 -620115.000000 0 1 0
-21.639738 -9.648305 -0.355992 23.695881 0.419406 1.585820 0.086473 -0.010484 -233136.000000 0 1 0
-22.049938 -10.314105 0.801708 24.356175 0.437526 1.537874 0.073963 -0.005397 220714.000000 0 1 0
-20.881738 -10.973405 1.627208 23.645515 0.483841 1.501925 0.079692 -0.011258 414468.000000 0 1 0
-20.360738 -12.114605 1.008508 23.713717 0.536734 1.528255 0.082244 -0.006510 609454.000000 0 1 0
-19.153338 -12.541205 1.635808 22.952299 0.579728 1.499466 0.046104 -0.010449 213624.000000 0 1 0
-18.476138 -13.764605 0.978508 23.060561 0.640289 1.528351 0.043041 -0.007597 -263373.000000 0 1 0
-19.183938 -14.994305 1.064708 24.371833 0.663425 1.527096 0.060742 -0.004254 347173.000000 0 1 0
-18.581738 -16.085405 0.368808 24.579610 0.713514 1.555791 0.062489 -0.015467 895252.000000 0 1 0
-17.303138 -16.750005 1.018908 24.103929 0.769156 1.528512 0.067229 -0.012471 224754.000000 0 1 0
-16.118838 -16.014205 1.068908 22.746741 0.782142 1.523787 0.053225 -0.010965 -405754.000000 0 1 0
-15.120038 -16.584305 1.887308 22.521470 0.831550 1.486898 0.061760 -0.021397 78299.200000 0 1 0
-15.260338 -16.605005 3.409108 22.808466 0.827572 1.420767 0.068658 -0.024776 -421448.000000 0 1 0
-15.295738 -15.313105 3.963008 22.003550 0.785966 1.389700 0.063756 -0.019017 -92185.100000 0 1 0
-14.614638 -15.231605 5.190008 21.737654 0.806067 1.329711 0.067290 -0.016323 -164789.000000 0 1 0
-15.310438 -15.750705 6.496508 22.906305 0.799571 1.283237 0.075941 -0.021066 -1024070.000000 0 1 0
-16.123438 -14.729705 7.033108 22.943279 0.740256 1.259237 0.075691 -0.011319 185352.000000 0 1 0
-16.579338 -14.823905 8.404708 23.775233 0.729557 1.209479 0.088348 -0.009995 223588.000000 0 1 0
-17.451138 -16.071705 8.760608 25.290120 0.744272 1.217061 0.070659 -0.002683 -465748.000000 0 0 1
-16.810738 -17.284405 8.441208 25.546145 0.799290 1.234037 0.072010 -0.009146 -182299.000000 0 0 1
-17.415338 -18.427305 9.031708 26.915261 0.813624 1.228596 0.070646 -0.015996 -5192.700000 0 0 1
-16.988838 -18.800205 10.502508 27.429382 0.835967 1.177871 0.075937 -0.014075 610972.000000 0 0 1
-15.599238 -19.112405 10.609308 26.854751 0.886265 1.164660 0.071097 -0.022726 458805.000000 0 0 1
-15.320738 -19.471505 11.906208 27.488585 0.904138 1.122831 0.067468 -0.027552 -502027.000000 0 0 1
-13.996838 -20.165905 12.198908 27.411467 0.964052 1.109589 0.061302 -0.024297 316718.000000 0 0 1
-12.860438 -19.334005 11.894108 26.089546 0.983829 1.097418 0.067360 -0.026416 1025470.000000 0 0 1
-11.642638 -19.950105 12.359908 26.197805 1.042532 1.079475 0.064464 -0.023765 1549720.000000 0 0 1
-10.409938 -19.011405 12.595708 25.068948 1.069826 1.044375 0.072560 -0.030024 713406.000000 0 0 1
-9.764138 -18.487105 11.464308 23.844114 1.084876 1.069227 0.065270 -0.033390 415178.000000 0 1 0
-8.530138 -17.855405 11.825708 23.052681 1.125119 1.032136 0.058015 -0.025285 1278120.000000 0 1 0
-7.662538 -17.224205 10.639908 21.647063 1.152216 1.056965 0.042554 -0.027737 724676.000000 0 1 0
-6.773638 -18.135405 10.012908 21.795261 1.213338 1.093468 0.043092 -0.024726 16716.000000 0 1 0
-5.955738 -17.453305 9.072908 20.552526 1.241948 1.113583 0.041026 -0.020154 -664266.000000 0 1 0
-4.803738 -18.209305 8.530708 20.674323 1.312866 1.145464 0.034709 -0.016773 -1021270.000000 0 1 0
-3.651338 -18.333505 9.300508 20.879394 1.374207 1.109131 0.036593 -0.017618 -78307.300000 0 1 0
-2.596338 -18.929005 8.539808 20.927888 1.434485 1.150470 0.044201 -0.019012 654284.000000 0 1 0
-1.197238 -19.015705 9.158508 21.140214 1.507919 1.122726 0.043724 -0.027152 324385.000000 0 1 0
-0.158238 -19.570705 8.383208 21.291212 1.562711 1.166099 0.048351 -0.019168 -3364.050000 0 1 0
1.020862 -19.849305 9.116508 21.866590 -1.519411 1.140748 0.058827 -0.020687 119338.000000 0 1 0
2.174662 -20.335805 8.233408 22.046839 -1.464264 1.188070 0.055022 -0.032263 -222811.000000 0 1 0
2.000762 -21.621105 7.711408 23.042158 -1.478522 1.229546 0.059382 -0.026634 -64935.400000 0 1 0
2.426962 -22.640505 8.605408 24.342055 -1.464009 1.209465 0.067714 -0.026331 -334091.000000 0 1 0
1.695062 -23.912805 8.299508 25.368825 -1.500030 1.237506 0.055262 -0.030505 -279017.000000 0 0 1
2.021362 -24.939905 9.179308 26.652288 -1.489924 1.219186 0.068630 -0.025346 -226480.000000 0 0 1
1.519162 -26.133995 8.681408 27.580072 -1.512732 1.250581 0.069938 -0.023380 -735529.000000 0 0 1
1.624162 -27.278605 9.697908 28.996717 -1.511327 1.229776 0.082145 -0.018216 209008.000000 0 0 1
0.881262 -27.031265 10.879908 29.151986 -1.538206 1.188326 0.070234 -0.024067 260898.000000 0 0 1
-0.525338 -27.170435 10.767908 29.231085 1.551464 1.193539 0.060045 -0.010051 -486.917000 0 0 1
-1.254638 -27.236295 12.125008 29.839666 1.524764 1.152353 0.054373 -0.012683 75927.800000 0 0 1
-0.919738 -28.406175 12.831708 31.183480 1.538430 1.146707 0.052885 -0.011903 -83332.500000 0 0 1
-1.166838 -28.219745 14.187708 31.607065 1.529472 1.105287 0.057646 -0.013973 -40356.600000 0 0 1
-0.720738 -29.367245 15.111308 33.034923 1.546259 1.095689 0.049620 -0.005683 -33637.100000 0 0 1
-0.855938 -29.030605 16.486208 33.396163 1.541321 1.054508 0.056517 -0.005000 62130.700000 0 0 1
-0.478238 -30.125985 17.339308 34.762843 1.554923 1.048596 0.051519 -0.005634 -184047.000000 0 0 1
-0.949338 -29.950615 18.776708 35.362485 1.539110 1.011042 0.055110 -0.011054 8639.510000 0 0 1
-2.355838 -30.022915 18.881008 35.544589 1.492489 1.010789 0.049773 -0.008142 36768.000000 0 0 1
-2.703338 -29.849325 20.260408 36.176986 1.480477 0.976367 0.072784 -0.017390 577929.000000 0 0 1
-4.248138 -29.827285 20.518008 36.451368 1.429323 0.972922 0.090749 -0.024471 -3062.830000 0 0 1
-4.838538 -28.648585 19.986408 35.264846 1.403483 0.968239 0.089731 -0.025751 -949087.000000 0 0 1
-6.161638 -28.626575 20.384408 35.678714 1.358789 0.962668 0.089546 -0.032865 -816149.000000 0 0 1
-6.265538 -27.764185 21.681908 35.780051 1.348844 0.919802 0.119045 -0.038569 -606344.000000 0 0 1
-5.572838 -28.272845 22.792208 36.740917 1.376182 0.901608 0.106065 -0.037399 -58953.500000 0 0 1
-5.687238 -27.345035 23.860108 36.734185 1.365739 0.863825 0.117632 -0.038238 -253845.000000 0 0 1
-4.757838 -27.653905 25.047808 37.613404 1.400415 0.842060 0.109584 -0.034722 -139219.000000 0 0 1
-4.970438 -28.855585 25.791108 39.019627 1.400218 0.848675 0.112187 -0.038881 163261.000000 0 0 1
-4.067838 -29.877875 25.397608 39.424271 1.435479 0.870803 0.112137 -0.038829 46312.200000 0 0 1
-4.132738 -31.163795 26.247808 40.953743 1.438952 0.875109 0.100617 -0.021805 22041.200000 0 0 1
-3.543738 -31.004505 27.517908 41.606161 1.456993 0.848126 0.107885 -0.028351 40137.800000 0 0 1
-3.576638 -32.213375 28.210208 42.968706 1.460220 0.854588 0.102059 -0.039984 -451633.000000 0 0 1
-2.898938 -32.063835 29.539608 43.693040 1.480630 0.828379 0.131684 -0.028212 -654586.000000 0 0 1
-1.504138 -31.982285 29.440008 43.495322 1.523801 0.827315 0.128012 -0.026830 -227688.000000 0 0 1
-0.989238 -31.757535 30.755308 44.220002 1.539657 0.801671 0.124824 -0.021976 -184504.000000 0 0 1
-28.609508 2.958295 -10.299092 30.550397 -0.103036 1.914650 0.153979 -0.024802 -49819.500000 0 0 1
-29.352358 3.052595 -11.526592 31.681881 -0.103626 1.943165 0.149803 -0.042613 512149.000000 0 0 1
-30.188248 4.226795 -11.531792 32.591078 -0.139110 1.932462 0.137341 -0.030074 -97089.000000 0 0 1
-31.251778 4.232795 -12.632992 33.973264 -0.134623 1.951799 0.132382 -0.027738 -273793.000000 0 0 1
-32.242338 3.251995 -12.479792 34.725913 -0.100521 1.938400 0.145291 -0.032966 28377.600000 0 0 1
-33.092358 3.102295 -13.600292 35.912342 -0.093473 1.959196 0.141244 -0.025571 328400.000000 0 0 1
-34.270306 2.117095 -13.359092 36.842927 -0.061698 1.941848 0.152188 -0.028472 456241.000000 0 0 1
-33.801878 0.780195 -13.069892 36.249107 -0.023077 1.939662 0.159814 -0.025495 570640.000000 0 0 1
-34.923115 0.040095 -12.596692 37.125493 -0.001148 1.916969 0.167222 -0.028162 484308.000000 0 0 1
-34.622204 -1.421205 -12.139992 36.716430 0.041026 1.907780 0.154196 -0.032177 -27334.200000 0 0 1
-34.546452 -2.357305 -13.166192 37.045416 0.068130 1.934146 0.152975 -0.029710 82774.200000 0 0 1
-34.364574 -3.704105 -12.689192 36.819287 0.107374 1.922646 0.159322 -0.029643 -52737.300000 0 0 1
-34.870471 -4.870905 -13.529992 37.719175 0.138788 1.937675 0.143587 -0.031120 -27960.100000 0 0 1
-34.894958 -6.069305 -12.786192 37.656092 0.172208 1.917237 0.139579 -0.032550 265952.000000 0 0 1
-35.355484 -7.083805 -13.693492 38.570743 0.197741 1.933735 0.140411 -0.032366 -459352.000000 0 0 1
-35.283307 -8.487805 -13.103392 38.583072 0.236076 1.917304 0.155803 -0.035111 -89864.300000 0 0 1
-33.998718 -9.009505 -12.851292 37.446491 0.259041 1.921108 0.142210 -0.036902 1079920.000000 0 0 1
-33.124798 -9.324405 -13.987892 37.146438 0.274393 1.956877 0.117840 -0.036829 1409950.000000 0 0 1
-31.816898 -10.178305 -13.697992 36.104679 0.309614 1.959940 0.102705 -0.036464 992726.000000 0 0 1
-32.088028 -11.493705 -13.282492 36.581025 0.343955 1.942387 0.099650 -0.033929 -1022280.000000 0 0 1
-30.894278 -12.092005 -13.031792 35.644082 0.373070 1.945083 0.120557 -0.034698 -1209350.000000 0 0 1
-30.918088 -13.576605 -13.497892 36.365443 0.413765 1.951069 0.115449 -0.025332 -98063.000000 0 0 1
-30.774288 -13.708905 -14.932492 36.850647 0.419077 1.988012 0.100000 -0.027213 -16328.800000 0 0 1
-31.049968 -15.012805 -15.517892 37.819172 0.450364 1.993599 0.095630 -0.024100 145001.000000 0 0 1
-29.996098 -16.149205 -15.310692 37.349431 0.493876 1.993175 0.095963 -0.011032 -313986.000000 0 0 1
-28.795528 -15.879005 -15.930092 36.538925 0.503948 2.021919 0.114720 -0.016492 -714004.000000 0 0 1
-27.796318 -16.881005 -15.699892 36.112189 0.545778 2.020561 0.126426 -0.014326 1362740.000000 0 0 1
-26.368548 -16.466805 -16.204392 35.057642 0.558230 2.051295 0.141673 -0.028815 881365.000000 0 0 1
-26.421718 -16.409205 -17.650392 35.761788 0.555754 2.086968 0.127242 -0.032018 -514936.000000 0 0 1
-25.130318 -16.109405 -18.085192 34.901575 0.570047 2.115514 0.098716 -0.023180 -544480.000000 0 0 1
-25.104738 -15.458705 -19.520592 35.359199 0.551933 2.155636 0.109452 -0.028520 -55172.600000 0 0 1
-25.495808 -16.282505 -20.599692 36.599228 0.568344 2.168620 0.115642 -0.042112 -1250450.000000 0 0 1
-26.853768 -16.272205 -20.737492 37.629152 0.544787 2.154480 0.122756 -0.041889 -1721720.000000 0 0 1
-27.373698 -17.507805 -21.425592 38.921698 0.569019 2.153735 0.126746 -0.038642 -175717.000000 0 0 1
-26.865728 -17.518205 -22.726692 39.308490 0.577826 2.187271 0.125126 -0.032708 140146.000000 0 0 1
-27.261388 -18.716505 -23.393092 40.505896 0.601647 2.186488 0.115812 -0.030723 -344522.000000 0 0 1
-26.573298 -18.910605 -24.776492 40.958829 0.618495 2.220452 0.111032 -0.034227 371123.000000 0 0 1
-25.210108 -19.281005 -24.687092 40.208944 0.652914 2.231877 0.114747 -0.033103 -61885.300000 0 0 1
-24.965938 -20.638405 -24.331892 40.512748 0.690788 2.215046 0.103338 -0.030470 -1181950.000000 0 0 1
-23.471838 -20.892905 -24.343192 39.749612 0.727333 2.229906 0.101674 -0.018060 -504615.000000 0 0 1
-22.897838 -21.021105 -25.614222 40.277614 0.742692 2.260025 0.094732 -0.017980 -1500530.000000 0 0 1
-21.538638 -21.181005 -25.562112 39.572332 0.777027 2.273075 0.079247 -0.018178 -1173720.000000 0 0 1
-20.945638 -21.238905 -26.967862 40.212889 0.792350 2.305850 0.075983 -0.017173 -250003.000000 0 0 1
-21.359738 -22.430205 -27.647472 41.517890 0.809839 2.299519 0.107557 -0.021965 -274749.000000 0 0 1
-21.743838 -22.216005 -28.955772 42.482727 0.796139 2.320729 0.113041 -0.017195 320269.000000 0 0 1
-20.608838 -22.153405 -30.060222 42.651078 0.821502 2.352929 0.104011 -0.020633 618566.000000 0 0 1
-20.055738 -23.426305 -30.289372 43.225808 0.862760 2.347209 0.109069 -0.032763 69708.600000 0 0 1
-19.431538 -23.497605 -31.585822 43.902007 0.879832 2.373824 0.112654 -0.035886 181086.000000 0 0 1
-19.194038 -24.915705 -32.205202 45.015314 0.914392 2.368032 0.118252 -0.033080 -78250.200000 0 0 1
-18.546138 -24.880905 -33.465022 45.639088 0.930248 2.393891 0.119512 -0.038984 -144527.000000 0 0 1
-19.442438 -24.789605 33.428110 45.934426 0.905703 0.755782 0.132482 -0.028530 -361751.000000 0 0 1
-18.737638 -24.713105 32.052892 44.600723 0.922064 0.768919 0.137068 -0.022014 -465921.000000 0 0 1
-18.071438 -23.501105 31.880744 43.534591 0.915270 0.749091 0.089938 -0.016638 -223341.000000 0 0 1
-17.572238 -23.434305 30.537624 42.314261 0.927391 0.764561 0.085883 -0.012867 -229822.000000 0 0 1
-16.704338 -22.201605 30.399834 41.183687 0.925765 0.740469 0.066576 -0.006323 -310735.000000 0 0 1
-17.522438 -21.077805 30.297704 40.856585 0.877246 0.735400 0.066769 -0.013201 408054.000000 0 0 1
-16.731138 -19.895205 30.012434 39.705118 0.871572 0.713794 0.066253 -0.017054 644219.000000 0 0 1
-15.900938 -19.287405 31.231444 40.003086 0.881341 0.674970 0.072287 -0.018256 460892.000000 0 0 1
-15.465338 -17.977005 30.867284 38.924781 0.860362 0.655082 0.075240 -0.019559 -217361.000000 0 0 1
-14.950738 -17.330705 32.017307 39.357158 0.858991 0.620640 0.067741 -0.018586 -109320.000000 0 0 1
-14.360038 -15.956305 31.670234 38.259876 0.838003 0.595682 0.074542 -0.018592 564389.000000 0 0 1
-13.116638 -16.038105 30.950094 37.244803 0.885270 0.589910 0.084045 -0.024776 527692.000000 0 0 1
-12.659838 -14.749905 30.623254 36.271406 0.861504 0.565574 0.081479 -0.030586 750811.000000 0 0 1
-11.098338 -14.663305 30.512914 35.626164 0.922908 0.542395 0.111633 -0.032872 754060.000000 0 0 1
-10.651338 -13.344505 30.511284 34.963771 0.897165 0.510185 0.113918 -0.033677 -1155340.000000 0 0 1
-9.274538 -13.225105 30.513764 34.525502 0.959210 0.486866 0.091070 -0.023864 -843356.000000 0 0 1
-8.981338 -11.734505 30.326764 33.735377 0.917525 0.453406 0.082416 -0.023291 -10418.900000 0 0 1
-9.509138 -10.893005 31.347924 34.522074 0.853124 0.432181 0.088027 -0.020257 17719.900000 0 0 1
-9.214938 -9.516805 31.175884 33.873595 0.801512 0.401798 0.074445 -0.013128 118714.000000 0 0 1
-10.072638 -8.563805 32.088850 34.705779 0.704613 0.390821 0.057858 -0.015582 962249.000000 0 0 1
-11.407938 -8.378805 31.574194 34.601664 0.633489 0.421430 0.074418 -0.024213 661128.000000 0 0 1
-12.310338 -7.631105 32.360186 35.453629 0.554919 0.420838 0.059122 -0.028032 -33319.800000 0 0 1
-12.018138 -6.185405 32.840331 35.513128 0.475317 0.390450 0.044915 -0.022813 -519628.000000 0 0 1
-12.289938 -5.172405 31.881394 34.557483 0.398363 0.396130 0.046821 -0.022542 173100.000000 0 0 1
-12.502438 -3.900605 32.450560 34.993779 0.302418 0.383599 0.044253 -0.021338 -267997.000000 0 0 1
-12.028038 -2.758205 31.522224 33.851618 0.225417 0.373138 0.048908 -0.018149 -951436.000000 0 0 1
-10.663438 -2.632505 31.634224 33.486761 0.242033 0.334183 0.053659 -0.015181 -741623.000000 0 0 1
-10.076238 -1.469205 30.989764 32.619850 0.144789 0.317471 0.047981 -0.009568 249608.000000 0 0 1
-8.541738 -1.316605 31.079454 32.258754 0.152934 0.271228 0.053954 -0.013267 275013.000000 0 0 1
-8.141238 -0.917605 32.403024 33.422713 0.112237 0.247650 0.052265 -0.025828 248334.000000 0 0 1
-6.823438 -0.390605 32.441017 33.153152 0.057182 0.207641 0.057510 -0.023651 262318.000000 0 0 1
-6.647038 0.326495 33.815202 34.463860 -0.049079 0.194323 0.078586 -0.033354 -265437.000000 0 0 1
-7.241738 1.631495 33.985224 34.786492 -0.221591 0.215048 0.084995 -0.031693 -47373.000000 0 0 1
-6.681138 2.655895 33.240727 34.009371 -0.378368 0.213010 0.088357 -0.026638 -574926.000000 0 0 1
-7.402538 4.005095 33.345616 34.391401 -0.495941 0.247240 0.078279 -0.033383 134970.000000 0 0 1
-8.712838 3.896895 32.811292 34.171337 -0.420572 0.283082 0.060980 -0.023462 369943.000000 0 0 1
-9.503238 5.073195 32.875442 34.595427 -0.490351 0.316653 0.040797 -0.013700 955043.000000 0 0 1
-10.829738 5.090095 32.022528 34.185298 -0.439370 0.357616 0.030279 -0.006864 903504.000000 0 0 1
-11.583538 6.251295 32.282555 34.862880 -0.494878 0.387156 0.032870 -0.014250 218115.000000 0 0 1
-12.719938 6.401695 31.427044 34.502719 -0.466268 0.425440 0.005856 -0.004666 328175.000000 0 0 1
-13.443338 7.729795 31.644284 35.239662 -0.521827 0.455654 0.025442 -0.014392 -697673.000000 0 0 1
-14.236838 7.738195 32.771337 36.558553 -0.497865 0.459201 0.027032 -0.020021 -425865.000000 0 0 1
-15.015838 8.887395 32.872976 37.216847 -0.534419 0.487979 0.015158 -0.007715 -143822.000000 0 0 1
-15.953538 8.890495 -33.864262 38.475246 -0.508411 2.646989 0.012626 -0.008950 -183433.000000 0 0 1
-15.336838 9.209895 -32.635442 37.217104 -0.540793 2.640158 0.015156 -0.009022 -738573.000000 0 0 1
-16.140338 9.759895 -31.631292 36.828042 -0.543861 2.603898 0.031102 -0.009940 -1863190.000000 0 0 1
-15.449138 9.954495 -30.254452 35.399149 -0.572386 2.595704 0.059767 -0.019240 440653.000000 0 0 1
-14.482338 10.988695 -30.288282 35.325197 -0.649087 2.601018 0.059243 -0.019473 989084.000000 0 0 1
-13.314738 10.806395 -31.138902 35.548441 -0.681781 2.638212 0.058869 -0.027208 -378147.000000 0 0 1
-12.420238 12.017195 -31.348522 35.796720 -0.768907 2.637757 0.064489 -0.024145 -742698.000000 0 0 1
-12.951138 13.068095 -32.072622 36.975129 -0.789893 2.620771 0.061946 -0.026207 -310666.000000 0 0 1
-12.174138 14.255995 -32.158912 37.224168 -0.864004 2.613809 0.065717 -0.031026 -25535.000000 0 0 1
-12.489038 15.302395 -31.025322 36.779206 -0.886286 2.574667 0.074293 -0.028487 -153317.000000 0 0 1
-13.811138 15.754695 -31.107532 37.505153 -0.851040 2.548865 0.059721 -0.022047 -242048.000000 0 0 1
-14.097538 16.590295 -30.039112 37.098878 -0.866450 2.514444 0.033112 -0.022913 -519735.000000 0 0 1
-15.458438 17.267995 -30.095802 37.985580 -0.840635 2.485358 0.028570 -0.029226 -592715.000000 0 0 1
-15.548538 18.079495 -31.230662 39.293504 -0.860520 2.489482 0.035561 -0.024902 294060.000000 0 0 1
-16.853338 18.615395 -31.400922 40.206789 -0.835037 2.467039 0.028532 -0.025264 533136.000000 0 0 1
-17.292238 19.881995 -30.594712 40.377613 -0.854951 2.430600 0.008762 -0.023425 -162654.000000 0 0 1
-16.587938 21.042595 -31.083802 41.038436 -0.903229 2.430166 0.010333 -0.013730 447934.000000 0 0 1
-17.040938 22.361995 -30.653232 41.594147 -0.919628 2.399358 -0.001475 -0.014828 -221568.000000 0 0 1
-18.433538 22.819695 -31.136812 42.778907 -0.891323 2.385984 0.008970 -0.016881 -49546.700000 0 0 1
-19.484038 22.214295 -30.377152 42.377754 -0.850781 2.370025 0.015784 -0.029153 320116.000000 0 0 1
-20.569238 22.163995 -31.297292 43.518464 -0.822700 2.373407 0.042904 -0.032361 -244501.000000 0 0 1
-21.741938 21.162995 -30.976512 43.360449 -0.771905 2.366556 0.057018 -0.044947 -258102.000000 0 0 1
-22.648038 21.494995 -29.998922 43.300159 -0.759284 2.336179 0.095051 -0.039904 295550.000000 0 0 1
-23.583138 22.566895 -30.343492 44.566318 -0.763381 2.319735 0.099559 -0.037687 -118987.000000 0 0 1
-24.887338 22.095995 -30.991232 45.476027 -0.726057 2.320586 0.118420 -0.050159 -933906.000000 0 0 1
-24.698838 21.300195 -32.149162 45.796283 -0.711647 2.349004 0.128823 -0.045323 -335301.000000 0 0 1
-25.829368 21.114695 -32.957222 46.895257 -0.685302 2.350099 0.150954 -0.045646 -351471.000000 0 0 1
-25.582028 20.167395 33.831093 46.964954 -0.667592 0.766493 0.147077 -0.037650 -18591.500000 0 0 1
-25.374898 18.823095 -33.648912 46.156729 -0.638232 2.387677 0.142664 -0.043517 184095.000000 0 0 1
-25.076438 18.018795 33.187912 45.331471 -0.623071 0.749373 0.128140 -0.050221 -349861.000000 0 0 1
-24.781238 16.560095 33.480459 44.825079 -0.589099 0.727388 0.096667 -0.028612 -578610.000000 0 0 1
-25.848148 15.647695 33.678932 45.246520 -0.544359 0.731246 0.101066 -0.023326 140423.000000 0 0 1
-26.156548 15.112195 32.436065 44.324280 -0.523906 0.749852 0.106383 -0.022084 -720077.000000 0 0 1
-27.127768 13.939195 32.552810 44.608322 -0.474654 0.752844 0.084337 -0.011603 -1183960.000000 0 0 1
-28.358248 14.390295 32.997399 45.826839 -0.469587 0.766929 0.089308 -0.008251 -492398.000000 0 0 1
-29.385218 13.401195 33.159058 46.288295 -0.427876 0.772226 0.077156 -0.007784 268697.000000 0 0 1
-29.213278 12.287295 -33.724032 46.278543 -0.398143 2.387245 0.075072 -0.006677 -696611.000000 0 0 1
-28.153988 11.400895 -33.914542 45.528273 -0.384764 2.411199 0.071539 -0.015932 -282320.000000 0 0 1
-28.638098 10.069495 33.798217 45.429670 -0.338110 0.731807 0.075728 -0.004317 8503.680000 0 0 1
-27.593708 8.872795 33.958144 44.646330 -0.311110 0.706554 0.061743 -0.013462 877319.000000 0 0 1
-26.590968 8.714495 32.969534 43.243638 -0.316694 0.703762 0.060196 -0.020035 587193.000000 0 0 1
-25.705678 9.781895 32.650139 42.690736 -0.363614 0.700056 0.053194 -0.020982 -886058.000000 0 0 1
-24.357438 9.251295 32.159997 41.390055 -0.362984 0.680913 0.057751 -0.019593 -508836.000000 0 0 1
-24.346938 8.962595 30.754364 40.235959 -0.352725 0.700763 0.065536 -0.024105 943747.000000 0 0 1
-22.973438 8.872495 30.336544 39.074364 -0.368559 0.681895 0.062106 -0.022724 928051.000000 0 0 1
-22.700538 8.825495 28.810494 37.725964 -0.370796 0.701805 0.075506 -0.019656 66768.000000 0 0 1
-23.044438 10.077495 28.208014 37.792778 -0.412248 0.728181 0.082499 -0.012030 214762.000000 0 0 1
-22.977138 10.192695 26.790854 36.736763 -0.417520 0.753548 0.077809 -0.016389 -689271.000000 0 0 1
-23.386138 11.561895 26.207724 36.978828 -0.459150 0.783111 0.073357 -0.012701 870744.000000 0 0 1
-24.747538 11.954695 26.383334 38.097713 -0.450009 0.805823 0.087902 -0.016592 396446.000000 0 0 1
-25.738838 11.332095 25.627754 38.048468 -0.414735 0.831788 0.093466 -0.011325 342953.000000 0 0 1
-27.185938 11.900795 25.847094 39.354497 -0.412625 0.854261 0.095525 -0.010504 731211.000000 0 0 1
-27.409388 13.170095 25.234254 39.515738 -0.447923 0.878135 0.093166 -0.015276 297366.000000 0 0 1
-28.662258 13.793895 25.506964 40.772562 -0.448541 0.894907 0.076855 -0.020357 399058.000000 0 0 1
-28.737318 15.184995 24.879364 40.931654 -0.486114 0.917475 0.084077 -0.019777 113504.000000 0 0 1
-27.914828 16.129695 25.531254 41.124806 -0.523950 0.901003 0.094733 -0.022204 45245.700000 0 0 1
-28.013758 17.383595 24.878434 41.302500 -0.555384 0.924358 0.081268 -0.018265 -221296.000000 0 0 1
-23.062938 -9.144605 31.828624 40.355721 0.377491 0.662102 0.059584 -0.009491 -95888.700000 0 0 1
-22.147838 -8.865305 30.785254 38.946787 0.380746 0.659263 0.069142 -0.014247 -272079.000000 0 0 1
-22.713238 -8.935505 29.512224 38.297595 0.374808 0.691010 0.059053 -0.017086 -519708.000000 0 0 1
-21.774038 -8.708205 28.317104 36.766832 0.380451 0.691672 0.081048 -0.020498 -184589.000000 0 0 1
-21.318838 -7.325805 28.168264 36.077852 0.330989 0.674910 0.079436 -0.025082 1280230.000000 0 0 1
-20.123838 -6.961505 28.924734 35.917567 0.333047 0.634600 0.076460 -0.023612 1454650.000000 0 0 1
-18.704838 -7.409805 28.433724 34.831779 0.377178 0.615793 0.084307 -0.021953 59227.900000 0 0 1
-18.427038 -8.807605 28.529504 35.086497 0.445870 0.621306 0.079252 -0.020999 -33991.200000 0 0 1
-17.913438 -9.214405 29.794504 35.965386 0.475089 0.594513 0.091955 -0.027404 18205.900000 0 0 1
-16.391738 -9.027005 30.056534 35.405807 0.503384 0.556867 0.085368 -0.027439 -463526.000000 0 0 1
-15.524138 -9.682505 29.211204 34.468017 0.557669 0.559563 0.071730 -0.025612 -1427330.000000 0 0 1
-14.248838 -9.355505 29.645654 34.196779 0.580987 0.521820 0.078906 -0.025634 -862738.000000 0 0 1
-13.110238 -10.147705 29.029974 33.430430 0.658703 0.518891 0.086950 -0.020207 -219404.000000 0 0 1
-12.696338 -9.774705 27.725364 32.022456 0.656106 0.524029 0.091388 -0.024028 19589.200000 0 0 1
-11.625538 -10.626405 27.334774 31.547797 0.740527 0.522737 0.094019 -0.023849 371226.000000 0 0 1
-11.101038 -10.294405 25.904814 30.004453 0.747715 0.528894 0.084707 -0.021608 -267555.000000 0 0 1
-12.038738 -10.687005 24.965664 29.705684 0.725988 0.572713 0.075667 -0.019757 -396474.000000 0 0 1
-11.817338 -10.097405 23.680294 28.326020 0.707076 0.580860 0.071823 -0.024560 -358314.000000 0 0 1
-12.836638 -10.510305 22.621374 28.053028 0.686084 0.632793 0.071534 -0.030260 -713407.000000 0 0 1
-12.847438 -11.930105 22.455974 28.489557 0.748392 0.662889 0.061101 -0.022913 128061.000000 0 0 1
-14.032838 -12.511305 21.920574 28.878450 0.728140 0.708923 0.042416 -0.014758 150537.000000 0 0 1
-15.217138 -12.569105 22.884474 30.219908 0.690385 0.711681 0.044861 -0.017698 -88992.300000 0 0 1
-16.393338 -13.227905 22.401174 30.749498 0.678939 0.754659 0.032001 -0.005268 549921.000000 0 0 1
-17.455038 -13.048205 23.316514 31.915417 0.641920 0.751637 0.035141 -0.005162 251112.000000 0 0 1
-18.738338 -13.867205 23.009144 32.754319 0.637099 0.791925 0.070541 -0.014252 28901.500000 0 0 1
-18.443738 -15.320605 22.973654 33.206644 0.693163 0.806763 0.056796 -0.015064 404204.000000 0 0 1
-19.568638 -16.149705 22.714274 34.054116 0.689970 0.840614 0.078068 -0.013737 821241.000000 0 0 1
-20.581438 -16.349805 23.942324 35.554839 0.671314 0.832010 0.066781 -0.014400 56751.200000 0 0 1
-19.993238 -16.962205 25.048564 36.261226 0.703563 0.808228 0.058809 -0.010844 -84695.300000 0 0 1
-20.675238 -16.775905 26.271914 37.404678 0.681654 0.792075 0.055167 -0.015283 -238883.000000 0 0 1
-20.162638 -17.617905 27.471154 38.361268 0.718144 0.772573 0.058618 -0.015248 -136482.000000 0 0 1
-20.371838 -19.011005 27.289054 39.001571 0.750858 0.795831 0.069175 -0.015449 278795.000000 0 0 1
-20.166438 -19.743305 28.493664 40.104516 0.774796 0.780609 0.068208 -0.016384 -321439.000000 0 0 1
-20.260838 -21.277505 28.224944 40.741640 0.809869 0.805461 0.079555 -0.013098 -11290.100000 0 0 1
-21.537438 -21.668805 27.750334 41.273228 0.788439 0.833408 0.081560 -0.013911 98481.400000 0 0 1
-21.553138 -22.984605 27.215904 41.635745 0.817528 0.858377 0.090929 -0.009382 360141.000000 0 0 1
-22.982638 -23.483105 26.814134 42.410561 0.796168 0.886341 0.090400 -0.004561 374459.000000 0 0 1
-23.698138 -23.859405 27.978904 43.745766 0.788789 0.876845 0.087786 -0.006115 196178.000000 0 0 1
-24.931038 -24.448805 27.574944 44.493575 0.775633 0.902371 0.071299 -0.003656 287506.000000 0 0 1
-25.680428 -25.196985 28.722614 46.036518 0.775896 0.897061 0.052228 -0.009467 124997.000000 0 0 1
-26.482708 -24.441905 29.632674 46.656574 0.745345 0.882628 0.045553 0.000878 211112.000000 0 0 1
-27.020388 -25.308475 30.584094 48.020902 0.752695 0.880337 0.037744 0.006998 -417840.000000 0 0 1
-28.136408 -24.611105 31.380814 48.806961 0.718664 0.872442 0.044416 0.001845 84112.500000 0 0 1
-29.229108 -24.337605 30.498734 48.752770 0.694335 0.894922 0.048562 -0.002011 409130.000000 0 0 1
-30.280788 -23.639705 31.167184 49.468729 0.662851 0.889194 0.055143 -0.016613 -334340.000000 0 0 1
-31.488508 -23.501105 30.255084 49.590303 0.641154 0.914609 0.054278 -0.020632 -386260.000000 0 0 1
-32.276428 -24.705005 30.118084 50.588576 0.653297 0.933091 0.045705 -0.016204 1863440.000000 0 0 1
-33.530738 -24.404405 29.404574 50.838119 0.629155 0.954035 0.043534 -0.013214 992650.000000 0 0 1
-34.776745 -25.034305 29.990854 52.302865 0.623929 0.960137 0.035321 -0.011859 -607469.000000 0 0 1
-34.877969 -26.430675 30.155384 53.145089 0.648477 0.967432 0.046641 -0.012279 -364636.000000 0 0 1
-36.007421 -26.722655 30.921684 54.468203 0.638454 0.967085 0.054462 -0.009236 -177743.000000 0 0 1
-35.943642 -28.199195 31.399264 55.435131 0.665242 0.968648 0.060574 -0.021987 -91871.800000 0 0 1
-34.941146 -28.452045 32.368543 55.480854 0.683391 0.947865 0.044583 -0.007253 -56098.400000 0 0 1
-34.561248 -29.799815 32.377003 55.953366 0.711553 0.953733 0.059152 -0.013152 222616.000000 0 0 1
-33.365628 -30.093305 33.348211 55.955119 0.733878 0.932309 0.054679 -0.020836 413685.000000 0 0 1
-33.698688 -29.805655 -33.276462 55.958034 0.724171 2.207649 0.047920 -0.021997 -187342.000000 0 0 1
-32.523928 -29.807505 -32.511322 54.802183 0.741845 2.205885 0.037874 -0.022051 -120456.000000 0 0 1
-32.794828 -29.491875 -31.005262 53.912871 0.732420 2.183522 0.045744 -0.023971 -55168.900000 0 0 1
-32.956758 -28.122415 -30.705052 53.101962 0.706414 2.187352 0.055878 -0.025234 -48914.900000 0 0 1
-31.781688 -27.335395 -30.556762 51.874996 0.710328 2.200674 0.062845 -0.026163 -81913.700000 0 0 1
-32.053698 -25.812485 -30.531762 51.243657 0.677958 2.209077 0.044102 -0.016725 -221659.000000 0 0 1
-32.850938 -25.457045 -29.436022 50.928623 0.659264 2.187055 0.043294 -0.019950 -160724.000000 0 0 1
-32.981978 -24.046605 -29.406352 50.306894 0.629979 2.195108 0.047068 -0.025134 132981.000000 0 0 1
-31.978908 -23.365805 -28.435272 48.756293 0.631010 2.193474 0.049983 -0.021180 -46328.100000 0 0 1
-31.676128 -21.980105 -28.566862 47.985078 0.606621 2.208470 0.059218 -0.017576 797666.000000 0 0 1
-30.701318 -21.512505 -27.591952 46.547552 0.611198 2.205289 0.083814 -0.024322 470950.000000 0 0 1
-30.307628 -20.101405 -27.898622 45.836142 0.585631 2.225167 0.098036 -0.031342 -89408.900000 0 0 1
-29.649188 -19.982105 -29.164042 46.140007 0.593029 2.255027 0.101296 -0.021356 556028.000000 0 0 1
-29.204898 -18.644605 -29.409202 45.447206 0.568182 2.274580 0.093090 -0.025533 -463938.000000 0 0 1
-28.705168 -18.423005 -30.839412 45.983292 0.570590 2.305902 0.096059 -0.017431 404496.000000 0 0 1
-29.714158 -18.347805 -31.848352 47.264052 0.553171 2.310188 0.084546 -0.026181 1079130.000000 0 0 1
-30.769068 -17.388505 -31.633812 47.431990 0.514385 2.300877 0.076394 -0.024107 -335187.000000 0 0 1
-31.227478 -16.595205 -32.920552 48.314790 0.488474 2.320438 0.072279 -0.029845 -227519.000000 0 0 1
-32.136968 -17.162705 -33.833592 49.719766 0.490514 2.319222 0.078787 -0.040636 154616.000000 0 0 1
-33.442258 -16.864305 -33.374432 50.166145 0.467067 2.298662 0.071662 -0.034848 -575056.000000 0 0 1
-34.573965 -17.421405 33.737633 51.352627 0.466753 0.853991 0.085409 -0.044616 -383780.000000 0 0 1
-34.659066 -18.860205 33.687685 51.882736 0.498351 0.864127 0.063603 -0.040251 63472.900000 0 0 1
-35.639339 -19.257705 32.753987 52.094581 0.495404 0.890864 0.058912 -0.037241 -856147.000000 0 0 1
-36.117448 -20.670105 33.024263 53.125561 0.519805 0.899979 0.042390 -0.037455 -871692.000000 0 0 1
-35.332126 -21.747305 32.712814 52.834010 0.551746 0.903121 0.062113 -0.036991 -572964.000000 0 0 1
-35.781231 -22.911305 33.424969 54.059716 0.569538 0.904222 0.055370 -0.030349 -584638.000000 0 0 1
-34.640268 -23.970705 33.684157 53.936679 0.605330 0.896288 0.060712 -0.026369 581602.000000 0 0 1
-33.749128 -23.571105 -33.283952 52.937908 0.609666 2.250723 0.053650 -0.031795 83980.600000 0 0 1
-32.920828 -22.425505 -33.491892 52.042204 0.597993 2.269927 0.055533 -0.035305 -220262.000000 0 0 1
-31.580108 -22.487505 -32.644462 50.681870 0.618786 2.270649 0.053354 -0.029852 268078.000000 0 0 1
-30.719108 -23.532305 -33.032192 50.877880 0.653693 2.277387 0.058596 -0.023633 -267411.000000 0 0 1
-29.399158 -23.206305 -32.701992 49.721860 0.668215 2.288556 0.060807 -0.024011 -358510.000000 0 0 1
-28.858188 -23.611805 -31.304252 48.685404 0.685741 2.269193 0.082223 -0.018471 -1028840.000000 0 0 1
-28.563828 -24.984905 -31.202542 49.129791 0.718663 2.258940 0.070560 -0.020384 12160.600000 0 0 1
-28.120878 -25.296065 -29.910732 48.221640 0.732565 2.239891 0.054273 -0.021318 54705.700000 0 0 1
-27.636278 -26.746605 -29.651402 48.562850 0.769040 2.227586 0.049284 -0.018736 218019.000000 0 0 1
-28.744628 -27.621515 -29.607412 49.656828 0.765475 2.209606 0.029391 -0.011206 161590.000000 0 0 1
-28.308658 -28.813435 -29.099362 49.783200 0.794235 2.195087 0.020941 -0.011255 -41612.900000 0 0 1
-29.026738 -30.075035 -29.651012 51.246871 0.803133 2.187797 0.019292 -0.003016 -97069.900000 0 0 1
-28.814118 -30.208125 -31.044282 52.024337 0.809012 2.210211 0.044335 -0.024326 364334.000000 0 0 1
-29.273028 -31.459075 -31.531992 53.299625 0.821378 2.203837 0.051580 -0.018150 -105108.000000 0 0 1
-28.686558 -31.701455 -32.966762 53.988038 0.835282 2.227653 0.043314 -0.021433 -4436.380000 0 0 1
-27.286798 -31.845015 -32.986082 53.354999 0.862332 2.237295 0.022327 -0.014344 -321274.000000 0 0 1
-26.926588 -32.571225 33.800709 54.114820 0.879986 0.896163 0.029950 -0.017261 -191317.000000 0 0 1
-25.484138 -33.098415 33.710926 53.678421 0.914649 0.891795 0.037275 -0.015912 -124371.000000 0 0 1
-25.346088 -33.859835 32.499972 53.340048 0.928218 0.915622 0.047518 -0.008529 -149512.000000 0 0 1
-24.355938 33.241779 32.644474 52.572705 -0.938466 0.900856 0.043921 0.001823 -466088.000000 0 0 1
-24.358538 32.410596 31.407014 51.285336 -0.926297 0.911707 0.053638 -0.007439 -478553.000000 0 0 1
-25.488278 31.588107 31.296514 51.253611 -0.891865 0.913952 0.051286 -0.023122 -103788.000000 0 0 1
-25.468298 30.830197 30.121984 50.064650 -0.880352 0.925216 0.053868 -0.016821 -189804.000000 0 0 1
-26.863188 30.291807 29.746854 50.240420 -0.845314 0.937146 0.056711 -0.019038 -30841.100000 0 0 1
-27.491218 29.462617 30.698804 50.657965 -0.819998 0.919772 0.073133 -0.022107 397695.000000 0 0 1
-28.750978 29.003837 30.216994 50.802638 -0.789776 0.933790 0.080012 -0.028724 331725.000000 0 0 1
-29.218178 27.820917 31.031744 50.898669 -0.760907 0.915143 0.090037 -0.043518 -43817.700000 0 0 1
-28.361108 26.680997 30.853284 49.680511 -0.754884 0.900735 0.091534 -0.035699 379039.000000 0 0 1
-28.937888 25.467667 31.230094 49.611714 -0.721700 0.889899 0.094457 -0.032799 523578.000000 0 0 1
-30.109858 24.927067 30.359644 49.494143 -0.691506 0.910439 0.097841 -0.034431 648402.000000 0 0 1
-29.527728 24.665167 29.105784 48.243174 -0.695911 0.923146 0.088533 -0.035320 -102317.000000 0 0 1
-30.297388 23.755837 28.354484 47.814729 -0.664963 0.936008 0.070325 -0.028100 -50035.400000 0 0 1
-29.701098 23.344457 26.967674 46.415238 -0.666133 0.950828 0.072339 -0.030205 853542.000000 0 0 1
-28.525228 22.519067 27.211734 45.401272 -0.668271 0.928094 0.077537 -0.030875 606820.000000 0 0 1
-27.807058 22.161867 26.051864 44.080386 -0.672901 0.938488 0.082162 -0.027337 -191602.000000 0 0 1
-26.412318 21.662867 26.454694 43.205800 -0.686926 0.911836 0.083333 -0.025978 -263337.000000 0 0 1
-26.440108 20.308867 26.980154 42.888904 -0.654990 0.890439 0.090586 -0.031112 1076660.000000 0 0 1
-25.104248 19.775567 27.106204 41.905162 -0.667219 0.867354 0.081956 -0.026060 1152430.000000 0 0 1
-25.289298 18.569167 28.084994 42.108544 -0.633358 0.840666 0.101701 -0.033897 -24833.700000 0 0 1
-24.004138 18.159967 28.461624 41.425199 -0.647670 0.813360 0.086223 -0.028014 84556.100000 0 0 1
-24.050438 17.052467 29.327934 41.585309 -0.616760 0.788024 0.084575 -0.026690 14209.800000 0 0 1
-22.778038 16.155267 29.288094 40.467569 -0.616905 0.761586 0.076136 -0.027726 384344.000000 0 0 1
-21.710938 16.716967 30.057164 40.672533 -0.656166 0.739206 0.096319 -0.027571 462624.000000 0 0 1
-20.567138 15.885767 29.867154 39.590550 -0.657675 0.716055 0.066347 -0.025687 529012.000000 0 0 1
-19.321038 16.206467 30.751394 39.769339 -0.697955 0.686856 0.048584 -0.028655 35698.100000 0 0 1
-19.465438 16.078267 32.132464 40.864523 -0.690389 0.665972 0.038618 -0.024065 429220.000000 0 0 1
-18.344338 16.602067 32.827499 41.107032 -0.735584 0.645854 0.036017 -0.024773 -448330.000000 0 0 1
-18.524038 16.218267 -33.627002 41.676701 -0.719128 2.509603 0.022048 -0.029942 565110.000000 0 0 1
-19.600938 16.921467 -33.018022 41.960965 -0.712164 2.476524 0.034125 -0.029397 1118240.000000 0 0 1
-20.933638 16.444367 -33.228022 42.576236 -0.665866 2.466159 0.048014 -0.022557 394303.000000 0 0 1
-22.042238 17.237667 -32.493672 42.881653 -0.663686 2.430658 0.068588 -0.035824 -267889.000000 0 0 1
-22.053538 16.965267 -31.115612 41.741588 -0.655724 2.411983 0.056112 -0.031751 335202.000000 0 0 1
-22.992438 17.785467 -30.420342 42.075792 -0.658394 2.378916 0.056198 -0.030952 -111726.000000 0 0 1
-23.184438 17.632367 -28.895992 41.029220 -0.650204 2.352202 0.060538 -0.042117 244829.000000 0 0 1
-23.705138 16.353567 -28.462602 40.490646 -0.603898 2.350323 0.063243 -0.037442 915500.000000 0 0 1
-25.033038 15.972967 -28.868792 41.414923 -0.567947 2.342089 0.097242 -0.040349 992569.000000 0 0 1
-25.832958 14.905767 -27.961592 40.882444 -0.523340 2.323961 0.088413 -0.021884 490451.000000 0 0 1
-25.454258 13.527767 -27.985282 40.175810 -0.488493 2.341403 0.042531 -0.008502 -167540.000000 0 0 1
-26.429408 12.717767 -27.371122 40.117746 -0.448493 2.321659 0.040280 -0.009903 -93116.700000 0 0 1
-26.230028 11.222267 -27.523612 39.642185 -0.404274 2.338245 0.038240 -0.008080 -223865.000000 0 0 1
-25.344618 10.703767 -26.576252 38.252026 -0.399606 2.338892 0.033709 -0.010005 -505616.000000 0 0 1
-24.313338 9.964567 -27.170812 37.797937 -0.388960 2.372934 0.030936 -0.004370 -556955.000000 0 0 1
-23.375338 9.407667 -26.109712 36.285365 -0.382626 2.373973 0.061927 -0.011629 -477562.000000 0 0 1
-23.935938 8.468767 -25.283852 35.831862 -0.340065 2.354101 0.054919 -0.007331 -439995.000000 0 0 1
-22.884738 7.845467 -24.600692 34.502995 -0.330269 2.364566 0.094265 -0.006750 -236744.000000 0 0 1
-23.236138 6.694967 -23.673192 33.840223 -0.280529 2.345575 0.093967 -0.008729 -31774.700000 0 0 1
-23.784338 5.657367 -24.471192 34.591036 -0.233522 2.356670 0.088412 -0.012878 202869.000000 0 0 1
-24.423538 4.725567 -23.611592 34.297922 -0.191123 2.330113 0.087432 -0.010321 -98100.700000 0 0 1
35.799922 24.759795 -10.218592 44.711313 0.605077 1.801380 0.045560 -0.011792 -467958.000000 0 0 1
36.688312 24.090595 -9.428592 44.891953 0.581021 1.782401 0.059670 -0.019454 -848875.000000 0 0 1
-36.495438 23.229895 -10.122092 44.429740 -0.566837 1.800637 0.073464 -0.021016 -617136.000000 0 0 1
-35.518595 22.706295 -9.105192 43.128308 -0.568802 1.783516 0.065979 -0.018742 -856107.000000 0 0 1
-36.103518 21.722995 -8.273992 42.939626 -0.541659 1.764698 0.069793 -0.025809 524025.000000 0 0 1
-35.260867 21.502495 -7.108692 41.907273 -0.547603 1.741250 0.091824 -0.022700 468935.000000 0 0 1
-35.828324 20.513295 -6.045492 41.725436 -0.519987 1.716196 0.083127 -0.006404 -18607.800000 0 0 1
-36.165188 19.265395 -6.500092 41.488884 -0.489468 1.728115 0.067122 -0.003654 215031.000000 0 0 1
-36.718568 18.431895 -5.506792 41.452536 -0.465228 1.704036 0.084128 -0.015246 -148008.000000 0 0 1
36.744712 17.123795 -6.132592 41.000085 0.436097 1.720935 0.082353 -0.004797 38135.800000 0 0 1
35.575632 17.425395 -6.871592 40.205582 0.455465 1.742551 0.077512 -0.013965 -83858.300000 0 0 1
35.062572 16.290395 -7.512492 39.385258 0.434936 1.762716 0.074396 -0.007470 92662.200000 0 0 1
33.861452 16.616895 -8.423792 38.648149 0.456206 1.790521 0.071583 -0.027937 128796.000000 0 0 1
33.264902 15.476095 -9.056492 37.789990 0.435453 1.812805 0.090990 -0.035854 284468.000000 0 0 1
32.634372 15.883595 -10.290192 37.725044 0.452962 1.847065 0.084935 -0.027093 156331.000000 0 0 1
31.837862 14.685495 -10.974592 36.739011 0.432177 1.874145 0.074712 -0.028381 1213360.000000 0 0 1
30.600762 14.182195 -10.413292 35.298413 0.433990 1.870260 0.070077 -0.023511 1205390.000000 0 0 1
30.713562 13.693795 -9.053292 34.825351 0.419402 1.833780 0.083089 -0.023899 -657221.000000 0 0 1
29.666442 12.616995 -8.795592 33.416296 0.402121 1.837147 0.087068 -0.013942 30469.900000 0 0 1
29.996942 11.553495 -9.635492 33.558047 0.367644 1.862025 0.081005 -0.017767 1314410.000000 0 0 1
28.950772 10.559195 -9.467792 32.237911 0.349736 1.868876 0.109665 -0.016588 534694.000000 0 0 1
29.339822 9.248295 -10.168992 32.400070 0.305355 1.890049 0.122603 -0.020031 -593011.000000 0 0 1
30.402142 8.690295 -9.458792 33.004246 0.278420 1.861465 0.108457 -0.021973 -84208.500000 0 0 1
30.384232 7.291195 -9.408992 32.632687 0.235513 1.863279 0.116683 -0.023906 -1060360.000000 0 0 1
31.356302 6.717095 -8.430292 33.157305 0.211029 1.827870 0.128284 -0.026682 1018910.000000 0 0 1
32.753912 6.914795 -8.803592 34.614107 0.208058 1.827957 0.112178 -0.023341 1254560.000000 0 0 1
33.650492 6.557395 -7.776292 35.154314 0.192456 1.793846 0.109091 -0.020808 -220013.000000 0 0 1
35.083762 6.913795 -8.197892 36.686188 0.194572 1.796159 0.112254 -0.020203 -294504.000000 0 0 1
35.519592 6.145195 -9.286592 37.224262 0.171313 1.822936 0.129012 -0.023203 1161020.000000 0 0 1
36.943362 6.256495 -9.516292 38.658965 0.167762 1.819513 0.135191 -0.019068 951629.000000 0 0 1
-36.529578 5.586495 -10.835792 38.510172 -0.151755 1.856023 0.134702 -0.028776 -552132.000000 0 0 1
-35.152491 5.444595 -10.921892 37.210603 -0.153664 1.868699 0.138717 -0.027404 -584268.000000 0 0 1
-34.377068 6.399095 -11.563792 36.830049 -0.184038 1.890175 0.120700 -0.023923 -519161.000000 0 0 1
-33.597028 7.302495 -10.610092 35.981395 -0.214026 1.870123 0.124648 -0.024556 -692498.000000 0 0 1
-34.384828 8.136595 -9.771592 36.660668 -0.232359 1.840599 0.120263 -0.019300 613732.000000 0 0 1
-34.938737 9.374595 -10.349792 37.626009 -0.262141 1.849459 0.115087 -0.025310 533986.000000 0 0 1
-35.716307 10.230195 -9.293392 38.297240 -0.278961 1.815908 0.099891 -0.016316 160711.000000 0 0 1
-34.876615 10.932695 -8.451392 37.514372 -0.303766 1.798031 0.092584 -0.008700 -248427.000000 0 0 1
-35.644635 11.773395 -7.637792 38.307815 -0.319017 1.771521 0.093572 -0.007984 129539.000000 0 0 1
-34.786607 12.810295 -6.854892 37.698823 -0.352843 1.753647 0.107024 -0.009741 134531.000000 0 0 1
-34.009628 13.636095 -7.674892 37.436638 -0.381323 1.777270 0.081227 -0.005610 -302278.000000 0 0 1
-33.440178 14.679295 -6.919992 37.170062 -0.413645 1.758060 0.091523 -0.008903 100644.000000 0 0 1
-32.452108 15.579095 -7.699392 36.812065 -0.447572 1.781506 0.065333 -0.008345 143120.000000 0 0 1
-33.104328 16.430395 -8.627292 37.951081 -0.460701 1.800128 0.050329 -0.009913 -159947.000000 0 0 1
-32.366128 17.602895 -8.848192 37.890878 -0.498123 1.806490 0.044659 -0.004634 147763.000000 0 0 1
-33.106238 18.722795 -9.643492 39.237265 -0.514693 1.819114 0.020319 -0.009317 335332.000000 0 0 1
-32.906688 18.471195 -10.989592 39.304024 -0.511493 1.854179 0.005694 -0.007296 120107.000000 0 0 1
-33.992078 19.063695 -11.665892 40.681432 -0.511118 1.861642 0.000137 -0.016747 -239373.000000 0 0 1
-33.660528 19.135395 -13.171192 40.898347 -0.516922 1.898687 -0.017377 -0.001450 -257736.000000 0 0 1
-32.648828 20.078295 -13.406392 40.605606 -0.551360 1.907271 -0.012706 -0.006677 2652.020000 0 0 1
-32.653708 20.287195 -14.841692 41.208139 -0.555922 1.939240 -0.025669 -0.005456 -775822.000000 0 0 1
-31.968368 21.525795 -15.324792 41.475121 -0.592613 1.949260 0.011591 -0.021747 562342.000000 0 0 1
-30.564958 21.378395 -14.975292 40.193430 -0.610351 1.952585 0.017231 -0.022928 856808.000000 0 0 1
-29.999728 22.576495 -14.678992 40.313207 -0.645135 1.943488 0.014174 -0.023664 -298526.000000 0 0 1
-29.086038 23.173295 -15.822992 40.414927 -0.672735 1.973072 0.024612 -0.028196 -280927.000000 0 0 1
-29.753458 23.656595 -16.957092 41.622659 -0.671738 1.990402 0.036002 -0.020183 307738.000000 0 0 1
-28.826248 24.237595 -17.880592 41.690876 -0.699139 2.014054 0.033033 -0.014774 437428.000000 0 0 1
-28.195228 25.636895 -17.526392 41.945151 -0.737910 2.001864 0.037629 -0.021778 170408.000000 0 0 1
-29.159408 26.659895 -17.373292 43.160774 -0.740649 1.985070 0.047882 -0.025066 60766.100000 0 0 1
-28.595108 27.973095 -17.351692 43.603388 -0.774403 1.980071 0.049486 -0.019996 450270.000000 0 0 1
-29.553958 29.120695 -16.806792 44.765160 -0.778014 1.955672 0.053791 -0.018873 331128.000000 0 0 1
-29.746638 29.173895 -15.429092 44.430120 -0.775678 1.925451 0.045813 -0.023951 -138859.000000 0 0 1
-28.754258 29.961295 -14.857692 44.104848 -0.805953 1.914389 0.044094 -0.019810 -356877.000000 0 0 1
-29.128148 30.384695 -13.412392 44.176589 -0.806509 1.879274 0.050106 -0.013433 269494.000000 0 0 1
-30.182128 31.340695 -13.267892 45.488867 -0.804227 1.866772 0.041489 -0.019200 208988.000000 0 0 1
-30.078178 32.146195 -12.130292 45.664194 -0.818621 1.839665 0.037786 -0.019891 -83846.800000 0 0 1
-28.825338 33.048795 -12.096192 45.491107 -0.853551 1.839936 0.039795 -0.025725 44379.500000 0 0 1
-28.833758 -33.991576 -13.052792 46.445540 0.867312 1.855668 0.035072 -0.035703 -308967.000000 0 0 1
-27.825488 -33.017376 -12.913192 45.068342 0.870525 1.861394 0.055427 -0.030992 719.435000 0 0 1
-27.785648 -32.156476 -14.211792 44.811340 0.858187 1.893516 0.047090 -0.029323 122508.000000 0 0 1
-27.234998 -32.802076 -15.341992 45.311125 0.877861 1.916217 0.033475 -0.019516 -163658.000000 0 0 1
-27.631388 -32.058376 -16.523492 45.434116 0.859429 1.943012 0.030534 -0.006457 85770.800000 0 0 1
-26.993328 -32.460976 -17.844192 45.834157 0.877104 1.970690 0.039221 -0.007175 -138161.000000 0 0 1
-27.391948 -33.758676 -18.387392 47.202364 0.889140 1.970933 0.038285 0.001908 199274.000000 0 0 1
-26.753858 33.169295 -17.796392 46.180977 -0.892053 1.966396 0.027078 -0.012140 -464312.000000 0 0 1
-26.847478 31.892595 -18.691992 45.687146 -0.871077 1.992297 0.034697 -0.015645 670696.000000 0 0 1
-28.144728 31.298795 -18.889292 46.136164 -0.838408 1.992620 0.052770 -0.014622 592167.000000 0 0 1
-28.849648 31.912795 -19.941892 47.417378 -0.835767 2.004860 0.057655 -0.007192 -563469.000000 0 0 1
-30.361728 31.670295 -19.968092 48.203390 -0.806490 1.997911 0.050680 -0.019801 -223770.000000 0 0 1
-30.661908 30.311095 -20.312092 47.660216 -0.779645 2.011068 0.047851 -0.026100 -497413.000000 0 0 1
-32.017228 30.032595 -20.222392 48.332234 -0.753425 2.002484 0.051550 -0.025060 -793790.000000 0 0 1
-32.462548 28.721395 -20.929992 48.133150 -0.724328 2.020652 0.060218 -0.025429 300450.000000 0 0 1
-33.879628 28.578695 -20.992892 49.043578 -0.700730 2.013126 0.068554 -0.028349 542321.000000 0 0 1
-34.211758 27.294395 -21.447592 48.738359 -0.673403 2.026457 0.067168 -0.019555 304160.000000 0 0 1
-35.694015 26.890795 -21.683492 49.672441 -0.645654 2.022534 0.081551 -0.016195 164831.000000 0 0 1
-36.339628 27.325095 -22.807292 50.866511 -0.644739 2.035743 0.068419 -0.018240 -246428.000000 0 0 1
36.983452 26.235295 -23.410392 51.030510 0.616993 2.047387 0.092024 -0.020852 714827.000000 0 0 1
35.919682 26.672995 -24.474192 50.996650 0.638731 2.071357 0.112271 -0.035888 1017740.000000 0 0 1
36.564252 27.131195 -25.709012 52.287662 0.638371 2.084819 0.093753 -0.028957 267577.000000 0 0 1
35.566082 27.571895 -26.586512 52.268521 0.659454 2.104415 0.114461 -0.028116 -81974.700000 0 0 1
36.130572 27.923595 -27.983212 53.555631 0.657967 2.120585 0.087573 -0.026587 172782.000000 0 0 1
36.711752 26.740895 -28.502412 53.621038 0.629534 2.131229 0.081078 -0.012419 50275.000000 0 0 1
-36.646078 26.964895 -29.740482 54.355652 -0.634364 2.149747 0.044743 -0.005874 -248630.000000 0 0 1
-36.170548 25.625795 -30.470712 53.790838 -0.616389 2.173008 0.038647 -0.007413 532461.000000 0 0 1
-35.089092 24.946495 -29.863052 52.396316 -0.618035 2.177236 0.059228 -0.015290 832758.000000 0 0 1
-33.800728 25.595195 -29.908992 51.885943 -0.648117 2.185158 0.033794 -0.006705 492987.000000 0 0 1
-32.719528 24.912895 -29.060302 50.355943 -0.650762 2.185967 0.014413 -0.006625 -354421.000000 0 0 1
-32.370508 23.666095 -29.474512 49.766261 -0.631295 2.204656 0.051842 -0.012861 12088.400000 0 0 1
-32.999578 22.717595 -28.633442 49.243632 -0.602912 2.191324 0.041829 -0.008143 -28058.300000 0 0 1
-32.632348 21.275895 -28.997152 48.563038 -0.577771 2.210682 0.051049 -0.023668 24559.500000 0 0 1
-31.265498 20.924995 -28.910912 47.447104 -0.589801 2.226011 0.081820 -0.026720 39092.000000 0 0 1
-31.101798 19.630495 -29.462012 47.124180 -0.563023 2.246183 0.085362 -0.030849 670843.000000 0 0 1
-29.630268 19.101995 -29.332642 45.861126 -0.572625 2.264770 0.111278 -0.031685 902729.000000 0 0 1
-28.704198 19.661295 -30.277502 46.121846 -0.600562 2.286923 0.132825 -0.038368 468131.000000 0 0 1
-27.413818 19.098895 -30.343782 45.133472 -0.608500 2.308124 0.129799 -0.041309 88866.300000 0 0 1
-27.321618 17.851195 -31.259752 45.191903 -0.578742 2.334652 0.119223 -0.026590 -417751.000000 0 0 1
-27.708358 16.668895 -30.550712 44.485404 -0.541583 2.327816 0.093179 -0.020814 135158.000000 0 0 1
-27.900188 15.576195 -31.472022 44.850045 -0.509180 2.348600 0.063675 -0.005875 -15491.700000 0 0 1
-28.525078 14.403495 -30.656202 44.282541 -0.467593 2.335449 0.070670 -0.002526 842549.000000 0 0 1
-29.953368 14.458195 -30.448632 45.092825 -0.449704 2.312091 0.073552 -0.009815 1061430.000000 0 0 1
-30.583318 13.195695 -30.425162 45.112706 -0.407336 2.310983 0.069910 -0.007260 2945.340000 0 0 1
-30.319048 12.302995 -29.161322 43.829112 -0.385483 2.298747 0.044806 -0.012594 -379600.000000 0 0 1
-30.722288 12.803695 -27.906222 43.434443 -0.394867 2.268540 0.038808 -0.015975 101087.000000 0 0 1
-30.763698 11.723395 -26.954802 42.548848 -0.364089 2.256868 0.045063 -0.014028 -88695.200000 0 0 1
-30.524778 12.135795 -25.494282 41.581222 -0.378411 2.230800 0.037246 -0.016109 -321814.000000 0 0 1
-29.255808 12.701295 -25.356452 40.745243 -0.409592 2.242495 0.029006 -0.016832 -623863.000000 0 0 1
-29.057418 13.209195 -24.076592 39.981229 -0.426664 2.217047 0.027045 -0.015587 971408.000000 0 0 1
-27.579138 13.619295 -23.700392 38.830434 -0.458696 2.227306 0.049560 -0.010076 577793.000000 0 0 1
-26.978098 14.687695 -24.464392 39.268978 -0.498557 2.243363 0.063279 -0.021266 428205.000000 0 0 1
-25.598388 14.853195 -24.179692 38.217174 -0.525763 2.255821 0.059481 -0.018909 448808.000000 0 0 1
-25.052538 15.215895 -22.760192 37.110369 -0.545813 2.231042 0.058681 -0.016522 -747126.000000 0 0 1
-25.312648 16.547295 -22.349892 37.604000 -0.578983 2.207252 0.079557 -0.014544 103841.000000 0 0 1
-25.535948 16.641595 -20.964392 36.993690 -0.577564 2.173294 0.071234 -0.003576 22708.600000 0 0 1
-26.984418 16.993495 -20.531092 37.927081 -0.562009 2.142815 0.067672 -0.009413 -160350.000000 0 0 1
-27.837038 15.944195 -20.846092 38.258040 -0.520156 2.147044 0.072708 -0.017264 -344525.000000 0 0 1
-29.125948 16.213195 -20.336692 39.048298 -0.507941 2.118594 0.059636 -0.008319 -162663.000000 0 0 1
-30.155238 15.041195 -20.529692 39.459399 -0.462681 2.117968 0.024102 -0.008796 307869.000000 0 0 1
-30.823008 14.878895 -21.741492 40.547895 -0.449729 2.136717 0.029437 -0.008301 421184.000000 0 0 1
-31.645648 15.948595 -22.214392 41.824442 -0.466822 2.130735 0.006564 -0.000453 -177295.000000 0 0 1
-32.225308 15.813795 -23.638192 42.980353 -0.456201 2.153133 0.019139 -0.007858 -284898.000000 0 0 1
-33.303288 14.915495 -23.747092 43.537402 -0.421080 2.147712 0.025426 -0.007287 114212.000000 0 0 1
-33.787328 15.083795 -25.135462 44.731375 -0.419884 2.167502 0.050702 -0.022981 -421991.000000 0 0 1
-35.108960 14.443595 -25.526912 45.748003 -0.390290 2.162758 0.042399 -0.017267 -406184.000000 0 0 1
-35.034536 13.016795 -25.615112 45.309929 -0.355735 2.171631 0.044089 -0.015921 -45194.600000 0 0 1
-35.129965 12.442695 -24.321292 44.502364 -0.340403 2.148996 0.026031 -0.013273 -274018.000000 0 0 1
-35.018711 10.900395 -24.319092 44.006215 -0.301767 2.156311 0.030418 -0.013677 -331573.000000 0 0 1
-36.078816 10.361395 -25.057452 45.132199 -0.279661 2.159401 0.037262 -0.015521 -82020.700000 0 0 1
-35.724284 9.119395 -25.675682 44.929150 -0.249934 2.179093 0.030339 -0.012436 -127938.000000 0 0 1
-36.946328 8.545995 -26.396082 46.204094 -0.227311 2.178877 0.038859 -0.004880 249975.000000 0 0 1
36.112142 8.013795 -25.510212 44.934159 0.218375 2.174535 0.024357 0.002640 126101.000000 0 0 1
35.110002 7.272595 -26.195012 44.404747 0.204249 2.201749 0.025179 -0.001956 317801.000000 0 0 1
34.084992 6.552795 -25.304132 42.953754 0.189931 2.200743 0.033902 -0.002610 279994.000000 0 0 1
34.742882 5.555295 -24.530692 42.891538 0.158555 2.179646 0.025352 -0.009073 356630.000000 0 0 1
33.779872 4.696795 -23.963692 41.682109 0.138155 2.183297 0.031716 0.002026 428277.000000 0 0 1
34.478852 3.822795 -22.860092 41.545022 0.110423 2.153458 0.019742 0.003266 265989.000000 0 0 1
35.171432 2.764695 -23.473992 42.375718 0.078445 2.157897 0.025007 -0.007737 -77542.300000 0 0 1
35.817272 1.996895 -22.488192 42.338911 0.055695 2.130750 0.053829 -0.007118 375802.000000 0 0 1
36.623602 0.705195 -22.916192 43.208071 0.019253 2.129831 0.075912 -0.013328 322817.000000 0 0 1
35.744952 -0.199405 -23.503792 42.780482 -0.005578 2.152448 0.022215 -0.008137 -85417.500000 0 0 1
36.453902 -1.261605 -24.088292 43.711834 -0.034594 2.154443 0.046427 -0.017990 -34190.400000 0 0 1
-23.468938 28.893695 27.141464 46.068381 -0.888630 0.940782 0.075718 -0.020381 -763004.000000 0 0 1
-24.811638 29.311195 26.997644 46.942905 -0.868343 0.958050 0.070565 -0.026138 352632.000000 0 0 1
-25.187648 28.996195 25.688094 46.206873 -0.855572 0.981307 0.068350 -0.023579 -143346.000000 0 0 1
-25.688508 27.511595 25.442234 45.432308 -0.819653 0.976407 0.082736 -0.022967 87975.500000 0 0 1
-26.964608 27.167795 26.005944 46.276218 -0.789152 0.974028 0.084479 -0.022576 683585.000000 0 0 1
-27.033658 26.902895 27.382784 46.951052 -0.782974 0.948109 0.089366 -0.025694 -1012120.000000 0 0 1
-26.428448 25.580695 27.911284 46.172228 -0.769100 0.921654 0.091472 -0.021795 -5049.810000 0 0 1
-25.037338 25.496495 28.104494 45.462096 -0.794484 0.904351 0.096196 -0.019168 -281923.000000 0 0 1
-24.653538 26.208995 29.270414 46.383893 -0.815970 0.887894 0.086786 -0.019906 -627853.000000 0 0 1
-23.233838 25.807695 29.695314 45.690919 -0.837833 0.863321 0.089403 -0.012851 -700787.000000 0 0 1
-22.138938 26.298295 28.909554 44.916536 -0.871059 0.871567 0.095098 -0.028461 -159139.000000 0 0 1
-21.016938 26.203795 29.720644 44.851614 -0.894802 0.846453 0.106413 -0.027418 -591770.000000 0 0 1
-20.227738 24.865895 29.623014 43.646273 -0.887894 0.824796 0.105711 -0.023120 -487988.000000 0 0 1
-19.385138 24.643095 28.495294 42.368001 -0.904258 0.833125 0.099548 -0.025431 385198.000000 0 0 1
-20.001238 23.817795 27.529844 41.535879 -0.872277 0.846249 0.104660 -0.025728 -8254.620000 0 0 1
-19.916138 22.316695 27.754894 40.804676 -0.842178 0.822776 0.095423 -0.020109 146738.000000 0 0 1
-20.662838 21.884595 28.877234 41.710707 -0.814105 0.806095 0.087687 -0.019271 229785.000000 0 0 1
-20.705038 20.436995 28.893984 41.002826 -0.778883 0.788820 0.091836 -0.023301 27839.900000 0 0 1
-21.097338 19.932095 30.267974 41.934906 -0.757006 0.764419 0.093933 -0.022713 185656.000000 0 0 1
-20.000138 19.862595 31.158144 42.016166 -0.781948 0.735381 0.082199 -0.021200 227550.000000 0 0 1
-20.512738 19.662595 32.424414 43.113023 -0.764241 0.719585 0.076815 -0.018345 157127.000000 0 0 1
-19.671438 20.355895 33.579619 43.919458 -0.802496 0.700418 0.068877 -0.020048 -80230.900000 0 0 1
-19.635938 21.782295 33.560363 44.568334 -0.837173 0.718173 0.048164 -0.021522 55557.000000 0 0 1
-18.807938 22.408895 32.603988 43.805447 -0.872543 0.731324 0.067153 -0.013763 531287.000000 0 0 1
-17.296838 22.502195 33.034566 43.552405 -0.915451 0.709786 0.051436 0.000041 658816.000000 0 0 1
-16.629838 21.246795 33.130787 42.727355 -0.906694 0.683448 0.065337 -0.019100 -806716.000000 0 0 1
-15.282038 21.431895 33.403379 42.528256 -0.951365 0.667390 0.040638 -0.020878 -1522080.000000 0 0 1
-14.427338 20.212495 33.030225 41.324192 -0.950880 0.644675 0.038570 -0.024854 -896746.000000 0 0 1
-13.128038 20.115795 33.507093 41.227611 -0.992579 0.621966 0.026971 -0.024469 -652129.000000 0 0 1
-12.980838 20.133795 -33.050282 40.819028 -0.998136 2.514400 0.038391 -0.018331 180040.000000 0 0 1
-11.512738 19.996795 -32.481432 39.842922 -1.048414 2.523935 0.032892 -0.019255 913721.000000 0 0 1
-10.820538 21.202995 -32.592612 40.359998 -1.098918 2.510778 0.032787 -0.016184 346636.000000 0 0 1
-9.449438 21.062295 -32.190542 39.612412 -1.149072 2.519461 0.040900 -0.016359 887227.000000 0 0 1
-8.654438 22.424595 -32.252502 40.224193 -1.202473 2.501129 0.041371 -0.021121 188038.000000 0 0 1
-8.791738 23.268195 -31.173752 39.881153 -1.209535 2.468129 0.042743 -0.019973 -42245.400000 0 0 1
-8.173138 22.830795 -29.982252 38.561391 -1.227024 2.461509 0.048664 -0.020884 -157115.000000 0 0 1
-7.759938 23.917295 -28.975992 38.364851 -1.257063 2.426869 0.058819 -0.017503 369147.000000 0 0 1
-6.800738 24.842695 -29.513042 39.171791 -1.303591 2.424053 0.055953 -0.019381 337158.000000 0 0 1
-6.569238 25.896795 -28.562452 39.110262 -1.322367 2.389566 0.073828 -0.017122 387531.000000 0 0 1
-5.250138 26.708295 -28.816612 39.639553 -1.376698 2.384690 0.093516 -0.026341 541259.000000 0 0 1
-4.077638 25.928295 -28.556262 38.786128 -1.414808 2.398307 0.101165 -0.019485 645715.000000 0 0 1
-2.955338 26.222195 -29.375802 39.487660 -1.458566 2.409719 0.104340 -0.022584 330230.000000 0 0 1
-2.166238 27.513895 -29.187572 40.169907 -1.492226 2.384161 0.107298 -0.028677 -853283.000000 0 0 1
-1.525238 27.496295 -27.947672 39.235762 -1.515382 2.363567 0.124612 -0.043466 -210267.000000 0 0 1
-0.667838 28.589695 -27.847582 39.916219 -1.547441 2.342910 0.115623 -0.033818 -844009.000000 0 0 1
-0.020938 28.753495 -26.447242 39.066873 -1.570068 2.314439 0.125553 -0.048957 739734.000000 0 0 1
1.042962 27.869295 -26.051042 38.163362 1.533390 2.322137 0.167061 -0.053494 1261380.000000 0 0 1
2.252362 27.944295 -26.828552 38.803711 1.490368 2.334209 0.157201 -0.045620 201108.000000 0 0 1
3.566362 28.019895 -26.033602 38.413304 1.444197 2.315459 0.140906 -0.047613 -117505.000000 0 0 1
3.952362 26.811695 -25.389282 37.136287 1.424439 2.323588 0.166417 -0.046018 722654.000000 0 0 1
5.034362 27.069395 -24.455292 36.826054 1.386917 2.297053 0.136409 -0.037548 764110.000000 0 0 1
5.779262 25.854595 -23.867392 35.658272 1.350882 2.304112 0.124860 -0.036422 21139.000000 0 0 1
6.887962 26.227595 -23.094592 35.618689 1.313973 2.276256 0.111684 -0.038186 -515840.000000 0 0 1
7.737562 25.164995 -22.770092 34.808389 1.272498 2.283862 0.097181 -0.020532 492223.000000 0 0 1
9.165662 25.521895 -22.280092 35.096710 1.226012 2.258572 0.075343 -0.006974 -294304.000000 0 0 1
9.260262 26.015895 -21.002992 34.694451 1.228834 2.221027 0.077770 -0.005882 553378.000000 0 0 1
10.607762 26.399195 -20.664692 35.163499 1.188721 2.198978 0.078155 -0.012542 1315800.000000 0 0 1
11.526262 25.208095 -20.176292 34.283897 1.141934 2.200007 0.053784 0.005233 31453.100000 0 0 1
11.700062 24.248695 -21.179292 34.255702 1.121244 2.237337 0.044677 -0.004716 -186609.000000 0 0 1
12.305562 23.080995 -20.615392 33.303958 1.080984 2.238274 0.037102 0.001756 -71021.200000 0 0 1
12.606062 21.984795 -21.653292 33.333303 1.050166 2.277854 0.032461 -0.006198 -168003.000000 0 0 1
11.460362 21.489295 -22.330592 33.042171 1.080861 2.312874 0.041717 -0.016478 -143893.000000 0 0 1
11.668362 20.588595 -23.396192 33.277962 1.055192 2.350479 0.051535 -0.027198 -329875.000000 0 0 1
10.914462 20.947095 -24.686192 34.165983 1.090452 2.378262 0.067983 -0.031954 258117.000000 0 0 1
9.516762 20.759195 -24.553992 33.532246 1.140949 2.392416 0.070952 -0.035889 319126.000000 0 0 1
8.790262 21.105595 -25.742622 34.429602 1.176156 2.415371 0.078936 -0.044567 -272028.000000 0 0 1
7.363262 20.575095 -25.913862 33.898089 1.227125 2.441006 0.099315 -0.053751 345087.000000 0 0 1
6.288462 21.330995 -25.349662 33.721825 1.284113 2.421476 0.115069 -0.053857 286439.000000 0 0 1
6.251162 21.298295 -23.905092 32.621279 1.285309 2.393234 0.113679 -0.049509 -460312.000000 0 0 1
4.804262 21.515895 -23.386892 32.139717 1.351111 2.385705 0.130601 -0.057052 316735.000000 0 0 1
4.274362 22.797695 -23.622292 33.106159 1.385457 2.365322 0.136733 -0.047036 76701.900000 0 0 1
2.862862 22.814595 -23.492192 32.872250 1.445965 2.366922 0.156417 -0.048945 180900.000000 0 0 1
2.171762 24.043895 -24.048892 34.076013 1.480716 2.354267 0.143900 -0.044592 -1740200.000000 0 0 1
0.834562 23.920695 -24.246892 34.070632 1.535922 2.362662 0.160083 -0.060349 -1729090.000000 0 0 1
0.577962 24.795695 -25.328912 35.450167 1.547492 2.366696 0.163706 -0.052910 -719359.000000 0 0 1
-0.876338 24.730195 -25.733262 35.700859 -1.535375 2.375755 0.165622 -0.053508 -638222.000000 0 0 1
-1.358538 23.438595 -26.128082 35.126771 -1.512900 2.409568 0.165013 -0.058776 -435607.000000 0 0 1
-2.705638 23.517095 -26.494722 35.529489 -1.456250 2.412397 0.157418 -0.042598 -300102.000000 0 0 1
-3.255738 22.194595 -27.035252 35.129827 -1.425145 2.448981 0.141808 -0.040757 -640172.000000 0 0 1
-2.678038 21.841995 -28.229172 35.792888 -1.448796 2.479457 0.171292 -0.058737 -320146.000000 0 0 1
-3.161838 20.617395 -28.750842 35.520208 -1.418624 2.513964 0.126564 -0.051453 1585510.000000 0 0 1
-4.604738 20.649295 -29.483112 36.288441 -1.351389 2.519165 0.086784 -0.041123 1572400.000000 0 0 1
-4.605438 21.135395 -30.862022 37.687921 -1.356248 2.530260 0.099440 -0.041584 41394.900000 0 0 1
-4.185138 22.504695 -31.037592 38.565643 -1.386929 2.506133 0.132786 -0.045117 -131193.000000 0 0 1
-3.781638 22.837795 -32.500462 39.901701 -1.406698 2.522686 0.118695 -0.040353 684822.000000 0 0 1
-2.598438 22.056695 -32.808822 39.619042 -1.453530 2.546519 0.113317 -0.040617 980407.000000 0 0 1
-2.294438 22.294195 33.773434 40.533202 -1.468241 0.585874 0.115260 -0.023899 505594.000000 0 0 1
-1.019638 21.495195 33.303158 39.650769 -1.523396 0.573675 0.128190 -0.020001 630637.000000 0 0 1
-1.252838 20.101995 33.195528 38.827863 -1.508553 0.545359 0.106932 -0.011911 530986.000000 0 0 1
-0.135638 19.480195 32.538895 37.924611 -1.563834 0.539455 0.108185 -0.013628 407400.000000 0 0 1
-0.380738 18.175695 31.852844 36.675667 -1.549852 0.518627 0.081692 -0.015028 -334206.000000 0 0 1
-1.331938 18.244595 30.842744 35.859646 -1.497921 0.535338 0.063686 -0.010182 -198699.000000 0 0 1
-1.686838 16.983695 30.329014 34.801443 -1.471800 0.512569 0.054839 -0.009933 -441369.000000 0 0 1
-2.812838 16.943495 29.305924 33.968092 -1.406284 0.530116 0.049069 0.003754 -365007.000000 0 0 1
-4.086738 17.268995 29.813704 34.695484 -1.338420 0.536904 0.026189 -0.002414 -52498.500000 0 0 1
-4.585238 18.521195 29.482304 35.117878 -1.328109 0.574390 0.035379 -0.003108 -1021980.000000 0 0 1
-6.089438 18.595895 29.387154 35.305714 -1.254340 0.587439 0.019806 -0.008195 -741435.000000 0 0 1
-6.692838 17.783195 28.389044 34.161001 -1.210836 0.589827 0.015844 0.000330 514679.000000 0 0 1
-8.098638 18.087395 28.399054 34.630162 -1.149815 0.609268 0.026691 -0.000977 1010460.000000 0 0 1
-9.014838 17.036095 27.635064 33.692620 -1.084093 0.609016 0.027186 -0.006103 344025.000000 0 0 1
-9.286638 15.754695 28.215444 33.623851 -1.038169 0.575078 0.039336 -0.017668 538217.000000 0 0 1
-10.018738 15.814595 29.481384 34.923181 -1.006099 0.565766 0.041074 -0.019225 -191341.000000 0 0 1
-10.782738 14.501295 29.755654 34.813129 -0.931423 0.545775 0.041929 -0.023065 -21909.700000 0 0 1
-10.058138 13.307995 30.141424 34.449591 -0.923596 0.505478 0.048534 -0.022051 416470.000000 0 0 1
-9.364038 13.407095 31.384734 35.389786 -0.961119 0.480356 0.043498 -0.018021 76930.100000 0 0 1
-10.060638 12.691295 32.600133 36.401293 -0.900510 0.461072 0.071333 -0.029508 29228.200000 0 0 1
-10.067738 11.284395 32.567482 35.907351 -0.842317 0.434724 0.061296 -0.032901 494345.000000 0 0 1
-10.889738 10.722195 33.598511 36.910863 -0.777646 0.426883 0.068448 -0.034372 -1507.440000 0 0 1
-10.997938 9.195495 33.660106 36.585715 -0.696375 0.402629 0.042889 -0.021892 -680173.000000 0 0 1
-9.853738 8.462195 -33.915862 36.317910 -0.709569 2.775856 0.060088 -0.021548 -151092.000000 0 0 1
-9.787738 7.900695 -32.653102 34.992083 -0.679118 2.773893 0.079334 -0.034273 -320233.000000 0 0 1
-9.086138 8.744895 -31.545492 33.972771 -0.766263 2.761290 0.068515 -0.034240 377902.000000 0 0 1
-9.803638 9.988095 -31.310312 34.295904 -0.794718 2.721243 0.061774 -0.032249 573748.000000 0 0 1
-9.005338 10.842195 -30.518152 33.615576 -0.877684 2.708942 0.070024 -0.033177 293033.000000 0 0 1
-8.002838 11.762395 -31.265472 34.350096 -0.973363 2.714564 0.056589 -0.023714 303142.000000 0 0 1
-8.628238 12.953495 -31.748592 35.358346 -0.983191 2.685793 0.055223 -0.021675 202991.000000 0 0 1
-7.662138 13.917995 -32.117552 35.832333 -1.067554 2.682215 0.038944 -0.015302 -24252.700000 0 0 1
-8.185838 15.382095 -32.304382 36.704086 -1.081748 2.646933 0.044383 -0.014517 -66492.700000 0 0 1
-8.907238 15.557695 -33.493672 37.989562 -1.050821 2.650153 0.058695 -0.018887 63700.300000 0 0 1
-9.298838 16.916495 -33.651292 38.794918 -1.068191 2.620780 0.071990 -0.018328 -814455.000000 0 0 1
-9.807438 17.194095 32.885369 38.383202 -1.052429 0.541833 0.071463 -0.018981 446435.000000 0 0 1
-10.957038 16.526095 32.399673 37.985620 -0.985327 0.549194 0.050068 -0.020492 723130.000000 0 0 1
-12.182338 16.801795 33.075477 39.047367 -0.943448 0.560367 0.045959 -0.028372 100209.000000 0 0 1
-13.527338 16.294295 32.495258 38.787044 -0.877917 0.577580 0.047759 -0.039464 335934.000000 0 0 1
-13.675738 14.877095 32.532745 38.297954 -0.827448 0.555827 0.037907 -0.040236 746089.000000 0 0 1
-15.057438 14.585895 32.753427 38.887810 -0.769492 0.569345 0.040505 -0.030359 340684.000000 0 0 1
-15.351238 13.079695 32.843193 38.541073 -0.705671 0.550695 0.036991 -0.022956 -227909.000000 0 0 1
-15.262238 12.373795 31.581324 37.194445 -0.681259 0.556542 0.010356 -0.020735 -149909.000000 0 0 1
-13.928638 12.003695 31.344454 36.339654 -0.711305 0.530525 0.026537 -0.010594 -352482.000000 0 0 1
-13.669838 11.432095 29.950164 34.850676 -0.696487 0.536730 0.013967 -0.004116 -251253.000000 0 0 1
-14.381338 10.252495 29.681264 34.538587 -0.619333 0.536769 0.006737 -0.002688 -2888.410000 0 0 1
-14.240938 9.771795 28.358954 33.204256 -0.601388 0.547025 -0.008159 0.001021 -79883.300000 0 0 1
-14.996338 8.447095 28.024624 32.888039 -0.512980 0.550769 0.010176 0.000219 176700.000000 0 0 1
-14.546238 7.260895 28.708434 32.992239 -0.462975 0.515275 0.005493 0.000432 -151536.000000 0 0 1
-15.280338 6.095995 28.352264 32.779579 -0.379595 0.525772 0.016034 0.007209 109437.000000 0 0 1
-14.502838 4.757195 28.236224 32.097470 -0.316959 0.495560 0.018092 0.005930 39888.000000 0 0 1
-13.503238 4.471295 27.299654 30.783129 -0.319764 0.480339 0.003177 0.002135 -94374.900000 0 0 1
-14.010438 4.368195 25.983114 29.841175 -0.302230 0.514145 0.009154 0.002715 -19201.200000 0 0 1
-12.916938 4.351595 24.901054 28.387430 -0.324949 0.500827 0.006621 0.008365 -55324.400000 0 0 1
-12.072538 3.219195 24.841764 27.806881 -0.260591 0.466012 0.003529 0.001670 42776.000000 0 0 1
-11.561038 3.037695 23.550834 26.410736 -0.256945 0.469677 0.011622 -0.003404 -196786.000000 0 0 1
-10.654938 1.776695 23.448024 25.816549 -0.165228 0.431700 0.010684 -0.015424 239925.000000 0 0 1
-9.400638 1.922395 24.092734 25.933134 -0.201715 0.379006 0.012639 -0.014190 33110.400000 0 0 1
-8.723838 0.751095 24.418354 25.940808 -0.085885 0.344304 0.019797 -0.016364 333970.000000 0 0 1
-7.195238 1.068795 24.536224 25.591797 -0.147464 0.288213 0.039222 -0.017081 135136.000000 0 0 1
-6.604638 1.036395 23.271614 24.212877 -0.155650 0.279746 0.039757 -0.016932 -506089.000000 0 1 0
-5.238338 1.298895 23.139264 23.760321 -0.243057 0.229142 0.037846 -0.013728 -321748.000000 0 1 0
-4.710438 2.749195 23.275824 23.906282 -0.528303 0.230168 0.054380 -0.024939 -434096.000000 0 1 0
-4.755438 3.198095 24.675074 25.331824 -0.592039 0.228205 0.057039 -0.022963 -46518.300000 0 0 1
-4.200738 4.453595 24.885324 25.627331 -0.814607 0.241224 0.052901 -0.034256 -59511.400000 0 0 1
4.074462 -23.383605 13.031608 27.077980 -1.398284 1.068702 0.095816 -0.016618 270157.000000 0 0 1
3.928462 -24.727105 13.381608 28.388905 -1.413240 1.079956 0.094999 -0.017309 -631486.000000 0 0 1
2.615262 -25.189105 13.246608 28.579769 -1.467342 1.088860 0.083650 -0.014963 -264513.000000 0 0 1
2.392062 -26.481645 14.039208 30.068236 -1.480712 1.085001 0.077378 -0.005018 -182755.000000 0 0 1
2.329762 -26.281965 15.398508 30.549689 -1.482383 1.042517 0.088952 -0.013923 143259.000000 0 0 1
2.406862 -27.551255 16.110308 32.006353 -1.483658 1.043328 0.068904 -0.013065 -327505.000000 0 0 1
2.067262 -27.461055 17.608208 32.686879 -1.495658 1.001911 0.074913 -0.012511 161109.000000 0 0 1
3.132262 -26.844855 18.319608 32.650656 -1.454641 0.975107 0.088157 -0.020757 381008.000000 0 0 1
2.925662 -26.890915 19.699508 33.462687 -1.462425 0.941346 0.084669 -0.029943 103518.000000 0 0 1
3.781662 -25.944075 20.567108 33.322693 -1.426054 0.905604 0.078216 -0.025650 517491.000000 0 0 1
2.976762 -24.848905 21.033308 32.691424 -1.451570 0.871879 0.086881 -0.024934 436631.000000 0 0 1
3.800262 -24.048905 21.812308 32.688967 -1.414070 0.840261 0.101352 -0.032817 -14913.900000 0 0 1
3.012962 -22.869905 22.390208 32.147035 -1.439807 0.800297 0.107109 -0.035538 77069.600000 0 0 1
2.363862 -21.953605 21.498308 30.817622 -1.463534 0.798757 0.111574 -0.037022 182348.000000 0 0 1
3.209062 -21.340505 20.534508 29.788945 -1.421540 0.810228 0.099279 -0.028388 -230178.000000 0 0 1
2.564262 -20.264505 19.651008 28.344094 -1.444926 0.804736 0.074183 -0.032857 -269013.000000 0 0 1
2.186662 -19.250005 20.500408 28.206575 -1.457688 0.757152 0.053086 -0.033287 70753.300000 0 0 1
1.290462 -18.336405 19.873108 27.070823 -1.500535 0.746433 0.052143 -0.039439 234016.000000 0 0 1
0.961462 -17.026105 20.663408 26.791586 -1.514386 0.689970 0.053077 -0.039080 14080.700000 0 0 1
2.054962 -16.128305 20.620908 26.259606 -1.444066 0.667663 0.027141 -0.027752 312755.000000 0 0 1
1.655462 -14.898805 21.240908 25.997906 -1.460136 0.614566 0.037820 -0.021180 -87917.200000 0 0 1
2.721062 -13.844205 21.047708 25.339143 -1.376721 0.590540 -0.003322 -0.009112 -743429.000000 0 0 1
3.127362 -13.426805 19.722908 24.063511 -1.341957 0.610051 -0.024243 -0.006349 -592724.000000 0 1 0
2.158362 -13.152605 18.760208 23.012930 -1.408145 0.617717 -0.012638 -0.000063 252716.000000 0 1 0
1.140962 -11.944405 18.952208 22.431156 -1.475563 0.564408 0.002514 -0.011595 727708.000000 0 1 0
1.856262 -10.716105 19.018608 21.908630 -1.399277 0.519460 -0.003933 -0.003815 -225745.000000 0 1 0
1.426362 -9.813405 20.007308 22.330020 -1.426459 0.460158 0.007231 -0.014826 242430.000000 0 1 0
0.068062 -9.091805 19.846608 21.830103 -1.563310 0.429583 0.044765 -0.029187 232097.000000 0 1 0
-0.213138 -8.273805 20.944108 22.520145 1.545041 0.376338 0.053422 -0.037645 -156831.000000 0 1 0
-1.535438 -7.762405 20.933208 22.378822 1.375513 0.361400 0.057183 -0.037469 23558.900000 0 1 0
-1.910338 -7.082605 22.280308 23.456871 1.307343 0.318068 0.062364 -0.035650 -39822.100000 0 1 0
-1.979138 -8.012705 23.324508 24.741728 1.328643 0.340106 0.065894 -0.032824 1429.640000 0 1 0
-2.036238 -7.458005 24.576708 25.763980 1.304265 0.304765 0.060328 -0.022574 -38279.700000 0 0 1
-2.109038 -8.392205 25.806808 27.218899 1.324586 0.323524 0.067147 -0.023005 -61775.200000 0 0 1
-1.153538 -9.419005 25.867008 27.552684 1.448934 0.351609 0.059009 -0.017301 -224922.000000 0 0 1
-1.454638 -10.205405 26.925208 28.831113 1.429214 0.365643 0.062908 -0.024514 -655056.000000 0 0 1
-0.322238 -11.152905 27.233908 29.430883 1.541912 0.388835 0.054982 -0.022654 -1025430.000000 0 0 1
0.780362 -10.502705 27.760508 29.691102 -1.496632 0.362601 0.044554 -0.021587 -209140.000000 0 0 1
1.875962 -11.416405 27.974308 30.272354 -1.407930 0.392155 0.065025 -0.032216 992152.000000 0 0 1
2.964762 -10.861605 28.948708 31.061100 -1.304330 0.370925 0.075599 -0.034479 280123.000000 0 0 1
2.491562 -10.564505 30.225408 32.115291 -1.339186 0.344770 0.078523 -0.037330 -3937.680000 0 0 1
3.536162 -10.223605 31.116308 32.943150 -1.237795 0.334588 0.095343 -0.032382 -13396.300000 0 0 1
2.933862 -9.753105 32.445408 34.006398 -1.278594 0.304166 0.091140 -0.038333 -168065.000000 0 0 1
2.242262 -10.761305 33.134308 34.910110 -1.365372 0.320328 0.097281 -0.044859 46711.500000 0 0 1
1.916862 -10.483605 -33.485159 35.140236 -1.389950 2.833457 0.085968 -0.046703 -432122.000000 0 0 1
3.079162 -10.670505 -32.498459 34.343715 -1.289861 2.812299 0.079630 -0.030592 -226388.000000 0 0 1
4.087362 -9.696105 -32.695059 34.346584 -1.171854 2.830226 0.066446 -0.038194 102386.000000 0 0 1
4.414962 -8.920005 -31.555659 33.088034 -1.111196 2.836064 0.085242 -0.038972 196185.000000 0 0 1
3.395162 -7.768105 -31.182759 32.314626 -1.158752 2.876139 0.075459 -0.032175 344631.000000 0 0 1
3.394462 -6.703905 -32.078259 32.946614 -1.102089 2.911492 0.100028 -0.034900 -322931.000000 0 0 1
2.492162 -5.725605 -31.728559 32.337206 -1.160262 2.947267 0.088025 -0.018651 -277883.000000 0 0 1
2.848562 -4.441005 -32.456059 32.882101 -1.000474 2.980442 0.090556 -0.018360 289989.000000 0 0 1
2.319562 -4.481905 -33.781059 34.155933 -1.093216 2.993299 0.083607 -0.025778 158043.000000 0 0 1
2.726162 -3.296605 33.454808 33.727196 -0.879831 0.127178 0.086418 -0.009655 110068.000000 0 0 1
2.104462 -3.258305 32.075708 32.309385 -0.997325 0.120343 0.092725 -0.015644 480719.000000 0 0 1
0.690762 -3.156705 31.971908 32.134791 -1.355368 0.100728 0.084895 -0.016244 -70040.400000 0 0 1
0.246662 -3.499205 30.693008 30.892815 -1.500422 0.113796 0.068802 -0.010553 462298.000000 0 0 1
-1.277538 -3.770605 30.586708 30.844712 1.244120 0.129432 0.049661 -0.014016 394382.000000 0 0 1
-2.122638 -2.640605 30.623808 30.810647 0.893715 0.110184 0.050500 -0.016477 309995.000000 0 0 1
-3.477938 -3.090105 30.492308 30.845188 0.726418 0.151408 0.037696 -0.015290 1057720.000000 0 0 1
-4.472838 -2.108305 29.812108 30.219414 0.440472 0.164370 0.044913 -0.017912 191024.000000 0 0 1
-4.031038 -1.942805 28.464108 28.813698 0.449113 0.155932 0.061171 -0.020053 237354.000000 0 0 1
-4.968938 -1.393505 27.521708 28.001368 0.273420 0.185359 0.058207 -0.020667 271589.000000 0 0 1
-5.454938 0.085195 27.716108 28.247942 -0.015617 0.194354 0.055149 -0.018661 172017.000000 0 0 1
-6.486738 0.266995 28.661508 29.387601 -0.041137 0.222755 0.056581 -0.017244 -325658.000000 0 0 1
-6.630138 1.685295 28.826508 29.627124 -0.248916 0.233005 0.054668 -0.009084 738538.000000 0 0 1
-8.030238 2.151695 29.382008 30.535502 -0.261799 0.275738 0.026495 -0.008721 904135.000000 0 0 1
-9.159038 1.777195 28.624708 30.106815 -0.191656 0.315080 0.014302 -0.001178 -401180.000000 0 0 1
-10.305338 2.463995 29.048908 30.921033 -0.234693 0.349761 0.010506 0.002861 -425385.000000 0 0 1
-11.543238 1.947995 28.306108 30.631304 -0.167181 0.392146 0.011965 0.009465 -511578.000000 0 0 1
-11.782038 0.616095 28.744308 31.071389 -0.052243 0.389483 0.021675 0.005915 -50110.200000 0 0 1
-12.185438 -0.128305 27.603508 30.173747 0.010529 0.415738 0.017121 0.003944 -660874.000000 0 0 1
-12.198738 -1.630305 27.877808 30.473583 0.132858 0.415737 0.031946 -0.002807 -155942.000000 0 0 1
-10.956638 -2.183005 28.199208 30.331646 0.196665 0.377210 0.042851 -0.009807 -249982.000000 0 0 1
-9.890538 -2.239705 27.276308 29.100446 0.222693 0.355950 0.033876 -0.006688 -368982.000000 0 0 1
-9.974938 -3.031505 25.920308 27.938356 0.295042 0.382411 0.033416 -0.009785 -664001.000000 0 0 1
-10.787738 -2.379305 24.974208 27.308377 0.217081 0.416463 0.017015 -0.006981 225653.000000 0 0 1
-10.805438 -3.004105 23.727808 26.244828 0.271170 0.441540 0.023644 -0.008888 -193482.000000 0 0 1
-9.773538 -2.461905 22.703708 24.840317 0.246761 0.417794 0.031485 -0.013791 953431.000000 0 1 0
-8.433138 -2.860005 23.020608 24.682905 0.326966 0.369096 0.046822 -0.020199 796418.000000 0 1 0
-7.492838 -2.508005 21.988108 23.364708 0.322998 0.344980 0.042382 -0.020784 87253.200000 0 1 0
-6.028538 -2.469605 22.457508 23.383367 0.388800 0.282343 0.059604 -0.025108 -38213.200000 0 1 0
-5.351438 -3.710905 22.494008 23.417709 0.606310 0.281804 0.068246 -0.028479 -441602.000000 0 1 0
-5.837138 -4.625705 23.440908 24.595639 0.670127 0.307638 0.072640 -0.029766 -423751.000000 0 1 0
-5.838238 -6.086605 22.884808 24.389469 0.806223 0.353095 0.092192 -0.035481 11423.100000 0 1 0
-6.861738 -6.412905 21.968908 23.892294 0.751600 0.403996 0.100975 -0.039922 -374568.000000 0 1 0
-6.608438 -6.031505 20.625408 22.482392 0.739786 0.409292 0.090588 -0.042488 -259850.000000 0 1 0
-7.780738 -6.050305 19.613008 21.950311 0.660933 0.465675 0.073036 -0.039205 229159.000000 0 1 0
-8.803038 -5.163605 20.093408 22.536666 0.530487 0.469958 0.079527 -0.029927 20820.300000 0 1 0
-9.710738 -4.832305 19.047208 21.919072 0.461746 0.517662 0.072208 -0.027497 238200.000000 0 1 0
-10.170338 -3.400805 19.224308 22.013070 0.322696 0.508834 0.041045 -0.027669 -346191.000000 0 1 0
-9.109838 -2.510905 19.110008 21.318682 0.268948 0.459223 0.034421 -0.015652 -230525.000000 0 1 0
-9.602938 -1.214905 18.924908 21.256635 0.125845 0.472780 0.022191 -0.010494 -620904.000000 0 1 0
-8.493838 -0.347705 18.362708 20.235000 0.040913 0.433568 0.018533 -0.012599 342951.000000 0 1 0
-7.349138 -0.093105 19.202408 20.560908 0.012668 0.365548 0.023808 -0.007003 639479.000000 0 1 0
-7.564238 0.563895 20.413308 21.777025 -0.074410 0.355771 0.030889 -0.006765 -751384.000000 0 1 0
-7.374838 2.092095 20.264008 21.665528 -0.276418 0.361659 0.021146 -0.009788 -693247.000000 0 1 0
-8.309338 2.585895 19.373908 21.238650 -0.301703 0.422173 0.016310 -0.015423 -236652.000000 0 1 0
-8.252638 3.966695 19.248008 21.314936 -0.448055 0.444027 0.019391 -0.011486 -245645.000000 0 1 0
-9.068938 4.446695 18.078508 20.708722 -0.455875 0.509497 0.025532 -0.008545 -1251880.000000 0 1 0
-10.448438 4.427795 18.254908 21.494578 -0.400833 0.556177 0.017867 -0.004566 -323919.000000 0 1 0
-11.145938 4.910095 17.098308 20.992691 -0.414949 0.618949 0.023033 0.002340 -72474.600000 0 1 0
-11.298938 6.446295 17.042608 21.439944 -0.518463 0.651954 0.029576 0.003055 -474363.000000 0 1 0
-10.084338 7.156795 16.854708 20.904420 -0.617203 0.632969 0.025471 -0.000607 377024.000000 0 1 0
-10.254938 8.512895 16.636908 21.317125 -0.692843 0.675414 0.019121 -0.004127 -484692.000000 0 1 0
-8.945238 9.235695 16.892708 21.229200 -0.801373 0.650585 0.024517 -0.002888 -602703.000000 0 1 0
-8.806838 9.716395 18.226808 22.454070 -0.834462 0.623675 0.047725 0.011597 -188256.000000 0 1 0
-8.208238 10.963295 18.461708 22.987033 -0.928127 0.638256 0.052586 0.007918 194222.000000 0 1 0
-9.004938 12.203495 17.896308 23.458304 -0.935085 0.703012 0.057749 0.006172 407035.000000 0 1 0
-8.740838 12.356395 16.536208 22.417157 -0.955125 0.741200 0.048470 -0.009935 -306881.000000 0 1 0
-9.493938 13.415895 15.999208 22.936777 -0.954946 0.798845 0.061798 -0.021551 -23902.400000 0 1 0
-8.978238 13.986595 14.642408 22.150253 -1.000124 0.848580 0.051438 -0.022577 235377.000000 0 1 0
-7.888138 14.868695 14.795808 22.410193 -1.083032 0.849676 0.047503 -0.005127 -333707.000000 0 1 0
-7.459738 15.377895 13.558808 21.816705 -1.119144 0.900156 0.027144 -0.009315 -149521.000000 0 1 0
-6.459338 16.559695 13.776108 22.488390 -1.198885 0.911466 0.001177 0.000927 484935.000000 0 1 0
-5.150438 16.093095 14.072608 21.989839 -1.261057 0.876351 0.004398 -0.006381 -182211.000000 0 1 0
-4.272638 17.250295 14.116408 22.695839 -1.327998 0.899525 0.007729 -0.001213 148039.000000 0 1 0
-2.797538 16.862795 13.905808 22.035235 -1.406394 0.887863 0.022945 -0.008891 -587889.000000 0 1 0
-2.129138 16.157995 14.896308 22.079720 -1.439781 0.830292 0.035814 -0.015352 -257189.000000 0 1 0
-2.718138 14.923695 15.317808 21.557834 -1.390635 0.780524 0.036763 -0.013424 -49675.700000 0 1 0
-1.758938 14.149495 16.320308 21.671514 -1.447120 0.718071 0.039916 -0.010472 757995.000000 0 1 0
-0.446238 13.939895 15.835808 21.101958 -1.538796 0.722065 0.037154 -0.023631 -228562.000000 0 1 0
0.477062 13.448995 16.784508 21.513316 1.535339 0.675824 0.037412 -0.001431 140410.000000 0 1 0
1.467762 14.552895 17.165008 22.551687 1.470279 0.705726 0.035612 -0.012501 -594889.000000 0 1 0
0.883262 15.522395 17.979108 23.769165 1.513955 0.712997 0.035888 -0.015781 -133844.000000 0 1 0
1.766062 16.606095 18.300108 24.774489 1.464844 0.739705 0.063046 -0.018638 -361317.000000 0 1 0
1.105562 17.797495 19.110408 26.137727 1.508757 0.750801 0.059510 -0.012113 792527.000000 0 0 1
0.162762 18.626195 18.417008 26.194423 1.562058 0.791064 0.043948 -0.006069 882295.000000 0 0 1
-1.014938 17.953295 17.937008 25.398566 -1.514324 0.786650 0.053746 -0.007791 -231187.000000 0 0 1
-1.739738 18.803195 16.871308 25.322478 -1.478535 0.841617 0.047821 -0.002976 -82828.900000 0 0 1
-2.304738 19.975395 17.459608 26.630173 -1.455925 0.855776 0.041438 0.002329 150981.000000 0 0 1
-2.905438 20.836095 16.497308 26.734727 -1.432247 0.905777 0.046873 -0.000333 -358055.000000 0 0 1
-3.320638 22.170695 17.100108 28.195391 -1.422125 0.919163 0.044040 0.001287 -532590.000000 0 0 1
-4.410738 22.057795 17.956108 28.782334 -1.373437 0.897126 0.044551 0.003188 -292885.000000 0 0 1
-4.856938 23.282395 18.523308 30.145857 -1.365136 0.909100 0.048726 0.002823 507048.000000 0 0 1
-6.015538 23.231395 19.583408 30.974091 -1.317421 0.886341 0.029574 -0.001614 1217100.000000 0 0 1
-7.353038 23.133895 19.073208 30.871209 -1.263048 0.904814 0.024067 -0.005696 438949.000000 0 0 1
-8.239738 22.716495 20.083908 31.421263 -1.222834 0.877362 0.010331 -0.007237 352290.000000 0 0 1
-9.737038 22.838995 19.682008 31.682977 -1.167796 0.900501 0.008983 -0.010603 154914.000000 0 0 1
-10.094938 24.231595 19.652608 32.791813 -1.176060 0.928152 0.019997 -0.007935 -303443.000000 0 0 1
-11.336538 24.343695 19.015308 32.904628 -1.134974 0.954653 0.022837 -0.006290 -125338.000000 0 0 1
-12.107738 25.675995 19.166808 34.252308 -1.130160 0.976921 0.033744 -0.012060 151200.000000 0 0 1
-12.764238 25.788995 20.427608 35.288599 -1.111198 0.953451 0.034215 -0.006774 588060.000000 0 0 1
-13.576938 26.974095 20.519708 36.510183 -1.104486 0.973962 0.051790 -0.013068 -400992.000000 0 0 1
-14.257538 27.029895 21.847108 37.565792 -1.085413 0.950140 0.068624 -0.026231 -1341410.000000 0 0 1
-15.413838 26.272295 21.877308 37.502487 -1.040217 0.947942 0.054766 -0.029665 -716339.000000 0 0 1
-16.031638 26.575195 23.113908 38.697638 -1.027986 0.930672 0.055938 -0.024848 346691.000000 0 0 1
-17.539238 26.181695 23.148408 39.101852 -0.980555 0.937255 0.078472 -0.027718 320295.000000 0 0 1
-17.798538 24.769495 23.171508 38.304499 -0.947718 0.921119 0.080323 -0.027202 552464.000000 0 0 1
-19.217338 24.676495 23.375008 39.046466 -0.909135 0.928987 0.099825 -0.028718 725469.000000 0 0 1
28.034862 24.134395 23.593314 43.875586 0.710771 1.003051 0.072664 -0.011059 67896.900000 0 0 1
27.598762 23.281195 24.608074 43.695115 0.700743 0.972571 0.070559 -0.028381 55237.400000 0 0 1
27.419462 21.972995 24.073264 42.592975 0.675573 0.970129 0.074582 -0.013907 -137964.000000 0 0 1
26.858462 20.993595 25.146094 42.360761 0.663444 0.935250 0.086925 -0.020042 317231.000000 0 0 1
25.639962 21.496895 25.681824 42.179145 0.697729 0.916155 0.091711 -0.018617 129445.000000 0 0 1
25.161762 20.723895 26.716564 42.146992 0.688982 0.884224 0.079871 -0.021107 257110.000000 0 0 1
23.862962 21.275195 27.368544 42.084583 0.728131 0.862788 0.097145 -0.019423 262302.000000 0 0 1
24.116062 22.294395 28.286844 43.344782 0.746167 0.859784 0.100893 -0.032007 606.626000 0 0 1
22.960962 22.603495 29.035134 43.372374 0.777553 0.837344 0.112378 -0.023327 -7805.810000 0 0 1
22.926562 24.034095 29.680174 44.544110 0.808978 0.841547 0.105555 -0.019891 -324296.000000 0 0 1
22.374462 24.996995 28.756464 44.185977 0.840703 0.862152 0.101932 -0.029726 339185.000000 0 0 1
21.802862 26.177395 29.324174 44.950284 0.876320 0.860090 0.089836 -0.023824 -245194.000000 0 0 1
20.491262 25.990695 30.097194 44.735324 0.903164 0.832831 0.102018 -0.025499 -103257.000000 0 0 1
19.363762 25.829695 29.195644 43.526016 0.927506 0.835559 0.105166 -0.036167 1410100.000000 0 0 1
18.053662 26.041595 29.719284 43.443472 0.964606 0.817440 0.099013 -0.034964 754008.000000 0 0 1
17.405662 24.907295 30.551274 43.089567 0.960864 0.782692 0.078034 -0.030608 -496382.000000 0 0 1
17.935562 24.674295 31.796274 44.062550 0.942249 0.764661 0.068923 -0.023419 -108139.000000 0 0 1
16.934662 24.146595 32.631213 43.984508 0.959180 0.734927 0.058204 -0.025375 50358.300000 0 0 1
17.431362 23.822995 -33.891462 44.944618 0.939108 2.425036 0.066472 -0.025911 -150060.000000 0 0 1
17.757462 25.051795 -33.275802 45.279122 0.954169 2.396321 0.082282 -0.020623 -21245.600000 0 0 1
17.935862 24.831295 -31.888992 44.217601 0.945254 2.376305 0.036784 -0.009262 12168.000000 0 0 1
18.142462 26.175195 -31.143092 44.544158 0.964705 2.345006 0.042302 -0.007431 229506.000000 0 0 1
16.930962 26.915795 -31.103722 44.480997 1.009301 2.345156 0.060782 -0.015338 467268.000000 0 0 1
17.234962 28.159395 -30.539272 44.973799 1.021564 2.317258 0.063578 -0.015189 -42651.800000 0 0 1
16.815662 28.317595 -29.093932 43.944392 1.034931 2.294364 0.068084 -0.020226 -445973.000000 0 0 1
17.429562 27.502295 -28.155962 43.045605 1.005930 2.283783 0.033119 -0.010238 -122830.000000 0 0 1
17.005262 27.892795 -26.851512 42.287004 1.023300 2.258782 0.033945 -0.009321 -186554.000000 0 0 1
17.632562 27.198795 -25.635942 41.326544 0.995628 2.239955 0.033868 -0.007741 -462975.000000 0 0 1
19.034462 27.223095 -25.719382 42.010645 0.960606 2.229650 0.043941 -0.007350 -630412.000000 0 0 1
19.531662 26.702895 -24.483892 41.158127 0.939277 2.207905 0.037871 0.001967 1041280.000000 0 0 1
21.100062 26.660795 -24.357992 41.824902 0.901305 2.192450 0.029640 0.003525 991764.000000 0 0 1
21.658962 26.266095 -23.101692 41.142516 0.881236 2.166999 0.040730 0.002291 -14030.100000 0 0 1
23.063562 26.202795 -23.299892 41.969029 0.849032 2.159362 0.043216 0.005258 442809.000000 0 0 1
23.870162 26.160095 -21.972292 41.676335 0.831137 2.126113 0.057217 -0.001545 250655.000000 0 0 1
23.651662 24.929695 -21.326592 40.443966 0.811699 2.126230 0.074065 -0.000186 101851.000000 0 0 1
24.345862 24.964395 -20.083192 40.240237 0.797941 2.093336 0.090888 -0.008749 -103984.000000 0 0 1
23.993662 23.964095 -19.006392 38.874370 0.784782 2.081646 0.098617 -0.013792 -815130.000000 0 0 1
24.122762 22.581595 -19.323692 38.278469 0.752412 2.099968 0.092794 -0.006624 224266.000000 0 0 1
23.904362 21.696695 -18.251092 37.084599 0.737023 2.085351 0.097092 -0.008377 -1072350.000000 0 0 1
24.061462 20.196495 -18.640292 36.528248 0.698291 2.106328 0.116623 -0.015097 599772.000000 0 0 1
23.155962 19.775095 -19.676492 36.254894 0.706809 2.144476 0.100671 -0.017706 962233.000000 0 0 1
21.765462 19.960395 -19.422892 35.346874 0.742165 2.152555 0.093738 -0.024567 -352789.000000 0 0 1
20.818662 19.789595 -20.610592 35.353095 0.760062 2.193203 0.081475 -0.015287 -131020.000000 0 0 1
20.873662 20.699295 -21.771092 36.580747 0.781204 2.208251 0.074182 -0.010744 -188205.000000 0 0 1
20.854062 22.092495 -21.493092 37.214557 0.814227 2.186515 0.068004 -0.007170 80535.300000 0 0 1
20.539362 22.885495 -22.781892 38.270431 0.839373 2.208419 0.053796 -0.006032 -188179.000000 0 0 1
19.198862 22.793295 -23.167092 37.747116 0.870788 2.231591 0.066979 -0.003582 -592746.000000 0 0 1
18.991962 23.083695 -24.569592 38.693882 0.882340 2.258771 0.054932 -0.005350 961711.000000 0 0 1
17.448762 23.052595 -24.905792 38.159926 0.922887 2.281898 0.047043 -0.009437 1132160.000000 0 0 1
16.809062 24.162395 -24.257792 38.141925 0.962982 2.260084 0.048357 -0.014805 873073.000000 0 0 1
15.377962 24.070295 -24.407492 37.571086 1.002280 2.277901 0.044272 -0.013721 1494770.000000 0 0 1
14.541462 25.231495 -23.721892 37.560760 1.047969 2.254361 0.043826 -0.009943 398264.000000 0 0 1
14.674062 26.528895 -24.257492 38.827005 1.065549 2.245618 0.037343 -0.008568 89514.400000 0 0 1
13.632962 27.331195 -23.723692 38.673835 1.108104 2.231193 0.057309 -0.011815 294993.000000 0 0 1
13.583262 28.708895 -24.393092 40.046581 1.128869 2.225744 0.058715 -0.015012 -44537.200000 0 0 1
13.430662 28.613695 -25.813382 40.810010 1.131944 2.255606 0.060062 -0.026876 -53662.800000 0 0 1
12.978262 29.827795 -26.473762 41.940348 1.160397 2.253927 0.083986 -0.034261 -16976.800000 0 0 1
13.885162 31.095195 -26.515572 43.159987 1.150826 2.232365 0.083579 -0.033581 -935208.000000 0 0 1
14.973062 30.959595 -27.319052 43.920607 1.120328 2.242103 0.063007 -0.015716 -974444.000000 0 0 1
15.863462 32.043595 -27.197702 44.923896 1.111110 2.221086 0.069552 -0.032790 -153118.000000 0 0 1
17.251462 31.955595 -27.830102 45.752460 1.075774 2.224682 0.058921 -0.015516 227611.000000 0 0 1
18.136462 31.057895 -27.125202 45.047760 1.042257 2.216979 0.023313 -0.011741 1169110.000000 0 0 1
19.503262 31.191195 -27.570292 45.971610 1.011995 2.213953 0.046601 -0.012318 660172.000000 0 0 1
20.410762 30.347895 -26.649032 45.252236 0.978725 2.200493 0.026791 0.004256 -762676.000000 0 0 1
20.882462 30.776895 -25.363542 45.017816 0.974639 2.169305 0.035700 -0.005065 98071.100000 0 0 1
21.545362 32.000195 -25.154562 46.053959 0.978223 2.148614 0.038952 -0.008573 -970309.000000 0 0 1
22.951662 32.024495 -25.712652 47.047716 0.948956 2.149003 0.026032 -0.005073 -1262740.000000 0 0 1
23.003762 31.852695 -27.126092 47.745075 0.945331 2.175045 0.025738 -0.004434 -981217.000000 0 0 1
24.325562 31.950295 -27.502892 48.671998 0.920067 2.171310 0.038485 0.000478 -1277620.000000 0 0 1
24.684362 31.374095 -28.891962 49.278769 0.904171 2.197276 0.041765 -0.001120 267260.000000 0 0 1
23.852862 31.850695 -29.946742 49.801940 0.928002 2.215944 0.054986 -0.024259 238952.000000 0 0 1
22.571262 31.279995 -30.057522 48.901479 0.945728 2.232744 0.046531 -0.020407 -501082.000000 0 0 1
21.535862 32.028895 -30.900212 49.441548 0.978843 2.245908 0.055432 -0.017308 -914349.000000 0 0 1
21.047562 33.282895 -30.413192 49.756540 1.006905 2.228423 0.072517 -0.023263 893468.000000 0 0 1
20.037962 33.808195 -31.314512 50.250499 1.035765 2.243583 0.086801 -0.036014 2030280.000000 0 0 1
18.551662 33.243895 -31.080402 49.145825 1.061796 2.255459 0.089397 -0.034799 900627.000000 0 0 1
18.298762 31.813695 -31.421892 48.314503 1.048823 2.278857 0.092643 -0.032089 112574.000000 0 0 1
18.471362 31.335595 -32.784522 48.968721 1.038156 2.304331 0.109333 -0.035192 -358678.000000 0 0 1
17.796562 32.074395 33.978154 49.999994 1.064235 0.823629 0.130128 -0.037316 -577098.000000 0 0 1
18.324662 33.353995 33.642815 50.794894 1.068414 0.846876 0.123162 -0.033759 85150.100000 0 0 1
17.761262 33.989995 32.500775 50.270097 1.089277 0.867778 0.106363 -0.035872 240165.000000 0 0 1
16.248962 -33.747476 32.533912 49.612260 -1.122069 0.855603 0.123403 -0.032188 -298203.000000 0 0 1
15.392962 33.201495 32.438413 48.903305 1.136672 0.845553 0.132873 -0.026948 181019.000000 0 0 1
14.017062 33.504995 32.276005 48.588098 1.174565 0.844269 0.111753 -0.028717 626307.000000 0 0 1
13.514562 34.030695 30.861854 47.887218 1.192768 0.870467 0.110839 -0.032518 -593536.000000 0 0 1
13.971962 -32.737876 30.622804 46.954663 -1.167417 0.860342 0.120543 -0.023263 520924.000000 0 0 1
13.297562 -32.143776 29.510414 45.617015 -1.178544 0.867262 0.106781 -0.020248 44777.500000 0 0 1
13.771962 -30.669976 29.272974 44.578262 -1.148743 0.854408 0.084023 -0.016572 90208.300000 0 0 1
13.384862 -29.785976 30.306724 44.551728 -1.148468 0.822680 0.086319 -0.020558 326241.000000 0 0 1
14.052862 -28.580676 30.086094 43.812225 -1.113818 0.813849 0.075844 -0.031775 -222578.000000 0 0 1
13.721862 -27.496876 31.190084 43.785718 -1.107922 0.777977 0.096038 -0.037070 1477150.000000 0 0 1
12.335462 -27.042676 31.123344 43.036409 -1.142842 0.762392 0.097178 -0.035880 1585870.000000 0 0 1
11.951862 -26.050676 30.157554 41.604841 -1.140654 0.759970 0.080428 -0.033668 -241502.000000 0 0 1
12.258262 -24.571576 30.512404 41.049168 -1.108045 0.732786 0.099082 -0.034969 157583.000000 0 0 1
11.321862 -24.096076 31.481104 41.229424 -1.131547 0.701989 0.099355 -0.040622 352363.000000 0 0 1
11.797162 -22.985576 32.226902 41.304757 -1.096611 0.675775 0.104004 -0.040555 573352.000000 0 0 1
10.725962 -22.466676 33.258305 41.544105 -1.125378 0.642577 0.097038 -0.033923 71164.300000 0 0 1
10.620462 -23.290376 -33.511272 42.169197 -1.142962 2.489287 0.109761 -0.029380 873542.000000 0 0 1
11.778862 -23.547676 -32.662742 41.953419 -1.106978 2.463145 0.118548 -0.028929 850919.000000 0 0 1
12.437962 -22.327476 -32.042182 40.986834 -1.062541 2.468292 0.118880 -0.030477 -286689.000000 0 0 1
13.044762 -21.395176 -32.920142 41.372154 -1.023271 2.490971 0.105799 -0.030073 117139.000000 0 0 1
13.737462 -20.351776 -32.267042 40.547191 -0.977046 2.491107 0.101497 -0.031628 -272771.000000 0 0 1
13.971162 -19.203076 -33.319952 40.916631 -0.941820 2.522383 0.077990 -0.030456 -141397.000000 0 0 1
14.841662 -19.526976 33.565892 41.572189 -0.920888 0.631044 0.087788 -0.031415 467633.000000 0 0 1
14.644862 -18.639676 32.486589 40.215519 -0.904847 0.630365 0.061252 -0.024376 -651975.000000 0 0 1
15.571062 -17.461676 32.419135 39.979600 -0.842570 0.625122 0.069525 -0.030634 -1195810.000000 0 0 1
15.298762 -16.458876 33.378054 40.237312 -0.821912 0.592531 0.059966 -0.025427 174793.000000 0 0 1
15.895862 -15.191176 33.070017 39.712420 -0.762734 0.586763 0.087208 -0.030067 540742.000000 0 0 1
17.433362 -15.086276 33.402806 40.586516 -0.713349 0.604120 0.090546 -0.025450 759389.000000 0 0 1
18.291262 -15.942076 32.667062 40.692223 -0.716883 0.638847 0.091686 -0.022324 -513674.000000 0 0 1
19.614262 -15.670876 33.036273 41.493264 -0.674102 0.649834 0.112085 -0.024718 -288200.000000 0 0 1
20.599862 -16.336976 32.019274 41.430484 -0.670496 0.687487 0.131999 -0.032671 -255892.000000 0 0 1
20.714862 -15.559476 30.832114 40.271852 -0.644221 0.698823 0.117100 -0.031571 688027.000000 0 0 1
21.533762 -16.340576 29.932494 40.332017 -0.649132 0.734521 0.108723 -0.032836 94861.100000 0 0 1
22.059162 -15.550076 28.722974 39.413459 -0.614024 0.754286 0.109713 -0.026805 -395380.000000 0 0 1
22.893462 -14.475776 28.972694 39.662019 -0.563839 0.751758 0.106486 -0.031749 102713.000000 0 0 1
23.255362 -13.840976 27.750654 38.761880 -0.536863 0.772846 0.102264 -0.031457 343352.000000 0 0 1
23.983062 -12.452476 27.902494 38.843283 -0.478905 0.769390 0.090878 -0.024707 840652.000000 0 0 1
23.034362 -11.470376 28.326364 38.269234 -0.462021 0.737449 0.094972 -0.033992 949338.000000 0 0 1
23.755462 -10.272176 28.682944 38.633546 -0.408133 0.734097 0.072598 -0.028521 432281.000000 0 0 1
22.867062 -9.011076 28.805774 37.866538 -0.375378 0.706377 0.083526 -0.029809 482892.000000 0 0 1
21.799862 -9.096576 29.738354 37.978302 -0.395311 0.671265 0.104262 -0.040712 303531.000000 0 0 1
20.790662 -8.125876 29.490224 36.985873 -0.372587 0.647926 0.091178 -0.036458 -43083.000000 0 0 1
19.595162 -8.151776 30.436924 37.105636 -0.394231 0.608900 0.073406 -0.027442 -445244.000000 0 0 1
19.770062 -7.673176 31.773034 38.200245 -0.370224 0.588545 0.093998 -0.031441 51277.000000 0 0 1
20.235762 -8.697276 32.644155 39.379812 -0.405927 0.593557 0.101391 -0.034364 -257513.000000 0 0 1
20.267662 -8.196676 -33.870352 40.313328 -0.384312 2.568407 0.114469 -0.037911 -135337.000000 0 0 1
18.959362 -8.095776 -33.380722 39.233552 -0.403569 2.588342 0.097806 -0.042412 -128933.000000 0 0 1
19.048862 -7.541876 -32.069652 38.055245 -0.376986 2.573099 0.106266 -0.044637 422479.000000 0 0 1
17.652962 -7.241176 -31.464632 36.797891 -0.389265 2.596475 0.096235 -0.042367 354391.000000 0 0 1
17.851962 -6.297176 -30.436142 35.842792 -0.339117 2.585183 0.093916 -0.039151 392062.000000 0 0 1
16.628062 -5.940776 -29.822432 34.657795 -0.343140 2.607013 0.081342 -0.032950 235007.000000 0 0 1
16.880362 -4.799776 -28.808042 33.732592 -0.277029 2.594445 0.076224 -0.028412 88411.500000 0 0 1
17.653162 -5.089976 -27.625842 33.177238 -0.280718 2.554716 0.078465 -0.020781 236323.000000 0 0 1
17.228462 -6.057776 -26.644522 32.302432 -0.338112 2.540726 0.080229 -0.021816 406916.000000 0 0 1
15.849562 -5.832476 -25.921212 30.937609 -0.352611 2.564137 0.073208 -0.023825 616304.000000 0 0 1
15.741162 -4.691976 -25.105632 30.001527 -0.289686 2.562230 0.072340 -0.015755 -166879.000000 0 0 1
14.543762 -4.574076 -24.347692 28.727222 -0.304710 2.582144 0.057951 -0.024539 115107.000000 0 0 1
14.443562 -3.302676 -23.507992 27.787585 -0.224796 2.579214 0.065631 -0.022472 -140722.000000 0 0 1
14.373762 -2.171776 -24.371792 28.377912 -0.149959 2.603777 0.054923 -0.025869 103668.000000 0 0 1
13.968362 -1.007776 -23.674992 27.507018 -0.072022 2.607418 0.051350 -0.024545 -170953.000000 0 0 1
14.259862 0.343224 -24.331292 28.204135 0.024065 2.611352 0.041481 -0.029885 -477274.000000 0 0 1
13.324662 0.784224 -25.304262 28.608868 0.058787 2.656196 0.049343 -0.029294 211707.000000 0 0 1
13.725962 2.054224 -25.732292 29.236497 0.148557 2.646959 0.048481 -0.012110 -24368.700000 0 0 1
12.901362 2.688224 -26.882872 29.939280 0.205428 2.685802 0.056253 -0.020451 -305033.000000 0 0 1
11.701462 3.347224 -26.601792 29.253777 0.278612 2.712505 0.054636 -0.029580 -55459.100000 0 0 1
11.427962 4.261224 -27.661762 30.231266 0.356908 2.726317 0.054833 -0.020003 -351450.000000 0 0 1
10.087762 4.960224 -27.425472 29.639894 0.456991 2.752594 0.058028 -0.022303 -244716.000000 0 0 1
10.119662 6.045224 -26.525602 29.026882 0.538486 2.723411 0.057138 -0.040266 867138.000000 0 0 1
8.767062 6.516224 -26.409752 28.579671 0.639175 2.749404 0.082965 -0.039431 750450.000000 0 0 1
8.734262 5.392995 -31.698492 33.319156 0.553154 2.828415 0.074955 -0.035756 -73710.200000 0 0 1
8.452462 4.498695 -30.636792 32.098215 0.489102 2.838675 0.053465 -0.016920 402506.000000 0 0 1
8.230062 3.186995 -31.045572 32.275663 0.369457 2.864621 0.047149 -0.007462 -155281.000000 0 0 1
7.853962 2.156195 -29.933712 31.021944 0.267935 2.875937 0.047327 -0.010599 -36432.400000 0 0 1
8.958062 1.646595 -29.198672 30.586282 0.181782 2.839221 0.056069 -0.020419 485398.000000 0 0 1
8.491962 0.950695 -28.094962 29.365697 0.111488 2.846335 0.059352 -0.019130 90909.000000 0 0 1
9.623462 0.374195 -27.203622 28.858068 0.038864 2.801338 0.054981 -0.027993 -49939.300000 0 0 1
10.336362 -0.687205 -27.755212 29.625402 -0.066386 2.784371 0.068402 -0.018222 -264645.000000 0 0 1
11.294962 -1.127405 -26.837142 29.138967 -0.099485 2.741450 0.063384 -0.022069 -561410.000000 0 0 1
12.286462 -2.147105 -27.334842 30.045978 -0.173007 2.713519 0.053914 -0.023418 -126879.000000 0 0 1
11.668862 -3.452005 -27.487062 30.060227 -0.287627 2.724819 0.062792 -0.023600 141411.000000 0 0 1
12.584962 -4.431005 -27.898622 30.924880 -0.338533 2.695504 0.066687 -0.026869 -150142.000000 0 0 1
12.161062 -5.833905 -27.438242 30.574221 -0.447292 2.684707 0.060487 -0.020939 -59915.600000 0 0 1
12.210562 -5.942605 -26.043902 29.371708 -0.452933 2.660955 0.057855 -0.019000 -86739.900000 0 0 1
11.660962 -7.105905 -25.519642 28.943463 -0.547285 2.650264 0.055536 -0.020051 -232814.000000 0 0 1
11.342662 -7.030405 -24.040892 27.496310 -0.554865 2.634853 0.064396 -0.023372 154769.000000 0 0 1
12.461562 -7.044205 -23.173392 27.238162 -0.514495 2.588244 0.038179 -0.018063 -99359.900000 0 0 1
12.036762 -6.677705 -21.871192 25.842299 -0.506502 2.579859 0.055989 -0.029257 -556412.000000 0 0 1
13.045662 -6.675705 -20.755392 25.407492 -0.472978 2.526813 0.060686 -0.027933 -725467.000000 0 0 1
13.718462 -5.450105 -20.757392 25.470948 -0.378161 2.523429 0.056617 -0.028300 46150.100000 0 0 1
14.819862 -5.558605 -19.840092 25.380222 -0.358839 2.468207 0.057629 -0.024250 549438.000000 0 0 1
15.431162 -4.191405 -19.445892 25.176008 -0.265221 2.453404 0.062172 -0.022788 -206544.000000 0 0 1
16.046462 -3.545305 -20.523192 26.291815 -0.217447 2.466409 0.046367 -0.016775 155100.000000 0 0 1
16.478862 -2.215805 -20.248992 26.200847 -0.133662 2.454096 0.048737 -0.007808 241327.000000 0 0 1
17.651062 -1.657405 -21.114492 27.570433 -0.093624 2.443140 0.027861 -0.014447 617526.000000 0 0 1
18.885762 -2.336105 -20.878092 28.249321 -0.123071 2.402478 0.058545 -0.024190 521339.000000 0 0 1
19.897662 -1.637505 -21.612992 29.423117 -0.082111 2.395812 0.063092 -0.019141 -18067.800000 0 0 1
21.294462 -2.253105 -21.640192 30.443859 -0.105415 2.361464 0.050012 -0.012873 -1931490.000000 0 0 1
22.033362 -2.028705 -20.463492 30.138666 -0.091815 2.317166 0.053515 -0.019330 1085260.000000 0 0 1
23.307462 -2.734605 -20.403092 31.096656 -0.116793 2.286460 0.058372 -0.020293 1329650.000000 0 0 1
24.389962 -2.032905 -21.295292 32.442140 -0.083158 2.286844 0.066108 -0.018987 -1511760.000000 0 0 1
23.955462 -1.858405 -22.626892 33.004456 -0.077422 2.326184 0.070326 -0.019874 -234427.000000 0 0 1
24.824062 -1.058305 -23.442592 34.160053 -0.042606 2.327127 0.072101 -0.016265 174601.000000 0 0 1
26.093662 -1.749705 -23.968792 35.474550 -0.066955 2.312658 0.078440 -0.022226 -1076970.000000 0 0 1
27.007962 -2.149005 -23.026592 35.556606 -0.079402 2.275232 0.068818 -0.012794 -193064.000000 0 0 1
28.182462 -2.824405 -23.431092 36.759278 -0.099885 2.261941 0.050464 -0.007230 560084.000000 0 0 1
29.280062 -2.032705 -24.164192 38.017918 -0.069312 2.259582 0.047590 -0.015458 -775530.000000 0 0 1
28.970162 -1.910505 -25.548462 38.673560 -0.065852 2.292438 0.060289 -0.018472 129305.000000 0 0 1
29.633862 -0.863705 -26.159542 39.537747 -0.029138 2.293793 0.054157 -0.024735 -1081040.000000 0 0 1
29.003562 -0.597105 -27.550572 40.007464 -0.020584 2.330402 0.070147 -0.030074 802632.000000 0 0 1
27.611162 -0.248005 -27.554102 39.008542 -0.008982 2.355140 0.066893 -0.011933 724442.000000 0 0 1
27.439862 1.069295 -27.091332 38.574988 0.038949 2.349424 0.060207 -0.009091 -610339.000000 0 0 1
25.983962 1.572695 -27.265042 37.696448 0.060452 2.379335 0.064634 -0.020794 475638.000000 0 0 1
25.008462 0.997395 -26.385912 36.368040 0.039861 2.382593 0.068169 -0.015603 988395.000000 0 0 1
23.692562 1.338595 -26.866152 35.845774 0.056439 2.418092 0.058263 -0.016311 70391.600000 0 0 1
22.662162 0.881595 -25.877632 34.409340 0.038882 2.421967 0.063395 -0.015010 -813428.000000 0 0 1
22.626362 1.761395 -24.720792 33.558491 0.077690 2.398897 0.072675 -0.020727 131140.000000 0 0 1
21.634762 1.393395 -23.818392 32.207457 0.064317 2.403169 0.070237 -0.016975 -390376.000000 0 0 1
21.892262 2.084395 -22.470992 31.441395 0.094925 2.366984 0.066516 -0.014799 -187584.000000 0 0 1
21.721662 3.490995 -22.393892 31.392739 0.159352 2.365058 0.070931 -0.020239 428949.000000 0 0 1
21.780762 3.944395 -21.030792 30.532836 0.179154 2.330619 0.064933 -0.021215 -203108.000000 0 0 1
21.383962 5.422595 -20.823192 30.336178 0.248347 2.327343 0.072512 -0.015469 -18769.300000 0 0 1
22.368062 6.355995 -21.264592 31.510503 0.276857 2.311546 0.061154 -0.009889 228111.000000 0 0 1
22.246562 7.710795 -20.820692 31.430354 0.333648 2.294866 0.049114 -0.007435 -594896.000000 0 0 1
22.442062 7.956395 -19.312992 30.658474 0.340705 2.252272 0.061127 -0.022411 344271.000000 0 0 1
23.822562 7.923595 -18.924192 31.439193 0.321098 2.216712 0.060580 -0.015599 646234.000000 0 0 1
24.184362 8.317295 -17.628992 31.061908 0.331241 2.174316 0.074083 -0.029079 -23846.700000 0 0 1
24.053662 9.828295 -17.200892 31.161591 0.387897 2.155545 0.072474 -0.038734 291811.000000 0 0 1
22.695862 10.164395 -16.928592 30.083124 0.421067 2.168478 0.062055 -0.045967 354097.000000 0 0 1
22.642262 11.539495 -16.831792 30.481818 0.471333 2.155787 0.055460 -0.039084 -758851.000000 0 0 1
21.221062 12.083695 -16.683092 29.574901 0.517631 2.170135 0.043820 -0.040808 147704.000000 0 0 1
20.352862 11.849095 -17.811592 29.527832 0.527216 2.218321 0.047791 -0.038789 796443.000000 0 0 1
19.721862 10.539495 -17.782792 28.570273 0.490793 2.242631 0.044456 -0.043009 -547718.000000 0 0 1
18.830462 10.141995 -18.949292 28.574850 0.494045 2.295810 0.059178 -0.017306 -262318.000000 0 0 1
19.558462 9.932595 -20.138592 29.778395 0.469901 2.313500 0.066680 -0.018000 -260309.000000 0 0 1
18.765962 9.664795 -21.235092 29.941589 0.475589 2.359184 0.046879 -0.022478 -609016.000000 0 0 1
19.489262 9.742295 -22.595292 31.389344 0.463552 2.374368 0.067009 -0.017808 -368592.000000 0 0 1
19.747962 11.091495 -22.912792 32.217997 0.511746 2.361971 0.069285 -0.024476 366584.000000 0 0 1
20.442162 11.292395 -24.137492 33.585990 0.504689 2.372695 0.084876 -0.024483 21462.100000 0 0 1
20.403762 12.805795 -24.474292 34.340834 0.560481 2.364119 0.108113 -0.021647 -210310.000000 0 0 1
21.072862 13.187195 -25.617212 35.696067 0.559168 2.371215 0.099892 -0.019072 -198142.000000 0 0 1
21.236862 14.593595 -25.747092 36.426503 0.602072 2.355793 0.097087 -0.017481 523761.000000 0 0 1
20.094862 15.392595 -26.507262 36.652018 0.653661 2.379242 0.081176 -0.012982 847482.000000 0 0 1
18.866262 15.292295 -25.826312 35.451214 0.681149 2.386930 0.080299 -0.021505 198010.000000 0 0 1
17.712362 15.741295 -26.539892 35.579236 0.726547 2.412738 0.069822 -0.029292 719987.000000 0 0 1
16.395862 15.109095 -26.053252 34.291122 0.744578 2.433751 0.063802 -0.031591 -4220.290000 0 0 1
16.152062 13.748295 -26.389212 33.856982 0.705178 2.464555 0.068089 -0.025586 -166215.000000 0 0 1
14.865762 13.287395 -26.063072 32.815080 0.729393 2.488553 0.038358 -0.024517 -319949.000000 0 0 1
14.832662 11.738295 -26.140232 32.266193 0.669464 2.515192 0.036275 -0.022716 -524968.000000 0 0 1
13.519062 11.300495 -25.963662 31.377986 0.696247 2.545345 0.033372 -0.023728 -467359.000000 0 0 1
13.437462 9.932695 -25.707992 30.661453 0.636540 2.565223 0.038346 -0.030760 -1295890.000000 0 0 1
12.085062 9.354195 -25.440662 29.677887 0.658703 2.600655 0.078962 -0.044443 -1088320.000000 0 0 1
11.605162 9.861095 -24.214492 28.605290 0.704329 2.580180 0.089838 -0.039508 -465635.000000 0 0 1
10.341862 9.319395 -23.936892 27.690794 0.733441 2.614822 0.087215 -0.034392 -363546.000000 0 0 1
9.584262 10.086995 -22.841692 26.745999 0.810949 2.594466 0.096979 -0.030975 -378020.000000 0 0 1
8.979962 11.267795 -23.290892 27.387380 0.897913 2.587588 0.091561 -0.029723 -125892.000000 0 0 1
8.289162 11.981995 -22.272592 26.614785 0.965594 2.562300 0.089426 -0.023697 172752.000000 0 0 1
9.179362 12.754695 -21.288092 26.459891 0.946981 2.505700 0.081694 -0.022654 212968.000000 0 0 1
9.950862 11.924095 -20.411692 25.648409 0.875360 2.491168 0.101333 -0.028181 742993.000000 0 0 1
10.926462 12.689195 -19.629292 25.801403 0.859903 2.435316 0.117261 -0.025778 808930.000000 0 0 1
11.962962 11.744395 -18.954292 25.304317 0.776179 2.417429 0.112640 -0.025992 332545.000000 0 0 1
12.953162 11.134895 -19.805592 26.154001 0.710057 2.429916 0.084114 -0.023352 218379.000000 0 0 1
12.558062 10.226495 -20.786892 26.351111 0.683422 2.479721 0.087260 -0.024975 -591830.000000 0 0 1
13.746562 9.465095 -21.450792 27.178898 0.602995 2.480374 0.084850 -0.023625 373683.000000 0 0 1
14.338662 8.494095 -20.598992 26.496516 0.534806 2.461354 0.090507 -0.035697 182158.000000 0 0 1
15.296862 7.735395 -21.315192 27.352655 0.468185 2.464302 0.068258 -0.035962 -18463.100000 0 0 1
15.695362 6.501595 -20.410692 26.555819 0.392719 2.447440 0.096851 -0.042880 240801.000000 0 0 1
16.578162 6.835295 -19.344992 26.377745 0.391071 2.394081 0.078994 -0.030067 -2187.100000 0 0 1
17.069262 5.721995 -18.713892 25.967493 0.323450 2.375559 0.065536 -0.043123 -229552.000000 0 0 1
17.907362 6.101695 -17.467492 25.749128 0.328399 2.316341 0.090566 -0.033920 -484074.000000 0 0 1
19.163862 6.645595 -17.848392 27.018191 0.333801 2.292423 0.078009 -0.044845 263811.000000 0 0 1
19.948662 7.044195 -16.726692 26.969465 0.339448 2.239805 0.074547 -0.059307 202777.000000 0 0 1
20.629862 5.904295 -15.914992 26.715892 0.278750 2.208949 0.075505 -0.055983 -160860.000000 0 0 1
21.901962 5.463395 -16.418892 27.912805 0.244459 2.199653 0.073161 -0.054414 857611.000000 0 0 1
22.348262 4.302195 -15.743192 27.673124 0.190180 2.175962 0.105422 -0.058794 -860114.000000 0 0 1
23.785062 4.010995 -16.091192 28.995581 0.167063 2.159103 0.069719 -0.007274 -931032.000000 0 0 1
24.402262 2.920695 -15.461192 29.035312 0.119123 2.132343 0.066207 -0.012003 439387.000000 0 0 1
25.624262 2.549895 -16.094792 30.366875 0.099184 2.129410 0.068581 -0.016854 458246.000000 0 0 1
26.467062 1.364695 -15.581092 30.743100 0.051516 2.102283 0.095447 -0.033932 -156120.000000 0 0 1
25.840862 0.102695 -15.626192 30.198321 0.003974 2.114667 0.098979 -0.024113 399012.000000 0 0 1
26.817962 -0.958205 -15.506692 30.993205 -0.035715 2.094771 0.093199 -0.019049 448209.000000 0 0 1
26.341462 -2.418705 -15.761492 30.792002 -0.091564 2.108156 0.072462 -0.019933 18442.700000 0 0 1
25.634562 -3.053105 -14.695492 29.705382 -0.118543 2.088295 0.076959 -0.014650 419884.000000 0 0 1
25.329562 -4.352505 -15.057892 29.787097 -0.170173 2.100778 0.060817 -0.012014 -406307.000000 0 0 1
24.642162 -5.157305 -13.874992 28.746293 -0.206310 2.074498 0.061764 -0.012367 2456180.000000 0 0 1
23.205062 -5.012705 -13.581992 27.350916 -0.212749 2.090454 0.075977 -0.002822 1986620.000000 0 0 1
22.323362 -5.503005 -14.570992 27.220018 -0.241694 2.135664 0.088363 -0.002083 -677760.000000 0 0 1
20.873662 -5.368905 -14.094792 25.752632 -0.251752 2.149949 0.091020 -0.005517 -745979.000000 0 0 1
20.523162 -6.373405 -13.153392 25.195877 -0.301105 2.120044 0.093359 -0.001576 304282.000000 0 0 1
20.759162 -6.101305 -11.734692 24.614462 -0.285859 2.067738 0.109239 -0.009277 -382847.000000 0 1 0
20.422262 -7.290705 -10.799992 24.225255 -0.342895 2.032881 0.108026 -0.009041 170677.000000 0 1 0
19.094262 -7.802505 -10.841792 23.302669 -0.387925 2.054724 0.105896 -0.006735 783876.000000 0 1 0
18.897962 -8.903705 -11.704192 23.945710 -0.440299 2.081487 0.095091 -0.015655 -1049800.000000 0 1 0
17.491362 -9.435705 -11.773692 23.099786 -0.494707 2.105619 0.110104 -0.022325 -1141390.000000 0 1 0
16.523962 -8.561705 -12.192092 22.248398 -0.478053 2.150766 0.090408 -0.014937 -24176.400000 0 1 0
15.244662 -9.124705 -12.478592 21.711177 -0.539353 2.183100 0.091939 -0.013784 982980.000000 0 1 0
14.105762 -8.071605 -12.701692 20.626592 -0.519743 2.234187 0.069427 -0.013976 126291.000000 0 1 0
14.220462 -7.131705 -13.788592 21.052507 -0.464855 2.284929 0.055724 -0.017876 210359.000000 0 1 0
15.278162 -6.177305 -13.748492 21.461649 -0.384227 2.266085 0.052067 -0.010869 87230.500000 0 1 0
15.080862 -5.071205 -14.757292 21.700857 -0.324389 2.318604 0.033027 -0.011226 -257824.000000 0 1 0
14.032462 -4.219805 -14.368992 20.522785 -0.292115 2.346401 0.042356 -0.012521 -146682.000000 0 1 0
13.767862 -3.077505 -15.188692 20.729724 -0.219913 2.393079 0.035314 -0.018340 88449.500000 0 1 0
14.896362 -2.017605 -15.404892 21.524011 -0.134624 2.368433 0.040982 -0.017470 308112.000000 0 1 0
15.997762 -2.470305 -16.189092 22.893613 -0.153206 2.356248 0.042476 -0.017996 42924.000000 0 1 0
17.154062 -1.706305 -16.032392 23.541685 -0.099143 2.319953 0.061644 -0.013878 119431.000000 0 1 0
18.177062 -2.198705 -14.930192 23.625210 -0.120376 2.254876 0.077546 -0.013728 -149580.000000 0 1 0
17.742162 -1.997105 -13.594792 22.440836 -0.112091 2.221575 0.063545 -0.004638 147614.000000 0 1 0
18.587662 -2.761605 -12.781292 22.726396 -0.147493 2.168080 0.071180 0.001913 -36747.500000 0 1 0
18.102662 -2.770505 -11.289892 21.513804 -0.151866 2.123246 0.067550 -0.002316 -252054.000000 0 1 0
18.318262 -1.564405 -10.564392 21.204067 -0.085195 2.092346 0.074220 -0.003727 595909.000000 0 1 0
17.747762 -1.649705 -9.295492 20.102506 -0.092686 2.051502 0.067126 -0.002085 -671917.000000 0 1 0
17.793962 -0.322605 -8.511392 19.727467 -0.018128 2.016894 0.064803 -0.003819 103161.000000 0 1 0
19.053262 0.021495 -7.945792 20.643713 0.001128 1.965897 0.075295 -0.005152 1516520.000000 0 1 0
20.110962 0.644295 -8.692292 21.918528 0.032026 1.978577 0.086071 -0.002488 455521.000000 0 1 0
19.762562 2.017295 -9.410492 21.981486 0.101724 2.013197 0.080551 -0.004858 -483802.000000 0 1 0
19.390762 2.993195 -8.461892 21.367370 0.153153 1.977974 0.068205 -0.006001 469208.000000 0 1 0
18.711762 4.031895 -9.095092 21.192143 0.212229 2.014373 0.055709 -0.011961 -641381.000000 0 1 0
18.745162 5.488895 -8.525992 21.312007 0.284854 1.982374 0.075984 -0.008340 -917534.000000 0 1 0
18.281662 6.490895 -9.378592 21.547828 0.341166 2.021107 0.072076 -0.008465 518642.000000 0 1 0
18.824662 7.795295 -9.080092 22.306560 0.392602 1.990029 0.103959 -0.002781 97693.400000 0 1 0
-27.540318 -29.497525 5.971608 40.795014 0.819699 1.423888 0.097093 -0.012013 171378.000000 0 0 1
-27.469638 -28.307195 6.679008 40.006092 0.800413 1.403061 0.064862 -0.009552 -456034.000000 0 0 1
-26.200298 -27.740315 6.499908 38.706969 0.813941 1.402071 0.088616 -0.016403 -628564.000000 0 0 1
-25.969558 -26.470555 7.342108 37.802311 0.794952 1.375330 0.072060 -0.005581 -258751.000000 0 0 1
-26.786698 -25.316665 7.125108 37.539684 0.757192 1.379836 0.074961 -0.020127 1473030.000000 0 0 1
-28.186208 -25.371635 7.527308 38.663193 0.732894 1.374856 0.048944 -0.014067 1440250.000000 0 0 1
-28.432588 -25.280615 9.053608 39.108686 0.726784 1.337178 0.051007 -0.013693 -337526.000000 0 0 1
-27.879918 -26.330685 9.825708 39.587110 0.756828 1.319970 0.055722 -0.013621 -61706.700000 0 0 1
-28.157838 -26.139365 11.201108 40.019933 0.748241 1.287119 0.043533 -0.013213 -444043.000000 0 0 1
-27.488358 -27.104195 12.220208 40.491736 0.778361 1.264221 0.043853 -0.015586 375588.000000 0 0 1
-26.130398 -26.790975 12.481208 39.450406 0.797880 1.248888 0.035736 -0.007438 163937.000000 0 0 1
-26.116168 -25.851595 13.535408 39.160777 0.780307 1.217879 0.044781 -0.006280 -467981.000000 0 0 1
-24.650938 -25.496635 13.892608 38.088734 0.802261 1.197439 0.057609 -0.013488 -137473.000000 0 0 1
-24.100638 -26.486155 14.676508 38.700866 0.832520 1.181833 0.055996 -0.019358 -515064.000000 0 0 1
-22.855138 -26.101655 15.190808 37.873663 0.851615 1.158088 0.054301 -0.024055 -293000.000000 0 0 1
-21.979538 -27.243485 15.749408 38.384260 0.891934 1.148003 0.054152 -0.028045 -511961.000000 0 0 1
-22.576938 -28.012525 16.755808 39.688496 0.892433 1.134944 0.059996 -0.019739 249522.000000 0 0 1
-21.746538 -29.076085 17.128208 40.146060 0.928629 1.130014 0.063890 -0.016542 -205314.000000 0 0 1
-22.555938 -30.011285 18.039708 41.651874 0.926284 1.122860 0.063409 -0.021337 53412.200000 0 0 1
-23.699938 -30.520765 17.389308 42.374428 0.910538 1.147934 0.067342 -0.018175 257014.000000 0 0 1
-24.369338 -31.452475 18.207808 43.756680 0.911612 1.141628 0.076532 -0.013888 -258933.000000 0 0 1
-25.445498 -32.237425 17.455708 44.625403 0.902604 1.168904 0.074531 -0.023942 -136962.000000 0 0 1
-24.881538 -33.365885 16.734008 44.859784 0.930041 1.188525 0.073284 -0.023660 -40156.500000 0 0 1
-25.789968 33.857613 16.170008 45.529436 -0.919838 1.207716 0.074253 -0.026756 -939833.000000 0 0 1
-25.151768 33.150728 14.907408 44.201957 -0.921744 1.226795 0.082495 -0.034974 852152.000000 0 0 1
-24.068438 32.215257 15.057908 42.940110 -0.929145 1.212507 0.069173 -0.030433 139647.000000 0 0 1
-22.840138 32.844943 15.172208 42.786190 -0.963169 1.208304 0.059617 -0.027249 -1111000.000000 0 0 1
-21.634738 31.911987 14.938208 41.347150 -0.975023 1.201148 0.042624 -0.034679 -327178.000000 0 0 1
-21.401638 31.455577 13.622508 40.411089 -0.973362 1.226963 0.020492 -0.021363 458697.000000 0 0 1
-20.213038 30.672877 13.508808 39.139241 -0.988129 1.218400 0.019554 -0.025500 393094.000000 0 0 1
-20.123438 29.863397 12.221408 38.028122 -0.977837 1.243612 0.012597 -0.023179 62535.900000 0 0 1
-19.823538 30.600417 11.057608 38.100247 -0.995956 1.276335 0.000232 -0.016864 123845.000000 0 0 1
-20.205038 29.813237 9.908308 37.353008 -0.975180 1.302321 0.018018 -0.016385 92439.400000 0 0 1
-19.862638 30.608617 8.616008 37.491964 -0.995179 1.338914 0.005563 -0.013970 -144282.000000 0 0 1
-18.482338 30.923667 8.558208 37.028542 -1.032087 1.337563 0.017825 -0.019014 -149985.000000 0 0 1
-18.051538 31.320367 7.267708 36.873337 -1.047947 1.372398 0.030376 -0.020594 100781.000000 0 0 1
-17.486438 30.224697 6.283408 35.479417 -1.046300 1.392757 0.033508 -0.017584 17450.700000 0 0 1
-18.382438 29.141557 5.975108 34.969219 -1.008038 1.399086 0.029856 -0.012319 410698.000000 0 0 1
-18.084038 28.021597 6.773708 34.031242 -0.997689 1.370414 0.016454 -0.011201 -410397.000000 0 0 1
-19.207938 26.999067 6.695208 33.804146 -0.952441 1.371419 0.023547 -0.003682 -166013.000000 0 0 1
-18.939838 26.197737 5.614408 32.810981 -0.944829 1.398836 0.037134 -0.009053 1170670.000000 0 0 1
-20.175538 25.684767 5.074208 33.053096 -0.904956 1.416670 0.035885 -0.007451 219788.000000 0 0 1
-19.946338 24.683117 3.942108 31.978944 -0.891138 1.447210 0.049106 -0.019723 -926713.000000 0 0 1
-19.640838 25.248427 2.647408 32.097575 -0.909675 1.488223 0.053938 -0.019997 856348.000000 0 0 1
-18.403638 25.947707 2.470808 31.907401 -0.953883 1.493282 0.046408 -0.017610 824044.000000 0 0 1
-17.014738 25.208427 2.574108 30.521994 -0.977073 1.486360 0.046385 -0.017537 487249.000000 0 0 1
-16.717838 24.114917 1.702808 29.392429 -0.964610 1.512830 0.080422 -0.031102 96202.600000 0 0 1
-16.764238 24.464877 0.298008 29.659040 -0.970047 1.560748 0.071820 -0.025710 -313468.000000 0 0 1
-16.393538 23.190497 -0.550692 28.405114 -0.955449 1.590185 0.083845 -0.030929 208667.000000 0 0 1
-17.383738 22.156067 -0.559092 28.167325 -0.905514 1.590647 0.081099 -0.034190 418066.000000 0 0 1
-17.111038 21.097667 -1.549492 27.208456 -0.889360 1.627776 0.087620 -0.040345 93280.100000 0 0 1
-16.017238 20.111067 -1.040492 25.731101 -0.898231 1.611245 0.102277 -0.043190 70279.700000 0 0 1
-16.461638 19.313967 0.012308 25.377450 -0.864958 1.570311 0.120418 -0.046023 -702017.000000 0 0 1
-15.530338 18.380467 0.370408 24.065954 -0.869249 1.555404 0.153156 -0.057316 -788695.000000 0 1 0
-16.024138 17.250567 1.214408 23.576044 -0.822239 1.519263 0.124454 -0.051189 -64271.800000 0 1 0
-16.676238 16.203767 0.534008 23.258206 -0.771030 1.547834 0.114468 -0.049700 18532.100000 0 1 0
-17.486738 15.407167 1.328108 23.343750 -0.722262 1.513872 0.142424 -0.058553 24690.200000 0 1 0
-18.215438 14.229767 0.541208 23.121015 -0.663167 1.547387 0.157472 -0.048946 281360.000000 0 1 0
-19.338238 14.647167 -0.200292 24.259989 -0.648233 1.579052 0.174122 -0.047537 92104.900000 0 1 0
-20.100538 13.542567 -0.611092 24.244714 -0.592885 1.596004 0.170050 -0.034457 -322179.000000 0 1 0
-21.196838 13.853967 -1.646292 25.376143 -0.578892 1.635718 0.169428 -0.022586 -558152.000000 0 0 1
-22.091538 12.806667 -2.008792 25.614098 -0.525366 1.649302 0.147471 -0.022783 1619350.000000 0 0 1
-23.213938 12.546267 -1.113592 26.410903 -0.495491 1.612973 0.147623 -0.022129 812910.000000 0 0 1
-24.321438 13.659067 -1.153692 27.918335 -0.511710 1.612132 0.112373 -0.015232 -839928.000000 0 0 1
-24.086438 14.914167 -0.498692 28.334388 -0.554413 1.588397 0.107398 -0.023154 733015.000000 0 0 1
-25.288278 15.667467 -0.303892 29.749939 -0.554674 1.581011 0.095028 -0.014616 258922.000000 0 0 1
-25.019938 16.766367 0.710408 30.126617 -0.590390 1.547213 0.084322 -0.021125 -18568.400000 0 0 1
-24.834938 16.226167 2.003308 29.733413 -0.578734 1.503370 0.099064 -0.019386 82151.300000 0 0 1
-24.638938 17.179767 3.040408 30.190491 -0.608885 1.469918 0.087097 -0.028765 -79395.200000 0 0 1
-25.860608 18.078667 3.320508 31.727512 -0.610109 1.465947 0.106566 -0.034112 -177925.000000 0 0 1
-26.926948 17.370467 3.984908 32.290449 -0.572920 1.447073 0.119963 -0.028396 1625540.000000 0 0 1
-28.211058 18.032667 4.069708 33.728376 -0.568749 1.449840 0.121077 -0.029040 932776.000000 0 0 1
-28.943008 18.331167 2.780408 34.372373 -0.564584 1.489817 0.086662 -0.030281 -1467880.000000 0 0 1
-30.127458 19.030167 3.027908 35.762819 -0.563371 1.486028 0.087469 -0.032514 194242.000000 0 0 1
-30.897088 19.199267 1.819408 36.421863 -0.556002 1.520822 0.081200 -0.039489 1819180.000000 0 0 1
-32.313508 19.938167 1.947508 38.019549 -0.552842 1.519550 0.089983 -0.045387 1831370.000000 0 0 1
-33.436228 19.207967 2.449108 38.638393 -0.521433 1.507368 0.096077 -0.028782 1216400.000000 0 0 1
-34.620773 19.986067 2.682608 40.065411 -0.523550 1.503790 0.109757 -0.031404 586691.000000 0 0 1
-34.782248 20.652067 4.096908 40.658299 -0.535814 1.469861 0.105227 -0.038572 -598790.000000 0 0 1
-33.885368 21.711167 4.381408 40.481967 -0.569827 1.462353 0.107593 -0.042787 365272.000000 0 0 1
-33.970648 22.114267 5.720408 40.936155 -0.577065 1.430598 0.100369 -0.035852 -766987.000000 0 0 1
-32.768158 22.967467 6.052208 40.470803 -0.611335 1.420688 0.104490 -0.039641 -705905.000000 0 0 1
-32.836668 24.273207 5.495608 41.202391 -0.636560 1.437017 0.094948 -0.030741 412520.000000 0 0 1
-31.809968 25.073397 6.049208 40.952927 -0.667519 1.422543 0.095048 -0.031698 -48034.600000 0 0 1
-32.145068 26.555977 5.813508 42.098957 -0.690472 1.432262 0.094081 -0.022955 729546.000000 0 0 1
-33.389448 26.818007 6.496108 43.315819 -0.676682 1.420258 0.105543 -0.011564 963508.000000 0 0 1
-33.658308 28.207527 6.584408 44.406088 -0.697519 1.421970 0.100842 -0.005857 733741.000000 0 0 1
-34.837438 28.567007 7.586508 45.686716 -0.686823 1.403969 0.099134 -0.000240 138030.000000 0 0 1
-34.398208 28.802247 8.905608 45.739654 -0.697085 1.374843 0.112982 -0.016363 -74416.600000 0 0 1
-35.321912 29.240447 9.849208 46.900406 -0.691480 1.359219 0.118958 -0.016329 196707.000000 0 0 1
-36.534548 28.324157 10.251908 47.351163 -0.659479 1.352560 0.105341 -0.016861 490684.000000 0 0 1
-36.057121 27.139027 10.904708 46.427959 -0.645206 1.333708 0.110023 -0.021343 419769.000000 0 0 1
36.935992 26.370277 11.477808 46.812382 0.620024 1.323083 0.101360 -0.017503 4508.570000 0 0 1
-36.588688 25.061687 12.149808 45.983019 -0.600559 1.303397 0.125029 -0.018426 -431222.000000 0 0 1
-35.680475 25.287497 13.175008 45.674223 -0.616555 1.278182 0.139011 -0.020791 -283482.000000 0 0 1
-35.168198 24.189857 13.904508 44.891945 -0.602514 1.255884 0.137493 -0.015549 -522536.000000 0 0 1
-33.881468 24.512867 14.645108 44.309296 -0.626317 1.233942 0.122968 -0.021001 -410614.000000 0 0 1
-34.129743 25.554587 15.572108 45.391263 -0.642700 1.220619 0.125843 -0.017046 276146.000000 0 0 1
-32.889658 26.158787 15.902308 44.932117 -0.671899 1.209039 0.131305 -0.016012 289624.000000 0 0 1
-32.975118 27.394957 16.849008 46.062253 -0.693227 1.196317 0.129879 -0.015659 -85226.300000 0 0 1
-33.157388 28.562197 16.032308 46.607364 -0.711083 1.219637 0.142246 -0.012891 44561.700000 0 0 1
-33.222618 29.698687 16.868808 47.647781 -0.729451 1.208918 0.128011 -0.018869 -142744.000000 0 0 1
-32.859658 31.066957 16.302508 48.069582 -0.757362 1.224790 0.104954 -0.016687 -812265.000000 0 0 1
-31.501618 31.341847 16.247108 47.314182 -0.782856 1.220275 0.105170 -0.017672 -1075620.000000 0 0 1
-31.250128 32.686796 15.814108 47.907026 -0.807864 1.234387 0.099262 -0.016512 -1084010.000000 0 0 1
-29.800208 32.804831 15.379108 46.911899 -0.833355 1.236791 0.107522 -0.021457 -678402.000000 0 0 1
-29.502978 32.115724 14.161608 45.851898 -0.827775 1.256807 0.111712 -0.023869 278184.000000 0 0 1
-29.135638 30.714937 14.434608 44.728633 -0.811779 1.242200 0.125975 -0.026547 -571301.000000 0 0 1
-30.219508 29.671747 14.097008 44.635825 -0.776252 1.249473 0.144611 -0.019850 -143469.000000 0 0 1
-30.545238 29.696427 12.707708 44.456441 -0.771309 1.280907 0.148128 -0.020649 -170586.000000 0 0 1
-31.383658 28.654407 12.303608 44.242375 -0.739971 1.288985 0.154726 -0.021191 -74318.500000 0 0 1
-31.269358 28.393607 10.812308 43.599033 -0.737236 1.320187 0.145110 -0.021593 -197666.000000 0 0 1
-30.139188 27.638687 10.513108 42.223135 -0.742147 1.319160 0.128709 -0.014136 -425078.000000 0 0 1
-29.964908 27.563257 9.086108 41.715539 -0.743675 1.351225 0.118834 -0.016387 -144785.000000 0 0 1
-28.899808 26.671457 8.462808 40.226666 -0.745321 1.358835 0.137057 -0.020229 -144051.000000 0 0 1
-28.782818 27.056387 7.095108 40.135262 -0.754490 1.393082 0.116776 -0.025292 -176295.000000 0 0 1
-27.866638 26.280997 6.376208 38.831641 -0.756123 1.405848 0.113584 -0.024433 -381253.000000 0 0 1
-27.486608 26.773857 4.965508 38.691204 -0.772263 1.442105 0.096526 -0.023868 -63905.500000 0 0 1
-26.587028 27.864597 4.893608 38.823359 -0.808856 1.444412 0.077577 -0.019386 250931.000000 0 0 1
-26.286728 28.242427 3.572508 38.747768 -0.821248 1.478466 0.063261 -0.021483 -335883.000000 0 0 1
-25.256468 29.377857 3.461708 38.896414 -0.860691 1.481680 0.044839 -0.016923 386758.000000 0 0 1
-23.930538 28.840647 3.506708 37.639747 -0.878176 1.477496 0.041740 -0.016891 250960.000000 0 0 1
-22.968638 29.866067 3.357208 37.826064 -0.915211 1.481926 0.030523 -0.007936 515935.000000 0 0 1
-21.519538 29.294307 3.198808 36.489441 -0.937226 1.483020 0.023758 -0.010492 376998.000000 0 0 1
-20.674238 30.299487 2.755408 36.784172 -0.972028 1.495819 0.021048 0.000882 -691884.000000 0 0 1
-19.310038 30.020047 2.970708 35.817676 -0.999189 1.487761 0.015074 -0.005001 123610.000000 0 0 1
-18.369138 31.136797 2.475208 36.236059 -1.037800 1.502435 0.016402 -0.005269 -53358.800000 0 0 1
-18.454638 32.320295 3.277208 37.361949 -1.051979 1.482968 0.019292 -0.007704 200231.000000 0 0 1
-17.311138 33.100908 2.994208 37.474136 -1.088934 1.490810 0.050015 -0.017485 983.681000 0 0 1
-17.088938 -33.732245 3.856708 38.010134 1.101878 1.469156 0.059287 -0.025365 -410767.000000 0 0 1
-18.049738 -32.728245 3.752808 37.563474 1.066800 1.470724 0.059047 -0.023358 -275076.000000 0 0 1
-17.764238 -31.656905 4.632908 36.594967 1.059434 1.443856 0.062067 -0.029235 206055.000000 0 0 1
-18.865038 -30.563305 4.594308 36.209293 1.017793 1.443571 0.064481 -0.020306 144873.000000 0 0 1
-19.151538 -29.940515 3.358608 35.700085 1.001729 1.476579 0.081894 -0.025857 645888.000000 0 0 1
-20.192338 -28.974755 3.597408 35.499412 0.962158 1.469285 0.092418 -0.028281 391378.000000 0 0 1
-20.487738 -28.053825 2.396208 34.821061 0.940022 1.501927 0.097647 -0.026337 -174614.000000 0 0 1
-19.485438 -27.097955 2.353408 33.459228 0.947383 1.500402 0.116743 -0.028739 -98675.100000 0 0 1
-19.908738 -26.058435 1.482308 32.826774 0.918393 1.525626 0.109335 -0.025076 340664.000000 0 0 1
-18.824738 -24.950005 1.339608 31.283670 0.924422 1.527962 0.097773 -0.020017 1013160.000000 0 0 1
-17.588438 -25.492085 0.849308 30.982589 0.966843 1.543380 0.107553 -0.024987 402614.000000 0 0 1
-16.506538 -24.602105 1.109708 29.647273 0.979841 1.533357 0.102403 -0.018470 -104068.000000 0 0 1
-15.196038 -25.020805 0.461108 29.277514 1.025000 1.555046 0.104485 -0.015338 -734012.000000 0 0 1
-15.112938 -24.918605 -0.981592 29.159926 1.025617 1.604465 0.099489 -0.014620 -60081.500000 0 0 1
-15.123638 -23.610905 -1.545692 28.081816 1.001103 1.625867 0.098788 -0.017284 -126919.000000 0 0 1
-15.348138 -23.541505 -3.093192 28.272524 0.993044 1.680422 0.080730 -0.002246 591550.000000 0 0 1
-14.205638 -24.088405 -3.763892 28.217340 1.037963 1.704584 0.088352 -0.006077 434218.000000 0 0 1
-14.364838 -23.979705 -5.161692 28.425655 1.031082 1.753395 0.083336 -0.001463 289334.000000 0 0 1
-13.208238 -24.661905 -5.926192 28.596973 1.079097 1.779540 0.100449 -0.011126 183188.000000 0 0 1
-13.161638 -26.060275 -5.823692 29.770489 1.103120 1.767686 0.083832 -0.012662 -85410.600000 0 0 1
-12.146038 -26.650215 -6.622092 30.026859 1.143165 1.793163 0.085964 -0.009104 226164.000000 0 0 1
23.207262 11.955395 28.005614 38.286067 0.475700 0.750302 0.015925 0.002340 -488217.000000 0 0 1
24.301562 11.142295 28.416324 39.015435 0.429901 0.754907 0.016160 -0.000431 678481.000000 0 0 1
24.105362 10.563395 29.661504 39.654239 0.413013 0.725748 0.029142 0.002284 -405150.000000 0 0 1
24.278962 11.462795 30.898764 40.934061 0.441103 0.715383 0.042483 -0.017067 -92402.500000 0 0 1
23.210362 12.340495 31.207974 40.803755 0.488670 0.700017 0.038834 -0.007692 158430.000000 0 0 1
23.345762 12.764695 32.536911 42.031092 0.500358 0.685480 0.049784 -0.012547 -401146.000000 0 0 1
22.242562 13.706995 33.027833 42.112362 0.552283 0.669264 0.039762 -0.009876 289297.000000 0 0 1
21.035662 13.080695 33.475102 41.643561 0.556320 0.637060 0.044001 -0.004131 434390.000000 0 0 1
20.313562 13.998595 -33.684102 41.751889 0.603390 2.509458 0.048585 0.004355 -64629.900000 0 0 1
19.081662 13.331095 -33.021152 40.400797 0.609809 2.527574 0.049930 0.007873 -96427.800000 0 0 1
17.951662 13.213095 -33.860322 40.538494 0.634505 2.559408 0.039417 0.017338 -583278.000000 0 0 1
16.991262 12.559495 -33.109052 39.276625 0.636536 2.573578 0.040274 0.003466 520521.000000 0 0 1
15.653562 12.291095 -33.918972 39.326857 0.665648 2.610963 0.043403 0.006750 1155940.000000 0 0 1
15.845662 11.114195 33.247139 38.470542 0.611667 0.527192 0.034490 0.009079 1875900.000000 0 0 1
14.558262 10.639495 32.693493 37.336395 0.631114 0.504023 0.042894 0.013116 1842230.000000 0 0 1
14.824262 9.555595 31.630224 36.215180 0.572564 0.508662 0.043665 0.014920 151862.000000 0 0 1
15.167962 8.249895 32.027604 36.385372 0.498150 0.494443 0.034861 0.010989 244283.000000 0 0 1
15.865662 7.546295 31.006124 35.637699 0.443968 0.515519 0.027558 -0.000626 16704.000000 0 0 1
16.109862 6.089495 31.496194 35.897352 0.361396 0.500389 0.041036 -0.010267 -445899.000000 0 0 1
15.038962 5.185895 31.496574 35.285948 0.332062 0.467696 0.038493 -0.007996 -53606.900000 0 0 1
15.484162 3.947895 32.045759 35.808880 0.249645 0.462565 0.053672 -0.018319 498393.000000 0 0 1
14.317262 2.922495 31.932194 35.116805 0.201358 0.429164 0.036212 -0.020444 287850.000000 0 0 1
14.592262 1.642595 32.453659 35.621233 0.112094 0.424909 0.055597 -0.031087 -272046.000000 0 0 1
13.425362 0.849095 32.571653 35.240232 0.063161 0.391665 0.064574 -0.038373 -343625.000000 0 0 1
13.653262 -0.569005 33.146907 35.853212 -0.041651 0.391030 0.038325 -0.034692 -110772.000000 0 0 1
14.108262 -1.509705 32.201840 35.189214 -0.106603 0.415027 0.032437 -0.035180 53237.600000 0 0 1
14.458362 -2.789205 32.806067 35.959171 -0.190572 0.421896 0.069034 -0.044546 -338858.000000 0 0 1
14.890262 -3.908505 31.852134 35.377320 -0.256696 0.450213 0.079151 -0.043950 -990623.000000 0 0 1
15.352562 -5.126105 32.473815 36.283974 -0.322254 0.462386 0.088773 -0.046399 1127040.000000 0 0 1
16.685462 -5.157605 33.028198 37.361309 -0.299791 0.486400 0.083793 -0.042103 874084.000000 0 0 1
17.884562 -4.706705 32.174603 37.110857 -0.257336 0.521674 0.087061 -0.045861 -934547.000000 0 0 1
17.953462 -3.308805 31.884904 36.741286 -0.182254 0.519994 0.087764 -0.047758 263527.000000 0 0 1
19.169062 -3.039905 31.189814 36.735521 -0.157274 0.556637 0.116499 -0.048663 334231.000000 0 0 1
19.443662 -1.542805 31.013564 36.637104 -0.079182 0.561407 0.103700 -0.047263 -444859.000000 0 0 1
19.705062 -0.944205 32.290780 37.840131 -0.047880 0.548423 0.097454 -0.045242 21341.900000 0 0 1
19.593362 0.481795 32.343174 37.818156 0.024585 0.544804 0.079329 -0.034861 -383391.000000 0 0 1
20.549362 1.443795 31.631304 37.747851 0.070145 0.577256 0.083510 -0.026238 -389402.000000 0 0 1
20.520962 1.432595 30.201224 36.541431 0.069698 0.597948 0.088399 -0.031051 417076.000000 0 0 1
21.365262 2.490095 29.656194 36.635568 0.116025 0.627510 0.077719 -0.020984 443830.000000 0 0 1
20.831462 3.940095 29.822114 36.590063 0.186933 0.618010 0.063475 -0.004972 -236892.000000 0 0 1
20.698362 4.376195 31.175204 37.675810 0.208359 0.596228 0.069596 -0.010791 349348.000000 0 0 1
20.172362 5.688995 31.216064 37.599622 0.274880 0.591289 0.058976 -0.006796 -262746.000000 0 0 1
19.867862 6.088195 32.661130 38.711077 0.297349 0.566629 0.059979 -0.008447 1154.460000 0 0 1
18.752762 5.404795 33.223411 38.531454 0.280609 0.531118 0.060620 -0.015165 386406.000000 0 0 1
18.551962 5.754995 -33.413582 38.649227 0.300797 2.615019 0.059121 -0.012245 -616998.000000 0 0 1
17.414962 4.898895 -32.889372 37.536527 0.274217 2.638709 0.068718 -0.015716 -514578.000000 0 0 1
17.684062 3.517895 -32.923482 37.537412 0.196367 2.640555 0.072984 -0.018160 1103890.000000 0 0 1
16.447762 2.819395 -32.676792 36.691288 0.169765 2.669431 0.072892 -0.021585 860349.000000 0 0 1
16.616462 1.311495 -33.001282 36.971766 0.078764 2.673893 0.071104 -0.042108 -182286.000000 0 0 1
17.669762 0.874195 -32.171852 36.715294 0.049434 2.638824 0.075769 -0.033625 -18843.000000 0 0 1
18.012562 -0.457205 -32.446962 37.114240 -0.025377 2.634676 0.084267 -0.038479 -56955.100000 0 0 1
19.275062 -1.020805 -31.730852 37.140504 -0.052910 2.595088 0.109352 -0.037676 -68178.400000 0 0 1
19.121262 -1.203005 -30.353972 35.894756 -0.062832 2.578556 0.101795 -0.036113 246052.000000 0 0 1
18.941762 -0.003005 -29.631262 35.168197 -0.000159 2.572812 0.090885 -0.030261 -388008.000000 0 0 1
18.530162 -0.076005 -28.134662 33.688750 -0.004102 2.559175 0.077206 -0.024249 8889.480000 0 0 1
17.203462 -0.552005 -27.990222 32.859038 -0.032076 2.590260 0.074136 -0.029074 403015.000000 0 0 1
16.661862 -0.808705 -26.677632 31.463752 -0.048498 2.582779 0.071560 -0.023340 -140425.000000 0 0 1
17.333662 -1.935005 -25.909192 31.232777 -0.111172 2.549100 0.078552 -0.016842 -842579.000000 0 0 1
18.617062 -1.610105 -25.419802 31.549228 -0.086271 2.507684 0.080061 -0.019094 16227.300000 0 0 1
19.472862 -2.754805 -25.409552 32.131397 -0.140536 2.482913 0.067161 -0.014482 387452.000000 0 0 1
20.231862 -3.042205 -26.720522 33.653671 -0.149249 2.488133 0.082550 -0.025954 -685231.000000 0 0 1
21.424262 -2.320405 -26.873182 34.446353 -0.107887 2.465695 0.082750 -0.015977 -518268.000000 0 0 1
22.084462 -2.710805 -28.039982 35.795426 -0.122136 2.470817 0.088800 -0.021308 226302.000000 0 0 1
23.536962 -2.223205 -28.264142 36.848242 -0.094176 2.445014 0.073050 -0.021700 -480334.000000 0 0 1
24.527362 -3.047105 -27.792792 37.192952 -0.123600 2.414725 0.080005 -0.025124 -928140.000000 0 0 1
25.749162 -2.562405 -28.323062 38.363800 -0.099188 2.401307 0.064120 -0.021061 17157.000000 0 0 1
26.914862 -3.565705 -28.068192 39.050576 -0.131714 2.372821 0.074733 -0.021911 -152989.000000 0 0 1
26.894962 -4.765605 -28.844582 39.724802 -0.175373 2.383444 0.101318 -0.028917 883706.000000 0 0 1
28.170662 -5.428005 -28.756842 40.620259 -0.190350 2.357378 0.090195 -0.027071 667323.000000 0 0 1
28.211562 -6.583005 -27.680732 40.068081 -0.229242 2.333450 0.082396 -0.023628 -131433.000000 0 0 1
28.236562 -6.154005 -26.332452 39.096973 -0.214589 2.309752 0.067359 -0.007305 271783.000000 0 0 1
28.186962 -7.226405 -25.397192 38.623091 -0.250969 2.288378 0.052891 0.000978 -229687.000000 0 0 1
28.234162 -6.802805 -23.893392 37.607715 -0.236436 2.259235 0.043517 -0.001421 -87804.400000 0 0 1
29.486762 -6.388205 -23.387092 38.173740 -0.213349 2.230204 0.035870 0.002445 154973.000000 0 0 1
29.494262 -5.914405 -22.057792 37.301982 -0.197903 2.203504 0.044495 -0.000458 340243.000000 0 0 1
30.908462 -5.440305 -21.580392 38.087311 -0.174229 2.173174 0.040197 -0.001753 440239.000000 0 0 1
31.316162 -4.234105 -22.223692 38.633174 -0.134390 2.183705 0.039421 -0.008872 -453662.000000 0 0 1
32.540162 -3.768205 -21.760092 39.326367 -0.115288 2.157142 0.041261 -0.005960 -335734.000000 0 0 1
32.929662 -2.442405 -22.458192 39.933675 -0.074035 2.168066 0.046019 -0.012429 -154147.000000 0 0 1
32.128562 -1.436905 -21.950092 38.937331 -0.044694 2.169690 0.039375 -0.010056 -267180.000000 0 0 1
32.649162 -0.194105 -22.309792 39.544055 -0.005945 2.170231 0.037369 -0.013193 -641908.000000 0 0 1
31.790562 1.038495 -22.090692 38.726180 0.032655 2.177829 0.040897 -0.006126 -573147.000000 0 0 1
30.693562 1.066395 -22.968792 38.350976 0.034729 2.212936 0.038895 -0.003099 -943020.000000 0 0 1
29.683062 1.821795 -22.468292 37.272339 0.061298 2.217820 0.037426 -0.004618 -529172.000000 0 0 1
28.410762 1.751095 -23.381492 36.836557 0.061557 2.258463 0.041059 -0.004944 -251953.000000 0 0 1
27.362062 2.518695 -22.920492 35.782331 0.091792 2.266015 0.043466 -0.006024 -525273.000000 0 0 1
26.346762 2.643395 -23.889892 35.663236 0.099996 2.304836 0.066309 -0.011351 -568175.000000 0 0 1
25.273162 3.681295 -23.661492 34.815957 0.144643 2.318036 0.068970 -0.007183 -608178.000000 0 0 1
25.732662 4.985295 -23.312792 35.078617 0.191364 2.297737 0.062210 -0.002563 -676547.000000 0 0 1
24.722362 5.908895 -23.373492 34.531585 0.234609 2.314302 0.075154 -0.010534 -834851.000000 0 0 1
25.126262 7.276195 -22.808492 34.705899 0.281875 2.287886 0.076932 -0.009455 -233233.000000 0 0 1
25.993262 7.936995 -23.726492 36.077583 0.296356 2.288494 0.077892 -0.005160 172103.000000 0 0 1
26.182662 9.206195 -23.201492 36.174509 0.338112 2.267088 0.091304 -0.007691 36738.700000 0 0 1
27.175162 10.129695 -23.991292 37.638840 0.356802 2.261926 0.111576 -0.007474 235.856000 0 0 1
26.888662 10.522495 -25.331592 38.411100 0.373015 2.290931 0.112519 -0.020685 -50187.000000 0 0 1
25.709462 11.286995 -25.455912 37.899554 0.413686 2.307254 0.115762 -0.022660 51871.400000 0 0 1
25.556962 11.680895 -26.967222 38.946537 0.428704 2.335629 0.110198 -0.020737 -308547.000000 0 0 1
25.183962 10.603795 -27.861742 39.024981 0.398523 2.365914 0.097662 -0.020986 287047.000000 0 0 1
26.194462 9.669995 -28.224662 39.702522 0.353642 2.361578 0.092056 -0.025697 -426239.000000 0 0 1
27.072062 10.027795 -29.402922 41.206614 0.354742 2.365347 0.082441 -0.021887 -533824.000000 0 0 1
28.165362 10.911995 -29.031522 41.894971 0.369620 2.336382 0.077693 -0.017672 1372660.000000 0 0 1
29.011262 11.271395 -30.148042 43.331307 0.370569 2.340269 0.082475 -0.022064 724295.000000 0 0 1
29.946762 10.160695 -30.687742 44.065699 0.327104 2.341178 0.056024 -0.019692 -1010820.000000 0 0 1
29.224162 9.264895 -31.483712 43.944443 0.307005 2.369487 0.054622 -0.015879 69758.300000 0 0 1
29.882562 8.034595 -31.666722 44.275315 0.262661 2.367739 0.048583 -0.014476 18449.700000 0 0 1
28.942662 7.004595 -32.350602 43.969347 0.237451 2.397575 0.061680 -0.023717 687495.000000 0 0 1
27.807062 6.658795 -31.560262 42.586646 0.235038 2.405479 0.078031 -0.026913 249460.000000 0 0 1
26.687662 6.266695 -32.322802 42.382382 0.230638 2.438192 0.064386 -0.021235 -241385.000000 0 0 1
25.418762 6.363795 -31.469572 40.950523 0.245316 2.447255 0.097028 -0.011904 -1129040.000000 0 0 1
25.089262 7.680695 -31.129822 40.712774 0.297075 2.441249 0.110450 -0.011592 -8516.510000 0 0 1
23.968162 7.835995 -30.302552 39.422332 0.315980 2.447547 0.102855 -0.018103 -28430.000000 0 0 1
22.560962 7.647595 -30.926942 39.037911 0.326819 2.485249 0.101252 -0.020239 -311240.000000 0 0 1
22.177662 8.655995 -31.798302 39.722877 0.372119 2.498931 0.095082 -0.023236 -325345.000000 0 0 1
20.834962 8.509795 -32.175462 39.265413 0.387759 2.531221 0.076718 -0.018786 -321681.000000 0 0 1
20.439262 9.517895 -33.290422 40.207039 0.435806 2.546283 0.071229 -0.011318 -173499.000000 0 0 1
20.891762 9.146495 33.374839 40.422815 0.412666 0.599454 0.050261 -0.009721 56801.500000 0 0 1
20.666162 10.152695 32.415485 39.760925 0.456640 0.617619 0.039998 -0.002250 583414.000000 0 0 1
19.437262 9.900995 31.440204 38.266478 0.471125 0.606563 0.034462 -0.001205 722715.000000 0 0 1
19.508662 8.780995 30.546724 37.293379 0.422943 0.610969 0.022948 -0.004218 305616.000000 0 0 1
20.538662 8.869595 29.557704 37.069722 0.407657 0.647898 0.042643 -0.002512 -259615.000000 0 0 1
20.222262 9.811295 28.316064 36.152468 0.451716 0.670936 0.041391 -0.001257 10347.700000 0 0 1
19.178062 9.293495 27.475344 34.771564 0.451244 0.659715 0.025010 0.011178 196969.000000 0 0 1
17.958762 9.902195 27.794464 34.541321 0.503906 0.635672 0.025371 -0.002655 -1186170.000000 0 0 1
16.776462 9.165095 27.200124 33.245984 0.500003 0.612614 0.053813 -0.000939 -965638.000000 0 0 1
16.652062 9.486595 25.781814 32.124580 0.517838 0.639227 0.060109 -0.001785 -183464.000000 0 0 1
15.437462 9.098995 25.211864 30.931296 0.532596 0.617908 0.076673 -0.002464 -297139.000000 0 0 1
15.225362 7.575995 25.002164 30.237652 0.461718 0.597303 0.073545 0.001158 -272703.000000 0 0 1
15.024362 6.719095 26.131434 30.882512 0.420534 0.562065 0.063375 -0.002481 -18000.300000 0 0 1
14.554962 5.472595 25.769504 30.097568 0.359643 0.542929 0.067305 -0.002938 -98502.600000 0 0 1
14.534762 4.477295 26.946244 30.941971 0.298817 0.513839 0.059863 -0.005177 -1528330.000000 0 0 1
15.746562 3.905595 27.152674 31.630296 0.243122 0.538578 0.039051 0.001596 -1155500.000000 0 0 1
15.861162 3.385495 28.433994 32.734234 0.210290 0.518362 0.030270 -0.003542 169801.000000 0 0 1
17.096362 2.543895 28.887904 33.664046 0.147714 0.539193 0.057285 -0.011973 137179.000000 0 0 1
17.009862 1.121795 28.796934 33.464269 0.065854 0.534491 0.055876 -0.018917 -438952.000000 0 0 1
16.155662 0.565795 29.743164 33.852347 0.035007 0.497843 0.046544 -0.020527 -336259.000000 0 0 1
16.081862 -0.950705 29.714314 33.800453 -0.059048 0.496805 0.060857 -0.025862 -335065.000000 0 0 1
15.243762 -1.510605 28.687404 32.521091 -0.098774 0.490459 0.045189 -0.019918 255047.000000 0 0 1
15.685862 -1.508505 27.328664 31.546438 -0.095875 0.523050 0.054800 -0.018485 -911966.000000 0 0 1
16.896862 -2.440205 26.960164 31.910954 -0.143426 0.564500 0.058627 -0.018770 -243937.000000 0 0 1
18.138362 -2.205905 27.525134 33.037845 -0.121021 0.586036 0.084236 -0.031414 -506053.000000 0 0 1
18.663562 -0.933205 27.045184 32.873111 -0.049960 0.604626 0.084934 -0.025320 -1923490.000000 0 0 1
20.071462 -0.613505 27.511034 34.060197 -0.030557 0.630525 0.110301 -0.018419 -245578.000000 0 0 1
21.081462 -1.400005 26.923774 34.223934 -0.066312 0.665360 0.079032 -0.012381 -96458.700000 0 0 1
22.396262 -1.096205 27.354774 35.370580 -0.048907 0.686646 0.072446 -0.015315 1160380.000000 0 0 1
23.511362 -1.657605 26.366734 35.365753 -0.070386 0.729445 0.074978 -0.011016 571872.000000 0 0 1
23.470962 -1.128505 24.993884 34.305303 -0.048044 0.754561 0.085072 -0.000290 59501.900000 0 0 1
22.550662 -1.897205 24.241024 33.162615 -0.083933 0.751047 0.109228 0.003025 56532.400000 0 0 1
22.273262 -1.375305 22.834674 31.928232 -0.061669 0.773904 0.095992 -0.021584 -332981.000000 0 0 1
21.463962 -0.256905 22.849474 31.350696 -0.011969 0.754178 0.062706 -0.009058 -195140.000000 0 0 1
21.274562 0.412495 21.674374 30.373601 0.019387 0.776183 0.063724 -0.002700 -21943.300000 0 0 1
-31.151488 -27.296076 -10.302592 42.680609 0.719530 1.814592 0.024483 0.010279 37676.900000 0 0 1
-31.068388 -26.218076 -9.417792 41.729211 0.700932 1.798446 0.030251 0.013404 -245580.000000 0 0 1
-31.520688 -26.566376 -8.138292 42.018542 0.700313 1.765712 0.048962 0.001453 -362256.000000 0 0 1
-31.886518 -25.312876 -7.239092 41.350891 0.670975 1.746768 0.075364 -0.007084 -149471.000000 0 0 1
-30.864558 -24.538976 -6.701692 39.996187 0.671718 1.739149 0.066472 -0.008671 -175650.000000 0 0 1
-29.931838 -25.226076 -5.804792 39.572281 0.700290 1.718016 0.075433 -0.009042 592158.000000 0 0 1
-28.843988 -24.283676 -5.227592 38.065736 0.699771 1.708562 0.081424 -0.008864 -110505.000000 0 0 1
-29.144978 -23.202176 -4.273892 37.497158 0.672355 1.685024 0.103198 -0.017055 -170563.000000 0 0 1
-29.871838 -22.094276 -4.775192 37.460462 0.636835 1.698617 0.097716 -0.022511 7470.330000 0 0 1
-30.053218 -20.934376 -3.773292 36.819584 0.608425 1.673457 0.092799 -0.024220 197877.000000 0 0 1
-28.903548 -20.099276 -3.738492 35.402998 0.607626 1.676592 0.108861 -0.028342 463182.000000 0 0 1
-29.031478 -19.079376 -2.828592 34.854702 0.581417 1.652039 0.110612 -0.020282 33108.000000 0 0 1
-28.006238 -17.899776 -2.976492 33.370808 0.568700 1.660110 0.120524 -0.024825 135335.000000 0 0 1
-28.205948 -16.999276 -4.049992 33.180617 0.542391 1.693160 0.149170 -0.041093 8183.580000 0 0 1
-27.078778 -16.205976 -4.305192 31.850095 0.539298 1.706382 0.153355 -0.046849 -149913.000000 0 0 1
-27.356358 -15.216776 -5.482992 31.780242 0.507623 1.744192 0.160664 -0.061344 311117.000000 0 0 1
-28.396018 -14.313676 -5.097192 32.205536 0.466901 1.729735 0.131371 -0.048299 272879.000000 0 0 1
-28.668148 -13.296676 -5.985592 32.163514 0.434282 1.757986 0.169089 -0.062695 -49986.000000 0 0 1
-30.012898 -12.572976 -5.727192 33.040195 0.396709 1.745016 0.143872 -0.047692 -270913.000000 0 0 1
-31.071758 -13.168176 -6.416292 34.351474 0.400853 1.758683 0.136586 -0.047825 -417635.000000 0 0 1
-32.276598 -12.508576 -6.088192 35.146968 0.369722 1.744895 0.108266 -0.048136 440351.000000 0 0 1
-33.512698 -13.118276 -6.854192 36.635639 0.373107 1.758996 0.066754 -0.040828 396274.000000 0 0 1
-33.942108 -14.398276 -6.325392 37.408390 0.401194 1.740703 0.043875 -0.032904 223023.000000 0 0 1
-34.172374 -15.311076 -7.378392 38.165703 0.421235 1.765346 0.046578 -0.033541 -864611.000000 0 0 1
-35.113824 -16.495976 -7.096892 39.439368 0.439185 1.751726 0.031430 -0.024447 -867354.000000 0 0 1
-36.454698 -16.192576 -7.030992 40.504066 0.418006 1.745267 0.031766 -0.029435 -982463.000000 0 0 1
-36.939808 -15.650576 -5.815992 40.537830 0.400750 1.714764 0.054073 -0.027662 -551692.000000 0 0 1
35.567932 -15.649876 -5.702792 39.274907 -0.414507 1.716513 0.074916 -0.029997 -546940.000000 0 0 1
34.952332 -14.757276 -6.663792 38.520759 -0.399506 1.744663 0.090099 -0.036565 1917970.000000 0 0 1
33.494162 -14.641576 -6.548092 37.136400 -0.412107 1.748048 0.095050 -0.033320 1776480.000000 0 0 1
32.950192 -13.914076 -5.270992 36.153839 -0.399561 1.717111 0.114159 -0.038550 -727525.000000 0 0 1
33.146732 -14.658776 -4.078392 36.472166 -0.416381 1.682853 0.091193 -0.027979 378056.000000 0 0 1
32.508062 -14.040676 -2.947292 35.533101 -0.407712 1.653837 0.123502 -0.035442 -489175.000000 0 0 1
32.408642 -14.951976 -1.715492 35.732683 -0.432259 1.618824 0.120744 -0.033671 122336.000000 0 0 1
33.660582 -15.295076 -1.136492 36.990077 -0.426500 1.601525 0.139362 -0.028351 414416.000000 0 0 1
34.572012 -16.142676 -1.816992 38.198318 -0.436843 1.618382 0.118060 -0.025837 -406457.000000 0 0 1
34.109602 -17.575476 -2.258492 38.437783 -0.475785 1.629587 0.105833 -0.024441 -672088.000000 0 0 1
34.139262 -18.520776 -1.190092 38.857750 -0.497072 1.601428 0.105551 -0.028489 149725.000000 0 0 1
33.842792 -19.854176 -1.609292 39.269743 -0.530552 1.611788 0.091808 -0.023077 272927.000000 0 0 1
34.866232 -20.642776 -2.527092 40.597593 -0.534558 1.633084 0.074970 -0.019396 437481.000000 0 0 1
35.060512 -19.993576 -3.770292 40.536375 -0.518264 1.663941 0.067210 -0.025889 -4873.500000 0 0 1
36.125942 -20.491376 -4.550992 41.781476 -0.515968 1.679937 0.069348 -0.021076 -15059.300000 0 0 1
36.231022 -19.683676 -5.869792 41.648392 -0.497671 1.712204 0.083002 -0.023986 -68435.500000 0 0 1
35.022372 -19.796676 -6.603092 40.768564 -0.514482 1.733478 0.073718 -0.028230 492925.000000 0 0 1
35.055012 -18.889676 -7.682792 40.554889 -0.494249 1.761390 0.072011 -0.037128 396794.000000 0 0 1
33.950942 -19.114976 -8.783092 39.939849 -0.512783 1.792516 0.067828 -0.038800 259918.000000 0 0 1
34.255472 -20.244176 -9.544192 40.918891 -0.533758 1.806211 0.063967 -0.031866 177897.000000 0 0 1
33.265162 -20.519876 -10.506892 40.472597 -0.552723 1.833410 0.070120 -0.039917 -507930.000000 0 0 1
33.253132 -21.979776 -11.033592 41.359661 -0.584058 1.840838 0.068480 -0.039336 7423.190000 0 0 1
32.691552 -22.831976 -10.045792 41.121219 -0.609655 1.817591 0.062282 -0.040810 139025.000000 0 0 1
32.464042 -24.146476 -10.498292 41.799288 -0.639516 1.824674 0.044842 -0.034191 -309439.000000 0 0 1
31.853902 -25.129976 -9.470792 41.663926 -0.667944 1.800115 0.045064 -0.031709 -972313.000000 0 0 1
30.504262 -24.887876 -9.350892 40.464251 -0.684350 1.803994 0.050776 -0.027782 -1321580.000000 0 0 1
29.774722 -26.036676 -8.941192 40.551048 -0.718522 1.793115 0.035472 -0.026402 -183420.000000 0 0 1
28.293072 -25.680876 -8.880292 39.228369 -0.737039 1.799150 0.041683 -0.032562 -693652.000000 0 0 1
27.635772 -25.225976 -10.030292 38.738773 -0.739843 1.832702 0.058955 -0.032237 1216910.000000 0 0 1
26.312672 -24.740276 -9.600692 37.371263 -0.754609 1.830610 0.072537 -0.036953 1230080.000000 0 0 1
25.459372 -24.443376 -10.832192 36.918758 -0.765041 1.868584 0.114513 -0.044430 -385733.000000 0 0 1
25.007372 -25.546576 -11.599992 37.583987 -0.796064 1.884561 0.109119 -0.042130 113470.000000 0 0 1
24.189972 -25.150076 -12.714192 37.139356 -0.804855 1.920200 0.115824 -0.029815 114962.000000 0 0 1
23.256472 -26.327976 -13.075592 37.483289 -0.847264 1.927127 0.115470 -0.028547 -140700.000000 0 0 1
23.914772 -27.270876 -13.901492 38.844157 -0.850872 1.936791 0.116097 -0.021351 263070.000000 0 0 1
23.273472 -28.545076 -13.962092 39.388017 -0.886781 1.933150 0.118744 -0.019562 -22356.900000 0 0 1
24.171772 -29.661576 -14.599692 40.954056 -0.887025 1.935304 0.100050 -0.018254 133170.000000 0 0 1
24.367772 -29.368476 -15.995192 41.378036 -0.878191 1.967698 0.092000 -0.020696 227844.000000 0 0 1
24.755372 -30.581576 -16.549592 42.684309 -0.890298 1.968954 0.087368 -0.026818 -223057.000000 0 0 1
24.861572 -30.545076 -18.030392 43.315061 -0.887619 2.000126 0.086949 -0.023042 -167305.000000 0 0 1
23.573872 -30.285476 -18.518892 42.613224 -0.909373 2.020369 0.096286 -0.027835 -133455.000000 0 0 1
23.481872 -30.287676 -19.928292 43.195816 -0.911302 2.050310 0.088483 -0.024744 -305043.000000 0 0 1
22.119172 -29.846176 -20.458292 42.409831 -0.933012 2.074183 0.071931 -0.013505 -459964.000000 0 0 1
21.855872 -30.015876 -21.793392 43.053268 -0.941431 2.101565 0.076484 -0.013480 -811402.000000 0 0 1
20.508672 -29.814476 -22.085492 42.394311 -0.968253 2.118765 0.081659 -0.018833 -789055.000000 0 0 1
20.172272 -29.851376 -23.599992 43.069535 -0.976527 2.150709 0.075591 -0.022161 -193275.000000 0 0 1
20.749272 -28.808476 -24.382392 43.069266 -0.946609 2.172588 0.086446 -0.028964 395904.000000 0 0 1
20.649172 -29.111376 -25.757192 44.014696 -0.953845 2.195917 0.073629 -0.027738 -289226.000000 0 0 1
21.136772 -27.966576 -26.733212 44.085793 -0.923602 2.222310 0.071112 -0.027023 120563.000000 0 0 1
20.311272 -26.829676 -26.888582 43.074066 -0.922802 2.244955 0.100886 -0.042708 143388.000000 0 0 1
19.100272 -27.061476 -27.586752 43.106528 -0.956181 2.265252 0.111381 -0.047227 49497.700000 0 0 1
18.220872 -25.828476 -27.927392 42.178781 -0.956418 2.294440 0.112378 -0.043700 -107370.000000 0 0 1
17.347372 -25.447076 -26.907932 40.896477 -0.972455 2.288893 0.099809 -0.026669 -626726.000000 0 0 1
16.696072 -24.269176 -27.166582 40.072122 -0.968201 2.315756 0.090621 -0.023178 -360021.000000 0 0 1
15.517072 -24.030276 -26.229672 38.810172 -0.997429 2.312907 0.091610 -0.020101 13616.100000 0 0 1
14.287272 -24.708576 -26.488492 38.939442 -1.046537 2.318898 0.116698 -0.030057 851596.000000 0 0 1
13.134972 -24.297276 -25.732742 37.749956 -1.075203 2.320829 0.079977 -0.015452 620481.000000 0 0 1
13.111872 -24.540676 -24.235492 36.898849 -1.080093 2.287375 0.071003 -0.012285 -755437.000000 0 0 1
14.044172 -23.788876 -23.496592 36.266227 -1.037490 2.275610 0.063799 -0.019102 -271981.000000 0 0 1
14.079972 -24.270076 -22.194392 35.775316 -1.045110 2.240027 0.071682 -0.028383 303439.000000 0 0 1
15.273872 -23.599976 -21.447692 35.358925 -0.996393 2.222537 0.043593 -0.030570 246969.000000 0 0 1
15.168672 -22.255376 -20.957392 34.126275 -0.972545 2.232058 0.041273 -0.020451 302549.000000 0 0 1
16.419172 -21.763576 -20.444692 34.076794 -0.924464 2.214247 0.053732 -0.021939 164036.000000 0 0 1
16.541272 -20.416076 -19.759192 32.876367 -0.889862 2.215567 0.079694 -0.006407 -2637.860000 0 0 1
15.822772 -20.315276 -18.536492 31.728097 -0.909079 2.194727 0.076068 -0.019073 466668.000000 0 0 1
14.441572 -20.029776 -18.721092 30.987582 -0.946112 2.219493 0.055658 -0.020658 233144.000000 0 0 1
13.621972 -20.007076 -17.376792 29.795874 -0.973033 2.193452 0.064131 -0.021248 132081.000000 0 0 1
13.819872 -18.928276 -16.493792 28.658571 -0.940142 2.184045 0.090166 -0.032080 -15094.000000 0 0 1
13.059972 -19.039676 -15.309692 27.703047 -0.969573 2.156320 0.082679 -0.030794 -22725.200000 0 0 1
12.875972 -17.735276 -14.509692 26.284251 -0.942827 2.155593 0.087035 -0.031881 206065.000000 0 0 1
11.966172 -16.795576 -15.098592 25.558720 -0.951757 2.202774 0.074679 -0.036276 268593.000000 0 0 1
12.080272 -15.542976 -14.500692 24.449686 -0.910102 2.205679 0.064214 -0.034009 -216980.000000 0 1 0
10.764772 -14.792576 -14.181092 23.147441 -0.941711 2.230195 0.070951 -0.030495 -44379.700000 0 1 0
10.010772 -14.585576 -15.379792 23.441259 -0.969292 2.286435 0.085941 -0.017435 -42413.200000 0 1 0
8.835272 -13.876876 -15.013592 22.271903 -1.003835 2.310548 0.070782 -0.017811 -50390.500000 0 1 0
8.190672 -13.171476 -16.227292 22.447715 -1.014466 2.378776 0.049459 -0.016030 -202466.000000 0 1 0
8.765872 -11.988076 -16.767292 22.398584 -0.939426 2.416725 0.048678 -0.015000 -441732.000000 0 1 0
9.990872 -12.157976 -17.432492 23.484584 -0.882930 2.407285 0.070393 -0.019024 -191175.000000 0 1 0
10.347172 -10.991376 -18.406892 23.805210 -0.815579 2.454715 0.069789 -0.020419 225470.000000 0 1 0
9.565172 -11.007276 -19.609092 24.437045 -0.855382 2.502158 0.067947 -0.016568 445862.000000 0 1 0
9.792372 -9.805076 -20.253692 24.540622 -0.786046 2.541552 0.062745 -0.020619 106540.000000 0 1 0
9.404072 -9.888976 -21.714792 25.646844 -0.810526 2.580520 0.051515 -0.019173 -138378.000000 0 0 1
10.252672 -10.757676 -22.399292 26.880721 -0.809429 2.555819 0.046868 -0.014428 -414005.000000 0 0 1
10.080172 -10.690176 -23.808892 27.977725 -0.814759 2.588673 0.037712 -0.005668 576814.000000 0 0 1
11.185672 -11.513376 -24.596992 29.371570 -0.799834 2.563383 0.055559 -0.000436 306964.000000 0 0 1
11.233072 -12.891576 -24.355792 29.758684 -0.854037 2.529493 0.058436 -0.009307 55747.900000 0 0 1
12.194672 -13.630776 -25.102112 31.058399 -0.840949 2.511925 0.043717 -0.013675 72698.300000 0 0 1
12.279672 -15.113176 -24.702092 31.454599 -0.888471 2.474018 0.045419 -0.012718 485229.000000 0 0 1
11.152372 -15.711676 -25.337652 31.831255 -0.953514 2.491453 0.057735 -0.016429 77324.200000 0 0 1
10.720572 -16.853276 -24.670992 31.743054 -1.004246 2.461015 0.057970 -0.020571 136483.000000 0 0 1
9.399572 -17.434176 -25.196332 32.049300 -1.076324 2.475390 0.066704 -0.028507 12666.000000 0 0 1
9.673072 -18.346076 -26.209532 33.422843 -1.085583 2.472170 0.064887 -0.027238 150739.000000 0 0 1
8.501672 -18.920576 -26.758452 33.856778 -1.148496 2.482164 0.066565 -0.028140 66554.800000 0 0 1
8.883772 -19.839076 -27.973572 35.426418 -1.149780 2.480993 0.070783 -0.021533 254604.000000 0 0 1
9.540272 -21.052076 -27.551042 35.962017 -1.145305 2.443571 0.065881 -0.017815 130217.000000 0 0 1
9.705272 -21.906376 -28.677222 37.369302 -1.153750 2.445573 0.070064 -0.016464 68415.800000 0 0 1
10.397572 -23.252476 -28.369352 38.126202 -1.150307 2.409969 0.070749 -0.014790 5769.730000 0 0 1
10.286672 -24.227676 -29.436302 39.487869 -1.169278 2.412009 0.084095 -0.016704 4638.980000 0 0 1
10.819472 -25.547876 -29.225382 40.297369 -1.170199 2.382184 0.103015 -0.023796 208563.000000 0 0 1
10.162172 -26.452376 -28.145782 39.939742 -1.204012 2.352805 0.092290 -0.023333 12113.000000 0 0 1
10.735572 -26.135676 -26.890012 39.005113 -1.181046 2.331453 0.085906 -0.019091 -371939.000000 0 0 1
10.033072 -26.504776 -25.716762 38.269016 -1.208927 2.307702 0.068581 -0.014649 -226964.000000 0 0 1
9.030472 -25.493576 -25.242402 36.995280 -1.230362 2.321720 0.051896 -0.013723 -43312.700000 0 0 1
9.807372 -24.409176 -24.772092 36.133765 -1.188747 2.326178 0.048810 -0.012161 200420.000000 0 0 1
9.061772 -23.231276 -24.846092 35.201367 -1.198881 2.354387 0.041609 -0.008799 -189344.000000 0 0 1
9.983572 -22.058476 -24.568992 34.494688 -1.145786 2.363501 0.056251 -0.013257 -112389.000000 0 0 1
10.468772 -21.916076 -23.263192 33.631618 -1.125167 2.334645 0.050197 -0.025275 332756.000000 0 0 1
11.579572 -21.017076 -23.239492 33.404760 -1.067216 2.340182 0.058554 -0.026287 316561.000000 0 0 1
12.097872 -20.721876 -21.797392 32.417294 -1.042358 2.308243 0.047326 -0.019907 435377.000000 0 0 1
11.164972 -19.949376 -21.001692 31.043603 -1.060563 2.313826 0.045269 -0.019820 408891.000000 0 0 1
11.029972 -18.573576 -21.220692 30.281278 -1.034909 2.347295 0.069089 -0.028010 -446333.000000 0 0 1
12.228172 -17.684876 -20.863692 29.959584 -0.965833 2.341158 0.071416 -0.024680 37535.800000 0 0 1
13.143272 -17.540476 -21.948992 31.018900 -0.927736 2.356893 0.069405 -0.015040 138358.000000 0 0 1
14.483072 -17.515076 -21.470692 31.265443 -0.879872 2.327767 0.079427 -0.020602 48646.800000 0 0 1
15.543672 -17.599276 -22.573092 32.571226 -0.847341 2.336491 0.054811 0.000098 -446241.000000 0 0 1
16.813872 -17.612176 -21.972992 32.797979 -0.808583 2.304937 0.071179 0.003356 274770.000000 0 0 1
17.869972 -17.436476 -22.935892 33.903123 -0.773121 2.313813 0.080202 0.009832 -666957.000000 0 0 1
19.196672 -17.789976 -22.361492 34.424291 -0.747384 2.277834 0.079664 0.008368 -1307540.000000 0 0 1
19.454572 -19.194276 -22.266392 35.251849 -0.778663 2.254460 0.085324 -0.002132 -267173.000000 0 0 1
20.717072 -19.437576 -21.726392 35.763845 -0.753545 2.223701 0.069936 -0.003319 -378752.000000 0 0 1
21.053472 -20.920576 -21.374292 36.575669 -0.782232 2.194919 0.095265 -0.015899 -19850.700000 0 0 1
20.357572 -21.471976 -20.276092 35.869157 -0.812033 2.171568 0.096403 -0.012322 337935.000000 0 0 1
20.779772 -22.811176 -20.087792 36.819398 -0.831966 2.147873 0.108309 -0.021284 57891.900000 0 0 1
-17.017638 13.182795 28.807514 35.961910 -0.659094 0.641739 0.024857 -0.016761 -541774.000000 0 0 1
-18.250738 13.630095 28.317544 36.342155 -0.641466 0.677419 0.027503 -0.022963 -29697.600000 0 0 1
-18.220038 13.566895 26.895674 35.205223 -0.640045 0.701355 0.034911 -0.015326 -48278.400000 0 0 1
-19.356338 14.384995 26.260724 35.654194 -0.639114 0.742856 0.052436 -0.020760 -43634.100000 0 0 1
-19.330338 15.761995 26.516124 36.403397 -0.684062 0.754817 0.057301 -0.019365 -568012.000000 0 0 1
-20.450438 16.334595 25.949974 36.857029 -0.673973 0.789682 0.062224 -0.019031 -1518930.000000 0 0 1
-20.509638 17.871695 26.243644 37.799095 -0.716776 0.803359 0.080852 -0.013788 -342366.000000 0 0 1
-19.508638 18.577795 25.613854 37.172449 -0.760963 0.810612 0.067187 -0.020264 -476500.000000 0 0 1
-18.258638 18.575495 26.268394 36.992640 -0.794000 0.781159 0.060478 -0.018552 26362.100000 0 0 1
-17.100538 19.444995 25.706874 36.488075 -0.849462 0.789038 0.058951 -0.014986 425145.000000 0 0 1
-17.351438 20.833995 25.705974 37.362078 -0.876348 0.812035 0.070084 -0.021158 -511767.000000 0 0 1
-16.151538 21.412095 25.323364 36.886621 -0.924537 0.814106 0.085216 -0.022043 -322135.000000 0 0 1
-16.143638 22.946595 25.267604 37.757319 -0.957705 0.837650 0.084986 -0.022911 -78372.700000 0 0 1
-15.871538 23.560695 26.508214 38.854826 -0.977978 0.819978 0.084389 -0.022417 67226.200000 0 0 1
-16.251638 24.932295 26.531504 39.870488 -0.993135 0.842710 0.087100 -0.021596 -50680.700000 0 0 1
-15.560338 25.728495 27.696294 40.879877 -1.026862 0.826432 0.060879 -0.012506 1231490.000000 0 0 1
-14.140238 25.951495 27.537824 40.395027 -1.071899 0.820695 0.051075 -0.016585 929730.000000 0 0 1
-13.711838 26.899695 28.509314 41.525764 -1.099387 0.814070 0.068747 -0.010755 1504340.000000 0 0 1
-12.144438 27.080695 28.696564 41.283704 -1.149229 0.802229 0.086284 -0.020302 1573210.000000 0 0 1
-11.419638 27.701295 27.684544 40.794655 -1.179781 0.824898 0.088922 -0.023117 -285583.000000 0 0 1
-10.029538 27.501895 27.729154 40.321854 -1.221099 0.812486 0.072599 -0.023781 74206.100000 0 0 1
-9.212438 28.344795 26.658044 39.986845 -1.256552 0.841064 0.078682 -0.027758 945230.000000 0 0 1
-7.860338 27.841695 26.598784 39.299367 -1.295635 0.827356 0.068841 -0.023835 1191730.000000 0 0 1
-7.147838 28.466095 25.484744 38.870070 -1.324783 0.855767 0.087224 -0.025718 545901.000000 0 0 1
-5.656438 28.105595 25.235334 38.193480 -1.372193 0.849014 0.065842 -0.023249 408337.000000 0 0 1
-4.826838 28.676295 26.257044 39.179850 -1.404038 0.836362 0.072253 -0.027009 -233396.000000 0 0 1
-3.447338 28.599795 26.082634 38.860472 -1.450838 0.834988 0.052237 -0.022390 -48660.300000 0 0 1
-2.753538 29.549595 25.028144 38.822269 -1.477881 0.870185 0.039441 -0.007153 -334730.000000 0 0 1
-2.847138 29.181895 23.664294 37.678748 -1.473539 0.891746 0.036037 0.002780 -73211.400000 0 0 1
-2.350238 30.161895 22.767674 37.863314 -1.493033 0.925654 0.033977 -0.002182 -433566.000000 0 0 1
-2.813138 29.926995 21.364374 36.877843 -1.477072 0.952892 0.031794 0.007540 499053.000000 0 0 1
-4.222538 29.939595 21.176774 36.914292 -1.430685 0.959812 0.039283 0.008802 21475.600000 0 0 1
-4.740138 28.639395 21.190874 35.940743 -1.406772 0.940226 0.037539 0.005941 -1120380.000000 0 0 1
-6.233238 28.523995 20.939174 35.929383 -1.355652 0.948642 0.056422 0.000966 -471462.000000 0 0 1
-6.715338 28.854495 19.613274 35.529681 -1.342136 0.986005 0.040458 0.000320 301146.000000 0 0 1
-7.712838 27.955495 19.132174 34.742448 -1.301596 0.987611 0.038723 -0.005611 -739379.000000 0 0 1
-7.225538 26.520795 18.725474 33.259651 -1.304804 0.972774 0.031556 -0.003017 -360775.000000 0 0 1
-6.468638 26.505095 17.559274 32.445207 -1.331423 0.998935 0.033229 0.002519 -395887.000000 0 0 1
-5.126638 26.814395 17.847274 32.616245 -1.381886 0.991793 0.031915 0.008319 -1011860.000000 0 0 1
-4.147638 26.932495 16.681674 31.950594 -1.417995 1.021475 0.030383 0.004947 -90562.600000 0 0 1
-3.695038 25.649195 16.244474 30.584595 -1.427720 1.010860 0.041425 -0.001494 371450.000000 0 0 1
-2.769538 25.874695 15.153474 30.113087 -1.464166 1.043477 0.054228 -0.019036 554716.000000 0 0 1
-2.109938 24.621895 14.553174 28.678990 -1.485312 1.038573 0.054265 -0.014512 -131295.000000 0 0 1
-1.105738 24.000695 15.294474 28.481169 -1.524758 1.003916 0.059769 -0.010706 -453815.000000 0 0 1
-0.382638 23.055695 14.577174 27.280130 -1.554202 1.007056 0.056053 -0.022646 -287741.000000 0 0 1
0.912262 22.563795 15.270474 27.260676 1.530388 0.976211 0.052333 -0.017404 392202.000000 0 0 1
1.926362 23.562695 15.119674 28.062716 1.489223 1.001806 0.058872 -0.023365 84765.900000 0 0 1
3.213662 23.001595 15.228574 27.772477 1.431980 0.990426 0.055075 -0.017222 -548418.000000 0 0 1
4.357462 24.008495 15.239574 28.768732 1.391254 1.012518 0.070420 -0.023505 -1224970.000000 0 0 1
5.571262 23.353095 15.146974 28.387266 1.336607 1.007964 0.071270 -0.022130 -918600.000000 0 0 1
6.556562 24.347095 15.375574 29.532657 1.307741 1.023208 0.085235 -0.018597 -1110920.000000 0 0 1
7.985362 23.882495 15.604374 29.624924 1.248122 1.016046 0.094018 -0.019407 -467884.000000 0 0 1
8.533062 23.202795 14.495474 28.658361 1.218388 1.040484 0.073423 -0.020500 -209318.000000 0 0 1
9.150562 24.070195 13.586974 29.115511 1.207508 1.085288 0.076994 -0.018792 -602682.000000 0 0 1
9.691062 23.270495 12.347574 28.069472 1.176187 1.115316 0.056864 -0.015565 -344305.000000 0 0 1
10.703462 22.364195 12.693774 27.854142 1.124416 1.097612 0.060163 -0.015090 -239851.000000 0 0 1
10.999862 21.612095 11.519974 26.847522 1.100000 1.127312 0.047574 -0.020244 -674184.000000 0 0 1
12.374962 20.985895 11.637974 26.999814 1.038000 1.125152 0.076922 -0.020900 -619714.000000 0 0 1
12.440962 19.799595 12.400074 26.468158 1.009796 1.083215 0.071678 -0.014468 -1676710.000000 0 0 1
13.714062 19.383695 12.573174 26.867971 0.955051 1.083814 0.070605 -0.012420 -1872830.000000 0 0 1
13.842062 18.612795 13.858474 27.020291 0.931349 1.032247 0.068910 -0.019263 -47033.200000 0 0 1
15.170862 18.210495 14.138474 27.598436 0.876206 1.032944 0.074610 -0.014827 358322.000000 0 0 1
15.313762 17.668795 15.431474 28.014783 0.856680 0.987434 0.061291 -0.022870 236111.000000 0 0 1
16.778662 17.163295 15.540374 28.593801 0.796730 0.996210 0.043120 -0.023080 448720.000000 0 0 1
17.196362 16.671795 16.878074 29.300734 0.769911 0.956934 0.050567 -0.031725 341691.000000 0 0 1
18.429362 15.983495 16.817774 29.630239 0.714443 0.967223 0.049771 -0.032883 156208.000000 0 0 1
19.097162 15.675795 18.195074 30.683756 0.687322 0.936033 0.055335 -0.032585 -141012.000000 0 0 1
19.555262 16.792795 18.948474 31.991420 0.709544 0.936888 0.061285 -0.027862 153148.000000 0 0 1
18.556162 17.607295 19.511274 32.172004 0.759166 0.919186 0.051896 -0.019494 -538580.000000 0 0 1
19.088962 18.840395 20.158974 33.551948 0.778845 0.926259 0.050922 -0.015847 458457.000000 0 0 1
18.019062 19.627995 20.728874 33.758422 0.828109 0.909633 0.054926 -0.023707 916126.000000 0 0 1
18.644562 20.636395 21.487774 35.145483 0.836062 0.912974 0.059994 -0.014220 264338.000000 0 0 1
17.662562 21.669595 22.107874 35.641206 0.886925 0.901684 0.069804 -0.015881 -49496.400000 0 0 1
17.085262 21.194695 23.308654 35.838731 0.892341 0.862717 0.079272 -0.016923 99638.900000 0 0 1
16.494162 22.288295 24.015984 36.682326 0.933702 0.857008 0.080013 -0.025431 -358977.000000 0 0 1
15.765162 21.805495 25.225584 36.882924 0.944807 0.817651 0.096980 -0.026734 -8654.080000 0 0 1
14.726162 20.861695 24.975494 35.718980 0.956125 0.796488 0.099808 -0.023695 -255341.000000 0 0 1
13.976462 20.638895 26.115524 36.101608 0.975543 0.762097 0.088095 -0.021602 -200579.000000 0 0 1
13.107862 19.353395 25.996164 34.959556 0.975475 0.732348 0.092514 -0.024620 221315.000000 0 0 1
13.850662 18.131695 25.870244 34.494474 0.918463 0.722761 0.089716 -0.026015 125486.000000 0 0 1
14.387362 17.766995 24.610934 33.591076 0.890120 0.748570 0.101450 -0.023887 -344380.000000 0 0 1
13.440962 17.628495 23.386734 32.223635 0.919371 0.758653 0.111621 -0.021423 -579881.000000 0 0 1
13.065562 18.823195 22.705774 32.257926 0.964027 0.789948 0.106361 -0.022138 -17135.900000 0 0 1
14.003762 19.601195 21.942574 32.585101 0.950449 0.832008 0.103180 -0.020777 279890.000000 0 0 1
14.772562 18.829995 20.836074 31.732307 0.905564 0.854468 0.102388 -0.024746 -628739.000000 0 0 1
13.872262 18.294395 19.943974 30.411950 0.922017 0.855562 0.093275 -0.026810 -122809.000000 0 0 1
14.322562 17.069895 19.368874 29.524065 0.872691 0.855241 0.069769 -0.028745 273159.000000 0 0 1
13.166162 16.415495 18.558574 28.057744 0.894802 0.848056 0.060238 -0.017137 261038.000000 0 0 1
12.718862 17.170295 17.439874 27.581474 0.933243 0.886273 0.076839 -0.020180 443921.000000 0 0 1
11.528662 16.560595 16.940674 26.346723 0.962659 0.872401 0.061272 -0.018330 106901.000000 0 0 1
10.885462 17.178795 15.747174 25.721155 1.005996 0.911923 0.060167 -0.012614 -104576.000000 0 0 1
10.038762 18.318495 15.965574 26.291512 1.069480 0.918199 0.064861 -0.021617 419514.000000 0 0 1
9.662362 18.760095 14.700474 25.717822 1.095182 0.962334 0.051966 -0.007424 19587.200000 0 0 1
8.545362 19.872395 14.677374 26.141167 1.164688 0.974640 0.057596 -0.013899 718316.000000 0 0 1
7.300062 19.308895 15.101474 25.576921 1.209339 0.939200 0.034116 -0.016794 -245280.000000 0 0 1
6.384762 20.349895 15.321974 26.261118 1.266774 0.947830 0.049936 -0.017864 -407711.000000 0 0 1
5.016462 19.853295 15.785674 25.855478 1.323300 0.914060 0.045638 -0.018746 -124521.000000 0 0 1
4.138162 19.236695 14.871574 24.664520 1.358907 0.923597 0.035682 -0.024642 636086.000000 0 1 0
2.933262 18.714895 15.445874 24.442307 1.415327 0.886753 0.034480 -0.023710 687675.000000 0 1 0
1.794662 18.349195 14.504974 23.458646 1.473300 0.904192 0.040531 -0.021241 138834.000000 0 1 0
1.115662 19.421495 13.830974 23.869123 1.513415 0.952742 0.042025 -0.025364 177916.000000 0 1 0
0.049062 18.857995 13.088774 22.955226 1.568195 0.964063 0.038219 -0.029191 124001.000000 0 1 0
-0.779738 19.937895 12.279874 23.429105 -1.531708 1.019104 0.040453 -0.024866 -835786.000000 0 1 0
-1.827238 20.492195 12.933774 24.301263 -1.481864 1.009568 0.043426 -0.016619 -107494.000000 0 1 0
-2.993738 20.525195 12.049474 23.988246 -1.425961 1.044531 0.042732 -0.026967 1490210.000000 0 1 0
-4.204438 21.255195 12.712374 25.121009 -1.375510 1.040203 0.036941 -0.018846 573861.000000 0 0 1
-4.828138 20.556595 13.814974 25.233669 -1.340107 0.991444 0.035521 -0.019591 478682.000000 0 0 1
-5.930838 21.323195 14.306274 26.353804 -1.299513 0.996964 0.028272 -0.007969 118786.000000 0 0 1
-6.645138 20.642595 15.493874 26.652106 -1.259358 0.950425 0.028151 -0.003472 -1150560.000000 0 0 1
-7.750638 19.866895 15.108774 26.135053 -1.198829 0.954393 0.027290 -0.003162 -411504.000000 0 0 1
-8.470238 19.432895 16.216374 26.689945 -1.159754 0.917782 0.021228 0.011814 -851913.000000 0 0 1
-9.488738 20.443295 16.755474 28.083988 -1.136238 0.931513 0.024269 0.012428 -711687.000000 0 0 1
-10.615238 20.584895 15.914274 28.101340 -1.094683 0.968766 0.022697 0.003049 419543.000000 0 0 1
-11.715238 19.752095 16.267174 28.142726 -1.035456 0.954491 0.018731 0.005634 -208674.000000 0 0 1
-12.852038 19.607795 15.246174 27.965807 -0.990595 0.994202 0.024763 -0.002887 -349387.000000 0 0 1
-13.607738 20.777795 15.149374 29.092797 -0.990972 1.023095 0.008324 0.005841 -671285.000000 0 0 1
-14.568438 20.592095 14.167374 28.930750 -0.955070 1.059051 0.014488 -0.005856 -941472.000000 0 0 1
-15.641338 21.678295 14.290474 30.312004 -0.945773 1.079867 0.014912 -0.010872 -559036.000000 0 0 1
-16.705938 21.264795 15.119074 30.981709 -0.904889 1.060999 0.017367 -0.010972 -181933.000000 0 0 1
-17.683938 22.295095 15.111174 32.220188 -0.900230 1.082641 0.024562 -0.026593 941624.000000 0 0 1
-18.943638 21.949095 15.998874 33.114773 -0.858762 1.066566 0.057657 -0.028354 544443.000000 0 0 1
-19.846138 20.917095 15.571874 32.770068 -0.811665 1.075621 0.055271 -0.017548 1397610.000000 0 0 1
-21.122038 20.792795 16.229274 33.791569 -0.777543 1.069827 0.071221 -0.016307 1039260.000000 0 0 1
-22.103338 21.984395 16.154774 35.111934 -0.782700 1.092696 0.079174 -0.018096 -921892.000000 0 0 1
-22.444338 22.179095 14.822474 34.862104 -0.779454 1.131642 0.095258 -0.025324 324023.000000 0 0 1
-23.237338 23.357395 14.649074 36.057415 -0.787975 1.152427 0.112987 -0.031006 189352.000000 0 0 1
-22.507538 24.528495 13.949774 36.094772 -0.828338 1.173988 0.106376 -0.028881 -121870.000000 0 0 1
-21.421338 25.091095 14.644374 36.095630 -0.864133 1.153040 0.074178 -0.032513 55752.200000 0 0 1
-21.024838 26.270895 13.937474 36.420557 -0.895867 1.178099 0.053105 -0.019794 1011410.000000 0 0 1
-19.518838 26.743395 14.118574 35.993449 -0.940312 1.167716 0.031737 -0.016682 1345350.000000 0 0 1
-18.632238 26.064995 13.260174 34.675301 -0.950182 1.178393 0.033180 -0.010408 -45114.700000 0 0 1
-17.282738 26.463795 13.343374 34.308470 -0.992265 1.171333 -0.008682 -0.008767 -737783.000000 0 0 1
-16.302738 25.643995 12.535574 32.871483 -1.004516 1.179539 0.003921 -0.009444 -490441.000000 0 0 1
-15.058138 26.305395 12.744574 32.880777 -1.050892 1.172770 0.000796 -0.005221 -263560.000000 0 0 1
-14.122238 25.698795 11.903074 31.647257 -1.068315 1.185194 0.003495 -0.002983 -33575.300000 0 0 1
-12.694138 26.315595 11.957474 31.569493 -1.121343 1.182333 -0.003585 -0.000702 89325.500000 0 0 1
-11.702838 25.552895 11.266874 30.279520 -1.141322 1.189531 -0.005762 -0.003358 588308.000000 0 0 1
-10.377638 26.025995 11.459974 30.271749 -1.191376 1.182546 0.012053 -0.006909 297910.000000 0 0 1
-9.969838 27.415395 10.867374 31.130393 -1.222006 1.214194 0.012756 -0.010378 -41157.000000 0 0 1
-8.714938 27.875095 11.410974 31.355724 -1.267782 1.198323 0.031773 -0.015585 907301.000000 0 0 1
-8.315438 29.148595 10.923974 32.219875 -1.292901 1.224895 0.038602 -0.024558 -1346470.000000 0 0 1
-7.060438 29.712395 11.513174 32.637852 -1.337497 1.210282 0.027621 -0.021505 -920259.000000 0 0 1
-5.984638 28.962095 10.999474 31.553245 -1.367027 1.214719 0.045937 -0.025308 -884888.000000 0 0 1
-4.791338 29.178095 11.694474 31.797467 -1.408039 1.194176 0.062280 -0.025842 -451735.000000 0 0 1
-3.590038 28.757695 10.831474 30.938879 -1.446601 1.213126 0.080348 -0.038611 -361069.000000 0 0 1
-3.429238 29.634995 9.722674 31.377110 -1.455593 1.255745 0.082543 -0.041098 208444.000000 0 0 1
-2.314638 29.375695 8.883574 30.776727 -1.492164 1.277984 0.086820 -0.042620 351957.000000 0 0 1
-2.108338 30.360695 7.688574 31.389984 -1.501465 1.323341 0.082476 -0.048260 437353.000000 0 0 1
-3.074038 30.181295 6.648274 31.057364 -1.469294 1.355062 0.088505 -0.040803 310327.000000 0 0 1
-2.961038 31.136295 5.634674 31.780280 -1.475982 1.392553 0.091708 -0.033939 99674.400000 0 0 1
11.177262 -33.964876 -26.262472 44.365093 -1.252876 2.204288 0.110709 -0.044402 -84591.400000 0 0 1
12.020462 -33.875076 -25.127972 43.856895 -1.229810 2.180902 0.090825 -0.041572 -149591.000000 0 0 1
13.103162 -33.074276 -25.505152 43.773432 -1.193593 2.192798 0.091256 -0.034789 -568103.000000 0 0 1
14.050662 -32.723376 -24.364092 43.149153 -1.165224 2.170803 0.075848 -0.021372 -691508.000000 0 0 1
13.525062 -31.810976 -23.473192 41.783445 -1.168782 2.167335 0.078834 -0.023391 39438.000000 0 0 1
13.669762 -32.215276 -22.098592 41.388817 -1.169497 2.134034 0.057536 -0.020988 797842.000000 0 0 1
15.099262 -31.950376 -21.465592 41.347139 -1.129320 2.116659 0.035759 -0.020278 1580450.000000 0 0 1
16.149162 -32.795076 -21.961992 42.645534 -1.113226 2.111791 0.051428 -0.009485 611086.000000 0 0 1
17.442462 -32.437376 -21.497192 42.644485 -1.077424 2.099139 0.044544 -0.015207 230583.000000 0 0 1
18.449862 -33.551976 -21.759592 44.041031 -1.068038 2.087567 0.030193 -0.009470 -790114.000000 0 0 1
19.763062 -33.327576 -21.361392 44.244944 -1.035544 2.074644 0.039344 -0.004848 -159344.000000 0 0 1
20.584362 33.621395 -21.686692 44.993631 1.021425 2.073726 0.031553 -0.004938 221197.000000 0 0 1
22.042462 33.735695 -21.192092 45.531001 0.992044 2.054932 0.065497 -0.009478 74777.400000 0 0 1
22.937762 -33.782276 -22.152392 46.455480 -0.974312 2.067866 0.057681 -0.009288 -481965.000000 0 0 1
24.264362 34.034295 -21.810492 47.146475 0.951439 2.051735 0.047142 -0.006594 -533413.000000 0 0 1
25.144562 -33.544976 -22.967392 47.801836 -0.927566 2.071988 0.069117 -0.005741 -441156.000000 0 0 1
25.313262 -32.151276 -23.170792 47.025008 -0.903837 2.086024 0.076397 -0.013863 -193805.000000 0 0 1
24.322862 -31.547276 -23.974792 46.493257 -0.913992 2.112576 0.058951 -0.014791 -7242.150000 0 0 1
24.192262 -30.041876 -23.814992 45.331377 -0.892841 2.123927 0.062268 -0.023160 -553624.000000 0 0 1
25.006362 -29.287776 -24.635092 45.716296 -0.864091 2.139890 0.062881 -0.026881 -345196.000000 0 0 1
24.988062 -27.968976 -24.188292 44.628918 -0.841628 2.143596 0.076429 -0.022341 63025.500000 0 0 1
25.634462 -27.042276 -25.161592 44.961273 -0.812117 2.164733 0.065769 -0.018949 265985.000000 0 0 1
24.782962 -26.852476 -26.308192 45.026344 -0.825456 2.194794 0.060093 -0.022745 -130099.000000 0 0 1
25.470162 -26.253276 -27.373112 45.686442 -0.800537 2.213238 0.046144 -0.015846 -720988.000000 0 0 1
24.650362 -25.667176 -28.554822 45.626989 -0.805603 2.246994 0.047294 -0.016508 389043.000000 0 0 1
23.824062 -24.528976 -28.291282 44.380776 -0.799976 2.262003 0.055105 -0.018285 -299696.000000 0 0 1
22.590762 -24.854876 -27.716772 43.546835 -0.833082 2.260725 0.057189 -0.019310 -920891.000000 0 0 1
21.717962 -23.619776 -27.444052 42.222502 -0.827321 2.278363 0.074071 -0.019316 -2968.020000 0 0 1
21.258262 -22.958076 -28.639812 42.417282 -0.823822 2.312021 0.088256 -0.023809 224323.000000 0 0 1
20.503062 -21.805676 -28.343922 41.221851 -0.816177 2.328967 0.085263 -0.014187 -46482.800000 0 0 1
19.696562 -21.215276 -29.542542 41.361870 -0.822503 2.366342 0.093407 -0.024433 -1158730.000000 0 0 1
18.519062 -21.874776 -29.660722 41.245848 -0.868283 2.373332 0.099567 -0.032638 -1329870.000000 0 0 1
17.658862 -21.279676 -30.602062 41.244954 -0.878119 2.406784 0.083578 -0.035700 -644841.000000 0 0 1
16.364962 -22.054276 -30.749452 41.227805 -0.932415 2.412595 0.098363 -0.043050 -1108300.000000 0 0 1
16.460662 -23.322076 -31.361122 42.407460 -0.956190 2.403152 0.096760 -0.023054 -162648.000000 0 0 1
15.510362 -24.217976 -30.864892 42.186767 -1.001165 2.391499 0.111256 -0.039939 -355043.000000 0 0 1
15.872862 -25.677876 -31.140832 43.371102 -1.017136 2.371734 0.127913 -0.040989 -798613.000000 0 0 1
14.889462 -26.546276 -30.751702 43.267402 -1.059633 2.361340 0.134363 -0.038085 -678430.000000 0 0 1
15.239462 -27.872576 -30.986962 44.376948 -1.070448 2.343770 0.154419 -0.042669 227524.000000 0 0 1
14.217262 -28.908376 -30.377242 44.278681 -1.113727 2.326838 0.160581 -0.044959 394436.000000 0 0 1
14.202462 -29.158176 -28.964902 43.484189 -1.117535 2.299767 0.170644 -0.049976 -19479.800000 0 0 1
13.868562 -28.034776 -28.207302 42.118138 -1.111405 2.304626 0.156730 -0.046458 -637374.000000 0 0 1
14.882262 -27.857276 -27.091502 41.610805 -1.080139 2.279788 0.120227 -0.033068 -265126.000000 0 0 1
14.968962 -28.935376 -26.177152 41.791974 -1.093386 2.247681 0.099414 -0.037501 1191510.000000 0 0 1
16.002262 -28.745376 -25.126082 41.396728 -1.062831 2.223024 0.092433 -0.036753 333962.000000 0 0 1
15.624062 -27.752276 -24.020592 39.890964 -1.058040 2.216995 0.076748 -0.033783 69122.400000 0 0 1
14.650362 -28.155876 -23.114492 39.264058 -1.091017 2.200238 0.073481 -0.029356 727786.000000 0 0 1
13.320262 -28.447576 -23.586692 39.281370 -1.132879 2.214866 0.075949 -0.022605 322395.000000 0 0 1
12.170162 -28.223576 -22.587392 38.142803 -1.163681 2.204557 0.044783 -0.016791 -9262.620000 0 0 1
11.989562 -26.944076 -22.082592 36.842553 -1.152125 2.213519 0.037107 -0.017405 656503.000000 0 0 1
10.696662 -26.849476 -21.469792 36.003679 -1.191675 2.209708 0.043085 -0.022886 544490.000000 0 0 1
10.147262 -25.456276 -21.208092 34.652159 -1.191484 2.229419 0.036711 -0.023244 43628.100000 0 0 1
10.809462 -24.792976 -20.121192 33.710510 -1.159655 2.210405 0.034082 -0.016235 413771.000000 0 0 1
10.358362 -23.427976 -20.018492 32.510087 -1.154501 2.234150 0.038178 -0.020329 -273646.000000 0 0 1
10.688062 -22.674276 -18.726292 31.289479 -1.130311 2.212405 0.026521 -0.016954 -44487.800000 0 0 1
9.980262 -23.098476 -17.574192 30.691977 -1.162949 2.180469 0.034765 -0.017006 225941.000000 0 0 1
10.280062 -22.266476 -16.508192 29.563424 -1.138269 2.163251 0.031499 -0.014526 -234730.000000 0 0 1
9.519662 -22.644876 -15.248392 28.912417 -1.172838 2.126333 0.041774 -0.013840 5087.160000 0 0 1
10.030962 -23.852176 -14.678392 29.748978 -1.172703 2.086800 0.040096 -0.012100 194016.000000 0 0 1
9.343362 -24.248376 -13.498692 29.283047 -1.203010 2.049888 0.040803 -0.014202 150904.000000 0 0 1
9.650762 -25.750776 -13.145992 30.480433 -1.212222 2.016722 0.060632 -0.008353 463751.000000 0 0 1
11.014062 -26.050976 -12.890192 31.082471 -1.170800 1.998420 0.045086 -0.013178 -28681.300000 0 0 1
11.364662 -27.447576 -13.111092 32.471922 -1.178237 1.986427 0.055620 -0.019953 468135.000000 0 0 1
12.771562 -27.965376 -12.640492 33.240895 -1.142391 1.960884 0.040424 -0.022753 1492590.000000 0 0 1
13.990762 -27.573876 -13.298092 33.658570 -1.101253 1.976960 0.054777 -0.015536 841341.000000 0 0 1
14.075962 -27.949776 -14.670692 34.562290 -1.104260 2.009174 0.058831 -0.014597 -752534.000000 0 0 1
15.443562 -27.590676 -15.265092 35.110854 -1.060507 2.020577 0.056892 -0.004018 -410675.000000 0 0 1
16.518662 -28.402676 -14.880592 36.069519 -1.044025 1.996051 0.070331 -0.008451 -313688.000000 0 0 1
17.669062 -27.879776 -15.544292 36.484280 -1.005923 2.010923 0.093959 -0.012659 25023.900000 0 0 1
18.868462 -28.812476 -15.353592 37.708228 -0.991004 1.990148 0.094143 -0.018780 -219466.000000 0 0 1
18.925962 -30.048276 -16.161592 39.016509 -1.008716 1.997887 0.085536 -0.019692 105965.000000 0 0 1
20.267362 -30.407276 -16.464892 40.080682 -0.982888 1.994121 0.093866 -0.020937 530343.000000 0 0 1
20.395262 -31.568476 -17.446792 41.435805 -0.997193 2.005406 0.086611 -0.021477 33175.400000 0 0 1
20.228762 -32.881376 -16.896292 42.141101 -1.019272 1.983345 0.074440 -0.016552 -40358.400000 0 0 1
20.348262 -33.872076 -17.930392 43.392030 -1.029834 1.996782 0.065958 -0.015209 -66207.200000 0 0 1
20.195162 32.803395 -17.382292 42.261701 1.018954 1.994678 0.046659 -0.012183 -479309.000000 0 0 1
21.082562 32.523395 -16.324992 42.056522 0.995668 1.969439 0.071892 -0.018542 -139148.000000 0 0 1
20.987462 31.189595 -15.943392 40.834498 0.978491 1.971905 0.064477 -0.013974 -130912.000000 0 0 1
22.041162 30.734495 -14.892892 40.647513 0.948655 1.945924 0.055012 -0.015756 413856.000000 0 0 1
23.354562 30.520795 -15.450892 41.420823 0.917637 1.953061 0.062570 -0.018509 1747640.000000 0 0 1
24.400262 30.464195 -14.423192 41.610918 0.895477 1.924762 0.071057 -0.020695 997666.000000 0 0 1
24.305662 29.302595 -13.360992 40.347533 0.878342 1.908316 0.060040 -0.011559 -1266320.000000 0 0 1
24.434362 27.995895 -13.923492 39.682135 0.853223 1.929302 0.062710 -0.009047 -52231.500000 0 0 1
24.033262 26.952795 -13.046692 38.396185 0.842597 1.917491 0.053137 -0.001348 -22465.700000 0 0 1
22.525662 26.837195 -12.731592 37.279136 0.872521 1.919331 0.062496 -0.003836 -815216.000000 0 0 1
21.794062 26.548995 -13.895692 37.052943 0.883441 1.955218 0.070412 -0.012943 -487100.000000 0 0 1
20.429262 26.342795 -13.683292 36.035123 0.911164 1.960291 0.062345 -0.015938 -721143.000000 0 0 1
19.503362 27.535395 -13.591092 36.377148 0.954521 1.953701 0.059314 -0.014083 -785300.000000 0 0 1
19.265762 28.231095 -14.829292 37.256842 0.971960 1.980163 0.066847 -0.017870 511394.000000 0 0 1
18.361462 27.656295 -15.797292 36.763683 0.984700 2.014955 0.056160 -0.007998 -40805.200000 0 0 1
18.311662 28.426495 -17.136492 37.908337 0.998526 2.039859 0.049280 -0.003629 21651.500000 0 0 1
17.483462 29.562595 -17.304392 38.458555 1.036721 2.037505 0.055882 -0.010940 50377.700000 0 0 1
17.852562 30.202595 -18.516192 39.670646 1.036951 2.056406 0.031129 -0.006631 159700.000000 0 0 1
17.002762 31.470895 -18.931492 40.471133 1.075454 2.057571 0.027374 0.000205 134296.000000 0 0 1
17.099862 32.685795 -18.201892 41.134844 1.088794 2.029173 0.041800 -0.017934 -456963.000000 0 0 1
16.138362 33.619395 -18.568292 41.659236 1.123251 2.032773 0.040385 -0.015737 -326753.000000 0 0 1
16.154362 -33.157676 -17.764192 40.938508 -1.117442 2.019640 0.046946 -0.009290 16671.600000 0 0 1
14.935562 -32.512476 -18.026492 40.063531 -1.140170 2.037503 0.031147 -0.009118 -126243.000000 0 0 1
14.689762 -31.483076 -17.076792 38.711627 -1.134230 2.027652 0.034236 -0.007407 279488.000000 0 0 1
13.499462 -30.537676 -17.415492 37.657463 -1.154566 2.051577 0.032557 -0.009144 -615951.000000 0 0 1
12.242662 -31.098576 -17.436292 37.696532 -1.195756 2.051658 0.044877 -0.009015 -1387340.000000 0 0 1
11.340162 -30.031276 -17.624592 36.621074 -1.209738 2.072898 0.026638 -0.003420 64956.800000 0 0 1
9.941362 -30.619076 -17.959892 36.863481 -1.256855 2.079677 0.052875 -0.007982 -1580830.000000 0 0 1
9.410162 -31.511576 -17.017892 37.028897 -1.280601 2.048323 0.060337 -0.005585 -69451.400000 0 0 1
8.346662 -32.285476 -17.544992 37.680837 -1.317809 2.055133 0.080909 -0.006683 466529.000000 0 0 1
7.043462 -31.530576 -17.960992 36.964643 -1.351019 2.078185 0.078275 -0.001577 -995405.000000 0 0 1
7.117062 -30.865876 -19.213392 37.047393 -1.344177 2.116028 0.062470 -0.002258 -207595.000000 0 0 1
7.120362 -31.739076 -20.345092 38.366539 -1.350110 2.129730 0.074093 -0.013912 -746887.000000 0 0 1
7.784662 -31.270576 -21.752292 38.879456 -1.326811 2.164555 0.084077 -0.011597 986725.000000 0 0 1
9.210062 -31.330676 -21.852292 39.293246 -1.284887 2.160523 0.057492 -0.008024 779637.000000 0 0 1
9.937062 -32.502076 -21.557792 40.247591 -1.274085 2.136049 0.071606 -0.020577 -709192.000000 0 0 1
9.732662 -33.670176 -22.519492 41.659729 -1.289407 2.141896 0.085807 -0.030662 -165772.000000 0 0 1
8.408662 33.919295 -22.399192 41.508409 1.327793 2.140794 0.096711 -0.039162 -116912.000000 0 0 1
8.139362 32.981095 -23.399892 41.249931 1.328842 2.173985 0.101362 -0.048957 -1596.850000 0 0 1
6.872062 32.088795 -23.160492 40.166210 1.359825 2.185377 0.112575 -0.052181 91525.600000 0 0 1
5.669762 32.778895 -23.238492 40.578685 1.399521 2.180564 0.116525 -0.049261 -566259.000000 0 0 1
5.246762 33.440595 -22.097392 40.423962 1.415167 2.149144 0.090902 -0.040313 -834468.000000 0 0 1
3.930862 -33.853776 -22.284692 40.720233 -1.455201 2.149887 0.085489 -0.031350 336054.000000 0 0 1
2.790462 33.372195 -22.461892 40.324021 1.487374 2.161608 0.081847 -0.038337 601252.000000 0 0 1
1.702662 -33.861776 -22.822392 40.870289 -1.520556 2.163265 0.070741 -0.031043 342001.000000 0 0 1
0.261862 33.682295 -22.615392 40.571191 1.563022 2.162077 0.049838 -0.032371 283189.000000 0 0 1
-0.075538 33.660695 -21.246192 39.805135 -1.568552 2.133831 0.041035 -0.035501 -112664.000000 0 0 1
-1.333538 33.082695 -20.943292 39.177347 -1.530509 2.134803 0.036771 -0.044851 264981.000000 0 0 1
-1.751938 33.335295 -19.450192 38.634456 -1.518290 2.098374 0.041865 -0.040253 59079.200000 0 0 1
-1.003238 32.623195 -18.503292 37.518678 -1.540054 2.086533 0.056560 -0.044660 -214895.000000 0 0 1
-1.501238 32.792395 -17.164792 37.043556 -1.525048 2.052588 0.031494 -0.026661 61128.200000 0 0 1
-0.854738 31.871995 -16.138892 35.735396 -1.543985 2.039379 0.043965 -0.014689 397894.000000 0 0 1
0.479162 32.185095 -15.792792 35.854180 1.555910 2.026922 0.039271 -0.013352 178871.000000 0 0 1
1.228062 31.089995 -15.262892 34.656195 1.531317 2.026850 0.052100 -0.010623 785363.000000 0 0 1
2.290162 31.441795 -14.188092 34.570700 1.498087 1.993698 0.064308 -0.012627 -21224.900000 0 0 1
3.457762 32.103695 -14.565292 35.422466 1.463504 1.994553 0.069821 -0.011350 -255492.000000 0 0 1
4.244462 32.458095 -13.423792 35.379961 1.440767 1.959963 0.083338 -0.016591 -151079.000000 0 0 1
5.663262 32.759195 -13.917392 36.040689 1.399613 1.967259 0.090192 -0.021402 -327795.000000 0 0 1
6.513562 31.668995 -14.150392 35.292851 1.367949 1.983341 0.085869 -0.012774 -321358.000000 0 0 1
7.690462 32.035695 -14.842992 36.135072 1.335195 1.994088 0.074705 -0.008007 -60972.700000 0 0 1
8.640862 30.857795 -15.006592 35.384543 1.297767 2.008764 0.064217 -0.010065 -103549.000000 0 0 1
9.291962 30.458995 -13.803192 34.707623 1.274700 1.979804 0.057956 -0.018043 -66416.000000 0 0 1
10.133162 29.311795 -13.872592 33.975155 1.237955 1.991405 0.053162 -0.019094 15775.300000 0 0 1
9.447562 27.951395 -14.039592 32.674869 1.244852 2.014930 0.069487 -0.023013 -423431.000000 0 0 1
8.846662 27.645795 -15.262192 32.794633 1.261093 2.054868 0.076246 -0.024794 10656.800000 0 0 1
8.257062 26.341395 -15.099192 31.464802 1.267034 2.071309 0.068482 -0.017731 125916.000000 0 0 1
7.565162 25.719295 -16.330092 31.390855 1.284721 2.117903 0.065167 -0.015103 247381.000000 0 0 1
8.477362 24.977195 -17.102292 31.435877 1.243592 2.146038 0.074831 -0.009605 -433127.000000 0 0 1
7.808562 24.104695 -17.954292 31.054252 1.257520 2.187267 0.060950 -0.008441 -265154.000000 0 0 1
8.675362 23.117095 -18.777092 31.020013 1.211781 2.220967 0.062589 0.000147 -319835.000000 0 0 1
8.017762 22.164695 -19.615992 30.665052 1.223705 2.264886 0.086918 -0.014101 -820593.000000 0 0 1
8.885862 21.317395 -20.273792 30.731361 1.175861 2.291229 0.068648 -0.003272 -876276.000000 0 0 1
8.230362 20.363695 -21.214692 30.536570 1.186702 2.338842 0.068079 -0.019858 -357906.000000 0 0 1
7.704862 19.270795 -20.493392 29.166892 1.190445 2.349876 0.084096 -0.024645 -14309.700000 0 0 1
6.872562 18.387895 -21.240392 28.922328 1.213118 2.395570 0.080347 -0.026529 233281.000000 0 0 1
25.316062 -12.384405 -9.295592 29.676329 -0.454964 1.889391 0.089980 -0.006211 -233643.000000 0 0 1
25.737562 -11.686905 -8.174092 29.424847 -0.426241 1.852295 0.097766 -0.017972 550729.000000 0 0 1
24.996962 -12.106205 -7.021892 28.648129 -0.451015 1.818428 0.078454 -0.008643 -74169.100000 0 0 1
25.452362 -11.425205 -5.698792 28.475152 -0.421927 1.772289 0.063674 -0.016982 -336112.000000 0 0 1
25.401762 -10.020805 -5.542692 27.863731 -0.375750 1.771054 0.069029 -0.028318 -110599.000000 0 0 1
26.493762 -9.343005 -6.117292 28.751216 -0.339033 1.785202 0.059651 -0.031948 -791662.000000 0 0 1
26.785362 -7.888405 -5.562992 28.471555 -0.286407 1.767449 0.103268 -0.034136 -151054.000000 0 0 1
27.393462 -7.795005 -4.277792 28.800406 -0.277229 1.719880 0.125519 -0.047575 -478886.000000 0 0 1
28.761362 -8.015605 -4.330292 30.169808 -0.271797 1.714824 0.129113 -0.049728 -1033440.000000 0 0 1
29.442262 -7.993605 -2.919092 30.647441 -0.265110 1.666188 0.141840 -0.046271 -244637.000000 0 0 1
29.691762 -6.704805 -2.398892 30.533749 -0.222089 1.649443 0.154611 -0.046406 126046.000000 0 0 1
30.273062 -6.876005 -1.122292 31.064405 -0.223344 1.606932 0.181781 -0.038790 -148874.000000 0 0 1
30.663262 -5.453705 -0.596292 31.150186 -0.176017 1.589940 0.175461 -0.049184 25156.900000 0 0 1
29.552962 -4.739205 -0.071492 29.930632 -0.159009 1.573185 0.175902 -0.047997 185640.000000 0 0 1
29.849062 -3.374605 0.274708 30.040472 -0.112578 1.561652 0.167473 -0.035941 212919.000000 0 0 1
30.652362 -3.150605 1.594708 30.855092 -0.102425 1.519090 0.156955 -0.022363 320621.000000 0 0 1
29.834662 -3.534805 2.694808 30.163950 -0.117930 1.481338 0.175349 -0.029183 396052.000000 0 0 1
30.418562 -3.228105 3.906608 30.837820 -0.105727 1.443773 0.141352 -0.026358 -332674.000000 0 0 1
30.152962 -4.362105 4.895508 30.857658 -0.143669 1.411475 0.148631 -0.035220 86618.700000 0 0 1
30.874562 -5.588605 4.767708 31.736448 -0.179071 1.419997 0.132511 -0.040287 227537.000000 0 0 1
30.463962 -6.495205 5.755908 31.676034 -0.210064 1.388069 0.141462 -0.045680 72844.900000 0 0 1
31.242262 -7.837405 5.506308 32.677565 -0.245787 1.401484 0.115299 -0.042579 346661.000000 0 0 1
32.592462 -7.558405 5.830208 33.961587 -0.227878 1.398271 0.121166 -0.039188 -409779.000000 0 0 1
33.403562 -8.697605 5.608808 34.970059 -0.254724 1.409712 0.116194 -0.036884 459092.000000 0 0 1
34.896862 -8.327105 5.868208 36.353370 -0.234240 1.408666 0.115742 -0.036416 531896.000000 0 0 1
35.601362 -7.809605 4.734508 36.754081 -0.215942 1.441622 0.126689 -0.035667 348534.000000 0 0 1
36.928962 -7.394005 5.098408 38.005438 -0.197609 1.436241 0.123764 -0.030424 397941.000000 0 0 1
-36.369048 -7.277805 3.799408 37.284174 0.197501 1.468715 0.110055 -0.023457 -600999.000000 0 0 1
-36.093748 -8.536705 3.222808 37.229296 0.232247 1.484121 0.140735 -0.034340 41603.200000 0 0 1
-35.277748 -8.321505 2.104808 36.306985 0.231651 1.512791 0.148295 -0.045368 -328048.000000 0 0 1
-34.983048 -9.655405 1.399708 36.318035 0.269298 1.532246 0.147647 -0.035690 -222026.000000 0 0 1
-34.156248 -10.585105 2.051108 35.817604 0.300517 1.513500 0.129548 -0.029972 -42311.400000 0 0 1
-33.949548 -11.727405 1.246808 35.939649 0.332603 1.536098 0.130563 -0.030401 -435325.000000 0 0 1
-33.437248 -12.970905 2.040008 35.922911 0.370048 1.513977 0.102640 -0.041588 1016100.000000 0 0 1
-32.111448 -12.886005 2.580008 34.696551 0.381618 1.496368 0.098673 -0.035469 965808.000000 0 0 1
-31.083548 -13.310405 1.680008 33.855225 0.404590 1.521153 0.106711 -0.023071 329495.000000 0 0 1
-29.733148 -13.526005 2.428108 32.755284 0.426932 1.496600 0.111160 -0.025355 136928.000000 0 0 1
-29.115248 -12.340005 2.877008 31.752961 0.400882 1.480066 0.125658 -0.029737 -189408.000000 0 0 1
-27.791648 -12.644205 3.208808 30.700946 0.426974 1.466087 0.133261 -0.021362 16494.600000 0 0 1
-26.883148 -11.504305 3.821008 29.489876 0.404356 1.440861 0.133107 -0.018985 730094.000000 0 0 1
-25.543448 -11.901105 4.070408 28.472307 0.436011 1.427345 0.127632 -0.008948 280425.000000 0 0 1
-24.880848 -11.025405 4.932108 27.657582 0.417125 1.391510 0.120956 -0.007105 -52372.800000 0 0 1
-23.453348 -11.364205 5.388208 26.612731 0.451207 1.366920 0.108997 -0.000458 -145763.000000 0 0 1
-23.357648 -12.624405 6.094708 27.241527 0.495507 1.345158 0.093117 -0.002394 -365620.000000 0 0 1
-22.111548 -12.838605 6.706408 26.433430 0.526054 1.314283 0.078056 0.003235 -285315.000000 0 0 1
-21.874748 -12.303905 8.135808 26.383367 0.512367 1.257319 0.091558 -0.007734 -604176.000000 0 0 1
-21.868748 -10.882305 8.266108 25.787501 0.461741 1.244489 0.100410 -0.006078 234741.000000 0 0 1
-22.974748 -10.225705 8.867708 26.665339 0.418759 1.231784 0.112297 -0.008680 -620444.000000 0 0 1
-23.179248 -10.501605 10.339408 27.467519 0.425396 1.184864 0.114881 -0.009216 -466175.000000 0 0 1
-23.805648 -11.773305 10.633108 28.607386 0.459286 1.189966 0.092486 -0.010631 1753940.000000 0 0 1
-25.223948 -11.919105 10.387808 29.769433 0.441432 1.214354 0.087239 -0.015737 1378210.000000 0 0 1
-26.302548 -11.172505 11.240708 30.708344 0.401675 1.196038 0.082868 -0.016662 164096.000000 0 0 1
-26.512148 -11.867105 12.490008 31.618388 0.420865 1.164703 0.081653 -0.022928 -637411.000000 0 0 1
-27.709448 -11.444405 13.019308 32.684710 0.391675 1.161101 0.066551 -0.027335 -795310.000000 0 0 1
-27.992248 -12.016505 14.407708 33.697839 0.405490 1.129009 0.074171 -0.023372 -84561.100000 0 0 1
-28.067448 -13.411705 14.412508 34.283755 0.445762 1.136923 0.063511 -0.024045 254393.000000 0 0 1
-28.332948 -13.941005 15.703808 35.266374 0.457261 1.109297 0.088761 -0.031539 -538844.000000 0 0 1
-27.969648 -15.468205 15.814608 35.660460 0.505171 1.111322 0.063139 -0.017702 226870.000000 0 0 1
-28.946448 -16.424005 15.397608 36.670575 0.516098 1.137472 0.053107 -0.021625 415651.000000 0 0 1
-28.311348 -17.677105 15.517308 36.807598 0.558155 1.135610 0.046833 -0.020470 105320.000000 0 0 1
-29.232648 -18.720605 16.186708 38.301674 0.569597 1.134472 0.023484 -0.009174 -92145.300000 0 0 1
-29.383048 -18.593005 17.582008 38.963962 0.564174 1.102645 0.030918 -0.010020 -185064.000000 0 0 1
-29.713848 -19.826605 18.220808 40.099936 0.588407 1.099115 0.043415 -0.011963 -536266.000000 0 0 1
-28.619748 -20.882805 18.296608 39.874144 0.630359 1.094086 0.041952 -0.010376 -668527.000000 0 0 1
-27.522148 -20.646505 19.140408 39.371335 0.643615 1.063117 0.049521 -0.004885 -71423.500000 0 0 1
-26.782148 -21.824305 19.343908 39.595082 0.683750 1.060377 0.051936 -0.007978 -499295.000000 0 0 1
-25.435048 -21.473305 19.992408 38.829639 0.701141 1.029935 0.053910 -0.005309 -424402.000000 0 0 1
-24.495648 -21.088605 19.023308 37.505363 0.710795 1.038845 0.066007 -0.011236 1039640.000000 0 0 1
-23.160048 -21.026005 19.583808 36.905368 0.737139 1.011430 0.075012 -0.007160 852354.000000 0 0 1
-21.964648 -20.811005 18.681908 35.560615 0.758435 1.017665 0.074318 -0.022195 -379381.000000 0 0 1
-21.728148 -21.914305 17.793408 35.622388 0.789664 1.047774 0.058385 -0.021435 -193365.000000 0 0 1
-20.465548 -21.834405 17.206508 34.520194 0.817748 1.048989 0.057841 -0.020337 -361202.000000 0 0 1
-20.239448 -22.973705 16.112808 34.598395 0.848588 1.086360 0.056256 -0.014907 -828499.000000 0 0 1
-20.364248 -24.337605 16.582208 35.804905 0.874051 1.089277 0.048259 -0.026203 497804.000000 0 0 1
-19.247048 -24.981605 17.199808 35.921620 0.914336 1.071492 0.048605 -0.026109 516507.000000 0 0 1
-17.902348 -25.125225 16.424908 34.950659 0.951714 1.081567 0.050976 -0.022199 189743.000000 0 0 1
-17.343548 -23.861805 16.153708 33.632226 0.942288 1.069795 0.053514 -0.028038 -375905.000000 0 0 1
-16.057848 -24.052605 15.577408 32.848712 0.982138 1.076722 0.060084 -0.025698 30103.900000 0 0 1
-15.281048 -22.695605 15.528708 31.460160 0.978213 1.054573 0.054903 -0.027973 -371504.000000 0 0 1
-15.699548 -21.589305 14.742708 30.494611 0.942053 1.066201 0.059713 -0.024872 92809.600000 0 0 1
-16.756548 -20.821205 15.363008 30.827366 0.893146 1.049095 0.064862 -0.023776 319277.000000 0 0 1
-16.261148 -19.600405 16.157808 30.160828 0.878246 1.005434 0.067603 -0.026752 -186249.000000 0 0 1
-15.828348 -18.489105 15.391708 28.797365 0.862777 1.006900 0.064675 -0.024954 76295.400000 0 0 1
-15.664448 -17.324705 16.228708 28.441014 0.835683 0.963549 0.054255 -0.020163 -304716.000000 0 0 1
-15.182448 -16.095205 15.399008 26.957221 0.814572 0.962782 0.065692 -0.019339 -528831.000000 0 0 1
-16.111648 -15.529305 14.545408 26.689200 0.766996 0.994416 0.081063 -0.022609 -286757.000000 0 0 1
-16.163048 -16.038905 13.259008 26.349419 0.781543 1.043499 0.107296 -0.024993 223491.000000 0 0 1
-17.164848 -15.214805 12.331708 26.042145 0.725246 1.077503 0.095107 -0.022723 903276.000000 0 0 1
-18.505848 -15.545105 12.675708 27.290846 0.698666 1.087763 0.077825 -0.016550 44828.000000 0 0 1
-19.429448 -14.589505 12.240608 27.206425 0.644075 1.104125 0.106524 -0.021586 710268.000000 0 0 1
-20.968448 -14.931205 12.394208 28.569793 0.618787 1.122066 0.073681 -0.017621 1238170.000000 0 0 1
-21.493248 -16.075205 11.656908 29.261842 0.642168 1.161062 0.072603 -0.020038 143080.000000 0 0 1
-21.312248 -15.987005 10.260008 28.549326 0.643586 1.203195 0.082140 -0.013458 -670804.000000 0 0 1
-21.989448 -17.096805 9.477008 29.421934 0.660870 1.242842 0.071092 0.001819 -258579.000000 0 0 1
-21.458848 -18.346305 9.693008 29.850016 0.707362 1.240077 0.076864 0.009408 -225970.000000 0 0 1
-21.945648 -19.324405 8.765608 30.526709 0.721969 1.279551 0.079686 -0.015842 -101907.000000 0 0 1
-21.240048 -20.681505 8.904108 30.953956 0.772075 1.279017 0.085764 -0.008097 -472193.000000 0 0 1
-19.908048 -20.751705 8.515408 29.991262 0.806144 1.282906 0.114309 -0.008250 -922634.000000 0 0 1
-19.528948 -22.116805 8.495408 30.703498 0.847458 1.290446 0.106927 -0.016345 -85613.900000 0 0 1
-18.200148 -22.300905 7.738408 29.807024 0.886305 1.308171 0.100793 -0.018286 -588056.000000 0 0 1
-17.128748 -21.717805 8.382408 28.901934 0.902986 1.276539 0.073459 -0.030321 -752642.000000 0 0 1
-15.925648 -22.012805 7.692708 28.237698 0.944490 1.294882 0.094062 -0.022129 -10163.200000 0 0 1
-14.661848 -21.660605 8.539208 27.514899 0.975749 1.255237 0.038131 -0.018167 181380.000000 0 0 1
-13.573848 -21.870405 7.643308 26.851147 1.015332 1.282150 0.062218 -0.014373 873963.000000 0 0 1
-12.308648 -21.496905 8.266408 26.114234 1.050784 1.248708 0.056889 -0.015865 1168640.000000 0 0 1
-11.079648 -22.106805 7.593008 25.867415 1.106199 1.272873 0.055259 -0.012908 -74957.300000 0 0 1
-11.074548 -23.479605 7.609708 27.052636 1.130071 1.285655 0.053548 -0.010019 980340.000000 0 0 1
-9.723548 -23.942805 7.336808 26.863247 1.185029 1.294165 0.077669 -0.015670 1391060.000000 0 0 1
-9.684248 -25.489305 7.213408 28.205009 1.207707 1.312174 0.067697 -0.012815 7690.740000 0 0 1
-10.427748 -26.055405 6.150908 28.730745 1.190105 1.355038 0.073158 -0.018781 -55857.900000 0 0 1
-10.402548 -27.455105 6.231508 30.013788 1.208617 1.361653 0.095589 -0.017499 -196694.000000 0 0 1
-9.328548 -28.147365 5.382908 30.137545 1.250770 1.391221 0.111365 -0.026376 -337168.000000 0 0 1
-8.005748 -27.909395 5.798808 29.608318 1.291449 1.373672 0.108442 -0.026036 -76667.700000 0 0 1
-6.966748 -28.796015 5.444808 30.122948 1.333423 1.389045 0.108944 -0.017291 358555.000000 0 0 1
-7.067748 -30.209665 6.013308 31.602797 1.340973 1.379351 0.122819 -0.027261 -616530.000000 0 0 1
-6.895748 -30.250695 7.380208 31.892371 1.346673 1.337270 0.111448 -0.008394 181613.000000 0 0 1
-6.882748 -31.517515 7.952808 33.226091 1.355793 1.329096 0.138034 -0.018852 -106355.000000 0 0 1
-7.185748 -31.669695 9.493708 33.833933 1.347677 1.286380 0.112619 -0.011305 723515.000000 0 0 1
-6.138748 -31.099285 10.343208 33.344140 1.375910 1.255397 0.089361 0.000547 1095820.000000 0 0 1
-6.299748 -31.266885 11.727508 33.982927 1.371975 1.218451 0.065530 0.004980 371012.000000 0 0 1
-5.301748 -30.355585 12.553908 33.274174 1.397886 1.183931 0.062771 0.002555 577621.000000 0 0 1
-5.841748 -29.027275 12.643708 32.195839 1.372199 1.167217 0.063710 0.004746 -218473.000000 0 0 1
-5.147748 -28.107785 13.383008 31.553950 1.389661 1.132794 0.059011 -0.007281 -658111.000000 0 0 1
-5.892748 -27.609985 14.628708 31.796774 1.360523 1.092723 0.065135 -0.013346 -360476.000000 0 0 1
-6.088748 -28.506445 15.726508 33.121191 1.360366 1.076040 0.069377 -0.011579 -150569.000000 0 0 1
-4.986748 -29.116585 16.338108 33.757620 1.401174 1.065596 0.062158 -0.012895 -173552.000000 0 0 1
-5.443748 -30.520725 16.876308 35.298141 1.394290 1.072298 0.056073 -0.010734 238904.000000 0 0 1
-5.575748 -31.495675 15.911808 35.724671 1.395580 1.109174 0.047802 -0.000688 517680.000000 0 0 1
-6.397748 -32.587055 16.398508 37.037256 1.376934 1.112125 0.046812 -0.006841 188520.000000 0 0 1
-6.241748 -33.947035 15.697408 37.917927 1.388960 1.143970 0.034660 -0.002820 -12690.700000 0 0 1
-6.704748 33.952664 14.352408 37.466367 -1.375831 1.177674 0.037210 -0.005410 74507.400000 0 0 1
-6.171748 32.733029 13.868808 36.081650 -1.384436 1.176268 0.027333 -0.010296 604931.000000 0 0 1
-4.871748 32.781213 12.973108 35.589934 -1.423262 1.197683 0.060662 -0.019911 638513.000000 0 0 1
-5.072748 33.169982 11.607608 35.506577 -1.419040 1.237760 0.061078 -0.021682 550603.000000 0 0 1
-3.869748 33.416868 10.864608 35.351120 -1.455508 1.258406 0.081295 -0.028409 -352119.000000 0 0 1
-4.207748 33.837173 9.421308 35.375422 -1.447079 1.301220 0.085124 -0.028198 -170787.000000 0 0 1
-4.694748 32.836869 8.512608 34.245658 -1.428787 1.319588 0.084598 -0.051096 1024720.000000 0 0 1
-5.842748 32.029857 8.834908 33.735812 -1.390365 1.305821 0.101715 -0.043750 316746.000000 0 0 1
-7.222748 32.616756 9.114508 34.627953 -1.352870 1.304446 0.106407 -0.035618 -412740.000000 0 0 1
-7.815748 33.203808 7.989108 35.034335 -1.339618 1.340736 0.123980 -0.035180 -73797.200000 0 0 1
-9.192848 33.500417 8.203208 35.694243 -1.302979 1.338905 0.100139 -0.032135 359957.000000 0 0 1
-9.974148 33.691581 6.905408 35.809090 -1.282974 1.376741 0.118956 -0.035790 -157673.000000 0 0 1
-9.707248 -33.167165 6.334908 35.134350 1.286072 1.389500 0.145318 -0.035656 -11968.600000 0 0 1
-10.403648 -33.076295 5.117108 35.049422 1.266059 1.424276 0.132980 -0.036339 339938.000000 0 0 1
-11.010948 -31.621745 4.788808 33.824671 1.235719 1.428742 0.119582 -0.035570 477468.000000 0 0 1
-12.023948 -31.219225 5.671808 33.932060 1.203161 1.402856 0.129295 -0.040027 -125551.000000 0 0 1
-12.770648 -30.091735 5.288308 33.114470 1.169442 1.410412 0.120268 -0.035915 -325505.000000 0 0 1
-13.719148 -29.514215 6.319008 33.154694 1.135677 1.379032 0.104077 -0.031573 -204610.000000 0 0 1
-14.847248 -30.347835 6.579708 34.419826 1.115797 1.378452 0.118169 -0.025608 813137.000000 0 0 1
-15.783048 -29.573655 7.379808 34.324440 1.080564 1.354103 0.109349 -0.027112 544336.000000 0 0 1
33.833022 -12.613205 -12.528492 38.219491 -0.356847 1.904774 0.057312 -0.031454 35754.700000 0 0 1
33.095472 -12.803505 -11.325792 37.249344 -0.369133 1.879741 0.086466 -0.036377 393447.000000 0 0 1
32.807152 -14.175105 -11.097892 37.422000 -0.407847 1.871886 0.085823 -0.033440 -127932.000000 0 0 1
33.907132 -14.723105 -10.197392 38.346450 -0.409653 1.839963 0.062629 -0.028017 -507613.000000 0 0 1
35.156202 -14.929605 -10.767492 39.683631 -0.401587 1.845574 0.072540 -0.036558 -1221870.000000 0 0 1
36.058532 -15.374605 -9.827892 40.412668 -0.403038 1.816448 0.052079 -0.032584 -1611890.000000 0 0 1
-36.577208 -15.251605 -10.315992 40.950254 0.395050 1.825455 0.020332 -0.036469 -1236180.000000 0 0 1
-36.016292 -13.941405 -10.467692 40.013855 0.369324 1.835478 0.026913 -0.027006 -684009.000000 0 0 1
-34.720319 -14.041605 -10.957292 39.022166 0.384311 1.855420 0.047592 -0.032666 -557777.000000 0 0 1
-34.048488 -12.664705 -11.171492 38.006532 0.356104 1.869139 0.064136 -0.040807 -392292.000000 0 0 1
-33.590278 -12.089205 -9.968692 37.065219 0.345469 1.843099 0.087497 -0.038606 305879.000000 0 0 1
-33.186418 -10.713905 -10.110692 36.309120 0.312277 1.852988 0.099359 -0.040219 -158933.000000 0 0 1
-33.804338 -9.729205 -9.099992 36.334564 0.280236 1.823941 0.103355 -0.047935 833225.000000 0 0 1
-32.967608 -9.605905 -7.883392 35.231867 0.283524 1.796464 0.125606 -0.040300 1305400.000000 0 0 1
-33.600348 -8.709605 -6.964692 35.402649 0.253630 1.768816 0.151551 -0.046098 -159716.000000 0 0 1
-32.856078 -8.672105 -5.641592 34.446405 0.258057 1.735316 0.141142 -0.033685 -223379.000000 0 0 1
-31.587928 -8.001805 -5.734592 33.086426 0.248099 1.744998 0.140052 -0.045171 784187.000000 0 0 1
-30.855728 -7.991905 -4.531792 32.194466 0.253439 1.712028 0.142863 -0.039547 -530934.000000 0 0 1
-30.231998 -9.322405 -4.100092 31.901280 0.299111 1.699677 0.146796 -0.037310 -968082.000000 0 0 1
-31.094598 -10.318105 -3.580992 32.956954 0.320396 1.679668 0.153687 -0.037385 221610.000000 0 0 1
-31.820848 -9.976705 -2.417092 33.435659 0.303821 1.643150 0.134647 -0.037985 -277734.000000 0 0 1
-32.621438 -11.148305 -1.840092 34.522874 0.329304 1.624122 0.124851 -0.030433 -592969.000000 0 0 1
-33.677878 -11.566505 -2.639792 35.706470 0.330823 1.644794 0.128425 -0.041650 -276513.000000 0 0 1
-34.017958 -12.908105 -2.275992 36.455737 0.362666 1.633269 0.114905 -0.045049 -1056500.000000 0 0 1
-35.486060 -13.267105 -2.237692 37.951071 0.357778 1.629793 0.084860 -0.029149 -876256.000000 0 0 1
-36.153138 -12.570405 -1.171792 38.294093 0.334623 1.601401 0.108641 -0.033332 -620088.000000 0 0 1
36.642952 -13.141405 -1.010492 38.941284 -0.344346 1.596748 0.149700 -0.035435 -363849.000000 0 0 1
35.608782 -12.282705 -0.173492 37.668028 -0.332155 1.575402 0.150176 -0.036933 503004.000000 0 0 1
35.992212 -12.260405 1.194308 38.041862 -0.328313 1.539397 0.161508 -0.037250 123317.000000 0 0 1
35.490582 -11.157805 1.893408 37.251350 -0.304604 1.519947 0.161618 -0.037930 -224747.000000 0 0 1
35.749022 -11.100305 3.427608 37.589332 -0.301068 1.479484 0.152069 -0.044927 -114705.000000 0 0 1
34.946252 -11.969105 4.156708 37.172278 -0.329978 1.458739 0.142347 -0.050148 -101620.000000 0 0 1
35.616892 -12.315805 5.368108 38.066503 -0.332915 1.429306 0.136030 -0.046598 170249.000000 0 0 1
34.666622 -12.553405 6.564608 37.449389 -0.347429 1.394593 0.123368 -0.036139 16088.600000 0 0 1
34.162232 -11.327705 7.010808 36.667785 -0.320177 1.378414 0.119633 -0.035535 -121655.000000 0 0 1
33.375992 -11.566905 8.169808 36.255978 -0.333610 1.343508 0.095516 -0.019489 -351577.000000 0 0 1
32.653932 -10.402605 8.818108 35.387180 -0.308406 1.318953 0.094518 -0.028690 -578351.000000 0 0 1
31.429232 -10.079505 8.202908 34.010010 -0.310342 1.327203 0.112540 -0.030604 68344.800000 0 0 1
30.774712 -9.094805 9.073508 33.348567 -0.287349 1.295241 0.121526 -0.020697 447372.000000 0 0 1
29.225432 -9.168705 9.052508 31.939614 -0.303999 1.283432 0.136103 -0.028401 388914.000000 0 0 1
28.628072 -8.832005 7.796308 30.957281 -0.299244 1.316214 0.152181 -0.029338 659890.000000 0 0 1
27.475172 -9.609005 7.443508 30.043699 -0.336438 1.320433 0.180825 -0.040187 689723.000000 0 0 1
26.606572 -9.007905 6.268908 28.781092 -0.326447 1.351223 0.183361 -0.045554 284267.000000 0 0 1
25.812972 -7.930405 6.763508 27.837850 -0.298072 1.325379 0.180258 -0.041579 282489.000000 0 0 1
24.736572 -7.593905 5.922308 26.545040 -0.297858 1.345799 0.177279 -0.035026 -107109.000000 0 0 1
25.014572 -6.316905 5.046608 26.288788 -0.247357 1.377629 0.165375 -0.037151 -247720.000000 0 0 1
25.874072 -6.538105 3.951008 26.978230 -0.247508 1.423816 0.159280 -0.037825 275945.000000 0 0 1
26.097472 -5.310305 3.283108 26.833863 -0.200739 1.448140 0.161275 -0.034906 403739.000000 0 0 1
26.812072 -5.380205 1.873308 27.410639 -0.198033 1.502401 0.171921 -0.042773 290013.000000 0 0 1
25.912072 -5.759605 0.860808 26.558417 -0.218719 1.538379 0.167929 -0.044168 -202729.000000 0 0 1
26.487872 -5.602805 -0.432392 27.077403 -0.208451 1.586766 0.169683 -0.046880 -515525.000000 0 0 1
25.648772 -5.746505 -1.708392 26.340092 -0.220406 1.635701 0.156436 -0.039792 -518196.000000 0 0 1
24.775572 -4.655805 -1.864592 25.278097 -0.185753 1.644627 0.166714 -0.040801 -145229.000000 0 0 1
24.116872 -4.795405 -3.105592 24.784353 -0.196280 1.696431 0.147850 -0.035109 -852223.000000 0 1 0
22.864672 -3.950305 -3.209192 23.424284 -0.171080 1.708231 0.119105 -0.033448 -808441.000000 0 1 0
23.036672 -2.551305 -3.132192 23.388203 -0.110300 1.705122 0.118665 -0.036072 264832.000000 0 1 0
23.336772 -1.876705 -4.374292 23.817250 -0.080246 1.755506 0.123068 -0.031524 76245.000000 0 1 0
22.179272 -1.013605 -4.981092 22.754314 -0.045669 1.791491 0.094600 -0.029565 275726.000000 0 1 0
21.857572 0.123495 -4.272792 22.271629 0.005650 1.763842 0.079026 -0.026364 717634.000000 0 1 0
21.081272 1.037495 -5.094992 21.713024 0.049174 1.807656 0.093863 -0.018495 -497991.000000 0 1 0
21.046772 2.532495 -4.705992 21.714662 0.119751 1.789249 0.102104 -0.010684 -426845.000000 0 1 0
22.299772 3.169795 -4.868892 23.044166 0.141199 1.783686 0.138400 -0.013460 865728.000000 0 1 0
23.170772 3.018895 -3.727792 23.662098 0.129559 1.728998 0.160684 -0.011376 -718038.000000 0 1 0
24.434772 3.830695 -3.756992 25.016941 0.155507 1.721545 0.164668 -0.017596 -970080.000000 0 0 1
24.225972 5.196095 -3.820292 25.069738 0.211283 1.723779 0.166023 -0.004578 202486.000000 0 0 1
25.195372 5.875995 -3.085992 26.054893 0.229122 1.689517 0.157746 -0.014169 -337614.000000 0 0 1
24.890272 7.367295 -3.112592 26.143660 0.287775 1.690137 0.146156 -0.017898 -59244.000000 0 0 1
23.720472 7.697595 -2.402192 25.053629 0.313791 1.666826 0.157782 -0.022986 427533.000000 0 0 1
23.161272 8.944095 -2.794892 24.985052 0.368524 1.682894 0.151798 -0.021127 367511.000000 0 1 0
21.865572 9.310195 -1.986992 23.848085 0.402542 1.654212 0.111261 -0.021458 200258.000000 0 1 0
22.126772 9.509795 -0.629192 24.092035 0.405918 1.596915 0.085670 -0.018931 1064430.000000 0 1 0
20.980172 9.880395 0.169408 23.190915 0.440130 1.563491 0.054997 -0.018822 302980.000000 0 1 0
21.383472 10.126595 1.644108 23.717165 0.442282 1.501419 0.068998 -0.029699 -1785.440000 0 1 0
22.363272 11.121795 1.953308 25.052459 0.461505 1.492748 0.093019 -0.032677 736453.000000 0 0 1
22.013272 12.448295 1.694308 25.345905 0.514658 1.503899 0.095744 -0.028034 -116706.000000 0 0 1
20.953272 13.175695 2.600308 24.887752 0.561337 1.466124 0.083362 -0.014471 988357.000000 0 1 0
19.640072 12.548495 2.527708 23.443261 0.568549 1.462764 0.109920 -0.024247 1338130.000000 0 1 0
18.710872 13.370295 3.238808 23.223941 0.620440 1.430880 0.093149 -0.017805 -61809.400000 0 1 0
18.688372 13.170995 4.782508 23.358141 0.613920 1.364591 0.084109 -0.017750 -515046.000000 0 1 0
18.027972 12.029895 5.263608 22.303178 0.588434 1.332546 0.046327 -0.009122 444201.000000 0 1 0
18.326172 11.999595 6.635808 22.888268 0.579728 1.276651 0.058128 -0.014481 33887.800000 0 1 0
18.345972 10.586695 7.296708 22.403008 0.523380 1.239042 0.038043 -0.018029 -225467.000000 0 1 0
19.155372 9.660995 6.614008 22.450127 0.467121 1.271750 0.011219 -0.027278 324836.000000 0 1 0
19.425872 8.476495 7.268608 22.406431 0.411445 1.240421 0.032213 -0.023001 598615.000000 0 1 0
20.507272 7.635895 6.447308 22.812779 0.356446 1.284274 0.055145 -0.021418 661708.000000 0 1 0
19.872172 7.152595 5.305108 21.776295 0.345494 1.324701 0.029009 -0.022970 368717.000000 0 1 0
20.740572 6.374695 4.536908 22.167355 0.298190 1.364674 0.045859 -0.029898 -428894.000000 0 1 0
20.538172 6.572695 3.005908 21.772743 0.309724 1.432296 0.060805 -0.018157 -342363.000000 0 1 0
21.535672 5.930095 2.262408 22.451497 0.268702 1.469856 0.067893 -0.019405 421158.000000 0 1 0
21.395872 6.219695 0.871908 22.298614 0.282899 1.531685 0.080091 -0.006935 360237.000000 0 1 0
22.483972 5.425495 0.101608 23.129534 0.236779 1.566403 0.123670 -0.009281 297446.000000 0 1 0
22.116972 4.071395 0.218008 22.489648 0.182047 1.561102 0.097864 -0.013606 700151.000000 0 1 0
23.194572 3.215595 -0.085992 23.416568 0.137758 1.574469 0.114219 -0.023576 -123610.000000 0 1 0
22.830472 1.734795 0.191408 22.897088 0.075840 1.562437 0.123992 -0.024236 -750575.000000 0 1 0
21.896172 1.162795 -0.637092 21.936279 0.053055 1.599843 0.074865 -0.022361 -41458.200000 0 1 0
22.152972 -0.159205 -1.118692 22.181772 -0.007186 1.621251 0.101783 -0.028987 -2039590.000000 0 1 0
22.160472 -1.335905 -0.033892 22.200728 -0.060210 1.572323 0.126158 -0.023029 702674.000000 0 1 0
23.336672 -1.474705 0.778408 23.396174 -0.063109 1.537519 0.146617 -0.017615 580058.000000 0 1 0
24.543772 -1.801205 0.142608 24.610190 -0.073256 1.565002 0.157689 -0.032217 -801959.000000 0 1 0
25.641772 -1.918205 1.201908 25.741495 -0.074669 1.524088 0.166713 -0.027648 -444280.000000 0 0 1
25.779872 -0.716405 1.907308 25.860257 -0.027782 1.496975 0.150340 -0.021932 1169500.000000 0 0 1
26.952972 -0.856905 2.745708 27.106013 -0.031782 1.469327 0.149880 -0.019344 703931.000000 0 0 1
27.047872 0.399795 3.664108 27.297856 0.014780 1.436163 0.166560 -0.013267 175972.000000 0 0 1
27.194672 1.682195 3.092708 27.421613 0.061779 1.457772 0.162403 -0.012564 -420315.000000 0 0 1
28.387272 1.854495 2.396508 28.548549 0.065236 1.486752 0.148760 -0.019183 -928944.000000 0 0 1
28.428272 3.126495 1.480708 28.637984 0.109538 1.519069 0.162284 -0.034187 -393009.000000 0 0 1
27.627772 3.147795 0.319308 27.808351 0.113447 1.559314 0.166056 -0.027203 120448.000000 0 0 1
27.895672 4.200595 -0.569092 28.215907 0.149459 1.590967 0.162261 -0.027076 -130281.000000 0 0 1
29.226672 4.125995 -1.342592 29.546993 0.140245 1.616251 0.162651 -0.029776 -143869.000000 0 0 1
30.398422 4.318195 -0.587492 30.709218 0.141109 1.589928 0.144766 -0.029729 -279061.000000 0 0 1
31.559672 3.871095 -1.240992 31.820408 0.122050 1.609806 0.121966 -0.031446 346264.000000 0 0 1
32.856422 4.236495 -0.440492 33.131351 0.128232 1.584092 0.090954 -0.030051 223407.000000 0 0 1
33.059442 3.464195 0.743008 33.248751 0.104406 1.548448 0.108874 -0.035957 -503399.000000 0 0 1
32.292702 3.816895 1.789608 32.566701 0.117651 1.515817 0.099209 -0.018123 -924721.000000 0 0 1
32.318372 2.794195 2.969908 32.574608 0.086244 1.479497 0.118555 -0.014787 140321.000000 0 0 1
31.511472 1.592295 2.765308 31.672626 0.050488 1.483376 0.115329 -0.024664 411711.000000 0 0 1
31.683972 0.647095 3.802408 31.917881 0.020421 1.451382 0.110177 -0.025627 624017.000000 0 0 1
33.066532 -0.087405 3.788208 33.282934 -0.002643 1.456731 0.124895 -0.017702 840747.000000 0 0 1
34.274492 0.632495 3.985708 34.511255 0.018452 1.455048 0.118174 -0.025360 807040.000000 0 0 1
35.381052 -0.240405 3.653708 35.570019 -0.006795 1.467896 0.108814 -0.020731 466530.000000 0 0 1
36.736682 0.280595 4.231008 36.980589 0.007638 1.456134 0.127434 -0.038531 442686.000000 0 0 1
-36.739618 1.430895 3.613408 36.944603 -0.038927 1.472834 0.124469 -0.041907 113707.000000 0 0 1
-36.141318 1.144795 2.359308 36.236332 -0.031665 1.505641 0.156054 -0.036932 -282431.000000 0 0 1
-35.449595 2.421095 1.739608 35.574734 -0.068191 1.521877 0.173842 -0.034641 -1009470.000000 0 0 1
-34.300951 2.824795 2.352508 34.497377 -0.082168 1.502550 0.186781 -0.062362 -639593.000000 0 0 1
-33.542638 3.556395 1.365408 33.758271 -0.105631 1.530339 0.203048 -0.031601 4375.980000 0 0 1
-32.431598 4.374695 2.031708 32.788326 -0.134081 1.508792 0.215345 -0.039771 -704903.000000 0 0 1
-31.524318 3.683195 2.824008 31.864142 -0.116309 1.482053 0.204186 -0.053335 -226314.000000 0 0 1
-30.799138 4.517295 3.679608 31.345372 -0.145631 1.453136 0.207333 -0.048955 -540926.000000 0 0 1
-31.172038 4.507295 5.179908 31.919322 -0.143599 1.407794 0.212201 -0.041393 -908971.000000 0 0 1
-32.438958 5.031495 5.463208 33.278350 -0.153880 1.405883 0.195855 -0.027971 -368212.000000 0 0 1
-33.443918 4.083995 5.686408 34.168844 -0.121513 1.403598 0.185461 -0.026410 -402252.000000 0 0 1
-33.352658 3.186095 6.929008 34.213479 -0.095238 1.366863 0.156665 -0.027506 -1435130.000000 0 0 1
-33.514608 3.925095 8.148108 34.713498 -0.116585 1.333861 0.149430 -0.033683 496683.000000 0 0 1
-33.953698 3.151995 9.251408 35.332382 -0.092567 1.305869 0.125082 -0.025580 53027.000000 0 0 1
-35.263959 2.318495 9.194908 36.516688 -0.065652 1.316256 0.110124 -0.017456 -527385.000000 0 0 1
-35.165288 1.226095 8.334308 36.160220 -0.034853 1.338223 0.110273 -0.025031 155558.000000 0 0 1
-36.260068 0.327095 8.316308 37.202963 -0.009021 1.345353 0.109116 -0.019081 -275508.000000 0 0 1
-36.346528 -0.660205 9.495008 37.572079 0.018162 1.315312 0.095448 -0.011522 -465915.000000 0 0 1
-35.209592 -1.476605 9.618808 36.529675 0.041913 1.304340 0.105702 -0.022190 16444.800000 0 0 1
-35.349463 -2.347705 10.719108 37.013450 0.066317 1.276987 0.100152 -0.020023 603418.000000 0 0 1
-34.096830 -3.288505 10.826408 35.925189 0.096149 1.264678 0.078124 -0.011725 539800.000000 0 0 1
-33.902688 -4.281805 9.798608 35.549104 0.125632 1.291545 0.088777 -0.016403 -173930.000000 0 0 1
-32.656058 -4.901005 10.014408 34.506902 0.148968 1.276345 0.094051 -0.013225 25451.600000 0 0 1
-32.217528 -5.967205 8.912608 33.956019 0.183141 1.305210 0.074847 -0.012613 110890.000000 0 0 1
-32.841178 -7.188605 9.157508 34.843636 0.215491 1.304855 0.069049 -0.012905 -131584.000000 0 0 1
-32.890038 -8.012005 7.953208 34.773558 0.238946 1.340040 0.086368 -0.021226 95052.200000 0 0 1
-33.975578 -9.124005 8.048208 36.088239 0.262356 1.345890 0.089598 -0.025012 -766363.000000 0 0 1
-35.233579 -8.590405 7.917608 37.119922 0.239147 1.355847 0.091531 -0.032957 -1122670.000000 0 0 1
-36.184378 -9.642505 7.949208 38.281549 0.260430 1.361623 0.102186 -0.033026 23425.500000 0 0 1
7.959362 -23.724705 10.684008 27.209577 -1.247108 1.167278 0.114873 -0.026756 203135.000000 0 0 1
7.327262 -24.248905 9.507108 27.057037 -1.277351 1.211759 0.110341 -0.029202 -121769.000000 0 0 1
6.032062 -24.712805 9.806708 27.263162 -1.331391 1.202844 0.101849 -0.028453 241861.000000 0 0 1
5.459462 -25.773965 8.830608 27.786375 -1.362061 1.247384 0.087915 -0.018122 -255221.000000 0 0 1
5.037862 -25.330045 7.550208 26.907190 -1.374469 1.286375 0.085887 -0.017575 -225730.000000 0 0 1
4.963062 -26.422895 6.661708 27.698009 -1.385128 1.327903 0.076074 -0.019595 -580166.000000 0 0 1
4.327062 -26.033335 5.305308 26.918474 -1.406090 1.372410 0.055449 -0.015941 461626.000000 0 0 1
2.944062 -25.706845 5.311408 26.414398 -1.456769 1.368336 0.042628 -0.022454 450245.000000 0 0 1
2.084462 -26.800545 4.998408 27.342243 -1.493176 1.386953 0.038784 -0.025382 -404611.000000 0 0 1
0.598362 -26.551605 4.776008 26.984366 -1.548264 1.392867 0.056424 -0.028228 23515.400000 0 0 1
-0.072738 -26.141065 6.043408 26.830642 1.568014 1.343604 0.056074 -0.025751 962783.000000 0 0 1
-1.485738 -26.358675 6.147608 27.106830 1.514490 1.342014 0.056307 -0.025439 859641.000000 0 0 1
-2.052738 -27.778665 6.255008 28.548083 1.497034 1.349900 0.063521 -0.016359 -445353.000000 0 0 1
-1.648638 -28.474525 7.416308 29.470632 1.512962 1.316411 0.058890 -0.021412 181765.000000 0 0 1
-2.522238 -29.539575 7.776308 30.649945 1.485618 1.314279 0.081682 -0.016872 82522.700000 0 0 1
-2.287138 -30.180225 9.156708 31.621547 1.495158 1.277017 0.074235 -0.013022 235136.000000 0 0 1
-1.000238 -30.757085 9.293608 32.146071 1.538287 1.277504 0.072965 -0.014311 98041.700000 0 0 1
-0.843938 -31.203475 10.595208 32.964033 1.543757 1.243571 0.066550 -0.003723 71508.800000 0 0 1
0.616862 -31.397375 11.049908 33.290781 -1.551152 1.232457 0.063992 -0.014589 -211573.000000 0 0 1
1.219962 -32.633145 10.752108 34.380492 -1.533430 1.252721 0.072352 -0.017819 -231219.000000 0 0 1
2.587062 -32.645135 11.080708 34.571372 -1.491714 1.244521 0.081804 -0.013093 -148510.000000 0 0 1
2.968062 -33.207505 12.428708 35.581182 -1.481654 1.213966 0.082950 -0.015625 -364660.000000 0 0 1
2.602762 -32.404225 13.559608 35.223161 -1.490647 1.175629 0.066434 -0.016258 635941.000000 0 0 1
3.333362 -32.818675 14.747108 36.133833 -1.469574 1.150397 0.071938 -0.015341 41207.800000 0 0 1
3.120362 -31.809685 15.898708 35.698202 -1.473014 1.109215 0.069167 -0.011293 -27135.000000 0 0 1
3.564262 -30.478885 15.711108 34.474705 -1.454383 1.097606 0.067376 -0.011517 879587.000000 0 0 1
4.991462 -30.386795 15.862108 34.639262 -1.407986 1.095139 0.064458 -0.006185 540533.000000 0 0 1
5.609562 -29.228255 15.035108 33.343853 -1.381179 1.103011 0.076412 -0.014109 -311652.000000 0 0 1
5.773662 -29.337485 13.636708 32.863094 -1.376478 1.142903 0.074974 -0.014306 209700.000000 0 0 1
4.597162 -29.263735 12.828308 32.281040 -1.414976 1.162121 0.065165 -0.008676 -60730.700000 0 0 1
4.907962 -29.323155 11.276708 31.797793 -1.404959 1.208269 0.062821 -0.016857 56614.900000 0 0 1
5.328062 -30.611555 10.851308 32.912101 -1.398469 1.234804 0.070290 -0.013985 1006570.000000 0 0 1
6.760262 -30.746895 10.987508 33.343635 -1.354372 1.234998 0.076058 -0.013960 621337.000000 0 0 1
7.167462 -32.220585 10.724508 34.706680 -1.351911 1.256651 0.074681 -0.009023 -343230.000000 0 0 1
6.768562 -33.173725 11.680508 35.815411 -1.369525 1.238589 0.063172 -0.017355 163461.000000 0 0 1
7.227962 33.594433 11.406408 36.206843 1.358873 1.250303 0.081169 -0.018790 30004.200000 0 0 1
6.631362 32.503955 12.360808 35.401576 1.369541 1.214122 0.081868 -0.017856 1566070.000000 0 0 1
5.206862 32.270523 12.141608 34.869997 1.410825 1.215150 0.090394 -0.019166 1405050.000000 0 0 1
4.779562 31.044877 12.596408 33.842253 1.418039 1.189408 0.107854 -0.018803 -209156.000000 0 0 1
3.675762 31.086727 13.650808 34.150262 1.453101 1.159576 0.106718 -0.028459 -209495.000000 0 0 1
4.149262 31.256577 14.946108 34.893783 1.438820 1.128151 0.104635 -0.020936 -41955.500000 0 0 1
3.068162 31.392297 15.840508 35.296057 1.473370 1.105386 0.103078 -0.022622 -16943.600000 0 0 1
3.432462 31.709957 17.282208 36.276409 1.462971 1.074237 0.096132 -0.023889 -277720.000000 0 0 1
3.917262 32.981672 17.560908 37.570216 1.452579 1.084431 0.091332 -0.017416 118000.000000 0 0 1
4.200062 33.096835 18.910708 38.349132 1.444569 1.055124 0.078599 -0.014105 -103757.000000 0 0 1
4.709962 -33.586365 19.433208 39.088070 -1.431471 1.050468 0.062418 -0.012543 47526.500000 0 0 1
3.664462 -32.635305 19.510308 38.198737 -1.458979 1.034730 0.058768 -0.017727 -15664.200000 0 0 1
3.887662 -31.562725 20.419808 37.792698 -1.448241 0.999990 0.052929 -0.019060 535945.000000 0 0 1
2.511462 -30.973575 20.880008 37.438543 -1.489889 0.979167 0.065830 -0.023979 231363.000000 0 0 1
1.714362 -31.848135 21.590908 38.515062 -1.517019 0.975706 0.069850 -0.019109 -795444.000000 0 0 1
0.774862 -31.120875 22.309008 38.298839 -1.545903 0.948997 0.078473 -0.022282 -669531.000000 0 0 1
-0.384638 -31.935015 22.912508 39.306184 1.558753 0.948474 0.070099 -0.017798 -824295.000000 0 0 1
-1.246638 -32.307975 21.868608 39.033259 1.532229 0.976102 0.061762 -0.019043 325532.000000 0 0 1
-2.106738 -33.465435 22.160308 40.192697 1.507927 0.986813 0.060785 -0.017547 939340.000000 0 0 1
-3.400238 -33.065445 22.915908 40.373557 1.468323 0.967212 0.078792 -0.014663 -317684.000000 0 0 1
-4.435638 -32.502295 22.158908 39.586503 1.435163 0.976701 0.076742 -0.018217 159103.000000 0 0 1
-5.600138 -32.337775 22.970508 40.059174 1.399321 0.960129 0.077475 -0.019281 -131981.000000 0 0 1
-6.895338 -31.799665 22.416308 39.512722 1.357265 0.967550 0.075827 -0.019685 -479404.000000 0 0 1
-7.615938 -32.822765 21.731208 40.094660 1.342799 0.997984 0.055819 -0.010450 -438165.000000 0 0 1
-8.852738 -32.286685 21.356308 39.710110 1.303182 1.002965 0.062076 -0.014631 -174201.000000 0 0 1
-9.807738 -33.302305 20.672508 40.405294 1.284387 1.033717 0.074560 -0.020481 118947.000000 0 0 1
-10.448938 33.929106 21.566408 41.538831 -1.272049 1.024897 0.094346 -0.037476 -147762.000000 0 0 1
-11.784938 33.579918 21.225308 41.436811 -1.233274 1.033013 0.086221 -0.034816 580074.000000 0 0 1
-12.468138 32.929897 22.457308 41.763180 -1.208850 1.003054 0.088776 -0.040374 -483077.000000 0 0 1
-12.781338 33.730712 23.558408 43.082735 -1.208591 0.992238 0.089693 -0.038966 369663.000000 0 0 1
-11.607438 -33.943865 24.267008 43.310579 1.241302 0.976046 0.086922 -0.039410 372511.000000 0 0 1
-11.575838 -32.508295 24.902408 42.554896 1.228708 0.945690 0.075217 -0.027935 -672828.000000 0 0 1
-12.374038 -32.395535 26.022008 43.355880 1.205931 0.927051 0.088815 -0.026911 -260448.000000 0 0 1
-12.770638 -31.031075 26.087108 42.503576 1.180378 0.909979 0.087930 -0.016410 -96127.700000 0 0 1
-13.558738 -30.753035 27.385708 43.353956 1.155543 0.887081 0.098081 -0.014196 194823.000000 0 0 1
-12.802838 -30.758365 28.596008 43.905823 1.176369 0.861496 0.069281 -0.009554 443863.000000 0 0 1
-13.676638 -30.285615 29.610608 44.509066 1.146622 0.842939 0.089379 -0.017735 358021.000000 0 0 1
-13.027738 -29.773915 30.944608 44.875123 1.158339 0.809899 0.070916 -0.016702 269806.000000 0 0 1
-14.049938 -29.377485 31.890308 45.578823 1.124695 0.795856 0.081825 -0.019089 789389.000000 0 0 1
-13.592238 -29.118345 33.225108 46.222664 1.134065 0.768714 0.069421 -0.015273 105016.000000 0 0 1
-12.721338 -30.066265 -33.835159 47.017344 1.170528 2.374068 0.069047 -0.007824 694317.000000 0 0 1
-11.420238 -30.323605 33.599408 46.678293 1.210613 0.767271 0.055329 -0.005551 117598.000000 0 0 1
-10.887738 -31.285885 -33.572059 47.163890 1.235897 2.362878 0.060478 -0.002341 -515645.000000 0 0 1
-9.360538 -31.443875 -33.691859 47.026357 1.281460 2.369491 0.068232 -0.011654 -27704.700000 0 0 1
-8.634638 -30.438285 -32.993959 45.712662 1.294381 2.377150 0.075044 -0.012432 601051.000000 0 0 1
-7.349938 -30.925225 -32.569659 45.510150 1.337457 2.368361 0.084132 -0.021399 518169.000000 0 0 1
-6.690638 -29.865765 -31.603059 43.994112 1.350411 2.372220 0.092961 -0.024099 -41392.700000 0 0 1
-7.206438 -29.885315 -30.272759 43.145159 1.334177 2.348506 0.095636 -0.029568 125240.000000 0 0 1
-6.315338 -29.212485 -29.397259 41.921970 1.357887 2.347928 0.090795 -0.026695 194544.000000 0 0 1
-6.538038 -29.417995 -27.887059 41.059133 1.352105 2.317458 0.101535 -0.029809 -256254.000000 0 0 1
-6.211938 -30.741075 -27.397659 41.644130 1.371408 2.288823 0.089831 -0.033705 542535.000000 0 0 1
-7.186138 -31.292085 -26.475459 41.614722 1.345063 2.260365 0.106955 -0.030750 482742.000000 0 0 1
-6.721438 -32.626925 -25.869459 42.177279 1.367630 2.231092 0.103782 -0.036701 573013.000000 0 0 1
-5.659038 -32.461645 -24.928959 41.318713 1.398201 2.218471 0.062440 -0.039212 258896.000000 0 0 1
-5.289238 -33.678055 -24.280759 41.853825 1.415016 2.189688 0.072440 -0.041468 41440.100000 0 0 1
-4.249138 -33.505605 -23.128959 40.934453 1.444651 2.171259 0.078389 -0.051398 -43692.900000 0 0 1
-4.703838 -32.936035 -21.872159 39.815824 1.428938 2.152363 0.088696 -0.050326 74800.300000 0 0 1
-4.814438 -31.522985 -21.995159 38.738410 1.419240 2.174611 0.055555 -0.036204 -423033.000000 0 0 1
-5.218038 -30.862645 -20.723559 37.539268 1.403307 2.155617 0.089407 -0.041905 -201372.000000 0 0 1
-6.586938 -31.118505 -20.399859 37.787608 1.362203 2.141062 0.086593 -0.049674 549126.000000 0 0 1
-7.251938 -29.922105 -20.031059 36.730999 1.333021 2.147597 0.084622 -0.041547 77776.900000 0 0 1
-7.721038 -28.970965 -21.205359 36.723269 1.310341 2.186382 0.120915 -0.052578 -205735.000000 0 0 1
-6.721838 -28.067215 -21.673059 36.092563 1.335733 2.214904 0.103677 -0.034789 62001.800000 0 0 1
-7.100138 -27.512125 -22.933759 36.514193 1.318234 2.249877 0.142267 -0.046870 57690.000000 0 0 1
-5.983038 -27.628565 -24.041059 37.109390 1.357537 2.275546 0.124528 -0.040616 1668110.000000 0 0 1
-4.704438 -26.969595 -23.907159 36.346155 1.398099 2.288641 0.118578 -0.034651 1231870.000000 0 0 1
-3.895538 -27.406605 -22.795059 35.859614 1.429603 2.259679 0.078761 -0.028248 -165429.000000 0 0 1
-2.419438 -26.935615 -23.018559 35.513871 1.481214 2.275958 0.067456 -0.029907 200290.000000 0 0 1
-2.126838 -25.591095 -23.134959 34.563766 1.487878 2.304118 0.066771 -0.032094 -103697.000000 0 0 1
-2.259638 -24.788005 -21.972459 33.201507 1.479889 2.294002 0.077518 -0.033188 -384533.000000 0 0 1
-1.782338 -23.326805 -22.211059 32.259071 1.494537 2.330244 0.083432 -0.032000 -168486.000000 0 0 1
-2.502138 -22.785005 -23.270259 32.663773 1.461419 2.363734 0.100666 -0.044185 -1279760.000000 0 0 1
-3.683338 -22.245105 -22.837559 32.093080 1.406705 2.362575 0.102271 -0.038704 -967385.000000 0 0 1
-4.841238 -22.387505 -23.894859 33.099883 1.357828 2.377343 0.089195 -0.038044 368564.000000 0 0 1
-4.716938 -21.456805 -24.888159 33.197356 1.354404 2.418410 0.100417 -0.032693 12565.600000 0 0 1
-5.662338 -21.666305 -25.910759 34.247018 1.315171 2.428870 0.134564 -0.038477 6721.980000 0 0 1
-5.670838 -20.530205 -26.981559 34.375169 1.301297 2.473354 0.129893 -0.039449 24947.900000 0 0 1
-6.225438 -20.765105 -28.276159 35.629858 1.279520 2.487513 0.144379 -0.030368 -406021.000000 0 0 1
-5.348138 -21.365805 -29.155359 36.539501 1.325523 2.494622 0.120959 -0.031207 -437915.000000 0 0 1
-5.873838 -21.641105 -30.579359 37.920134 1.305761 2.508860 0.121775 -0.028302 -217496.000000 0 0 1
-6.046538 -20.485705 -31.326959 37.915736 1.283787 2.543171 0.128515 -0.033144 -40022.600000 0 0 1
-6.805438 -20.854505 -32.487159 39.199998 1.255363 2.547674 0.113600 -0.021387 265051.000000 0 0 1
-6.568238 -19.946205 -33.685459 39.695125 1.252682 2.584138 0.092129 -0.026545 -246634.000000 0 0 1
-5.408338 -20.264505 33.583108 39.594512 1.309988 0.558264 0.098146 -0.024512 -719999.000000 0 0 1
-5.643238 -20.102005 32.180108 38.360084 1.297111 0.575545 0.096340 -0.016825 617453.000000 0 0 1
-4.444338 -20.524805 31.269308 37.666820 1.357553 0.591410 0.077675 -0.017858 -508883.000000 0 0 1
-4.249338 -21.981805 31.297508 38.481042 1.379840 0.620956 0.092312 -0.026037 575836.000000 0 0 1
-3.187438 -22.454905 30.443508 37.963004 1.429790 0.640285 0.087896 -0.017452 1173720.000000 0 0 1
-1.737138 -22.126205 30.940308 38.077411 1.492447 0.622260 0.062516 -0.021251 -70779.700000 0 0 1
-1.307538 -20.753105 30.798508 37.161123 1.507875 0.593867 0.054122 -0.016509 -561128.000000 0 0 1
-0.347838 -20.384705 31.733808 37.718586 1.553734 0.571056 0.064743 -0.019488 -716828.000000 0 0 1
-0.772438 -20.025205 33.198008 38.777741 1.532242 0.543102 0.059176 -0.022702 437101.000000 0 0 1
-1.729738 -18.937105 33.086608 38.161886 1.479708 0.521633 0.061013 -0.021843 522824.000000 0 0 1
-2.420638 -18.759705 -33.641159 38.594217 1.442471 2.629382 0.069577 -0.029251 465187.000000 0 0 1
-3.501038 -17.640105 -33.640259 38.145741 1.374872 2.650648 0.077913 -0.027157 293861.000000 0 0 1
-2.984638 -16.306505 -33.765559 37.615464 1.389767 2.685207 0.061876 -0.022188 40737.700000 0 0 1
-4.007238 -15.353205 -33.564959 37.126612 1.315489 2.699989 0.072625 -0.026981 97605.900000 0 0 1
-3.524538 -13.939205 -33.862559 36.788540 1.323136 2.740065 0.068332 -0.029110 -167836.000000 0 0 1
-2.595838 -13.390705 -32.950259 35.661869 1.379318 2.749113 0.061067 -0.026170 -76536.800000 0 0 1
-2.448838 -11.963805 -33.036559 35.221352 1.368898 2.787524 0.062303 -0.029701 -49827.700000 0 0 1
-1.719238 -11.345405 33.716208 35.615399 1.420404 0.328042 0.063857 -0.031436 -190697.000000 0 0 1
-2.507838 -11.415505 32.561008 34.595118 1.354545 0.344625 0.062530 -0.029886 123927.000000 0 0 1
-1.705338 -11.007505 31.488408 33.400496 1.417093 0.340006 0.063413 -0.023297 453679.000000 0 0 1
-0.704438 -12.010605 30.869508 33.131214 1.512212 0.371635 0.058959 -0.026040 58346.800000 0 0 1
-1.349638 -12.883205 29.989108 32.667186 1.466418 0.407740 0.069602 -0.029919 25343.400000 0 0 1
-0.627738 -14.097605 29.728008 32.907309 1.526298 0.443195 0.064482 -0.031967 84320.600000 0 0 1
-1.141138 -15.384305 30.456208 34.140293 1.496756 0.468847 0.061773 -0.026256 31427.200000 0 0 1
-2.119238 -16.064205 29.704308 33.836308 1.439631 0.499374 0.078577 -0.030130 71330.500000 0 0 1
-2.252938 -17.371805 30.271908 34.974901 1.441827 0.524584 0.077898 -0.022311 -166861.000000 0 0 1
-2.497238 -18.417205 29.156408 34.576375 1.436026 0.567502 0.084298 -0.019375 -884953.000000 0 0 1
-3.707138 -18.410905 28.492208 34.124920 1.372098 0.582775 0.086369 -0.027085 -691789.000000 0 0 1
-3.765238 -19.524805 27.658308 34.064307 1.380291 0.623322 0.088577 -0.024183 837200.000000 0 0 1
-4.715638 -19.224105 26.416208 33.009385 1.330248 0.643062 0.070626 -0.026252 562599.000000 0 0 1
-5.201138 -20.331505 25.598608 33.101520 1.320351 0.686710 0.088121 -0.021310 320261.000000 0 0 1
-4.200638 -21.056905 24.864808 32.852660 1.373891 0.712304 0.086127 -0.022459 196852.000000 0 0 1
-29.879328 -33.566176 -0.705992 44.943974 0.843443 1.586505 0.075437 0.005800 2986.090000 0 0 1
-29.558068 -32.336876 -0.119792 43.810584 0.830264 1.573531 0.091523 -0.001410 -97599.400000 0 0 1
-29.666848 -32.285676 1.270208 43.864566 0.827645 1.541835 0.068460 0.016660 -102892.000000 0 0 1
-29.301438 -30.941876 1.952108 42.658934 0.812622 1.525020 0.083950 -0.000068 -24256.500000 0 0 1
-27.934198 -30.653776 1.823108 41.512614 0.831784 1.526865 0.090592 -0.002284 -615288.000000 0 0 1
-27.729518 -29.300776 2.115308 40.397230 0.812942 1.518410 0.089087 -0.019378 270168.000000 0 0 1
-26.204018 -29.075276 2.204708 39.203099 0.837292 1.514529 0.096734 -0.012475 248930.000000 0 0 1
-25.617078 -29.790876 3.298608 39.428566 0.860585 1.487038 0.080212 0.000517 -101155.000000 0 0 1
-24.221238 -29.575776 3.365908 38.376089 0.884604 1.482975 0.077672 -0.003507 172735.000000 0 0 1
-23.596338 -30.428176 4.519708 38.769689 0.911189 1.453952 0.072312 -0.010454 -161445.000000 0 0 1
-24.047738 -30.057076 5.812608 38.929525 0.896013 1.420925 0.059080 -0.002617 228572.000000 0 0 1
-23.382638 -30.796676 6.868008 39.272796 0.921396 1.395013 0.047057 -0.001815 207665.000000 0 0 1
-23.832838 -30.342676 8.248908 39.455375 0.904987 1.360173 0.041961 0.003408 -40909.400000 0 0 1
-23.267838 -29.113876 8.634308 38.256520 0.896543 1.343140 0.062107 -0.009785 147466.000000 0 0 1
-23.965638 -28.711676 9.781208 38.657265 0.875252 1.314992 0.039709 -0.006932 282315.000000 0 0 1
-23.259238 -27.524876 10.510608 37.537765 0.869197 1.287001 0.055028 -0.017086 857684.000000 0 0 1
-21.876838 -27.655676 10.840008 36.890896 0.901541 1.272555 0.052735 -0.024886 263043.000000 0 0 1
-21.467938 -26.570376 11.648908 36.090917 0.891217 1.242146 0.067300 -0.029689 -132211.000000 0 0 1
-20.029038 -26.748076 12.142508 35.553656 0.928062 1.222256 0.058363 -0.036070 -524438.000000 0 0 1
-19.877038 -27.755976 13.127708 36.576325 0.949323 1.203694 0.053982 -0.022067 381862.000000 0 0 1
-18.559138 -27.770376 13.680508 36.094206 0.981659 1.182057 0.066362 -0.031291 642933.000000 0 0 1
-18.494838 -28.821776 14.796408 37.305328 1.000280 1.162954 0.074492 -0.032059 -59396.000000 0 0 1
-18.613938 -30.121676 14.322108 38.195770 1.017277 1.186436 0.067424 -0.026072 -173051.000000 0 0 1
-18.231038 -31.038576 15.273308 39.102914 1.039718 1.169521 0.072816 -0.017448 16400.900000 0 0 1
-18.200538 -32.492876 14.723008 40.047641 1.060202 1.194329 0.060453 -0.021033 46225.200000 0 0 1
-18.011938 -33.434976 15.742208 41.111369 1.076658 1.177845 0.064048 -0.013622 49024.000000 0 0 1
-18.154638 33.322595 15.255308 40.898785 -1.071943 1.188554 0.046403 -0.015136 -63645.400000 0 0 1
-17.741538 32.148195 16.211508 40.138281 -1.066521 1.155030 0.051823 -0.015885 -125509.000000 0 0 1
-18.778838 31.759495 17.071508 40.653987 -1.036811 1.137437 0.055381 -0.021277 -172793.000000 0 0 1
-18.389038 30.843495 18.014108 40.174445 -1.033172 1.105825 0.032864 -0.012503 -189441.000000 0 0 1
-19.119738 30.835595 19.394208 41.140413 -1.015762 1.079902 0.044652 -0.019789 184488.000000 0 0 1
-18.606438 31.791695 20.318008 42.068193 -1.041285 1.066744 0.048491 -0.019025 636055.000000 0 0 1
-19.522038 31.821895 21.433708 43.048192 -1.020525 1.049620 0.062050 -0.009929 615923.000000 0 0 1
-19.171438 32.993295 22.431208 44.263536 -1.044412 1.039368 0.051288 -0.004363 -141077.000000 0 0 1
-17.947738 32.851295 23.094008 43.984794 -1.070773 1.018028 0.049551 -0.021202 -669763.000000 0 0 1
-17.902538 33.373495 24.432708 45.069372 -1.078431 0.997846 0.044494 -0.020888 -243415.000000 0 0 1
-18.700038 32.635995 25.534608 45.462246 -1.050475 0.974398 0.053802 -0.020699 -162416.000000 0 0 1
-20.052138 32.910195 25.279808 46.089455 -1.023568 0.990234 0.048524 -0.020809 -1044130.000000 0 0 1
-20.965938 32.200095 26.041808 46.417588 -0.993638 0.975163 0.053141 -0.017827 1476360.000000 0 0 1
-22.485638 32.564695 25.678308 47.174557 -0.966481 0.995212 0.100710 -0.026477 1416830.000000 0 0 1
-22.668738 32.168495 24.355808 46.280548 -0.956931 1.016595 0.100672 -0.020659 -1019690.000000 0 0 1
-23.943938 32.271895 23.867708 46.738152 -0.932471 1.034834 0.093007 -0.020771 -1167960.000000 0 0 1
-24.091938 31.605095 22.465008 45.650631 -0.919482 1.056288 0.085602 -0.023405 59117.200000 0 0 1
-23.438938 32.395195 21.484308 45.391717 -0.944451 1.077753 0.096671 -0.021459 267347.000000 0 0 1
-23.347338 31.825595 20.204808 44.341865 -0.937872 1.097683 0.056394 -0.010568 -84461.600000 0 0 1
-22.944338 32.900295 19.155408 44.449991 -0.961824 1.125259 0.059811 -0.002798 437734.000000 0 0 1
-21.674438 33.461095 19.484108 44.374053 -0.996004 1.116213 0.057138 -0.002791 272404.000000 0 0 1
-21.102238 -33.910676 18.414208 43.980921 1.014149 1.138798 0.073695 -0.003546 -435698.000000 0 0 1
-19.854538 -33.110376 18.729308 42.910216 1.030636 1.119117 0.065918 -0.008554 -475889.000000 0 0 1
-20.040338 -31.937576 19.547608 42.470376 1.010412 1.092503 0.077884 -0.015042 -32487.600000 0 0 1
-18.803838 -31.383676 19.887008 41.641476 1.030995 1.072902 0.059043 -0.022251 -357255.000000 0 0 1
-19.033838 -30.278976 20.910508 41.428887 1.009601 1.041724 0.058013 -0.011987 -73029.900000 0 0 1
-19.899338 -29.287076 20.429708 40.878961 0.973990 1.047474 0.070615 -0.020383 75596.600000 0 0 1
-20.346338 -28.494276 21.478608 41.075879 0.950703 1.020546 0.084248 -0.017081 248338.000000 0 0 1
-21.377238 -27.426876 20.959508 40.601980 0.908727 1.028366 0.077160 -0.026473 -74536.300000 0 0 1
-20.698938 -26.321876 20.380108 39.199949 0.904417 1.024061 0.057848 -0.013047 805990.000000 0 0 1
-21.484538 -25.120876 20.170808 38.723446 0.863264 1.022898 0.053894 -0.002894 -507930.000000 0 0 1
-22.600538 -25.175676 19.102808 38.852493 0.839246 1.056784 0.048666 -0.015346 -531550.000000 0 0 1
-23.785038 -25.641676 19.708008 40.145101 0.822944 1.057652 0.056982 -0.016419 -782772.000000 0 0 1
-24.714938 -25.880276 18.719708 40.386189 0.808427 1.088835 0.050181 -0.014189 -972215.000000 0 0 1
-26.111568 -26.169976 19.318108 41.711760 0.786515 1.089269 0.054330 -0.014919 -142297.000000 0 0 1
-26.429858 -27.526476 19.621708 42.909855 0.805720 1.095865 0.048298 -0.008020 1816.970000 0 0 1
-26.681098 -28.295976 18.445408 43.043888 0.814763 1.127936 0.059380 -0.012280 -156312.000000 0 0 1
-27.962608 -29.190176 18.573708 44.485463 0.806874 1.140079 0.073832 -0.019796 862192.000000 0 0 1
-29.108488 -28.314076 18.669108 44.693697 0.771565 1.139870 0.045706 -0.025677 -111316.000000 0 0 1
-30.230928 -28.987376 18.183708 45.659875 0.764402 1.161196 0.045246 -0.019821 -156402.000000 0 0 1
-31.557398 -28.213076 18.406108 46.158768 0.729504 1.160636 0.050393 -0.021434 250581.000000 0 0 1
-31.698548 -27.066976 17.588208 45.241178 0.706746 1.171505 0.066856 -0.016285 337920.000000 0 0 1
-33.078808 -26.750976 17.741808 46.093318 0.680026 1.175685 0.070264 0.002042 360049.000000 0 0 1
-33.658818 -25.420576 17.164408 45.538320 0.646848 1.184325 0.076180 -0.021065 -304149.000000 0 0 1
-33.963968 -25.494876 15.821708 45.319601 0.643914 1.214171 0.099891 -0.030860 51430.400000 0 0 1
-34.160683 -24.254976 15.174108 44.559058 0.617423 1.223306 0.107313 -0.037311 281611.000000 0 0 1
-32.891158 -23.350076 15.038508 43.048938 0.617352 1.213935 0.091471 -0.035767 362816.000000 0 0 1
-32.408758 -22.709276 16.213908 42.765987 0.611205 1.181939 0.075698 -0.030183 -82496.100000 0 0 1
-32.147528 -21.340976 15.984608 41.766117 0.586047 1.178061 0.059807 -0.033063 393388.000000 0 0 1
-33.351088 -20.340276 16.245808 42.307779 0.547655 1.176681 0.066173 -0.037617 684486.000000 0 0 1
-33.695068 -20.179976 17.631008 43.051614 0.539610 1.148855 0.060960 -0.027909 -68813.500000 0 0 1
-34.626359 -19.148476 17.734208 43.360708 0.505146 1.149447 0.066064 -0.030603 -376567.000000 0 0 1
-35.085017 -18.917576 19.204108 44.245123 0.494508 1.121825 0.042589 -0.026669 674665.000000 0 0 1
-36.266658 -19.667776 19.606608 45.678342 0.496920 1.127154 0.057402 -0.025757 1106260.000000 0 0 1
-36.473398 -19.416376 20.966208 46.334504 0.489186 1.101233 0.044218 -0.013178 -225250.000000 0 0 1
36.155292 -19.754876 21.518408 46.481202 -0.500067 1.089477 0.043576 -0.012549 95028.300000 0 0 1
35.742402 -21.053076 21.661508 46.797139 -0.532309 1.089554 0.062110 -0.019884 327592.000000 0 0 1
36.599902 -21.850776 22.519908 48.209496 -0.538223 1.084759 0.039490 -0.004745 -95466.900000 0 0 1
35.977822 -23.161376 22.926908 48.543755 -0.571982 1.078905 0.046856 0.003453 -646315.000000 0 0 1
35.010112 -22.944976 23.882108 48.192686 -0.580149 1.052323 0.066950 -0.014160 -398278.000000 0 0 1
34.535562 -24.183776 24.471108 48.748284 -0.610899 1.044899 0.068261 -0.025370 242179.000000 0 0 1
33.557552 -23.889676 25.662608 48.532416 -0.618669 1.013643 0.075758 -0.027529 574455.000000 0 0 1
32.206762 -23.684076 25.252508 47.285306 -0.634076 1.007418 0.093445 -0.027821 729612.000000 0 0 1
31.386492 -23.614076 26.471508 47.365359 -0.645013 0.977763 0.078110 -0.025982 920804.000000 0 0 1
30.001592 -24.296176 26.232008 46.674596 -0.680706 0.973972 0.081469 -0.029424 -272476.000000 0 0 1
29.112242 -23.678776 25.400008 45.314098 -0.682835 0.975768 0.091105 -0.021933 -194102.000000 0 0 1
27.982072 -24.539576 25.137008 44.911650 -0.719947 0.976774 0.084705 -0.013420 712592.000000 0 0 1
26.814572 -23.685776 24.546608 43.388630 -0.723521 0.969468 0.082708 -0.009320 -137335.000000 0 0 1
26.901972 -23.025676 23.265208 42.369420 -0.707915 0.989505 0.081322 -0.011899 -81069.600000 0 0 1
27.860572 -21.972976 23.139008 42.360794 -0.667798 0.992932 0.093917 -0.004121 115321.000000 0 0 1
27.714972 -21.232576 21.821608 41.171890 -0.653729 1.012181 0.087660 -0.006167 -5822.630000 0 0 1
26.851772 -20.144576 21.943408 40.104049 -0.643638 0.991827 0.087512 -0.003821 -588425.000000 0 0 1
26.714672 -19.588076 20.659908 39.040982 -0.632684 1.013156 0.065679 0.001343 29933.800000 0 0 1
25.830272 -18.327676 20.786208 37.883679 -0.617102 0.990006 0.069851 0.001757 -32262.300000 0 0 1
26.439172 -17.184576 21.372308 38.093504 -0.576352 0.975144 0.077212 -0.015241 31757.200000 0 0 1
26.425472 -17.283576 22.798608 38.946169 -0.579217 0.945438 0.076139 -0.010632 -12671.800000 0 0 1
26.492972 -15.879676 23.473008 38.794636 -0.539972 0.920958 0.098656 -0.011977 121088.000000 0 0 1
25.245972 -15.217876 23.358708 37.610798 -0.542464 0.900697 0.090663 -0.021194 -103244.000000 0 0 1
25.127572 -13.938676 23.929108 37.393633 -0.506457 0.876396 0.088770 -0.017659 -514759.000000 0 0 1
23.732172 -13.362576 23.798508 36.168265 -0.512813 0.852644 0.090593 -0.027516 -855120.000000 0 0 1
22.744972 -14.023976 24.509708 36.259226 -0.552518 0.828533 0.097416 -0.020922 -282250.000000 0 0 1
21.514172 -13.334576 24.377908 35.141897 -0.554854 0.804184 0.089731 -0.026631 412214.000000 0 0 1
20.219472 -14.043276 24.868908 34.992903 -0.607054 0.780326 0.088191 -0.016044 267215.000000 0 0 1
19.633072 -14.850476 23.825008 34.258213 -0.647585 0.801745 0.091412 -0.016965 -62773.700000 0 0 1
18.431072 -15.409476 24.269508 34.149164 -0.696345 0.780316 0.092081 -0.011701 -373112.000000 0 0 1
17.850272 -16.381176 23.279608 33.599335 -0.742508 0.805350 0.093085 -0.011423 -62601.600000 0 0 1
18.566472 -17.589276 23.348308 34.630045 -0.758377 0.830887 0.071732 -0.008515 108230.000000 0 0 1
18.144072 -18.413276 22.327608 34.158135 -0.792762 0.858393 0.089642 -0.012372 -98404.900000 0 0 1
18.557772 -19.901976 22.522508 35.323405 -0.820335 0.879406 0.055502 -0.007001 -91037.400000 0 0 1
18.011172 -20.330676 23.748108 36.079237 -0.845820 0.852343 0.042763 -0.012513 228360.000000 0 0 1
18.387072 -21.646976 24.166308 37.291908 -0.866647 0.865800 0.044047 -0.008968 -296144.000000 0 0 1
17.821572 -22.851276 23.426408 37.263734 -0.908436 0.890961 0.035540 -0.007487 66207.900000 0 0 1
18.499772 -23.258876 22.231508 37.114106 -0.898875 0.928539 0.047528 0.003323 964941.000000 0 0 1
19.684572 -24.088776 22.414708 38.342804 -0.885675 0.946425 0.053376 -0.000863 1122160.000000 0 0 1
20.557072 -24.192876 21.117408 38.129167 -0.866467 0.983829 0.059565 0.005653 -139497.000000 0 0 1
19.822772 -24.705876 20.067908 37.497247 -0.894624 1.006071 0.064427 -0.004727 398380.000000 0 0 1
20.691372 -25.007476 18.927208 37.573208 -0.879565 1.042871 0.064425 -0.006914 526738.000000 0 0 1
19.977672 -25.655276 17.735708 37.038573 -0.909181 1.071459 0.054755 -0.016366 -63240.100000 0 0 1
19.347872 -26.863976 18.114408 37.737848 -0.946631 1.070134 0.074662 -0.026304 -27552.300000 0 0 1
18.724972 -27.457276 16.982008 37.321779 -0.972275 1.098406 0.085730 -0.029252 -170107.000000 0 0 1
17.870272 -28.645876 17.465108 38.012667 -1.013036 1.093415 0.089804 -0.026876 -16154.700000 0 0 1
16.691772 -28.276476 18.158508 37.522070 -1.037535 1.065643 0.072950 -0.025092 57678.800000 0 0 1
15.986772 -29.422476 18.640408 38.323932 -1.073071 1.062842 0.081832 -0.025241 747973.000000 0 0 1
14.780972 -28.977376 19.553708 37.954090 -1.099112 1.029563 0.069678 -0.018987 939632.000000 0 0 1
13.739972 -28.336376 18.820408 36.687120 -1.119311 1.032123 0.075898 -0.026933 -407157.000000 0 0 1
12.539172 -28.210376 19.515108 36.522535 -1.152536 1.007081 0.046218 -0.018873 -671400.000000 0 0 1
11.463172 -27.700676 18.568908 35.263807 -1.178431 1.016234 0.054967 -0.023210 -621209.000000 0 0 1
11.065272 -28.752376 17.674808 35.518139 -1.203421 1.049935 0.066503 -0.030305 24203.300000 0 0 1
10.397772 -28.188876 16.573408 34.313325 -1.217419 1.066716 0.076613 -0.026587 -163012.000000 0 0 1
10.177372 -29.206876 15.453208 34.574877 -1.235496 1.107444 0.083845 -0.023193 341752.000000 0 0 1
9.086172 -30.115176 15.613308 35.117770 -1.277768 1.110070 0.065528 -0.019975 381649.000000 0 0 1
9.120572 -30.998676 14.509708 35.420818 -1.284646 1.148739 0.077960 -0.010220 -43641.000000 0 0 1
8.106972 -32.151176 14.552108 36.210288 -1.323794 1.157230 0.070197 -0.012221 -86114.200000 0 0 1
8.279872 -33.043476 15.672008 37.497192 -1.325276 1.139607 0.079366 -0.014639 -175426.000000 0 0 1
7.307072 -34.037976 15.569908 38.136585 -1.359332 1.150242 0.074072 -0.004528 -124654.000000 0 0 1
7.503872 32.980795 16.656308 37.702434 1.347082 1.113211 0.093879 -0.014891 46944.900000 0 0 1
8.626572 32.169195 16.403708 37.126224 1.308798 1.113152 0.086629 -0.018695 -204197.000000 0 0 1
8.743272 31.142595 17.320008 36.691807 1.297093 1.079193 0.099680 -0.024048 497379.000000 0 0 1
10.072472 30.304795 17.258108 36.299829 1.249911 1.075341 0.080829 -0.022376 431694.000000 0 0 1
10.377972 29.666495 16.029708 35.281083 1.234281 1.099162 0.110403 -0.020768 331902.000000 0 0 1
11.656972 29.042795 16.230608 35.253391 1.189108 1.092352 0.088908 -0.020222 635755.000000 0 0 1
12.307372 28.490095 14.909808 34.430500 1.163022 1.122933 0.072511 -0.018100 143808.000000 0 0 1
11.742272 27.282695 14.428308 33.021243 1.164367 1.118602 0.083995 -0.017632 163893.000000 0 0 1
12.386672 26.909095 13.206408 32.433598 1.139397 1.151429 0.085087 -0.009422 281590.000000 0 0 1
-9.728038 -8.950505 19.241674 23.344984 0.743795 0.601952 0.069409 -0.029444 30558.500000 0 1 0
-9.888038 -9.170105 17.877474 22.393486 0.747745 0.646273 0.069077 -0.031942 39830.400000 0 1 0
-9.725738 -10.546305 17.559674 22.675023 0.825854 0.685021 0.069052 -0.033146 29769.400000 0 1 0
-10.094538 -10.747905 16.084374 21.820271 0.816736 0.741983 0.082096 -0.031571 -514036.000000 0 1 0
-11.465738 -10.649805 15.828274 22.257937 0.748521 0.779693 0.081505 -0.032417 -286488.000000 0 1 0
-11.743238 -10.852205 14.447374 21.549956 0.745984 0.836031 0.095664 -0.040148 -88396.300000 0 1 0
-11.755838 -12.339005 13.950974 22.024542 0.809596 0.884820 0.077118 -0.045572 -429617.000000 0 1 0
-10.521838 -13.018905 13.776274 21.679176 0.891077 0.882191 0.082657 -0.036663 197605.000000 0 1 0
-10.648338 -14.433905 13.559374 22.485136 0.935194 0.923493 0.095040 -0.040540 -101026.000000 0 1 0
-10.180638 -15.387105 14.685074 23.580920 0.986286 0.898541 0.092363 -0.043739 982017.000000 0 1 0
-11.194238 -15.394805 15.740374 24.699602 0.942084 0.879843 0.097074 -0.022346 828300.000000 0 1 0
-10.605438 -15.463705 17.032674 25.332064 0.969645 0.833382 0.089228 -0.025671 -791272.000000 0 0 1
-11.546838 -15.201105 18.188174 26.366887 0.921176 0.809568 0.061455 -0.011574 -314076.000000 0 0 1
-12.097238 -13.891705 18.412574 26.045067 0.854336 0.785619 0.058204 -0.017211 -430236.000000 0 0 1
-13.075838 -13.565405 17.495874 25.711930 0.803772 0.822410 0.062151 -0.036925 -1100900.000000 0 0 1
-14.474138 -13.483505 18.138374 26.838521 0.749980 0.828701 0.036803 -0.019558 -148647.000000 0 0 1
-14.926738 -14.773605 18.609474 28.060282 0.780242 0.845715 0.041914 -0.014667 38481.500000 0 0 1
-16.058938 -14.512305 19.439274 29.092643 0.734850 0.839029 0.049611 -0.005560 288295.000000 0 0 1
-16.684738 -15.796405 20.023374 30.476916 0.758056 0.853962 0.055817 -0.007221 -379422.000000 0 0 1
-17.500838 -16.546305 19.192574 30.796338 0.757370 0.897956 0.076611 -0.008384 -294542.000000 0 0 1
-17.741538 -17.852405 19.690674 31.956113 0.788513 0.906915 0.049674 -0.013311 177966.000000 0 0 1
-19.183838 -18.323805 19.321774 32.819391 0.762473 0.941309 0.072991 -0.008748 350678.000000 0 0 1
-19.361638 -18.592905 17.942274 32.287681 0.765147 0.981591 0.082428 -0.020402 174780.000000 0 0 1
-19.739338 -17.389605 17.243074 31.454148 0.722197 0.990589 0.081810 -0.025803 -414494.000000 0 0 1
-19.453738 -17.416505 15.685774 30.460237 0.730200 1.029836 0.078561 -0.027906 -122262.000000 0 0 1
-20.069538 -18.506805 15.030474 31.164135 0.744910 1.067518 0.076262 -0.029418 63090.500000 0 0 1
-19.716838 -18.495005 13.683174 30.299309 0.753434 1.102238 0.069858 -0.024675 76674.300000 0 0 1
-19.921138 -19.790805 12.918674 30.909866 0.782116 1.139612 0.078582 -0.021698 34079.400000 0 0 1
-19.228138 -20.913705 13.498874 31.453520 0.827364 1.127224 0.077064 -0.020421 84476.700000 0 0 1
-19.052138 -21.846405 12.438374 31.543026 0.853614 1.165457 0.068849 -0.024603 -598213.000000 0 0 1
-18.278338 -23.084405 12.823774 32.115986 0.901073 1.160048 0.060051 -0.025059 -444716.000000 0 0 1
-18.400538 -24.186905 11.954374 32.657208 0.920441 1.196029 0.068531 -0.037667 442122.000000 0 0 1
-17.359138 -24.182705 10.965374 31.723529 0.948202 1.217860 0.073147 -0.036024 178691.000000 0 0 1
-17.604538 -25.336425 9.867274 32.391623 0.963548 1.261252 0.084580 -0.034597 -63811.300000 0 0 1
-18.877838 -25.410445 9.268174 32.984277 0.931844 1.285973 0.077792 -0.026805 -457822.000000 0 0 1
-19.030838 -26.326455 8.169974 33.496320 0.944880 1.324404 0.101393 -0.029409 492896.000000 0 0 1
-20.318038 -26.114435 7.311474 33.885749 0.909591 1.353318 0.095443 -0.032198 474118.000000 0 0 1
-20.298438 -24.879005 6.625374 32.785470 0.886443 1.367312 0.105956 -0.033864 860996.000000 0 0 1
-21.423038 -24.695805 5.717974 33.189223 0.856243 1.397648 0.113164 -0.036983 820032.000000 0 0 1
-21.301338 -23.430605 4.845774 32.034696 0.832963 1.418947 0.110738 -0.029505 422898.000000 0 0 1
-22.308038 -23.259405 3.833274 32.455238 0.806273 1.452410 0.122612 -0.027908 367605.000000 0 0 1
-22.020938 -22.181005 3.064574 31.405577 0.789019 1.473060 0.111308 -0.020238 316366.000000 0 0 1
-22.852738 -22.122905 1.745174 31.854610 0.769172 1.515983 0.110621 -0.018564 190875.000000 0 0 1
-22.333438 -23.018305 0.758374 32.081146 0.800498 1.547155 0.103996 -0.020855 289222.000000 0 0 1
-22.405238 -22.477605 -0.557026 31.741891 0.787011 1.588346 0.096701 -0.018502 -190484.000000 0 0 1
-21.765938 -23.394605 -1.625626 31.995410 0.821446 1.621626 0.084890 -0.015709 -349230.000000 0 0 1
-20.367638 -23.496305 -1.572026 31.135001 0.856604 1.621308 0.097932 -0.014554 -317855.000000 0 0 1
-19.802538 -24.061505 -2.750626 31.283581 0.882189 1.658836 0.092180 -0.007861 5379.600000 0 0 1
-19.763338 -25.635315 -2.923226 32.500833 0.914027 1.660861 0.088468 -0.010313 -484792.000000 0 0 1
-20.940838 -26.339705 -3.191926 33.800697 0.899094 1.665371 0.104095 -0.011510 -622573.000000 0 0 1
-20.643938 -27.652685 -3.603126 34.696191 0.929511 1.674832 0.109255 -0.007820 -114793.000000 0 0 1
-21.867438 -28.379575 -4.156426 36.067450 0.914282 1.686293 0.107487 -0.006699 -174381.000000 0 0 1
-22.232438 -27.937505 -5.423626 36.113725 0.898627 1.721549 0.098122 -0.000471 -115351.000000 0 0 1
-23.007738 -28.901955 -6.107726 37.443067 0.898461 1.734649 0.099683 -0.010010 -309523.000000 0 0 1
-23.477138 -28.300585 -7.431026 37.514254 0.878287 1.770201 0.086692 0.007846 -236013.000000 0 0 1
-22.484638 -28.134105 -8.433926 36.989429 0.896546 1.800829 0.112028 0.000507 82274.500000 0 0 1
-22.987338 -28.182145 -9.737026 37.649178 0.886573 1.832395 0.108180 0.001145 9120.300000 0 0 1
-23.838938 -26.970655 -10.235426 37.422922 0.846957 1.847833 0.086150 0.010460 -125254.000000 0 0 1
-23.197638 -25.745155 -10.484426 36.205891 0.837402 1.864582 0.085696 0.009800 -15467.700000 0 0 1
-22.770038 -25.064015 -9.275726 35.110092 0.833318 1.838160 0.074249 0.005127 153937.000000 0 0 1
-22.320838 -23.600705 -9.566526 33.863424 0.813262 1.857199 0.075761 -0.004001 557390.000000 0 0 1
-23.419938 -22.825205 -10.070226 34.218312 0.772538 1.869512 0.082129 -0.004513 518618.000000 0 0 1
-23.187638 -21.444405 -10.067926 33.149542 0.746360 1.879383 0.101472 0.006324 481006.000000 0 0 1
-24.499938 -20.664905 -10.383726 33.691349 0.700689 1.884098 0.117056 0.012186 156357.000000 0 0 1
-25.130788 -20.812305 -11.660126 34.650643 0.691677 1.914000 0.091824 0.023903 778057.000000 0 0 1
-26.345688 -20.069805 -11.818926 35.165030 0.651002 1.913568 0.084906 0.019440 495902.000000 0 0 1
-26.222678 -18.482205 -11.718126 34.154578 0.613952 1.921002 0.099304 0.007743 -834323.000000 0 0 1
-25.438218 -17.989605 -12.790426 33.679724 0.615534 1.960340 0.119190 0.018092 482682.000000 0 0 1
-25.014538 -16.619905 -12.643226 32.585265 0.586439 1.969262 0.132267 -0.009325 395635.000000 0 0 1
-23.976838 -16.213905 -11.531726 31.157024 0.594596 1.949931 0.108277 -0.008069 -56317.100000 0 0 1
-24.514238 -16.183905 -10.216326 31.100481 0.583501 1.905505 0.143401 -0.021256 449712.000000 0 0 1
-23.487238 -16.276405 -9.221926 30.026915 0.606005 1.882964 0.139036 -0.020329 537260.000000 0 0 1
-24.033838 -16.814705 -7.876126 30.370924 0.610475 1.833126 0.144866 -0.032121 -110775.000000 0 0 1
-24.540838 -18.090705 -7.954926 31.508842 0.635238 1.826025 0.130770 -0.019701 -403539.000000 0 0 1
-25.122508 -18.362705 -6.734726 31.838433 0.631182 1.783935 0.148230 -0.014209 -393104.000000 0 0 1
-25.707678 -19.782805 -6.705526 33.124132 0.655883 1.774641 0.132880 -0.012852 -278599.000000 0 0 1
-26.871808 -19.836905 -7.482526 34.228424 0.635910 1.791182 0.097488 -0.016586 -221645.000000 0 0 1
-27.587688 -21.062805 -7.386026 35.486274 0.652076 1.780467 0.074567 -0.001508 106979.000000 0 0 1
-26.942228 -22.249605 -8.187326 35.888171 0.690292 1.800957 0.057072 0.003106 98650.500000 0 0 1
-27.603368 -23.489905 -8.046526 37.127727 0.705063 1.789255 0.057619 0.003667 112931.000000 0 0 1
-26.822028 -24.472005 -8.766026 37.351618 0.739615 1.807695 0.042565 0.012605 745879.000000 0 0 1
-27.242708 -25.932295 -8.469726 38.553668 0.760760 1.792290 0.052753 0.005791 140545.000000 0 0 1
-26.668718 -26.399495 -7.274626 38.223998 0.780325 1.762280 0.077886 -0.008171 -54918.700000 0 0 1
-27.312168 -27.570095 -6.861826 39.410015 0.790098 1.745802 0.084969 -0.011284 -175728.000000 0 0 1
-26.828038 -28.181585 -5.499926 39.296240 0.809999 1.711218 0.111921 -0.015159 -166097.000000 0 0 1
-27.182208 -27.351295 -4.385326 38.809752 0.788499 1.684034 0.098238 -0.013854 75645.600000 0 0 1
-26.518078 -27.547655 -3.137626 38.365693 0.804439 1.652670 0.104797 -0.016425 7886.350000 0 0 1
-26.723078 -28.873795 -2.355126 39.412758 0.824063 1.630587 0.110839 -0.010228 121314.000000 0 0 1
-26.148868 -29.958965 -3.091826 39.885614 0.853201 1.648391 0.128534 -0.009514 -3728.010000 0 0 1
-26.420608 -31.184105 -2.371726 40.940469 0.867903 1.628760 0.109018 -0.004024 -21616.000000 0 0 1
-25.588718 -31.588195 -1.104426 40.667140 0.889944 1.597957 0.123093 -0.010643 194840.000000 0 0 1
-24.222038 -31.439585 -1.465626 39.715270 0.914347 1.607708 0.125976 -0.020947 -347073.000000 0 0 1
-23.384538 -31.748955 -0.381126 39.433209 0.935962 1.580462 0.083844 -0.011628 -105456.000000 0 0 1
-22.343338 -30.630715 -0.168726 37.914297 0.940583 1.575247 0.085545 -0.013963 -152945.000000 0 0 1
-22.852938 -29.391885 0.319074 37.232264 0.909910 1.562226 0.101018 -0.018522 -158169.000000 0 0 1
-23.196538 -28.499235 -0.710626 36.753105 0.887616 1.590133 0.106377 -0.024934 -173295.000000 0 0 1
-23.593638 -27.051835 -0.314226 35.896521 0.853575 1.579550 0.102544 -0.013940 -444961.000000 0 0 1
-24.961338 -26.994845 -0.013926 36.766700 0.824517 1.571175 0.093256 -0.014956 -534761.000000 0 0 1
-25.409628 -25.703185 0.198474 36.143357 0.791141 1.565305 0.105930 -0.044814 114353.000000 0 0 1
-25.066438 -25.075845 1.582074 35.491228 0.785586 1.526205 0.104318 -0.026779 -423904.000000 0 0 1
-25.640908 -25.822055 2.638574 36.485569 0.788918 1.498415 0.083849 -0.025871 -45820.500000 0 0 1
-25.577688 -25.211925 3.898974 36.125632 0.778197 1.462657 0.097265 -0.029904 84267.500000 0 0 1
-26.505798 -24.002405 4.197074 36.004002 0.735875 1.453958 0.110234 -0.030334 -153596.000000 0 0 1
-26.182368 -22.850405 3.496074 34.926779 0.717549 1.470531 0.105021 -0.026251 -418101.000000 0 0 1
-27.240808 -21.949605 3.608574 35.169142 0.678244 1.468009 0.092010 -0.024396 -340212.000000 0 0 1
-27.219838 -20.840005 2.547774 34.376104 0.653422 1.496614 0.085157 -0.020950 147961.000000 0 0 1
-26.023218 -20.101305 2.614374 32.986441 0.657707 1.491457 0.102796 -0.021021 -68224.600000 0 0 1
-25.900798 -19.234405 1.495074 32.296267 0.638760 1.524487 0.091316 -0.018802 252762.000000 0 0 1
-24.614838 -18.367905 1.537074 30.751142 0.641073 1.520791 0.125934 -0.020526 587295.000000 0 0 1
-23.377638 -18.991705 1.244374 30.145435 0.682249 1.529506 0.133293 -0.027820 -378071.000000 0 0 1
-22.288438 -18.205205 1.532374 28.819301 0.684901 1.517599 0.137608 -0.024046 -1235860.000000 0 0 1
-20.971638 -18.945405 1.500974 28.301782 0.734681 1.517737 0.114373 -0.023948 -741177.000000 0 0 1
-20.477438 -19.172005 0.172374 28.052111 0.752486 1.564651 0.091895 -0.018799 -23112.100000 0 0 1
-19.396238 -20.050905 0.306874 27.898871 0.801993 1.559797 0.101202 -0.016795 -406116.000000 0 0 1
-18.821038 -20.629205 -0.983526 27.942134 0.831200 1.606002 0.104185 -0.016516 171891.000000 0 0 1
-18.111838 -19.751505 -1.879026 26.864313 0.828676 1.640799 0.092362 -0.019176 223344.000000 0 0 1
-17.948438 -20.495305 -3.075626 27.416480 0.851551 1.683215 0.091217 -0.014787 -60249.000000 0 0 1
-17.218338 -19.728905 -4.171026 26.516001 0.853244 1.728755 0.084917 -0.000701 218964.000000 0 0 1
-15.866738 -19.386705 -3.940426 25.359902 0.884916 1.726809 0.099966 -0.007030 148601.000000 0 0 1
-15.265438 -18.806005 -5.083626 24.749599 0.888942 1.777671 0.088836 0.003854 -433328.000000 0 1 0
-13.794738 -18.432505 -4.984726 23.556305 0.928325 1.784017 0.104199 -0.011709 -449786.000000 0 1 0
-12.894138 -19.513005 -5.023926 23.921872 0.986868 1.782386 0.081841 -0.010692 -546017.000000 0 1 0
-11.632338 -19.112105 -5.476126 23.034144 1.024050 1.810834 0.079946 -0.019611 -25896.800000 0 1 0
-10.656038 -20.346405 -5.606926 23.642439 1.088345 1.810233 0.079290 -0.023562 405321.000000 0 1 0
-11.009738 -21.386205 -6.535126 24.925728 1.095375 1.836081 0.086953 -0.021417 111363.000000 0 1 0
-9.863238 -22.170405 -6.846626 25.212826 1.152206 1.845803 0.080244 -0.020650 411406.000000 0 0 1
-10.124738 -23.284405 -7.911626 26.594504 1.160630 1.872860 0.100536 -0.015230 -126125.000000 0 0 1
-10.445138 -22.798805 -9.197426 26.711028 1.141190 1.922322 0.095016 -0.015623 -40787.300000 0 0 1
-10.730138 -23.768805 -10.092726 27.963459 1.146747 1.940056 0.117494 -0.016327 -67143.700000 0 0 1
-11.422638 -23.218005 -11.369526 28.263377 1.113591 1.984792 0.146070 -0.020620 -32874.500000 0 0 1
-10.580738 -22.625005 -12.336926 27.857541 1.133356 2.029580 0.135335 -0.016667 261915.000000 0 0 1
-11.391538 -22.174305 -13.427926 28.315651 1.096228 2.064877 0.136300 -0.025864 221010.000000 0 0 1
-10.798738 -20.922405 -14.144026 27.466584 1.094326 2.111750 0.103111 -0.015120 79603.600000 0 0 1
-10.897438 -19.885005 -13.242726 26.259043 1.069472 2.099380 0.108136 -0.015535 20406.600000 0 0 1
-10.889938 -18.655505 -13.956826 25.717923 1.042420 2.144431 0.092309 -0.008612 -202507.000000 0 0 1
-10.699938 -17.432805 -13.115926 24.298536 1.020305 2.140975 0.102834 -0.012875 -39384.400000 0 1 0
-11.787638 -16.922605 -12.353226 24.040074 0.962382 2.110474 0.114458 -0.018909 19318.200000 0 1 0
-11.417038 -15.949005 -11.399626 22.686361 0.949514 2.097270 0.096552 -0.023238 171902.000000 0 1 0
-10.828338 -14.594405 -11.877826 21.710189 0.932466 2.149702 0.092080 -0.019207 176350.000000 0 1 0
-11.823738 -13.816905 -12.506826 22.070984 0.862977 2.173247 0.082539 -0.009758 -45931.400000 0 1 0
-11.567138 -13.756605 -13.904626 22.724028 0.871643 2.229245 0.087313 -0.016579 244346.000000 0 1 0
-12.812638 -13.198005 -14.674926 23.530925 0.800213 2.244192 0.078297 -0.009406 358677.000000 0 1 0
-12.941838 -11.801105 -14.387226 22.666043 0.739327 2.258479 0.069608 0.001271 -434920.000000 0 1 0
-13.971338 -11.222605 -15.127126 23.451547 0.676725 2.271869 0.077094 0.001296 -391551.000000 0 1 0
-14.355438 -9.871505 -14.427326 22.620188 0.602389 2.262445 0.077983 -0.007046 415699.000000 0 1 0
-13.378938 -8.813505 -14.494726 21.604882 0.582509 2.306219 0.069601 -0.010191 453884.000000 0 1 0
-13.395638 -8.090205 -15.701926 22.168559 0.543314 2.357879 0.081161 -0.013494 -363192.000000 0 1 0
-12.271238 -7.068505 -15.801826 21.218971 0.522602 2.410886 0.062101 -0.006981 -967767.000000 0 1 0
-11.053638 -7.632805 -16.143026 21.000950 0.604338 2.447572 0.051607 -0.000530 -460568.000000 0 1 0
-10.054938 -6.610605 -16.179226 20.163561 0.581594 2.502101 0.034167 0.007580 361643.000000 0 1 0
11.490262 21.934495 15.940574 29.449111 1.088256 0.998823 0.100854 -0.018120 -18406.500000 0 0 1
12.588462 22.101895 16.822274 30.495116 1.053056 0.986469 0.116335 -0.022743 -62645.300000 0 0 1
13.047762 20.851795 17.113974 29.965473 1.011666 0.962923 0.094408 -0.020540 -330545.000000 0 0 1
14.277562 20.890795 18.049774 31.081642 0.971273 0.951182 0.106797 -0.029747 -510884.000000 0 0 1
15.404762 21.303295 17.362074 31.505217 0.944724 0.987132 0.088452 -0.023313 -586806.000000 0 0 1
16.592762 21.004295 18.050474 32.284978 0.902201 0.977499 0.087606 -0.028476 805180.000000 0 0 1
17.960662 21.585595 17.546474 33.111963 0.876806 1.012298 0.059076 -0.020315 220226.000000 0 0 1
18.308862 22.866895 18.087674 34.427798 0.895646 1.017635 0.063753 -0.015472 806352.000000 0 0 1
19.594162 23.335495 17.650474 35.213858 0.872329 1.045769 0.052200 -0.010048 1001900.000000 0 0 1
20.897862 22.748595 18.255274 35.881392 0.827776 1.037044 0.056474 -0.013498 -99489.400000 0 0 1
21.123962 21.337295 17.908174 34.960044 0.790422 1.032997 0.060067 -0.011232 121200.000000 0 0 1
22.228662 20.831095 18.625574 35.706582 0.752953 1.022038 0.074307 -0.015606 -109983.000000 0 0 1
22.383562 19.288495 18.509774 34.866627 0.711262 1.011165 0.072891 -0.023398 -164252.000000 0 0 1
22.648762 18.865395 17.136374 34.095819 0.694515 1.044199 0.049036 -0.017182 134296.000000 0 0 1
22.394562 17.493995 16.946074 33.086640 0.663154 1.033084 0.042171 -0.018132 -772357.000000 0 0 1
23.309262 16.478295 17.612774 33.542000 0.615370 1.017968 0.044050 -0.018453 -1124360.000000 0 0 1
24.538362 16.589895 16.987074 34.145520 0.594491 1.050093 0.067348 -0.036033 -589269.000000 0 0 1
25.343662 15.437995 17.121474 34.260441 0.547118 1.047492 0.049301 -0.021002 325760.000000 0 0 1
26.715262 15.381795 16.358274 34.898395 0.522411 1.082932 0.130936 -0.046928 68105.300000 0 0 1
27.707462 16.353295 16.711774 36.254891 0.533192 1.091728 0.117284 -0.041783 327409.000000 0 0 1
28.708462 15.812595 17.510974 37.159766 0.503457 1.080106 0.128677 -0.048365 -478011.000000 0 0 1
29.730762 14.835095 16.881674 37.269146 0.462832 1.100706 0.125842 -0.052638 -1147460.000000 0 0 1
30.561962 15.454295 15.939674 37.774886 0.468174 1.135185 0.164773 -0.041132 -219835.000000 0 0 1
30.966562 14.498195 14.984174 37.331637 0.437876 1.157773 0.165567 -0.054786 388670.000000 0 0 1
30.052062 14.380795 13.688174 36.018049 0.446324 1.180961 0.138897 -0.041922 156001.000000 0 0 1
30.310362 15.417195 12.777974 36.327463 0.470539 1.211363 0.152633 -0.026989 88409.300000 0 0 1
29.636062 15.350295 11.529774 35.310954 0.477912 1.238176 0.134870 -0.033751 -109606.000000 0 0 1
28.212162 15.931595 11.452074 34.364107 0.514064 1.231041 0.115782 -0.032583 -463041.000000 0 0 1
28.050762 17.334495 11.389974 34.886409 0.553527 1.238211 0.112068 -0.024435 60175.600000 0 0 1
28.570462 18.104895 12.461574 36.046489 0.564826 1.217803 0.112482 -0.029829 -494119.000000 0 0 1
27.824662 18.042295 13.813674 35.924279 0.575269 1.176106 0.105313 -0.032995 148351.000000 0 0 1
26.570362 18.702195 13.682874 35.255883 0.613321 1.172225 0.099209 -0.015392 879843.000000 0 0 1
25.585762 18.652995 14.707374 34.912352 0.629950 1.135956 0.088335 -0.023596 134223.000000 0 0 1
26.017262 19.388095 16.008974 36.181258 0.640423 1.112450 0.100768 -0.026218 -374383.000000 0 0 1
26.206762 20.781495 15.820274 36.999271 0.670447 1.128979 0.070197 -0.006324 289270.000000 0 0 1
25.302362 21.652995 16.499074 37.165592 0.707834 1.110812 0.062864 -0.003620 67811.000000 0 0 1
25.651162 23.158895 16.237674 38.183486 0.734382 1.131554 0.056755 0.000534 101807.000000 0 0 1
25.275562 23.472395 14.890474 37.570382 0.748425 1.163274 0.085329 -0.015966 307947.000000 0 0 1
25.506062 24.853795 14.566074 38.476498 0.772447 1.182545 0.083433 -0.018291 -234172.000000 0 0 1
25.316662 25.192095 13.045574 38.023178 0.782932 1.220586 0.082773 -0.025140 -220282.000000 0 0 1
23.968262 25.248995 12.654274 37.042138 0.811414 1.222158 0.087650 -0.011059 -242859.000000 0 0 1
23.756562 25.671495 11.339774 36.769422 0.824121 1.257283 0.084627 -0.028509 -163019.000000 0 0 1
22.937062 24.680295 10.512174 35.294923 0.821991 1.268369 0.085855 -0.028511 -127031.000000 0 0 1
21.562862 24.571595 10.861074 34.448269 0.850523 1.250038 0.092679 -0.027744 166892.000000 0 0 1
21.097362 23.244195 10.688974 33.160903 0.833776 1.242599 0.084108 -0.021495 35982.100000 0 0 1
20.692662 22.704195 9.265674 32.086126 0.831717 1.277849 0.100444 -0.016453 -451948.000000 0 0 1
19.604262 23.345995 8.663874 31.692670 0.872297 1.293900 0.101257 -0.014431 -277005.000000 0 0 1
19.676862 23.372295 7.215774 31.392842 0.871030 1.338869 0.093961 -0.026725 -241336.000000 0 0 1
18.419562 23.687295 6.385974 30.678150 0.909855 1.361103 0.082865 -0.022495 -792945.000000 0 0 1
17.551762 22.629095 6.126374 29.286051 0.911094 1.360049 0.103343 -0.013688 297916.000000 0 0 1
16.853862 22.669295 4.892574 28.668570 0.931490 1.399297 0.117571 -0.027011 216814.000000 0 0 1
15.585562 23.563295 4.755474 28.648790 0.986425 1.404032 0.081805 -0.019487 -87252.600000 0 0 1
15.847662 24.932195 4.665874 29.908747 1.004589 1.414153 0.101908 -0.026318 670315.000000 0 0 1
14.739462 25.681295 5.194674 30.062690 1.049761 1.397130 0.082618 -0.025999 467837.000000 0 0 1
14.619262 27.135595 4.606974 31.165487 1.076632 1.422430 0.082092 -0.025158 -220518.000000 0 0 1
14.146462 27.199495 3.284474 30.833792 1.091198 1.464072 0.071742 -0.021335 295131.000000 0 0 1
14.111062 28.534595 2.832974 31.958895 1.111539 1.482036 0.073758 -0.022083 -105435.000000 0 0 1
13.604762 28.542495 1.382774 31.649260 1.126003 1.527092 0.084106 -0.031439 -425629.000000 0 0 1
14.512862 28.058895 0.432774 31.592912 1.093461 1.557097 0.107075 -0.032172 -176504.000000 0 0 1
14.580462 26.650595 0.295074 30.379782 1.070185 1.561083 0.085263 -0.025980 108923.000000 0 0 1
15.775562 26.411295 -0.648826 30.770861 1.032362 1.591884 0.087613 -0.026514 232137.000000 0 0 1
15.469562 26.963295 -1.885026 31.142896 1.049920 1.631362 0.076336 -0.022429 -365985.000000 0 0 1
16.606162 26.952595 -2.687526 31.771525 1.018605 1.655487 0.065667 -0.013784 -275529.000000 0 0 1
16.290962 27.326595 -4.161226 32.085107 1.033207 1.700856 0.074616 -0.016283 -178626.000000 0 0 1
15.283262 26.500595 -4.717726 30.953459 1.047675 1.723806 0.094643 -0.025805 -102218.000000 0 0 1
15.116462 27.110095 -6.027626 31.619566 1.062140 1.762600 0.091525 -0.023508 474762.000000 0 0 1
13.809762 26.632395 -6.731926 30.745940 1.092433 1.791538 0.106365 -0.037092 336828.000000 0 0 1
13.761062 25.276495 -7.112426 29.645483 1.072246 1.813076 0.091001 -0.037334 1254270.000000 0 0 1
12.403962 25.119495 -7.637326 29.037494 1.112122 1.836943 0.085767 -0.031715 1657440.000000 0 0 1
12.035162 23.720195 -8.132626 27.814248 1.101262 1.867522 0.080342 -0.030326 541282.000000 0 0 1
12.849462 23.373795 -9.293326 28.245511 1.068154 1.906061 0.073996 -0.033149 637597.000000 0 0 1
12.590562 22.034495 -9.714326 27.173689 1.051670 1.936375 0.074670 -0.025181 -394745.000000 0 0 1
12.841962 21.814695 -11.240026 27.697204 1.038739 1.988670 0.081469 -0.020507 82485.500000 0 0 1
12.444562 20.474295 -11.532226 26.590527 1.024651 2.019388 0.088619 -0.026761 -139134.000000 0 0 1
12.591362 20.230795 -12.911926 27.102496 1.014079 2.067364 0.085674 -0.025340 819808.000000 0 0 1
13.986462 19.617595 -13.322526 27.531089 0.951429 2.075912 0.061375 -0.018860 846219.000000 0 0 1
14.996662 20.599095 -13.358626 28.769350 0.941508 2.053680 0.048507 -0.009689 -831844.000000 0 0 1
16.256162 20.026695 -13.567826 29.144763 0.888947 2.055032 0.061673 -0.001838 89601.700000 0 0 1
17.417662 21.029895 -13.322326 30.382821 0.879075 2.024705 0.066322 -0.000865 -9087.140000 0 0 1
17.497462 22.089395 -14.281126 31.591979 0.900878 2.039858 0.062642 -0.006936 105325.000000 0 0 1
16.480262 23.091095 -14.203326 31.725891 0.950931 2.034975 0.058590 -0.005079 213412.000000 0 0 1
16.868762 24.381795 -14.945226 33.202212 0.965555 2.037704 0.067666 -0.008050 783.587000 0 0 1
16.886862 24.257495 -16.368926 33.786594 0.962659 2.076565 0.068815 -0.012548 -585948.000000 0 0 1
15.702362 24.651195 -17.002526 33.813185 1.003627 2.097674 0.056867 0.000517 -302754.000000 0 0 1
15.786762 24.592495 -18.537226 34.606956 1.000112 2.136074 0.055901 0.006159 182508.000000 0 0 1
15.905162 23.286095 -19.085326 34.050934 0.971549 2.165778 0.065295 0.005874 -97574.000000 0 0 1
16.184562 23.236795 -20.482126 34.948622 0.962419 2.196989 0.052842 0.007607 -209393.000000 0 0 1
16.556762 21.850195 -21.041126 34.558449 0.922360 2.225414 0.059652 0.005527 318185.000000 0 0 1
15.581362 20.802295 -20.908326 33.356745 0.927922 2.248248 0.054687 0.004137 150693.000000 0 0 1
16.020162 19.644195 -21.662126 33.343481 0.886666 2.277941 0.053380 0.003045 6448.830000 0 0 1
15.052662 18.459595 -21.739526 32.248198 0.886712 2.310585 0.045902 0.007066 -480204.000000 0 0 1
14.720162 17.807495 -20.501026 30.888220 0.880029 2.296573 0.045831 0.006111 -278774.000000 0 0 1
13.822762 16.769495 -20.697326 30.011065 0.881425 2.331811 0.041250 0.000481 918953.000000 0 0 1
12.293662 17.178395 -20.673726 29.557306 0.949646 2.345418 0.054734 -0.005526 840253.000000 0 0 1
11.549262 17.028695 -19.471726 28.328608 0.974835 2.328633 0.056477 -0.012929 -1312570.000000 0 0 1
10.302162 17.545695 -19.645326 28.282942 1.039870 2.338660 0.065220 -0.017289 -1345750.000000 0 0 1
9.240362 17.056295 -18.652326 26.911164 1.074304 2.336587 0.081706 -0.022435 -498659.000000 0 0 1
9.205762 15.633295 -18.719026 26.068140 1.038611 2.371837 0.096297 -0.036732 1691370.000000 0 0 1
7.864362 15.035995 -18.573226 25.157386 1.088890 2.401315 0.103078 -0.032276 2193150.000000 0 0 1
7.137962 15.101795 -17.195126 23.972632 1.129262 2.370689 0.103209 -0.038018 113463.000000 0 1 0
6.953362 16.414095 -16.746126 24.458219 1.170094 2.324965 0.113573 -0.039351 -439570.000000 0 1 0
6.518162 16.594895 -15.421126 23.573038 1.196529 2.283901 0.101090 -0.049217 -224329.000000 0 1 0
6.159062 18.011295 -14.855426 24.145900 1.241306 2.233482 0.088084 -0.044941 -342276.000000 0 1 0
7.201162 18.911195 -14.601426 24.953791 1.206961 2.195847 0.084901 -0.045907 -348957.000000 0 1 0
7.917262 19.362195 -15.777026 26.200996 1.182638 2.216992 0.100610 -0.035236 1489380.000000 0 0 1
9.172862 20.342795 -15.505426 27.173313 1.147182 2.178048 0.086439 -0.016856 1263590.000000 0 0 1
8.925962 21.592695 -14.965226 27.746626 1.178810 2.140465 0.080940 -0.020204 -280246.000000 0 0 1
8.804762 21.602495 -13.555726 26.980536 1.183772 2.097199 0.078834 -0.027867 -57891.700000 0 0 1
8.527362 22.999195 -12.965726 27.745070 1.215741 2.057049 0.086487 -0.028807 -247262.000000 0 0 1
7.288962 23.487995 -13.449826 28.030567 1.269892 2.071254 0.071639 -0.024673 221809.000000 0 0 1
6.484462 24.241495 -12.545026 28.054875 1.309421 2.034384 0.056363 -0.029472 486970.000000 0 0 1
5.908062 23.500295 -11.263926 26.721622 1.324497 2.005927 0.054739 -0.024939 -380740.000000 0 0 1
6.812862 23.367395 -10.179526 26.383195 1.287106 1.966908 0.052460 -0.021951 -309262.000000 0 0 1
6.139762 22.905095 -9.080826 25.392941 1.308901 1.936506 0.062690 -0.025765 128576.000000 0 0 1
7.014862 22.909595 -7.771526 25.188380 1.273663 1.884450 0.043507 -0.028149 346829.000000 0 0 1
7.362262 24.172395 -7.211026 26.277490 1.275149 1.848781 0.046101 -0.026431 -72338.000000 0 0 1
8.401862 23.875895 -6.312926 26.086447 1.232432 1.815223 0.059795 -0.027055 -144692.000000 0 0 1
8.822362 25.070595 -5.460726 27.132791 1.232429 1.773440 0.055180 -0.027172 121160.000000 0 0 1
9.435962 26.099195 -6.230226 28.443296 1.223876 1.791627 0.071455 -0.028131 17614.500000 0 0 1
9.904262 27.173395 -5.463126 29.433545 1.221277 1.757488 0.076248 -0.023996 126892.000000 0 0 1
10.173562 28.502895 -6.244426 30.901606 1.227960 1.774272 0.084644 -0.026584 -17356.900000 0 0 1
11.328662 28.557195 -7.026926 31.515547 1.193137 1.795653 0.089567 -0.031475 -884478.000000 0 0 1
11.504362 29.849195 -7.552526 32.868913 1.202925 1.802645 0.095150 -0.032147 -190039.000000 0 0 1
12.728662 29.924695 -8.496426 33.610943 1.168624 1.826357 0.093929 -0.033831 -51239.400000 0 0 1
13.877062 30.055995 -7.679426 33.983956 1.138250 1.798737 0.082154 -0.026793 -976850.000000 0 0 1
14.907262 30.417895 -8.564426 34.940295 1.115115 1.818436 0.073187 -0.024630 -156779.000000 0 0 1
16.231562 30.788395 -7.851326 35.679577 1.085628 1.792663 0.056358 -0.016987 56199.900000 0 0 1
16.921362 29.747795 -7.217926 34.976596 1.053613 1.778654 0.058817 -0.018089 -163603.000000 0 0 1
18.181862 30.229895 -6.803626 35.926536 1.029309 1.761323 0.047015 -0.002368 -251416.000000 0 0 1
19.264362 29.236895 -6.467726 35.605381 0.988186 1.753461 0.039492 -0.000984 -636065.000000 0 0 1
18.972062 28.432695 -5.329226 34.594190 0.982382 1.725462 0.053611 -0.005224 -23894.200000 0 0 1
20.013462 27.527195 -4.998426 34.398683 0.942150 1.716621 0.051873 -0.002623 -92287.300000 0 0 1
20.213662 26.294195 -5.977926 33.700333 0.915403 1.749125 0.053622 0.001546 -184925.000000 0 0 1
20.734462 26.531395 -7.234626 34.440858 0.907434 1.782432 0.048835 0.005616 700.634000 0 0 1
20.588562 25.403995 -8.064326 33.679151 0.889718 1.812591 0.052945 -0.004639 -469023.000000 0 0 1
21.058762 25.506695 -9.546126 34.426610 0.880629 1.851768 0.055155 -0.007303 1015810.000000 0 0 1
22.482962 25.648595 -9.678326 35.454253 0.851074 1.847286 0.045535 0.000936 646389.000000 0 0 1
23.204462 24.439395 -9.698526 35.068398 0.811312 1.851009 0.064234 -0.005353 458697.000000 0 0 1
24.736562 24.711195 -9.501026 36.232722 0.784885 1.836121 0.035347 0.001156 758452.000000 0 0 1
25.470362 25.013595 -10.673726 37.260538 0.776351 1.861328 0.053689 -0.004639 -355765.000000 0 0 1
26.820562 25.205595 -10.340826 38.230842 0.754367 1.844692 0.046126 0.002183 -54455.800000 0 0 1
27.771662 25.438595 -11.544526 39.391159 0.741580 1.868237 0.051336 -0.004490 -123269.000000 0 0 1
27.582462 26.552995 -12.415726 40.249274 0.766384 1.884381 0.044774 -0.003774 -307932.000000 0 0 1
28.495662 26.604695 -13.483126 41.250543 0.751093 1.903775 0.048536 -0.014146 -91539.400000 0 0 1
28.198762 27.725795 -14.507726 42.123201 0.776941 1.922408 0.056944 -0.019637 -84867.200000 0 0 1
28.685662 28.955295 -14.134826 43.140116 0.790076 1.904611 0.062506 -0.021826 -77343.500000 0 0 1
28.619462 29.836495 -15.246726 44.065323 0.806215 1.924104 0.068020 -0.023149 -241099.000000 0 0 1
29.069362 31.275895 -14.887926 45.220126 0.821947 1.906287 0.068376 -0.029782 22629.900000 0 0 1
30.325062 31.393595 -14.255626 45.917209 0.802709 1.886477 0.059900 -0.029923 -119404.000000 0 0 1
30.762962 32.703595 -14.271126 47.112101 0.815966 1.878550 0.068570 -0.029987 -203486.000000 0 0 1
16.021862 -31.952176 -27.972622 45.388426 -1.106003 2.234825 0.102268 -0.051383 -148769.000000 0 0 1
16.959462 -32.843176 -27.390852 46.006047 -1.094133 2.208529 0.082994 -0.038783 38552.100000 0 0 1
17.375462 -32.229176 -26.220322 45.034784 -1.076343 2.192258 0.081795 -0.041776 -437811.000000 0 0 1
18.668462 -32.772876 -25.542122 45.551870 -1.053006 2.166059 0.033212 -0.034971 1086830.000000 0 0 1
19.923462 -32.600076 -26.225542 46.341001 -1.022220 2.172351 0.064149 -0.033140 960827.000000 0 0 1
20.127262 -33.083476 -27.556062 47.528514 -1.024239 2.189254 0.072346 -0.028838 -1129450.000000 0 0 1
21.587362 -32.948676 -28.007362 48.332616 -0.990787 2.188876 0.072750 -0.026934 -329006.000000 0 0 1
21.987262 -31.580676 -28.257232 47.741491 -0.962608 2.204186 0.070817 -0.028551 -871375.000000 0 0 1
23.359562 -31.633176 -28.121132 48.343821 -0.934727 2.191602 0.048657 -0.024083 -1347780.000000 0 0 1
23.971262 -30.270976 -28.428142 47.949063 -0.901021 2.205429 0.031171 -0.022147 -270643.000000 0 0 1
24.297762 -30.240576 -29.816852 48.927685 -0.893936 2.226108 0.029661 -0.026567 3012.190000 0 0 1
24.889862 -29.047376 -30.258602 48.773336 -0.862327 2.240039 0.027975 -0.022918 -25802.800000 0 0 1
25.289762 -29.014776 -31.745002 49.891627 -0.853886 2.260462 0.028296 -0.023070 445599.000000 0 0 1
26.446762 -29.807976 -31.990362 51.101174 -0.845077 2.247235 0.028182 -0.030867 57812.500000 0 0 1
26.556062 -30.069276 -33.377852 52.186845 -0.847362 2.264753 0.026245 -0.032475 -74364.700000 0 0 1
27.776162 -30.906076 -33.784442 53.554545 -0.838684 2.253434 0.027822 -0.033466 -386970.000000 0 0 1
28.978262 -30.219976 -33.916962 53.882715 -0.806371 2.251653 0.034698 -0.033868 -945291.000000 0 0 1
30.014062 -31.078976 33.662443 54.771405 -0.802827 0.908919 0.037748 -0.015967 741983.000000 0 0 1
31.351862 -30.230376 33.550331 54.976719 -0.767189 0.914402 0.036695 -0.020511 661507.000000 0 0 1
31.327062 -29.245476 32.531596 53.805088 -0.751047 0.921508 0.042675 -0.015208 723435.000000 0 0 1
32.520062 -28.436476 32.456510 54.033440 -0.718506 0.926452 0.035891 -0.020463 687701.000000 0 0 1
32.686262 -27.724776 31.098064 52.954174 -0.703453 0.943122 0.036193 -0.023078 544952.000000 0 0 1
33.931262 -26.988376 31.003044 53.300017 -0.671920 0.950016 0.034157 -0.025841 967812.000000 0 0 1
34.026262 -25.988276 30.023194 52.293109 -0.652257 0.959252 0.050008 -0.022439 -83040.900000 0 0 1
34.650662 -26.539476 28.653454 52.211422 -0.653609 0.989872 0.048488 -0.010570 163833.000000 0 0 1
33.945162 -27.585376 27.977954 51.922952 -0.682404 1.001742 0.038691 -0.023685 413706.000000 0 0 1
32.780362 -27.157376 27.287064 50.563417 -0.691858 1.000763 0.057071 -0.030115 -99518.800000 0 0 1
32.088762 -28.362976 26.607584 50.419348 -0.723844 1.014876 0.061123 -0.026036 598721.000000 0 0 1
30.854662 -27.903776 26.008714 49.062044 -0.735220 1.012056 0.070587 -0.024147 737142.000000 0 0 1
30.160062 -28.927576 25.352404 48.879223 -0.764543 1.025496 0.059489 -0.011524 774853.000000 0 0 1
28.810762 -28.476776 24.684344 47.437366 -0.779568 1.023528 0.067283 -0.012926 1649340.000000 0 0 1
27.667662 -28.198576 25.522964 47.032764 -0.794901 0.997191 0.066720 -0.018005 618004.000000 0 0 1
26.535562 -27.794176 24.806054 45.738306 -0.808560 0.997568 0.073618 -0.006951 -182629.000000 0 0 1
25.251562 -27.754276 25.642964 45.447804 -0.832579 0.971297 0.083318 -0.010412 -182949.000000 0 0 1
25.234462 -26.628076 26.479024 45.243466 -0.812263 0.945600 0.066714 -0.010514 295605.000000 0 0 1
24.078962 -26.744176 27.285874 45.161558 -0.837791 0.922055 0.063876 -0.015900 -42238.400000 0 0 1
24.074762 -25.690376 28.407574 45.239141 -0.817852 0.891890 0.054247 -0.005721 36009.900000 0 0 1
22.854162 -25.552876 29.136124 44.990843 -0.841091 0.866364 0.052927 -0.004539 465990.000000 0 0 1
22.894762 -24.462776 30.040054 45.000027 -0.818496 0.839874 0.043261 0.002513 24000.200000 0 0 1
22.371862 -23.076676 29.449794 43.592701 -0.800905 0.829063 0.052525 -0.004241 129369.000000 0 0 1
23.255462 -22.582476 28.435054 43.120031 -0.770717 0.850723 0.073372 -0.008317 610774.000000 0 0 1
22.906962 -21.217376 28.129974 42.026199 -0.747125 0.837471 0.076378 -0.006766 120529.000000 0 0 1
23.666662 -20.152876 28.978694 42.497224 -0.705382 0.820444 0.078660 -0.009255 -95622.700000 0 0 1
23.301362 -20.076876 30.321024 43.190265 -0.711200 0.792547 0.071298 -0.007431 66551.700000 0 0 1
23.986662 -19.000576 30.949884 43.523295 -0.669924 0.779719 0.079316 -0.016038 36351.700000 0 0 1
23.496762 -18.629876 32.387532 44.137539 -0.670378 0.746917 0.096092 -0.028617 -154349.000000 0 0 1
23.764562 -19.703476 33.281983 45.394623 -0.692242 0.747824 0.065380 -0.024349 157784.000000 0 0 1
23.073362 -19.443376 -33.509142 45.091990 -0.700227 2.408530 0.082709 -0.022867 -391135.000000 0 0 1
23.142962 -20.656676 -32.581832 44.987451 -0.728694 2.380732 0.047020 -0.016232 -205652.000000 0 0 1
24.303762 -20.817176 -31.807442 45.119187 -0.708279 2.353170 0.043279 -0.009817 -280085.000000 0 0 1
24.230562 -21.985676 -30.999712 45.071857 -0.736863 2.329229 0.046078 -0.007346 -108663.000000 0 0 1
25.417962 -22.143376 -30.039292 45.152641 -0.716657 2.298669 0.026322 -0.003570 479526.000000 0 0 1
26.627962 -22.610476 -30.635532 46.463080 -0.703986 2.290753 0.011172 -0.004146 -102831.000000 0 0 1
27.531762 -23.130276 -29.702682 46.639650 -0.698736 2.261208 0.018823 -0.010257 -16893.200000 0 0 1
28.619462 -23.974376 -30.408752 48.151184 -0.697307 2.254317 0.013753 -0.004657 -325228.000000 0 0 1
29.540762 -23.275176 -31.238502 48.890024 -0.667319 2.263935 0.015337 -0.003892 263065.000000 0 0 1
29.145962 -23.156676 -32.619342 49.494851 -0.671383 2.290345 0.020928 0.001621 -55917.000000 0 0 1
29.539362 -24.408476 -33.419192 50.844764 -0.690575 2.287999 0.021294 -0.004470 -221734.000000 0 0 1
28.769462 -25.519776 -33.018032 50.686600 -0.725611 2.280245 0.029205 -0.015869 12068.700000 0 0 1
28.905162 -26.727676 -33.772212 51.869446 -0.746278 2.279830 0.030769 -0.018427 -318393.000000 0 0 1
28.390162 -26.738276 32.784835 50.948819 -0.755443 0.871753 0.032520 -0.023428 61137.000000 0 0 1
29.325962 -26.285476 31.786034 50.609192 -0.730779 0.891728 0.029797 -0.021470 354967.000000 0 0 1
28.839462 -26.376076 30.475454 49.559714 -0.740814 0.908507 0.035911 -0.017525 -396590.000000 0 0 1
29.846362 -25.753676 29.471944 49.220450 -0.711921 0.928826 0.050238 -0.022662 -62333.000000 0 0 1
30.080662 -24.326676 29.490584 48.644917 -0.680032 0.919470 0.047936 -0.026803 183541.000000 0 0 1
30.469562 -23.751476 30.760384 49.383480 -0.662125 0.898367 0.038533 -0.018376 -974353.000000 0 0 1
31.023562 -22.296476 30.641014 48.974136 -0.623163 0.894823 0.032456 -0.016003 960913.000000 0 0 1
32.363762 -22.052976 30.204114 49.457410 -0.598140 0.913840 0.044753 -0.022534 1035000.000000 0 0 1
33.371862 -22.489976 31.124064 50.874233 -0.593008 0.912482 0.041243 -0.025820 1078090.000000 0 0 1
34.879362 -22.240776 30.692764 51.509881 -0.567643 0.932458 0.033685 -0.031131 1240720.000000 0 0 1
35.228962 -22.733876 29.412684 51.215378 -0.573077 0.959055 0.052097 -0.035067 836391.000000 0 0 1
36.428462 -22.063976 28.957284 51.501225 -0.544585 0.973675 0.039206 -0.033710 729398.000000 0 0 1
36.883762 -22.468376 27.535774 51.219710 -0.547133 1.003207 0.050010 -0.027881 -46525.800000 0 0 1
-36.485548 -23.731176 27.529864 51.500072 0.576675 1.006810 0.046434 -0.018576 492335.000000 0 0 1
-35.942348 -24.022576 26.234964 50.568863 0.589177 1.025353 0.036644 -0.007343 82106.100000 0 0 1
-35.806148 -25.522476 25.892554 51.028437 0.619262 1.038615 0.040383 -0.004916 -198741.000000 0 0 1
36.946762 -26.067276 25.770754 52.045153 -0.614432 1.052776 0.049448 -0.008862 -66331.100000 0 0 1
36.902062 -27.439376 25.384454 52.526680 -0.639375 1.066413 0.043919 -0.000514 114373.000000 0 0 1
-36.554348 -28.526276 26.338804 53.326367 0.662662 1.054207 0.045315 -0.008868 -382979.000000 0 0 1
-36.123248 -29.725176 25.696014 53.373779 0.688539 1.068505 0.050096 -0.002770 481278.000000 0 0 1
-35.000948 -30.286076 26.353624 53.261865 0.713306 1.053199 0.050586 -0.013600 277835.000000 0 0 1
-33.590348 -29.744276 26.100764 51.906487 0.724746 1.043913 0.047083 -0.007698 -707604.000000 0 0 1
-33.029248 -29.990976 24.857484 51.071366 0.737224 1.062465 0.047211 -0.008175 -320622.000000 0 0 1
-31.815848 -29.358076 24.604784 49.794982 0.745243 1.053972 0.029960 -0.000589 -589913.000000 0 0 1
-31.339948 -29.460776 23.185214 48.863932 0.754501 1.076417 0.033820 -0.008899 -525912.000000 0 0 1
-31.205948 -30.769976 22.741374 49.373806 0.778364 1.092130 0.047404 -0.015602 475196.000000 0 0 1
-30.667748 -30.678176 21.442674 48.388527 0.785568 1.111703 0.048372 -0.009560 -456562.000000 0 0 1
-30.703748 -32.046076 20.620174 48.937335 0.806787 1.135853 0.073050 -0.011434 253443.000000 0 0 1
-29.839348 -33.075776 21.121274 49.300121 0.836794 1.128050 0.087681 -0.030879 976960.000000 0 0 1
-28.473648 -32.909676 20.678174 48.180725 0.857540 1.127212 0.100805 -0.027927 1173800.000000 0 0 1
-27.587748 33.890395 20.998274 48.482680 -0.887560 1.122857 0.103997 -0.024255 352656.000000 0 0 1
-27.894448 32.772495 20.169874 47.528523 -0.865633 1.132526 0.101663 -0.017597 -237203.000000 0 0 1
-29.069348 32.041395 20.384974 47.824943 -0.833994 1.130462 0.114938 -0.020943 -234319.000000 0 0 1
-28.934048 30.951895 21.467974 47.498136 -0.819080 1.101818 0.116458 -0.024176 -288258.000000 0 0 1
-28.070848 29.944295 21.069174 46.136140 -0.817679 1.096543 0.098876 -0.020529 -473274.000000 0 0 1
-27.989648 28.912995 21.965374 45.846040 -0.801624 1.071154 0.093968 -0.020728 74012.000000 0 0 1
-26.823448 28.019595 21.468774 44.333998 -0.807205 1.065290 0.091429 -0.022183 959226.000000 0 0 1
-25.490248 28.554695 21.505674 43.904640 -0.842039 1.058905 0.095739 -0.017615 771868.000000 0 0 1
-24.571448 27.587795 21.009674 42.499987 -0.843163 1.053715 0.084076 -0.016088 1520020.000000 0 0 1
-23.050948 28.032995 21.201974 42.032354 -0.882617 1.042086 0.070664 -0.011914 1132190.000000 0 0 1
-22.692248 28.187895 22.531174 42.628035 -0.892993 1.013901 0.075543 -0.018420 1110040.000000 0 0 1
-21.328648 28.661695 22.555374 42.251023 -0.931049 1.007659 0.074535 -0.013862 652770.000000 0 0 1
-20.735848 28.696095 23.932494 42.734127 -0.945062 0.976371 0.067466 -0.009640 -738489.000000 0 0 1
-20.675848 27.350495 24.473694 42.124838 -0.923492 0.950864 0.074402 -0.028210 413731.000000 0 0 1
-20.264748 27.230595 25.863354 42.674096 -0.931024 0.919690 0.078320 -0.024566 393623.000000 0 0 1
-18.841548 27.709295 26.292384 42.592235 -0.973639 0.905484 0.087740 -0.021141 -173432.000000 0 0 1
-18.543748 29.073595 26.102304 43.248987 -1.003031 0.922868 0.064242 -0.016667 788190.000000 0 0 1
-17.324148 29.607395 26.677604 43.455938 -1.041383 0.909804 0.074474 -0.019098 812993.000000 0 0 1
-17.390148 29.754195 28.219704 44.543025 -1.041881 0.884679 0.066197 -0.011720 -330136.000000 0 0 1
-17.237748 28.502495 28.851974 44.067773 -1.026869 0.856987 0.067303 -0.010706 217794.000000 0 0 1
-17.660548 28.536395 30.184574 45.136785 -1.016611 0.838289 0.070886 -0.006877 -231762.000000 0 0 1
-17.341648 27.259995 30.976804 44.759385 -1.004214 0.806438 0.062613 -0.002853 -527927.000000 0 0 1
-15.973348 27.098195 31.233124 44.327961 -1.038162 0.788948 0.054054 0.002298 -115788.000000 0 0 1
-15.696148 25.948495 32.014082 44.097562 -1.026784 0.758334 0.057283 -0.001109 -210638.000000 0 0 1
-15.924748 26.032595 33.562633 45.362363 -1.021801 0.737907 0.064142 0.002401 -272122.000000 0 0 1
-17.253948 25.761195 33.943951 45.973142 -0.980652 0.740186 0.064831 0.004436 -391386.000000 0 0 1
-17.725848 26.772395 -33.240152 46.215523 -0.985966 2.373507 0.065733 0.000387 49511.300000 0 0 1
-19.117848 26.459195 -32.598922 46.133186 -0.945102 2.355515 0.036633 0.003933 -583135.000000 0 0 1
-20.087448 26.510995 -33.554522 47.246634 -0.922384 2.360577 0.025884 0.006205 -839667.000000 0 0 1
-21.158248 25.702695 -33.062022 46.919051 -0.882073 2.352741 0.029151 0.002516 -627235.000000 0 0 1
-22.468048 25.780895 -33.836012 48.107624 -0.853952 2.350881 0.072556 -0.017375 -677843.000000 0 0 1
-22.548248 24.977695 32.989418 47.123354 -0.836472 0.795308 0.086960 -0.019081 -25667.100000 0 0 1
-22.677148 23.626895 33.382120 46.763759 -0.805906 0.775822 0.080524 -0.023418 -463582.000000 0 0 1
-23.086048 22.782495 32.147208 45.666735 -0.778780 0.789849 0.095817 -0.026871 -1401250.000000 0 0 1
-24.415148 22.824195 31.873684 46.184143 -0.751732 0.809109 0.104254 -0.033211 -1599830.000000 0 0 1
-24.783548 22.298995 30.571684 45.233807 -0.732677 0.828667 0.114997 -0.031286 678858.000000 0 0 1
-26.314348 22.181095 30.272634 45.835339 -0.700374 0.849359 0.100087 -0.029658 628594.000000 0 0 1
-26.857048 21.068595 30.958054 46.082403 -0.665201 0.834163 0.111311 -0.037150 -293824.000000 0 0 1
-28.039048 20.667495 30.311644 46.174986 -0.635192 0.854691 0.101598 -0.033157 -227565.000000 0 0 1
-28.489648 19.201795 30.714434 46.084113 -0.593057 0.841311 0.125791 -0.038367 -132398.000000 0 0 1
-29.109148 19.189095 32.017195 47.335660 -0.582824 0.827951 0.126890 -0.035033 177923.000000 0 0 1
-29.462748 17.945895 32.580237 47.450822 -0.547087 0.813980 0.104524 -0.024262 280792.000000 0 0 1
-30.427748 17.002295 31.798574 47.181302 -0.509556 0.831233 0.081093 -0.028476 31758.500000 0 0 1
-31.771948 17.408795 31.702634 48.141249 -0.501252 0.851928 0.093193 -0.028283 108765.000000 0 0 1
-32.606648 16.387695 31.207204 48.017077 -0.465716 0.863319 0.095303 -0.015661 121958.000000 0 0 1
-34.139048 16.537795 31.238304 49.140665 -0.451110 0.881892 0.070332 -0.012662 -111322.000000 0 0 1
-34.726448 16.790195 32.515579 50.448982 -0.450360 0.870396 0.096499 -0.012991 306755.000000 0 0 1
-36.136248 16.670295 32.445730 51.346398 -0.432226 0.886796 0.076114 -0.014336 -153195.000000 0 0 1
-36.657448 17.263095 33.739171 52.726792 -0.440122 0.876446 0.081779 -0.008941 -641190.000000 0 0 1
35.986162 17.256595 33.819427 52.312022 0.447141 0.867816 0.052862 -0.008942 -508128.000000 0 0 1
35.580862 17.750395 -32.904342 51.611724 0.462747 2.262092 0.040868 -0.009877 247061.000000 0 0 1
34.050962 17.890595 -32.699502 50.485630 0.483766 2.275357 0.035401 -0.005768 184927.000000 0 0 1
33.449262 16.605195 -32.562472 49.546950 0.460787 2.287900 0.034291 0.003516 -1407650.000000 0 0 1
32.134562 16.835795 -32.259932 48.546651 0.482596 2.297640 0.029206 0.005971 -1594340.000000 0 0 1
31.326762 15.541895 -32.386322 47.663303 0.460540 2.317852 0.014107 0.014069 -462770.000000 0 0 1
31.089862 15.293895 -33.768752 48.381933 0.457167 2.343344 0.025429 0.006805 -157334.000000 0 0 1
30.295662 14.151195 -33.944412 47.647735 0.436985 2.363714 0.023867 0.002269 222524.000000 0 0 1
31.112062 12.776895 -33.862222 47.726927 0.389674 2.359584 0.023728 -0.000517 553295.000000 0 0 1
31.671562 12.415095 -32.618022 47.129161 0.373587 2.335189 0.022758 0.006905 -174812.000000 0 0 1
32.498562 11.321595 -32.836512 47.566497 0.335224 2.332739 0.049917 -0.001973 -477100.000000 0 0 1
17.753662 -20.915705 9.753008 29.116668 -0.866988 1.229230 0.038669 -0.024753 -193154.000000 0 0 1
17.677862 -22.166605 10.496608 30.233160 -0.897582 1.216225 0.038942 -0.022593 -270536.000000 0 0 1
18.914762 -22.687105 10.877208 31.476763 -0.875828 1.217958 0.035371 -0.018876 -413341.000000 0 0 1
18.661962 -23.993605 11.685508 32.565518 -0.909746 1.203781 0.037263 -0.019080 423169.000000 0 0 1
17.971462 -25.048365 10.986608 32.727658 -0.948441 1.228450 0.042868 -0.020125 498504.000000 0 0 1
16.667762 -25.352525 11.467608 32.435641 -0.989209 1.209433 0.057826 -0.013258 352536.000000 0 0 1
15.882462 -26.266255 10.510208 32.444309 -1.026949 1.240899 0.082754 -0.008920 -60541.000000 0 0 1
15.523462 -25.734815 9.267808 31.450768 -1.028021 1.271679 0.080320 -0.020055 289840.000000 0 0 1
14.789762 -26.605635 8.420308 31.583199 -1.063444 1.300925 0.091330 -0.012426 93261.800000 0 0 1
14.677062 -26.039605 7.016808 30.703628 -1.057538 1.340225 0.095814 -0.021098 -61613.900000 0 0 1
13.957662 -24.822105 7.028308 29.331729 -1.058553 1.328828 0.094220 -0.029372 198527.000000 0 0 1
13.504362 -24.377905 5.729108 28.451234 -1.064919 1.368044 0.096065 -0.016586 -40728.700000 0 0 1
12.814662 -23.031405 5.798908 26.986821 -1.063053 1.354228 0.100948 -0.019796 -339992.000000 0 0 1
12.214662 -22.489505 4.662008 26.013652 -1.073245 1.390609 0.095972 -0.022279 -423237.000000 0 0 1
11.541862 -21.344605 5.043708 24.783981 -1.075091 1.365858 0.098075 -0.024428 82818.400000 0 1 0
10.560562 -20.880105 3.923908 23.725541 -1.102542 1.404645 0.077179 -0.021549 502756.000000 0 1 0
11.299862 -20.357905 2.854608 23.458047 -1.064076 1.448804 0.060201 -0.022380 -257364.000000 0 1 0
10.418562 -19.566805 2.138108 22.270559 -1.081518 1.474642 0.052115 -0.011532 -145069.000000 0 1 0
11.058562 -18.971905 0.881708 21.977315 -1.043052 1.530667 0.048549 -0.012998 134098.000000 0 1 0
12.088162 -18.047705 1.221708 21.756284 -0.980635 1.514613 0.046466 -0.009044 -19154.600000 0 1 0
12.701862 -17.697405 -0.011192 21.783837 -0.948273 1.571310 0.054818 -0.018951 -649517.000000 0 1 0
13.869862 -16.735505 0.101408 21.736156 -0.878758 1.566131 0.048566 -0.009188 -451761.000000 0 1 0
14.979962 -17.410905 0.651408 22.977450 -0.860308 1.542443 0.057168 -0.019888 -654487.000000 0 1 0
16.137562 -16.625005 0.603508 23.177056 -0.800275 1.544754 0.059342 -0.027085 -384720.000000 0 1 0
17.338462 -17.393305 1.166808 24.586800 -0.786977 1.523322 0.056934 -0.018868 -195849.000000 0 1 0
17.931862 -18.449505 0.412108 25.731415 -0.799625 1.554780 0.072529 -0.026506 -55995.800000 0 0 1
18.963062 -19.047705 1.145708 26.902145 -0.787625 1.528195 0.077914 -0.020972 58420.300000 0 0 1
19.351562 -20.425305 0.568208 28.142475 -0.812386 1.550605 0.059610 -0.022333 194437.000000 0 0 1
18.492762 -21.428605 1.086208 28.325734 -0.858807 1.532440 0.058358 -0.018275 163682.000000 0 0 1
18.626962 -22.644705 0.332008 29.323311 -0.882441 1.559474 0.061740 -0.017805 216452.000000 0 0 1
17.498462 -23.671205 0.634108 29.443577 -0.934224 1.549258 0.060927 -0.010576 159601.000000 0 0 1
17.611862 -24.251405 1.871808 30.030184 -0.942689 1.508425 0.060278 -0.013180 -674958.000000 0 0 1
16.464362 -24.910905 2.261008 29.945627 -0.986776 1.495221 0.059690 -0.012282 -822178.000000 0 0 1
16.730062 -25.634785 3.581108 30.819823 -0.992574 1.454338 0.069198 -0.015633 161918.000000 0 0 1
17.702562 -26.646435 3.436808 32.174910 -0.984399 1.463776 0.081303 -0.015238 443151.000000 0 0 1
18.968562 -26.213685 3.950908 32.597136 -0.944398 1.449293 0.066118 -0.007890 -80497.300000 0 0 1
20.065362 -27.276665 3.938608 34.090289 -0.936560 1.455003 0.065945 -0.011350 -498549.000000 0 0 1
20.574762 -27.492925 2.666708 34.442605 -0.928342 1.493294 0.071270 -0.013101 -448470.000000 0 0 1
21.597762 -28.456765 2.579908 35.817687 -0.921581 1.498705 0.073320 -0.015772 -62272.400000 0 0 1
21.272062 -29.987435 2.781908 36.871207 -0.953812 1.495275 0.072442 -0.015835 -196170.000000 0 0 1
20.902862 -30.348905 4.100808 37.078326 -0.967659 1.459971 0.081559 -0.023113 -29385.900000 0 0 1
20.517762 -31.726175 4.079608 38.002262 -0.996735 1.463237 0.061431 -0.033203 287905.000000 0 0 1
19.770062 -32.180955 5.391108 38.151451 -1.019899 1.429014 0.074733 -0.032664 621013.000000 0 0 1
20.760762 -32.343105 6.446408 38.969755 -1.000142 1.404612 0.057550 -0.032945 874890.000000 0 0 1
20.169962 -32.991395 7.502708 39.389721 -1.022058 1.379152 0.062404 -0.030743 -443757.000000 0 0 1
21.101462 -33.918055 8.266508 40.792662 -1.014263 1.366736 0.050408 -0.032332 629138.000000 0 0 1
22.175262 -33.179205 8.921408 40.892461 -0.981630 1.350860 0.048922 -0.023707 2352050.000000 0 0 1
23.383362 -34.032835 9.022208 42.266011 -0.968793 1.355679 0.058828 -0.031841 2039710.000000 0 0 1
24.576462 -33.436045 9.839708 42.647291 -0.936946 1.337976 0.058011 -0.028729 55190.200000 0 0 1
25.374162 -32.517455 9.150108 42.248757 -0.908168 1.352489 0.046727 -0.028175 396999.000000 0 0 1
26.296362 -31.879945 10.062608 42.533347 -0.881082 1.331950 0.040633 -0.019437 453774.000000 0 0 1
27.205062 -30.809555 9.411208 42.165328 -0.847449 1.345703 0.041686 -0.026099 -86855.400000 0 0 1
26.487162 -29.671745 8.984708 40.776306 -0.842044 1.348632 0.033504 -0.026838 379880.000000 0 0 1
27.300062 -28.851345 8.119208 40.541522 -0.813018 1.369164 0.046539 -0.024274 256646.000000 0 0 1
26.939462 -27.366595 8.176508 39.262201 -0.793263 1.361007 0.032704 -0.014742 -61949.300000 0 0 1
27.336662 -26.812785 9.419508 39.432799 -0.775724 1.329589 0.023643 -0.032954 24203.200000 0 0 1
26.709962 -25.562205 9.527208 38.178738 -0.763444 1.318589 0.031476 -0.026389 -3952.500000 0 0 1
27.437662 -24.670305 10.568508 38.381540 -0.732340 1.291838 0.022693 -0.030872 524092.000000 0 0 1
28.721662 -24.346005 10.036508 38.966567 -0.703130 1.310293 0.035355 -0.028278 -214294.000000 0 0 1
29.510162 -23.652505 10.971608 39.378507 -0.675657 1.288440 0.033186 -0.033731 -348046.000000 0 0 1
30.941162 -23.440805 10.489108 40.210051 -0.648343 1.306886 0.051074 -0.030239 -170377.000000 0 0 1
30.907462 -22.578205 9.411008 39.415906 -0.630910 1.329706 0.044355 -0.026626 768510.000000 0 0 1
32.243262 -22.389805 8.879408 40.246431 -0.606959 1.348340 0.054628 -0.031846 1230380.000000 0 0 1
32.285862 -21.716805 7.465808 39.619879 -0.592127 1.381227 0.061177 -0.008902 -80958.400000 0 0 1
31.873962 -20.359205 7.493608 38.556463 -0.568419 1.375197 0.064928 -0.002706 -133457.000000 0 0 1
31.954662 -19.775005 6.194008 38.085653 -0.554161 1.407437 0.054441 -0.002774 300878.000000 0 0 1
31.485962 -18.270105 6.222908 36.930842 -0.525780 1.401487 0.072976 -0.008451 154813.000000 0 0 1
32.458062 -17.504005 6.906908 37.518280 -0.494576 1.385646 0.080955 -0.001913 89288.400000 0 0 1
32.053462 -16.148405 7.056208 36.578484 -0.466680 1.376673 0.082709 -0.006479 55099.800000 0 0 1
32.630162 -15.419305 8.290008 37.029808 -0.441445 1.345009 0.082876 -0.031780 526275.000000 0 0 1
34.055662 -15.392905 8.316708 38.287038 -0.424510 1.351831 0.084618 -0.019513 387733.000000 0 0 1
34.575962 -14.914505 9.566608 38.851764 -0.407241 1.322004 0.077492 -0.026883 12512.900000 0 0 1
36.107862 -15.045705 9.625108 40.283913 -0.394809 1.329531 0.070381 -0.033787 -439427.000000 0 0 1
36.695462 -14.064805 8.870208 40.287172 -0.366014 1.348803 0.090770 -0.020298 789020.000000 0 0 1
-35.918848 -14.279305 8.772908 39.636172 0.378387 1.347612 0.084136 -0.020333 1549430.000000 0 0 1
-35.067648 -13.176105 8.055108 38.317547 0.359414 1.358997 0.092965 -0.026549 -349145.000000 0 0 1
-35.404948 -12.909505 6.746708 38.284249 0.349643 1.393644 0.116184 -0.033490 -63651.900000 0 0 1
-34.325648 -12.568905 5.891008 37.026091 0.351004 1.411013 0.094057 -0.025001 75614.100000 0 0 1
-33.411648 -13.720505 5.492908 36.534402 0.389654 1.419875 0.075305 -0.019524 5523.070000 0 0 1
-32.588748 -14.257505 6.549708 36.169070 0.412409 1.388706 0.089650 -0.017294 204823.000000 0 0 1
-31.589348 -15.094105 6.023308 35.524627 0.445749 1.400420 0.084655 -0.006797 141082.000000 0 0 1
-30.900948 -15.943105 7.126708 35.494241 0.476320 1.368637 0.073258 -0.024896 -210772.000000 0 0 1
-31.768748 -16.905705 7.634108 36.787713 0.489035 1.361759 0.073549 -0.027811 -356520.000000 0 0 1
-31.657448 -17.027705 9.030708 37.063330 0.493485 1.324663 0.050135 -0.023410 -282068.000000 0 0 1
-32.774448 -17.752105 9.786008 38.536575 0.496406 1.314044 0.021583 -0.023470 -1044040.000000 0 0 1
-34.001948 -17.062905 9.818008 39.289546 0.465104 1.318231 0.051183 -0.020311 238165.000000 0 0 1
-34.947048 -17.568705 10.761508 40.568037 0.465824 1.302312 0.075641 -0.033771 206291.000000 0 0 1
-35.566848 -18.996005 10.499808 41.666471 0.490549 1.316053 0.078437 -0.029469 -1084540.000000 0 0 1
-34.739348 -20.154105 10.547908 41.524313 0.525698 1.313964 0.076201 -0.020980 -294359.000000 0 0 1
-34.228748 -20.500105 11.859108 41.623310 0.539621 1.281879 0.078358 -0.041904 -244389.000000 0 0 1
-35.181148 -21.203705 12.872508 43.046623 0.542403 1.267114 0.108921 -0.056836 -113288.000000 0 0 1
-35.453448 -22.552905 12.615908 43.871877 0.566561 1.279115 0.107349 -0.058562 602721.000000 0 0 1
-36.482748 -22.819605 11.648608 44.580437 0.558952 1.306434 0.101585 -0.043197 247928.000000 0 0 1
36.942562 -24.263305 11.700108 45.720382 -0.581130 1.312012 0.106860 -0.039773 298090.000000 0 0 1
36.259562 -24.554805 12.941008 45.663596 -0.595256 1.283460 0.161021 -0.038905 109997.000000 0 0 1
35.614762 -25.803915 12.830108 45.813371 -0.626999 1.286948 0.122030 -0.035464 -127044.000000 0 0 1
34.433262 -25.764115 13.834208 45.175485 -0.642369 1.259563 0.136714 -0.036852 838104.000000 0 0 1
33.346062 -24.901505 13.378908 43.715443 -0.641424 1.259760 0.133365 -0.038951 748499.000000 0 0 1
32.527262 -24.424305 14.428408 43.159569 -0.644069 1.229930 0.104415 -0.020140 -491006.000000 0 0 1
32.584762 -22.869105 14.726008 42.445471 -0.611956 1.216490 0.120204 -0.021849 -240384.000000 0 0 1
33.713862 -22.369205 15.392008 43.288794 -0.585808 1.207277 0.128974 -0.027716 -233978.000000 0 0 1
34.772562 -22.039605 14.474008 43.639113 -0.564918 1.232718 0.122584 -0.041123 622254.000000 0 0 1
36.047762 -21.731405 15.347908 44.802381 -0.542513 1.221146 0.117472 -0.044677 48215.400000 0 0 1
36.184562 -20.512805 16.054108 44.585110 -0.515721 1.202445 0.101972 -0.035478 743588.000000 0 0 1
35.177362 -20.248105 17.071208 44.032473 -0.522285 1.172666 0.099978 -0.035285 530995.000000 0 0 1
35.317062 -18.833705 17.742308 43.781192 -0.489912 1.153545 0.072587 -0.025826 -400131.000000 0 0 1
34.846462 -17.751205 16.984708 42.636387 -0.471149 1.161066 0.072877 -0.028273 -12899.400000 0 0 1
34.702762 -16.566305 17.713108 42.337670 -0.445386 1.139139 0.053632 -0.024094 -687010.000000 0 0 1
35.928362 -15.752005 18.084808 43.197606 -0.413189 1.138835 0.044895 -0.027982 -583921.000000 0 0 1
36.719362 -16.349105 19.101008 44.502284 -0.418892 1.127174 0.034319 -0.011034 429268.000000 0 0 1
-36.346748 -15.426105 19.583308 44.074445 0.401375 1.110377 0.012563 -0.017908 55879.700000 0 0 1
-36.163048 -15.439805 21.114108 44.631370 0.403521 1.078015 0.010312 -0.008495 -104658.000000 0 0 1
-35.261748 -16.465505 21.506008 44.463604 0.436861 1.065946 0.012409 -0.004336 170140.000000 0 0 1
-35.063048 -16.356505 22.904308 44.961760 0.436481 1.036289 0.023801 -0.008931 467236.000000 0 0 1
-34.077148 -17.449005 23.409808 44.874702 0.473236 1.021989 0.031382 -0.004898 -186711.000000 0 0 1
-34.788948 -18.670905 23.354808 45.872875 0.492568 1.036634 0.027417 -0.008258 678748.000000 0 0 1
-34.010648 -19.814705 23.694308 45.943083 0.527529 1.028935 0.027457 -0.005333 414408.000000 0 0 1
-32.867748 -20.348505 22.766808 44.862880 0.554347 1.038544 0.026713 -0.000849 607077.000000 0 0 1
-31.731948 -19.516005 22.611708 43.578438 0.551396 1.025263 0.033779 -0.000744 457804.000000 0 0 1
-30.694848 -20.186905 21.883208 42.761660 0.581744 1.033578 0.042389 -0.007619 -28470.400000 0 0 1
-29.402748 -19.384305 21.895908 41.469310 0.582863 1.014549 0.056154 -0.011157 -559165.000000 0 0 1
-28.777048 -19.223605 23.141408 41.631601 0.588938 0.981397 0.047771 -0.004242 461944.000000 0 0 1
-27.565748 -18.489405 22.987808 40.375337 0.590816 0.965078 0.079878 -0.012623 233211.000000 0 0 1
-27.094248 -17.944905 24.377308 40.624759 0.584983 0.927220 0.075403 -0.018312 -286389.000000 0 0 1
-25.992448 -17.055205 24.351908 39.490540 0.580693 0.906314 0.077532 -0.019760 191834.000000 0 0 1
-25.662648 -16.609705 25.644908 39.901317 0.574427 0.872768 0.062560 -0.018710 29130.100000 0 0 1
-24.605748 -17.328105 26.510508 40.106272 0.613559 0.848637 0.060721 -0.013116 -237870.000000 0 0 1
-24.948348 -18.592505 26.944408 41.159475 0.640448 0.857097 0.065805 -0.012282 -703354.000000 0 0 1
-24.025748 -18.961105 27.889708 41.407679 0.668120 0.831809 0.065115 -0.017843 -582482.000000 0 0 1
-24.390248 -20.288805 28.585908 42.704495 0.693857 0.837411 0.057610 -0.015639 552951.000000 0 0 1
-25.538048 -20.132605 29.450408 43.873001 0.667589 0.834882 0.063383 -0.019997 622709.000000 0 0 1
-25.880048 -21.375605 30.019408 45.031747 0.690365 0.841121 0.065713 -0.018413 -761985.000000 0 0 1
-27.101748 -21.284305 30.906508 46.289724 0.665743 0.839715 0.068699 -0.018725 -978323.000000 0 0 1
-26.852248 -20.673505 32.169508 46.725948 0.656115 0.811416 0.079010 -0.027922 1025930.000000 0 0 1
-27.967348 -20.713705 33.093208 48.024895 0.637483 0.810571 0.096647 -0.030172 353439.000000 0 0 1
-29.209348 -19.862405 32.901408 48.272184 0.597178 0.820875 0.070302 -0.036362 349892.000000 0 0 1
-30.221048 -20.439105 32.009008 48.534991 0.594656 0.850638 0.079888 -0.040821 1147380.000000 0 0 1
-31.434848 -19.726505 32.170808 49.114616 0.560421 0.856594 0.077948 -0.041406 224806.000000 0 0 1
-32.561748 -20.221305 31.211808 49.430209 0.555728 0.887398 0.074798 -0.017301 -276104.000000 0 0 1
-32.596248 -19.817805 29.872708 48.452445 0.546265 0.906460 0.059327 -0.027849 714188.000000 0 0 1
-33.809648 -20.278605 29.257508 49.094968 0.540263 0.932364 0.051190 -0.028395 541467.000000 0 0 1
-34.399048 -19.197805 28.310408 48.511126 0.509034 0.947659 0.041981 -0.023748 -698609.000000 0 0 1
-35.607448 -19.593305 27.752208 49.213545 0.503042 0.971679 0.035322 -0.022511 -433085.000000 0 0 1
-36.096248 -18.558105 26.962208 48.726820 0.474886 0.984435 0.027838 -0.016678 69057.100000 0 0 1
36.793662 -18.909005 25.971008 48.844829 -0.474722 1.010185 0.021088 -0.011389 73883.400000 0 0 1
35.608962 -19.335105 26.595708 48.468300 -0.497441 0.989959 0.036227 -0.015271 -568232.000000 0 0 1
34.739662 -19.968305 25.708708 47.607930 -0.521683 1.000349 0.068014 -0.014375 -789260.000000 0 0 1
33.525862 -20.429605 26.519208 47.377427 -0.547280 0.976720 0.067207 -0.023489 -1226900.000000 0 0 1
32.612062 -19.392405 26.601408 46.338395 -0.536468 0.959330 0.056166 -0.031092 301247.000000 0 0 1
31.476062 -19.906805 27.346608 46.204549 -0.563933 0.937432 0.054915 -0.021647 719927.000000 0 0 1
-29.963268 -5.759105 -33.976812 45.666054 0.189890 2.409875 0.027201 -0.014984 283184.000000 0 0 1
-30.942788 -5.594005 32.968052 45.559208 0.178854 0.761748 0.027353 -0.011830 523496.000000 0 0 1
-30.606148 -4.461905 32.203109 44.650701 0.144765 0.765230 0.038091 -0.012959 -101091.000000 0 0 1
-31.399788 -4.295305 30.915724 44.273901 0.135950 0.797800 0.026508 -0.018699 -234606.000000 0 0 1
-31.234618 -5.342005 29.948524 43.601060 0.169389 0.813614 0.032600 -0.015236 -804490.000000 0 0 1
-29.968178 -5.546705 29.419004 42.359597 0.183015 0.803063 0.041064 -0.015181 -684157.000000 0 0 1
-29.848208 -6.585805 28.214164 41.597204 0.217164 0.825390 0.046638 -0.017582 -79237.600000 0 0 1
-30.290958 -6.061205 26.987314 41.019452 0.197491 0.852749 0.055882 -0.021973 21241.400000 0 0 1
-29.976188 -6.997905 25.932654 40.249783 0.229341 0.870698 0.075047 -0.022555 82305.000000 0 0 1
-30.646408 -6.490205 24.633194 39.851215 0.208694 0.904436 0.060241 -0.013796 -57540.500000 0 0 1
-30.135678 -5.319405 24.107444 38.956694 0.174715 0.903548 0.086845 -0.026412 46510.200000 0 0 1
-31.012968 -4.722105 23.135794 38.979064 0.151102 0.935341 0.090006 -0.027732 636112.000000 0 0 1
-30.352158 -3.455705 22.454374 37.912983 0.113366 0.936935 0.101058 -0.030585 651498.000000 0 0 1
-29.205748 -3.796405 21.676874 36.568775 0.129263 0.936302 0.110308 -0.029534 123028.000000 0 0 1
-28.500928 -2.616905 21.372974 35.720514 0.091561 0.929370 0.124217 -0.031242 411505.000000 0 0 1
-27.078908 -2.767805 20.747674 34.225633 0.101859 0.919519 0.127513 -0.028817 498499.000000 0 0 1
-27.023288 -3.502905 19.561474 33.543698 0.128907 0.948178 0.137126 -0.030812 168658.000000 0 0 1
-25.699788 -3.327205 19.071074 32.175383 0.128748 0.936361 0.120732 -0.026453 64377.400000 0 0 1
-25.588408 -3.924105 17.668274 31.342194 0.152169 0.971912 0.134492 -0.033821 586734.000000 0 0 1
-26.458508 -3.330705 16.644974 31.435671 0.125225 1.012793 0.134936 -0.030082 746201.000000 0 0 1
-26.261028 -3.995005 15.406274 30.707571 0.150969 1.045223 0.152064 -0.036421 961196.000000 0 0 1
-27.625048 -4.137305 14.602474 31.519721 0.148662 1.089103 0.162438 -0.032979 804644.000000 0 0 1
-28.119738 -2.959905 14.152074 31.619012 0.104875 1.106738 0.159971 -0.034971 -185497.000000 0 0 1
-29.375488 -3.181705 13.538074 32.501107 0.107891 1.141158 0.139484 -0.029973 207483.000000 0 0 1
-29.930868 -1.935805 12.763274 32.596094 0.064586 1.168472 0.123976 -0.017112 -145153.000000 0 0 1
-29.207278 -1.768105 11.580074 31.468864 0.060463 1.193955 0.154305 -0.021565 -1802.210000 0 0 1
-29.428218 -0.534105 10.901374 31.387023 0.018147 1.216084 0.153110 -0.016996 491007.000000 0 0 1
-30.778768 -0.419705 10.095874 32.394990 0.013635 1.253868 0.146273 -0.012696 686197.000000 0 0 1
-30.862658 -1.237505 8.923274 32.150581 0.040076 1.289557 0.138282 -0.018630 208165.000000 0 0 1
-32.076648 -1.078305 8.195874 33.124710 0.033604 1.320775 0.125813 -0.019699 295978.000000 0 0 1
-32.192418 -1.941405 6.945774 32.990371 0.060233 1.358670 0.126747 -0.024944 -190545.000000 0 0 1
-31.627208 -1.381105 5.792974 32.183012 0.043641 1.389809 0.135584 -0.032460 490449.000000 0 0 1
-32.476578 -0.415805 5.174774 32.888893 0.012803 1.412799 0.144523 -0.029225 104937.000000 0 0 1
-31.943058 0.033195 3.801974 32.168541 -0.001039 1.452330 0.171982 -0.032961 -66029.800000 0 0 1
-32.169778 -0.953605 2.782174 32.303939 0.029634 1.484565 0.162161 -0.045250 378885.000000 0 0 1
-31.945168 -0.447305 1.453374 31.981340 0.014001 1.525336 0.153201 -0.045083 -496762.000000 0 0 1
-32.512738 -1.271905 0.299974 32.538990 0.039100 1.561577 0.137986 -0.043767 42057.600000 0 0 1
-33.906408 -1.002605 0.234674 33.922040 0.029561 1.563878 0.147797 -0.037896 303797.000000 0 0 1
-34.554151 -1.503805 -0.908626 34.598791 0.043493 1.597061 0.145385 -0.040339 -1126900.000000 0 0 1
-36.034862 -1.267605 -0.868726 36.067614 0.035163 1.594885 0.148881 -0.039910 -1159860.000000 0 0 1
-36.778278 -2.025505 0.046074 36.834040 0.055018 1.569545 0.144008 -0.033431 658292.000000 0 0 1
35.843772 -1.873605 -0.061926 35.892760 -0.052224 1.572522 0.147377 -0.031824 790893.000000 0 0 1
35.121152 -3.092105 0.583474 35.261834 -0.087815 1.554249 0.146934 -0.033984 -303097.000000 0 0 1
35.217282 -3.166705 1.978874 35.414700 -0.089678 1.514890 0.127759 -0.029071 182688.000000 0 0 1
34.482432 -4.258605 2.496674 34.833996 -0.122878 1.499061 0.128719 -0.018516 159501.000000 0 0 1
34.644892 -4.247105 4.050074 35.138434 -0.121981 1.455279 0.113781 -0.017906 152403.000000 0 0 1
33.933332 -3.176505 4.607974 34.391782 -0.093338 1.436407 0.115235 -0.026633 50208.500000 0 0 1
33.867362 -3.385105 5.988374 34.558903 -0.099621 1.396637 0.100333 -0.031714 -180430.000000 0 0 1
33.187742 -2.275305 6.778874 33.949321 -0.068451 1.369769 0.101333 -0.026984 473719.000000 0 0 1
31.758532 -2.285905 6.735174 32.545235 -0.071854 1.362342 0.110585 -0.031112 293609.000000 0 0 1
31.338972 -1.169705 7.497074 32.244465 -0.037307 1.336141 0.115334 -0.027872 366230.000000 0 0 1
29.868232 -1.391005 7.952874 30.940175 -0.046538 1.310838 0.121551 -0.027335 -88968.300000 0 0 1
28.886072 -1.315505 6.947974 29.739033 -0.045510 1.334985 0.133263 -0.030779 33738.800000 0 0 1
27.571072 -1.366105 7.465274 28.596514 -0.049508 1.306681 0.136648 -0.026636 -185615.000000 0 0 1
26.980072 -2.760805 7.451074 28.125875 -0.101973 1.302677 0.162725 -0.038652 -832025.000000 0 0 1
27.590872 -3.589905 8.357874 29.051639 -0.129385 1.278982 0.143629 -0.041543 355368.000000 0 0 1
26.984572 -4.866005 8.182874 28.614762 -0.178408 1.280781 0.171022 -0.042104 77438.000000 0 0 1
27.152672 -5.840905 9.357374 29.307751 -0.211885 1.245827 0.160294 -0.046960 684069.000000 0 0 1
26.127472 -5.698705 10.396674 28.691652 -0.214748 1.199999 0.164952 -0.033779 1097970.000000 0 0 1
26.179872 -6.656605 11.416174 29.326185 -0.248988 1.170944 0.156897 -0.028068 247227.000000 0 0 1
25.009372 -6.473605 12.456074 28.679785 -0.253288 1.121518 0.144570 -0.023815 857039.000000 0 0 1
23.823272 -7.099205 11.952874 27.582934 -0.289616 1.122597 0.160581 -0.022074 245847.000000 0 0 1
22.775672 -6.911005 12.913474 27.078609 -0.294608 1.073685 0.158823 -0.023507 766713.000000 0 0 1
21.868372 -8.178805 13.085474 26.764682 -0.357895 1.059959 0.141365 -0.018218 492459.000000 0 0 1
22.504772 -9.182305 13.869574 27.984721 -0.387397 1.052257 0.143971 -0.027738 480159.000000 0 0 1
21.655972 -10.322005 13.870174 27.711129 -0.444782 1.046589 0.157724 -0.040304 206464.000000 0 0 1
22.042372 -11.313005 14.993774 28.959688 -0.474183 1.026582 0.146932 -0.036080 -425108.000000 0 0 1
21.927472 -10.786405 16.311874 29.380909 -0.457157 0.982210 0.128468 -0.027653 240566.000000 0 0 1
22.217572 -11.812605 17.198974 30.478892 -0.488668 0.971222 0.113151 -0.027682 -130809.000000 0 0 1
21.988872 -11.478805 18.667874 31.044533 -0.481114 0.925637 0.120754 -0.020256 -156890.000000 0 0 1
20.593272 -11.429205 18.861074 30.173659 -0.506672 0.895557 0.114653 -0.020898 -73180.900000 0 0 1
20.168572 -11.550905 20.242674 30.821431 -0.520118 0.854265 0.104379 -0.017868 99502.500000 0 0 1
20.577172 -10.492805 21.278874 31.405564 -0.471556 0.826369 0.106060 -0.016269 -570374.000000 0 0 1
19.833172 -9.277605 21.350674 30.582347 -0.437543 0.798004 0.094596 -0.016793 116867.000000 0 0 1
20.169572 -8.249305 20.396974 29.847935 -0.388239 0.818437 0.108456 -0.014677 -1123730.000000 0 0 1
21.302072 -7.306205 20.848674 30.689186 -0.330408 0.823921 0.116481 -0.008257 609644.000000 0 0 1
22.562072 -7.950605 21.055074 31.868094 -0.338801 0.849053 0.130874 -0.020919 512168.000000 0 0 1
23.295772 -8.204005 19.881674 31.706146 -0.338604 0.893022 0.145936 -0.033483 -652023.000000 0 0 1
24.726872 -8.742605 20.121074 33.056149 -0.339849 0.916383 0.173649 -0.042082 207126.000000 0 0 1
24.753272 -10.171505 20.317874 33.600596 -0.389881 0.921422 0.134009 -0.040256 226907.000000 0 0 1
26.036472 -10.726605 20.076074 34.583330 -0.390794 0.951438 0.133268 -0.044952 308060.000000 0 0 1
26.059872 -12.279705 20.296274 35.239848 -0.440353 0.957035 0.114526 -0.037383 50710.600000 0 0 1
25.182072 -12.848805 19.350274 34.258746 -0.471803 0.970572 0.124618 -0.034637 164391.000000 0 0 1
25.165872 -14.284205 19.430674 34.855570 -0.516257 0.979470 0.114203 -0.024047 -337010.000000 0 0 1
24.147472 -14.825605 18.440474 33.807545 -0.550622 0.993865 0.107070 -0.017889 -902517.000000 0 0 1
24.429672 -14.681205 17.096874 33.236272 -0.541124 1.030484 0.098098 -0.017488 136330.000000 0 0 1
23.475072 -15.235105 16.199474 32.335900 -0.575665 1.046071 0.074243 -0.015844 -26148.100000 0 0 1
23.097572 -16.741605 16.306074 32.858290 -0.627191 1.051517 0.048667 -0.015525 -39312.300000 0 0 1
24.200072 -17.583405 15.978374 33.913538 -0.628346 1.080202 0.078658 -0.017773 241812.000000 0 0 1
23.962672 -18.971905 16.292374 34.635016 -0.669676 1.081050 0.057636 -0.000796 -79113.100000 0 0 1
25.192872 -19.905305 16.189674 35.958414 -0.668685 1.103770 0.054665 0.003700 9069.650000 0 0 1
25.590072 -20.168705 14.871974 35.816254 -0.667471 1.142601 0.058288 -0.018145 51116.900000 0 0 1
26.571972 -21.184305 14.785774 37.060270 -0.673057 1.160408 0.054342 -0.022446 -64829.500000 0 0 1
27.100072 -21.364505 13.358874 37.004263 -0.667601 1.201447 0.046657 -0.044364 -558602.000000 0 0 1
26.083572 -21.787605 12.517274 36.217877 -0.695898 1.217907 0.059563 -0.037122 -259486.000000 0 0 1
26.316072 -21.300105 11.223674 35.667927 -0.680444 1.250686 0.069117 -0.038030 -179736.000000 0 0 1
25.111272 -21.295105 10.269974 34.489562 -0.703349 1.268440 0.050076 -0.029487 -220835.000000 0 0 1
24.821072 -22.535205 9.710174 34.902845 -0.737166 1.288871 0.041731 -0.027358 795351.000000 0 0 1
23.385072 -22.596005 9.582174 33.900724 -0.768239 1.284237 0.050639 -0.020383 1078890.000000 0 0 1
22.899972 -23.509805 8.444774 33.888551 -0.798538 1.318950 0.041303 -0.018944 -414732.000000 0 0 1
23.278772 -24.888705 8.634474 35.155412 -0.818809 1.322649 0.030439 -0.011218 161179.000000 0 0 1
22.875172 -25.820385 7.617774 35.326991 -0.845807 1.353453 0.038712 -0.005948 -675090.000000 0 0 1
21.388972 -26.154905 7.644174 34.641025 -0.885307 1.348297 0.057001 -0.001609 177641.000000 0 0 1
20.470872 -25.064845 7.347974 33.185777 -0.885945 1.347527 0.063410 -0.004308 653178.000000 0 0 1
19.122172 -25.436055 7.634874 32.725245 -0.926161 1.335324 0.073913 -0.017258 686761.000000 0 0 1
18.071972 -24.314705 7.550874 31.222056 -0.931627 1.326530 0.070261 -0.022425 -150115.000000 0 0 1
17.793972 -23.848405 6.218574 30.398068 -0.929778 1.364771 0.075638 -0.025124 -40491.400000 0 0 1
16.978972 -22.721405 6.340174 29.064507 -0.929046 1.350887 0.066892 -0.018421 -247973.000000 0 0 1
16.699772 -22.063605 4.954674 28.111098 -0.922899 1.393617 0.077436 -0.020054 -321233.000000 0 0 1
15.861872 -20.952505 5.025674 26.755632 -0.922805 1.381838 0.092925 -0.019331 -258478.000000 0 0 1
15.490372 -20.566905 3.719674 26.015095 -0.925270 1.427323 0.089016 -0.019287 16715.700000 0 0 1
14.512172 -19.389305 3.647774 24.491928 -0.928280 1.421302 0.076261 -0.016101 -27456.400000 0 1 0
15.124872 -18.221505 4.165174 24.044410 -0.877995 1.396690 0.049042 -0.015191 411163.000000 0 1 0
14.282472 -17.072605 4.000974 22.615717 -0.874149 1.392949 0.019624 -0.009458 527288.000000 0 1 0
15.071572 -15.755905 4.227474 22.209736 -0.807593 1.379284 0.007926 -0.016856 -115951.000000 0 1 0
15.741672 -15.674605 5.479074 22.880423 -0.783263 1.328981 0.034870 -0.024304 -53433.000000 0 1 0
16.667172 -14.618605 5.497474 22.841201 -0.720012 1.327728 0.053780 -0.030586 223281.000000 0 1 0
18.111672 -15.135905 5.247574 24.179854 -0.696133 1.352033 0.072467 -0.042605 -142190.000000 0 1 0
19.129472 -14.168005 5.235274 24.373698 -0.637482 1.354318 0.108674 -0.041004 267148.000000 0 1 0
20.385972 -14.777705 4.962274 25.663059 -0.627240 1.376208 0.135942 -0.043917 349306.000000 0 0 1
21.576572 -13.787605 4.871074 26.064802 -0.568609 1.382808 0.141290 -0.046381 235058.000000 0 0 1
21.921572 -13.084705 6.057474 26.238480 -0.538127 1.337833 0.160654 -0.047736 -92196.600000 0 0 1
23.172872 -12.475005 5.897674 26.970175 -0.493851 1.350341 0.173189 -0.042197 -332032.000000 0 0 1
23.576172 -11.488105 7.024474 27.150611 -0.453417 1.309097 0.188802 -0.047008 -25801.300000 0 0 1
24.012472 -12.107105 8.220074 28.120285 -0.467002 1.274146 0.187695 -0.024842 174971.000000 0 0 1
23.747672 -11.341805 9.379174 27.938457 -0.445565 1.228439 0.201017 -0.047081 71091.500000 0 0 1
24.142272 -12.131705 10.679674 29.053107 -0.465653 1.194378 0.167947 -0.041116 -14347.000000 0 0 1
23.306972 -13.241405 10.894674 28.935164 -0.516656 1.184759 0.169211 -0.042111 272954.000000 0 0 1
23.743972 -14.035805 11.981274 30.072096 -0.533873 1.161005 0.164228 -0.042200 131823.000000 0 0 1
22.631072 -15.071105 12.303974 29.844454 -0.587505 1.145852 0.137706 -0.046051 331883.000000 0 0 1
21.577572 -14.390005 12.972174 28.998986 -0.588162 1.107016 0.117034 -0.036624 383230.000000 0 0 1
20.407772 -15.197205 13.155674 28.644441 -0.640086 1.093618 0.078854 -0.033066 1468670.000000 0 0 1
19.127072 -14.353805 13.546574 27.484292 -0.643785 1.055395 0.076878 -0.034752 287343.000000 0 0 1
19.379672 -13.889105 14.863174 28.096136 -0.621836 1.013361 0.078722 -0.039471 424522.000000 0 0 1
18.767372 -12.625105 15.137874 27.216958 -0.592179 0.980999 0.100540 -0.050449 518158.000000 0 0 1
17.215072 -12.463705 15.331374 26.205986 -0.626652 0.945875 0.099522 -0.049917 708598.000000 0 0 1
16.532572 -12.830005 14.065074 25.214307 -0.659962 0.979038 0.100856 -0.062194 1429180.000000 0 0 1
15.092572 -12.728705 14.013274 24.211103 -0.700636 0.953546 0.114180 -0.061345 1203160.000000 0 1 0
14.571272 -11.274605 13.913274 23.087180 -0.658532 0.923990 0.082715 -0.056570 -660879.000000 0 1 0
15.001272 -10.466905 14.910174 23.598889 -0.609204 0.886901 0.066196 -0.039040 -137357.000000 0 1 0
14.595272 -9.124705 14.764874 22.677825 -0.558730 0.861802 0.058578 -0.029903 -897797.000000 0 1 0
15.194272 -8.173305 15.840174 23.421784 -0.493522 0.828067 0.062167 -0.019946 -34990.400000 0 1 0
16.580672 -8.130305 15.597974 24.172657 -0.455896 0.869415 0.064979 -0.029490 -169206.000000 0 1 0
17.390772 -8.746805 16.548074 25.549644 -0.466010 0.866257 0.083392 -0.024733 -519105.000000 0 0 1
18.908072 -8.652105 16.397574 26.481212 -0.429146 0.903053 0.090957 -0.023448 -213938.000000 0 0 1
19.406972 -7.343105 16.648474 26.603072 -0.361726 0.894626 0.085841 -0.018774 443365.000000 0 0 1
20.824772 -7.354705 16.560874 27.604807 -0.339497 0.927386 0.094952 -0.016434 512705.000000 0 0 1
21.545772 -5.957305 16.865274 28.002630 -0.269756 0.924449 0.084542 -0.009622 239742.000000 0 0 1
21.609372 -5.699605 18.242274 28.848415 -0.257883 0.886214 0.118416 -0.014891 457039.000000 0 0 1
22.114272 -4.366405 18.476174 29.145764 -0.194940 0.884181 0.139031 -0.018614 -38691.900000 0 0 1
-5.495638 -33.230276 -6.195392 34.246696 1.406899 1.752703 0.038909 -0.016312 -99416.100000 0 0 1
-6.123838 -31.994576 -6.499892 33.217509 1.381681 1.767744 0.035417 -0.014809 137578.000000 0 0 1
-5.839238 -31.029176 -5.495092 32.048440 1.384786 1.743110 0.049549 -0.019397 -507449.000000 0 0 1
-6.569138 -29.663576 -5.709892 30.914142 1.352859 1.756565 0.053345 -0.020697 1330980.000000 0 0 1
-7.955038 -29.583276 -5.306492 31.090380 1.308107 1.742316 0.049616 -0.016890 811317.000000 0 0 1
-8.820038 -30.085876 -6.286092 31.976053 1.285625 1.768673 0.044372 -0.013998 335740.000000 0 0 1
-10.333738 -29.889476 -5.872392 32.166005 1.237929 1.754391 0.083882 -0.010991 1039940.000000 0 0 1
-11.228538 -30.653076 -6.660992 33.317562 1.219666 1.772077 0.072045 -0.018381 -90836.200000 0 0 1
-12.563538 -30.376376 -6.277892 33.466082 1.178625 1.759504 0.080848 -0.017090 215474.000000 0 0 1
-13.620138 -30.984776 -7.222792 34.608283 1.156645 1.781043 0.096392 -0.023756 100920.000000 0 0 1
-13.684638 -30.403876 -8.535392 34.416826 1.147863 1.821412 0.120302 -0.033469 671627.000000 0 0 1
-14.864038 -30.884176 -9.215792 35.492292 1.122234 1.833462 0.124147 -0.031166 966455.000000 0 0 1
-15.208238 -30.134976 -10.508892 35.353134 1.103419 1.872613 0.148542 -0.025741 -17572.000000 0 0 1
-15.782338 -28.836976 -10.375292 34.471728 1.070032 1.876516 0.160780 -0.031935 276706.000000 0 0 1
-14.808838 -27.854376 -10.014092 33.097583 1.082149 1.878177 0.139251 -0.032797 -38584.700000 0 0 1
-15.307338 -26.455476 -9.625092 32.044488 1.046255 1.875873 0.136428 -0.016858 -142280.000000 0 0 1
-15.716538 -25.608076 -10.661592 31.881855 1.020340 1.911775 0.140356 -0.023643 22354.100000 0 0 1
-16.007938 -24.362776 -10.116292 30.856738 0.989470 1.904820 0.123186 -0.010038 -262978.000000 0 0 1
-16.701338 -23.433776 -11.126092 30.852333 0.951595 1.939733 0.138985 -0.018917 332001.000000 0 0 1
-18.066838 -23.763076 -11.358492 31.939157 0.920742 1.934383 0.144828 -0.025206 118424.000000 0 0 1
-18.546738 -23.158876 -12.548292 32.214510 0.895539 1.970910 0.146636 -0.027076 85007.900000 0 0 1
-20.024338 -23.482076 -12.893492 33.445839 0.864708 1.966550 0.123625 -0.020392 228681.000000 0 0 1
-20.338338 -24.850176 -13.194492 34.717054 0.884913 1.960655 0.150865 -0.021911 -95734.200000 0 0 1
-20.183238 -25.841676 -12.205192 34.987455 0.907727 1.927135 0.161672 -0.026523 -1208820.000000 0 0 1
-20.147938 -27.330976 -12.689592 36.248412 0.935549 1.928445 0.153024 -0.031517 -98445.800000 0 0 1
-19.147638 -27.685376 -13.607392 36.308032 0.965720 1.954952 0.151999 -0.038612 -68705.900000 0 0 1
-17.841138 -27.622676 -13.049892 35.378215 0.997318 1.948587 0.166999 -0.039608 -260228.000000 0 0 1
-16.991538 -28.865576 -13.479392 36.105787 1.038769 1.953393 0.152226 -0.046365 -36159.000000 0 0 1
-16.654838 -29.022576 -14.847892 36.608106 1.049821 1.988421 0.155435 -0.049443 -69259.900000 0 0 1
-16.058638 -30.238776 -15.289092 37.496930 1.082610 1.990777 0.170954 -0.054695 5917.510000 0 0 1
-16.891938 -31.533976 -15.197392 38.867595 1.079018 1.972519 0.162240 -0.059645 -148656.000000 0 0 1
-17.233238 -31.911276 -13.889592 38.835999 1.075635 1.936544 0.170726 -0.054003 17683.700000 0 0 1
-17.403938 -33.286176 -13.757192 40.001586 1.089030 1.921881 0.139972 -0.050252 -882803.000000 0 0 1
-17.954938 -33.647776 -12.353692 40.089479 1.080620 1.884047 0.157411 -0.045994 -234153.000000 0 0 1
-19.278538 -33.259176 -12.087692 40.298227 1.045478 1.875443 0.170730 -0.045185 -63851.800000 0 0 1
-19.768438 -31.898476 -12.019892 39.405351 1.015996 1.880768 0.162757 -0.045857 -79140.200000 0 0 1
-19.063538 -30.846876 -11.064192 37.912591 1.017243 1.866940 0.182816 -0.039977 -147202.000000 0 0 1
-19.496338 -30.966276 -9.731292 37.864436 1.008897 1.830717 0.172726 -0.035515 107511.000000 0 0 1
-19.028838 -29.954876 -8.833492 36.570779 1.004860 1.814754 0.167625 -0.022964 46235.300000 0 0 1
-19.162938 -30.293376 -7.350492 36.591482 1.006766 1.773052 0.156868 -0.019035 73118.800000 0 0 1
-18.226838 -31.207976 -6.828992 36.780301 1.042192 1.757550 0.166253 -0.026363 -25612.700000 0 0 1
-18.471738 -31.464976 -5.444792 36.890318 1.039948 1.718932 0.135633 -0.029467 -366020.000000 0 0 1
-17.593738 -32.565276 -4.770092 37.320110 1.075461 1.698963 0.144497 -0.027859 48684.300000 0 0 1
-16.269738 -32.121176 -4.590792 36.298067 1.101953 1.697611 0.134339 -0.023580 -132174.000000 0 0 1
-16.061138 -31.425876 -3.348392 35.450777 1.098324 1.665389 0.110100 -0.025255 -969364.000000 0 0 1
-14.691538 -30.785576 -3.211292 34.262303 1.125537 1.664661 0.110250 -0.030404 -611822.000000 0 0 1
-13.667538 -31.730376 -3.006192 34.679324 1.164074 1.657591 0.074362 -0.020883 -604156.000000 0 0 1
-12.473638 -31.074976 -2.648792 33.589610 1.189080 1.649736 0.070312 -0.016469 -707641.000000 0 0 1
-11.312138 -32.015276 -2.583792 34.053169 1.231153 1.646745 0.063798 -0.024703 -911873.000000 0 0 1
-11.488838 -32.874276 -1.474292 34.855200 1.234587 1.613107 0.066289 -0.022705 756502.000000 0 0 1
-10.268938 -33.583676 -1.161992 35.137795 1.274053 1.603872 0.094341 -0.031796 2070330.000000 0 0 1
-9.077638 -32.843276 -0.367892 34.076673 1.301136 1.581593 0.110867 -0.042294 1080740.000000 0 0 1
-9.322838 -32.798576 1.013108 34.112876 1.293855 1.541093 0.122890 -0.036393 -293074.000000 0 0 1
-8.241538 -32.344576 1.784308 33.425713 1.321301 1.517390 0.129768 -0.041625 -42015.900000 0 0 1
-7.224638 -33.375576 2.327208 34.227772 1.357620 1.502752 0.134397 -0.050445 -529508.000000 0 0 1
-7.751938 33.722995 3.170108 34.747411 -1.344850 1.479436 0.152749 -0.054406 -15365.900000 0 0 1
-6.843738 32.889795 3.921608 33.822395 -1.365643 1.454588 0.130701 -0.052667 464846.000000 0 0 1
-6.032938 33.658395 5.023908 34.561880 -1.393439 1.424920 0.132296 -0.044265 -622465.000000 0 0 1
-4.969238 -33.713476 4.530908 34.377622 1.424454 1.438614 0.133263 -0.045733 -1293040.000000 0 0 1
-4.218638 -33.195076 5.593708 33.926384 1.444388 1.405162 0.100204 -0.038711 211531.000000 0 0 1
-2.928138 -32.521176 5.017508 33.035984 1.481001 1.418326 0.116072 -0.036843 118489.000000 0 0 1
-3.051938 -31.267976 4.410708 31.724675 1.473499 1.431314 0.106841 -0.033691 101.245000 0 0 1
-3.667538 -31.261776 3.136208 31.632029 1.454013 1.471487 0.115740 -0.041569 173048.000000 0 0 1
-3.987338 -29.796176 2.745508 30.186898 1.437766 1.479720 0.097049 -0.040677 334757.000000 0 0 1
-2.772838 -29.341576 2.158108 29.551212 1.476574 1.497702 0.080591 -0.037635 295225.000000 0 0 1
-2.817138 -28.114376 1.456708 28.292692 1.470927 1.519286 0.080810 -0.031401 -56528.200000 0 0 1
-2.650438 -26.923376 2.407308 27.160415 1.472669 1.482047 0.079525 -0.031705 -150668.000000 0 0 1
-2.672338 -25.622876 1.803508 25.824907 1.466877 1.500903 0.078983 -0.032857 -202048.000000 0 0 1
-2.615038 -24.549176 2.682708 24.833393 1.464674 1.462557 0.058636 -0.024365 -282694.000000 0 1 0
-3.921038 -24.245376 3.460208 24.802940 1.410461 1.430832 0.056784 -0.025854 -27392.200000 0 1 0
-4.142938 -25.111476 4.560608 25.856320 1.407287 1.393486 0.077105 -0.026575 -2463.080000 0 0 1
-5.148838 -24.449076 5.325908 25.546686 1.363235 1.360778 0.065287 -0.022772 139793.000000 0 0 1
-5.825938 -25.328876 6.393908 26.765193 1.344717 1.329575 0.080229 -0.024065 -28929.500000 0 0 1
-4.957838 -25.659476 7.467308 27.179948 1.379932 1.292481 0.072626 -0.026665 11928.000000 0 0 1
-5.647038 -26.351876 8.475508 28.251454 1.359695 1.266101 0.077916 -0.020320 -485493.000000 0 0 1
-4.735438 -26.784776 9.583708 28.839141 1.395809 1.232038 0.064445 -0.010161 -366818.000000 0 0 1
-4.445338 -25.823276 10.649708 28.284605 1.400323 1.184760 0.063695 -0.017153 693880.000000 0 0 1
-5.591538 -25.259276 11.335808 28.245298 1.352944 1.157823 0.061621 -0.020639 687584.000000 0 0 1
-5.223838 -24.322976 12.453308 27.820505 1.359240 1.106683 0.058008 -0.022933 358343.000000 0 0 1
-4.414838 -24.879876 13.492508 28.645188 1.395178 1.080348 0.057738 -0.023922 164893.000000 0 0 1
-3.654838 -23.865476 14.129008 27.974053 1.418834 1.041327 0.055901 -0.032054 358105.000000 0 0 1
-2.617138 -24.398976 15.170508 28.849675 1.463941 1.017086 0.062646 -0.024704 293095.000000 0 0 1
-3.224838 -24.927576 16.328808 29.973548 1.442143 0.994677 0.063402 -0.028790 151169.000000 0 0 1
-2.324838 -25.821776 16.959308 30.980431 1.481004 0.991518 0.064852 -0.023388 253996.000000 0 0 1
-2.818638 -26.253376 18.353308 32.156312 1.463843 0.963374 0.082801 -0.026817 186757.000000 0 0 1
-2.767938 -25.162876 19.265508 31.811815 1.461236 0.920266 0.084609 -0.018810 -3820.560000 0 0 1
-3.759438 -25.389676 20.245908 32.690454 1.423795 0.902918 0.140279 -0.030004 -42796.000000 0 0 1
-3.624838 -24.540676 21.583408 32.882027 1.424149 0.854774 0.113825 -0.025085 465512.000000 0 0 1
-2.396938 -24.872276 22.260408 33.464925 1.474723 0.843053 0.079663 -0.033700 808223.000000 0 0 1
-1.906238 -23.847676 23.155408 33.294419 1.491032 0.801717 0.054334 -0.027866 617380.000000 0 0 1
-1.231438 -22.494976 22.616508 31.922513 1.516108 0.783452 0.065850 -0.038475 120654.000000 0 0 1
-2.122838 -21.586676 21.993208 30.890002 1.472771 0.778476 0.088802 -0.032315 -645579.000000 0 0 1
-1.570838 -20.372476 21.594608 29.729319 1.493843 0.757765 0.080831 -0.032069 -74154.900000 0 0 1
-2.517238 -19.292576 20.925708 28.573156 1.441052 0.749021 0.069524 -0.018805 97720.800000 0 0 1
-3.306638 -18.469376 21.843608 28.795745 1.393640 0.709680 0.099313 -0.037413 1529920.000000 0 0 1
-4.653338 -18.970376 22.049608 29.456984 1.330251 0.724945 0.096322 -0.041074 1769840.000000 0 0 1
-5.707538 -18.839676 20.853908 28.677428 1.276632 0.756578 0.077960 -0.040757 -27929.300000 0 0 1
-5.511438 -19.808776 19.821408 28.559618 1.299428 0.803716 0.100980 -0.045980 -411544.000000 0 0 1
-5.923538 -21.128776 20.017608 29.702156 1.297459 0.831261 0.090339 -0.035970 -77910.700000 0 0 1
-5.565838 -22.020976 18.853208 29.518560 1.323230 0.878002 0.069152 -0.035796 -95674.200000 0 0 1
-6.260238 -23.222676 18.809708 30.533398 1.307481 0.907094 0.066505 -0.038517 -445385.000000 0 0 1
-6.201738 -23.836576 17.557408 30.247421 1.316262 0.951503 0.068498 -0.039971 -81091.000000 0 0 1
-6.875438 -25.207376 17.511108 31.453495 1.304518 0.980352 0.071321 -0.037805 263257.000000 0 0 1
-8.279238 -25.167476 17.688108 31.856189 1.252982 0.982134 0.081331 -0.036198 -347228.000000 0 0 1
-8.794238 -26.457776 17.466608 32.900379 1.249897 1.011141 0.086976 -0.036182 -528917.000000 0 0 1
-10.298738 -26.547476 17.614708 33.482987 1.200732 1.016813 0.084059 -0.034478 -762082.000000 0 0 1
-11.073938 -25.827876 16.632208 32.654887 1.165746 1.036387 0.111918 -0.042193 942840.000000 0 0 1
-12.494038 -25.895276 16.822108 33.311404 1.121260 1.041420 0.098896 -0.041459 1066870.000000 0 0 1
-13.087438 -25.034776 17.999808 33.496479 1.089099 1.003488 0.079467 -0.038130 -591996.000000 0 0 1
-13.019438 -23.655776 17.725608 32.300134 1.067669 0.989894 0.068786 -0.038361 -81909.300000 0 0 1
-13.394738 -22.868576 18.846208 32.520306 1.040938 0.952655 0.054876 -0.028402 650537.000000 0 0 1
-12.207438 -22.273676 19.729308 32.161837 1.069439 0.910389 0.049455 -0.037871 1085800.000000 0 0 1
-11.327138 -23.149776 20.430308 32.887895 1.115747 0.900510 0.061911 -0.032878 -136977.000000 0 0 1
-10.072038 -23.275276 19.838708 32.198738 1.162392 0.906973 0.082536 -0.042212 -128820.000000 0 0 1
-9.027338 -24.053276 20.699008 32.992451 1.211757 0.892604 0.080097 -0.041589 298545.000000 0 0 1
-8.621438 -23.385576 21.868808 33.158093 1.217591 0.850601 0.081810 -0.041568 66637.200000 0 0 1
-7.757838 -24.198276 22.648908 34.039883 1.260554 0.842815 0.076520 -0.031184 230509.000000 0 0 1
-7.552638 -23.556876 24.036908 34.492632 1.260538 0.799771 0.078632 -0.027245 594433.000000 0 0 1
-6.461638 -24.187076 24.719708 35.182828 1.309740 0.791741 0.094666 -0.031604 194503.000000 0 0 1
-6.326338 -23.676176 26.019608 35.743585 1.309694 0.755466 0.080173 -0.026707 27455.600000 0 0 1
-5.168738 -24.213576 26.878608 36.544120 1.360488 0.744375 0.105765 -0.019819 328068.000000 0 0 1
-3.848938 -24.053576 26.387808 35.912466 1.412126 0.745452 0.096533 -0.019745 26117.100000 0 0 1
-2.909538 -24.368776 27.408708 36.790487 1.451963 0.730270 0.083554 -0.018732 1062960.000000 0 0 1
-1.545038 -23.642376 27.026508 35.941358 1.505539 0.719764 0.084684 -0.023275 123594.000000 0 0 1
-1.604338 -22.209776 26.892008 34.914583 1.498686 0.691606 0.082913 -0.021247 319405.000000 0 0 1
-0.326438 -21.625976 26.637708 34.312634 1.555703 0.681984 0.084117 -0.031132 652065.000000 0 0 1
0.569062 -21.440876 27.894608 35.187272 -1.544262 0.655494 0.058320 -0.024902 -329254.000000 0 0 1
1.107962 -22.682276 28.367008 36.337314 -1.521988 0.675079 0.073627 -0.021911 283973.000000 0 0 1
1.937262 -22.380176 29.513508 37.090058 -1.484450 0.650592 0.068303 -0.028945 242378.000000 0 0 1
2.693362 -23.669576 29.967008 38.282171 -1.457494 0.671655 0.072350 -0.035894 -618165.000000 0 0 1
3.564062 -24.142476 28.930808 37.849086 -1.424229 0.700728 0.068297 -0.042883 395084.000000 0 0 1
4.342862 -25.256876 29.316608 38.938846 -1.400514 0.718356 0.062003 -0.036921 -540219.000000 0 0 1
5.476762 -24.958276 30.338408 39.665217 -1.354783 0.699970 0.061885 -0.033643 -95712.700000 0 0 1
6.699762 -24.420176 29.830208 39.128929 -1.303031 0.703849 0.071718 -0.039070 922168.000000 0 0 1
7.491762 -25.286376 28.986108 39.188286 -1.282759 0.738228 0.068641 -0.035157 -241485.000000 0 0 1
8.774862 -24.645576 28.418708 38.626747 -1.228749 0.744058 0.068535 -0.030591 -173557.000000 0 0 1
8.464862 -23.604976 27.532708 37.241090 -1.226476 0.738751 0.083975 -0.038618 342464.000000 0 0 1
9.576262 -23.331576 26.682908 36.715730 -1.181321 0.757228 0.062239 -0.028521 142886.000000 0 0 1
9.325462 -22.264876 25.643208 35.217369 -1.174153 0.755191 0.078408 -0.030688 -181555.000000 0 0 1
8.481562 -22.657176 24.593808 34.498404 -1.212602 0.777176 0.071692 -0.025503 -69035.700000 0 0 1
8.162962 -21.493476 23.907908 33.169135 -1.207835 0.765858 0.068982 -0.021343 467538.000000 0 0 1
7.424862 -21.734176 22.501808 32.153294 -1.241605 0.795638 0.073929 -0.017252 389812.000000 0 0 1
8.312162 -22.276176 21.552008 32.090639 -1.213656 0.834433 0.067397 -0.005842 39225.900000 0 0 1
7.692562 -22.599276 20.301708 31.337871 -1.242708 0.866060 0.071761 -0.008475 167047.000000 0 0 1
8.538362 -23.502276 19.374608 31.632832 -1.222323 0.911597 0.086497 -0.026107 -258835.000000 0 0 1
9.678062 -22.944776 18.801608 31.203014 -1.171641 0.924095 0.087400 -0.025030 -720570.000000 0 0 1
10.331662 -23.917576 17.998908 31.666297 -1.163037 0.966245 0.092879 -0.023354 -97869.300000 0 0 1
11.614362 -23.272476 17.459008 31.326004 -1.107901 0.979626 0.093325 -0.028251 -175023.000000 0 0 1
11.342362 -22.308576 16.456208 29.952104 -1.100427 0.989129 0.107321 -0.021086 -226118.000000 0 0 1
12.560162 -21.835876 15.958508 29.820079 -1.048806 1.006099 0.103390 -0.028505 -141850.000000 0 0 1
-12.443438 22.391295 11.598008 28.119798 -1.063567 1.145655 0.017691 -0.015169 -525675.000000 0 0 1
-13.454838 21.534895 11.171108 27.741269 -1.012346 1.156344 0.016156 -0.020703 -218948.000000 0 0 1
-13.024938 20.378395 10.471308 26.354815 -1.002083 1.162201 0.044742 -0.025215 -123539.000000 0 0 1
-14.178738 19.855595 9.596508 26.217823 -0.950675 1.196057 0.061302 -0.030328 -657622.000000 0 0 1
-14.360538 20.619395 8.371108 26.485089 -0.962452 1.249213 0.063222 -0.028943 -95011.900000 0 0 1
-15.016638 19.845695 7.353808 25.950521 -0.923040 1.283482 0.071520 -0.030992 596468.000000 0 0 1
-16.560138 19.736395 7.566108 26.851619 -0.872684 1.285153 0.055005 -0.028464 -145094.000000 0 0 1
-17.007938 18.701195 8.419408 26.643781 -0.832781 1.249287 0.046863 -0.027264 361404.000000 0 0 1
-18.388238 18.871795 8.702308 27.748912 -0.798375 1.251805 0.046037 -0.017092 166225.000000 0 0 1
-19.025938 17.717595 9.526708 27.688583 -0.749806 1.219552 0.052187 -0.020834 -48479.200000 0 0 1
-18.970238 16.415295 9.013308 26.656548 -0.713320 1.225870 0.057837 -0.025104 172766.000000 0 0 1
-19.533838 15.460495 9.904808 26.808636 -0.669520 1.192365 0.067303 -0.031796 -288798.000000 0 0 1
-18.618838 14.845495 11.001608 26.231379 -0.673115 1.138005 0.067740 -0.025550 -246865.000000 0 0 1
-17.617038 14.028295 10.452408 24.827523 -0.672475 1.136248 0.061139 -0.013488 393071.000000 0 1 0
-16.771338 13.308895 11.363108 24.238909 -0.670796 1.082869 0.048919 -0.011037 970203.000000 0 1 0
-17.541138 12.099695 12.088708 24.499612 -0.603840 1.054774 0.047982 -0.014149 -65679.800000 0 1 0
-18.156338 11.206795 11.231908 24.112250 -0.552999 1.086238 0.028327 -0.014825 -53375.100000 0 1 0
-19.061738 10.461995 12.035308 24.852602 -0.501958 1.065271 0.040510 -0.010413 38885.900000 0 1 0
-20.089338 9.596695 11.255708 24.947325 -0.445650 1.102710 0.050111 -0.016928 -276512.000000 0 1 0
-19.568538 8.582095 10.428808 23.776881 -0.413305 1.116744 0.043515 -0.014257 34995.900000 0 1 0
-19.046038 9.021895 9.182308 22.988278 -0.442378 1.159897 0.058394 -0.012680 -571551.000000 0 1 0
-20.065038 9.571195 8.148308 23.677171 -0.445086 1.219472 0.070858 -0.017422 -198344.000000 0 1 0
-20.726538 8.464895 7.612308 23.647221 -0.387734 1.243049 0.065682 -0.021618 -1005.500000 0 1 0
-21.633538 8.821595 6.609508 24.279953 -0.387190 1.295096 0.087176 -0.018035 -179217.000000 0 1 0
-21.798738 7.734495 5.524308 23.780777 -0.340957 1.336353 0.094911 -0.022334 -414982.000000 0 1 0
-22.472338 6.604695 5.932408 24.162397 -0.285854 1.322738 0.102699 -0.026495 190500.000000 0 1 0
-22.229838 5.540595 5.102708 23.471291 -0.244265 1.351644 0.105165 -0.013560 -292134.000000 0 1 0
-22.996138 4.277495 5.493108 24.026934 -0.183907 1.340133 0.096596 -0.022285 527983.000000 0 1 0
-24.294738 4.206795 4.887408 25.135993 -0.171457 1.375111 0.144338 -0.022914 1005410.000000 0 0 1
-25.005238 3.010595 5.196908 25.716404 -0.119822 1.367310 0.159297 -0.033266 -13341.000000 0 0 1
-26.280538 2.886195 4.332208 26.791133 -0.109384 1.408380 0.169733 -0.037202 -87294.000000 0 0 1
-26.003888 2.560495 2.978508 26.298856 -0.098149 1.457297 0.178795 -0.031576 1260040.000000 0 0 1
-27.223128 2.647995 2.213208 27.441007 -0.096965 1.490055 0.179604 -0.025259 805346.000000 0 0 1
-26.917858 2.630495 0.704608 27.055259 -0.097414 1.544750 0.188851 -0.027966 -183385.000000 0 0 1
-26.212228 3.764195 0.274508 26.482549 -0.142629 1.560431 0.180430 -0.033775 329846.000000 0 0 1
-25.956368 3.829095 -1.142492 26.262146 -0.146464 1.614313 0.183798 -0.030014 -319563.000000 0 0 1
-27.115608 4.491495 -1.897192 27.550482 -0.164152 1.639713 0.189867 -0.024881 380335.000000 0 0 1
-28.285348 3.675095 -1.884492 28.585285 -0.129205 1.636769 0.182414 -0.026945 820469.000000 0 0 1
-29.506668 4.405295 -2.016692 29.901791 -0.148204 1.638291 0.165227 -0.009592 -245281.000000 0 0 1
-30.707538 3.518295 -2.195192 30.986290 -0.114077 1.641700 0.141311 -0.012252 -983642.000000 0 0 1
-30.898848 2.833895 -3.426392 31.217141 -0.091459 1.680778 0.137164 -0.017862 477202.000000 0 0 1
-31.682198 1.651195 -3.301092 31.896478 -0.052070 1.674476 0.142908 -0.028203 -197950.000000 0 0 1
-31.931688 0.958795 -4.691392 32.288715 -0.030017 1.716608 0.142385 -0.028840 112981.000000 0 0 1
-30.765598 0.599095 -5.474692 31.254651 -0.019470 1.746869 0.148926 -0.034034 914648.000000 0 0 1
-30.978528 -0.253805 -6.597292 31.674246 0.008193 1.780618 0.148402 -0.028366 -428147.000000 0 0 1
-31.491748 0.448395 -7.882192 32.466293 -0.014238 1.816028 0.140589 -0.024744 575399.000000 0 0 1
-32.862988 0.828995 -7.678192 33.758226 -0.025220 1.800251 0.166033 -0.028281 1204000.000000 0 0 1
-33.418758 1.549995 -8.814392 34.596378 -0.046348 1.828414 0.178087 -0.032710 -236345.000000 0 0 1
-34.893604 1.911095 -8.644192 35.999138 -0.054715 1.813288 0.206237 -0.032724 -403835.000000 0 0 1
-35.191825 2.891295 -7.647792 36.129114 -0.081974 1.784089 0.174619 -0.024464 1335860.000000 0 0 1
-36.638828 2.979095 -7.601392 37.537446 -0.081131 1.774708 0.180784 -0.021074 1216050.000000 0 0 1
36.945122 3.804795 -6.348292 37.679163 0.102623 1.740087 0.168486 -0.027035 199112.000000 0 0 1
35.625742 3.472095 -5.946692 36.285150 0.097153 1.735427 0.169362 -0.032315 328717.000000 0 0 1
35.074682 4.388095 -5.023392 35.703266 0.124461 1.711963 0.166182 -0.029611 944444.000000 0 0 1
33.561262 4.020995 -4.745792 34.132818 0.119242 1.710287 0.148131 -0.034861 934424.000000 0 0 1
33.342722 2.763095 -4.002092 33.695528 0.082681 1.689850 0.162984 -0.038070 -661554.000000 0 0 1
32.182962 2.179095 -4.462592 32.563880 0.067606 1.708270 0.157320 -0.038036 -849638.000000 0 0 1
32.078862 0.781195 -3.825492 32.315601 0.024348 1.689454 0.194942 -0.030159 -302256.000000 0 0 1
33.099352 -0.061405 -4.296292 33.377073 -0.001855 1.699874 0.168856 -0.037079 -12753.100000 0 0 1
33.077612 -1.373305 -3.651092 33.306829 -0.041494 1.680637 0.174816 -0.035618 -83738.600000 0 0 1
34.273262 -2.236605 -4.055592 34.584776 -0.065166 1.688332 0.161370 -0.042464 -99793.100000 0 0 1
34.113582 -3.547205 -3.499592 34.475590 -0.103610 1.672481 0.145799 -0.043187 147522.000000 0 0 1
35.288102 -4.316105 -3.624092 35.735318 -0.121706 1.672386 0.165875 -0.039193 186512.000000 0 0 1
34.999802 -5.694905 -2.983792 35.585406 -0.161299 1.654744 0.162288 -0.030986 130152.000000 0 0 1
34.881472 -5.829505 -1.581392 35.400580 -0.165593 1.615483 0.164317 -0.021109 -13329.700000 0 0 1
34.782302 -7.154805 -1.263592 35.533033 -0.202873 1.606365 0.165741 -0.034314 -11741.000000 0 0 1
34.370462 -7.515405 0.175108 35.182960 -0.215271 1.565819 0.150129 -0.023329 -372347.000000 0 0 1
33.016042 -7.264205 0.437108 33.808561 -0.216570 1.557867 0.134377 -0.030650 -424097.000000 0 0 1
32.604682 -7.624305 1.726708 33.528747 -0.229713 1.519274 0.134530 -0.032946 -677366.000000 0 0 1
32.317972 -9.139505 2.045608 33.647680 -0.275603 1.509964 0.143945 -0.033806 420233.000000 0 0 1
31.117182 -9.728205 1.509708 32.637344 -0.303004 1.524523 0.135037 -0.041630 1279660.000000 0 0 1
29.901542 -9.305405 2.164708 31.390743 -0.301701 1.501781 0.125437 -0.048103 647103.000000 0 0 1
28.728972 -10.354805 1.934808 30.599335 -0.345937 1.507524 0.138295 -0.048966 151288.000000 0 0 1
27.485572 -10.184005 2.594608 29.426224 -0.354839 1.482508 0.171513 -0.051591 418108.000000 0 0 1
26.635472 -9.217105 2.096208 28.263006 -0.333148 1.496560 0.167904 -0.050441 -701815.000000 0 0 1
25.871472 -9.604905 0.807508 27.608682 -0.355483 1.541544 0.144137 -0.043821 -1059760.000000 0 0 1
26.745872 -9.648605 -0.305792 28.434676 -0.346220 1.581551 0.136105 -0.045634 368861.000000 0 0 1
26.197372 -9.830605 -1.626692 28.028365 -0.358991 1.628866 0.123126 -0.036860 -594790.000000 0 0 1
25.466872 -11.148605 -1.843492 27.861289 -0.412636 1.637011 0.106241 -0.022661 394716.000000 0 0 1
24.089672 -11.153605 -1.464592 26.586843 -0.433615 1.625911 0.100993 -0.018145 475221.000000 0 0 1
23.575872 -12.435005 -1.461892 26.694348 -0.485363 1.625588 0.084973 -0.015638 327077.000000 0 0 1
22.031372 -12.596505 -1.317692 25.412391 -0.519391 1.622672 0.095403 -0.018264 683526.000000 0 0 1
21.276372 -12.110005 -2.426992 24.601352 -0.517447 1.669610 0.097890 -0.010145 -98877.100000 0 1 0
19.909272 -12.132005 -2.127392 23.411332 -0.547277 1.661792 0.107776 -0.017900 141011.000000 0 1 0
18.935672 -11.634705 -3.262092 22.462575 -0.550965 1.716535 0.102339 -0.013277 424566.000000 0 1 0
18.864872 -12.559805 -4.310292 23.069693 -0.587387 1.758739 0.092630 -0.014181 -83289.500000 0 1 0
17.826672 -12.156705 -5.143992 22.181893 -0.598501 1.804827 0.088053 -0.008946 -348443.000000 0 1 0
17.828472 -12.777905 -6.553192 22.892654 -0.621855 1.861115 0.088641 -0.014408 -174824.000000 0 1 0
17.411372 -14.113205 -6.696492 23.391910 -0.681155 1.861132 0.096597 -0.015343 226117.000000 0 1 0
17.416372 -14.476405 -8.072692 24.042976 -0.693475 1.913209 0.095128 -0.023260 -264340.000000 0 1 0
16.258572 -15.398105 -8.495992 23.950463 -0.758224 1.933424 0.081161 -0.027236 225875.000000 0 1 0
14.975172 -14.793305 -8.649992 22.757856 -0.779289 1.960688 0.094235 -0.023691 193151.000000 0 1 0
14.007372 -15.660305 -9.136892 22.911447 -0.841056 1.980995 0.086461 -0.030293 -450034.000000 0 1 0
13.868872 -15.699605 -10.693692 23.519742 -0.847234 2.042797 0.097642 -0.042351 -820816.000000 0 1 0
13.083772 -14.726205 -11.338492 22.729004 -0.844389 2.093074 0.076240 -0.035719 391554.000000 0 1 0
13.618272 -13.373805 -11.232092 22.146690 -0.776341 2.102692 0.085507 -0.018153 101204.000000 0 1 0
13.538272 -12.567005 -12.537292 22.324832 -0.748210 2.167097 0.089954 -0.021537 -407203.000000 0 1 0
14.456272 -13.010505 -13.488892 23.668698 -0.732810 2.177186 0.097563 -0.021562 -124216.000000 0 1 0
14.537472 -12.299505 -14.715892 24.066022 -0.702199 2.228726 0.121896 -0.016086 785223.000000 0 1 0
16.035572 -12.089205 -15.161392 25.162597 -0.645992 2.217472 0.131243 -0.034786 782839.000000 0 0 1
16.828972 -13.249605 -15.224292 26.278231 -0.666955 2.188727 0.133846 -0.037940 111321.000000 0 0 1
17.975272 -12.933705 -16.024392 27.334452 -0.623712 2.197199 0.131549 -0.030666 188980.000000 0 0 1
19.079172 -14.007305 -15.937492 28.534594 -0.633291 2.163412 0.132621 -0.027952 -372856.000000 0 0 1
19.804772 -13.989605 -14.732992 28.372506 -0.614992 2.116793 0.102695 -0.034081 -34462.800000 0 0 1
20.786672 -15.017005 -14.732892 29.574555 -0.625624 2.092273 0.078135 -0.017004 559383.000000 0 0 1
21.886772 -14.737705 -13.642992 29.704578 -0.592623 2.047991 0.057834 -0.017842 406029.000000 0 0 1
22.679472 -13.590805 -13.919592 29.880152 -0.539872 2.055388 0.061526 -0.005955 28506.300000 0 0 1
23.665972 -13.435205 -12.909492 30.120391 -0.516332 2.013735 0.054507 -0.001805 -26731.200000 0 0 1
24.145072 -11.962805 -12.964292 29.902610 -0.460005 2.019225 0.060867 -0.004295 -262570.000000 0 0 1
23.231572 -10.952505 -12.525592 28.575405 -0.440547 2.024541 0.052196 0.006021 277866.000000 0 0 1
23.706472 -9.605305 -12.574792 28.502353 -0.384961 2.027714 0.068290 -0.006504 147688.000000 0 0 1
24.851772 -9.198005 -11.603092 28.928284 -0.354481 1.983512 0.078206 -0.009101 917256.000000 0 0 1
26.100072 -9.851605 -11.871492 30.318315 -0.360921 1.973125 0.078522 -0.010353 1250770.000000 0 0 1
27.101972 -9.602105 -10.865292 30.737142 -0.340496 1.932096 0.080216 -0.011506 201557.000000 0 0 1
28.475372 -10.248005 -11.023792 32.208577 -0.345458 1.920120 0.093958 -0.020361 92602.100000 0 0 1
29.236542 -9.707805 -12.114492 33.102535 -0.320589 1.945470 0.083010 -0.021765 376707.000000 0 0 1
30.532792 -10.269505 -12.250892 34.464453 -0.324457 1.934207 0.081041 -0.021823 227681.000000 0 0 1
31.184142 -9.711205 -13.536992 35.355458 -0.301896 1.963711 0.059335 -0.021324 -462615.000000 0 0 1
30.722222 -10.245405 -14.728292 35.577322 -0.321887 1.997618 0.066324 -0.019957 221283.000000 0 0 1
31.349872 -9.643705 -15.879292 36.441288 -0.298429 2.021668 0.061855 -0.015602 42297.300000 0 0 1
31.057072 -10.406705 -17.186392 36.989368 -0.323325 2.054014 0.038811 -0.013959 27920.700000 0 0 1
29.745742 -10.146805 -17.623192 36.032537 -0.328740 2.081844 0.037925 -0.008436 -81195.500000 0 0 1
29.627462 -9.031905 -18.476492 36.065809 -0.295900 2.108656 0.031336 -0.004970 -134837.000000 0 0 1
28.216472 -8.803705 -19.071492 35.176645 -0.302435 2.143806 0.021479 -0.005633 105361.000000 0 0 1
27.837972 -9.604405 -20.201392 35.711252 -0.332223 2.172062 0.011367 0.008678 572949.000000 0 0 1
26.539072 -9.280405 -20.681492 34.902327 -0.336397 2.205021 0.047256 0.009090 303792.000000 0 0 1
26.200972 -9.779305 -22.051592 35.614582 -0.357229 2.238486 0.073365 0.002016 -89069.300000 0 0 1
26.178472 -11.209005 -22.069592 36.028060 -0.404558 2.230100 0.073629 -0.000232 -147938.000000 0 0 1
25.432872 -11.656005 -23.135192 36.303313 -0.429739 2.261753 0.091545 -0.003027 -962965.000000 0 0 1
25.806472 -13.078405 -23.557692 37.309296 -0.469063 2.254174 0.081418 0.007150 284438.000000 0 0 1
26.993972 -13.399805 -24.252692 38.683619 -0.460763 2.248428 0.076283 0.008094 -428766.000000 0 0 1
28.165972 -13.219805 -23.527092 39.007811 -0.438831 2.218226 0.047281 0.006995 -1316460.000000 0 0 1
29.398282 -13.837205 -24.179792 40.501723 -0.439918 2.210561 0.040800 0.013516 -353706.000000 0 0 1
29.893652 -13.016005 -25.253612 41.240657 -0.410655 2.229823 0.049425 0.001240 -697420.000000 0 0 1
31.262572 -13.253305 -25.300332 42.345074 -0.400968 2.211151 0.019232 -0.005887 -874954.000000 0 0 1
31.872702 -12.835705 -26.618482 43.464561 -0.382847 2.229912 0.030805 -0.013321 -253655.000000 0 0 1
31.532622 -13.672305 -27.717882 44.153360 -0.409126 2.249473 0.031020 -0.015315 96195.300000 0 0 1
32.155622 -13.171905 -28.879702 45.183186 -0.388780 2.264214 0.035331 -0.021630 95469.500000 0 0 1
32.004432 -14.044605 -30.158212 46.163323 -0.413529 2.282723 0.036045 -0.029221 -165951.000000 0 0 1
32.950032 -15.069605 -30.179152 47.154839 -0.428947 2.265296 0.044926 -0.030871 -300031.000000 0 0 1
33.204132 -15.679105 -31.414272 48.323961 -0.441164 2.278481 0.023068 -0.027158 621078.000000 0 0 1
31.972472 -16.476005 -32.009172 48.148570 -0.475827 2.298022 0.013683 -0.023533 886585.000000 0 0 1
31.078662 -15.670305 -32.754052 47.794034 -0.467013 2.325835 0.016722 -0.021850 -79830.700000 0 0 1
29.950882 -16.461405 -33.138992 47.604895 -0.502546 2.340783 0.025426 -0.023267 114581.000000 0 0 1
29.242602 -15.656505 33.725352 47.303862 -0.491565 0.777098 0.065319 -0.024564 -451837.000000 0 0 1
28.540772 -14.518805 -33.674002 46.468374 -0.470587 2.381344 0.080186 -0.032554 50577.800000 0 0 1
29.251622 -13.291105 -33.531502 46.439988 -0.426483 2.377542 0.072468 -0.032730 -845770.000000 0 0 1
28.439372 -12.065905 -33.144012 45.309044 -0.401250 2.391330 0.079045 -0.031550 -11123.200000 0 0 1
27.582272 -11.666205 33.761317 45.129908 -0.400142 0.725614 0.094956 -0.036855 -40816.600000 0 0 1
26.711172 -10.634305 -33.819412 44.388375 -0.378886 2.437035 0.082246 -0.032352 -100057.000000 0 0 1
21.443762 -29.794976 8.683908 37.722484 -0.946964 1.338508 0.050893 -0.013380 155862.000000 0 0 1
22.246962 -29.101376 7.727608 37.437058 -0.918102 1.362886 0.070022 -0.015710 379121.000000 0 0 1
23.336862 -29.933476 7.340008 38.658736 -0.908604 1.379770 0.059591 -0.016922 426340.000000 0 0 1
23.906562 -29.512776 5.954908 38.444617 -0.889963 1.415274 0.045135 -0.014844 249684.000000 0 0 1
24.436162 -28.190876 5.823808 37.759347 -0.856623 1.415943 0.051740 -0.000225 221281.000000 0 0 1
25.211462 -28.034276 4.657908 37.989927 -0.838363 1.447878 0.026529 -0.004645 82988.400000 0 0 1
25.468562 -26.596476 4.234408 37.066837 -0.807058 1.456309 0.018943 -0.002785 369947.000000 0 0 1
26.342662 -25.924376 5.146208 37.316117 -0.777395 1.432447 0.006018 0.000500 223715.000000 0 0 1
25.911262 -24.615176 5.325108 36.133878 -0.759752 1.422886 0.015670 0.001864 154793.000000 0 0 1
26.718062 -23.876776 6.433108 36.405222 -0.729299 1.393155 0.021472 0.005343 -364222.000000 0 0 1
27.969262 -23.406976 6.045208 36.969050 -0.696829 1.406538 0.006515 0.013814 -890033.000000 0 0 1
28.478262 -22.504776 6.942308 36.955000 -0.668764 1.381815 0.021841 -0.001275 -256743.000000 0 0 1
27.943062 -21.028576 6.945108 35.654597 -0.645132 1.374754 0.029422 -0.001114 -112929.000000 0 0 1
28.230962 -20.279576 5.741208 35.230809 -0.622932 1.407106 0.030514 0.006868 -43122.700000 0 0 1
27.801862 -18.996176 5.893708 34.183827 -0.599409 1.397518 0.058957 -0.007807 -632069.000000 0 0 1
27.745362 -18.282376 4.515708 33.532701 -0.582630 1.435720 0.059008 -0.003291 290513.000000 0 0 1
29.050862 -17.953276 4.068908 34.392277 -0.553546 1.452210 0.072530 0.000361 206959.000000 0 0 1
28.959662 -17.146576 2.900808 33.779902 -0.534579 1.484817 0.064754 0.005638 -205498.000000 0 0 1
30.150762 -16.241776 2.604808 34.346015 -0.494115 1.494883 0.086669 -0.020491 -160830.000000 0 0 1
29.968562 -15.030976 3.204808 33.679604 -0.464893 1.475496 0.102138 -0.033344 606435.000000 0 0 1
31.208962 -14.417076 3.568608 34.562789 -0.432750 1.467362 0.107616 -0.037051 616960.000000 0 0 1
30.918962 -13.115476 4.374908 33.869422 -0.401183 1.441265 0.128820 -0.044621 366859.000000 0 0 1
30.456662 -13.398476 5.696408 33.757614 -0.414439 1.401241 0.108514 -0.035358 119407.000000 0 0 1
30.121162 -12.263276 6.483508 33.161849 -0.386639 1.374018 0.111529 -0.034714 -258950.000000 0 0 1
29.688262 -12.667176 7.890408 33.228133 -0.403287 1.331044 0.121780 -0.025034 319092.000000 0 0 1
28.339562 -13.133976 8.056108 32.257294 -0.433983 1.318379 0.125776 -0.024912 647027.000000 0 0 1
27.870862 -13.260976 9.421708 32.270839 -0.444101 1.274524 0.140026 -0.017781 224221.000000 0 0 1
28.428062 -14.393676 10.318108 33.493223 -0.468690 1.257637 0.120916 -0.017156 -979298.000000 0 0 1
29.564962 -14.211676 11.074908 34.622425 -0.448083 1.245197 0.101961 -0.006860 -784608.000000 0 0 1
29.832262 -15.435776 11.721808 35.575663 -0.477485 1.235033 0.098234 -0.014316 -263631.000000 0 0 1
30.590162 -15.359276 13.063208 36.637587 -0.465325 1.206222 0.088481 -0.007954 -150046.000000 0 0 1
31.953662 -15.162576 12.763108 37.601026 -0.443055 1.224480 0.066244 -0.007847 -425887.000000 0 0 1
32.748762 -15.432576 13.869108 38.768518 -0.440377 1.204948 0.060451 -0.010004 -395854.000000 0 0 1
34.273762 -15.382976 13.761008 40.008650 -0.421878 1.219675 0.062756 -0.018136 -453831.000000 0 0 1
34.884062 -14.140576 14.069808 40.184738 -0.385118 1.213088 0.058612 -0.010235 77802.100000 0 0 1
36.172262 -14.145576 13.494608 41.117324 -0.372777 1.236401 0.040162 -0.013697 -246263.000000 0 0 1
36.761662 -12.706476 13.572508 41.195720 -0.332790 1.235060 0.032130 -0.016608 -557504.000000 0 0 1
-35.979848 -12.648376 13.065208 40.314148 0.338047 1.240752 0.059035 -0.018885 30563.800000 0 0 1
-35.316048 -11.417276 13.307808 39.429370 0.312683 1.226526 0.060861 -0.012958 445401.000000 0 0 1
-34.070548 -11.062376 12.410908 37.910540 0.313952 1.237274 0.062734 -0.024178 1221520.000000 0 0 1
-32.876248 -11.787176 12.723308 37.170792 0.344255 1.221440 0.044184 -0.020132 523740.000000 0 0 1
-32.875048 -13.092676 12.084908 37.392940 0.379002 1.241701 0.047015 -0.021224 -700877.000000 0 0 1
-31.701348 -14.035576 12.333108 36.797804 0.416803 1.229023 0.038735 -0.015833 -125794.000000 0 0 1
-30.525048 -13.798576 11.587208 35.446335 0.424550 1.237781 0.054258 -0.015407 -221202.000000 0 0 1
-29.614248 -14.841676 11.807408 35.166659 0.464581 1.228389 0.061939 -0.017283 520714.000000 0 0 1
-28.297148 -14.624776 10.953808 33.683803 0.477020 1.239578 0.073309 -0.013803 652738.000000 0 0 1
-28.412848 -14.842676 9.538408 33.445122 0.481401 1.281586 0.067786 -0.013242 335689.000000 0 0 1
-27.097048 -14.891176 9.015808 32.206861 0.502497 1.287071 0.071560 -0.011868 259075.000000 0 0 1
-27.033448 -14.547676 7.506308 31.603589 0.493689 1.330990 0.107433 -0.009579 70142.700000 0 0 1
-27.492248 -15.571576 6.608408 32.279541 0.515346 1.364614 0.105213 -0.007716 328467.000000 0 0 1
-27.036848 -15.367776 5.264408 31.541618 0.516861 1.403108 0.114913 -0.004495 -147658.000000 0 0 1
-27.514948 -16.479276 4.346508 32.365584 0.539626 1.436095 0.106949 -0.010719 346991.000000 0 0 1
-28.904748 -16.426276 4.055208 33.492562 0.516777 1.449421 0.075067 -0.021190 317539.000000 0 0 1
-29.271548 -17.464676 3.185708 34.234298 0.537948 1.477605 0.073107 -0.021037 295687.000000 0 0 1
-30.693548 -18.024976 3.456808 35.762315 0.530996 1.473985 0.079758 -0.024305 810977.000000 0 0 1
-31.828048 -17.236176 3.055508 36.324187 0.496325 1.486579 0.085347 -0.019026 369691.000000 0 0 1
-33.009848 -17.873976 3.482008 37.699515 0.496274 1.478302 0.087433 -0.021956 -170647.000000 0 0 1
-34.270548 -17.091376 3.061708 38.418220 0.462622 1.491018 0.098149 -0.024165 -180241.000000 0 0 1
-34.639348 -17.408176 1.769408 38.807987 0.465689 1.525187 0.094612 -0.023755 -203630.000000 0 0 1
-35.638748 -16.516776 1.311208 39.301953 0.433982 1.537428 0.118615 -0.027597 -342073.000000 0 0 1
-36.112148 -16.959176 -0.071192 39.896190 0.439054 1.572581 0.098336 -0.021295 -107817.000000 0 0 1
-35.109748 -16.812676 -1.070492 38.942348 0.446594 1.598289 0.093793 -0.017371 329860.000000 0 0 1
-35.512648 -17.408076 -2.259792 39.614340 0.455772 1.627872 0.083757 -0.011557 489276.000000 0 0 1
-34.301248 -17.762976 -3.195492 38.759645 0.477827 1.653334 0.059908 -0.013527 528085.000000 0 0 1
-34.750648 -18.650776 -4.189992 39.661253 0.492577 1.676638 0.056599 -0.013459 1545920.000000 0 0 1
-33.630848 -19.351376 -4.849292 39.102754 0.522139 1.695131 0.054614 -0.011439 1187370.000000 0 0 1
-34.195148 -20.411976 -5.824592 40.247768 0.538156 1.716025 0.069559 -0.016124 -174508.000000 0 0 1
-34.644948 -21.575976 -5.171792 41.140523 0.556997 1.696840 0.076062 -0.017939 68143.000000 0 0 1
-35.010648 -22.638176 -6.050492 42.128861 0.573987 1.714913 0.064690 -0.016213 14920.100000 0 0 1
-35.662348 -23.846676 -5.301492 43.226992 0.589395 1.693749 0.070687 -0.019257 353399.000000 0 0 1
-34.754148 -24.812576 -4.750792 42.966089 0.620024 1.681594 0.080006 -0.021209 191259.000000 0 0 1
-35.445748 -26.079176 -4.591492 44.244845 0.634318 1.674758 0.062939 -0.006810 386830.000000 0 0 1
-34.690448 -27.287176 -3.971992 44.314714 0.666511 1.660548 0.079200 -0.010441 504468.000000 0 0 1
-33.571648 -27.667176 -4.834292 43.770979 0.689278 1.681467 0.064563 -0.016559 1280830.000000 0 0 1
-32.858948 -28.866476 -4.466192 43.965109 0.720807 1.672557 0.069747 -0.009897 99193.900000 0 0 1
-31.857748 -28.734676 -3.284592 43.027738 0.733901 1.647207 0.082155 -0.010371 -317298.000000 0 0 1
-32.414148 -28.364276 -2.063992 43.121563 0.718863 1.618679 0.075065 -0.013573 586296.000000 0 0 1
-31.296948 -28.275176 -1.160192 42.193964 0.734717 1.598296 0.091843 -0.016328 823920.000000 0 0 1
-31.824648 -28.041276 0.273408 42.416932 0.722285 1.564351 0.086069 -0.019495 192415.000000 0 0 1
-32.457548 -29.231676 0.720508 43.686410 0.733153 1.554303 0.075452 -0.011433 -184627.000000 0 0 1
-32.908448 -29.063576 2.048808 43.952873 0.723436 1.524166 0.077640 -0.008623 -228639.000000 0 0 1
-33.757348 -30.227676 2.528108 45.383502 0.730290 1.515062 0.029691 0.001014 -100907.000000 0 0 1
-34.566048 -30.157976 3.756108 46.026335 0.717398 1.489098 0.032955 0.005148 723454.000000 0 0 1
-35.023448 -31.339176 4.310008 47.194937 0.729938 1.479345 0.030502 0.011971 -159502.000000 0 0 1
-36.177048 -32.001876 3.519308 48.428137 0.724236 1.498061 0.019855 0.011204 -347967.000000 0 0 1
-36.680148 -33.236576 3.967308 49.657253 0.736185 1.490817 0.044247 0.002299 -147374.000000 0 0 1
36.378862 -33.716176 3.093108 49.696775 -0.747430 1.508516 0.055930 0.006001 -218843.000000 0 0 1
35.267862 33.439795 3.735308 48.744174 0.758798 1.494090 0.062744 0.001997 617337.000000 0 0 1
34.423862 33.976395 4.776408 48.602591 0.778856 1.472363 0.056376 -0.005928 789555.000000 0 0 1
33.615362 -32.992376 4.416408 47.307442 -0.776045 1.477305 0.066101 -0.008673 28892.300000 0 0 1
32.490462 -32.989276 3.346408 46.423280 -0.793016 1.498649 0.073238 0.002105 -210895.000000 0 0 1
33.035362 -33.203576 2.046408 46.882837 -0.787938 1.527133 0.072275 0.007529 -153772.000000 0 0 1
32.182662 -32.974876 0.924808 46.086022 -0.797556 1.550728 0.077512 0.004158 -742722.000000 0 0 1
32.625262 -33.694676 -0.422692 46.903279 -0.801522 1.579808 0.065977 0.010030 300120.000000 0 0 1
33.786662 -33.283076 -1.082592 47.439158 -0.777890 1.593619 0.036269 0.022315 -780388.000000 0 0 1
35.000962 -33.345276 -0.392992 48.343865 -0.761178 1.578926 0.036500 0.018132 -628623.000000 0 0 1
36.191362 -33.251176 -1.395692 49.167096 -0.743084 1.599187 0.013249 0.027431 -53999.100000 0 0 1
36.320262 33.680695 -2.278592 49.585710 0.747708 1.616765 0.030639 0.010135 30802.500000 0 0 1
36.981162 -33.985976 -3.430592 50.343042 -0.743218 1.638993 0.020282 0.009850 -572633.000000 0 0 1
-36.367148 32.939195 -4.219992 49.248029 -0.735978 1.656590 0.011176 0.000758 248531.000000 0 0 1
-35.113048 32.527295 -3.669192 48.004313 -0.747189 1.647306 0.012971 0.002114 308911.000000 0 0 1
-34.472048 31.749695 -4.608792 47.091467 -0.744312 1.668822 0.029016 -0.017597 555493.000000 0 0 1
-33.116748 31.074195 -4.150892 45.602133 -0.753589 1.661947 0.047899 -0.023028 416702.000000 0 0 1
-31.950248 31.855695 -4.332192 45.325176 -0.783916 1.666523 0.053763 -0.010013 144617.000000 0 0 1
-30.754948 31.103395 -4.254192 43.947539 -0.791031 1.667750 0.087304 -0.020998 277088.000000 0 0 1
-30.211048 30.944795 -2.813692 43.338259 -0.797396 1.635766 0.075382 -0.023812 -874890.000000 0 0 1
-30.996948 30.205895 -1.920492 43.323148 -0.772474 1.615140 0.054969 -0.014887 -491571.000000 0 0 1
-30.477148 30.064395 -0.639092 42.815101 -0.778581 1.585724 0.062685 -0.000907 -577576.000000 0 0 1
-31.485848 29.458895 0.331708 43.119545 -0.752152 1.563104 0.049568 -0.008274 -10336.500000 0 0 1
-31.990948 28.187795 -0.098092 42.637802 -0.722284 1.573097 0.040778 -0.022909 605819.000000 0 0 1
-33.313348 28.281595 -0.646392 43.704069 -0.703888 1.585587 0.050924 -0.021459 244779.000000 0 0 1
-33.818648 26.935095 -1.079892 43.247734 -0.672577 1.595769 0.077207 -0.026842 -299804.000000 0 0 1
-33.850948 26.027495 -0.025692 42.700326 -0.655479 1.571398 0.077058 -0.032537 25772.100000 0 0 1
-34.301448 24.770195 -0.513792 42.313306 -0.625426 1.582939 0.101088 -0.031748 -124387.000000 0 0 1
-34.335048 23.642795 0.546508 41.691438 -0.603028 1.557688 0.113592 -0.032658 -589192.000000 0 0 1
-33.060548 23.256795 0.933308 40.432035 -0.613045 1.547711 0.116091 -0.041109 -578521.000000 0 0 1
-32.728248 23.649095 2.231808 40.440066 -0.625727 1.515580 0.100259 -0.041283 -801251.000000 0 0 1
-31.259148 23.431095 2.651008 39.155822 -0.643229 1.503040 0.090572 -0.047507 -343449.000000 0 0 1
-30.218048 24.218495 2.207608 38.788394 -0.675629 1.513851 0.084121 -0.044035 -416869.000000 0 0 1
-30.392548 25.635095 2.386008 39.831622 -0.700689 1.510858 0.064274 -0.043800 -855669.000000 0 0 1
-29.698648 26.483195 1.328108 39.813731 -0.728228 1.537432 0.056812 -0.037301 2564820.000000 0 0 1
-28.213648 26.432895 1.363008 38.685471 -0.752823 1.535556 0.062435 -0.039056 2503950.000000 0 0 1
-27.585648 27.180395 0.311708 38.727755 -0.777999 1.562748 0.058096 -0.027073 446800.000000 0 0 1
-26.357148 26.516995 -0.350592 37.389480 -0.788421 1.580173 0.056807 -0.031053 -135156.000000 0 0 1
-26.671948 25.460195 -1.226492 36.893341 -0.762158 1.604047 0.062332 -0.035764 667400.000000 0 0 1
-25.569048 24.973495 -2.051492 35.800284 -0.773616 1.628132 0.054957 -0.030163 1002030.000000 0 0 1
-24.574248 23.965795 -1.416392 34.354900 -0.772864 1.612036 0.045259 -0.032519 90482.700000 0 0 1
-25.033848 22.612295 -1.280192 33.758678 -0.734618 1.608727 0.058758 -0.035223 -329448.000000 0 0 1
-24.082148 21.851395 -0.587792 32.523512 -0.736872 1.588870 0.045277 -0.043350 -1198530.000000 0 0 1
-24.458948 20.395895 -0.212192 31.847727 -0.695062 1.577459 0.052093 -0.039860 340876.000000 0 0 1
-25.428148 20.285695 0.894708 32.540754 -0.673377 1.543298 0.047993 -0.032244 1973650.000000 0 0 1
-26.746448 20.847495 0.717108 33.919092 -0.662084 1.549653 0.059110 -0.044526 892954.000000 0 0 1
-27.618648 20.326295 -0.507892 34.295859 -0.634457 1.585606 0.061578 -0.046901 -473283.000000 0 0 1
-27.966548 18.969695 -0.310792 33.794582 -0.596013 1.579993 0.076519 -0.046102 72507.000000 0 0 1
-28.851148 18.565795 -1.318692 34.333897 -0.571794 1.609214 0.088765 -0.035714 -295750.000000 0 0 1
-29.117848 17.048495 -1.275292 33.765761 -0.529689 1.608574 0.069784 -0.027946 -4133.840000 0 0 1
-29.889948 16.627295 -0.155792 34.203804 -0.507655 1.575351 0.084418 -0.033417 483044.000000 0 0 1
-30.087448 15.187395 -0.123792 33.703514 -0.467460 1.574469 0.090967 -0.028231 265839.000000 0 0 1
-28.921148 14.434495 0.593508 32.328621 -0.462926 1.552437 0.100553 -0.021725 -11776.900000 0 0 1
-28.861348 14.397895 2.000208 32.315285 -0.462739 1.508860 0.113391 -0.018679 117870.000000 0 0 1
-27.635448 13.903495 2.510408 31.037515 -0.466127 1.489825 0.112849 -0.017188 170664.000000 0 0 1
-27.532448 12.363895 2.459408 30.281187 -0.422077 1.489488 0.134530 -0.016029 -273112.000000 0 0 1
-27.309048 11.816995 1.206208 29.780538 -0.408386 1.530282 0.122583 -0.020164 303169.000000 0 0 1
-26.977748 10.454595 1.312608 28.962396 -0.369707 1.525460 0.162719 -0.021644 -172540.000000 0 0 1
-26.947248 9.718495 -0.019292 28.646181 -0.346130 1.571470 0.154197 -0.015620 298415.000000 0 0 1
-28.208548 9.518995 -0.660792 29.778685 -0.325452 1.592988 0.149630 -0.015767 380447.000000 0 0 1
-28.047848 8.839295 -1.898392 29.468947 -0.305298 1.635261 0.162497 -0.018354 -380713.000000 0 0 1
-29.346348 8.528195 -2.639592 30.674186 -0.282815 1.656955 0.161854 -0.023945 -381822.000000 0 0 1
-29.144948 7.996095 -3.929692 30.476352 -0.267768 1.700099 0.176820 -0.012995 380674.000000 0 0 1
-30.387448 7.688295 -4.549092 31.673350 -0.247809 1.714920 0.168320 -0.017940 336976.000000 0 0 1
-10.831938 17.973295 -19.608892 28.720705 -1.028417 2.322308 0.128171 -0.021304 125344.000000 0 0 1
-11.192938 16.791595 -20.279892 28.609676 -0.982854 2.358659 0.131760 -0.028334 -161010.000000 0 0 1
-10.781338 16.746895 -21.623192 29.398269 -0.998805 2.397239 0.123050 -0.025994 -128049.000000 0 0 1
-11.098938 15.471595 -22.349392 29.360722 -0.948504 2.435958 0.108523 -0.015200 203879.000000 0 0 1
-10.114238 14.461295 -22.154292 28.323833 -0.960473 2.468951 0.126940 -0.027693 134839.000000 0 0 1
-10.251838 13.387995 -23.100992 28.600602 -0.917292 2.511054 0.106976 -0.029813 -198930.000000 0 0 1
-9.347638 12.159695 -22.941892 27.596502 -0.915409 2.552299 0.090327 -0.023288 974574.000000 0 0 1
-7.935938 12.451595 -23.114392 27.428023 -1.003370 2.573129 0.064428 -0.020611 1156130.000000 0 0 1
-7.174238 11.399295 -22.472892 26.200086 -1.009069 2.601656 0.059596 -0.021571 614696.000000 0 0 1
-5.653838 11.715595 -22.453892 25.949920 -1.121173 2.616501 0.040556 -0.019866 428528.000000 0 0 1
-5.096138 11.629895 -23.756092 26.936537 -1.157804 2.650734 0.033883 -0.025677 -838232.000000 0 0 1
-3.706138 11.562095 -23.668692 26.601212 -1.260602 2.667615 0.035012 -0.019863 -662263.000000 0 0 1
-2.997238 11.267295 -24.970292 27.558136 -1.310805 2.704757 0.065026 -0.033325 -300752.000000 0 0 1
-3.113538 9.866695 -25.441272 27.464598 -1.265126 2.755346 0.058883 -0.030834 117777.000000 0 0 1
-2.406738 9.620595 -26.648012 28.433515 -1.325662 2.785323 0.065561 -0.029904 -123772.000000 0 0 1
-2.134838 8.092095 -26.896072 28.168036 -1.312856 2.839930 0.070637 -0.017875 455235.000000 0 0 1
-1.133838 7.313895 -26.179002 27.205125 -1.416995 2.866066 0.083499 -0.019750 559374.000000 0 0 1
-1.287138 7.258195 -24.754192 25.828437 -1.395285 2.852169 0.087269 -0.036480 -502070.000000 0 0 1
-0.435138 6.138695 -24.152492 24.924201 -1.500030 2.892100 0.028356 -0.024618 -1420370.000000 0 1 0
0.875162 6.575695 -24.093092 24.989653 1.438483 2.872915 0.055477 -0.007990 -674972.000000 0 1 0
1.683462 5.793795 -23.183292 23.955524 1.288020 2.886992 0.044363 -0.005251 421525.000000 0 1 0
1.776462 6.473695 -21.788192 22.798901 1.302976 2.842718 0.043775 -0.011149 -18388.300000 0 1 0
2.555262 7.675195 -21.703592 23.162122 1.249414 2.784822 0.048324 -0.023114 205713.000000 0 1 0
2.433862 8.394795 -20.508492 22.293374 1.288608 2.738715 0.057554 -0.024364 -143611.000000 0 1 0
3.255562 9.695695 -20.377992 22.800609 1.246851 2.676428 0.068491 -0.030006 -71769.000000 0 1 0
2.880962 10.480595 -19.269892 22.124004 1.302537 2.628020 0.070419 -0.032454 -124714.000000 0 1 0
3.590662 11.693495 -19.137892 22.713203 1.272871 2.572869 0.084560 -0.031302 370723.000000 0 1 0
4.787462 11.661295 -18.124692 22.077366 1.181234 2.533891 0.086036 -0.047481 -129616.000000 0 1 0
5.851762 10.986595 -18.674092 22.442596 1.081389 2.553648 0.087176 -0.037584 -835218.000000 0 1 0
6.891462 10.650095 -17.759792 21.824917 0.996477 2.521353 0.083561 -0.035588 29005.800000 0 1 0
7.945062 9.722895 -18.341492 22.227664 0.885685 2.541291 0.096316 -0.035315 -482872.000000 0 1 0
7.577762 8.434295 -18.802192 21.956372 0.838840 2.598943 0.088366 -0.026054 -283094.000000 0 1 0
7.126562 8.322495 -20.121792 22.911533 0.862655 2.642963 0.081048 -0.016932 79005.200000 0 1 0
6.753262 6.864795 -20.441692 22.596344 0.793588 2.701345 0.080155 -0.016066 882993.000000 0 1 0
7.914162 6.000195 -20.535192 22.810753 0.648703 2.691121 0.069455 -0.010600 829780.000000 0 1 0
7.585562 4.655795 -20.835592 22.656988 0.550483 2.737883 0.055401 -0.004077 -157142.000000 0 1 0
7.456162 4.227895 -22.320592 23.909795 0.515827 2.774942 0.066706 -0.014014 181652.000000 0 1 0
6.329062 4.828395 -22.965292 24.305865 0.651702 2.807920 0.070203 -0.019316 267428.000000 0 1 0
6.134862 4.494595 -24.323292 25.484514 0.632293 2.838554 0.073183 -0.018241 -442059.000000 0 0 1
5.264562 5.471795 -25.066452 26.191281 0.804698 2.847458 0.063027 -0.012341 -379034.000000 0 0 1
5.751762 6.816295 -25.318252 26.843222 0.869898 2.802900 0.068661 -0.023566 -79219.400000 0 0 1
5.557362 7.684495 -24.179492 25.972747 0.944675 2.767820 0.087005 -0.031537 -479952.000000 0 0 1
5.393962 9.178695 -24.606092 26.810503 1.039499 2.733245 0.098526 -0.036234 380871.000000 0 0 1
4.176562 9.382295 -25.317642 27.321313 1.151980 2.756231 0.093990 -0.034139 -3269.620000 0 0 1
3.139262 9.729095 -24.438092 26.490199 1.258676 2.745391 0.087280 -0.031879 -400224.000000 0 0 1
1.807862 10.086495 -25.147192 27.154871 1.393444 2.754646 0.097782 -0.022411 98763.500000 0 0 1
1.830262 11.347695 -25.719052 28.170724 1.410884 2.721303 0.115708 -0.030674 -284695.000000 0 0 1
0.722462 11.508295 -26.562932 28.957766 1.508101 2.732040 0.125451 -0.034758 -353303.000000 0 0 1
0.424462 12.937095 -26.918692 29.869125 1.537998 2.693376 0.105698 -0.035303 -120337.000000 0 0 1
-0.166338 13.538195 -25.790262 29.128131 -1.558510 2.658166 0.095472 -0.036203 -107742.000000 0 0 1
-0.641538 14.804895 -26.116792 30.028043 -1.527491 2.625485 0.083656 -0.042327 -90464.900000 0 0 1
-1.114538 15.570795 -24.860192 29.355085 -1.499339 2.580884 0.091044 -0.042629 241379.000000 0 0 1
-2.270238 15.002695 -24.264792 28.618438 -1.420614 2.582756 0.072357 -0.034246 -108372.000000 0 0 1
-2.474238 15.691095 -23.085792 28.022957 -1.414400 2.538909 0.066765 -0.036216 -567851.000000 0 0 1
-3.701238 15.268495 -22.262692 27.248001 -1.332974 2.527054 0.042951 -0.028403 1427150.000000 0 0 1
-5.053238 15.651895 -22.649592 27.991446 -1.258509 2.513519 0.056695 -0.029875 1346670.000000 0 0 1
-5.485838 15.166195 -23.937992 28.864084 -1.223723 2.548713 0.061700 -0.036862 -1178900.000000 0 0 1
-6.950738 15.116095 -24.325892 29.471310 -1.139803 2.541723 0.054546 -0.028293 -680984.000000 0 0 1
-7.522038 16.367195 -24.564592 30.461210 -1.140004 2.508873 0.064091 -0.025502 991790.000000 0 0 1
-8.832838 16.187795 -25.176532 31.207716 -1.071301 2.509412 0.075032 -0.020845 1116460.000000 0 0 1
-9.605938 17.468695 -25.553192 32.409798 -1.068034 2.479066 0.081987 -0.024740 -9675.030000 0 0 1
-10.253638 18.095995 -24.448492 32.098768 -1.055279 2.436674 0.086872 -0.023382 346917.000000 0 0 1
-11.238138 18.977795 -25.004492 33.341822 -1.036152 2.418773 0.078268 -0.011836 687357.000000 0 0 1
-12.056438 19.810695 -23.970592 33.352821 -1.024090 2.372724 0.088975 -0.012434 304185.000000 0 0 1
-11.267138 20.839495 -23.368192 33.276198 -1.075150 2.349349 0.078671 -0.022303 157837.000000 0 0 1
-11.418538 22.180995 -23.878692 34.533629 -1.095387 2.334307 0.058715 -0.018661 -161063.000000 0 0 1
-11.048438 22.642695 -25.326122 35.723551 -1.116837 2.358801 0.057420 -0.015537 -160875.000000 0 0 1
-11.715838 22.010495 -26.419082 36.327547 -1.081656 2.385098 0.058017 -0.017249 138078.000000 0 0 1
-11.553738 22.757795 -27.629832 37.614010 -1.101022 2.395818 0.056973 -0.005781 -174603.000000 0 0 1
-12.107838 22.084695 -28.873062 38.314321 -1.069301 2.424294 0.052854 -0.006969 114371.000000 0 0 1
-11.316238 21.014895 -29.419572 37.883958 -1.076836 2.460001 0.049149 -0.011279 175610.000000 0 0 1
-11.285638 19.829095 -28.580222 36.570312 -1.053373 2.467886 0.060593 -0.008003 -367455.000000 0 0 1
-10.220438 18.879595 -29.103452 36.165002 -1.074620 2.506035 0.055766 -0.016774 -533313.000000 0 0 1
-8.918838 19.289095 -28.735512 35.739957 -1.137697 2.504816 0.057129 -0.020065 -99164.200000 0 0 1
-7.847238 18.556295 -29.318902 35.574053 -1.170716 2.539523 0.054835 -0.025888 321234.000000 0 0 1
-7.555638 17.117095 -28.867592 34.400879 -1.155110 2.566520 0.069220 -0.033764 -1544460.000000 0 0 1
-8.519538 16.169795 -29.055082 34.325539 -1.085877 2.580091 0.053247 -0.024909 -707294.000000 0 0 1
-8.097938 14.976995 -28.496392 33.195351 -1.075128 2.603027 0.045318 -0.026964 881662.000000 0 0 1
-9.352338 14.010295 -28.411892 33.030141 -0.982194 2.606420 0.048018 -0.015103 1448640.000000 0 0 1
-10.410238 14.438895 -27.550042 32.800298 -0.946124 2.567955 0.060586 -0.015383 269419.000000 0 0 1
-11.547038 13.587195 -27.553032 32.819439 -0.866391 2.567221 0.100680 -0.017817 -52587.800000 0 0 1
-12.452538 14.157395 -26.487482 32.512832 -0.849379 2.522970 0.090381 -0.019185 -737376.000000 0 0 1
-13.088438 15.347795 -26.802872 33.544836 -0.864685 2.496454 0.075863 -0.016353 -996651.000000 0 0 1
-14.037238 15.555295 -25.827812 33.257888 -0.836652 2.460035 0.066617 -0.016485 15151.700000 0 0 1
-15.069538 16.684795 -26.160362 34.494027 -0.836222 2.431655 0.044655 -0.011627 284919.000000 0 0 1
-14.481138 17.939995 -26.183342 34.887164 -0.891681 2.419637 0.044540 -0.007069 -141946.000000 0 0 1
-15.400438 18.877095 -26.690532 36.137276 -0.886479 2.401769 0.024979 -0.006382 -141531.000000 0 0 1
-14.926738 20.349995 -26.582132 36.654325 -0.937939 2.382138 0.028312 -0.007875 -62952.400000 0 0 1
-15.944638 21.262395 -26.982202 37.872948 -0.927360 2.363766 0.002939 -0.002605 128135.000000 0 0 1
-15.654538 22.653995 -27.163882 38.680028 -0.966117 2.349380 0.017675 -0.005120 -164145.000000 0 0 1
-15.207138 23.464095 -25.899582 38.113110 -0.995756 2.317939 -0.004563 -0.008485 230497.000000 0 0 1
-14.738438 24.785595 -26.104672 38.897316 -1.034329 2.306512 0.026572 -0.016077 104800.000000 0 0 1
-14.358838 25.391595 -24.896592 38.350354 -1.056134 2.277313 0.047631 -0.020823 -106033.000000 0 0 1
-14.136138 26.884095 -24.984292 39.329376 -1.086708 2.259139 0.077023 -0.021531 8979.870000 0 0 1
-15.316638 27.605095 -25.236752 40.417006 -1.064239 2.245171 0.090857 -0.023458 -267564.000000 0 0 1
-15.717738 28.477695 -24.216192 40.551823 -1.066471 2.210760 0.087852 -0.027203 433137.000000 0 0 1
-17.119138 29.181195 -24.275392 41.640145 -1.040251 2.193189 0.076371 -0.026834 473583.000000 0 0 1
-18.136438 28.215095 -24.367792 41.458549 -0.999505 2.199087 0.046319 -0.025566 -1023030.000000 0 0 1
-19.283338 28.844695 -24.877292 42.693597 -0.981510 2.192836 0.041071 -0.016452 -337726.000000 0 0 1
-20.475538 27.863995 -24.863592 42.589296 -0.937069 2.194196 0.027852 0.001192 -111117.000000 0 0 1
-21.072938 27.739395 -23.579392 42.065788 -0.921132 2.165829 0.034633 -0.003162 -109696.000000 0 0 1
-22.002238 26.667795 -23.525092 41.817457 -0.880967 2.168283 0.044528 -0.017281 15983.400000 0 0 1
-22.615138 26.619495 -22.108092 41.337752 -0.866552 2.135086 0.040123 -0.005609 -467770.000000 0 0 1
-23.394838 27.721395 -21.817092 42.329419 -0.869838 2.112285 0.035090 0.001894 -583842.000000 0 0 1
-23.865738 27.534195 -20.524892 41.820767 -0.856648 2.083784 0.018764 0.004316 -413708.000000 0 0 1
-25.190908 28.267995 -20.205192 42.917493 -0.842895 2.060984 0.009978 0.007255 228315.000000 0 0 1
-26.266678 27.508095 -20.751492 43.327337 -0.808480 2.070251 0.006813 0.004511 -324669.000000 0 0 1
-27.434998 28.297495 -20.773992 44.553183 -0.800873 2.055871 0.023410 -0.005241 1164520.000000 0 0 1
-28.749968 27.454595 -21.120292 45.015355 -0.762355 2.059158 0.016532 -0.007975 983889.000000 0 0 1
-28.909808 27.245195 -22.509792 45.659264 -0.755764 2.086325 0.013928 0.003327 -36815.000000 0 0 1
-30.118188 26.654795 -22.950292 46.306579 -0.724469 2.089341 0.008674 -0.007275 91478.100000 0 0 1
-30.219098 26.525795 -24.471092 47.070650 -0.720404 2.117507 0.006750 0.005357 -204645.000000 0 0 1
-29.696858 25.305395 -24.831892 46.248127 -0.705726 2.137587 0.021214 0.009890 -272596.000000 0 0 1
-29.834058 25.046895 -26.243812 46.969731 -0.698390 2.163661 0.034936 0.003439 60256.800000 0 0 1
-29.882698 23.569695 -26.538642 46.398337 -0.667838 2.179707 0.047822 -0.004445 -455402.000000 0 0 1
-28.637328 22.982595 -26.324232 45.180321 -0.676288 2.192780 0.053610 -0.011991 -445735.000000 0 0 1
-28.657178 21.701995 -26.912462 44.905357 -0.648155 2.213442 0.080845 -0.025372 96673.800000 0 0 1
-27.561998 20.651295 -26.573202 43.500285 -0.643032 2.227961 0.086813 -0.026195 46054.100000 0 0 1
-27.566278 20.200895 -25.248012 42.490446 -0.632410 2.207073 0.088001 -0.022934 -83680.600000 0 0 1
-27.070458 18.907895 -25.101432 41.477706 -0.609698 2.220787 0.081359 -0.024468 -59625.100000 0 0 1
-28.144328 17.780895 -25.034582 41.653256 -0.563457 2.215577 0.078773 -0.019936 25117.400000 0 0 1
-28.881318 17.532995 -26.205332 42.758109 -0.545602 2.230489 0.080421 -0.020588 108728.000000 0 0 1
-29.474008 16.237295 -26.123802 42.600704 -0.503536 2.230933 0.071238 -0.024156 229928.000000 0 0 1
-30.384518 15.901295 -27.363622 43.872975 -0.482141 2.244265 0.069413 -0.021116 -718963.000000 0 0 1
-31.587628 16.550195 -27.441472 44.996907 -0.482620 2.226671 0.068980 -0.026307 -1030190.000000 0 0 1
-32.287938 15.903195 -28.500752 45.909862 -0.457664 2.240557 0.082825 -0.019742 438755.000000 0 0 1
-33.552588 16.647495 -29.029902 47.388295 -0.460572 2.230138 0.082899 -0.022859 1259560.000000 0 0 1
-34.718574 16.559095 -28.188042 47.688036 -0.445040 2.203209 0.063755 -0.018697 1364920.000000 0 0 1
-35.939757 16.979295 -28.828742 49.102535 -0.441356 2.198284 0.056372 -0.012446 1225700.000000 0 0 1
36.812082 16.651495 -28.018402 49.167393 0.424796 2.177129 0.053174 -0.008071 132473.000000 0 0 1
36.513412 17.629095 -27.064862 48.749575 0.449802 2.159377 0.059668 -0.019493 -162160.000000 0 0 1
35.617142 17.136395 -26.086142 47.357404 0.448436 2.154161 0.067090 -0.010849 -20225.500000 0 0 1
35.036362 18.293595 -25.230602 46.891210 0.481196 2.138938 0.071340 -0.006560 -238005.000000 0 0 1
33.994302 18.963395 -25.881532 46.744804 0.508843 2.157570 0.080358 -0.021489 -77490.500000 0 0 1
33.570202 20.033695 -25.103942 46.459825 0.538041 2.141633 0.097202 -0.017492 -523755.000000 0 0 1
32.811802 21.228495 -25.752462 46.802272 0.574247 2.153447 0.099701 -0.027332 28525.200000 0 0 1
31.530182 20.959495 -26.241762 46.066071 0.586670 2.176882 0.081741 -0.026032 -562814.000000 0 0 1
30.537882 21.229895 -25.287702 44.974866 0.607496 2.167916 0.086582 -0.015464 -836390.000000 0 0 1
29.096282 21.089295 -25.748532 44.207906 0.627184 2.192526 0.064123 -0.014437 -231406.000000 0 0 1
28.622172 19.768395 -26.031532 43.447197 0.604435 2.213240 0.065631 -0.019295 -40026.600000 0 0 1
27.327072 19.772795 -26.607142 42.961289 0.626364 2.238683 0.050736 -0.018601 -44344.300000 0 0 1
26.867772 18.312195 -26.542202 41.972636 0.598248 2.255404 0.063841 -0.015656 -403147.000000 0 0 1
27.675372 17.388795 -27.287442 42.578175 0.560978 2.266439 0.048864 -0.017022 52688.400000 0 0 1
28.517972 16.707595 -26.385382 42.291925 0.529959 2.244503 0.048984 -0.010602 -813056.000000 0 0 1
29.582532 15.859295 -27.022342 43.091188 0.492111 2.248617 0.022980 0.004834 -740019.000000 0 0 1
29.214022 14.682395 -27.752972 42.886587 0.465710 2.274603 0.037320 -0.002775 98230.200000 0 0 1
28.723272 13.538895 -27.028362 41.699646 0.440471 2.275972 0.062617 -0.009038 -250914.000000 0 0 1
29.737752 12.890495 -26.055782 41.586086 0.409025 2.247916 0.060517 -0.007129 -141643.000000 0 0 1
29.998272 13.532495 -24.844592 41.234434 0.423776 2.217452 0.065388 -0.010888 151479.000000 0 0 1
30.914272 12.824195 -24.018192 41.194973 0.393226 2.193258 0.060145 -0.012074 195418.000000 0 0 1
-15.018738 -31.151576 -23.395992 41.753510 1.121556 2.165588 0.138984 -0.005463 182628.000000 0 0 1
-14.273038 -30.058276 -23.927192 40.984510 1.127474 2.194211 0.133035 -0.024502 241456.000000 0 0 1
-14.829538 -29.578776 -25.131532 41.550128 1.106063 2.220372 0.113266 -0.012603 -433682.000000 0 0 1
-14.178238 -28.345576 -25.703512 40.806429 1.106995 2.252206 0.113037 -0.010016 -343353.000000 0 0 1
-14.382938 -27.096076 -25.078562 39.623232 1.082804 2.256123 0.101516 -0.020765 -489113.000000 0 0 1
-13.753238 -26.121276 -25.843432 39.234623 1.086163 2.289872 0.096158 -0.008727 -83675.400000 0 0 1
-14.068438 -24.675176 -25.317392 38.049384 1.052618 2.298802 0.060151 -0.009770 111305.000000 0 0 1
-13.644238 -24.323676 -23.979992 36.781061 1.059589 2.280970 0.072996 -0.016389 -15521.500000 0 0 1
-14.034338 -23.027876 -23.660292 35.875551 1.023457 2.290963 0.059106 -0.012126 -173259.000000 0 0 1
-13.377938 -22.527976 -22.399292 34.470382 1.034921 2.278134 0.056021 -0.019199 -293725.000000 0 0 1
-11.978938 -22.530976 -22.387092 33.945865 1.082139 2.290942 0.079397 -0.029322 -485894.000000 0 0 1
-11.453938 -21.795976 -21.294592 32.553294 1.086952 2.283849 0.069360 -0.025221 703802.000000 0 0 1
-9.909338 -21.575276 -21.253892 31.865584 1.140243 2.300952 0.058729 -0.027095 425923.000000 0 0 1
-9.538438 -20.694176 -22.294292 31.878930 1.138895 2.345274 0.067840 -0.029921 -62605.500000 0 0 1
-8.188938 -20.314076 -22.122992 31.131129 1.187606 2.361202 0.091907 -0.030652 -137064.000000 0 0 1
-7.862338 -19.259576 -23.191792 31.154564 1.183215 2.410448 0.111136 -0.029088 -346059.000000 0 0 1
-8.310438 -18.034076 -22.721392 30.175370 1.138982 2.423372 0.077019 -0.026730 -57559.100000 0 0 1
-8.217838 -16.891076 -23.589192 30.154457 1.117991 2.469112 0.076057 -0.032550 -171605.000000 0 0 1
-6.812038 -16.460076 -24.057892 29.935266 1.178406 2.504223 0.097721 -0.041863 -81420.300000 0 0 1
-6.203138 -17.304876 -25.049482 31.071115 1.226603 2.508494 0.125257 -0.043247 -148124.000000 0 0 1
-5.306238 -16.508676 -25.768422 31.059687 1.259805 2.549263 0.092511 -0.042082 -373166.000000 0 0 1
-5.018438 -16.972076 -27.235372 32.480788 1.283300 2.565334 0.096517 -0.026915 -462344.000000 0 0 1
-6.188138 -17.036276 -28.000412 33.354922 1.222382 2.567101 0.121250 -0.020170 -237930.000000 0 0 1
-5.972738 -17.666476 -29.259372 34.697101 1.244777 2.574153 0.102566 -0.028699 -27366.000000 0 0 1
-7.221538 -17.556176 -30.172312 35.647417 1.180553 2.580003 0.112121 -0.031604 210874.000000 0 0 1
-7.249738 -16.508276 -31.194822 36.030526 1.156995 2.617521 0.094281 -0.026322 -168750.000000 0 0 1
-7.056038 -15.191976 -30.740132 35.007707 1.135984 2.642665 0.086300 -0.027635 -248166.000000 0 0 1
-7.587838 -14.139376 -31.701322 35.531269 1.078264 2.673010 0.074129 -0.031522 -158950.000000 0 0 1
-6.842638 -13.898476 -32.902282 36.366874 1.113303 2.701547 0.081850 -0.035656 -497098.000000 0 0 1
-7.507938 -13.191876 -33.879052 37.123913 1.053382 2.720380 0.078286 -0.025126 -616790.000000 0 0 1
-7.657938 -11.608176 -33.658412 36.418161 0.987631 2.749786 0.058617 -0.024441 18480.600000 0 0 1
-6.501938 -10.810976 -33.660032 35.946490 1.029333 2.783003 0.048379 -0.025494 -257868.000000 0 0 1
-5.968538 -10.546376 32.983042 35.138733 1.055803 0.352096 0.040730 -0.025132 -62607.500000 0 0 1
-5.083938 -9.327476 32.941481 34.611983 1.071762 0.311952 0.046440 -0.027632 -366205.000000 0 0 1
-4.926038 -8.803176 31.650474 33.219186 1.060632 0.308543 0.044156 -0.021145 -66653.300000 0 0 1
-4.013538 -7.715176 31.625934 32.799880 1.091109 0.268353 0.041233 -0.025167 -685273.000000 0 0 1
-4.136438 -6.725576 30.480934 31.486995 1.019398 0.253469 0.041151 -0.019097 -333283.000000 0 0 1
-5.201838 -5.831676 30.493884 31.479272 0.842420 0.250868 0.033554 -0.013426 -1004180.000000 0 0 1
-6.403538 -6.414376 30.096064 31.431236 0.786244 0.292518 0.050325 -0.012120 -620327.000000 0 0 1
-7.681638 -5.507976 30.183834 31.629246 0.622065 0.303483 0.049636 -0.011882 231855.000000 0 0 1
-8.727638 -6.305376 29.658464 31.552400 0.625642 0.348240 0.068613 -0.010883 -1378140.000000 0 0 1
-9.854938 -5.491276 29.703014 31.773306 0.508362 0.362983 0.065825 -0.011650 -1145600.000000 0 0 1
-10.958238 -6.173076 28.903634 31.521579 0.513018 0.410434 0.069408 -0.013118 -598243.000000 0 0 1
-10.768438 -5.833376 27.564624 30.162826 0.496457 0.418103 0.061731 -0.011394 787335.000000 0 0 1
-11.721338 -6.479776 26.685164 29.857583 0.505005 0.465163 0.059893 -0.010395 466924.000000 0 0 1
-11.335738 -6.327876 25.187834 28.336689 0.509135 0.475908 0.043578 -0.014650 -178835.000000 0 0 1
-10.156938 -6.953076 24.753364 27.644849 0.600291 0.461454 0.056910 -0.014802 -235831.000000 0 0 1
-9.750538 -6.517576 23.474794 26.241527 0.589224 0.463336 0.058967 -0.021052 -251647.000000 0 0 1
-10.627938 -6.804376 22.204574 25.540081 0.569480 0.516807 0.057301 -0.030970 -1287510.000000 0 0 1
-11.839238 -6.208376 22.224774 25.935537 0.482969 0.541525 0.034263 -0.024293 -1728800.000000 0 0 1
-12.545638 -6.275476 21.022974 25.273308 0.463817 0.588408 0.031174 -0.029229 -108235.000000 0 0 1
-13.708038 -5.286776 20.955274 25.592652 0.368092 0.611478 0.021515 -0.025197 -49105.200000 0 0 1
-13.224538 -3.988776 20.561374 24.770322 0.292942 0.591543 0.016798 -0.021203 -517505.000000 0 1 0
-14.070438 -2.948776 20.897274 25.364711 0.206583 0.602587 0.017742 -0.011483 -382820.000000 0 0 1
-13.673738 -1.563776 20.420574 24.625523 0.113869 0.593042 0.012603 -0.008219 -614680.000000 0 1 0
-12.693138 -0.859776 21.093374 24.633015 0.067632 0.542724 0.012177 -0.008259 -494201.000000 0 1 0
-12.852638 0.557224 20.858974 24.507093 -0.043328 0.552643 0.019065 -0.013132 -494542.000000 0 1 0
-12.477338 1.167224 19.457574 23.143975 -0.093276 0.572187 0.030637 -0.019997 748019.000000 0 1 0
-13.329738 0.672224 18.352774 22.692689 -0.050388 0.628768 0.045533 -0.023023 1455590.000000 0 1 0
-14.694538 1.117224 18.436174 23.602334 -0.075884 0.674344 0.054442 -0.018478 784486.000000 0 1 0
-15.693638 0.316224 17.536174 23.535243 -0.020147 0.730107 0.070245 -0.013562 227189.000000 0 1 0
-15.806838 -0.990776 18.029874 23.998211 0.062598 0.720765 0.038947 -0.013011 -165494.000000 0 1 0
-16.726038 -1.731776 17.300174 24.125825 0.103170 0.771191 0.040692 -0.004825 -440772.000000 0 1 0
-16.742938 -3.182176 17.727374 24.590893 0.187821 0.765708 0.038510 -0.003548 -103276.000000 0 1 0
-17.144538 -3.407176 19.062774 25.863747 0.196176 0.742107 0.031832 -0.008757 -51408.900000 0 0 1
-17.445838 -4.786776 19.306974 26.458075 0.267789 0.752885 0.051681 -0.013358 174026.000000 0 0 1
-18.368438 -5.033776 20.542774 28.013282 0.267478 0.747600 0.050579 -0.010456 -64609.400000 0 0 1
-17.775838 -4.629776 21.746274 28.466044 0.254793 0.701403 0.047208 -0.010815 186428.000000 0 0 1
-18.678238 -4.664276 22.863974 29.889687 0.244712 0.699840 0.056476 -0.020752 -216035.000000 0 0 1
-18.780238 -6.091976 23.406284 30.621294 0.313673 0.700718 0.064693 -0.017760 483765.000000 0 0 1
-17.613838 -6.727276 23.951944 30.482768 0.364834 0.666883 0.033969 -0.024294 539636.000000 0 0 1
-16.574138 -7.028476 23.050774 29.247901 0.401077 0.663052 0.034995 -0.022523 -509026.000000 0 0 1
-15.406038 -7.772576 23.697034 29.313962 0.467253 0.629389 0.048715 -0.015578 -151967.000000 0 0 1
-15.825338 -9.075876 24.105304 30.230424 0.520708 0.647846 0.053320 -0.025531 280507.000000 0 0 1
-15.265138 -9.389276 25.389674 31.077621 0.551434 0.614649 0.064043 -0.016662 575301.000000 0 0 1
-16.262938 -10.201276 26.306114 32.566253 0.560231 0.630433 0.061342 -0.017228 98113.300000 0 0 1
-16.407238 -11.600776 26.112074 32.948686 0.615443 0.655887 0.060073 -0.023453 -64592.800000 0 0 1
-15.264438 -12.283276 26.575604 33.017339 0.677600 0.635292 0.059770 -0.017199 -48424.700000 0 0 1
-15.295838 -13.796776 26.341634 33.439429 0.733916 0.663662 0.042208 -0.015713 139382.000000 0 0 1
-16.426238 -14.359976 27.005414 34.717756 0.718382 0.679549 0.042808 -0.019188 282176.000000 0 0 1
-16.526438 -15.778676 26.870624 35.272088 0.762255 0.704694 0.057141 -0.011775 165444.000000 0 0 1
-15.542038 -16.736176 27.653324 35.865873 0.822376 0.690354 0.064553 -0.015018 1278350.000000 0 0 1
-14.204838 -16.677176 27.106514 34.852098 0.865285 0.679705 0.065531 -0.022633 827275.000000 0 0 1
-13.356438 -17.570876 27.788874 35.487345 0.920833 0.671219 0.078658 -0.016700 101001.000000 0 0 1
-11.924338 -17.679276 27.212364 34.572524 0.977403 0.664688 0.083436 -0.025986 -305027.000000 0 0 1
-11.060638 -18.383376 28.014724 35.286131 1.029153 0.653550 0.097693 -0.028825 -759163.000000 0 0 1
-9.971738 -18.822776 27.266954 34.600856 1.083618 0.663173 0.089660 -0.028977 -511250.000000 0 0 1
-8.880338 -19.635776 28.026744 35.354243 1.146070 0.655504 0.107322 -0.027567 123189.000000 0 0 1
-9.198238 -20.899276 28.557484 36.563879 1.156187 0.674483 0.106255 -0.020661 488634.000000 0 0 1
-8.040738 -21.432576 29.220154 37.119081 1.211882 0.664540 0.104173 -0.018459 706295.000000 0 0 1
-8.281038 -22.806676 29.812314 38.438186 1.222502 0.683145 0.095278 -0.020623 27920.800000 0 0 1
-8.391038 -23.821576 28.850464 38.343530 1.232123 0.719067 0.094350 -0.021991 189573.000000 0 0 1
-8.344338 -25.083376 29.406114 39.541412 1.249648 0.732240 0.081002 -0.015259 -218712.000000 0 0 1
-8.611638 -26.157776 28.357694 39.529083 1.252753 0.770750 0.076347 -0.011029 -171815.000000 0 0 1
-9.959638 -26.067376 27.960594 39.503131 1.205839 0.784407 0.069729 -0.013488 34058.400000 0 0 1
-10.343838 -27.199476 27.212394 39.841196 1.207391 0.818905 0.070552 -0.009233 -390248.000000 0 0 1
-11.728738 -27.117976 26.565394 39.732456 1.162584 0.838463 0.062151 -0.010834 -354078.000000 0 0 1
-11.736438 -26.554876 25.301764 38.510839 1.154641 0.853959 0.078682 -0.016348 220447.000000 0 0 1
-11.870338 -25.146076 25.253264 37.562713 1.129753 0.833490 0.070554 -0.008307 -206925.000000 0 0 1
-12.214738 -24.537876 23.881674 36.354388 1.108917 0.854079 0.091335 -0.034212 -292537.000000 0 0 1
-13.545338 -24.803076 23.530174 36.774147 1.070941 0.876485 0.073251 -0.021517 -89252.200000 0 0 1
-13.902638 -24.190076 22.314774 35.726633 1.049169 0.896180 0.075253 -0.031051 -293445.000000 0 0 1
-15.273038 -24.525676 21.715974 36.143575 1.013826 0.926263 0.051722 -0.029479 -348737.000000 0 0 1
-15.341538 -25.789376 21.162674 36.719388 1.034151 0.956559 0.069487 -0.022428 -568552.000000 0 0 1
-16.484138 -25.786376 20.391474 36.776028 1.002010 0.983062 0.059006 -0.026061 -580565.000000 0 0 1
-16.861238 -27.209076 19.889774 37.686049 1.016023 1.014817 0.057606 -0.022784 36321.600000 0 0 1
-15.928138 -27.575876 18.908174 37.035842 1.047002 1.034987 0.053861 -0.024227 81443.100000 0 0 1
-16.179438 -28.869076 18.424474 37.876893 1.059972 1.062797 0.062356 -0.014497 -3583.830000 0 0 1
-15.142438 -29.334076 17.386474 37.310467 1.094268 1.086038 0.067602 -0.023557 92390.900000 0 0 1
-15.477438 -29.044276 16.021674 36.603485 1.081183 1.117747 0.064449 -0.032317 541536.000000 0 0 1
-14.258438 -29.026876 15.267574 35.762570 1.114201 1.129718 0.092485 -0.025276 585566.000000 0 0 1
-14.430638 -28.474976 13.907074 34.820601 1.101737 1.159943 0.084313 -0.033143 -128911.000000 0 0 1
-14.442538 -27.053376 13.949474 33.690650 1.080434 1.143902 0.076541 -0.033323 -112528.000000 0 0 1
-14.648638 -26.424576 12.664274 32.760108 1.064614 1.173880 0.077751 -0.040686 192458.000000 0 0 1
-13.659638 -26.628076 11.467474 32.049073 1.096820 1.204875 0.082432 -0.032161 128875.000000 0 0 1
-14.096738 -25.971276 10.280374 31.287558 1.073512 1.236000 0.068612 -0.031619 -442228.000000 0 0 1
-13.202738 -25.952076 9.218174 30.541730 1.100185 1.264193 0.077212 -0.024555 -672753.000000 0 0 1
-13.769938 -25.424376 7.933074 29.982391 1.074422 1.303016 0.076571 -0.029316 -14921.900000 0 0 1
-14.950638 -26.123276 7.566974 31.035564 1.050985 1.324497 0.077325 -0.025934 263564.000000 0 0 1
-15.568438 -25.433976 6.467574 30.513815 1.021519 1.357221 0.087916 -0.021640 -8858.510000 0 0 1
-16.268138 -26.258276 5.355274 31.350093 1.016131 1.399133 0.093982 -0.028743 -322803.000000 0 0 1
-15.515338 -27.217876 4.678674 31.676939 1.052696 1.422554 0.093984 -0.024034 -426760.000000 0 0 1
-16.198238 -27.774976 3.593974 32.353498 1.042825 1.459482 0.111132 -0.020001 -262536.000000 0 0 1
-15.466838 -28.979176 2.981474 32.983404 1.080536 1.480280 0.107791 -0.022528 -527445.000000 0 0 1
-14.330538 -28.628476 2.253674 32.094127 1.106693 1.500518 0.085570 -0.016859 -616228.000000 0 0 1
-13.873838 -29.742776 1.550174 32.856037 1.134338 1.523598 0.082471 -0.018715 164470.000000 0 0 1
-12.433138 -29.613176 0.972074 32.132041 1.173295 1.540539 0.078403 -0.022962 331775.000000 0 0 1
-12.254938 -28.840976 -0.196326 31.337261 1.168998 1.577061 0.084586 -0.014241 -75989.800000 0 0 1
-12.520638 -27.446476 -0.117926 30.167687 1.142812 1.574705 0.077431 -0.014247 -398011.000000 0 0 1
-12.284438 -26.794176 -1.525026 29.515436 1.140918 1.622488 0.087289 -0.007510 1073960.000000 0 0 1
-10.875038 -26.905576 -1.807026 29.076482 1.186681 1.632984 0.078647 -0.012562 667680.000000 0 0 1
-10.559038 -26.273776 -3.069026 28.481986 1.188666 1.678759 0.085530 -0.013682 611303.000000 0 0 1
-9.147938 -26.657576 -3.601326 28.412685 1.240224 1.697889 0.078805 -0.016730 521187.000000 0 0 1
-8.810238 -25.969976 -4.778926 27.836991 1.243733 1.743326 0.071359 -0.012756 122336.000000 0 0 1
-7.417238 -26.081676 -5.041326 27.580504 1.293726 1.754616 0.070672 -0.012902 873693.000000 0 0 1
-6.670138 -24.993876 -5.913326 26.535863 1.310003 1.795526 0.052730 -0.017954 221598.000000 0 0 1
-7.014738 -24.849876 -7.303426 26.833988 1.295670 1.846445 0.063049 -0.017943 -471131.000000 0 0 1
-6.291738 -23.796476 -7.811226 25.823894 1.312313 1.878090 0.048521 -0.016283 -985228.000000 0 0 1
-6.475938 -23.586876 -9.366726 26.191870 1.302842 1.936514 0.061671 -0.018890 110850.000000 0 0 1
-5.747638 -24.611976 -10.039226 27.195050 1.341378 1.948897 0.037672 -0.019520 -83249.300000 0 0 1
-5.949738 -24.652076 -11.431226 27.817210 1.333977 1.994282 0.029742 -0.011913 449264.000000 0 0 1
-7.344138 -25.079676 -12.002226 28.757259 1.285928 2.001338 0.049957 -0.018653 538357.000000 0 0 1
-7.514338 -25.104376 -13.376626 29.421575 1.279960 2.042780 0.069190 -0.017268 324675.000000 0 0 1
-8.729938 -25.823076 -13.622526 30.473206 1.244791 2.034242 0.097597 -0.022274 49850.900000 0 0 1
-8.857038 -26.121976 -15.149926 31.469430 1.243897 2.073067 0.098728 -0.026236 312110.000000 0 0 1
-7.825738 -26.828776 -15.844326 32.125816 1.286979 2.086556 0.076283 -0.029800 944162.000000 0 0 1
-6.557338 -26.171476 -15.990326 31.362961 1.325297 2.105804 0.071070 -0.025899 1461590.000000 0 0 1
-5.417838 -27.017376 -16.741926 32.242575 1.372890 2.116768 0.060370 -0.018486 595479.000000 0 0 1
-5.519238 -27.104876 -18.215726 33.120220 1.369917 2.153146 0.100030 -0.024132 965374.000000 0 0 1
-4.286638 -27.512776 -18.874826 33.639072 1.416234 2.166508 0.087959 -0.024482 776724.000000 0 0 1
-25.662748 14.630795 -5.289092 30.010187 -0.518158 1.747965 0.085970 -0.017560 -200072.000000 0 0 1
-25.438418 13.323995 -4.820992 29.118446 -0.482486 1.737127 0.086492 -0.020283 685135.000000 0 0 1
-24.180938 12.868095 -5.345592 27.908439 -0.489042 1.763528 0.109188 -0.024281 382554.000000 0 0 1
-23.874638 11.492295 -4.693792 26.909160 -0.448625 1.746124 0.109598 -0.018748 -7499.940000 0 0 1
-24.416138 10.308295 -5.313692 27.030428 -0.399490 1.768667 0.110183 -0.017586 14765.500000 0 0 1
-25.802108 10.093895 -5.199992 28.189988 -0.372901 1.756321 0.136708 -0.019498 -155176.000000 0 0 1
-26.424748 9.404195 -6.430792 28.776054 -0.341909 1.796177 0.154430 -0.022698 -10674.300000 0 0 1
-26.366928 10.343395 -7.485692 29.295670 -0.373839 1.829184 0.185783 -0.018846 82371.700000 0 0 1
-26.679448 9.731095 -8.708392 29.703926 -0.349747 1.868340 0.171333 -0.021470 -294468.000000 0 0 1
-27.075988 10.782695 -9.789992 30.744424 -0.378987 1.894871 0.145375 -0.019359 -201323.000000 0 0 1
-26.053888 11.535095 -10.378992 30.324693 -0.416800 1.920120 0.138679 -0.016551 -64546.500000 0 0 1
-26.541078 12.094495 -11.576492 31.380261 -0.427575 1.948632 0.121378 -0.019442 -235833.000000 0 0 1
-25.578418 13.071495 -12.229192 31.219747 -0.472437 1.973289 0.117257 -0.018309 -395548.000000 0 0 1
-25.342578 14.218095 -11.447392 31.232087 -0.511277 1.946069 0.109814 -0.021569 223674.000000 0 0 1
-24.787638 15.255195 -12.253892 31.580150 -0.551692 1.969284 0.105741 -0.020570 2707.450000 0 0 1
-24.735338 16.603295 -11.398492 31.897210 -0.591161 1.936226 0.109965 -0.019392 -349183.000000 0 0 1
-23.825738 16.705395 -10.345092 30.882956 -0.611497 1.912378 0.098573 -0.011220 -322356.000000 0 0 1
-23.606138 18.015095 -9.876792 31.294479 -0.651866 1.891894 0.058434 -0.009590 437188.000000 0 0 1
-22.495838 18.043995 -8.754092 30.137728 -0.676022 1.865514 0.059960 -0.005814 177758.000000 0 0 1
-22.854638 17.497795 -7.468992 29.737067 -0.653418 1.824683 0.075090 -0.007169 279052.000000 0 0 1
-23.825038 18.277795 -6.790292 30.786658 -0.654398 1.793184 0.054720 -0.014249 97834.900000 0 0 1
-24.219038 17.777495 -5.360092 30.517728 -0.633202 1.747351 0.045442 -0.009757 136472.000000 0 0 1
-23.187038 17.832995 -4.381292 29.577866 -0.655609 1.719471 0.058039 -0.024417 553720.000000 0 0 1
-23.701738 17.612595 -3.116492 29.693239 -0.639066 1.675946 0.041350 -0.020228 -184829.000000 0 0 1
-22.500138 17.249395 -2.237092 28.439452 -0.654063 1.649539 0.057768 -0.034396 -581662.000000 0 0 1
-21.789838 18.321995 -1.759592 28.523476 -0.699158 1.632525 0.056846 -0.031960 -658929.000000 0 0 1
-20.890838 17.917795 -0.810792 27.534195 -0.708940 1.600247 0.131657 -0.052427 -293121.000000 0 0 1
-20.120238 19.141895 -0.170492 27.771662 -0.760485 1.576935 0.110890 -0.048978 -34836.200000 0 0 1
-20.914838 19.802195 0.730908 28.811310 -0.758079 1.545425 0.088908 -0.041073 42748.300000 0 0 1
-20.300538 21.049095 0.981008 29.259847 -0.803499 1.537263 0.091250 -0.043753 144951.000000 0 0 1
-21.177238 21.915095 1.900808 30.534569 -0.802519 1.508505 0.079572 -0.038460 -2665.040000 0 0 1
-21.075138 21.558995 3.244308 30.322883 -0.796747 1.463599 0.084542 -0.039191 -282560.000000 0 0 1
-22.260838 21.768195 3.938408 31.383280 -0.774210 1.444971 0.067573 -0.034550 -532066.000000 0 0 1
-22.111338 21.348195 5.448908 31.214537 -0.767840 1.395334 0.092094 -0.034920 -358549.000000 0 0 1
-21.214838 22.267695 5.985108 31.332748 -0.809607 1.378598 0.076046 -0.028583 -8270.360000 0 0 1
-20.444838 21.741095 7.101408 30.677298 -0.816116 1.337190 0.076610 -0.022146 128357.000000 0 0 1
-21.040238 21.484795 8.534308 31.258958 -0.795852 1.294266 0.088857 -0.026905 -747212.000000 0 0 1
-22.114338 20.569195 8.529008 31.382793 -0.749214 1.295561 0.089114 -0.023742 531277.000000 0 0 1
-22.626638 20.132795 9.792508 31.830605 -0.727142 1.258080 0.093537 -0.019348 3537.070000 0 0 1
-23.371838 21.148795 10.662808 33.274762 -0.735507 1.244595 0.107838 -0.017484 -490636.000000 0 0 1
-24.687538 21.467395 10.241208 34.281277 -0.715743 1.267424 0.124986 -0.018807 404635.000000 0 0 1
-25.272318 22.317195 11.218008 35.532956 -0.723382 1.249595 0.133716 -0.021667 614045.000000 0 0 1
-26.833768 22.413295 11.048508 36.667103 -0.695877 1.264720 0.148189 -0.021459 638746.000000 0 0 1
-27.518048 23.246395 11.944008 37.951247 -0.701449 1.250635 0.137561 -0.016096 52134.500000 0 0 1
-27.592808 24.591495 11.604008 38.739614 -0.727948 1.266587 0.138996 -0.021158 -205648.000000 0 0 1
-28.125778 25.378495 12.830208 39.996770 -0.734096 1.244242 0.139773 -0.021270 344519.000000 0 0 1
-27.216978 25.427295 13.952208 39.774054 -0.751415 1.212385 0.112533 -0.023972 471127.000000 0 0 1
-27.742848 26.099195 15.096008 40.972223 -0.754880 1.193461 0.102801 -0.018037 874310.000000 0 0 1
-26.596698 26.374895 16.169108 40.797788 -0.781211 1.163288 0.094747 -0.023300 971122.000000 0 0 1
-26.149628 25.211695 16.836508 40.036241 -0.767139 1.136765 0.093814 -0.021609 -112964.000000 0 0 1
-25.067838 25.450695 17.691708 39.863905 -0.792977 1.110959 0.091007 -0.019492 -269831.000000 0 0 1
-24.635738 24.164795 18.427808 39.120851 -0.775748 1.080318 0.091844 -0.016457 349640.000000 0 0 1
-23.500538 24.336495 19.291908 38.945064 -0.802871 1.052545 0.093292 -0.031979 749823.000000 0 0 1
-23.042438 23.097695 19.786308 38.156984 -0.786596 1.025642 0.089750 -0.032569 309641.000000 0 0 1
-21.536938 23.124495 20.197308 37.503509 -0.820930 1.002088 0.088504 -0.038662 -92931.000000 0 0 1
-20.684738 23.166395 19.064708 36.441780 -0.841931 1.020247 0.078359 -0.034738 801220.000000 0 0 1
-19.291638 23.134295 19.383808 35.820314 -0.875725 0.999004 0.060471 -0.037536 631827.000000 0 0 1
-18.695738 21.705395 19.573208 34.695320 -0.859755 0.971398 0.058377 -0.021427 -689104.000000 0 0 1
-19.284838 20.940995 20.653908 35.171212 -0.826546 0.943153 0.081544 -0.018957 442842.000000 0 0 1
-18.549938 21.000395 21.870208 35.544659 -0.847277 0.908045 0.080031 -0.024320 542392.000000 0 0 1
-19.506738 20.586295 23.079908 36.564881 -0.812318 0.887691 0.074833 -0.017207 -4856.840000 0 0 1
-20.495138 21.521295 23.337808 37.787168 -0.809816 0.905094 0.082760 -0.022177 -237890.000000 0 0 1
-21.327438 20.994695 24.399008 38.612801 -0.777536 0.886808 0.098169 -0.019505 31410.800000 0 0 1
-22.574238 21.852495 24.582608 39.892761 -0.769154 0.906866 0.098893 -0.023677 -866546.000000 0 0 1
-22.184338 23.107595 24.986708 40.625625 -0.805780 0.908350 0.109893 -0.035668 718864.000000 0 0 1
-23.230838 24.028595 25.377308 41.964902 -0.802277 0.921373 0.108962 -0.039982 853557.000000 0 0 1
-24.235238 24.524995 24.286908 42.174353 -0.791341 0.957129 0.094135 -0.037985 513328.000000 0 0 1
-25.233688 23.622895 23.780408 41.955786 -0.752440 0.968184 0.085215 -0.033692 -151998.000000 0 0 1
-25.922028 24.393495 22.864208 42.305628 -0.755029 0.999821 0.085014 -0.029417 -266396.000000 0 0 1
-26.977768 23.506595 22.137208 42.076311 -0.716749 1.016764 0.084489 -0.022896 708866.000000 0 0 1
-28.218508 23.395095 22.860608 43.199792 -0.692216 1.013159 0.072727 -0.028724 481689.000000 0 0 1
-29.070678 22.499495 22.140608 42.913146 -0.658659 1.028692 0.070080 -0.024139 -299769.000000 0 0 1
-30.519168 22.627195 22.601208 44.206608 -0.637980 1.034142 0.075326 -0.014498 -1212870.000000 0 0 1
-31.129448 23.738395 22.036208 44.923806 -0.651498 1.058105 0.075657 -0.012962 1355930.000000 0 0 1
-32.550648 23.880095 22.309908 46.125217 -0.632941 1.065940 0.080738 -0.014137 1784950.000000 0 0 1
-33.581318 22.963595 21.577408 46.050148 -0.599785 1.083133 0.086472 -0.021419 -665579.000000 0 0 1
-33.479538 21.591195 21.937208 45.478569 -0.572787 1.067445 0.079612 -0.019509 360263.000000 0 0 1
-34.071018 20.660995 21.003508 45.042850 -0.545119 1.085692 0.082464 -0.015415 726466.000000 0 0 1
-35.616101 20.622595 20.763908 46.097049 -0.524854 1.103539 0.116316 -0.024972 394441.000000 0 0 1
-36.016170 19.773095 19.758708 45.591077 -0.502080 1.122546 0.111877 -0.012941 582689.000000 0 0 1
36.596272 19.751895 19.638608 45.990210 0.494920 1.129605 0.140111 -0.024236 810443.000000 0 0 1
36.074432 18.954295 18.432008 44.725484 0.483778 1.146023 0.144196 -0.019899 -100569.000000 0 0 1
36.095722 17.527595 18.586008 44.221685 0.452050 1.137030 0.150355 -0.022839 152579.000000 0 0 1
35.537342 16.850895 17.498908 43.047267 0.442774 1.152171 0.164893 -0.038166 64854.800000 0 0 1
35.826272 15.281095 17.505708 42.702265 0.403169 1.148399 0.160031 -0.045985 223844.000000 0 0 1
34.921412 14.639095 16.631608 41.357207 0.396949 1.156938 0.186037 -0.054442 61829.000000 0 0 1
35.326182 13.334795 16.419508 41.174703 0.360940 1.160614 0.156757 -0.051673 -303428.000000 0 0 1
34.416472 12.527195 15.506008 39.772610 0.349082 1.170310 0.149480 -0.058070 -267862.000000 0 0 1
34.255022 12.975995 14.181408 39.279707 0.362103 1.201417 0.147680 -0.056696 23175.700000 0 0 1
33.479132 12.099895 13.429608 38.047525 0.346809 1.210054 0.143151 -0.053873 -289017.000000 0 0 1
33.294102 12.420495 11.875108 37.467108 0.357063 1.248287 0.149426 -0.051635 -266682.000000 0 0 1
34.560632 12.153495 11.342408 38.350945 0.338150 1.270553 0.140523 -0.042381 145340.000000 0 0 1
34.603922 12.110595 9.903608 37.976037 0.336655 1.306960 0.142085 -0.039850 -504997.000000 0 0 1
35.993702 12.262595 9.263408 39.137304 0.328354 1.331839 0.100291 -0.017144 -540352.000000 0 0 1
36.876252 11.210195 9.560408 39.710551 0.295118 1.327655 0.127333 -0.021687 -71068.500000 0 0 1
-35.796790 11.437695 9.342208 38.723480 -0.309265 1.327138 0.138521 -0.020490 -284243.000000 0 0 1
-35.333051 11.237295 7.914308 37.912235 -0.307923 1.360496 0.136342 -0.032861 -764605.000000 0 0 1
-35.785032 12.227995 6.988108 38.456807 -0.329268 1.388068 0.115602 -0.023991 111588.000000 0 0 1
-35.360886 11.879095 5.677108 37.732409 -0.324094 1.419766 0.137675 -0.031564 -371811.000000 0 0 1
-36.123998 12.592395 4.576808 38.528675 -0.335416 1.451726 0.137055 -0.018620 243447.000000 0 0 1
36.529472 12.268195 4.570108 38.804598 0.324008 1.452750 0.128837 -0.019972 794059.000000 0 0 1
35.598962 13.369495 4.475608 38.289171 0.359260 1.453639 0.099826 -0.019010 609693.000000 0 0 1
35.222302 13.999295 5.786008 38.341476 0.378311 1.419310 0.113936 -0.016076 -717008.000000 0 0 1
34.462662 15.195995 5.803508 38.108714 0.415295 1.417913 0.111601 -0.018642 292774.000000 0 0 1
33.955432 15.592795 7.066208 38.026806 0.430489 1.383888 0.085107 -0.026240 317100.000000 0 0 1
32.602582 14.967495 7.507508 36.651289 0.430387 1.364500 0.124146 -0.025435 -64753.600000 0 0 1
32.702512 13.633695 7.896908 36.300043 0.394990 1.351497 0.154736 -0.030186 471297.000000 0 0 1
31.423082 13.067295 8.184108 35.002056 0.394095 1.334794 0.153320 -0.032833 285657.000000 0 0 1
31.185382 11.687295 7.522108 34.142394 0.358568 1.348658 0.155071 -0.028324 -169890.000000 0 0 1
31.055092 11.815395 6.148408 33.790905 0.363554 1.387823 0.138100 -0.026470 243447.000000 0 0 1
31.260592 10.624695 5.400908 33.455621 0.327626 1.408652 0.155797 -0.026267 -67718.400000 0 0 1
30.941482 10.871395 3.896208 33.026399 0.337880 1.452548 0.141443 -0.035973 673609.000000 0 0 1
29.524442 10.811495 3.718208 31.660799 0.351023 1.453086 0.130256 -0.027296 456578.000000 0 0 1
29.100612 11.311695 2.468508 31.319221 0.370736 1.491897 0.146054 -0.035352 -212545.000000 0 0 1
27.596972 11.008795 2.357208 29.805082 0.379569 1.491626 0.143421 -0.020728 -245168.000000 0 0 1
27.375572 9.699895 1.905408 29.105678 0.340524 1.505284 0.125991 -0.025208 57759.600000 0 0 1
26.002272 9.388795 1.755008 27.701042 0.346508 1.507399 0.123138 -0.028770 34196.400000 0 0 1
25.728472 7.940595 1.290208 26.956854 0.299356 1.522916 0.134528 -0.028842 73676.700000 0 0 1
26.078872 6.977795 2.309708 27.094870 0.261441 1.485448 0.139141 -0.021858 1522690.000000 0 0 1
27.511972 6.733495 2.309908 28.418027 0.240029 1.489423 0.142185 -0.027221 881293.000000 0 0 1
27.838872 6.133895 3.678708 28.743006 0.216870 1.442458 0.140591 -0.027995 -129652.000000 0 0 1
29.222692 6.171595 3.971708 30.130198 0.208133 1.438593 0.148143 -0.024719 381428.000000 0 0 1
29.505732 5.477795 5.150208 30.448631 0.183562 1.400835 0.136708 -0.016791 -694807.000000 0 0 1
30.964072 5.313395 5.533008 31.900159 0.169944 1.396467 0.121424 -0.026714 -630946.000000 0 0 1
31.599232 6.415495 6.118708 32.819334 0.200304 1.383263 0.139481 -0.027671 1190210.000000 0 0 1
32.882352 6.074595 6.741508 34.111548 0.182678 1.371855 0.146705 -0.023950 1394590.000000 0 0 1
33.337452 7.267495 7.611908 34.959167 0.214640 1.351301 0.140930 -0.032623 -278199.000000 0 0 1
32.547722 7.541295 8.738408 34.533826 0.227682 1.314976 0.139196 -0.025619 -292095.000000 0 0 1
33.155182 8.449395 9.648908 35.549400 0.249532 1.295926 0.148899 -0.030905 -440052.000000 0 0 1
32.558362 8.583895 11.071808 35.444536 0.257781 1.253110 0.140066 -0.039094 683132.000000 0 0 1
31.171902 8.996295 11.119608 34.296742 0.280968 1.240612 0.138866 -0.037975 976053.000000 0 0 1
30.700212 8.704395 12.393108 34.232421 0.276278 1.200353 0.123540 -0.042848 144451.000000 0 0 1
29.185212 8.983195 12.651908 33.053671 0.298597 1.178005 0.112634 -0.042123 199002.000000 0 0 1
28.787472 10.357495 12.848108 33.182377 0.345371 1.173207 0.136068 -0.051784 262971.000000 0 0 1
28.966322 11.332895 11.823908 33.275924 0.372935 1.207530 0.152946 -0.055982 -228756.000000 0 0 1
28.048572 11.257295 10.547908 32.011052 0.381670 1.235014 0.115933 -0.047672 157222.000000 0 0 1
28.223272 12.369595 9.723008 32.312488 0.413062 1.265154 0.097143 -0.026575 275136.000000 0 0 1
27.288972 12.259195 8.675708 31.148737 0.422219 1.288538 0.087959 -0.028166 -113151.000000 0 0 1
27.148772 13.559495 7.855408 31.346821 0.463209 1.317500 0.092745 -0.023923 26855.800000 0 0 1
26.648872 14.697795 8.556508 31.613311 0.504021 1.296716 0.088598 -0.019238 424434.000000 0 0 1
27.033572 15.912895 7.911808 32.351677 0.532021 1.323734 0.091129 -0.019071 -665683.000000 0 0 1
26.441972 17.194095 8.496208 32.664972 0.576556 1.307669 0.094982 -0.031172 1107670.000000 0 0 1
25.053872 17.532195 8.281508 31.680558 0.610578 1.306317 0.098640 -0.026845 1324700.000000 0 0 1
24.072272 16.783095 9.004108 30.695611 0.608842 1.273083 0.099991 -0.020859 201370.000000 0 0 1
22.872872 17.731795 9.324908 30.406229 0.659455 1.259096 0.101453 -0.025067 -331745.000000 0 0 1
22.140672 17.998895 8.173908 29.681347 0.682578 1.291802 0.111204 -0.027532 -424450.000000 0 0 1
21.274172 19.082495 8.353808 29.774455 0.731144 1.286409 0.140238 -0.032067 -31811.900000 0 0 1
20.471172 19.440195 7.089908 29.107678 0.759572 1.324746 0.121222 -0.030429 227490.000000 0 0 1
21.333472 20.002195 6.092808 29.871846 0.753203 1.365390 0.093829 -0.021441 411074.000000 0 0 1
20.659572 20.480395 4.933908 29.506067 0.781043 1.402790 0.105563 -0.027492 18368.200000 0 0 1
18.370062 17.230695 32.835469 41.382655 0.753405 0.654324 0.069817 -0.010034 -72551.600000 0 0 1
17.599462 17.930795 31.895884 40.602979 0.794723 0.667203 0.062353 -0.011759 56468.500000 0 0 1
17.207162 16.986295 30.894664 39.231377 0.778939 0.664056 0.071321 -0.015338 138347.000000 0 0 1
16.503462 17.621695 29.648144 38.234812 0.818155 0.683412 0.075052 -0.019312 -391328.000000 0 0 1
17.358862 18.115295 28.676394 38.102882 0.806718 0.718788 0.079831 -0.011738 -699462.000000 0 0 1
16.709262 18.456495 27.491854 37.089671 0.835043 0.735900 0.088629 -0.020720 -684669.000000 0 0 1
17.661362 18.714695 26.321464 36.810094 0.814347 0.774085 0.084519 -0.014772 -93595.900000 0 0 1
18.530862 19.801895 26.632044 38.010179 0.818544 0.794480 0.091380 -0.019894 561832.000000 0 0 1
19.338162 20.152095 25.469024 37.798713 0.806006 0.831448 0.090619 -0.020049 354211.000000 0 0 1
20.177562 21.463195 25.644134 39.056682 0.816263 0.854511 0.101077 -0.020223 31914.800000 0 0 1
19.456662 22.684595 25.757524 39.453804 0.861847 0.859452 0.087327 -0.029551 156151.000000 0 0 1
20.339562 23.746595 26.035114 40.686924 0.862526 0.876443 0.098168 -0.027773 -82569.700000 0 0 1
19.681062 25.121195 26.025934 41.179703 0.906232 0.886654 0.107891 -0.028768 -123224.000000 0 0 1
19.450462 25.596195 24.760404 40.577867 0.920991 0.914490 0.106300 -0.026677 250069.000000 0 0 1
18.497762 26.641395 24.773504 40.812470 0.963890 0.918506 0.103084 -0.037180 -349218.000000 0 0 1
18.529862 27.529695 23.502184 40.664390 0.978362 0.954576 0.081122 -0.035405 -635094.000000 0 0 1
19.584862 28.403295 23.267804 41.613757 0.967133 0.977451 0.090590 -0.033719 -562658.000000 0 0 1
19.551862 28.915395 21.957674 41.237300 0.976240 1.009279 0.084619 -0.036679 -473159.000000 0 0 1
20.765362 29.782495 21.714674 42.305134 0.961929 1.031786 0.091164 -0.031766 -1033620.000000 0 0 1
22.012162 29.152795 21.764374 42.521862 0.924064 1.033472 0.096471 -0.027188 821882.000000 0 0 1
23.144762 29.958395 21.270174 43.423563 0.913010 1.058901 0.100774 -0.034213 1370170.000000 0 0 1
23.246962 30.134495 19.722174 42.865758 0.913714 1.092698 0.083170 -0.029912 261551.000000 0 0 1
22.200462 30.936495 19.085874 42.593402 0.948346 1.106163 0.067928 -0.024934 828323.000000 0 0 1
22.176262 30.750095 17.645274 41.817588 0.945999 1.135192 0.070481 -0.009065 -734805.000000 0 0 1
22.124862 32.077495 16.862174 42.459489 0.966995 1.162403 0.080922 -0.018393 -538916.000000 0 0 1
23.188962 32.922995 17.251074 43.809259 0.957164 1.166059 0.078488 -0.021096 218162.000000 0 0 1
23.503362 33.894495 16.261774 44.336104 0.964495 1.195247 0.078747 -0.016999 140861.000000 0 0 1
24.510062 33.373695 15.172074 44.099190 0.937346 1.219576 0.062539 -0.020703 -279992.000000 0 0 1
24.082062 32.329395 14.288774 42.770371 0.930569 1.230166 0.075615 -0.028591 197045.000000 0 0 1
23.360062 32.809295 13.157474 42.370526 0.952065 1.255042 0.063345 -0.020833 284169.000000 0 0 1
22.713362 31.732295 12.241974 40.898672 0.949558 1.266812 0.054389 -0.030342 -340258.000000 0 0 1
23.701762 31.136095 11.470774 40.777551 0.920146 1.285647 0.065721 -0.046751 -12176.900000 0 0 1
23.180362 30.030995 10.728774 39.424567 0.913438 1.295186 0.063453 -0.044258 216170.000000 0 0 1
24.302462 29.306295 9.854774 39.326647 0.878468 1.317509 0.071505 -0.042405 795306.000000 0 0 1
25.310362 28.591595 10.517174 39.606877 0.846197 1.302033 0.074234 -0.039802 603450.000000 0 0 1
26.273462 29.424495 11.202774 41.007291 0.841912 1.294089 0.069064 -0.041302 -705259.000000 0 0 1
27.611262 28.799695 11.572774 41.541947 0.806462 1.288481 0.074305 -0.038894 -362019.000000 0 0 1
27.705662 27.836895 12.597874 41.245641 0.787761 1.260401 0.085145 -0.034994 726420.000000 0 0 1
29.085462 27.660895 12.977974 42.184323 0.760299 1.258075 0.083407 -0.019298 835674.000000 0 0 1
29.296762 26.623795 14.095774 42.021633 0.737635 1.228723 0.072890 -0.013939 -79604.700000 0 0 1
30.598862 26.779495 14.604774 43.205685 0.718932 1.225974 0.058357 -0.014874 -152297.000000 0 0 1
30.857762 25.886795 15.668474 43.218384 0.698019 1.199802 0.061939 -0.011536 29576.700000 0 0 1
32.087862 26.237595 16.534274 44.625380 0.685429 1.191235 0.073344 -0.015899 318399.000000 0 0 1
33.322262 26.190395 15.822574 45.240069 0.666129 1.213495 0.086234 -0.015634 -128276.000000 0 0 1
34.356262 26.382395 16.765574 46.448552 0.654863 1.201511 0.088227 -0.019566 -172303.000000 0 0 1
35.750562 26.411495 16.126374 47.283504 0.636276 1.222755 0.111901 -0.026138 -122946.000000 0 0 1
35.895662 27.549995 15.291474 47.763270 0.654609 1.244907 0.105892 -0.023718 442223.000000 0 0 1
-36.785948 27.994095 15.142574 48.643323 -0.650504 1.254238 0.122279 -0.019355 988119.000000 0 0 1
-36.763248 29.260695 14.267474 49.104842 -0.672250 1.275993 0.110253 -0.020252 146901.000000 0 0 1
36.618862 30.303795 14.994274 49.840640 0.691313 1.265218 0.111493 -0.025763 306079.000000 0 0 1
36.705262 31.472295 14.196974 50.391822 0.708793 1.285198 0.100159 -0.018307 207143.000000 0 0 1
35.461662 32.382995 14.393174 50.133336 0.740051 1.279601 0.092936 -0.024032 -475333.000000 0 0 1
35.455262 33.425895 13.423274 50.542560 0.755945 1.301987 0.073527 -0.030587 803225.000000 0 0 1
34.325362 -33.807076 13.677474 50.082154 -0.777791 1.294181 0.070240 -0.029719 1087870.000000 0 0 1
32.948962 33.781795 13.115774 48.978233 0.797878 1.299700 0.070084 -0.023735 70285.200000 0 0 1
32.308162 32.727995 13.818574 48.019705 0.791853 1.278900 0.069913 -0.030740 1048880.000000 0 0 1
31.239262 32.161395 12.976974 46.675997 0.799942 1.289062 0.066894 -0.033339 785188.000000 0 0 1
30.419662 31.079895 13.767274 45.616374 0.796133 1.264210 0.062629 -0.034489 9819.910000 0 0 1
29.738062 31.555695 14.917174 45.854513 0.815044 1.239451 0.061503 -0.019240 195494.000000 0 0 1
29.293762 30.460895 15.662474 45.069987 0.804928 1.215877 0.056584 -0.025728 -32372.900000 0 0 1
28.980462 30.894195 17.120774 45.688504 0.817350 1.186693 0.051637 -0.013892 -278010.000000 0 0 1
28.668762 29.807995 17.988474 45.099886 0.804878 1.160525 0.049242 -0.008343 -46749.200000 0 0 1
28.580062 30.359295 19.304874 45.947633 0.815577 1.137186 0.025700 -0.005844 -48969.300000 0 0 1
28.736062 29.328595 20.409174 45.852614 0.795603 1.109506 0.046694 0.000330 540593.000000 0 0 1
27.527062 29.112995 21.143374 45.302847 0.813391 1.085227 0.054686 -0.017561 506752.000000 0 0 1
27.746462 28.196295 22.178174 45.351611 0.793439 1.059822 0.047847 -0.014568 502538.000000 0 0 1
26.512362 28.051595 23.133994 44.999767 0.813600 1.030848 0.057053 -0.014340 635921.000000 0 0 1
25.394462 27.436595 22.511274 43.639466 0.824033 1.028801 0.079659 -0.020820 430163.000000 0 0 1
24.241162 27.265495 23.334194 43.307341 0.844048 1.001779 0.091479 -0.030189 382088.000000 0 0 1
24.228062 25.999795 24.290204 43.046514 0.820657 0.971238 0.081206 -0.026062 -449593.000000 0 0 1
25.158162 26.160295 25.345094 44.268137 0.804923 0.961201 0.067638 -0.020807 -28800.000000 0 0 1
25.064762 25.140595 26.287884 44.174028 0.786909 0.933408 0.084843 -0.022402 -255587.000000 0 0 1
26.395062 25.026995 27.073234 45.343245 0.758800 0.930949 0.082843 -0.026019 111270.000000 0 0 1
26.775762 26.105795 27.893594 46.653045 0.772730 0.929925 0.094242 -0.025107 244384.000000 0 0 1
27.275162 27.244195 27.150494 47.152200 0.784830 0.957207 0.055501 -0.008674 -897138.000000 0 0 1
27.722762 28.365095 28.124714 48.622317 0.796850 0.953991 0.025711 -0.004205 -248816.000000 0 0 1
28.975162 28.153695 28.758914 49.590985 0.771020 0.952163 0.030980 -0.004229 47891.400000 0 0 1
29.238062 29.238795 29.607704 50.856539 0.785411 0.949388 0.027908 -0.006536 -143968.000000 0 0 1
30.747562 29.442795 29.839414 51.987320 0.763724 0.959445 0.007437 0.003309 -14020.100000 0 0 1
31.282962 29.754495 28.552904 51.761202 0.760362 0.986482 0.000537 -0.003478 -547783.000000 0 0 1
32.687362 29.753095 28.537644 52.612807 0.738440 0.997495 0.003408 -0.005034 -376983.000000 0 0 1
33.090962 30.405095 27.202734 52.530661 0.743124 1.026467 0.000492 -0.001996 -556874.000000 0 0 1
32.768862 31.766195 27.070624 53.063247 0.769863 1.035428 -0.003416 -0.002134 461985.000000 0 0 1
33.337762 32.216595 25.817634 53.064731 0.768297 1.062682 0.012366 -0.010411 -119108.000000 0 0 1
33.132562 33.731295 25.607054 53.770700 0.794352 1.074438 0.000571 -0.014714 -299146.000000 0 0 1
33.870262 -33.419276 26.426614 54.428013 -0.778696 1.063823 0.028291 -0.019491 268725.000000 0 0 1
33.548862 -32.073676 26.217314 53.306608 -0.762922 1.056616 0.030285 -0.011689 -459822.000000 0 0 1
34.582362 -31.200076 26.921654 53.797398 -0.734027 1.046705 0.039387 -0.012418 -178412.000000 0 0 1
34.413562 -31.190176 28.333914 54.405248 -0.736303 1.023016 0.033204 -0.017690 442453.000000 0 0 1
35.554562 -30.604676 28.933694 55.117436 -0.710720 1.018144 0.043849 -0.022828 -10908.600000 0 0 1
35.498862 -30.408876 30.483554 55.804266 -0.708322 0.992905 0.040253 -0.021779 -358602.000000 0 0 1
35.544262 -31.531676 31.364424 56.933016 -0.725648 0.987354 0.042277 -0.015886 785952.000000 0 0 1
34.292462 -32.235176 31.420924 56.589346 -0.754484 0.982139 0.029731 -0.019905 342529.000000 0 0 1
34.182962 -33.303076 32.537974 57.760623 -0.772361 0.972392 0.035327 -0.014620 -430930.000000 0 0 1
33.908162 -32.695676 33.841117 57.999930 -0.767196 0.947804 0.036147 -0.018700 270697.000000 0 0 1
34.215862 -33.433976 -32.932842 58.078637 -0.773841 2.173703 0.044599 -0.018901 -27069.400000 0 0 1
33.486462 33.304995 -32.717892 57.454559 0.782681 2.176641 0.048988 -0.020926 -125538.000000 0 0 1
34.034062 32.277895 -33.507722 57.645012 0.758921 2.191094 0.046894 -0.014598 482397.000000 0 0 1
33.075162 31.225795 -33.662162 56.587612 0.756645 2.207898 0.044029 -0.012034 558239.000000 0 0 1
33.418562 30.411595 32.980510 55.940857 0.738324 0.940282 0.023654 -0.006935 993032.000000 0 0 1
34.607562 29.627795 33.244997 56.397868 0.708029 0.940391 0.016369 -0.008184 954583.000000 0 0 1
35.052862 28.941295 32.040720 55.613933 0.690185 0.956813 0.011132 -0.005055 -108917.000000 0 0 1
36.266462 28.083295 32.400887 56.158216 0.658910 0.955798 0.007713 -0.003314 -112376.000000 0 0 1
35.852862 26.928995 33.063230 55.711540 0.644203 0.935431 0.012839 -0.000196 -419189.000000 0 0 1
36.936262 26.292195 33.618711 56.442756 0.618619 0.932753 0.009835 -0.007247 -389872.000000 0 0 1
36.504862 24.960895 -33.723362 55.613995 0.599749 2.222300 0.003998 -0.001331 73644.500000 0 0 1
36.236062 23.980895 33.263640 54.722987 0.584623 0.917440 0.004025 0.002902 -109116.000000 0 0 1
36.219262 22.786795 33.934049 54.613118 0.561567 0.900327 0.023269 -0.017552 -559021.000000 0 0 1
35.964862 21.604895 33.008930 53.383821 0.540950 0.904178 0.021754 -0.021614 91770.200000 0 0 1
37.003162 21.460895 32.045431 53.448234 0.525565 0.927845 0.028219 -0.018063 289935.000000 0 0 1
36.794562 20.265595 31.268294 52.366405 0.503439 0.930908 0.034779 -0.015943 -244431.000000 0 0 1
-36.011348 19.838195 30.485484 51.183356 -0.503524 0.932767 0.038454 -0.028529 -400476.000000 0 0 1
-35.846548 20.559795 29.297934 50.656186 -0.520744 0.954069 0.030654 -0.025044 11339.700000 0 0 1
-34.692148 20.007795 28.670014 49.252683 -0.523129 0.949487 0.044651 -0.018934 253213.000000 0 0 1
-34.940148 18.799095 27.729734 48.406178 -0.493612 0.960811 0.058617 -0.020275 -116273.000000 0 0 1
-35.307448 17.642795 28.469984 48.666458 -0.463400 0.945914 0.046381 -0.017523 185972.000000 0 0 1
-36.198348 16.821395 27.723974 48.599367 -0.435012 0.963731 0.078000 -0.033600 360288.000000 0 0 1
-36.859648 15.716495 28.595694 49.227590 -0.403045 0.950978 0.075874 -0.016979 -97776.500000 0 0 1
-35.950148 14.642195 28.778104 48.321696 -0.386776 0.932843 0.063922 -0.021498 242758.000000 0 0 1
-36.367048 13.558995 29.597754 48.810200 -0.356873 0.919290 0.057313 -0.025600 -434098.000000 0 0 1
-35.216848 12.588495 29.856774 47.855236 -0.343302 0.897076 0.049714 -0.016918 -567465.000000 0 0 1
-34.231148 13.063895 30.705354 47.804348 -0.364577 0.873284 0.056443 -0.011191 -176161.000000 0 0 1
-33.418448 12.065995 31.270914 47.331290 -0.346492 0.849070 0.061237 -0.009997 -732522.000000 0 0 1
-31.930348 12.310595 31.086424 46.232712 -0.367984 0.833363 0.077191 -0.008854 -1787420.000000 0 0 1
-31.503948 12.189295 29.746594 45.010416 -0.369174 0.848802 0.070813 -0.014671 922996.000000 0 0 1
-30.145448 12.636395 29.571114 44.078082 -0.396931 0.835401 0.078033 -0.015234 992572.000000 0 0 1
-29.070448 11.565895 29.927464 43.295658 -0.378658 0.807600 0.087360 -0.013578 -528494.000000 0 0 1
-28.888548 10.584995 28.956974 42.250405 -0.351217 0.815691 0.086788 -0.023317 -567668.000000 0 0 1
-27.964448 9.708995 29.483454 41.779768 -0.334170 0.787404 0.068300 -0.021093 -594862.000000 0 0 1
-27.569948 8.453395 28.557814 40.584612 -0.297516 0.790259 0.079176 -0.020018 390000.000000 0 0 1
-28.385448 7.292195 28.565944 40.925823 -0.251461 0.798205 0.085802 -0.018768 279209.000000 0 0 1
-29.700048 7.409295 28.032234 41.506586 -0.244481 0.829332 0.090920 -0.019366 429181.000000 0 0 1
-30.405248 6.018895 27.893524 41.698380 -0.195429 0.838021 0.092916 -0.022175 16299.900000 0 0 1
-30.830548 5.510795 29.128414 42.770972 -0.176877 0.821625 0.095234 -0.019213 113546.000000 0 0 1
-31.643548 4.349395 28.978594 43.127605 -0.136594 0.833989 0.109321 -0.025052 151928.000000 0 0 1
-32.407448 4.001995 30.255624 44.515856 -0.122868 0.823498 0.093678 -0.014086 -155219.000000 0 0 1
-33.437648 4.859595 30.686924 45.644050 -0.144323 0.833472 0.100355 -0.021994 -380628.000000 0 0 1
-33.857948 4.479095 31.973659 46.783948 -0.131527 0.818342 0.101071 -0.020775 -289058.000000 0 0 1
-35.328448 4.890695 32.127791 48.002220 -0.137561 0.837533 0.086106 -0.017972 -342736.000000 0 0 1
-35.575448 6.271495 32.145818 48.355949 -0.174494 0.843604 0.092310 -0.015444 -754451.000000 0 0 1
-36.948348 6.480795 32.075880 49.356289 -0.173635 0.863364 0.079260 -0.010839 -336775.000000 0 0 1
36.584862 7.957095 32.319248 49.460098 0.214162 0.858675 0.072784 -0.015680 -114307.000000 0 0 1
36.745062 8.311395 33.734237 50.569533 0.222448 0.840506 0.075268 -0.019514 286886.000000 0 0 1
36.478562 9.680795 -33.974232 50.780427 0.259404 2.303715 0.074183 -0.016853 -155086.000000 0 0 1
36.469462 10.153395 -32.542872 49.921455 0.271532 2.280859 0.071652 -0.018781 -461740.000000 0 0 1
35.472362 9.509695 -31.821982 48.593841 0.261928 2.284789 0.071529 -0.010890 -318113.000000 0 0 1
35.461862 9.793595 -30.426272 47.741138 0.269456 2.261809 0.057297 0.001717 -160757.000000 0 0 1
34.308562 9.210895 -29.593992 46.235510 0.262287 2.265387 0.043251 0.001391 -129662.000000 0 0 1
34.260762 7.829395 -29.490102 45.877722 0.224666 2.268941 0.029745 -0.007833 1423780.000000 0 0 1
32.924762 7.370895 -29.134742 44.578058 0.220239 2.283084 0.044890 -0.012150 1033380.000000 0 0 1
35.736272 5.997595 -19.681492 41.236070 0.166280 2.068363 0.037717 0.000676 -367720.000000 0 0 1
35.363232 6.962095 -18.747392 40.626269 0.194388 2.050436 0.031973 0.002542 -162698.000000 0 0 1
35.944982 8.194895 -18.858892 41.410819 0.224153 2.043629 0.022175 -0.003607 -1476630.000000 0 0 1
-36.667358 8.310995 -18.296792 41.813160 -0.222893 2.023707 0.037553 -0.007689 490904.000000 0 0 1
-35.649825 7.759195 -19.180392 41.218959 -0.214308 2.054803 0.048182 -0.014681 609761.000000 0 0 1
-35.405801 8.540095 -20.326092 41.709159 -0.236685 2.079825 0.037615 -0.008998 -1207550.000000 0 0 1
-34.538457 7.867395 -21.411692 41.391563 -0.223965 2.114485 0.033026 -0.003134 -322565.000000 0 0 1
-34.942471 6.605795 -22.005692 41.819413 -0.186843 2.124931 0.025648 0.001966 293991.000000 0 0 1
-36.001856 6.725395 -22.945692 43.218854 -0.184678 2.130480 0.024512 0.001046 278574.000000 0 0 1
-36.003595 5.455195 -23.763992 43.482701 -0.150374 2.148995 0.035317 -0.000572 389945.000000 0 0 1
-34.925751 5.512395 -24.701992 43.132157 -0.156541 2.180598 0.047621 -0.006244 290143.000000 0 0 1
-34.700295 4.350295 -25.507982 43.286172 -0.124717 2.200972 0.069183 -0.010434 -744636.000000 0 0 1
-33.418798 4.269595 -26.300802 42.740820 -0.127072 2.233633 0.089001 -0.006402 440560.000000 0 0 1
-32.210018 4.280795 -25.502942 41.306301 -0.132128 2.236243 0.083246 -0.012589 -36492.100000 0 0 1
-31.080188 3.867095 -26.192492 40.828656 -0.123787 2.267277 0.098191 -0.011576 -475968.000000 0 0 1
-29.844468 4.028095 -25.288822 39.324831 -0.134159 2.269303 0.097026 -0.019803 -238788.000000 0 0 1
-29.621548 5.394295 -25.058562 39.172261 -0.180133 2.264906 0.070231 -0.007617 542476.000000 0 0 1
-28.242378 5.623895 -24.737892 37.963448 -0.196559 2.280520 0.076917 -0.014985 711271.000000 0 0 1
-27.814038 7.077295 -24.881992 37.984501 -0.249163 2.285054 0.058710 -0.012108 -147389.000000 0 0 1
-28.235218 7.991295 -23.896692 37.843629 -0.275812 2.254229 0.062681 -0.010409 -250170.000000 0 0 1
-27.825938 9.314095 -24.181792 38.023601 -0.323004 2.260058 0.035532 -0.003975 837359.000000 0 0 1
-26.392998 9.779695 -23.738792 36.820688 -0.354856 2.271445 0.065001 -0.008500 541510.000000 0 0 1
-26.366358 10.048995 -22.352592 35.997299 -0.364134 2.240753 0.049833 -0.015001 -445054.000000 0 0 1
-25.060538 10.243895 -21.913392 34.830514 -0.388040 2.251247 0.089186 -0.022577 -848772.000000 0 0 1
-24.902238 10.741995 -20.422092 33.949577 -0.407251 2.216226 0.096910 -0.032734 -1040340.000000 0 0 1
-25.193378 12.096195 -20.194192 34.479409 -0.447629 2.196526 0.081188 -0.033708 701930.000000 0 0 1
-26.528288 12.579695 -20.333392 35.713382 -0.442795 2.176511 0.065923 -0.024214 657438.000000 0 0 1
-27.617088 12.032695 -19.332992 35.794607 -0.410897 2.141363 0.070821 -0.019950 -147620.000000 0 0 1
-27.359178 12.380195 -17.957092 34.989299 -0.424936 2.109725 0.076177 -0.029871 549201.000000 0 0 1
-28.296578 11.717595 -17.106992 35.080586 -0.392602 2.080190 0.066832 -0.029516 -384368.000000 0 0 1
-27.700448 11.466995 -15.716692 33.849981 -0.392486 2.053645 0.092481 -0.032729 210607.000000 0 0 1
-26.930348 10.283995 -15.534592 32.746416 -0.364783 2.065068 0.113241 -0.037408 1657880.000000 0 0 1
-25.577148 10.396295 -16.042992 31.931975 -0.386070 2.097182 0.106685 -0.032379 521437.000000 0 0 1
-24.708038 9.118895 -15.974192 30.802860 -0.353558 2.116003 0.100717 -0.031134 883126.000000 0 0 1
-23.283638 9.334895 -16.043792 29.777027 -0.381300 2.139806 0.097230 -0.036189 1070420.000000 0 0 1
-22.694938 8.207095 -15.374592 28.614589 -0.346995 2.138028 0.092844 -0.038160 47623.800000 0 0 1
-21.173338 8.312895 -15.168992 27.340680 -0.374121 2.158936 0.131571 -0.045611 100354.000000 0 0 1
-20.332238 8.289695 -16.315392 27.355273 -0.387137 2.209837 0.140246 -0.052857 455228.000000 0 0 1
-18.966638 8.390295 -15.970492 26.176077 -0.416492 2.227006 0.146309 -0.048514 -171304.000000 0 0 1
-18.050038 9.046295 -17.031992 26.414543 -0.464590 2.271553 0.110434 -0.045266 -39741.500000 0 0 1
-17.766038 8.352495 -18.240292 26.797473 -0.439474 2.319476 0.149893 -0.050060 449829.000000 0 0 1
-16.797938 7.310995 -18.057692 25.723562 -0.410505 2.348985 0.156867 -0.049952 -363641.000000 0 0 1
-16.361338 6.797095 -19.469192 26.323817 -0.393742 2.403278 0.148581 -0.043734 265034.000000 0 0 1
-17.290838 5.958295 -20.166692 27.224434 -0.331849 2.404993 0.138778 -0.036898 752195.000000 0 0 1
-18.414138 6.671495 -20.713792 28.507026 -0.347593 2.384187 0.133254 -0.042866 396987.000000 0 0 1
-19.369938 5.772695 -21.524592 29.526710 -0.289642 2.387637 0.128729 -0.022572 214268.000000 0 0 1
-20.060038 4.751195 -20.776392 29.268369 -0.232563 2.360093 0.143777 -0.029173 296966.000000 0 0 1
-21.016438 4.085395 -21.564592 30.387707 -0.191996 2.359796 0.094617 -0.005193 -308970.000000 0 0 1
-21.773738 3.144895 -20.596292 30.136245 -0.143443 2.323260 0.108470 -0.019808 -393824.000000 0 0 1
-22.750138 2.327795 -21.180492 31.170509 -0.101965 2.317883 0.113167 -0.017467 -241567.000000 0 0 1
-23.445638 1.683895 -20.186392 30.984252 -0.071698 2.280363 0.107685 -0.030367 -234745.000000 0 0 1
-24.097938 0.297795 -20.546092 31.669247 -0.012357 2.276765 0.104653 -0.021686 726496.000000 0 0 1
-23.073238 -0.724005 -20.687892 30.998183 0.031368 2.301495 0.103259 -0.028882 771198.000000 0 0 1
-23.524338 -2.031505 -21.013392 31.608292 0.086144 2.298031 0.105672 -0.029930 -584434.000000 0 0 1
-23.868938 -2.307005 -22.474192 32.865450 0.096354 2.323787 0.105107 -0.031392 359830.000000 0 0 1
-22.780438 -2.412105 -23.396592 32.743963 0.105492 2.366751 0.083303 -0.025113 140147.000000 0 0 1
-21.900738 -3.484105 -23.246992 32.127931 0.157764 2.379765 0.079244 -0.033733 -357250.000000 0 0 1
-20.928038 -3.502705 -24.439092 32.365428 0.165832 2.426601 0.083223 -0.032885 -255884.000000 0 0 1
-21.572338 -3.875705 -25.637992 33.729712 0.177764 2.434265 0.074805 -0.030744 827593.000000 0 0 1
-20.668838 -4.000005 -26.751762 34.041999 0.191165 2.474859 0.076163 -0.031252 152170.000000 0 0 1
-21.519038 -4.121605 -28.013962 35.564571 0.189241 2.477852 0.072637 -0.034032 305362.000000 0 0 1
-22.401438 -5.250605 -27.949292 36.201605 0.230231 2.452850 0.090287 -0.035279 236111.000000 0 0 1
-23.220438 -5.370905 -29.069752 37.591034 0.227303 2.454851 0.058133 -0.030809 -759090.000000 0 0 1
-22.903938 -6.588105 -29.944502 38.270964 0.280080 2.469361 0.079875 -0.033081 330640.000000 0 0 1
-21.744338 -6.278805 -30.733102 38.167567 0.281109 2.506834 0.060871 -0.033685 589289.000000 0 0 1
-21.031238 -7.455805 -31.099822 38.276637 0.340688 2.519227 0.073600 -0.032341 135433.000000 0 0 1
-19.615338 -7.154905 -31.674462 37.937128 0.349764 2.558784 0.080525 -0.034333 35261.900000 0 0 1
-19.498338 -6.753905 -33.044532 38.958202 0.333449 2.583383 0.083209 -0.036931 227518.000000 0 0 1
-19.691638 -7.871105 -33.900102 39.986646 0.380263 2.582592 0.087395 -0.031880 -494746.000000 0 0 1
-19.537638 -7.446105 32.604676 38.732786 0.364122 0.570215 0.084451 -0.029374 -109769.000000 0 0 1
-18.195238 -7.178505 32.273527 37.738285 0.375779 0.544873 0.087963 -0.027868 29336.000000 0 0 1
-17.851938 -5.813405 32.293693 37.354652 0.314816 0.526610 0.084018 -0.032598 1074270.000000 0 0 1
-16.466238 -5.390405 31.617784 36.053817 0.316366 0.501295 0.078509 -0.029086 1310610.000000 0 0 1
-16.496738 -5.553705 30.221054 34.875466 0.324737 0.522565 0.070998 -0.032234 -196281.000000 0 0 1
-15.240638 -5.242205 29.688804 33.781398 0.331286 0.497349 0.066026 -0.027935 -172587.000000 0 0 1
-15.251238 -5.239405 28.174344 32.462983 0.330908 0.519855 0.054965 -0.016127 -124234.000000 0 0 1
-16.135138 -4.270405 27.714234 32.352091 0.258733 0.542067 0.049212 -0.022724 -362282.000000 0 0 1
-16.579338 -4.289305 26.362194 31.436251 0.253163 0.576103 0.051346 -0.024151 -59119.100000 0 0 1
-15.604038 -3.842705 25.270784 29.947703 0.241459 0.566414 0.051102 -0.016963 -216036.000000 0 0 1
-15.471038 -2.457505 25.176034 29.651729 0.157529 0.556597 0.041408 -0.009004 35853.400000 0 0 1
-14.394038 -2.021305 24.357624 28.364905 0.139514 0.538022 0.034410 -0.010003 162787.000000 0 0 1
-14.182038 -0.515005 24.340684 28.175598 0.036298 0.527849 0.032555 -0.004754 23879.200000 0 0 1
-15.147938 0.165895 23.566734 28.015683 -0.010951 0.571302 0.037547 -0.007833 21950.800000 0 0 1
-15.118938 1.570695 23.795514 28.236074 -0.103518 0.568453 0.020639 -0.006145 -279659.000000 0 0 1
-15.958638 2.368995 22.791974 27.924261 -0.147370 0.615981 0.017417 -0.009173 -374657.000000 0 0 1
-15.207438 2.894395 21.755474 26.701018 -0.188078 0.618445 0.018832 -0.002300 265567.000000 0 0 1
-15.978838 3.789695 20.940974 26.612205 -0.232867 0.665038 0.031650 -0.008043 324900.000000 0 0 1
-15.062038 4.686995 20.071674 25.528514 -0.301681 0.666087 0.037333 -0.003741 359970.000000 0 0 1
-14.262838 5.613895 20.836874 25.867348 -0.374980 0.634230 0.032137 -0.003350 -292250.000000 0 0 1
-13.089138 5.801495 20.120374 24.694379 -0.417210 0.618454 0.034719 0.001881 -520994.000000 0 1 0
-12.152338 6.879295 20.710374 24.978463 -0.515111 0.593248 0.031945 0.004218 19749.800000 0 1 0
-12.635238 8.170995 20.480974 25.414262 -0.574040 0.633628 0.033127 0.000328 -31269.900000 0 0 1
-11.626938 9.153195 20.540374 25.315482 -0.666912 0.624294 0.040056 -0.005706 -101631.000000 0 0 1
-12.126438 10.604795 20.530774 26.096453 -0.718557 0.665308 0.026581 0.001172 -165673.000000 0 0 1
-12.798238 10.986795 19.363874 25.680035 -0.709386 0.716599 0.036566 -0.000905 327722.000000 0 0 1
-13.541838 12.173395 19.501974 26.681453 -0.732233 0.751129 0.017557 0.001172 -859088.000000 0 0 1
-13.879038 12.841495 18.162974 26.218797 -0.746588 0.805506 0.024933 0.000006 246290.000000 0 0 1
-12.796638 13.485895 17.435474 25.487626 -0.811617 0.817460 0.021377 -0.005764 785164.000000 0 0 1
-12.468438 14.774395 17.896974 26.344760 -0.869841 0.823937 0.036475 -0.015241 -359891.000000 0 0 1
-13.283038 15.984595 17.335474 27.064092 -0.877443 0.875603 0.024136 -0.003857 -172622.000000 0 0 1
-13.207938 16.460095 15.985874 26.475131 -0.894580 0.922528 0.022762 -0.020454 50092.200000 0 0 1
-13.618338 15.487095 15.058274 25.535483 -0.849517 0.940109 0.043503 -0.016856 6954.870000 0 0 1
-14.215838 16.053795 13.699674 25.445932 -0.846043 1.002278 0.042934 -0.024355 307209.000000 0 0 1
-15.414638 16.782695 13.868074 26.675708 -0.827862 1.024090 0.035354 -0.020084 -169855.000000 0 0 1
-15.981938 17.162795 12.681274 26.660806 -0.821010 1.075091 0.033974 -0.015708 -71370.800000 0 0 1
-17.275038 17.983695 12.818774 28.038566 -0.805494 1.095970 0.036569 -0.019188 410678.000000 0 0 1
-18.471438 17.350795 13.305774 28.623203 -0.754125 1.087320 0.045895 -0.018803 456366.000000 0 0 1
-19.416238 18.405595 13.422874 29.932086 -0.758683 1.105772 0.046819 -0.020834 -368469.000000 0 0 1
-20.822438 17.874095 13.726374 30.683392 -0.709354 1.106990 0.068490 -0.018327 -307463.000000 0 0 1
-21.387338 17.254395 12.615774 30.237231 -0.678848 1.140405 0.065666 -0.020698 523485.000000 0 0 1
-22.651138 16.621195 12.913374 30.920760 -0.633046 1.139963 0.087600 -0.028470 930634.000000 0 0 1
-23.283338 15.931595 11.629574 30.515186 -0.600076 1.179802 0.098229 -0.020528 172903.000000 0 0 1
-22.505038 14.890395 11.093074 29.176307 -0.584520 1.180775 0.078079 -0.018972 299630.000000 0 0 1
-23.301438 14.226495 10.111574 29.113470 -0.548135 1.216089 0.094531 -0.017912 359299.000000 0 0 1
-22.693238 12.882895 9.539974 27.784225 -0.516329 1.220305 0.106100 -0.020004 -585537.000000 0 0 1
-22.723038 11.703095 10.407874 27.597513 -0.475601 1.184100 0.103461 -0.023303 507462.000000 0 0 1
-24.035838 11.295795 10.793074 28.667175 -0.439325 1.184785 0.136774 -0.022642 859812.000000 0 0 1
-24.908738 10.668195 9.621074 28.754490 -0.404655 1.229622 0.149036 -0.014654 -225338.000000 0 0 1
-25.224368 11.564695 8.530574 29.030701 -0.429878 1.272548 0.148486 -0.021763 531339.000000 0 0 1
-26.352998 11.030395 7.813874 29.617676 -0.396406 1.303811 0.187597 -0.027999 242918.000000 0 0 1
-26.921378 12.072395 6.780574 30.273412 -0.421549 1.344902 0.153707 -0.007186 89768.400000 0 0 1
-26.104048 12.336495 5.618174 29.413846 -0.441480 1.378611 0.144581 -0.019050 912564.000000 0 0 1
-24.847738 12.988295 5.723074 28.615721 -0.481654 1.369441 0.144539 -0.023393 -185.969000 0 0 1
-24.904238 14.443695 6.287874 29.468267 -0.525561 1.355765 0.137643 -0.023221 -253538.000000 0 0 1
-23.637938 15.105695 6.302774 28.751680 -0.568635 1.349787 0.126166 -0.018434 714619.000000 0 0 1
-23.731938 16.515495 6.633574 29.664301 -0.607981 1.345268 0.115830 -0.021211 -222404.000000 0 0 1
-22.359738 17.207095 6.759474 29.012627 -0.655901 1.335651 0.113328 -0.018928 -22577.300000 0 0 1
-21.765738 17.595995 5.547274 28.533115 -0.679858 1.375135 0.112103 -0.031942 -1100990.000000 0 0 1
-20.406338 17.642295 5.689574 27.568831 -0.712881 1.362925 0.125210 -0.035735 -1605720.000000 0 0 1
-19.777738 18.448195 4.547574 27.425814 -0.750631 1.404213 0.116609 -0.034775 18897.300000 0 0 1
-18.387038 18.659295 4.771774 26.627473 -0.792747 1.390618 0.098045 -0.038013 781875.000000 0 0 1
-17.669038 19.398395 3.775874 26.509430 -0.832019 1.427875 0.088022 -0.049417 181611.000000 0 0 1
-17.707838 20.927295 3.985374 27.702029 -0.868536 1.426430 0.084004 -0.041453 -91773.200000 0 0 1
-16.982438 21.467095 5.110574 27.845239 -0.901511 1.386215 0.066983 -0.037157 145745.000000 0 0 1
-17.307338 22.798595 5.295474 29.109482 -0.921471 1.387862 0.048176 -0.033101 -103994.000000 0 0 1
-16.404138 23.471895 6.373874 29.336869 -0.960820 1.351785 0.028799 -0.013045 -5283.590000 0 0 1
-16.743038 22.917395 7.590774 29.379520 -0.939839 1.309462 0.046677 -0.016636 -218891.000000 0 0 1
-16.031638 23.434495 8.643874 29.680053 -0.970819 1.275279 0.032537 -0.020560 -406216.000000 0 0 1
-16.351538 22.672095 9.955274 29.673291 -0.945971 1.228664 0.021768 -0.012087 -92227.200000 0 0 1
-17.530038 23.282995 10.433574 30.955768 -0.925434 1.227017 0.024846 -0.017063 88959.000000 0 0 1
-18.351838 22.335695 11.133774 30.977963 -0.883001 1.203161 0.027273 -0.019780 531845.000000 0 0 1
-19.606438 22.916695 11.857774 32.406699 -0.863088 1.196191 0.043715 -0.019581 304132.000000 0 0 1
-20.555338 23.539695 11.021974 33.137940 -0.852975 1.231728 0.072136 -0.013619 21379.800000 0 0 1
-20.254838 24.885295 10.663674 33.811985 -0.887620 1.249938 0.031733 -0.006624 -604843.000000 0 0 1
-21.391038 25.666595 9.969374 34.867450 -0.876007 1.280828 0.057116 -0.013413 37511.900000 0 0 1
-22.420238 25.950795 10.898674 35.984607 -0.858258 1.263093 0.082996 -0.027485 533842.000000 0 0 1
-23.253238 27.051095 10.434474 37.166559 -0.860753 1.286222 0.096507 -0.024537 431364.000000 0 0 1
-24.179038 27.662495 11.524074 38.505114 -0.852492 1.266851 0.102445 -0.031120 -76895.000000 0 0 1
-23.497838 28.398495 12.524174 38.929139 -0.879551 1.243254 0.106922 -0.027739 334118.000000 0 0 1
-24.312538 29.392895 13.087974 40.327867 -0.879714 1.240272 0.103260 -0.025715 -187721.000000 0 0 1
9.282862 -32.184376 27.814514 43.539095 -1.289990 0.877807 0.053018 -0.025587 -511181.000000 0 0 1
10.670062 -32.202876 27.561094 43.709145 -1.250842 0.888526 0.057136 -0.022414 246436.000000 0 0 1
10.875362 -32.083676 26.167584 42.806287 -1.243983 0.913091 0.055241 -0.020448 -1132710.000000 0 0 1
12.354062 -32.162376 25.890354 43.097004 -1.204058 0.926362 0.020794 -0.009008 -1260040.000000 0 0 1
12.717662 -33.539076 25.904784 44.245524 -1.208358 0.945327 0.050999 -0.013952 -435398.000000 0 0 1
14.111162 -33.594876 25.941254 44.729065 -1.173135 0.952112 0.062937 -0.006898 -768235.000000 0 0 1
14.758862 33.153695 25.695154 44.466082 1.151971 0.954693 0.097227 -0.009900 -315882.000000 0 0 1
14.711462 32.609695 24.420004 43.314616 1.146997 0.971838 0.072941 -0.011676 259685.000000 0 0 1
15.529862 31.456195 24.236824 42.639096 1.112203 0.966215 0.090761 -0.021329 16751.600000 0 0 1
15.691262 31.107195 22.762674 41.617456 1.103615 0.992079 0.083233 -0.025188 797087.000000 0 0 1
14.634862 30.253695 22.217874 40.287706 1.120243 0.986659 0.083595 -0.024048 654164.000000 0 0 1
14.861962 28.843395 22.388774 39.421778 1.095012 0.966809 0.085932 -0.026581 -132448.000000 0 0 1
14.566462 28.241895 23.789764 39.695584 1.094609 0.928164 0.102695 -0.035295 -274863.000000 0 0 1
15.601962 28.417195 24.717414 40.766516 1.068696 0.919376 0.098741 -0.030743 -58106.000000 0 0 1
15.139262 27.924295 25.941894 41.011528 1.073997 0.885954 0.106891 -0.039749 11714.800000 0 0 1
16.193762 28.104395 27.079564 42.253968 1.048060 0.875157 0.113489 -0.044219 257975.000000 0 0 1
16.546762 29.473595 27.251724 43.418252 1.059235 0.892258 0.132975 -0.040433 -214823.000000 0 0 1
17.519362 29.647895 28.231294 44.530122 1.037084 0.884105 0.122494 -0.039587 -238962.000000 0 0 1
17.562862 31.026795 28.971634 45.939871 1.055711 0.888416 0.116845 -0.049040 -201480.000000 0 0 1
18.039262 32.074995 28.148004 46.330664 1.058476 0.917829 0.103245 -0.032399 225145.000000 0 0 1
17.568262 33.338195 28.648304 47.337136 1.085805 0.920783 0.119477 -0.013638 219862.000000 0 0 1
18.209262 -33.550476 27.874434 47.267280 -1.073542 0.940085 0.092963 -0.017482 -41484.900000 0 0 1
17.581162 -33.401376 26.592284 46.172489 -1.086283 0.957051 0.094076 -0.013638 1913.530000 0 0 1
17.618462 -32.158376 25.907694 44.897439 -1.069593 0.955694 0.078614 -0.009455 -760857.000000 0 0 1
18.979762 -31.515776 25.616814 44.829641 -1.028738 0.962554 0.075973 -0.004890 -364981.000000 0 0 1
19.575162 -30.968476 26.764504 45.371491 -1.007108 0.939865 0.063984 -0.008363 -41769.800000 0 0 1
20.557362 -29.984276 26.517214 44.998051 -0.969797 0.940608 0.055486 -0.006500 91876.600000 0 0 1
21.037862 -29.264376 27.772094 45.500380 -0.947505 0.914268 0.058982 -0.010626 134569.000000 0 0 1
19.964862 -28.507976 28.328784 44.875611 -0.959852 0.887602 0.064770 -0.009462 267320.000000 0 0 1
20.362962 -27.637876 29.298224 45.131900 -0.935812 0.864305 0.074813 -0.008952 189763.000000 0 0 1
19.156362 -26.966876 30.048704 44.688961 -0.953147 0.833355 0.071666 -0.008925 601023.000000 0 0 1
18.370662 -26.172076 29.174214 43.285027 -0.958784 0.831183 0.070298 -0.009790 1099660.000000 0 0 1
17.107962 -25.753576 29.752954 42.908826 -0.984438 0.804600 0.075987 -0.015094 1116130.000000 0 0 1
16.208162 -25.029776 28.682534 41.374896 -0.996142 0.804828 0.056461 -0.014290 -433015.000000 0 0 1
15.751362 -25.811276 27.600384 40.940305 -1.022873 0.830967 0.047330 -0.013176 208596.000000 0 0 1
15.178662 -25.091676 26.487704 39.516863 -1.026761 0.836199 0.036622 -0.019743 662427.000000 0 0 1
13.768062 -24.386976 26.807294 38.767450 -1.056839 0.807247 0.049496 -0.020577 1064120.000000 0 0 1
12.657762 -25.253176 26.890154 39.000285 -1.106162 0.810017 0.044624 -0.018743 203263.000000 0 0 1
12.267662 -25.915676 25.690334 38.498196 -1.128680 0.840202 0.026210 -0.019708 -608263.000000 0 0 1
11.524162 -27.274176 25.891134 39.332402 -1.171020 0.852285 0.025722 -0.023891 -1022320.000000 0 0 1
10.296962 -27.170676 26.470474 39.305968 -1.208547 0.831935 0.043971 -0.035907 -1304410.000000 0 0 1
9.656962 -28.418576 26.591014 40.099307 -1.243227 0.845805 0.043678 -0.028774 -1087520.000000 0 0 1
8.204062 -28.326476 27.061314 40.025125 -1.288885 0.828329 0.037249 -0.032573 -365168.000000 0 0 1
7.205962 -28.149776 26.079384 39.044463 -1.320191 0.839358 0.047543 -0.034506 77209.900000 0 0 1
7.329062 -26.973676 25.320334 37.714900 -1.305490 0.834752 0.083116 -0.041151 -1293320.000000 0 0 1
6.038162 -26.514176 24.599014 36.668412 -1.346882 0.835442 0.075617 -0.045646 -459315.000000 0 0 1
5.797962 -27.142676 23.294364 36.234909 -1.360349 0.872556 0.069342 -0.036004 -89693.900000 0 0 1
5.186062 -28.416576 23.331784 37.131782 -1.390282 0.891365 0.066106 -0.035232 -317354.000000 0 0 1
3.727662 -28.405176 23.853314 37.279084 -1.440310 0.876483 0.100082 -0.039610 -1093770.000000 0 0 1
2.768962 -28.162876 22.854574 36.375078 -1.472792 0.891426 0.099420 -0.032060 -31722.700000 0 0 1
1.457162 -28.034576 23.356384 36.518235 -1.518866 0.876843 0.103241 -0.036305 173397.000000 0 0 1
1.043362 -26.589476 23.785064 35.690589 -1.531577 0.841394 0.103016 -0.033019 -442854.000000 0 0 1
1.839262 -26.191076 24.858194 36.156399 -1.500687 0.812730 0.094094 -0.030726 -36260.500000 0 0 1
1.435662 -24.895676 25.257854 35.493873 -1.513193 0.779007 0.102480 -0.028053 -829525.000000 0 0 1
2.540462 -24.263176 26.055224 35.693562 -1.466472 0.752518 0.104405 -0.026622 -890229.000000 0 0 1
3.623362 -23.886476 25.233944 34.934860 -1.420253 0.763654 0.095510 -0.029473 638425.000000 0 0 1
4.773662 -23.313576 25.865894 35.147620 -1.368829 0.743769 0.084766 -0.031571 829930.000000 0 0 1
4.492562 -21.812176 26.244594 34.419949 -1.367671 0.703656 0.069138 -0.019779 -460297.000000 0 0 1
4.497362 -21.043276 25.065194 33.034977 -1.360244 0.709409 0.065714 -0.024050 468592.000000 0 0 1
3.520362 -20.011076 25.169814 32.347421 -1.396657 0.679147 0.076302 -0.033948 190200.000000 0 0 1
3.335962 -19.312076 23.788194 30.821472 -1.399745 0.689120 0.094100 -0.038374 500329.000000 0 0 1
4.456962 -18.458576 23.510484 30.221291 -1.333874 0.679409 0.100960 -0.032910 470997.000000 0 0 1
4.440162 -17.945976 22.227374 28.910712 -1.328249 0.693789 0.110241 -0.039810 -542479.000000 0 0 1
5.763262 -17.290976 21.859674 28.461174 -1.249066 0.695002 0.082777 -0.028704 179651.000000 0 0 1
6.914362 -18.108576 21.947374 29.281670 -1.206053 0.723450 0.069701 -0.032839 456744.000000 0 0 1
8.153962 -17.460476 21.645274 28.980566 -1.133899 0.727425 0.064547 -0.023683 852083.000000 0 0 1
9.257962 -17.756876 22.691174 30.263937 -1.090197 0.723073 0.071306 -0.012454 241210.000000 0 0 1
9.112062 -16.939676 23.770214 30.577858 -1.077281 0.680327 0.063422 -0.015297 342231.000000 0 0 1
10.345262 -17.058376 24.460164 31.564415 -1.025639 0.684194 0.067330 -0.011361 389129.000000 0 0 1
10.642262 -16.208776 25.714794 32.206099 -0.989813 0.646089 0.085137 -0.024169 -167171.000000 0 0 1
10.920262 -14.848776 25.450084 31.423639 -0.936684 0.626810 0.094405 -0.022834 155303.000000 0 0 1
10.791262 -14.149476 26.699024 32.085774 -0.919241 0.587888 0.085242 -0.017536 -43920.500000 0 0 1
11.125762 -12.652976 26.582354 31.472241 -0.849536 0.564925 0.070515 -0.019036 702904.000000 0 0 1
10.025162 -11.925276 26.007874 30.317085 -0.871747 0.539702 0.069115 -0.013481 571758.000000 0 0 1
10.462562 -10.611476 25.797354 29.792149 -0.792464 0.523827 0.062285 -0.009051 -148388.000000 0 0 1
9.579962 -9.756076 24.855314 28.367999 -0.794506 0.502929 0.047726 -0.008212 -542294.000000 0 0 1
8.345662 -9.600876 25.475104 28.474688 -0.855226 0.463131 0.044855 -0.013789 -775483.000000 0 0 1
7.315762 -9.403776 24.533214 27.273247 -0.909640 0.452095 0.035923 -0.007279 665520.000000 0 0 1
5.854762 -9.599576 25.067854 27.474123 -1.023131 0.421645 0.043874 -0.021224 318681.000000 0 0 1
5.351062 -8.585676 25.932464 27.835955 -1.013453 0.371958 0.043833 -0.018498 187961.000000 0 0 1
3.996062 -8.726576 26.324094 28.019272 -1.141377 0.349630 0.047065 -0.021292 1136010.000000 0 0 1
2.914062 -8.325776 25.232314 26.729759 -1.234117 0.336311 0.046084 -0.022240 190504.000000 0 0 1
2.812762 -6.956276 24.841994 25.950455 -1.186547 0.293333 0.039038 -0.024947 67608.900000 0 0 1
1.882462 -6.792076 23.779714 24.802233 -1.300427 0.288143 0.055876 -0.037340 292276.000000 0 1 0
2.119862 -5.490776 23.050284 23.789873 -1.202350 0.250003 0.038862 -0.036553 -280967.000000 0 1 0
1.960962 -4.307276 23.830584 24.295982 -1.143571 0.196045 0.046564 -0.023145 -128793.000000 0 1 0
2.375162 -3.122976 23.207244 23.536579 -0.920581 0.167483 0.042209 -0.026331 -1246260.000000 0 1 0
1.478462 -2.605776 22.059974 22.262488 -1.054708 0.134985 0.041922 -0.030628 520141.000000 0 1 0
0.273662 -1.916776 22.394974 22.478519 -1.428983 0.086243 0.043720 -0.036032 370894.000000 0 1 0
-0.681638 -2.718776 23.049334 23.219134 1.325145 0.121011 0.051657 -0.034706 -626996.000000 0 1 0
-1.812738 -1.928776 23.799684 23.946423 0.816402 0.110762 0.055154 -0.040807 691441.000000 0 1 0
-1.299738 -1.023776 24.778734 24.833911 0.667183 0.066673 0.056709 -0.041376 387315.000000 0 1 0
-2.299238 -0.043776 25.077054 25.182277 0.019037 0.091448 0.048181 -0.038845 -114397.000000 0 0 1
-1.890238 0.996224 26.146804 26.233964 -0.485042 0.081538 0.077440 -0.035497 -326639.000000 0 0 1
-1.911038 0.597224 27.477544 27.550394 -0.302897 0.072738 0.084411 -0.022063 86510.100000 0 0 1
-1.196138 -0.571776 27.878634 27.910140 0.445908 0.047519 0.077851 -0.029823 -646059.000000 0 0 1
0.282962 -0.352776 28.291904 28.295519 -0.894775 0.015983 0.086163 -0.026830 -51802.200000 0 0 1
1.161662 -0.026776 27.244314 27.269082 -0.023046 0.042624 0.060415 -0.029437 -205780.000000 0 0 1
1.557162 -1.099776 26.436134 26.504782 -0.614921 0.071988 0.045423 -0.025312 -427913.000000 0 0 1
2.894362 -1.750776 26.846134 27.058409 -0.544009 0.125342 0.052704 -0.022877 -341860.000000 0 0 1
2.539762 -2.649776 27.863924 28.104626 -0.806594 0.130971 0.060173 -0.023442 391299.000000 0 0 1
3.640762 -3.368176 28.446734 28.875880 -0.746527 0.172619 0.064808 -0.011162 580963.000000 0 0 1
4.214962 -4.522076 27.501714 28.187930 -0.820534 0.221105 0.065160 -0.018483 -369855.000000 0 0 1
4.990662 -3.901476 26.538994 27.284546 -0.663517 0.234309 0.061317 -0.011718 -439114.000000 0 0 1
5.619962 -4.852576 25.662894 26.715457 -0.712253 0.281640 0.053147 -0.017074 -215833.000000 0 0 1
6.797862 -4.336076 24.784704 26.063270 -0.567793 0.314524 0.047681 -0.014636 -443226.000000 0 0 1
7.987162 -4.264876 25.536184 27.093923 -0.490450 0.340745 0.055051 -0.011621 -316115.000000 0 0 1
8.819062 -5.406776 25.435764 27.458827 -0.549980 0.386262 0.056923 -0.010102 209369.000000 0 0 1
9.626162 -5.608376 24.058154 26.512481 -0.527541 0.433675 0.041976 -0.013053 -490230.000000 0 0 1
8.817362 -5.628776 22.904474 25.180229 -0.568159 0.428425 0.039227 -0.010224 -567206.000000 0 0 1
9.464162 -5.359076 21.672974 24.248874 -0.515233 0.465110 0.043952 -0.003590 -348672.000000 0 1 0
9.281962 -3.972976 21.086274 23.378844 -0.404436 0.446559 0.041127 -0.015645 983825.000000 0 1 0
7.942962 -3.619476 20.694674 22.460205 -0.427570 0.399147 0.032789 -0.022918 516166.000000 0 1 0
8.001662 -2.362776 19.944574 21.619328 -0.287126 0.396199 0.028857 -0.024035 -273988.000000 0 1 0
6.618262 -1.700776 19.888074 21.029254 -0.251539 0.330951 0.026061 -0.019864 -170837.000000 0 1 0
6.191062 -1.222776 21.149274 22.070710 -0.194997 0.289976 0.031172 -0.017298 112667.000000 0 1 0
4.937562 -0.574776 21.062774 21.641404 -0.115887 0.231763 0.007679 -0.008035 103855.000000 0 1 0
4.395362 -0.052776 22.428074 22.854770 -0.012007 0.193537 0.011196 -0.018847 211678.000000 0 1 0
3.127262 0.574224 22.316774 22.542137 0.181596 0.141521 0.009676 -0.018915 221736.000000 0 1 0
2.583362 0.859224 23.628664 23.784991 0.321090 0.114715 0.032939 -0.019183 94441.600000 0 1 0
1.130962 1.362224 23.670704 23.736827 0.877891 0.074659 0.034754 -0.019684 -265276.000000 0 1 0
0.938562 2.613224 23.085884 23.252266 1.225986 0.119700 0.036770 -0.020746 961601.000000 0 1 0
-0.452438 2.984224 23.068534 23.265158 -1.420332 0.130103 0.023370 -0.021941 768982.000000 0 1 0
-0.901938 4.359224 22.674374 23.107219 -1.366772 0.193860 0.036403 -0.020707 -367950.000000 0 1 0
-0.645738 5.457224 23.556454 24.188940 -1.453017 0.229183 0.051490 -0.018120 248011.000000 0 1 0
-1.507138 6.552224 23.233724 24.186960 -1.344710 0.281683 0.045715 -0.018348 88390.000000 0 1 0
-1.329738 7.779224 24.159354 25.415722 -1.401498 0.315739 0.067835 -0.016492 -652818.000000 0 0 1
-0.164338 8.447224 23.862594 25.314146 -1.551344 0.340288 0.057695 -0.012686 -769171.000000 0 0 1
-0.204438 9.804224 24.285074 26.190255 -1.549947 0.383779 0.081323 -0.019043 -151617.000000 0 0 1
0.769062 10.789224 23.529804 25.896921 1.499636 0.430889 0.087670 -0.021462 981503.000000 0 0 1
2.186162 10.730224 23.556774 25.977656 1.369808 0.435145 0.072591 -0.021413 126030.000000 0 0 1
2.746962 10.856224 24.830284 27.238693 1.322967 0.423682 0.108298 -0.025361 -399800.000000 0 0 1
4.100762 11.640224 24.839644 27.736600 1.232081 0.461120 0.098474 -0.026751 823610.000000 0 0 1
5.263362 11.075224 24.228474 27.154788 1.127154 0.468524 0.088199 -0.017708 436868.000000 0 0 1
5.185062 10.685224 22.848174 25.750688 1.119014 0.479374 0.083687 -0.022884 -1016890.000000 0 0 1
6.483562 10.048224 22.305574 25.308932 0.997771 0.492122 0.077321 -0.021256 -99056.400000 0 0 1
7.408062 11.017224 21.913574 25.621541 0.978830 0.544707 0.070098 -0.023483 -358393.000000 0 0 1
8.438462 10.488224 21.112974 25.039333 0.893278 0.567602 0.069816 -0.026646 192202.000000 0 0 1
9.432662 11.579224 20.644274 25.480181 0.887204 0.626288 0.058241 -0.028182 -534099.000000 0 0 1
8.882062 12.334224 19.598374 24.801621 0.946697 0.659652 0.056505 -0.029057 160030.000000 0 1 0
9.596962 13.485224 19.086774 25.263767 0.952284 0.714379 0.068906 -0.030194 847451.000000 0 0 1
10.974362 13.122224 18.398274 25.122219 0.874299 0.749029 0.061638 -0.035825 755425.000000 0 0 1
12.011962 12.773224 19.307674 26.081196 0.816103 0.737293 0.067988 -0.038447 -412812.000000 0 0 1
13.195062 12.691224 18.568574 26.076211 0.765937 0.778328 0.064764 -0.039847 -17369.800000 0 0 1
14.492262 12.534224 19.432274 27.290030 0.713076 0.778361 0.069761 -0.029793 402122.000000 0 0 1
14.894862 13.712224 20.104874 28.532227 0.744081 0.788884 0.070753 -0.033236 492211.000000 0 0 1
16.109162 13.455224 20.825374 29.567624 0.695870 0.789317 0.073458 -0.028448 829980.000000 0 0 1
16.872762 14.767224 21.233474 30.880762 0.718949 0.812624 0.068559 -0.021247 132219.000000 0 0 1
16.460962 15.330224 22.457174 31.785275 0.749845 0.786217 0.077526 -0.019959 -318801.000000 0 0 1
17.409462 16.217224 22.874574 33.005058 0.749958 0.805067 0.066510 -0.013597 -668120.000000 0 0 1
-22.059338 12.378595 -24.374992 35.128112 -0.511363 2.337671 0.059753 -0.003756 54739.900000 0 0 1
-21.772538 12.190395 -25.745772 35.853785 -0.510410 2.371831 0.056511 -0.025180 -223773.000000 0 0 1
-22.395038 13.160695 -26.552322 37.145221 -0.531297 2.367170 0.045567 -0.020286 -133062.000000 0 0 1
-21.972038 13.028395 -28.020882 37.916743 -0.535222 2.402397 0.035995 -0.019646 -464017.000000 0 0 1
-20.712338 13.508995 -28.362842 37.629041 -0.577934 2.424544 0.042642 -0.018189 -602288.000000 0 0 1
-20.705638 13.719995 -29.752292 38.757717 -0.585197 2.445960 0.042095 -0.026133 -196637.000000 0 0 1
-19.321338 14.116595 -30.258442 38.576751 -0.630983 2.472476 0.030203 -0.024949 52096.700000 0 0 1
-18.332338 13.071895 -30.398462 37.828766 -0.619432 2.504083 0.027995 -0.029861 1125920.000000 0 0 1
-16.990838 13.601695 -30.466622 37.442085 -0.675065 2.521285 0.029510 -0.011823 760000.000000 0 0 1
-16.177438 13.527195 -29.185522 36.006794 -0.696414 2.515897 0.067828 -0.015874 -519785.000000 0 0 1
-16.748638 14.019495 -27.967082 35.485501 -0.696929 2.478556 0.068045 -0.014311 -185014.000000 0 0 1
-17.515738 13.080695 -27.245272 34.931512 -0.641448 2.465402 0.081959 -0.014157 -210195.000000 0 0 1
-18.041138 13.645295 -25.912642 34.396828 -0.647549 2.423929 0.073211 -0.017178 369743.000000 0 0 1
-17.043638 14.014395 -24.939892 33.299956 -0.688171 2.417267 0.106404 -0.027064 347581.000000 0 0 1
-17.681538 14.407595 -23.771892 32.944172 -0.683723 2.376880 0.103378 -0.021944 -191301.000000 0 0 1
-16.725138 15.013095 -22.711092 31.951791 -0.731508 2.361420 0.117148 -0.018662 8084.090000 0 0 1
-16.387538 16.346695 -23.009992 32.637794 -0.784150 2.353234 0.085175 -0.018377 -73121.600000 0 0 1
-15.819938 16.986395 -21.888292 31.904630 -0.820939 2.326847 0.088964 -0.014968 -391726.000000 0 0 1
-15.529738 18.470695 -22.235192 32.813764 -0.871681 2.315315 0.078836 -0.008782 141075.000000 0 0 1
-16.620038 19.369695 -22.379092 33.944580 -0.861651 2.290661 0.042922 -0.005689 365544.000000 0 0 1
-17.468938 19.175495 -23.515592 35.012091 -0.831935 2.307219 0.024291 -0.000762 266461.000000 0 0 1
-18.737438 20.067095 -23.476492 36.123754 -0.819650 2.278237 0.014196 -0.007110 151094.000000 0 0 1
-18.517738 21.440195 -23.672892 36.918754 -0.858407 2.266878 0.005593 -0.006875 -50358.200000 0 0 1
-19.737138 22.144195 -23.768392 38.011268 -0.842808 2.246310 0.031001 -0.011402 183687.000000 0 0 1
-19.470338 23.645495 -24.031992 38.932508 -0.881933 2.236068 0.021299 -0.015050 224880.000000 0 0 1
-18.772538 24.225995 -22.928092 38.275376 -0.911554 2.213085 0.025503 -0.006618 -126383.000000 0 0 1
-17.915238 25.270995 -23.287492 38.754177 -0.954106 2.215426 0.017944 -0.003886 -33069.200000 0 0 1
-16.849438 25.622395 -22.157592 37.833445 -0.989093 2.196492 0.027469 -0.013639 852797.000000 0 0 1
-15.737238 24.736095 -21.963392 36.632304 -1.004180 2.213752 0.051340 -0.029121 125758.000000 0 0 1
-16.083738 23.387095 -21.781992 35.778458 -0.968361 2.225346 0.054042 -0.006971 -1087820.000000 0 0 1
-14.877538 22.429195 -21.710892 34.579948 -0.985120 2.249579 0.085926 -0.008576 220471.000000 0 0 1
-14.080138 22.628495 -20.554792 33.657073 -1.014191 2.227756 0.105476 -0.019224 -413172.000000 0 0 1
-13.187738 21.588995 -20.326892 32.452792 -1.022434 2.247662 0.102124 -0.017729 -400267.000000 0 0 1
-12.424638 21.787495 -18.995392 31.462541 -1.052528 2.218989 0.088679 -0.022621 53963.400000 0 0 1
-13.128138 21.631495 -17.756892 30.912406 -1.025319 2.182699 0.115919 -0.025479 516993.000000 0 0 1
-13.999038 22.751095 -17.425292 31.893984 -1.019194 2.148797 0.109372 -0.032822 433970.000000 0 0 1
-14.635438 22.587695 -16.039992 31.331795 -0.995872 2.108238 0.133382 -0.029750 384963.000000 0 0 1
-13.742538 22.892595 -14.989692 30.620567 -1.030153 2.082347 0.130199 -0.037520 363716.000000 0 0 1
-14.591938 23.243195 -13.914492 30.769853 -1.010190 2.040040 0.143954 -0.039538 248267.000000 0 0 1
-13.902638 23.687095 -12.595892 30.216193 -1.040043 2.000783 0.151563 -0.034794 -216912.000000 0 0 1
-13.296238 24.964995 -12.694292 31.003000 -1.081414 1.992651 0.135095 -0.046277 606090.000000 0 0 1
-12.376638 25.068795 -11.585892 30.263155 -1.112196 1.963663 0.104830 -0.036538 210466.000000 0 0 1
-11.683438 26.400695 -11.408392 31.042726 -1.154161 1.947122 0.114300 -0.043242 35895.700000 0 0 1
-10.934538 26.759495 -12.556292 31.516586 -1.182879 1.980571 0.110994 -0.043518 66775.800000 0 0 1
-10.867438 28.136395 -12.739092 32.742059 -1.202207 1.970423 0.084906 -0.027604 -625011.000000 0 0 1
-10.374738 28.493595 -14.120192 33.449963 -1.221609 2.006589 0.118793 -0.042980 177534.000000 0 0 1
-8.978938 28.488295 -14.339292 33.133361 -1.265472 2.018365 0.079017 -0.041733 65229.400000 0 0 1
-8.330538 27.222295 -14.445492 31.923713 -1.273827 2.040364 0.087055 -0.042690 676998.000000 0 0 1
-6.864838 27.336095 -15.005292 31.930345 -1.324757 2.060017 0.080409 -0.046733 1015850.000000 0 0 1
-5.838938 27.914495 -14.214992 31.865000 -1.364597 2.033200 0.059945 -0.038649 -1044960.000000 0 0 1
-4.700638 27.892695 -15.002592 32.018373 -1.403839 2.058459 0.056872 -0.034781 -816405.000000 0 0 1
-3.632638 28.811695 -14.375192 32.403025 -1.445376 2.030450 0.052631 -0.024491 -353732.000000 0 0 1
-3.824438 30.196495 -14.519192 33.723309 -1.444815 2.015886 0.037980 -0.013343 -328927.000000 0 0 1
-4.685538 30.817995 -13.616792 34.016469 -1.419913 1.982641 0.024309 -0.013801 -380467.000000 0 0 1
-4.798238 32.357895 -13.680892 35.457345 -1.423583 1.966915 0.022380 -0.017930 1050320.000000 0 0 1
-3.594838 33.126195 -13.334292 35.889706 -1.462700 1.951458 0.002339 -0.013334 1134500.000000 0 0 1
-3.832338 -33.556176 -13.543792 36.388708 1.457082 1.952172 0.008584 -0.006161 263634.000000 0 0 1
-3.009838 -32.654576 -12.598392 35.129759 1.478884 1.937590 0.016331 -0.009141 65351.400000 0 0 1
-3.353838 -32.642576 -11.235492 34.684612 1.468411 1.900680 0.013205 -0.016890 -319979.000000 0 0 1
-2.610138 -31.714076 -10.549092 33.524301 1.488679 1.890905 0.007859 -0.020644 -422624.000000 0 0 1
-2.832138 -31.907976 -8.993492 33.271953 1.482269 1.844504 0.012739 -0.016694 324516.000000 0 0 1
-2.088438 -30.953376 -8.179092 32.083806 1.503428 1.828571 0.036238 -0.024533 224977.000000 0 0 1
-2.234338 -31.190576 -6.790192 31.999235 1.499283 1.784621 0.022926 -0.022134 210274.000000 0 0 1
-1.029238 -30.547976 -6.029292 31.154302 1.537117 1.765555 0.049215 -0.029908 307937.000000 0 0 1
-0.929038 -30.814476 -4.644692 31.176405 1.540656 1.720334 0.057304 -0.031381 656419.000000 0 0 1
0.195562 -30.152976 -4.011292 30.419248 -1.564311 1.703048 0.062212 -0.030687 664207.000000 0 0 1
0.067962 -30.266976 -2.491992 30.369466 -1.568551 1.652945 0.063255 -0.025900 -351170.000000 0 0 1
0.142062 -31.562776 -1.897692 31.620093 -1.566295 1.630848 0.067431 -0.027079 404250.000000 0 0 1
1.318962 -32.343976 -2.134892 32.441181 -1.530040 1.636652 0.063940 -0.028583 922387.000000 0 0 1
2.655662 -31.840076 -1.481392 31.984958 -1.487583 1.617128 0.073030 -0.022364 -260852.000000 0 0 1
2.920562 -32.031276 -0.095692 32.164289 -1.479869 1.573771 0.058174 -0.026502 757596.000000 0 0 1
4.265762 -31.786176 0.349608 32.073041 -1.437392 1.559896 0.051415 -0.018983 916171.000000 0 0 1
4.705162 -30.281876 0.431508 30.648275 -1.416650 1.556717 0.030865 -0.021444 -643214.000000 0 0 1
4.911862 -29.736476 -0.816592 30.150476 -1.407095 1.597884 0.031060 -0.025077 132630.000000 0 0 1
4.781062 -28.281876 -0.774992 28.693617 -1.403329 1.597809 0.048901 -0.021247 -360339.000000 0 0 1
4.391962 -27.770076 -2.166892 28.198615 -1.413941 1.647716 0.042575 -0.013264 756334.000000 0 0 1
2.972562 -27.868876 -2.403892 28.129861 -1.464536 1.656358 0.060503 -0.020773 916630.000000 0 0 1
2.423062 -27.006476 -3.357992 27.322099 -1.481314 1.694012 0.062603 -0.021456 -22514.000000 0 0 1
2.942062 -27.080676 -4.789792 27.657926 -1.462580 1.744854 0.052653 -0.021251 -268193.000000 0 0 1
2.429962 -28.228676 -5.456192 28.853646 -1.484927 1.761041 0.052178 -0.026319 61842.400000 0 0 1
2.878762 -28.211576 -6.775392 29.156238 -1.469106 1.805323 0.068663 -0.038534 97179.700000 0 0 1
1.982562 -29.099476 -7.702992 30.166971 -1.502771 1.829001 0.060364 -0.037975 -293864.000000 0 0 1
0.739862 -28.547176 -8.030792 29.664495 -1.544885 1.844938 0.061249 -0.032102 -746210.000000 0 0 1
0.373362 -28.794876 -9.328192 30.270439 -1.557831 1.884056 0.062446 -0.022054 1525580.000000 0 0 1
-1.078038 -28.172876 -9.613392 29.787421 1.532550 1.899412 0.038513 -0.022606 420480.000000 0 0 1
-1.076738 -26.751876 -9.447892 28.391634 1.530569 1.910036 0.050500 -0.025779 116880.000000 0 0 1
-2.360738 -26.131576 -9.554392 27.923445 1.480700 1.920015 0.060589 -0.029005 1188170.000000 0 0 1
-3.423638 -26.620676 -8.519792 28.159697 1.442890 1.878166 0.060650 -0.029136 -543527.000000 0 0 1
-3.016038 -26.225576 -7.210792 27.365541 1.456296 1.837444 0.075111 -0.033876 -22356.600000 0 0 1
-2.183538 -27.198576 -6.582692 28.068883 1.490687 1.807520 0.072837 -0.029064 219742.000000 0 0 1
-1.701938 -26.759676 -5.201992 27.313689 1.507281 1.762421 0.085222 -0.024887 520273.000000 0 0 1
-2.746438 -26.938576 -4.228792 27.406431 1.469196 1.725715 0.093457 -0.029844 532071.000000 0 0 1
-2.303338 -26.817476 -2.884592 27.070339 1.485117 1.677558 0.089743 -0.021549 10428.300000 0 0 1
-3.485138 -26.939376 -1.895692 27.229943 1.442141 1.640471 0.091478 -0.020834 -61380.100000 0 0 1
-4.431238 -25.904176 -2.044892 26.359890 1.401374 1.648450 0.084467 -0.021301 -304271.000000 0 0 1
-5.275838 -25.999776 -0.902092 26.544992 1.370596 1.604786 0.097810 -0.022046 -610553.000000 0 0 1
-6.374138 -24.983276 -0.792592 25.795773 1.320989 1.601527 0.082746 -0.023224 -669099.000000 0 0 1
-5.897938 -23.685076 -0.684192 24.417957 1.326745 1.598820 0.067446 -0.020747 -148891.000000 0 1 0
-6.652338 -22.969576 0.287908 23.915223 1.288894 1.558757 0.077599 -0.023961 123395.000000 0 1 0
-5.979538 -21.658976 0.733008 22.481179 1.301429 1.538185 0.055303 -0.019595 -97225.200000 0 1 0
-5.028538 -21.782576 1.745008 22.423467 1.343919 1.492897 0.054177 -0.014526 -649787.000000 0 1 0
-4.217038 -20.659876 1.762408 21.159394 1.369445 1.487408 0.033119 -0.011682 -226631.000000 0 1 0
-3.208538 -20.460376 2.907208 20.913478 1.415246 1.431333 0.037811 -0.006704 -61139.100000 0 1 0
-3.783838 -20.436176 4.190508 21.201771 1.387716 1.371837 0.029130 0.004548 -33803.000000 0 1 0
-2.792438 -20.148576 5.179808 20.990313 1.433081 1.321449 0.033653 -0.003924 959395.000000 0 1 0
-1.824338 -21.326576 5.613808 22.128396 1.485461 1.314301 0.036289 -0.016997 508979.000000 0 1 0
-0.935138 -21.637676 4.580208 22.136888 1.527605 1.362387 0.054224 -0.019008 -293500.000000 0 1 0
-0.115438 -22.775376 4.799708 23.275916 1.565728 1.363097 0.057262 -0.024160 -1251370.000000 0 1 0
0.591862 -23.183276 3.481508 23.450703 -1.545272 1.421785 0.057660 -0.028190 36740.600000 0 1 0
1.798662 -22.490476 3.258808 22.796415 -1.490992 1.427352 0.025198 -0.021008 778175.000000 0 1 0
2.874262 -22.768276 4.193508 23.328980 -1.445221 1.390059 0.047154 -0.025944 -937648.000000 0 1 0
4.009262 -21.789576 4.226508 22.554893 -1.388833 1.382294 0.053791 -0.022725 -563295.000000 0 1 0
4.836162 -21.782076 3.059408 22.521263 -1.352315 1.434530 0.035873 -0.013830 -949901.000000 0 1 0
5.941362 -21.050476 3.474708 22.147143 -1.295708 1.413254 0.052096 -0.013180 -619945.000000 0 1 0
6.620962 -20.594576 2.176608 21.741926 -1.259742 1.470517 0.054561 -0.011240 -172353.000000 0 1 0
7.448162 -21.541376 1.571708 22.846800 -1.237903 1.501949 0.058067 -0.009583 -62344.800000 0 1 0
6.949462 -21.657476 0.235708 22.746359 -1.260295 1.560434 0.048565 -0.013871 -55422.800000 0 1 0
7.907162 -22.363176 -0.676692 23.729576 -1.230936 1.599317 0.051580 -0.009823 705801.000000 0 1 0
9.137062 -21.669476 -1.007792 23.538644 -1.171762 1.613624 0.053524 -0.009285 572421.000000 0 1 0
10.127062 -22.578176 -1.480292 24.789568 -1.149163 1.630546 0.056769 -0.012096 364510.000000 0 1 0
11.480362 -21.872376 -1.703092 24.760858 -1.087444 1.639632 0.063889 -0.013900 137884.000000 0 1 0
11.339162 -20.860876 -2.693992 23.895823 -1.072910 1.683776 0.061876 -0.009182 -501905.000000 0 1 0
12.458262 -20.871276 -3.530392 24.561802 -1.032652 1.715031 0.064876 -0.004458 -200375.000000 0 1 0
12.726462 -19.622376 -4.344192 23.788075 -0.995428 1.754448 0.068056 -0.019471 26596.100000 0 1 0
13.357662 -18.578476 -3.619892 23.166582 -0.947441 1.727694 0.092250 -0.017552 113732.000000 0 1 0
13.278262 -17.391276 -4.394192 22.317653 -0.918710 1.768984 0.097369 -0.022680 -1427770.000000 0 1 0
13.715762 -16.096176 -3.689892 21.466819 -0.865077 1.743542 0.112087 -0.022291 430833.000000 0 1 0
15.083362 -15.987576 -3.352692 22.234004 -0.814492 1.722165 0.092347 -0.019450 341022.000000 0 1 0
16.009862 -16.163976 -4.437592 23.179345 -0.790188 1.763431 0.093794 -0.015841 -179878.000000 0 1 0
17.481262 -15.810376 -4.007492 23.908628 -0.735251 1.739208 0.093476 -0.012676 852880.000000 0 1 0
18.146862 -16.752076 -3.164792 24.898927 -0.745453 1.698247 0.098750 -0.022605 770195.000000 0 1 0
19.520262 -16.382776 -3.046292 25.665461 -0.698232 1.689769 0.075399 -0.010806 411153.000000 0 0 1
20.328462 -17.238176 -2.062592 26.733039 -0.703322 1.648028 0.076242 -0.023844 -954911.000000 0 0 1
21.694562 -17.145876 -2.207592 27.740017 -0.668817 1.650462 0.065621 -0.018627 -639918.000000 0 0 1
22.374962 -17.937676 -1.184592 28.701958 -0.675768 1.612080 0.062554 -0.020757 42487.500000 0 0 1
23.900762 -17.914476 -1.271592 29.896352 -0.643204 1.613343 0.064147 -0.027347 -379037.000000 0 0 1
24.462462 -16.697576 -0.850692 29.630133 -0.598938 1.599511 0.075027 -0.025167 730359.000000 0 0 1
25.858662 -16.826876 -0.533592 30.856100 -0.576885 1.588090 0.090976 -0.028625 818739.000000 0 0 1
26.554362 -15.500776 -0.109492 30.747686 -0.528376 1.574357 0.089084 -0.030745 17444.800000 0 0 1
25.872562 -14.921376 0.962708 29.882499 -0.523130 1.538574 0.099727 -0.036546 23177.700000 0 0 1
26.511462 -13.777376 1.494208 29.914986 -0.479264 1.520827 0.085698 -0.037701 107779.000000 0 0 1
25.703362 -13.131276 2.653708 28.985089 -0.472312 1.479114 0.117200 -0.046197 27198.600000 0 0 1
25.518462 -13.840076 3.877208 29.287751 -0.496955 1.438023 0.144806 -0.041159 755019.000000 0 0 1
26.719762 -14.170376 4.593908 30.591653 -0.487619 1.420057 0.139839 -0.034047 856549.000000 0 0 1
26.238562 -14.680276 5.966608 30.652456 -0.510102 1.374892 0.139416 -0.028041 327533.000000 0 0 1
25.550462 -15.907076 5.926908 30.675551 -0.556854 1.376361 0.127577 -0.033932 -191153.000000 0 0 1
24.778062 -16.067676 7.105208 30.374439 -0.575295 1.334688 0.102987 -0.025705 655064.000000 0 0 1
24.027862 -17.477476 7.053808 30.537789 -0.628869 1.337705 0.091749 -0.021998 190402.000000 0 0 1
24.965462 -18.488176 7.193708 31.887872 -0.637426 1.343244 0.077839 -0.014762 -374157.000000 0 0 1
24.357662 -19.748976 6.914208 32.111120 -0.681286 1.353776 0.060935 -0.001571 138147.000000 0 0 1
2.319762 23.032795 -3.045492 23.348790 1.470419 1.701604 0.042866 -0.028549 -8385.160000 0 1 0
2.921662 24.221795 -2.623092 24.537973 1.450755 1.677900 0.057458 -0.027351 -251599.000000 0 1 0
3.778362 24.719395 -3.634492 25.269232 1.419120 1.715128 0.073269 -0.026323 -461411.000000 0 0 1
4.593162 25.855595 -3.069292 26.439166 1.394984 1.687148 0.062153 -0.022498 -451802.000000 0 0 1
5.628462 25.275595 -2.305392 25.997118 1.351688 1.659592 0.053751 -0.022992 -218774.000000 0 0 1
6.329062 26.199695 -1.464192 26.993053 1.333767 1.625066 0.048789 -0.023528 336575.000000 0 0 1
7.508962 25.575395 -0.654892 26.662975 1.285220 1.595361 0.027720 -0.031724 -47468.200000 0 0 1
8.624862 25.429695 -1.468392 26.892635 1.243807 1.625426 0.035286 -0.040093 -892716.000000 0 0 1
9.623162 24.583995 -0.945992 26.417286 1.197691 1.606614 0.023840 -0.034380 33353.300000 0 0 1
10.653662 24.250495 -2.031692 26.565294 1.156862 1.647350 0.046772 -0.039056 -243008.000000 0 0 1
11.699362 25.209895 -2.145092 27.874995 1.136297 1.647826 0.050312 -0.034815 202598.000000 0 0 1
12.650062 25.042895 -3.181992 28.236426 1.103049 1.683727 0.059886 -0.035313 1084260.000000 0 0 1
13.801362 23.991295 -2.894892 27.828767 1.048763 1.675010 0.068887 -0.037023 23643.800000 0 0 1
13.470962 22.661395 -3.170892 26.552970 1.034471 1.690500 0.080812 -0.036258 -1904.860000 0 0 1
13.174162 22.418195 -4.535192 26.395113 1.039504 1.743473 0.083457 -0.039560 -535914.000000 0 0 1
12.297762 21.232495 -4.815592 25.004874 1.045815 1.764593 0.083603 -0.039303 -44996.000000 0 0 1
10.923562 21.423195 -4.540092 24.472228 1.099265 1.757398 0.085268 -0.034885 25605.800000 0 1 0
10.082162 20.332595 -4.872992 23.212292 1.110465 1.782301 0.062578 -0.022114 610851.000000 0 1 0
8.573662 20.680195 -4.771992 22.889956 1.177782 1.780812 0.050362 -0.018048 415197.000000 0 1 0
7.995162 20.891195 -3.499792 22.640963 1.205288 1.725997 0.051729 -0.028868 -194191.000000 0 1 0
6.685862 21.407095 -3.566292 22.708653 1.268076 1.728495 0.049000 -0.016873 184562.000000 0 1 0
6.249262 22.169395 -2.299592 23.147862 1.296039 1.670304 0.051802 -0.018168 138030.000000 0 1 0
5.772162 21.320795 -1.209892 22.121438 1.306405 1.625517 0.039164 -0.021827 116021.000000 0 1 0
4.971562 22.093295 -0.341092 22.648322 1.349457 1.585857 0.041787 -0.013547 -120945.000000 0 1 0
4.382562 21.185295 0.712208 21.645573 1.366806 1.537887 0.021308 -0.014339 200209.000000 0 1 0
3.451662 21.858195 1.595808 22.186511 1.414178 1.498807 0.021935 -0.013117 710527.000000 0 1 0
3.233862 21.036295 2.755608 21.461057 1.418263 1.442040 0.025530 -0.013180 -570342.000000 0 1 0
2.282462 21.599695 3.774008 22.045399 1.465516 1.398756 0.019958 -0.011607 -142040.000000 0 1 0
0.935762 21.526495 3.325308 21.801911 1.527353 1.417675 0.020020 -0.018384 -249317.000000 0 1 0
0.060062 22.063995 4.272608 22.473956 1.568074 1.379518 0.025950 -0.024874 925921.000000 0 1 0
-1.432738 22.191695 3.775208 22.556070 -1.506324 1.402635 0.032626 -0.024322 1404460.000000 0 1 0
-2.326938 22.696795 4.813908 23.318080 -1.468631 1.362856 0.045804 -0.025371 728773.000000 0 1 0
-3.643538 22.588895 4.264408 23.274852 -1.410876 1.386536 0.055782 -0.031183 383490.000000 0 1 0
-4.832038 22.898595 5.181308 23.969568 -1.362828 1.352915 0.062425 -0.037100 -144889.000000 0 1 0
-5.198638 24.201595 5.475808 25.352071 -1.359206 1.353090 0.075952 -0.032318 497233.000000 0 0 1
-6.408838 24.274695 6.248508 25.872338 -1.312673 1.326872 0.075276 -0.033127 731383.000000 0 0 1
-6.794638 25.769495 6.535408 27.439853 -1.312994 1.330313 0.079158 -0.035959 -267324.000000 0 0 1
-6.034138 26.420795 7.552408 28.133754 -1.346261 1.299016 0.058202 -0.040325 -246743.000000 0 0 1
-6.500738 27.537295 8.246308 29.471407 -1.338970 1.287203 0.087633 -0.036580 -358808.000000 0 0 1
-6.655938 28.863595 7.400408 30.531536 -1.344158 1.325972 0.098552 -0.038300 75446.200000 0 0 1
-7.760938 28.703995 6.553308 30.448273 -1.306732 1.353871 0.089714 -0.045904 -849791.000000 0 0 1
-7.862738 29.801695 5.681308 31.340724 -1.312839 1.388513 0.114624 -0.047738 -1055570.000000 0 0 1
-9.280038 29.948795 5.082708 31.762924 -1.270315 1.410085 0.119704 -0.045439 405989.000000 0 0 1
-10.127638 30.563595 6.090608 32.768856 -1.250820 1.383843 0.102203 -0.036635 -225521.000000 0 0 1
-10.716438 29.539495 6.804108 32.151512 -1.222779 1.357558 0.072744 -0.026286 -1643250.000000 0 0 1
-11.605238 30.077595 7.940408 33.202310 -1.202553 1.329304 0.049678 -0.025774 -4053.510000 0 0 1
-10.924738 30.656895 9.043608 33.778425 -1.228471 1.299757 0.057312 -0.022526 -42877.300000 0 0 1
-11.878338 31.002995 10.023408 34.680677 -1.204913 1.277593 0.050437 -0.009708 59935.500000 0 0 1
-11.275638 31.385895 11.398708 35.244077 -1.225898 1.241453 0.055897 -0.012515 62202.700000 0 0 1
-10.566338 32.622895 11.353608 36.122088 -1.257566 1.251064 0.059871 -0.008847 403420.000000 0 0 1
-9.781738 32.856495 12.521508 36.496847 -1.281441 1.220597 0.066118 -0.011018 264033.000000 0 0 1
-9.289938 -33.776276 12.624508 37.235977 1.302390 1.224899 0.069178 -0.013129 -261218.000000 0 0 1
-10.272638 -32.947076 13.213708 36.954553 1.268557 1.205136 0.073048 -0.001863 18888.000000 0 0 1
-9.936538 -31.556476 13.268008 35.645280 1.265744 1.189393 0.073710 0.008174 -449935.000000 0 0 1
-10.996238 -30.797576 14.009608 35.576355 1.227856 1.166045 0.078107 -0.008755 -612565.000000 0 0 1
-11.033438 -30.931476 15.427508 36.283618 1.228160 1.131622 0.072875 -0.010217 72769.600000 0 0 1
-10.045638 -30.193776 16.126308 35.674035 1.249611 1.101738 0.077523 -0.014984 84314.900000 0 0 1
-10.111838 -30.334776 17.727008 36.560836 1.249038 1.064589 0.075881 -0.023085 376797.000000 0 0 1
-11.214038 -29.591176 18.258708 36.534542 1.208554 1.047468 0.094098 -0.025897 787132.000000 0 0 1
-11.948538 -30.376576 19.204108 37.872176 1.196038 1.039006 0.085545 -0.029296 -17933.100000 0 0 1
-12.179138 -29.526176 20.526808 37.966779 1.179573 0.999585 0.096790 -0.035537 617624.000000 0 0 1
-11.042838 -29.554476 21.420208 38.134455 1.213215 0.974354 0.089890 -0.031385 817532.000000 0 0 1
-11.219938 -28.698376 22.550408 38.183828 1.198107 0.939025 0.082311 -0.027299 204546.000000 0 0 1
-9.957638 -28.575176 23.455808 38.286684 1.235484 0.911405 0.086261 -0.030293 308259.000000 0 0 1
-9.644238 -29.821276 24.077908 39.522974 1.258011 0.915729 0.091342 -0.027362 -114368.000000 0 0 1
-8.483138 -29.732976 24.857208 39.672336 1.292870 0.893661 0.101200 -0.024551 -314826.000000 0 0 1
-8.441838 -30.902976 25.872008 41.177899 1.304130 0.891432 0.107151 -0.026105 -176527.000000 0 0 1
-8.287738 -32.237276 25.401308 41.870694 1.319160 0.918943 0.116602 -0.033797 233615.000000 0 0 1
-7.815938 -33.082376 26.421008 43.053480 1.338794 0.910085 0.121052 -0.029983 -390595.000000 0 0 1
-7.427238 33.609395 25.919408 43.087945 -1.353305 0.925361 0.104094 -0.033100 -315424.000000 0 0 1
-6.246838 33.590895 25.153908 42.427471 -1.386929 0.936180 0.113096 -0.026986 -92027.800000 0 0 1
-5.874338 32.438695 24.378208 41.000900 -1.391647 0.934056 0.101652 -0.015476 -350305.000000 0 0 1
-6.825838 31.950695 23.291008 40.123684 -1.360324 0.951478 0.094190 -0.014320 -173702.000000 0 0 1
-7.894038 31.180895 23.800608 40.012910 -1.322837 0.933751 0.093842 -0.022745 243411.000000 0 0 1
-8.996138 31.164895 22.902408 39.707701 -1.289773 0.956021 0.077260 -0.015663 196648.000000 0 0 1
-9.979038 30.013495 23.155908 39.199326 -1.249809 0.938843 0.072583 -0.031553 -80823.600000 0 0 1
-9.464738 28.778895 22.678308 37.843252 -1.253061 0.928208 0.066441 -0.022327 127921.000000 0 0 1
-10.197138 27.643395 23.117508 37.450742 -1.217401 0.905519 0.057361 -0.020334 -282098.000000 0 0 1
-9.598938 26.279795 22.757208 36.064633 -1.220593 0.887940 0.042959 -0.021811 1074250.000000 0 0 1
-8.407038 26.060795 23.596408 36.147390 -1.258743 0.859544 0.030043 -0.019173 1320920.000000 0 0 1
-7.795938 24.831995 23.317308 34.944262 -1.266593 0.840257 0.027463 -0.017567 146510.000000 0 0 1
-6.323338 24.598995 23.726308 34.756767 -1.319187 0.819429 0.020872 -0.013410 10403.800000 0 0 1
-5.369138 25.166195 22.873208 34.428893 -1.360600 0.844158 0.024729 -0.010748 -1002590.000000 0 0 1
-4.092038 24.890695 23.343508 34.368748 -1.407854 0.824114 0.038977 -0.008812 -403358.000000 0 0 1
-3.031838 25.459995 22.345908 34.010925 -1.452272 0.853935 0.035509 -0.007992 -171565.000000 0 0 1
-2.908838 24.733795 21.154008 32.675893 -1.453728 0.866643 0.042868 -0.001667 41202.200000 0 0 1
-1.812138 25.276195 20.457908 32.568326 -1.499225 0.891619 0.046244 0.004275 -87860.700000 0 0 1
-1.173038 24.352095 19.435708 31.179277 -1.522664 0.897772 0.040890 0.003180 -225199.000000 0 0 1
-0.144338 23.529995 19.954308 30.852162 -1.564662 0.867452 0.040242 0.007275 -20028.100000 0 0 1
0.113962 22.442595 19.064408 29.447151 1.565718 0.866614 0.044404 0.008566 -272604.000000 0 0 1
1.301662 21.573595 19.493108 29.104907 1.510533 0.836920 0.043699 0.008598 -682356.000000 0 0 1
2.525662 22.153295 19.207108 29.428905 1.457278 0.859705 0.047211 0.002245 -62208.300000 0 0 1
3.671362 21.379595 19.612408 29.244017 1.400732 0.835716 0.047107 0.002011 841868.000000 0 0 1
5.027262 21.924495 19.132608 29.529875 1.345394 0.865963 0.056390 -0.000322 598429.000000 0 0 1
6.120062 21.009795 19.349108 29.210523 1.287344 0.846776 0.071604 -0.010083 -246202.000000 0 0 1
7.299962 21.469095 18.790708 29.449995 1.243038 0.878827 0.081516 -0.012964 -1089130.000000 0 0 1
8.182262 20.282395 18.434608 28.603492 1.187348 0.870443 0.080112 -0.008400 -681049.000000 0 0 1
8.697762 19.658895 19.569508 29.070412 1.154252 0.832301 0.091744 -0.013590 -140957.000000 0 0 1
9.682262 18.741395 19.164208 28.500052 1.093938 0.833313 0.086980 -0.020490 -57182.600000 0 0 1
10.298862 17.956295 20.346408 29.025358 1.050051 0.794015 0.092439 -0.019372 205039.000000 0 0 1
9.532362 16.788195 20.704208 28.308544 1.054389 0.750458 0.095486 -0.017900 455025.000000 0 0 1
10.049762 16.163595 21.895308 29.011447 1.014535 0.715580 0.099474 -0.021568 -452302.000000 0 0 1
9.109462 15.179995 22.532808 28.655575 1.030306 0.665946 0.084906 -0.015965 -46854.800000 0 0 1
7.989662 15.834595 23.153508 29.165974 1.103499 0.653677 0.091283 -0.009564 928933.000000 0 0 1
6.933062 14.984495 23.650508 28.843526 1.137446 0.609457 0.096642 -0.013670 564612.000000 0 0 1
7.206762 13.828295 24.695208 29.206377 1.090364 0.563218 0.113293 -0.013153 -601652.000000 0 0 1
7.648162 14.383095 25.941208 30.631913 1.082075 0.560727 0.127536 -0.024979 156555.000000 0 0 1
7.974062 13.288295 26.782308 30.942794 1.030317 0.524563 0.143438 -0.028192 -875732.000000 0 0 1
9.034762 13.557795 27.835708 32.253176 0.982986 0.529544 0.114914 -0.018021 1344090.000000 0 0 1
10.406762 13.736595 27.349208 32.326056 0.922453 0.562279 0.124512 -0.013571 1714360.000000 0 0 1
10.722362 14.939795 26.657108 32.384687 0.948287 0.603879 0.105784 -0.008900 -403070.000000 0 0 1
12.128562 14.914395 26.018408 32.349633 0.888051 0.636321 0.118106 -0.016519 122564.000000 0 0 1
12.077362 14.120595 24.822108 31.006305 0.863233 0.642583 0.120699 -0.028001 133414.000000 0 0 1
13.329962 13.816495 24.249808 30.929543 0.803319 0.669658 0.119316 -0.029283 -310591.000000 0 0 1
13.160562 12.717495 23.191508 29.542869 0.768279 0.668081 0.093233 -0.025707 154282.000000 0 0 1
12.793962 11.382695 23.669108 29.214344 0.727091 0.626324 0.094861 -0.019241 443754.000000 0 0 1
11.413662 11.204595 23.940808 28.791959 0.776155 0.588976 0.120175 -0.019875 -57388.700000 0 0 1
11.039862 9.855595 24.568908 28.681746 0.728783 0.542144 0.099662 -0.016858 -83547.200000 0 0 1
11.098662 8.764895 23.634808 27.542836 0.668444 0.539217 0.099554 -0.011629 270808.000000 0 0 1
10.803162 7.552995 24.325208 27.667161 0.610153 0.496598 0.100071 -0.014302 39915.800000 0 0 1
10.818762 6.319095 23.388508 26.532977 0.528636 0.491792 0.093330 -0.023717 -137015.000000 0 0 1
12.114762 6.138695 22.870308 26.598910 0.469003 0.535877 0.098668 -0.024012 111469.000000 0 0 1
12.206862 5.046995 21.998208 25.659322 0.392052 0.540759 0.104661 -0.028473 -6222.290000 0 0 1
11.885162 3.606295 22.578708 25.769371 0.294599 0.502910 0.099728 -0.027541 -550540.000000 0 0 1
12.837462 3.253695 23.537308 27.007255 0.248226 0.512507 0.100060 -0.019281 -66906.700000 0 0 1
12.552262 1.967095 24.081808 27.227968 0.155448 0.485480 0.081939 -0.017391 -702875.000000 0 0 1
13.678362 1.379695 24.926308 28.466155 0.100527 0.504022 0.050159 -0.004931 514086.000000 0 0 1
14.793362 0.824395 24.202008 28.377110 0.055670 0.549337 0.072580 -0.012913 783030.000000 0 0 1
16.066562 1.376495 24.498108 29.328935 0.085466 0.582140 0.064343 -0.009293 145758.000000 0 0 1
17.152162 0.599795 23.723208 29.280489 0.034955 0.626294 0.062406 -0.013921 -382338.000000 0 0 1
17.318562 -0.690705 24.196008 29.763341 -0.039861 0.621602 0.054430 -0.013997 -257444.000000 0 0 1
18.103862 -1.374505 23.282608 29.524886 -0.075778 0.662307 0.063153 -0.003809 -275254.000000 0 0 1
18.328762 -2.866605 23.625008 30.038341 -0.155142 0.665683 0.053812 -0.003498 -124509.000000 0 0 1
17.213762 -3.644005 23.295008 29.193317 -0.208612 0.646899 0.045201 0.001852 57309.000000 0 0 1
17.495362 -4.967905 23.621408 29.811720 -0.276673 0.656140 0.066527 -0.000682 803675.000000 0 0 1
16.467862 -5.909105 22.853908 28.782097 -0.344516 0.653383 0.064392 0.000552 655203.000000 0 0 1
16.744262 -6.045905 21.425808 27.856570 -0.346505 0.693290 0.051888 -0.001177 -189959.000000 0 0 1
16.090262 -7.127905 20.863108 27.294190 -0.417013 0.700719 0.060541 -0.008287 -358948.000000 0 0 1
16.482662 -8.659905 21.169008 28.192180 -0.483756 0.721399 0.070983 -0.010006 -132832.000000 0 0 1
16.164162 -9.086005 22.457408 29.123372 -0.512092 0.690209 0.059364 -0.002515 75765.000000 0 0 1
16.941162 -10.261405 22.684708 30.114703 -0.544606 0.717766 0.068774 -0.006978 -102226.000000 0 0 1
16.499862 -11.191905 23.794408 31.043164 -0.596015 0.697432 0.090694 -0.020474 -587034.000000 0 0 1
15.438162 -12.010005 23.439008 30.528088 -0.661146 0.695419 0.095146 -0.016914 -586820.000000 0 0 1
15.091662 -12.932005 24.409208 31.477046 -0.708485 0.683352 0.111989 -0.011548 779555.000000 0 0 1
13.917962 -13.831005 23.848508 30.882967 -0.782264 0.688465 0.104185 -0.020298 737994.000000 0 0 1
14.455362 -14.570505 22.791708 30.671143 -0.789365 0.733106 0.119724 -0.021587 136245.000000 0 0 1
13.524362 -15.531105 22.393508 30.423556 -0.854355 0.743568 0.117829 -0.015075 -249152.000000 0 0 1
13.886062 -16.360005 21.132708 30.117500 -0.867010 0.793050 0.131680 -0.023111 -320572.000000 0 0 1
15.120362 -17.014205 21.262008 31.147736 -0.844265 0.819457 0.126322 -0.021549 -175693.000000 0 0 1
15.385162 -17.689405 20.100308 30.881072 -0.854954 0.862035 0.116006 -0.012363 -157286.000000 0 0 1
-24.897238 -32.087276 26.192174 48.326967 0.910910 0.998007 0.073492 -0.024391 -434831.000000 0 0 1
-25.095148 -33.473276 25.908534 49.208524 0.927483 1.016312 0.065440 -0.017663 638608.000000 0 0 1
-26.431248 -33.919176 26.155184 50.331054 0.908841 1.024340 0.048916 -0.025625 587146.000000 0 0 1
-26.767698 33.903895 27.700074 51.315474 -0.902480 1.000597 0.047179 -0.025048 -347601.000000 0 0 1
-27.386138 -33.137876 28.422474 51.535972 0.880146 0.986626 0.056323 -0.023121 246382.000000 0 0 1
-27.288028 -33.453476 29.787784 52.450773 0.886555 0.966821 0.032534 -0.022307 -378731.000000 0 0 1
-28.322818 -32.718976 30.644434 53.026359 0.857293 0.954632 0.019446 -0.021539 -494870.000000 0 0 1
-28.405618 -31.329276 30.529244 52.157813 0.834303 0.945516 0.019965 -0.013363 652753.000000 0 0 1
-29.479578 -30.852776 31.356864 52.954624 0.808155 0.937077 0.013024 0.002895 476834.000000 0 0 1
-30.022488 -29.415676 31.108324 52.291105 0.775189 0.933647 0.020697 -0.008025 134220.000000 0 0 1
-30.637038 -29.066676 29.875544 51.730532 0.759102 0.955106 0.005978 0.009944 271889.000000 0 0 1
-30.782868 -27.677576 29.753884 50.979670 0.732330 0.947589 0.015874 0.007021 -161820.000000 0 0 1
-31.288718 -27.336076 28.322514 50.283295 0.718077 0.972472 0.007841 0.000758 -56006.300000 0 0 1
-30.350158 -27.300176 27.258374 49.086156 0.732543 0.982052 0.021496 0.005166 -211892.000000 0 0 1
-29.690348 -26.094476 27.221234 47.994104 0.721028 0.967720 0.028326 0.002726 3453.170000 0 0 1
-28.655148 -25.933276 26.055034 46.610268 0.735578 0.977620 0.026945 0.008805 615599.000000 0 0 1
-29.288898 -25.910976 24.752294 46.280604 0.724280 1.006489 0.015085 0.006061 -6529.220000 0 0 1
-28.298948 -25.982476 23.786464 45.185345 0.742749 1.016412 0.032712 0.009320 -288763.000000 0 0 1
-28.798348 -26.305376 22.336874 44.947231 0.740188 1.050707 0.022669 0.009685 -5217.570000 0 0 1
-29.572958 -25.293276 21.734474 44.572380 0.707554 1.061432 0.018723 -0.000364 171101.000000 0 0 1
-29.778678 -25.479176 20.392274 44.179214 0.707747 1.091020 0.026222 0.007270 -117991.000000 0 0 1
-30.490388 -24.281676 19.708974 43.677308 0.672525 1.102641 0.027043 -0.004815 713474.000000 0 0 1
-31.779048 -23.944276 20.250074 44.646408 0.645713 1.100034 0.038308 -0.008105 643553.000000 0 0 1
-32.256178 -22.775976 19.611974 44.088951 0.614806 1.109815 0.046662 -0.014943 660200.000000 0 0 1
-33.790768 -22.514476 19.814374 45.181048 0.587742 1.116806 0.068434 -0.011334 637222.000000 0 0 1
-34.654341 -23.467876 19.260774 46.072139 0.595259 1.139491 0.060820 -0.020178 -24990.300000 0 0 1
-35.989551 -23.017476 19.290674 46.874109 0.569001 1.146651 0.076294 -0.021631 201793.000000 0 0 1
-37.003738 -23.631476 18.303674 47.568348 0.568336 1.175819 0.104703 -0.016728 221196.000000 0 0 1
36.602162 -24.976476 18.540974 48.034471 -0.598800 1.174512 0.091519 -0.011904 206314.000000 0 0 1
35.611922 -25.453376 17.638374 47.193174 -0.620552 1.187749 0.109381 -0.003146 239690.000000 0 0 1
35.138302 -26.885076 17.962174 47.750888 -0.653109 1.185143 0.100063 0.011289 456174.000000 0 0 1
34.227642 -27.012976 19.096174 47.601431 -0.668130 1.158005 0.094984 0.000713 392379.000000 0 0 1
34.567012 -26.468476 20.350074 48.058133 -0.653483 1.133549 0.101487 -0.002094 -339130.000000 0 0 1
33.416242 -26.680876 21.350074 47.794770 -0.673789 1.107719 0.088993 -0.012432 397402.000000 0 0 1
32.159802 -26.104776 21.048074 46.462175 -0.681847 1.100652 0.088296 -0.010013 -43973.800000 0 0 1
31.332262 -25.959576 22.174774 46.339302 -0.691894 1.071816 0.096772 -0.010391 191965.000000 0 0 1
30.158202 -24.992876 21.870774 44.860805 -0.692013 1.061543 0.094466 -0.001765 138188.000000 0 0 1
30.641522 -23.705976 21.424674 44.270677 -0.658469 1.065637 0.088480 0.002813 22523.300000 0 0 1
31.336972 -22.927776 22.365874 44.809833 -0.631655 1.048203 0.099781 -0.011047 -201328.000000 0 0 1
32.287992 -21.911176 21.686574 44.642151 -0.596230 1.063533 0.084237 -0.011330 148309.000000 0 0 1
31.567212 -20.755576 21.293874 43.367176 -0.581633 1.057543 0.092048 -0.021227 -104804.000000 0 0 1
32.296762 -19.893576 20.488074 43.111442 -0.552074 1.075565 0.080160 -0.019135 -122509.000000 0 0 1
31.559342 -18.484476 20.357074 41.857836 -0.529842 1.062902 0.072474 -0.008030 415034.000000 0 0 1
31.514572 -17.690876 21.524574 42.064744 -0.511520 1.033633 0.064771 -0.005700 815791.000000 0 0 1
30.551702 -18.169776 22.531174 42.085640 -0.536530 1.005857 0.094045 -0.014428 592604.000000 0 0 1
30.740132 -17.584376 23.956844 42.756244 -0.519602 0.976034 0.078502 -0.014434 44402.300000 0 0 1
30.277792 -16.226576 24.143334 41.987463 -0.491972 0.958176 0.066890 -0.020400 273840.000000 0 0 1
30.546612 -15.814076 25.498824 42.817877 -0.477710 0.932886 0.063571 -0.018241 -111148.000000 0 0 1
30.269522 -14.349776 25.917084 42.353929 -0.442687 0.912314 0.079538 -0.023962 -161699.000000 0 0 1
28.891672 -14.047376 26.026554 41.345363 -0.452554 0.889898 0.087583 -0.024003 300425.000000 0 0 1
28.629472 -12.694376 26.491214 41.019243 -0.417354 0.868694 0.082654 -0.024244 64781.200000 0 0 1
28.918172 -11.522476 25.501814 40.241405 -0.379170 0.884443 0.087925 -0.034529 -680340.000000 0 0 1
28.056972 -11.553976 24.413794 38.945108 -0.390641 0.893258 0.099391 -0.034124 -323032.000000 0 0 1
28.242372 -10.618776 23.366844 38.162802 -0.359636 0.911838 0.102948 -0.029004 -153859.000000 0 0 1
29.400472 -10.845276 22.352174 38.491915 -0.353395 0.951211 0.105593 -0.037419 -93490.100000 0 0 1
29.346192 -12.055076 21.564974 38.361074 -0.389772 0.973804 0.097278 -0.034826 23389.900000 0 0 1
29.764432 -13.249676 22.177974 39.412408 -0.418814 0.973129 0.088612 -0.037233 -297098.000000 0 0 1
29.274492 -14.491076 21.404374 39.052970 -0.459645 0.990722 0.103257 -0.028756 -74982.700000 0 0 1
29.809622 -14.602376 20.099174 38.804894 -0.455498 1.026338 0.085425 -0.026531 -240563.000000 0 0 1
29.234992 -15.650476 19.377874 38.407346 -0.491513 1.041952 0.093680 -0.029429 -237994.000000 0 0 1
29.564062 -15.582976 17.825174 37.876111 -0.485085 1.080805 0.100472 -0.028102 21427.300000 0 0 1
28.909772 -16.505476 16.936874 37.350548 -0.518771 1.100156 0.097590 -0.028954 1910420.000000 0 0 1
27.478072 -16.209676 16.748074 36.031876 -0.532970 1.087373 0.092479 -0.026758 1657510.000000 0 0 1
27.242872 -15.322276 15.458774 34.870044 -0.512338 1.111491 0.109359 -0.026164 -446909.000000 0 0 1
27.434272 -15.893776 14.180874 34.732530 -0.525090 1.150219 0.113577 -0.021131 -61021.700000 0 0 1
26.552172 -16.939476 13.850074 34.406224 -0.567871 1.156500 0.103208 -0.033050 -322149.000000 0 0 1
26.837872 -17.685676 12.541074 34.501204 -0.582664 1.198778 0.092645 -0.024335 -161483.000000 0 0 1
26.673972 -16.832376 11.441374 33.551971 -0.562932 1.222811 0.084740 -0.030752 151817.000000 0 0 1
26.344572 -17.361976 10.151374 33.144006 -0.582700 1.259513 0.101657 -0.036010 -491969.000000 0 0 1
27.601672 -17.772176 9.422074 34.153741 -0.572061 1.291299 0.097740 -0.028732 -13207.700000 0 0 1
28.417072 -18.807976 9.994774 35.512892 -0.584664 1.285501 0.083108 -0.016676 -210879.000000 0 0 1
29.725802 -18.723676 9.499574 36.392874 -0.562101 1.306709 0.078772 -0.006959 224631.000000 0 0 1
30.781402 -19.454276 10.408074 37.872043 -0.563627 1.292392 0.076582 -0.026583 110812.000000 0 0 1
30.851602 -18.899176 11.660674 38.012782 -0.549621 1.259013 0.095420 -0.043243 198492.000000 0 0 1
30.691572 -19.847876 12.698774 38.693277 -0.574044 1.236409 0.079362 -0.038549 -81780.400000 0 0 1
30.474172 -19.282876 14.124874 38.730047 -0.564161 1.197485 0.088680 -0.029396 28020.100000 0 0 1
30.094692 -20.298576 15.026774 39.287742 -0.593399 1.178317 0.079604 -0.029524 32602.400000 0 0 1
29.934712 -19.656776 16.260474 39.330381 -0.581039 1.144575 0.096460 -0.027770 -2465.820000 0 0 1
29.791322 -20.628176 17.474074 40.229191 -0.605622 1.121465 0.074046 -0.016847 350791.000000 0 0 1
28.642472 -21.441776 17.264174 39.726474 -0.642605 1.121229 0.053231 -0.002718 93154.900000 0 0 1
28.313572 -22.321876 18.313174 40.438804 -0.667616 1.100824 0.078558 -0.009865 315127.000000 0 0 1
26.931272 -22.998476 18.097574 39.771165 -0.706794 1.098376 0.057509 -0.002510 -314657.000000 0 0 1
25.873972 -22.205976 18.482474 38.783626 -0.709256 1.074066 0.060879 0.009381 -421262.000000 0 0 1
24.642372 -22.883876 18.276074 38.274446 -0.748415 1.072988 0.064629 0.002071 271038.000000 0 0 1
23.403272 -22.302476 18.975374 37.485710 -0.761318 1.040020 0.043588 0.011698 -145481.000000 0 0 1
23.065872 -21.001876 18.499774 36.267822 -0.738595 1.035509 0.044295 0.004854 176683.000000 0 0 1
21.959672 -20.382176 19.162174 35.564719 -0.748159 1.001788 0.039848 0.009486 407128.000000 0 0 1
22.082272 -19.942176 20.649874 36.217875 -0.734517 0.964099 0.032146 0.006055 -206069.000000 0 0 1
22.366772 -21.004876 21.523374 37.479768 -0.754008 0.959088 0.047206 0.005170 -77830.300000 0 0 1
22.696372 -20.576476 22.822174 38.201680 -0.736448 0.930525 0.061424 -0.001433 27602.600000 0 0 1
23.012772 -21.796176 23.763684 39.615321 -0.758254 0.927469 0.066684 -0.005766 -140094.000000 0 0 1
21.952772 -22.506676 24.329614 39.754306 -0.797856 0.912210 0.058510 -0.003476 -436544.000000 0 0 1
22.467272 -23.535976 25.118974 41.105758 -0.808625 0.913370 0.057320 -0.002459 415134.000000 0 0 1
21.401672 -24.238876 26.043284 41.518759 -0.847482 0.892759 0.058944 -0.003281 424901.000000 0 0 1
20.505072 -25.112776 25.388684 41.178815 -0.886063 0.906447 0.064498 -0.000359 411288.000000 0 0 1
19.615072 -25.757876 26.314954 41.721650 -0.919965 0.888307 0.062460 -0.008798 197563.000000 0 0 1
18.667072 -26.733976 25.605584 41.458546 -0.961244 0.905085 0.068962 -0.006379 -10649.200000 0 0 1
17.881572 -26.115976 24.578134 40.073427 -0.970414 0.910530 0.057353 -0.009640 505027.000000 0 0 1
17.151372 -27.041576 23.793134 39.893980 -1.005566 0.931776 0.061628 -0.013911 561533.000000 0 0 1
16.224072 -26.388976 22.638774 38.368121 -1.019562 0.939686 0.053101 -0.016932 832934.000000 0 0 1
14.914172 -26.042176 23.050474 37.841140 -1.050698 0.915823 0.035391 -0.014482 78949.300000 0 0 1
14.307172 -25.365476 21.966774 36.477962 -1.057237 0.924551 0.019386 -0.015585 -31826.900000 0 0 1
12.935272 -24.717376 22.227874 35.669992 -1.088662 0.898028 0.022375 -0.010460 179630.000000 0 0 1
11.846572 -25.612476 22.372374 36.011989 -1.137570 0.900462 0.021967 -0.014119 87274.200000 0 0 1
10.633172 -24.885776 22.229874 35.021901 -1.166997 0.883122 0.039553 -0.012884 -51437.900000 0 0 1
9.407072 -25.797076 22.184974 35.300924 -1.221125 0.891233 0.036508 -0.014052 -325842.000000 0 0 1
9.303472 -26.613276 21.040074 35.178201 -1.234496 0.929668 0.036066 -0.014645 -316239.000000 0 0 1
8.053772 -27.235976 21.068274 35.362888 -1.283286 0.932568 0.036583 -0.014552 -451940.000000 0 0 1
7.703472 -28.121076 19.894674 35.297825 -1.303416 0.972031 0.041458 -0.017781 52345.900000 0 0 1
8.412272 -29.344976 19.865374 36.421519 -1.291615 0.993895 0.044448 -0.020948 256782.000000 0 0 1
7.742472 -30.210476 18.977974 36.507290 -1.319912 1.024132 0.043422 -0.013157 -142958.000000 0 0 1
8.379972 -31.559176 18.844474 37.700395 -1.311254 1.047373 0.054423 -0.012770 -322118.000000 0 0 1
8.081572 -32.435776 19.951074 38.928611 -1.326612 1.032698 0.050666 -0.018727 315431.000000 0 0 1
8.924472 -33.574976 20.052674 40.112778 -1.310996 1.047304 0.061366 -0.017950 -46891.200000 0 0 1
8.394672 33.389395 21.015674 40.335850 1.324484 1.022754 0.072195 -0.028879 114184.000000 0 0 1
7.366872 32.565395 20.502474 39.180700 1.348323 1.020101 0.079538 -0.028897 62058.200000 0 0 1
7.413572 31.305995 21.166574 38.510392 1.338270 0.988872 0.079258 -0.036842 6655.240000 0 0 1
6.392772 30.239795 20.670474 37.183078 1.362461 0.981338 0.083542 -0.030859 -203724.000000 0 0 1
5.087872 30.522495 21.081274 37.442346 1.405622 0.972745 0.082796 -0.034219 -768154.000000 0 0 1
4.222772 29.513695 20.688774 36.289329 1.428682 0.964161 0.091391 -0.022087 535254.000000 0 0 1
2.755872 29.450295 21.227274 36.407580 1.477491 0.948324 0.069496 -0.017223 751304.000000 0 0 1
2.588072 29.009395 22.588474 36.857595 1.481817 0.911124 0.046521 -0.019997 -511616.000000 0 0 1
1.247072 28.869195 22.936974 36.892959 1.527626 0.899864 0.036695 -0.011005 -594591.000000 0 0 1
1.021272 28.390495 24.383584 37.438248 1.534839 0.861498 0.039340 -0.009119 -250705.000000 0 0 1
1.216772 29.350895 25.343074 38.797255 1.529364 0.858969 0.047650 -0.009252 198220.000000 0 0 1
0.927072 28.835795 26.642994 39.271003 1.538657 0.825160 0.053444 -0.016458 -115490.000000 0 0 1
2.093072 28.119695 27.366624 39.294152 1.496499 0.800350 0.034675 -0.017652 -327850.000000 0 0 1
2.372372 26.834795 26.827804 38.019278 1.482619 0.787475 0.039080 -0.021137 486178.000000 0 0 1
3.259872 26.213995 27.769574 38.326878 1.447075 0.760421 0.026034 -0.013638 127673.000000 0 0 1
3.970572 24.972095 27.242784 37.169077 1.413116 0.748160 0.037031 0.000755 -456495.000000 0 0 1
3.071072 23.891095 27.081904 36.244247 1.442953 0.726949 0.052748 -0.003251 -197546.000000 0 0 1
3.605972 22.630495 26.743264 35.218526 1.412783 0.708479 0.051411 0.001742 -262826.000000 0 0 1
2.501972 21.572295 26.689414 34.408555 1.455331 0.683033 0.055104 0.000323 -121053.000000 0 0 1
2.929972 20.239095 26.774334 33.690810 1.427027 0.652271 0.069032 -0.001217 129183.000000 0 0 1
3.672972 19.740695 25.644134 32.570039 1.386839 0.664292 0.075796 -0.000934 46523.900000 0 0 1
3.996072 18.247695 25.803924 31.855761 1.355209 0.626604 0.083247 -0.009319 -517799.000000 0 0 1
5.022572 18.102795 26.741044 32.680589 1.300156 0.612428 0.076715 -0.007147 -74411.800000 0 0 1
6.184972 17.624695 26.051714 32.055820 1.233296 0.622028 0.095574 0.001604 -1211600.000000 0 0 1
7.365172 17.473595 26.963794 32.963897 1.171891 0.612906 0.073476 -0.008309 -682312.000000 0 0 1
7.908472 18.728495 27.458724 34.165509 1.171241 0.637314 0.070130 -0.005541 368493.000000 0 0 1
8.635972 19.549495 26.547074 34.080932 1.154825 0.677819 0.059293 -0.016076 -489606.000000 0 0 1
9.219472 20.778595 27.138384 35.401138 1.153193 0.697273 0.042421 -0.015384 253259.000000 0 0 1
10.287172 20.663195 28.081734 36.350755 1.108870 0.687994 0.055805 -0.033306 336588.000000 0 0 1
10.527872 21.937595 28.684734 37.615265 1.123357 0.703501 0.076425 -0.034221 -471017.000000 0 0 1
11.504472 21.859895 29.832204 38.732007 1.086345 0.691609 0.088642 -0.033145 -37474.000000 0 0 1
12.819872 21.554095 29.386424 38.632759 1.034226 0.706466 0.078103 -0.035329 -479634.000000 0 0 1
13.735272 21.574495 30.446024 39.762758 1.003868 0.698680 0.080106 -0.029044 717378.000000 0 0 1
15.128072 21.149095 29.832204 39.574022 0.949872 0.716920 0.067544 -0.022737 694218.000000 0 0 1
15.767472 22.121995 29.047154 39.771008 0.951564 0.751947 0.053033 -0.031422 120138.000000 0 0 1
17.119872 21.732995 28.823784 39.952768 0.903578 0.764907 0.114036 -0.025449 450041.000000 0 0 1
-8.830838 16.707295 4.463908 19.417618 -1.084561 1.338832 0.033509 -0.017494 -47294.200000 0 1 0
-8.684338 18.078695 4.721008 20.604487 -1.122981 1.339617 0.043649 -0.022757 -82859.900000 0 1 0
-7.316138 18.265895 4.994708 20.300638 -1.189828 1.322207 0.040136 -0.020548 -219460.000000 0 1 0
-7.079338 19.630795 5.564708 21.597480 -1.224688 1.310201 0.047264 -0.024143 -158564.000000 0 1 0
-7.164738 20.831795 4.791008 22.544421 -1.239537 1.356649 0.050163 -0.026243 410371.000000 0 1 0
-8.492238 21.160395 4.357908 23.213612 -1.189147 1.381945 0.051671 -0.027225 611890.000000 0 1 0
-8.646938 22.338595 3.340708 24.185589 -1.201473 1.432225 0.088756 -0.037908 -107167.000000 0 1 0
-8.112738 22.189095 2.039608 23.713550 -1.220276 1.484680 0.067679 -0.036911 -246609.000000 0 1 0
-8.690238 21.244895 1.138108 22.981756 -1.182512 1.521254 0.086107 -0.037404 -585375.000000 0 1 0
-7.988838 21.276095 -0.264292 22.728036 -1.211601 1.582425 0.062436 -0.019106 1155650.000000 0 1 0
-6.660938 20.758995 -0.384492 21.804858 -1.260304 1.588431 0.048505 -0.018468 698430.000000 0 1 0
-5.629738 21.495495 0.310108 22.222656 -1.314646 1.556841 0.059185 -0.029282 -1131390.000000 0 1 0
-4.274538 21.131895 -0.206992 21.560879 -1.371210 1.580397 0.043339 -0.028714 -1284710.000000 0 1 0
-4.135338 21.368095 -1.591792 21.822702 -1.379631 1.643803 0.039677 -0.032145 473340.000000 0 1 0
-2.784938 21.345595 -2.079492 21.626711 -1.441060 1.667099 0.036259 -0.026307 615285.000000 0 1 0
-2.677438 21.600995 -3.583992 22.059390 -1.447476 1.733990 0.045461 -0.017058 -463260.000000 0 1 0
-1.435638 22.089695 -3.962892 22.488224 -1.505896 1.747942 0.052451 -0.015513 -497819.000000 0 1 0
-1.521438 22.334995 -5.360192 23.019523 -1.502782 1.805808 0.064406 -0.023392 -129360.000000 0 1 0
-0.243138 22.933195 -5.973392 23.699620 -1.560195 1.825590 0.062643 -0.024335 -508451.000000 0 1 0
0.851662 22.065395 -5.972892 22.875368 1.532218 1.834964 0.045521 -0.014237 -610251.000000 0 1 0
1.837362 22.594195 -6.822992 23.673335 1.489655 1.863158 0.069679 -0.015295 -564113.000000 0 1 0
3.060862 21.700795 -6.944792 22.989640 1.430672 1.877674 0.051585 -0.005616 -544317.000000 0 1 0
2.840762 20.664195 -7.853492 22.288029 1.434180 1.930892 0.051279 -0.012863 -306271.000000 0 1 0
3.949762 19.862995 -8.086092 21.806515 1.374507 1.950678 0.041538 -0.011144 -240831.000000 0 1 0
3.597562 18.923295 -9.249192 21.367759 1.382925 2.018456 0.040191 -0.008354 3162.140000 0 1 0
3.917062 19.490895 -10.500292 22.483205 1.372469 2.056723 0.043305 -0.013214 517603.000000 0 1 0
3.067062 18.964695 -11.539892 22.410615 1.410460 2.111722 0.043529 -0.018941 277800.000000 0 1 0
3.510162 19.423095 -12.923992 23.592530 1.392005 2.150529 0.041571 -0.011652 -38164.200000 0 1 0
3.457262 20.826195 -13.101392 24.846118 1.406291 2.126218 0.068459 -0.017278 -94683.700000 0 1 0
3.799362 21.154095 -14.420992 25.882348 1.393087 2.161776 0.091739 -0.024070 105645.000000 0 0 1
4.049262 22.618595 -14.712692 27.284807 1.393649 2.140315 0.087319 -0.025691 806207.000000 0 0 1
2.838262 23.393495 -14.647792 27.746516 1.450059 2.126940 0.096769 -0.029482 617917.000000 0 0 1
3.085462 24.603795 -15.355892 29.166252 1.446042 2.125269 0.091144 -0.020121 173343.000000 0 0 1
1.735662 25.288595 -15.621792 29.775258 1.502270 2.123108 0.100605 -0.025672 228509.000000 0 0 1
0.940062 25.674395 -14.514292 29.508015 1.534198 2.085040 0.098754 -0.029358 -130567.000000 0 0 1
1.139962 27.013095 -14.151092 30.516557 1.528621 2.052984 0.076404 -0.022344 -67035.200000 0 0 1
0.281562 27.390895 -12.873192 30.266475 1.560517 2.010121 0.077220 -0.027448 1192420.000000 0 0 1
-1.149338 27.301095 -12.928892 30.229572 -1.528723 2.012732 0.065353 -0.028858 761009.000000 0 0 1
-1.717038 25.989795 -12.992392 29.107043 -1.504826 2.033496 0.066957 -0.026359 -388292.000000 0 0 1
-1.491338 25.018295 -11.816392 27.708596 -1.511257 2.011363 0.078551 -0.029425 -392592.000000 0 0 1
-2.263738 25.336995 -10.669292 27.584808 -1.481688 1.967935 0.074795 -0.022830 76930.700000 0 0 1
-2.387438 24.047895 -10.061892 26.177143 -1.471842 1.965329 0.086486 -0.017197 429899.000000 0 0 1
-3.323838 23.899995 -8.790992 25.681496 -1.432610 1.920169 0.068875 -0.022516 411533.000000 0 0 1
-2.800838 24.420495 -7.602592 25.729452 -1.456603 1.870756 0.078903 -0.028452 -171760.000000 0 0 1
-2.759238 25.793395 -7.457392 26.991209 -1.464227 1.850728 0.087524 -0.031813 -124773.000000 0 0 1
-2.512038 26.245895 -6.019592 27.044276 -1.475375 1.795259 0.089757 -0.032860 558460.000000 0 0 1
-1.391738 25.657095 -5.336392 26.243105 -1.516606 1.775569 0.096118 -0.034301 270430.000000 0 0 1
-1.307738 25.955695 -3.951592 26.287324 -1.520455 1.721691 0.099601 -0.033368 412743.000000 0 0 1
-2.365238 25.366795 -2.933492 25.645156 -1.477824 1.685435 0.092406 -0.040778 1514900.000000 0 0 1
-3.745038 25.772795 -3.053292 26.221840 -1.426497 1.687502 0.086130 -0.041234 787561.000000 0 0 1
-4.524438 24.965295 -2.209192 25.467961 -1.391513 1.657649 0.089702 -0.043112 -485276.000000 0 0 1
-5.760438 24.348595 -2.861092 25.183776 -1.338486 1.684651 0.081381 -0.041354 -822600.000000 0 0 1
-6.767338 25.291595 -3.023892 26.355371 -1.309348 1.685785 0.082302 -0.038954 -1061430.000000 0 0 1
-7.904138 24.626095 -3.501592 26.099447 -1.260217 1.705366 0.075959 -0.029535 56951.500000 0 0 1
-9.093338 25.614295 -3.709692 27.432512 -1.229665 1.706442 0.045978 -0.022928 124555.000000 0 0 1
-9.804638 25.835095 -2.529392 27.748530 -1.208079 1.662077 0.063232 -0.033852 -819985.000000 0 0 1
-11.085638 26.372595 -2.749392 28.739595 -1.172874 1.666609 0.056950 -0.024408 -317225.000000 0 0 1
-12.010138 26.305395 -1.559392 28.959436 -1.142496 1.624670 0.070943 -0.022296 -432804.000000 0 0 1
-12.500138 25.025295 -1.186792 27.998702 -1.107549 1.613196 0.085742 -0.020651 361336.000000 0 0 1
-11.513938 24.049295 -0.806992 26.675656 -1.124281 1.601053 0.101538 -0.027834 89673.100000 0 0 1
-12.187238 22.744795 -0.461592 25.808285 -1.078901 1.588683 0.103742 -0.026822 -69404.500000 0 0 1
-12.908038 22.852595 0.744308 26.256667 -1.056632 1.542445 0.105354 -0.029564 -57381.600000 0 0 1
-13.401738 21.569895 1.145108 25.420036 -1.014850 1.525734 0.105516 -0.035059 -117284.000000 0 0 1
-14.315638 21.554795 2.391508 25.985881 -0.984537 1.478635 0.104700 -0.034947 -67660.700000 0 0 1
-13.700538 21.530395 3.672908 25.782803 -1.004088 1.427854 0.092738 -0.038057 -48817.400000 0 0 1
-13.073438 22.775295 4.015108 26.565955 -1.049700 1.419078 0.085547 -0.034891 160893.000000 0 0 1
-12.817838 23.028095 5.514408 26.925802 -1.062887 1.364537 0.087169 -0.036465 602841.000000 0 0 1
-11.559638 22.419195 5.874608 25.898968 -1.094736 1.341977 0.079118 -0.031150 808196.000000 0 0 1
-11.626138 21.821995 7.206008 25.754477 -1.081276 1.287214 0.057392 -0.037086 53861.900000 0 0 1
-10.230138 21.559695 7.825508 25.114035 -1.127754 1.253921 0.044643 -0.030013 -153495.000000 0 0 1
-9.552338 22.729795 8.225408 25.991308 -1.172951 1.248793 0.049045 -0.028684 -96034.800000 0 0 1
-8.363538 22.424395 8.925908 25.543573 -1.213810 1.213825 0.047725 -0.025171 -108356.000000 0 0 1
-8.409238 22.120295 10.466308 25.875980 -1.207510 1.154387 0.040954 -0.030098 -539811.000000 0 0 1
-9.176138 21.007595 10.772708 25.329268 -1.158973 1.131496 0.044907 -0.025564 -123671.000000 0 0 1
-8.819238 20.518295 12.058508 25.380839 -1.164848 1.075715 0.037657 -0.016896 -579211.000000 0 0 1
-9.778838 19.494895 12.577008 25.176532 -1.105861 1.047714 0.034946 -0.012640 -712023.000000 0 0 1
-9.760338 18.273895 11.841908 23.862737 -1.080232 1.051521 0.047253 -0.031660 -110072.000000 0 1 0
-10.511538 17.213895 12.357008 23.653885 -1.022588 1.021122 0.048873 -0.029522 -389275.000000 0 1 0
-10.842738 16.015595 11.439108 22.470368 -0.975666 1.036686 0.057188 -0.038492 -217293.000000 0 1 0
-11.077638 14.844795 12.134708 22.143467 -0.929712 0.990820 0.047364 -0.030903 213164.000000 0 1 0
-11.584238 13.842195 11.205708 21.245442 -0.873969 1.015211 0.045798 -0.022623 265399.000000 0 1 0
-12.052638 12.548895 11.918508 21.090085 -0.805567 0.970213 0.038078 -0.026784 -401324.000000 0 1 0
-13.062038 12.771995 12.844808 22.332259 -0.774171 0.957986 0.053085 -0.019511 -189690.000000 0 1 0
-13.540638 11.537195 13.410108 22.277494 -0.705678 0.924846 0.045438 -0.007668 435469.000000 0 1 0
-14.411638 11.526895 14.716008 23.603506 -0.674639 0.897627 0.048967 -0.013832 1095370.000000 0 1 0
-15.604838 12.316995 14.555308 24.638919 -0.668186 0.938815 0.058777 -0.019062 530857.000000 0 1 0
-16.388538 12.361095 15.731408 25.862290 -0.646217 0.916910 0.055575 -0.013529 -1023280.000000 0 0 1
-17.477238 13.370595 15.711208 27.038282 -0.653051 0.950750 0.055268 -0.018792 -1269620.000000 0 0 1
-18.550238 12.952495 14.918708 27.100670 -0.609543 0.987843 0.053552 -0.018025 -372507.000000 0 0 1
-19.518338 13.982095 15.000608 28.310470 -0.621620 1.012360 0.068600 -0.022018 255668.000000 0 0 1
-20.817338 13.800595 14.134408 28.698423 -0.585416 1.055819 0.071885 -0.020357 471571.000000 0 0 1
-21.610338 12.781795 14.726808 29.107729 -0.534121 1.040323 0.067096 -0.013642 22681.300000 0 0 1
-22.782338 12.550695 13.977308 29.528292 -0.503531 1.077703 0.067127 -0.015087 -27422.600000 0 0 1
-23.808738 11.616195 14.675308 30.284594 -0.453918 1.064913 0.086169 -0.018360 -106469.000000 0 0 1
-24.445938 12.133095 15.788208 31.529088 -0.460702 1.046331 0.115642 -0.023825 -156046.000000 0 0 1
-25.288688 11.175695 16.381708 32.136805 -0.416118 1.035903 0.116677 -0.024566 -461499.000000 0 0 1
-26.174348 11.755795 17.474708 33.595545 -0.422134 1.023770 0.110031 -0.023773 -738114.000000 0 0 1
-27.093168 12.613795 16.892008 34.329106 -0.435727 1.056341 0.111351 -0.010703 32528.000000 0 0 1
-28.000268 13.111895 17.893208 35.722593 -0.437949 1.046166 0.100168 -0.001289 138906.000000 0 0 1
-28.993828 14.138195 17.403808 36.652737 -0.453701 1.076026 0.077424 0.000037 10433.200000 0 0 1
-28.516098 15.497995 17.485508 36.865956 -0.497825 1.076628 0.091810 -0.001043 274462.000000 0 0 1
-29.608348 16.349495 17.240708 37.963170 -0.504525 1.099386 0.091032 -0.000413 132091.000000 0 0 1
-29.148978 17.845395 17.191208 38.257792 -0.549352 1.104757 0.094150 -0.003186 69939.300000 0 0 1
-28.622508 18.376795 18.458808 38.699899 -0.570759 1.073589 0.074975 0.001503 111146.000000 0 0 1
-29.478698 18.447295 19.586708 39.911595 -0.559163 1.057843 0.071924 -0.001997 -1001310.000000 0 0 1
-28.745558 18.705695 20.920708 40.173202 -0.576891 1.023052 0.061660 -0.009025 417009.000000 0 0 1
-28.065558 17.586495 21.506208 39.490218 -0.559765 0.994889 0.076093 -0.010198 691848.000000 0 0 1
-27.187948 16.769595 20.726708 38.078869 -0.552683 0.995230 0.085097 0.005032 -467665.000000 0 0 1
-27.038468 15.397595 21.495808 37.818440 -0.517668 0.966243 0.083314 -0.004126 365044.000000 0 0 1
-28.196628 14.550295 21.467908 38.309685 -0.476389 0.975954 0.058698 -0.004561 661697.000000 0 0 1
-27.904828 13.158895 21.667908 37.700586 -0.440641 0.958514 0.073484 -0.007888 -438784.000000 0 0 1
-29.182908 12.338895 21.862908 38.495158 -0.400016 0.966796 0.074944 -0.009478 -478790.000000 0 0 1
-29.954278 12.230095 20.698308 38.409035 -0.387634 1.001676 0.076083 -0.014167 308297.000000 0 0 1
-31.119838 11.438795 21.007108 39.250337 -0.352243 1.006042 0.084171 -0.020369 171661.000000 0 0 1
-31.961858 11.229495 19.740508 39.209050 -0.337869 1.043188 0.105298 -0.019180 -745136.000000 0 0 1
-31.343928 10.663695 18.592008 37.971291 -0.327932 1.059127 0.117073 -0.028404 156121.000000 0 0 1
-30.665578 9.419095 18.815908 37.190528 -0.298008 1.040333 0.132014 -0.032909 -439885.000000 0 0 1
-29.767798 9.158295 17.617108 35.782100 -0.298467 1.056015 0.149047 -0.041037 -391750.000000 0 0 1
-30.401848 8.901795 16.363408 35.654949 -0.284842 1.093997 0.154796 -0.037953 307282.000000 0 0 1
-31.002788 9.905595 15.541508 36.067051 -0.309255 1.125300 0.140415 -0.035730 72947.000000 0 0 1
-30.049348 11.011995 15.015608 35.351037 -0.351266 1.132103 0.150359 -0.031827 74791.400000 0 0 1
-29.320848 10.652295 13.880008 34.144372 -0.348475 1.152166 0.161316 -0.038858 236945.000000 0 0 1
-28.225368 11.515795 13.613708 33.385895 -0.387379 1.150788 0.140969 -0.033649 228004.000000 0 0 1
-27.683358 11.282095 12.160908 32.272924 -0.386990 1.184441 0.165687 -0.025203 -11344.200000 0 0 1
-27.043348 10.037295 11.750808 31.147575 -0.355396 1.183958 0.159717 -0.024362 762561.000000 0 0 1
-27.922218 8.918795 11.626608 31.533683 -0.309173 1.193181 0.177452 -0.021179 89246.300000 0 0 1
-27.242228 7.668695 10.968608 30.352236 -0.274399 1.201052 0.178262 -0.024253 3107.620000 0 0 1
-27.122108 7.948495 9.608708 29.851542 -0.285081 1.243079 0.185087 -0.023779 333339.000000 0 0 1
-26.362178 6.934895 8.979008 28.699822 -0.257234 1.252594 0.180445 -0.041211 -136143.000000 0 0 1
-25.598528 7.308695 7.706108 27.714360 -0.278113 1.289028 0.172936 -0.023992 -450374.000000 0 0 1
-26.437058 7.729995 6.701408 28.347482 -0.284463 1.332135 0.165415 -0.031871 -136518.000000 0 0 1
-25.647358 8.080395 5.580708 27.463140 -0.305213 1.366164 0.162640 -0.030830 -235834.000000 0 0 1
-26.430428 8.729395 4.419708 28.183394 -0.318998 1.413327 0.139623 -0.023385 -10419.200000 0 0 1
-27.347328 7.917695 3.663508 28.705183 -0.281818 1.442822 0.175905 -0.035648 322843.000000 0 0 1
-26.997848 6.649195 3.124308 27.979580 -0.241480 1.458899 0.187475 -0.035919 -429024.000000 0 0 1
-25.989048 6.620795 1.933108 26.888705 -0.249447 1.498841 0.194245 -0.029089 120086.000000 0 0 1
-24.761638 7.233895 2.264208 25.895841 -0.284231 1.483249 0.163186 -0.017961 138220.000000 0 0 1
-23.930738 7.256595 1.108108 25.031306 -0.294420 1.526513 0.168771 -0.008242 330021.000000 0 0 1
-22.657538 8.117295 1.372808 24.106827 -0.344015 1.513819 0.145135 -0.007346 349623.000000 0 1 0
-23.060538 9.457495 1.673508 24.980658 -0.389197 1.503754 0.136975 -0.011363 1071450.000000 0 1 0
-21.905138 10.186695 2.090708 24.248193 -0.435288 1.484468 0.147569 -0.017506 361056.000000 0 1 0
-22.225238 11.668795 2.546108 25.231025 -0.483466 1.469712 0.139718 -0.019568 -912678.000000 0 0 1
-21.168738 12.375695 3.077508 24.713242 -0.529035 1.445944 0.145481 -0.023992 -497449.000000 0 1 0
-21.467938 13.578295 3.765408 25.679189 -0.563969 1.423633 0.136891 -0.034044 667480.000000 0 0 1
-20.152938 14.074095 4.503608 24.990069 -0.609627 1.389590 0.100744 -0.027211 827037.000000 0 1 0
-19.614338 13.158495 5.398208 24.228266 -0.590901 1.346104 0.096769 -0.034850 107718.000000 0 1 0
-18.882938 13.945595 6.354408 24.319200 -0.636119 1.306436 0.098958 -0.030168 -242036.000000 0 1 0
-18.226338 13.036795 7.368208 23.589148 -0.620902 1.253124 0.064256 -0.036972 463728.000000 0 1 0
-17.052838 12.343395 6.886908 22.149225 -0.626542 1.254623 0.063526 -0.023526 1195570.000000 0 1 0
-16.575938 11.326595 7.796708 21.536994 -0.599440 1.200368 0.053103 -0.027240 -227925.000000 0 1 0
10.484862 -33.525576 -14.347192 37.943886 -1.267691 1.958557 0.061077 -0.004368 -357.619000 0 0 1
11.736162 -33.215176 -13.735192 37.810593 -1.231151 1.942564 0.049685 -0.015705 260516.000000 0 0 1
12.168862 -31.921776 -13.950392 36.901144 -1.206593 1.958483 0.053358 -0.017773 -220597.000000 0 0 1
13.522662 -31.632776 -13.279592 36.876042 -1.166819 1.939187 0.056852 -0.020265 -402206.000000 0 0 1
14.610062 -32.200376 -13.966192 38.018057 -1.144850 1.946962 0.057465 -0.016569 147152.000000 0 0 1
15.816062 -31.601876 -13.452892 37.812785 -1.106766 1.934541 0.046357 -0.019483 -195323.000000 0 0 1
17.057862 -32.187376 -14.077892 39.053616 -1.083473 1.939575 0.069966 -0.018598 -663312.000000 0 0 1
17.504862 -33.325076 -13.415692 39.962003 -1.087133 1.913156 0.072034 -0.027231 -842500.000000 0 0 1
18.680062 -33.812276 -13.969292 41.077437 -1.066063 1.917790 0.075906 -0.020750 -377664.000000 0 0 1
18.875862 32.786495 -13.539592 40.181750 1.048421 1.914481 0.064205 -0.026296 -113614.000000 0 0 1
19.064262 32.555695 -12.177992 39.643699 1.041040 1.883031 0.059965 -0.020768 -56926.900000 0 0 1
19.129162 31.174895 -11.908492 38.465714 1.020431 1.885555 0.047487 -0.016358 -79148.000000 0 0 1
19.606762 30.716095 -10.528392 37.930867 1.002674 1.852058 0.044937 -0.016793 73407.300000 0 0 1
20.899562 30.138295 -10.598492 38.176388 0.964476 1.852111 0.046906 -0.016792 49130.500000 0 0 1
21.520262 30.185695 -9.348392 38.232059 0.951446 1.817818 0.031290 -0.010386 284159.000000 0 0 1
22.808662 29.324195 -9.193992 38.271047 0.909733 1.813403 0.033294 0.002087 1636450.000000 0 0 1
24.041662 29.870795 -9.754192 39.565265 0.893102 1.819899 0.035219 -0.015421 1795400.000000 0 0 1
25.080562 28.862395 -9.727792 39.455068 0.855392 1.819919 0.035992 -0.004746 -56195.600000 0 0 1
26.279362 29.104995 -10.593492 40.619302 0.836373 1.834647 0.027192 -0.010348 -1030370.000000 0 0 1
27.013062 30.254795 -10.266892 41.838586 0.841944 1.818721 0.040855 -0.015973 147330.000000 0 0 1
27.921162 30.470495 -11.345192 42.857389 0.829030 1.838709 0.048743 -0.020731 552994.000000 0 0 1
28.685662 31.852095 -11.343592 44.340729 0.837656 1.829500 0.051200 -0.023675 639431.000000 0 0 1
27.799262 32.847595 -11.848792 44.633590 0.868448 1.839486 0.061582 -0.024817 581050.000000 0 0 1
28.380562 -33.999776 -11.430292 45.739399 -0.875236 1.823374 0.055895 -0.019530 241899.000000 0 0 1
27.568562 -32.705376 -11.735192 44.355180 -0.870417 1.838558 0.053483 -0.011012 731622.000000 0 0 1
26.391362 -32.612076 -10.913592 43.349256 -0.890440 1.825294 0.067106 -0.021625 857272.000000 0 0 1
25.282462 -31.834976 -11.382592 42.216490 -0.899619 1.843799 0.065589 -0.025292 740921.000000 0 0 1
25.348162 -30.321676 -11.052592 41.037704 -0.874501 1.843491 0.057373 -0.017147 -65681.400000 0 0 1
26.288262 -29.623876 -11.853092 41.341777 -0.844986 1.861587 0.057962 -0.020710 -63965.000000 0 0 1
26.611562 -28.384876 -11.322792 40.522612 -0.817631 1.853985 0.054466 -0.026068 498702.000000 0 0 1
27.501662 -27.550576 -12.356392 40.841842 -0.786287 1.878155 0.049696 -0.022554 825823.000000 0 0 1
28.799462 -27.965776 -12.741892 42.117092 -0.770713 1.878147 0.034183 -0.017704 33840.300000 0 0 1
28.859262 -29.072576 -13.637792 43.174774 -0.789080 1.892174 0.046216 -0.019824 302467.000000 0 0 1
30.284262 -29.663276 -13.923392 44.619585 -0.775040 1.888143 0.046117 -0.021028 649354.000000 0 0 1
30.701362 -30.591276 -12.951492 45.234290 -0.783602 1.861180 0.048643 -0.020244 -109135.000000 0 0 1
31.858162 -31.248676 -13.417592 46.598863 -0.775740 1.862869 0.051869 -0.023702 -219205.000000 0 0 1
32.414162 -32.244876 -12.361792 47.362684 -0.782780 1.834857 0.049843 -0.020060 275254.000000 0 0 1
33.587262 -32.807376 -12.953592 48.705479 -0.773652 1.839993 0.042689 -0.022743 630293.000000 0 0 1
34.398962 -33.690076 -12.152392 49.658740 -0.774987 1.818025 0.043680 -0.016136 428585.000000 0 0 1
33.728162 33.078295 -11.546192 48.632058 0.775671 1.810505 0.036029 -0.019984 338880.000000 0 0 1
32.791162 33.451895 -10.523392 48.010743 0.795372 1.791779 0.037873 -0.021239 294097.000000 0 0 1
32.265662 32.297195 -9.839792 46.701213 0.785887 1.783084 0.043604 -0.024560 -186738.000000 0 0 1
31.557362 32.780295 -8.566592 46.301203 0.804404 1.756887 0.033201 -0.016879 480405.000000 0 0 1
30.521162 33.751795 -8.850392 46.357896 0.835620 1.762890 0.036258 -0.018365 286120.000000 0 0 1
29.758762 33.977295 -7.693192 45.817308 0.851489 1.739506 0.043531 -0.012620 317912.000000 0 0 1
28.764562 -32.945276 -7.743092 44.415614 -0.853043 1.746024 0.043594 -0.020889 -98340.800000 0 0 1
29.522462 -31.756776 -7.702692 44.038620 -0.821843 1.746608 0.028350 -0.020139 454341.000000 0 0 1
28.804762 -30.575876 -8.114792 42.783740 -0.815216 1.761622 0.033522 -0.019495 372409.000000 0 0 1
27.597662 -30.096576 -7.283292 41.478684 -0.828684 1.747303 0.033435 -0.020944 521414.000000 0 0 1
26.889862 -28.958176 -7.822292 40.284351 -0.822416 1.766215 0.038556 -0.033771 -388612.000000 0 0 1
25.875662 -28.506776 -7.016692 39.133364 -0.833742 1.751073 0.040348 -0.032487 -951630.000000 0 0 1
24.876962 -27.593876 -7.689692 37.939644 -0.837131 1.774893 0.084132 -0.039004 136123.000000 0 0 1
23.868962 -28.224876 -8.516392 37.932834 -0.868821 1.797239 0.094266 -0.035347 433872.000000 0 0 1
22.980262 -27.326176 -9.080592 36.841139 -0.871573 1.819843 0.112839 -0.034387 -399175.000000 0 0 1
21.764462 -27.948876 -9.798292 36.753748 -0.909164 1.840653 0.106633 -0.031217 -128083.000000 0 0 1
22.078562 -28.761476 -10.921592 37.867751 -0.916099 1.863366 0.110229 -0.030333 -336374.000000 0 0 1
20.991762 -29.517176 -11.393192 37.970022 -0.952612 1.875549 0.095197 -0.031669 -126885.000000 0 0 1
20.614162 -30.774976 -10.585092 38.523850 -0.980603 1.849144 0.090579 -0.031460 -372775.000000 0 0 1
21.602862 -31.739476 -10.502992 39.804407 -0.973189 1.837823 0.075443 -0.020028 -487882.000000 0 0 1
21.080262 -32.983176 -10.076392 40.420305 -1.002106 1.822744 0.059787 -0.018661 -137650.000000 0 0 1
22.122962 33.998395 -10.143992 41.811684 0.993925 1.815853 0.055261 -0.013757 267105.000000 0 0 1
23.212062 -33.927676 -9.226092 42.130842 -0.970778 1.791572 0.051286 -0.010637 146295.000000 0 0 1
24.245062 33.242295 -9.555692 42.239608 0.940647 1.798998 0.046262 -0.011701 -865034.000000 0 0 1
25.469362 33.518795 -8.712692 42.989639 0.921019 1.774880 0.039943 -0.012424 -1032410.000000 0 0 1
25.443762 33.241895 -7.330692 42.498796 0.917504 1.744155 0.034181 -0.023785 162504.000000 0 0 1
25.845962 31.883095 -7.108192 41.654195 0.889596 1.742283 0.034520 -0.015560 -203672.000000 0 0 1
25.794262 31.531395 -5.600792 41.121062 0.885146 1.707424 0.033070 -0.007957 -44910.200000 0 0 1
26.996562 31.985195 -4.947192 42.146670 0.869777 1.688448 0.040607 -0.009131 1496710.000000 0 0 1
28.049062 31.007995 -4.723392 42.077976 0.835459 1.683287 0.060162 -0.007805 711754.000000 0 0 1
27.772862 29.950295 -3.674992 41.010458 0.823102 1.660528 0.065654 -0.001151 -534946.000000 0 0 1
27.422662 30.450195 -2.395192 41.048188 0.837664 1.629180 0.066938 -0.003923 129732.000000 0 0 1
27.226262 29.415895 -1.407192 40.106663 0.824036 1.605890 0.057023 0.003980 -289951.000000 0 0 1
25.825462 28.770695 -1.359092 38.685327 0.839292 1.605936 0.034953 0.010315 -207240.000000 0 0 1
24.805662 29.582595 -0.831292 38.615306 0.873004 1.592326 0.037253 0.000673 -1471600.000000 0 0 1
23.597562 29.053195 -1.208292 37.448539 0.888649 1.603067 0.040089 0.011923 -378063.000000 0 0 1
22.379062 29.721895 -0.475692 37.208061 0.925411 1.583581 0.048580 0.004893 467814.000000 0 0 1
22.183562 29.348995 0.848208 36.799367 0.923559 1.547745 0.057190 -0.015684 -268303.000000 0 0 1
21.002062 29.829595 1.425808 36.509236 0.957345 1.531733 0.048567 -0.022921 -357248.000000 0 0 1
20.396162 28.883895 2.453708 35.444372 0.955959 1.501514 0.060486 -0.029185 -318273.000000 0 0 1
19.750362 27.747895 1.884208 34.111182 0.952209 1.515531 0.080653 -0.024580 176751.000000 0 0 1
19.132062 27.023295 2.894508 33.236613 0.954732 1.483598 0.112862 -0.028126 -152535.000000 0 0 1
18.355662 25.785195 2.321808 31.736374 0.952149 1.497572 0.101178 -0.018201 119657.000000 0 0 1
19.091762 24.642795 1.855608 31.228289 0.911649 1.511341 0.099985 -0.020530 90645.900000 0 0 1
19.781562 23.982095 2.908508 31.223557 0.881087 1.477510 0.100689 -0.013633 -88525.300000 0 0 1
21.104762 23.322695 2.474508 31.551265 0.835279 1.492288 0.107643 -0.016007 -212056.000000 0 0 1
20.884062 22.230895 1.600308 30.543702 0.816626 1.518378 0.106881 -0.014721 488545.000000 0 0 1
22.080862 21.566995 1.206408 30.889402 0.773626 1.531731 0.084153 -0.015922 186877.000000 0 0 1
21.885362 20.540495 0.071308 30.014765 0.753710 1.568421 0.110808 -0.019053 -225484.000000 0 0 1
21.680762 21.078395 -1.203692 30.262238 0.771312 1.610582 0.079940 -0.009451 254224.000000 0 0 1
21.949662 20.154895 -2.191292 29.879914 0.742798 1.644199 0.120510 -0.025255 7681.170000 0 0 1
21.776062 20.622995 -3.663392 30.214653 0.758209 1.692341 0.103087 -0.014181 175757.000000 0 0 1
22.622162 21.760195 -3.863592 31.625870 0.765979 1.693268 0.096809 -0.007807 484766.000000 0 0 1
22.359362 22.404195 -5.117992 32.063732 0.786400 1.731101 0.073272 -0.008188 -484632.000000 0 0 1
23.393962 23.498695 -5.394892 33.594211 0.787632 1.732085 0.068346 0.002967 -253436.000000 0 0 1
23.303362 24.756095 -4.747192 34.328513 0.815617 1.709528 0.043210 0.008976 29863.000000 0 0 1
23.708762 24.738195 -3.357892 34.429045 0.806644 1.668482 0.059607 0.002113 -276851.000000 0 0 1
22.584762 24.431995 -2.366192 33.355550 0.824667 1.641794 0.055805 -0.004087 -1577890.000000 0 0 1
21.682262 25.493095 -2.119492 33.533724 0.866003 1.634043 0.061967 -0.000069 590785.000000 0 0 1
20.690762 25.175395 -1.146792 32.607105 0.882865 1.605974 0.075035 -0.005588 17046.000000 0 0 1
19.691562 24.063395 -1.496492 31.129473 0.884984 1.618888 0.101182 -0.021369 -1128820.000000 0 0 1
18.904962 24.515195 -2.632292 31.069621 0.913894 1.655620 0.070028 -0.010120 517167.000000 0 0 1
18.173862 23.455395 -3.248592 29.849593 0.911595 1.679844 0.071467 -0.017992 281402.000000 0 0 1
17.738862 23.790495 -4.686192 30.043557 0.930099 1.727416 0.064245 -0.020789 35865.100000 0 0 1
17.032762 22.734995 -5.314192 28.900444 0.927816 1.755728 0.065572 -0.032323 88632.800000 0 0 1
16.589862 23.199595 -6.550392 29.263499 0.950013 1.796551 0.065588 -0.033389 82406.400000 0 0 1
15.733462 22.206195 -7.414992 28.207075 0.954377 1.836799 0.082979 -0.032507 -375236.000000 0 0 1
16.388562 21.034995 -7.849192 27.796867 0.908924 1.857067 0.067835 -0.029314 -61312.900000 0 0 1
15.614062 20.144995 -8.645292 26.913953 0.911434 1.897814 0.087557 -0.032889 -397957.000000 0 0 1
16.278062 18.802595 -9.024192 26.456548 0.857238 1.918878 0.078604 -0.032543 -199162.000000 0 0 1
17.435462 18.928495 -9.811992 27.541940 0.826433 1.935055 0.087884 -0.027304 70257.200000 0 0 1
18.103062 17.712095 -10.045092 27.245973 0.774482 1.948387 0.089512 -0.029211 -266159.000000 0 0 1
19.575262 17.858895 -10.447892 28.483144 0.739580 1.946374 0.076566 -0.025981 -573122.000000 0 0 1
19.726562 18.536695 -11.666492 29.476319 0.754311 1.977726 0.084576 -0.029333 -83213.400000 0 0 1
21.059962 18.942595 -11.822592 30.693935 0.732517 1.966196 0.091876 -0.020199 -303551.000000 0 0 1
21.325262 19.171795 -13.314892 31.616624 0.732272 2.005494 0.094280 -0.025165 -130855.000000 0 0 1
21.208662 17.994795 -14.165892 31.213659 0.703602 2.041862 0.086673 -0.020687 311427.000000 0 0 1
21.365262 18.268095 -15.552892 32.126161 0.707411 2.076153 0.091117 -0.017966 -63195.600000 0 0 1
21.569462 17.160395 -16.556792 32.153511 0.672045 2.111722 0.080640 -0.015862 -523886.000000 0 0 1
22.734862 16.393695 -16.516092 32.533191 0.624735 2.103273 0.087063 -0.020992 -334397.000000 0 0 1
22.940562 15.537795 -17.633392 32.842488 0.595333 2.137564 0.100835 -0.025677 -272638.000000 0 0 1
23.722262 16.126395 -18.833692 34.314928 0.597040 2.151782 0.115271 -0.020578 -255358.000000 0 0 1
25.087862 16.250295 -18.520892 35.163850 0.574782 2.125513 0.127410 -0.018835 232786.000000 0 0 1
25.919062 16.770995 -19.564692 36.549162 0.574300 2.135657 0.134860 -0.020062 1670200.000000 0 0 1
27.433462 16.940195 -19.088592 37.469180 0.553189 2.105339 0.121569 -0.019199 1353090.000000 0 0 1
27.621662 17.988495 -18.152392 37.630460 0.577251 2.074172 0.118382 -0.016924 -272643.000000 0 0 1
29.001862 18.156995 -17.956792 38.642346 0.559363 2.054083 0.108679 -0.021382 -129607.000000 0 0 1
29.420862 19.487295 -17.240392 39.275602 0.585017 2.025236 0.116939 -0.019178 215947.000000 0 0 1
28.963262 19.584295 -15.860092 38.392157 0.594558 1.996660 0.108641 -0.019174 283705.000000 0 0 1
27.643462 20.071195 -15.722492 37.605992 0.628012 2.002132 0.093448 -0.018051 181159.000000 0 0 1
26.696862 19.353395 -14.732092 36.115245 0.627263 1.990970 0.092225 -0.022191 121359.000000 0 0 1
27.029962 19.548695 -13.370592 35.938045 0.626143 1.952008 0.092618 -0.026547 148918.000000 0 0 1
25.945462 19.164495 -12.564392 34.616598 0.636194 1.942237 0.090847 -0.030418 33399.300000 0 0 1
26.217762 19.581395 -11.118592 34.560457 0.641498 1.898336 0.098178 -0.028052 -70805.000000 0 0 1
26.278162 20.971995 -10.916492 35.348779 0.673567 1.884751 0.097141 -0.020355 2059.660000 0 0 1
26.611862 21.347895 -9.582392 35.436508 0.676078 1.844615 0.084020 -0.015914 25804.500000 0 0 1
25.527262 21.186695 -8.484192 34.241768 0.692746 1.821177 0.096650 -0.019410 -286410.000000 0 0 1
25.483362 19.836295 -7.940092 33.255457 0.661432 1.811886 0.113840 -0.030004 45184.100000 0 0 1
24.617662 19.660695 -6.865192 32.244427 0.673912 1.785350 0.107393 -0.031870 417942.000000 0 0 1
23.117062 19.340195 -7.170392 30.981547 0.696675 1.804355 0.090689 -0.034178 908457.000000 0 0 1
22.296662 20.456395 -7.571292 31.191821 0.742381 1.815979 0.088019 -0.022640 -261341.000000 0 0 1
20.964162 20.123095 -7.762792 30.078165 0.764931 1.831838 0.082355 -0.027749 -525124.000000 0 0 1
20.052362 21.420095 -7.773892 30.353766 0.818366 1.829792 0.062357 -0.024301 -161128.000000 0 0 1
20.196562 22.282295 -8.864092 31.352415 0.834459 1.857430 0.073500 -0.022694 -54438.900000 0 0 1
19.590362 21.878395 -10.050092 31.039504 0.840517 1.900522 0.076798 -0.026694 -495975.000000 0 0 1
18.174362 22.432495 -10.271192 30.643461 0.889879 1.912597 0.082646 -0.022132 -617667.000000 0 0 1
17.999962 23.830595 -10.237692 31.570655 0.923893 1.901045 0.073371 -0.023478 486275.000000 0 0 1
16.670662 24.250995 -10.539992 31.258810 0.968562 1.914721 0.078411 -0.023564 551819.000000 0 0 1
16.572462 25.766095 -10.251492 32.305282 0.999224 1.893711 0.067974 -0.017579 56692.400000 0 0 1
17.580162 26.541795 -10.856992 33.636339 0.985783 1.899457 0.107777 -0.019977 65069.500000 0 0 1
17.499162 27.878595 -10.394192 34.517763 1.010264 1.876669 0.102971 -0.026425 -683.155000 0 0 1
20.261562 28.701095 33.145745 48.300354 0.956088 0.814486 0.058700 -0.003985 -608262.000000 0 0 1
18.903762 28.833795 32.946678 47.688820 0.990487 0.808107 0.080151 -0.024800 -934972.000000 0 0 1
18.103762 27.662895 33.133067 46.805792 0.991305 0.784299 0.083157 -0.018845 -855938.000000 0 0 1
16.668062 28.078795 33.232970 46.590486 1.035083 0.776602 0.106808 -0.033839 -1282940.000000 0 0 1
16.202062 28.632095 32.042286 45.923979 1.055850 0.798580 0.122197 -0.034267 571814.000000 0 0 1
14.889362 29.236295 32.157369 45.940728 1.099755 0.795434 0.128311 -0.038361 640272.000000 0 0 1
14.227362 29.256795 30.745284 44.762154 1.118175 0.813638 0.135717 -0.042307 -105215.000000 0 0 1
13.765062 27.942995 30.574484 43.647303 1.113076 0.794713 0.118143 -0.047585 459308.000000 0 0 1
12.344762 27.895195 30.772494 43.329915 1.154163 0.781028 0.115148 -0.032045 169095.000000 0 0 1
11.742862 26.447995 30.652234 42.153894 1.152945 0.756634 0.083747 -0.036145 36837.200000 0 0 1
11.954262 25.598495 29.496264 40.843812 1.133903 0.763859 0.083034 -0.033483 -205255.000000 0 0 1
13.305862 25.347495 29.233454 40.916211 1.087398 0.774928 0.073336 -0.036411 -557637.000000 0 0 1
13.396862 24.501995 27.914084 39.484425 1.070439 0.785599 0.075950 -0.029649 -483406.000000 0 0 1
13.107262 25.362795 26.818954 39.170499 1.093806 0.816642 0.078819 -0.033636 130686.000000 0 0 1
12.992562 24.682795 25.614274 37.870016 1.086267 0.827968 0.085026 -0.033086 307050.000000 0 0 1
11.678562 23.861795 25.430044 36.775824 1.115644 0.807249 0.093417 -0.026374 -164564.000000 0 0 1
11.714762 23.257095 24.104854 35.484816 1.104188 0.823987 0.101480 -0.023477 -393797.000000 0 0 1
10.617362 22.519395 23.667764 34.351341 1.130227 0.810700 0.099497 -0.024267 -539963.000000 0 0 1
10.625862 22.165295 22.140474 33.081866 1.123771 0.837580 0.111326 -0.029109 -23722.400000 0 0 1
10.293462 23.248695 21.298474 33.167487 1.153984 0.873498 0.122471 -0.026192 172372.000000 0 0 1
10.490362 22.852195 19.934774 32.088405 1.140440 0.900465 0.125910 -0.021457 -578280.000000 0 0 1
10.331762 24.099595 18.931774 32.341118 1.165787 0.945450 0.113315 -0.021197 534596.000000 0 0 1
9.042562 24.684395 18.702574 32.262573 1.219651 0.952437 0.109954 -0.022206 789908.000000 0 0 1
8.397362 25.321595 19.814674 33.231314 1.250581 0.931956 0.103342 -0.027752 936402.000000 0 0 1
6.962962 25.974695 19.634574 33.296909 1.308887 0.940132 0.096831 -0.023619 1256340.000000 0 0 1
6.975562 27.077695 18.773874 33.679644 1.318666 0.979515 0.102570 -0.024827 -919681.000000 0 0 1
5.700262 27.310895 18.312174 33.372350 1.365033 0.989960 0.094427 -0.027976 -1122020.000000 0 0 1
5.701462 28.290395 17.095874 33.542839 1.371927 1.035992 0.107386 -0.029406 291556.000000 0 0 1
6.303762 27.579395 15.990774 32.497159 1.346089 1.056334 0.102574 -0.025727 964770.000000 0 0 1
7.429162 28.282295 15.395874 33.047143 1.313921 1.086172 0.091816 -0.026434 899956.000000 0 0 1
7.898862 27.669595 14.054374 32.023803 1.292722 1.116453 0.085740 -0.023278 -33789.600000 0 0 1
6.983662 27.840795 13.012974 31.515376 1.325025 1.145151 0.083637 -0.026594 -275113.000000 0 0 1
6.914662 26.738695 12.151874 30.173472 1.317739 1.156295 0.071053 -0.027390 -72941.800000 0 0 1
6.223562 26.865495 10.779874 29.609006 1.343155 1.198158 0.063161 -0.031388 58927.200000 0 0 1
6.903762 27.638595 9.753674 30.111261 1.326018 1.240925 0.050926 -0.023883 313789.000000 0 0 1
6.934162 29.034695 10.068974 31.503657 1.336364 1.245475 0.064151 -0.019808 -191502.000000 0 0 1
6.966662 29.854595 8.742874 31.878976 1.341546 1.292984 0.058239 -0.009288 -706753.000000 0 0 1
5.816862 29.796995 7.987274 31.392569 1.378005 1.313536 0.048242 -0.014928 -922859.000000 0 0 1
5.746862 28.618595 7.148774 30.052544 1.372623 1.330618 0.037077 -0.008731 -529268.000000 0 0 1
4.319062 28.350195 6.690074 29.447325 1.419612 1.341607 0.057767 -0.010383 -178211.000000 0 0 1
3.662062 29.386095 5.927474 30.200799 1.446817 1.373245 0.066114 -0.017389 479381.000000 0 0 1
2.257162 29.136795 5.873274 29.808438 1.493483 1.372465 0.054446 -0.016192 409422.000000 0 0 1
1.548262 30.144695 5.001274 30.595956 1.519480 1.406598 0.063176 -0.021712 -591930.000000 0 0 1
1.942262 30.068595 3.623674 30.348374 1.506292 1.451108 0.049702 -0.021604 215803.000000 0 0 1
1.022062 30.619095 2.677374 30.752918 1.537429 1.483625 0.051508 -0.031876 953637.000000 0 0 1
-0.252538 29.746095 2.413574 29.844921 -1.562307 1.489837 0.071818 -0.034496 404215.000000 0 0 1
0.184062 28.552695 1.838274 28.612402 1.564350 1.506505 0.079957 -0.031584 -435222.000000 0 0 1
-0.902838 27.782895 1.433774 27.834513 -1.538312 1.519263 0.092390 -0.039121 -195968.000000 0 0 1
-1.117938 27.807195 -0.106626 27.829863 -1.530615 1.574628 0.093467 -0.043163 21701.300000 0 0 1
-1.728438 29.002295 -0.545926 29.058883 -1.511270 1.589584 0.098464 -0.044805 -289824.000000 0 0 1
-1.532038 29.160195 -1.929426 29.264088 -1.518306 1.636776 0.089064 -0.041263 -926200.000000 0 0 1
-2.417138 30.146695 -2.637026 30.358190 -1.490788 1.657770 0.098298 -0.046277 473815.000000 0 0 1
-3.800238 29.811595 -2.853326 30.187986 -1.444005 1.665456 0.087695 -0.043377 871066.000000 0 0 1
-4.000938 28.841995 -3.900826 29.378302 -1.432957 1.703969 0.063580 -0.042649 -282509.000000 0 0 1
-5.521938 28.646495 -4.135326 29.465478 -1.380371 1.711606 0.067733 -0.031577 331731.000000 0 0 1
-6.087038 29.798995 -4.777926 30.787347 -1.369298 1.726617 0.063283 -0.031447 205370.000000 0 0 1
-6.807938 29.489595 -5.957726 30.846049 -1.343912 1.765162 0.058081 -0.029930 -110277.000000 0 0 1
-7.393638 30.717395 -6.661226 32.289258 -1.334591 1.778587 0.052442 -0.016581 -820068.000000 0 0 1
-8.419238 31.303095 -5.960626 32.959011 -1.308055 1.752647 0.041105 -0.017555 -787277.000000 0 0 1
-8.693938 32.548095 -6.565826 34.323070 -1.309780 1.763277 0.039071 -0.024411 1756.940000 0 0 1
-9.851838 33.317395 -5.888926 35.238998 -1.283292 1.738698 0.044824 -0.023369 505158.000000 0 0 1
-11.146738 32.858095 -6.266326 35.258631 -1.243740 1.749470 0.054945 -0.022024 21497.800000 0 0 1
-12.122238 33.688795 -5.678326 36.250889 -1.225391 1.728084 0.058193 -0.021713 416294.000000 0 0 1
-13.603438 33.275395 -5.914926 36.432016 -1.182715 1.733873 0.088049 -0.029200 451117.000000 0 0 1
-13.934438 33.569395 -7.265426 37.065608 -1.177346 1.768089 0.096991 -0.030735 466011.000000 0 0 1
-15.290538 33.199795 -7.530926 37.319456 -1.139194 1.773988 0.113421 -0.035885 -94909.100000 0 0 1
-15.708538 33.613895 -8.977326 38.173872 -1.133631 1.808189 0.145645 -0.038698 1049650.000000 0 0 1
-17.076438 33.397395 -9.372826 38.663169 -1.098141 1.815658 0.177330 -0.042119 1000280.000000 0 0 1
-18.028938 -33.811076 -8.774026 39.309223 1.080923 1.795898 0.177986 -0.038847 -544900.000000 0 0 1
-19.489438 33.787095 -8.945326 40.017807 -1.047587 1.796235 0.165829 -0.036890 129039.000000 0 0 1
-20.014938 32.869395 -7.962826 39.298874 -1.023841 1.774831 0.151447 -0.034098 255461.000000 0 0 1
-20.121238 33.429295 -6.630526 39.577088 -1.028978 1.739125 0.128556 -0.029990 -307251.000000 0 0 1
-21.170338 32.680995 -5.742726 39.359999 -0.995978 1.717222 0.121462 -0.024291 -494296.000000 0 0 1
-20.925538 32.811095 -4.298926 39.152610 -1.003075 1.680817 0.112567 -0.025666 -146789.000000 0 0 1
-22.081438 32.597195 -3.563726 39.533115 -0.975398 1.661064 0.112796 -0.022271 -793096.000000 0 0 1
-23.117438 33.714795 -3.542826 41.032365 -0.969748 1.657246 0.120664 -0.014006 -471031.000000 0 0 1
-23.776138 33.780595 -4.813226 41.588466 -0.957498 1.686791 0.132120 -0.025952 -264574.000000 0 0 1
-24.828538 -33.378376 -4.868626 41.884076 0.931242 1.687300 0.134669 -0.029403 -423362.000000 0 0 1
-25.340908 -33.275176 -6.269926 42.293155 0.919940 1.719594 0.158557 -0.003739 -540566.000000 0 0 1
-24.480038 -32.625876 -7.164626 41.413185 0.927087 1.744675 0.161061 -0.004092 -174534.000000 0 0 1
-24.749338 -32.767476 -8.557826 41.946080 0.923911 1.776259 0.123894 -0.011646 293505.000000 0 0 1
-25.924328 -31.958076 -9.221726 42.171431 0.889265 1.791250 0.111436 -0.009775 321989.000000 0 0 1
-27.216178 -32.405376 -8.787126 43.220855 0.872215 1.775531 0.120017 -0.007870 511750.000000 0 0 1
-28.248988 -31.629876 -9.392226 43.435795 0.841800 1.788750 0.062888 -0.008979 148870.000000 0 0 1
-28.424578 -30.107176 -9.142326 42.402604 0.814137 1.788110 0.039976 0.001917 -909046.000000 0 0 1
-27.529728 -29.328076 -9.887626 41.422061 0.817016 1.811828 0.043574 0.006249 -354644.000000 0 0 1
-27.831138 -29.182476 -11.263926 41.869621 0.809096 1.843176 0.028752 -0.000482 367084.000000 0 0 1
-26.761488 -28.434476 -12.171626 40.900429 0.815699 1.872965 0.059674 0.004096 -494847.000000 0 0 1
-25.673258 -29.213476 -12.469126 40.841430 0.849809 1.881056 0.074170 -0.007614 -1225080.000000 0 0 1
-24.913438 -28.583476 -13.451526 40.232301 0.853894 1.911708 0.072739 -0.007231 426553.000000 0 0 1
-23.483838 -29.257776 -13.503326 39.872897 0.894440 1.916288 0.096145 -0.025818 751560.000000 0 0 1
-23.544938 -30.439676 -14.315426 41.059340 0.912427 1.926929 0.103740 -0.032947 1163.280000 0 0 1
-23.549438 -31.589476 -13.519426 41.656283 0.930192 1.901329 0.097936 -0.032339 60737.300000 0 0 1
-23.826138 -32.862976 -14.367926 43.059230 0.943479 1.910999 0.102222 -0.029482 -263581.000000 0 0 1
-24.538838 -33.779976 -13.628026 43.919978 0.942550 1.886297 0.092714 -0.039228 -362130.000000 0 0 1
-24.434738 33.083995 -14.216626 43.516889 -0.934653 1.903598 0.088909 -0.036294 -423040.000000 0 0 1
-24.987438 31.900595 -13.324926 42.656461 -0.906327 1.888491 0.077384 -0.033776 118055.000000 0 0 1
-24.265538 31.347195 -12.201426 41.476955 -0.912055 1.869387 0.089153 -0.033596 229479.000000 0 0 1
-23.882338 32.307095 -11.216926 41.712515 -0.934224 1.843058 0.126632 -0.036867 511890.000000 0 0 1
-22.996738 31.679795 -10.058526 40.418230 -0.942891 1.822301 0.129036 -0.030993 455775.000000 0 0 1
-23.763738 30.848195 -9.185326 40.008707 -0.914401 1.802446 0.123976 -0.026230 112578.000000 0 0 1
-23.106038 30.347795 -8.053026 38.983700 -0.920055 1.778869 0.131088 -0.021363 -169972.000000 0 0 1
-24.004938 29.380495 -7.235126 38.623796 -0.885753 1.759233 0.116793 -0.020740 48601.200000 0 0 1
-24.252338 28.235795 -8.037326 38.079320 -0.861145 1.783464 0.110232 -0.001791 -45172.800000 0 0 1
-24.478238 26.986795 -7.386426 37.175671 -0.834103 1.770817 0.082888 -0.011743 -199918.000000 0 0 1
-23.425338 26.343295 -6.449826 35.837354 -0.843962 1.751757 0.076487 -0.011391 -495241.000000 0 0 1
-23.451738 26.716495 -5.093426 35.912367 -0.850383 1.713105 0.082285 -0.014147 931702.000000 0 0 1
-22.355138 26.300395 -4.241826 34.777235 -0.866307 1.693072 0.075069 -0.010323 1075170.000000 0 0 1
-20.984738 27.024195 -4.368526 34.492758 -0.910539 1.697788 0.064729 -0.024641 122858.000000 0 0 1
-20.347938 26.970495 -5.591326 34.244841 -0.924452 1.734806 0.075543 -0.022121 31831.800000 0 0 1
-19.049338 27.545395 -5.545826 33.946756 -0.965756 1.734900 0.077706 -0.022717 343554.000000 0 0 1
-18.253838 27.363495 -6.878326 33.604685 -0.982503 1.776937 0.089395 -0.026819 -440503.000000 0 0 1
-18.531938 28.114295 -8.099326 34.633010 -0.988006 1.806844 0.105392 -0.034629 76200.300000 0 0 1
-18.313938 29.515695 -8.011926 35.647827 -1.015453 1.797485 0.114738 -0.036817 -130414.000000 0 0 1
-18.288938 30.209495 -9.335626 36.527425 -1.026413 1.829242 0.126516 -0.037288 -240986.000000 0 0 1
-17.109938 29.970095 -10.060526 35.946777 -1.052049 1.854458 0.116735 -0.039347 -183483.000000 0 0 1
-17.178038 30.578295 -11.340126 36.860759 -1.058960 1.883516 0.138413 -0.044125 427346.000000 0 0 1
-15.778338 31.155795 -11.760526 36.850366 -1.102015 1.895621 0.139265 -0.047485 693536.000000 0 0 1
-15.698638 31.943395 -12.932026 37.869051 -1.114011 1.919302 0.143197 -0.049297 -320659.000000 0 0 1
-15.953638 31.155095 -14.080826 37.728347 -1.097538 1.953269 0.139766 -0.053259 -200030.000000 0 0 1
-15.293938 31.700495 -15.360826 38.402876 -1.121286 1.982304 0.175971 -0.058227 1110580.000000 0 0 1
-13.859738 31.533995 -15.352926 37.712034 -1.156694 1.990083 0.156426 -0.062407 619928.000000 0 0 1
-13.359938 31.944995 -16.579626 38.390815 -1.174685 2.017355 0.151246 -0.066952 -1134820.000000 0 0 1
-11.865538 31.903195 -16.740426 37.932133 -1.214726 2.027872 0.151148 -0.067348 -981088.000000 0 0 1
-11.387638 30.546995 -16.962726 36.749575 -1.213964 2.050567 0.144205 -0.075250 1009010.000000 0 0 1
-10.060838 30.469595 -17.538426 36.567924 -1.251875 2.071009 0.119026 -0.065766 1115680.000000 0 0 1
-9.978738 30.770695 -19.067926 37.549923 -1.257204 2.103428 0.114732 -0.072803 -142263.000000 0 0 1
-10.699738 29.768395 -19.768226 37.301803 -1.225743 2.129342 0.119752 -0.072797 253221.000000 0 0 1
-10.506238 29.860895 -21.208926 38.103446 -1.232484 2.161101 0.108585 -0.074497 -356749.000000 0 0 1
-11.767938 29.370395 -21.928826 38.496466 -1.189710 2.176855 0.113086 -0.058407 169400.000000 0 0 1
-12.815238 30.317395 -21.947326 39.560838 -1.170873 2.158888 0.128575 -0.059539 11406.500000 0 0 1
-13.924938 30.043895 -21.120826 39.276314 -1.136784 2.138562 0.133281 -0.058248 146119.000000 0 0 1
-14.962438 31.189995 -21.068726 40.504093 -1.123505 2.117838 0.173532 -0.060235 160190.000000 0 0 1
-15.742638 31.356295 -22.236326 41.539163 -1.105505 2.135671 0.149738 -0.050416 -44719.900000 0 0 1
-16.300838 32.679095 -22.277826 42.777823 -1.108097 2.118560 0.139648 -0.039418 391681.000000 0 0 1
-16.870838 33.035395 -23.675526 44.005602 -1.098634 2.138873 0.119362 -0.025943 649844.000000 0 0 1
-15.817838 33.032495 -24.662026 44.153882 -1.124206 2.163430 0.131464 -0.023059 421770.000000 0 0 1
-16.219538 32.944495 -26.020626 45.005401 -1.113304 2.187276 0.135545 -0.017939 81694.300000 0 0 1
-16.676438 -33.828476 -26.751326 46.239624 1.112788 2.187730 0.116058 -0.001688 680133.000000 0 0 1
-17.995938 -33.371176 -26.456426 46.232366 1.076232 2.180042 0.104605 0.002341 196450.000000 0 0 1
-18.369438 -32.403976 -27.407526 46.245285 1.055080 2.205148 0.101631 0.005606 -109596.000000 0 0 1
-19.807538 -31.930876 -27.165826 46.367030 1.015565 2.196770 0.086285 -0.003077 413329.000000 0 0 1
-20.816438 -32.916976 -27.309626 47.567500 1.006899 2.182330 0.064288 0.000156 410704.000000 0 0 1
-22.182638 -32.459276 -27.235626 47.827328 0.971299 2.176642 0.054179 0.001192 1291970.000000 0 0 1
-23.160238 -33.620476 -27.413726 49.175658 0.967577 2.162126 0.022146 0.019057 -259765.000000 0 0 1
-23.254738 33.591795 -26.310926 48.594818 -0.965274 2.142939 0.052923 0.004668 -35571.200000 0 0 1
-24.364638 32.669595 -26.286626 48.496647 -0.929995 2.143647 0.028055 0.006338 706584.000000 0 0 1
-24.162138 31.361295 -27.060126 47.954042 -0.914339 2.170373 0.036381 0.004230 89335.600000 0 0 1
-23.218138 30.454395 -26.542126 46.594383 -0.919412 2.176867 0.040772 -0.019760 -426197.000000 0 0 1
-23.832438 29.610595 -25.630826 45.844429 -0.893098 2.164075 0.029045 -0.013336 -117955.000000 0 0 1
31.653912 9.731395 -26.533332 42.434514 0.298260 2.246283 0.027152 -0.000631 -40676.100000 0 0 1
31.442622 8.329995 -26.310692 41.836346 0.258977 2.250928 0.021464 -0.003111 -1217420.000000 0 0 1
30.134432 7.965395 -26.459322 40.885539 0.258418 2.274644 0.043168 -0.014898 -1160390.000000 0 0 1
29.922262 6.550595 -25.930022 40.132507 0.215520 2.273273 0.037723 -0.021659 -72394.800000 0 0 1
30.151472 6.367895 -24.528092 39.386402 0.208138 2.243056 0.021373 0.005748 307028.000000 0 0 1
29.424892 5.258895 -23.975792 38.318649 0.176855 2.246819 0.038915 0.004077 229872.000000 0 0 1
29.442152 5.217095 -22.422292 37.374023 0.175378 2.214226 0.045432 0.005220 486660.000000 0 0 1
30.712062 4.879795 -21.868092 38.016531 0.157571 2.183677 0.042549 0.001822 423280.000000 0 0 1
30.563162 4.726295 -20.457192 37.080203 0.153425 2.155199 0.047832 0.002019 -501641.000000 0 0 1
31.806192 4.499895 -19.606092 37.633520 0.140546 2.118788 0.036670 0.001736 -723643.000000 0 0 1
32.416362 3.290895 -19.816992 38.136121 0.101173 2.117224 0.042790 0.004265 720423.000000 0 0 1
33.393752 2.979195 -18.773592 38.424811 0.088979 2.081258 0.046534 -0.000539 826395.000000 0 0 1
33.933602 1.522095 -18.769092 38.808311 0.044825 2.075600 0.062881 -0.010645 341392.000000 0 0 1
33.008612 0.634195 -18.131392 37.665874 0.019211 2.073019 0.065515 -0.012021 202231.000000 0 0 1
33.066222 -0.718405 -18.605692 37.948161 -0.021723 2.083221 0.055375 -0.014126 473285.000000 0 0 1
31.972482 -1.652005 -17.954392 36.705980 -0.051624 2.081901 0.062907 -0.015912 670905.000000 0 0 1
32.162552 -1.858105 -16.594892 36.239106 -0.057708 2.046459 0.085264 -0.016328 1340670.000000 0 0 1
30.857782 -1.795205 -15.921692 34.769610 -0.058111 2.046450 0.078238 -0.014964 1508500.000000 0 0 1
30.615782 -2.367305 -14.479592 33.949799 -0.077169 2.011416 0.088060 -0.015768 -162853.000000 0 0 1
30.300822 -3.738405 -14.421092 33.765121 -0.122756 2.012080 0.077842 -0.030247 607872.000000 0 0 1
29.396032 -3.958105 -13.329292 32.518662 -0.133843 1.993137 0.079060 -0.019854 178448.000000 0 0 1
29.113112 -5.479805 -12.985492 32.345395 -0.186048 1.983910 0.073278 -0.017263 -13427.800000 0 0 1
28.480772 -6.110705 -14.090392 32.357909 -0.211351 2.021339 0.058737 -0.016229 514157.000000 0 0 1
28.089972 -7.443905 -13.727092 32.138627 -0.259048 2.012103 0.058066 -0.021148 -273926.000000 0 0 1
27.462772 -8.280805 -14.857192 32.303433 -0.292858 2.048708 0.048857 -0.010416 1243490.000000 0 0 1
26.101272 -7.926405 -15.221792 31.237914 -0.294828 2.079775 0.049807 -0.012657 1025240.000000 0 0 1
25.717372 -8.537405 -16.402892 31.675312 -0.320523 2.115126 0.047911 -0.012482 -192515.000000 0 0 1
24.319172 -8.120205 -16.875292 30.694224 -0.322262 2.152906 0.054607 -0.010415 -206595.000000 0 0 1
24.326472 -6.766405 -17.333292 30.626859 -0.271292 2.172382 0.049704 -0.007351 483668.000000 0 0 1
23.088672 -6.401105 -17.947792 29.936336 -0.270448 2.213713 0.074016 -0.017482 478404.000000 0 0 1
22.760872 -6.836305 -19.479492 30.728537 -0.291781 2.257410 0.059313 -0.008387 -57809.900000 0 0 1
23.576672 -6.123305 -20.379892 31.759949 -0.254105 2.267490 0.057335 -0.014090 320165.000000 0 0 1
23.469672 -6.641205 -21.692792 32.642126 -0.275760 2.297707 0.079804 -0.013287 160576.000000 0 0 1
24.280972 -5.774505 -22.711192 33.744759 -0.233483 2.309093 0.083293 -0.009763 213602.000000 0 0 1
24.081272 -6.370605 -23.956692 34.560315 -0.258621 2.336695 0.098925 -0.018763 339423.000000 0 0 1
24.480472 -5.413905 -24.949192 35.370413 -0.217649 2.353740 0.088749 -0.023194 -117399.000000 0 0 1
24.367272 -5.941305 -26.419282 36.428581 -0.239157 2.382172 0.114214 -0.026218 151760.000000 0 0 1
23.056472 -6.333005 -26.799062 35.915145 -0.268063 2.413098 0.126376 -0.018325 -19185.300000 0 0 1
22.873072 -6.489105 -28.237432 36.913934 -0.276437 2.441765 0.115617 -0.022260 378938.000000 0 0 1
21.452172 -6.986805 -28.612032 36.437063 -0.314858 2.473889 0.113608 -0.031284 395382.000000 0 0 1
21.302272 -8.344005 -28.260742 36.360401 -0.373327 2.461063 0.117516 -0.025916 254089.000000 0 0 1
19.966272 -8.779205 -28.424292 35.828297 -0.414257 2.487085 0.114887 -0.028479 47800.300000 0 0 1
19.857472 -10.245505 -27.929652 35.768073 -0.476328 2.466828 0.123832 -0.011483 217592.000000 0 0 1
18.503372 -10.667705 -27.828732 35.080095 -0.522982 2.486992 0.139874 -0.011124 562057.000000 0 0 1
18.374572 -11.880205 -27.104202 34.833920 -0.573951 2.462428 0.133449 -0.017688 -18332.900000 0 0 1
18.782672 -13.248705 -27.814602 36.082808 -0.614320 2.450978 0.109809 0.000948 -185850.000000 0 0 1
17.893172 -13.544105 -28.868402 36.564915 -0.647930 2.480808 0.100688 -0.003378 211412.000000 0 0 1
18.175372 -14.777805 -29.556592 37.713656 -0.682658 2.471414 0.083680 -0.007619 130603.000000 0 0 1
17.067272 -15.089505 -30.636582 38.178333 -0.723972 2.502203 0.063713 -0.006837 127704.000000 0 0 1
15.883872 -15.445105 -29.969422 37.269491 -0.771394 2.505003 0.070377 -0.008318 -11749.000000 0 0 1
14.937372 -15.981505 -30.893552 37.854262 -0.819155 2.525458 0.072145 -0.017032 802036.000000 0 0 1
13.604372 -16.445405 -30.185892 36.969154 -0.879662 2.526146 0.085801 -0.022194 692522.000000 0 0 1
13.730272 -17.729905 -29.663492 37.185920 -0.911853 2.494281 0.079729 -0.022367 337714.000000 0 0 1
12.755572 -17.949305 -28.634342 36.122122 -0.952962 2.486037 0.079548 -0.025033 445569.000000 0 0 1
12.888472 -19.339105 -27.939202 36.341611 -0.982946 2.447749 0.086334 -0.022240 713048.000000 0 0 1
14.028472 -19.457005 -27.076662 36.173453 -0.946116 2.416628 0.085428 -0.018677 519055.000000 0 0 1
13.785372 -20.542105 -26.200952 36.034767 -0.979745 2.384888 0.093883 -0.017141 380126.000000 0 0 1
14.850172 -20.577305 -25.073362 35.673892 -0.945670 2.350191 0.076752 -0.009862 -514700.000000 0 0 1
16.142672 -20.896205 -25.445772 36.670486 -0.913039 2.337692 0.080723 -0.008611 -341891.000000 0 0 1
17.036872 -20.902605 -24.316992 36.311018 -0.886940 2.304583 0.079279 0.007405 131582.000000 0 0 1
18.476572 -21.302505 -24.673292 37.469345 -0.856320 2.289611 0.078236 0.013630 -324457.000000 0 0 1
18.814872 -22.678505 -24.886392 38.570021 -0.878245 2.272116 0.101691 -0.006485 221304.000000 0 0 1
18.596272 -23.650005 -23.843192 38.388044 -0.904458 2.240954 0.098018 -0.022173 -511906.000000 0 0 1
19.454772 -24.928505 -24.066592 39.738135 -0.908107 2.221353 0.087257 -0.026930 -654306.000000 0 0 1
20.761672 -24.588305 -23.714492 39.975104 -0.869579 2.205863 0.110557 -0.029020 -339056.000000 0 0 1
21.555572 -25.703805 -23.274692 40.829396 -0.872950 2.177360 0.121383 -0.037904 123736.000000 0 0 1
21.507272 -26.123355 -21.785692 40.244364 -0.882011 2.142821 0.129473 -0.038014 -1008420.000000 0 0 1
20.241472 -26.537065 -21.370792 39.631348 -0.919177 2.140330 0.106684 -0.032953 -430948.000000 0 0 1
20.136272 -26.709405 -19.950692 38.947296 -0.924803 2.108597 0.090658 -0.027221 -132336.000000 0 0 1
18.754272 -27.193145 -19.456592 38.337303 -0.967038 2.103090 0.076896 -0.020948 -532790.000000 0 0 1
18.475372 -28.488505 -19.967692 39.390900 -0.995462 2.102394 0.073576 -0.023258 -46603.000000 0 0 1
17.298172 -29.084365 -19.485992 39.049084 -1.034240 2.093256 0.065129 -0.007702 752229.000000 0 0 1
15.899872 -28.482085 -19.851792 38.185452 -1.061648 2.117505 0.058716 -0.014743 264936.000000 0 0 1
15.304072 -27.556765 -18.955792 36.781952 -1.063843 2.112219 0.059219 -0.007812 -564847.000000 0 0 1
14.093272 -27.051885 -19.405792 36.152587 -1.090512 2.137406 0.048021 -0.000946 -446439.000000 0 0 1
13.285372 -26.279555 -18.360092 34.701716 -1.102726 2.128316 0.037870 -0.006572 -573260.000000 0 0 1
12.481872 -27.024885 -17.504292 34.533198 -1.138119 2.102361 0.029738 -0.002960 -246991.000000 0 0 1
11.578172 -26.108175 -16.910392 33.191147 -1.153387 2.105383 0.032371 -0.011085 -161321.000000 0 0 1
10.087572 -26.240975 -17.208092 32.961588 -1.203792 2.120067 0.041278 -0.010435 -651954.000000 0 0 1
9.407472 -27.304385 -16.542092 33.281688 -1.238993 2.090972 0.056423 -0.003588 865722.000000 0 0 1
7.985172 -27.065275 -16.543192 32.710385 -1.283902 2.101044 0.057260 0.005606 1248180.000000 0 0 1
7.172572 -27.765685 -17.646692 33.671721 -1.317998 2.122431 0.059144 0.006715 -203784.000000 0 0 1
7.306972 -27.217115 -18.944792 33.956860 -1.308511 2.162659 0.061701 -0.001424 -251503.000000 0 0 1
6.445872 -27.872425 -19.825292 34.806085 -1.343528 2.176807 0.081604 -0.003091 -327177.000000 0 0 1
6.541672 -27.365505 -21.247692 35.258031 -1.336152 2.217594 0.067953 -0.011013 -49037.900000 0 0 1
5.724472 -26.222615 -21.398992 34.326549 -1.355865 2.243873 0.072747 -0.015405 174757.000000 0 0 1
5.823072 -25.642385 -22.687392 34.729783 -1.347496 2.282671 0.054994 -0.014783 782995.000000 0 0 1
4.492972 -24.881105 -23.074592 34.230001 -1.392144 2.310548 0.041706 -0.016280 1988970.000000 0 0 1
3.297272 -25.696615 -23.225792 34.794043 -1.443178 2.301672 0.039700 -0.010075 821033.000000 0 0 1
2.140272 -25.027605 -23.676592 34.518731 -1.485487 2.326644 0.035262 -0.014680 193129.000000 0 0 1
1.241672 -26.116445 -24.236692 35.651475 -1.523288 2.318318 0.015105 -0.014746 -1346.370000 0 0 1
1.934672 -26.766375 -25.350772 36.916709 -1.498642 2.327739 0.015989 -0.013498 264578.000000 0 0 1
1.061472 -27.453245 -26.217832 37.976073 -1.532151 2.332807 0.022453 -0.026826 -353677.000000 0 0 1
1.689972 -28.295645 -27.322552 39.370311 -1.511142 2.337811 0.018793 -0.024359 -610787.000000 0 0 1
2.300772 -27.527455 -28.303292 39.549092 -1.487409 2.368350 0.012696 -0.029778 127181.000000 0 0 1
2.864972 -28.332205 -29.380622 40.916291 -1.470018 2.371817 0.020563 -0.021975 673336.000000 0 0 1
4.312072 -28.916635 -29.319802 41.405513 -1.422766 2.357619 0.026813 -0.020561 224522.000000 0 0 1
4.519372 -29.845515 -28.269952 41.356616 -1.420513 2.323433 0.031070 -0.021940 -255932.000000 0 0 1
5.684872 -30.598045 -28.494522 42.195923 -1.387099 2.312155 0.048130 -0.016133 99.247700 0 0 1
5.958172 -31.758905 -27.508212 42.436182 -1.385346 2.276048 0.067991 -0.023934 427859.000000 0 0 1
4.865272 -32.678585 -27.422082 42.936364 -1.422999 2.263562 0.055182 -0.025560 437592.000000 0 0 1
5.295772 -33.893345 -26.868912 43.574562 -1.415801 2.235237 0.073253 -0.040790 -33018.400000 0 0 1
4.107472 33.283910 -26.488302 42.735467 1.448010 2.239310 0.105731 -0.044411 -84598.000000 0 0 1
3.383372 32.848859 -27.627122 43.055228 1.468160 2.267466 0.090457 -0.038764 -988261.000000 0 0 1
2.170672 32.337906 -27.252592 42.345670 1.503772 2.269956 0.051981 -0.032479 -1523760.000000 0 0 1
1.181772 32.405209 -28.392682 43.100331 1.534344 2.289963 0.071485 -0.023101 -878157.000000 0 0 1
1.199072 31.305847 -29.248542 42.859900 1.532513 2.321867 0.094231 -0.028878 -93225.000000 0 0 1
0.229972 31.599857 -30.212842 43.719786 1.563519 2.333746 0.086829 -0.028371 -236158.000000 0 0 1
0.030572 30.566767 -31.317452 43.761981 1.569796 2.368324 0.075437 -0.026024 -322977.000000 0 0 1
1.119172 30.304577 -32.148112 44.194129 1.533882 2.385365 0.092973 -0.028319 -74042.300000 0 0 1
0.655072 29.449077 -33.196532 44.381156 1.548556 2.415820 0.121607 -0.030897 -199494.000000 0 0 1
1.782272 29.084537 33.825426 44.645786 1.509594 0.711107 0.108801 -0.028560 -413703.000000 0 0 1
2.280472 30.113367 33.070417 44.784684 1.495211 0.740055 0.091406 -0.027075 65976.600000 0 0 1
3.307972 29.725907 32.145925 43.908231 1.459970 0.749373 0.060262 -0.025702 91592.300000 0 0 1
2.966272 28.733537 30.986064 42.362142 1.467927 0.750341 0.062567 -0.028198 -351274.000000 0 0 1
2.684872 27.400467 31.382294 41.747366 1.473122 0.720131 0.086456 -0.030413 267424.000000 0 0 1
3.865272 26.608907 31.493134 41.410044 1.426543 0.706684 0.072598 -0.024436 50359.100000 0 0 1
3.675372 25.164587 31.955514 40.840173 1.425768 0.672201 0.097726 -0.031170 -137282.000000 0 0 1
2.847372 24.468047 31.058054 39.640832 1.454946 0.670540 0.098873 -0.021463 81975.400000 0 0 1
2.781872 23.088937 31.328904 39.017151 1.450889 0.638565 0.084583 -0.013480 -333378.000000 0 0 1
1.970272 22.370467 30.310554 37.723328 1.482948 0.637651 0.075276 0.000622 183050.000000 0 0 1
0.560972 22.337967 30.489214 37.800683 1.545689 0.632456 0.080662 -0.014505 195970.000000 0 0 1
-0.126728 21.759467 29.375764 36.557161 -1.564972 0.637549 0.086634 -0.008933 1106410.000000 0 0 1
-1.598328 21.328767 29.772494 36.658865 -1.495998 0.622969 0.080628 -0.006856 692266.000000 0 0 1
-2.444928 22.475267 29.845234 37.441332 -1.462439 0.648286 0.091814 -0.015358 -664975.000000 0 0 1
-3.719428 21.955167 30.039274 37.392800 -1.402980 0.637907 0.062427 -0.022015 -811521.000000 0 0 1
-4.787028 22.978567 30.459024 38.453639 -1.365408 0.656559 0.039559 -0.030149 -69091.500000 0 0 1
-4.605728 23.553017 31.732304 39.785631 -1.377686 0.647520 0.055776 -0.030203 308992.000000 0 0 1
-5.623228 24.529467 31.922564 40.649300 -1.345446 0.667589 0.042440 -0.032872 -77577.900000 0 0 1
-5.753328 24.964607 33.368400 42.068783 -1.344292 0.654772 0.063959 -0.028548 83823.900000 0 0 1
-7.040928 25.448747 33.702476 42.814370 -1.300877 0.664579 0.046451 -0.022528 101791.000000 0 0 1
-7.047428 25.921717 -32.912462 42.483312 -1.305339 2.457061 0.052389 -0.020379 335736.000000 0 0 1
-8.425328 26.442667 -32.414442 42.671968 -1.262340 2.433524 0.081401 -0.011450 134273.000000 0 0 1
-8.894528 27.652737 -32.990332 43.956211 -1.259597 2.419656 0.071331 -0.018195 -337891.000000 0 0 1
-9.994928 28.262177 -32.373992 44.121702 -1.230873 2.394611 0.075103 -0.020261 -224206.000000 0 0 1
-9.858628 28.669227 -30.885942 43.278846 -1.239589 2.365491 0.081907 -0.015771 -493055.000000 0 0 1
-9.020328 29.758477 -30.647092 43.659793 -1.276482 2.348931 0.093962 -0.016730 -45218.000000 0 0 1
-9.028828 30.017207 -29.228852 42.858818 -1.278616 2.321263 0.110852 -0.020694 4991.140000 0 0 1
-8.379628 31.368377 -28.814902 43.410734 -1.309756 2.296649 0.104511 -0.023120 1098520.000000 0 0 1
-6.950328 31.356427 -29.009152 43.278903 -1.352667 2.305388 0.063124 -0.017412 1035510.000000 0 0 1
-6.387128 32.671127 -28.692482 43.948339 -1.377734 2.282161 0.067867 -0.010459 442655.000000 0 0 1
-4.838728 32.683910 -28.553732 43.668832 -1.423818 2.283484 0.070785 -0.013414 26728.900000 0 0 1
-4.247228 33.923048 -28.209692 44.323796 -1.446243 2.260678 0.067610 -0.017904 -43844.100000 0 0 1
-4.195928 -33.039345 -29.121382 44.240920 1.444475 2.289282 0.072048 -0.016223 43662.800000 0 0 1
-3.213728 -33.265615 -30.327762 45.129839 1.474487 2.307718 0.072011 -0.025828 -716.405000 0 0 1
-3.647028 33.774735 -31.195252 46.121332 -1.463232 2.313624 0.066813 -0.017934 636178.000000 0 0 1
-4.678428 -33.959915 -32.146522 46.995344 1.433895 2.324078 0.082853 -0.016964 551534.000000 0 0 1
-4.253228 -32.905395 -33.164682 46.912164 1.442253 2.355977 0.054469 -0.018028 -359999.000000 0 0 1
-4.191928 -31.534425 -32.588612 45.541298 1.438639 2.368256 0.048838 -0.020791 -5770.610000 0 0 1
-3.577928 -30.726625 -33.589452 45.663753 1.454874 2.397322 0.032218 -0.026106 2719.070000 0 0 1
32.660832 17.922895 12.923274 39.433123 0.501889 1.236900 0.150842 -0.037530 -994822.000000 0 0 1
34.039372 17.860395 12.921374 40.554094 0.483210 1.246522 0.145001 -0.045313 -965842.000000 0 0 1
34.426762 16.680695 13.579074 40.593581 0.451193 1.229708 0.144092 -0.023674 326577.000000 0 0 1
35.968782 16.627195 13.884574 41.988074 0.433009 1.233773 0.113093 -0.041693 1185730.000000 0 0 1
36.920702 16.134995 12.938574 42.318826 0.412005 1.260080 0.114768 -0.026132 572394.000000 0 0 1
36.617222 14.805295 12.486874 41.423904 0.384230 1.264592 0.145597 -0.049353 -107810.000000 0 0 1
-36.091325 14.121995 12.017374 40.576246 -0.372971 1.270118 0.142159 -0.041391 663119.000000 0 0 1
-35.481941 13.234095 12.913574 40.010871 -0.357000 1.242161 0.125457 -0.031923 -146136.000000 0 0 1
-36.105918 11.998895 13.005274 40.208804 -0.320843 1.241430 0.122362 -0.032066 -176153.000000 0 0 1
-35.356358 11.114795 14.023374 39.626579 -0.304583 1.209071 0.128803 -0.043782 200591.000000 0 0 1
-35.729089 11.440995 15.391374 40.550691 -0.309898 1.181477 0.122526 -0.036802 488308.000000 0 0 1
-34.669930 11.114995 16.280774 39.882462 -0.310242 1.150294 0.103322 -0.034914 127335.000000 0 0 1
-34.580086 11.949495 17.519574 40.564865 -0.332714 1.124209 0.098031 -0.018240 -124040.000000 0 0 1
-35.753554 12.009295 18.314974 41.928249 -0.324051 1.118739 0.103733 -0.020447 125919.000000 0 0 1
-35.552352 12.780995 19.481874 42.507258 -0.345111 1.094694 0.101411 -0.023512 -40242.200000 0 0 1
-36.730708 12.800895 20.486374 43.962477 -0.335344 1.086035 0.113388 -0.026229 96681.600000 0 0 1
-36.937668 11.526095 20.999674 44.025317 -0.302467 1.073569 0.097578 -0.015514 -220672.000000 0 0 1
35.954682 11.459595 21.785174 43.573562 0.308544 1.047240 0.118667 -0.030110 -322735.000000 0 0 1
35.832292 10.247095 22.665874 43.619927 0.278540 1.024388 0.103632 -0.028278 -167668.000000 0 0 1
36.630812 10.253195 23.839654 44.891798 0.272922 1.010961 0.098385 -0.017584 22522.800000 0 0 1
36.148542 11.027295 24.941684 45.281409 0.296088 0.987456 0.110198 -0.017817 -631362.000000 0 0 1
-36.807908 11.248795 26.021444 46.459370 -0.296594 0.976301 0.083550 -0.020085 292280.000000 0 0 1
-35.794946 12.177795 25.809954 45.779150 -0.327927 0.971825 0.076100 -0.024374 280620.000000 0 0 1
-34.804470 11.906795 24.810634 44.369928 -0.329624 0.977404 0.060293 -0.025244 -566636.000000 0 0 1
-33.831408 13.030995 24.471304 43.740322 -0.367661 0.977053 0.063324 -0.027874 716002.000000 0 0 1
-32.837378 13.352495 25.467914 43.648564 -0.386204 0.947793 0.041740 -0.029552 1153940.000000 0 0 1
-33.510328 14.042895 26.515254 44.980037 -0.396830 0.940370 0.041764 -0.022347 -250860.000000 0 0 1
-32.458528 14.546195 27.510054 44.966109 -0.421312 0.912468 0.040874 -0.017834 54502.800000 0 0 1
-31.651778 15.592095 27.025874 44.444869 -0.457721 0.917161 0.054971 -0.026382 -264353.000000 0 0 1
-30.972818 16.315395 28.002694 44.829214 -0.484830 0.896109 0.062629 -0.035175 -374775.000000 0 0 1
-30.482478 17.687895 27.508054 44.707227 -0.525782 0.908038 0.074807 -0.028677 -358429.000000 0 0 1
-31.388348 18.615295 26.977054 45.381924 -0.535304 0.934221 0.073145 -0.040446 -191904.000000 0 0 1
-30.681938 19.671895 26.409214 45.009014 -0.570133 0.943752 0.069591 -0.036205 136702.000000 0 0 1
-31.631528 20.584395 25.564894 45.583272 -0.576906 0.975397 0.057384 -0.020719 281714.000000 0 0 1
-32.285208 21.563695 26.362934 46.929009 -0.588865 0.974282 0.064619 -0.033650 474998.000000 0 0 1
-33.384948 22.111795 25.636324 47.546896 -0.584993 1.001333 0.071939 -0.029110 68371.800000 0 0 1
-33.720798 23.562195 26.065424 48.699852 -0.609882 1.006021 0.064257 -0.021540 157829.000000 0 0 1
-34.794741 24.087795 25.278104 49.293797 -0.605528 1.032347 0.070140 -0.022502 193547.000000 0 0 1
-34.802314 25.479895 25.421224 50.066603 -0.631967 1.038227 0.076944 -0.027981 -18622.300000 0 0 1
-35.751950 26.168495 24.449654 50.604127 -0.631846 1.066541 0.089846 -0.024861 -126916.000000 0 0 1
-35.408033 26.010095 23.090224 49.632775 -0.633560 1.086912 0.103759 -0.024886 372789.000000 0 0 1
-36.453608 26.496195 22.218474 50.245144 -0.628518 1.112745 0.106968 -0.026860 546125.000000 0 0 1
-36.196658 26.301295 20.735874 49.314629 -0.628371 1.136821 0.134235 -0.027709 50620.700000 0 0 1
-36.132138 24.964595 20.291974 48.378990 -0.604609 1.137970 0.117624 -0.026593 174998.000000 0 0 1
-35.589349 24.911295 18.971774 47.403614 -0.610702 1.159042 0.116842 -0.029063 -30850.900000 0 0 1
-35.667273 23.587495 18.271474 46.501302 -0.584292 1.166987 0.119225 -0.023639 -662550.000000 0 0 1
-36.910718 23.232095 17.777574 47.097489 -0.561767 1.183741 0.130574 -0.026166 -830773.000000 0 0 1
-36.848088 22.302195 16.707774 46.198693 -0.544269 1.200759 0.120902 -0.034010 46088.800000 0 0 1
35.880322 22.175995 15.921074 45.084952 0.553589 1.209876 0.110901 -0.030981 748879.000000 0 0 1
34.796102 21.353295 16.377074 43.987959 0.550410 1.189302 0.129803 -0.032090 1024860.000000 0 0 1
33.642942 21.469995 15.529874 42.825054 0.568016 1.199702 0.133255 -0.029570 -422348.000000 0 0 1
32.512882 20.522595 15.961174 41.629599 0.563056 1.177311 0.137160 -0.029869 37745.000000 0 0 1
31.598062 21.019295 16.930974 41.556061 0.586992 1.151164 0.124252 -0.025336 369108.000000 0 0 1
30.651292 21.906095 16.351074 41.069896 0.620515 1.161321 0.106455 -0.012564 -734678.000000 0 0 1
29.701212 22.593795 17.298774 41.132581 0.650316 1.136732 0.081254 -0.008005 388910.000000 0 0 1
30.473952 23.537395 18.064474 42.532294 0.657670 1.132140 0.053805 0.002310 709700.000000 0 0 1
29.552602 24.253595 18.889174 42.642633 0.687232 1.111894 0.049159 0.004707 264513.000000 0 0 1
30.105032 24.892495 20.177374 43.966757 0.690903 1.094013 0.051868 -0.010382 71923.500000 0 0 1
30.914742 26.017395 19.859574 45.022537 0.699589 1.113969 0.058220 -0.002849 -57513.900000 0 0 1
31.945762 26.140595 20.807474 46.225680 0.685789 1.103888 0.056707 -0.005716 -579054.000000 0 0 1
33.024782 27.119495 20.357874 47.334410 0.687527 1.126208 0.078181 -0.004605 -153487.000000 0 0 1
34.003202 27.557495 21.316474 48.682907 0.681073 1.117575 0.074488 -0.001896 344788.000000 0 0 1
33.599392 28.332595 22.366274 49.314353 0.700561 1.100057 0.033872 0.012806 -600093.000000 0 0 1
34.665462 28.525195 23.477794 50.661503 0.688532 1.088940 0.034262 -0.002983 -447541.000000 0 0 1
35.742062 29.330695 23.112484 51.691118 0.687189 1.107246 0.064377 -0.003610 -970240.000000 0 0 1
36.371612 29.503195 24.334674 52.777923 0.681509 1.091588 0.057403 -0.011919 -629082.000000 0 0 1
-36.561068 30.537295 24.319724 53.485391 -0.695863 1.098763 0.074499 -0.014728 -31135.300000 0 0 1
-35.310134 30.180695 23.749354 52.170027 -0.707235 1.098166 0.095188 -0.023584 216434.000000 0 0 1
-34.379130 31.241795 24.045454 52.308300 -0.737625 1.093153 0.094471 -0.026197 1461670.000000 0 0 1
-32.899058 30.685695 23.806484 50.899004 -0.750603 1.084087 0.127503 -0.028821 1012950.000000 0 0 1
-32.473248 30.365795 22.450374 49.805749 -0.751873 1.103181 0.120607 -0.025096 178223.000000 0 0 1
-32.894488 29.104995 21.973674 49.112019 -0.724353 1.106919 0.108877 -0.024103 -235496.000000 0 0 1
-32.345338 27.843095 22.682074 48.331515 -0.710735 1.082296 0.099163 -0.025715 -994756.000000 0 0 1
-30.984588 27.619195 22.581974 47.252621 -0.728035 1.072535 0.086743 -0.026834 -604102.000000 0 0 1
-30.445138 26.643195 23.487404 46.780599 -0.718899 1.044799 0.082280 -0.031476 205216.000000 0 0 1
-30.102868 27.088595 24.950654 47.565847 -0.732742 1.018610 0.093177 -0.037908 257397.000000 0 0 1
-31.318258 27.140495 25.700044 48.764045 -0.714054 1.015696 0.080994 -0.030604 660115.000000 0 0 1
-31.043248 27.336795 27.085854 49.443171 -0.721995 0.991043 0.088637 -0.026867 -600767.000000 0 0 1
-32.282918 27.546295 27.928924 50.803641 -0.706394 0.988740 0.081872 -0.018498 -319513.000000 0 0 1
-33.100858 26.388095 28.144244 50.834013 -0.673033 0.984056 0.064011 -0.023031 -536083.000000 0 0 1
-34.045198 26.713995 29.084444 52.140368 -0.665319 0.979051 0.045887 -0.011436 -809649.000000 0 0 1
-34.564197 25.428495 29.772474 52.227314 -0.634279 0.964223 0.043511 -0.011919 144106.000000 0 0 1
-33.702398 24.650095 30.631104 51.785552 -0.631494 0.937880 0.045028 -0.021258 -11304.600000 0 0 1
-34.404166 23.528395 31.102234 52.005586 -0.599827 0.929723 0.033721 -0.025770 -236468.000000 0 0 1
-33.644668 22.553895 31.956276 51.593076 -0.590552 0.902830 0.072233 -0.046371 -441208.000000 0 0 1
-32.592378 21.880995 31.258614 50.181092 -0.591240 0.898331 0.081489 -0.040334 460837.000000 0 0 1
-31.704868 21.103395 32.049338 49.776621 -0.587278 0.871260 0.098785 -0.036752 538709.000000 0 0 1
-30.579728 21.945095 32.750599 49.892973 -0.622464 0.854737 0.107666 -0.039370 -336824.000000 0 0 1
-31.049418 22.799195 33.795723 51.244713 -0.633369 0.850647 0.118363 -0.045109 15947.400000 0 0 1
-30.945158 22.240295 -32.872372 50.327193 -0.623167 2.282564 0.108910 -0.044607 644249.000000 0 0 1
-29.705288 22.717595 -32.006902 49.223318 -0.652885 2.278695 0.117586 -0.037459 628224.000000 0 0 1
-29.824458 24.032495 -31.583002 49.644185 -0.678266 2.260343 0.093819 -0.033099 -575270.000000 0 0 1
-28.828158 24.335795 -30.684952 48.629825 -0.701098 2.253625 0.109456 -0.022725 -622708.000000 0 0 1
-29.095038 25.640595 -29.901462 48.969979 -0.722370 2.227624 0.060823 -0.009229 -160537.000000 0 0 1
-28.881688 26.912695 -30.529592 49.904920 -0.750123 2.229074 0.062029 -0.011559 -157642.000000 0 0 1
-29.972468 27.375595 -31.275352 51.243728 -0.740146 2.227268 0.044262 -0.007222 -356442.000000 0 0 1
-29.816538 28.878995 -31.725122 52.244671 -0.769427 2.223380 0.046759 -0.005812 9803.280000 0 0 1
-30.006148 29.831695 -30.690222 52.270342 -0.782483 2.198323 0.026598 -0.012407 35654.600000 0 0 1
-29.816588 31.128995 -31.192682 53.207393 -0.806929 2.197215 0.042764 -0.024404 -294202.000000 0 0 1
-30.011678 32.323195 -30.192572 53.451671 -0.822463 2.171057 0.042140 -0.011141 -535561.000000 0 0 1
-28.988268 32.414095 -29.265232 52.416096 -0.841133 2.163162 0.019189 -0.004894 -364456.000000 0 0 1
-29.268488 33.472095 -28.397052 52.758110 -0.852298 2.139156 0.009494 -0.004479 -162184.000000 0 0 1
-28.354548 33.552395 -27.135712 51.634199 -0.869164 2.124143 0.009806 -0.000314 618806.000000 0 0 1
-27.027538 -34.026976 -27.244192 51.289072 0.899542 2.130800 0.011655 0.004694 248099.000000 0 0 1
-26.884778 -32.610276 -27.635742 50.497085 0.881338 2.149900 0.020270 0.008944 -756422.000000 0 0 1
-27.331788 -31.569076 -26.562382 49.489326 0.857214 2.137353 0.018302 0.009563 705800.000000 0 0 1
-28.755148 -31.520176 -26.389722 50.167693 0.831239 2.124722 0.015634 0.001878 473664.000000 0 0 1
-29.169038 -30.620976 -25.359482 49.311056 0.809677 2.110959 0.014831 0.005532 -222971.000000 0 0 1
-30.678078 -30.473476 -25.145292 50.020625 0.782052 2.097514 0.015398 0.000994 -431745.000000 0 0 1
-31.228668 -29.756476 -26.207442 50.472840 0.761263 2.116756 0.023229 -0.004593 539665.000000 0 0 1
-32.645948 -29.666976 -26.018592 51.213812 0.737628 2.103702 0.023804 -0.005466 658925.000000 0 0 1
-33.372818 -28.843476 -27.115882 51.778008 0.712726 2.121979 0.042662 -0.015540 635422.000000 0 0 1
-34.783042 -29.057976 -27.183652 52.850515 0.695960 2.111046 0.040682 -0.015783 290036.000000 0 0 1
-35.391813 -28.290276 -28.154552 53.344156 0.674342 2.126794 0.056623 -0.020111 816143.000000 0 0 1
-36.956218 -28.437576 -28.217062 54.503765 0.655861 2.114967 0.054952 -0.023903 807950.000000 0 0 1
36.438702 -27.666476 -27.255762 53.254948 -0.649402 2.108072 0.037721 -0.013882 263751.000000 0 0 1
35.041832 -27.602476 -27.545392 52.426857 -0.667196 2.123989 0.043628 -0.012140 585983.000000 0 0 1
34.105542 -26.923776 -26.536262 50.914153 -0.668260 2.119048 0.034770 -0.012620 -44011.600000 0 0 1
33.925642 -27.679176 -25.414772 50.626047 -0.684348 2.096717 0.033879 -0.009817 -292401.000000 0 0 1
32.984332 -27.210376 -24.519292 49.290632 -0.689769 2.091445 0.031165 -0.008365 -318534.000000 0 0 1
32.933352 -28.010576 -23.222992 49.076526 -0.704798 2.063716 0.030356 -0.004139 -66620.800000 0 0 1
32.347452 -29.279676 -23.428492 49.523241 -0.735660 2.063581 0.047971 -0.009058 -126008.000000 0 0 1
32.065982 -30.083376 -22.264092 49.284141 -0.753508 2.039522 0.060499 -0.021259 -174721.000000 0 0 1
33.115222 -30.370576 -21.150492 49.662191 -0.742193 2.010739 0.044988 -0.012731 33780.000000 0 0 1
34.271822 -31.165576 -21.499892 51.069524 -0.737965 2.005336 0.030112 -0.013754 1221290.000000 0 0 1
35.328532 -31.195176 -20.546692 51.414111 -0.723344 1.981911 0.021395 -0.007164 796648.000000 0 0 1
36.202302 -29.900776 -20.534392 51.247677 -0.690357 1.983065 0.014079 -0.001329 -463901.000000 0 0 1
35.472242 -28.800476 -20.030092 49.889398 -0.681965 1.983939 0.013301 0.001928 58982.500000 0 0 1
36.017302 -27.564276 -20.522192 49.781480 -0.653226 1.995714 0.014388 -0.000330 527948.000000 0 0 1
35.068412 -26.363476 -20.154192 48.280616 -0.644635 2.001421 0.013966 0.002268 1074630.000000 0 0 1
33.905572 -26.295676 -20.995892 47.769006 -0.659657 2.025871 0.027209 0.000329 447534.000000 0 0 1
33.041372 -25.265476 -20.551592 46.394445 -0.652819 2.029711 0.044578 -0.006353 1000890.000000 0 0 1
31.641992 -25.095376 -21.278192 45.648166 -0.670522 2.055713 0.046708 -0.009374 826872.000000 0 0 1
30.896392 -26.274776 -21.208392 45.768404 -0.704735 2.052608 0.063636 -0.008861 -206134.000000 0 0 1
29.658982 -26.050676 -21.865692 45.126505 -0.720719 2.076636 0.059348 -0.015188 123961.000000 0 0 1
29.078152 -27.313376 -22.500292 45.801994 -0.754113 2.084322 0.067701 -0.017205 -220166.000000 0 0 1
28.677072 -28.287176 -21.610492 45.711620 -0.778554 2.063213 0.075508 -0.020191 -174795.000000 0 0 1
28.408972 -29.515676 -22.309792 46.647312 -0.804502 2.069475 0.071206 -0.021917 101958.000000 0 0 1
27.564472 -30.467776 -21.383292 46.317715 -0.835386 2.050668 0.091139 -0.020636 377461.000000 0 0 1
28.192572 -30.857076 -20.128892 46.391299 -0.830491 2.019606 0.093435 -0.024283 317621.000000 0 0 1
29.047582 -31.995276 -20.295792 47.742842 -0.833650 2.009876 0.099374 -0.018977 356403.000000 0 0 1
29.882642 -32.362676 -19.028392 47.983277 -0.825220 1.978566 0.075193 -0.022049 295516.000000 0 0 1
29.200082 -32.882576 -17.861092 47.465011 -0.844645 1.956596 0.083908 -0.025638 68050.700000 0 0 1
28.779672 -31.982876 -16.870492 46.214580 -0.838066 1.944480 0.078597 -0.028150 -185797.000000 0 0 1
28.178272 -32.624076 -15.628292 45.853995 -0.858387 1.918593 0.073765 -0.019048 -119790.000000 0 0 1
26.850772 -33.025376 -15.923192 45.444334 -0.888158 1.928783 0.082109 -0.015580 142968.000000 0 0 1
26.332672 -33.738176 -14.782592 45.279125 -0.908059 1.903370 0.072204 -0.017318 92237.600000 0 0 1
24.824272 34.014595 -14.772892 44.625952 0.940341 1.908200 0.074935 -0.021422 450209.000000 0 0 1
23.898772 -33.020076 -14.504292 43.264896 -0.944298 1.912660 0.075225 -0.012585 151613.000000 0 0 1
22.570672 -33.483776 -14.559792 42.925355 -0.977680 1.916851 0.077521 -0.020897 -222537.000000 0 0 1
-0.386238 -7.160305 -29.148592 30.017654 1.516907 2.900377 0.082130 -0.035020 179933.000000 0 0 1
0.084862 -8.493805 -29.012542 30.230440 -1.560806 2.856775 0.086796 -0.030171 -47118.200000 0 0 1
-0.192138 -9.247605 -30.171142 31.557138 1.550022 2.844118 0.087736 -0.042519 -64764.400000 0 0 1
0.123062 -10.750805 -29.895352 31.769908 -1.559350 2.796357 0.102467 -0.030954 -1146890.000000 0 0 1
1.431162 -10.888405 -29.538082 31.513551 -1.440106 2.785636 0.058635 -0.034371 -1542110.000000 0 0 1
1.578662 -12.192105 -29.049162 31.543516 -1.442030 2.741239 0.062674 -0.032353 -380090.000000 0 0 1
2.952562 -12.424605 -28.420532 31.157906 -1.337486 2.719284 0.053793 -0.032514 -768470.000000 0 0 1
3.952262 -12.151205 -29.402782 32.059254 -1.256332 2.731637 0.071819 -0.035442 1487810.000000 0 0 1
5.346062 -12.326405 -29.011322 31.971510 -1.161573 2.707880 0.074040 -0.041830 1749880.000000 0 0 1
5.792062 -13.785005 -28.739762 32.396732 -1.173023 2.661862 0.067944 -0.043429 -1300630.000000 0 0 1
5.542262 -14.199005 -27.404712 31.358359 -1.198656 2.634007 0.063531 -0.034726 187952.000000 0 0 1
6.266262 -15.342005 -26.976182 31.660031 -1.183037 2.590701 0.059726 -0.032233 -239301.000000 0 0 1
5.603762 -16.662605 -27.497932 32.637108 -1.246371 2.572770 0.042938 -0.033571 -68737.900000 0 0 1
5.895362 -16.953705 -28.855842 33.982981 -1.236143 2.585125 0.056178 -0.035797 281581.000000 0 0 1
5.408562 -18.281005 -29.147632 34.828611 -1.283145 2.562369 0.036845 -0.029726 -108751.000000 0 0 1
5.665162 -18.729605 -30.616002 36.334993 -1.277074 2.572896 0.056836 -0.038365 -399903.000000 0 0 1
6.982162 -19.166605 -30.798382 36.941165 -1.221450 2.556597 0.059720 -0.030950 -363052.000000 0 0 1
7.075362 -19.969005 -31.969342 38.351802 -1.230281 2.556356 0.060734 -0.023274 -1070340.000000 0 0 1
8.510662 -19.972305 -32.398152 38.999546 -1.167975 2.551217 0.085231 -0.033308 -1058310.000000 0 0 1
8.977662 -18.691705 -32.741282 38.755255 -1.123031 2.577028 0.084307 -0.036462 -43036.300000 0 0 1
10.184062 -18.725705 -33.475532 39.685997 -1.072683 2.574581 0.098130 -0.041000 67096.000000 0 0 1
10.593362 -17.249505 -33.818582 39.413973 -1.020055 2.602228 0.083747 -0.034664 249977.000000 0 0 1
9.603762 -16.773305 33.241422 38.452154 -1.050796 0.526666 0.085508 -0.037390 494916.000000 0 0 1
9.833362 -15.425805 32.808499 37.563920 -1.003286 0.508646 0.074043 -0.030528 198876.000000 0 0 1
8.894862 -14.928705 31.661954 36.117366 -1.033454 0.501961 0.083173 -0.038723 394629.000000 0 0 1
9.124362 -15.621105 30.452834 35.421011 -1.042146 0.536037 0.079358 -0.037569 -471757.000000 0 0 1
8.019962 -15.382905 29.648094 34.350590 -1.090211 0.529415 0.083883 -0.027163 -593545.000000 0 0 1
7.940862 -16.106205 28.286464 33.505092 -1.112739 0.565644 0.073601 -0.021440 -648557.000000 0 0 1
7.539362 -17.447705 28.400344 34.173732 -1.162917 0.589790 0.088196 -0.027650 359284.000000 0 0 1
7.615862 -18.124705 27.165604 33.533212 -1.173005 0.626456 0.082481 -0.026999 -127172.000000 0 0 1
7.070062 -19.542505 27.452974 34.431977 -1.223667 0.647970 0.082603 -0.031447 -256516.000000 0 0 1
7.782662 -20.169705 28.502014 35.773617 -1.202540 0.648927 0.092729 -0.031222 608100.000000 0 0 1
7.111462 -21.283605 29.037104 36.697659 -1.248330 0.657942 0.080808 -0.027903 -161237.000000 0 0 1
7.725562 -21.427905 30.452664 38.028991 -1.224765 0.642208 0.081385 -0.030551 53713.500000 0 0 1
7.164362 -20.625505 31.482924 38.313367 -1.236480 0.606371 0.084566 -0.035344 89392.800000 0 0 1
7.262662 -19.210305 31.307484 37.442498 -1.209345 0.580573 0.075912 -0.033940 -356738.000000 0 0 1
6.698562 -18.336105 32.416305 37.840459 -1.220538 0.542041 0.081802 -0.031666 -670110.000000 0 0 1
5.341862 -18.526405 32.666449 37.932309 -1.290073 0.533215 0.090179 -0.034378 -820418.000000 0 0 1
4.922162 -17.574305 33.604266 38.240431 -1.297716 0.497533 0.094791 -0.028985 -656111.000000 0 0 1
3.479762 -17.722605 -33.938762 38.445273 -1.376917 2.652546 0.083516 -0.029821 -784805.000000 0 0 1
3.281862 -18.706805 -32.982272 38.059761 -1.397127 2.619128 0.073177 -0.029332 356494.000000 0 0 1
2.006862 -18.668705 -32.335022 37.391198 -1.463709 2.615501 0.077997 -0.041926 448169.000000 0 0 1
1.787062 -19.847105 -31.340352 37.139182 -1.480997 2.575237 0.053345 -0.031180 81473.400000 0 0 1
0.636062 -20.592805 -31.756622 37.854342 -1.539919 2.566085 0.042759 -0.032416 378852.000000 0 0 1
0.032062 -21.431505 -30.822422 37.541073 -1.569300 2.534013 0.039301 -0.026309 283266.000000 0 0 1
-0.769838 -20.730205 -29.677052 36.208583 1.533677 2.531533 0.042106 -0.025165 157216.000000 0 0 1
-1.762138 -19.803105 -30.164292 36.126896 1.482047 2.558845 0.056559 -0.032249 332928.000000 0 0 1
-2.177338 -18.845305 -29.225322 34.842586 1.455769 2.565838 0.081003 -0.027496 -2571.430000 0 0 1
-1.849638 -17.373705 -29.670652 34.432752 1.464734 2.609404 0.077209 -0.028276 -137341.000000 0 0 1
-2.408338 -16.316005 -28.946862 33.315656 1.424249 2.623705 0.085237 -0.035582 -500471.000000 0 0 1
-2.249338 -15.066605 -29.566312 33.260020 1.422598 2.665832 0.091989 -0.027666 355328.000000 0 0 1
-3.281938 -14.074105 -28.933492 32.341900 1.341701 2.678361 0.090379 -0.023842 513261.000000 0 0 1
-3.101338 -13.824105 -27.545832 30.975749 1.350108 2.666545 0.086542 -0.031835 33246.800000 0 0 1
-3.933638 -12.706305 -27.239472 30.313570 1.270572 2.687342 0.078956 -0.037335 200166.000000 0 0 1
-3.950438 -12.451305 -25.728062 28.854361 1.263571 2.671779 0.079559 -0.038245 -403310.000000 0 0 1
-4.906338 -13.244105 -25.088212 28.790569 1.216017 2.628853 0.088253 -0.038288 64904.300000 0 0 1
-4.873138 -13.116405 -23.703692 27.525489 1.215071 2.608332 0.076728 -0.037514 20346.600000 0 0 1
-6.025238 -12.239305 -23.128492 26.852025 1.113339 2.608681 0.076713 -0.037607 659982.000000 0 0 1
-7.324038 -12.815105 -23.259292 27.547470 1.051584 2.576119 0.078323 -0.037324 -48703.300000 0 0 1
-8.307338 -11.834905 -23.126792 27.274995 0.958773 2.582830 0.070032 -0.031985 -417495.000000 0 0 1
-9.712238 -12.320505 -23.514992 28.267955 0.903231 2.553248 0.079532 -0.029314 -419653.000000 0 0 1
-10.320138 -13.114405 -22.534492 28.040973 0.904075 2.504162 0.072196 -0.030568 -52411.300000 0 0 1
-11.177338 -14.021305 -23.259092 29.368610 0.897784 2.484827 0.057570 -0.026431 295136.000000 0 0 1
-11.892338 -15.056205 -22.360392 29.463607 0.902267 2.432443 0.052976 -0.031700 -250707.000000 0 0 1
-10.966438 -15.992105 -21.917592 29.264159 0.969705 2.417283 0.049551 -0.028429 -291166.000000 0 0 1
-11.550938 -17.184105 -21.347992 29.739778 0.978981 2.371471 0.056568 -0.021731 463000.000000 0 0 1
-12.246438 -18.192705 -22.375092 31.330408 0.978318 2.366227 0.051911 -0.017455 728974.000000 0 0 1
-13.475638 -17.765505 -22.932592 31.986087 0.921859 2.370221 0.042048 -0.017941 -33433.500000 0 0 1
-14.074638 -18.724305 -23.825592 33.411882 0.926223 2.364689 0.036458 -0.011156 392410.000000 0 0 1
-15.164938 -18.048705 -24.683792 34.132399 0.872006 2.379189 0.046234 -0.014703 -105189.000000 0 0 1
-16.244138 -17.508205 -23.986092 33.848809 0.822832 2.358343 0.043300 -0.013604 -52032.300000 0 0 1
-17.233338 -16.991905 -24.864992 34.698424 0.778344 2.369716 0.044815 -0.010382 700670.000000 0 0 1
-18.065438 -15.748505 -24.386092 34.191475 0.716985 2.364880 0.045429 -0.010472 121704.000000 0 0 1
-18.993438 -15.808005 -23.346392 33.995554 0.694121 2.327803 0.058954 -0.006915 10467.500000 0 0 1
-19.566338 -14.504205 -23.173592 33.618877 0.637899 2.331323 0.069237 -0.015743 150208.000000 0 0 1
-20.431338 -14.430605 -21.858692 33.218735 0.614940 2.288987 0.076611 -0.027722 208550.000000 0 0 1
-19.719738 -14.832105 -20.696492 32.205654 0.644873 2.268729 0.081184 -0.021254 556866.000000 0 0 1
-20.533138 -14.831005 -19.500192 31.966012 0.625534 2.226893 0.078209 -0.023836 441782.000000 0 0 1
-21.009038 -13.478205 -18.907592 31.313555 0.570407 2.219075 0.091834 -0.022915 -447519.000000 0 0 1
-22.026638 -12.786505 -19.543692 32.103324 0.525959 2.225312 0.092795 -0.029961 -165260.000000 0 0 1
-22.494838 -11.732705 -18.707192 31.521947 0.480757 2.206154 0.095776 -0.025282 -139238.000000 0 0 1
-23.992438 -11.412105 -18.798692 32.546337 0.443982 2.186579 0.097992 -0.017971 -214486.000000 0 0 1
-24.379838 -10.526105 -19.847892 33.152891 0.407578 2.212645 0.093446 -0.018589 -241822.000000 0 0 1
-25.772238 -10.560905 -19.984892 34.280269 0.388907 2.193194 0.084798 -0.021885 -308110.000000 0 0 1
-26.434638 -9.713805 -21.105792 35.193786 0.352148 2.213925 0.097906 -0.015398 -212825.000000 0 0 1
-26.186508 -10.087705 -22.449092 35.936843 0.367705 2.245520 0.076712 -0.014092 -21121.600000 0 0 1
-27.109718 -9.488905 -23.300192 36.984795 0.336691 2.252342 0.076050 -0.017694 -418420.000000 0 0 1
-27.220798 -10.064805 -24.713792 38.118810 0.354157 2.276193 0.062134 -0.014948 224294.000000 0 0 1
-26.076038 -9.844305 -25.541882 37.805526 0.360981 2.312591 0.060594 -0.013886 248788.000000 0 0 1
-25.363028 -11.050305 -25.670982 37.741115 0.410886 2.318813 0.050277 -0.008812 -245734.000000 0 0 1
-24.212438 -11.104705 -26.680252 37.701359 0.430013 2.356996 0.059340 -0.017713 -196028.000000 0 0 1
-24.681638 -11.052805 -28.029152 38.948442 0.421035 2.374091 0.054784 -0.007424 768204.000000 0 0 1
-23.654438 -11.007505 -29.045702 39.042930 0.435542 2.409748 0.066054 -0.011398 551216.000000 0 0 1
-24.257638 -11.308405 -30.427402 40.523324 0.436227 2.420162 0.060279 -0.008964 279891.000000 0 0 1
-25.166498 -10.387805 -31.010612 41.266417 0.391461 2.421089 0.053237 -0.015125 368995.000000 0 0 1
-24.530338 -9.399105 -31.781452 41.232770 0.365908 2.450863 0.056340 -0.022492 -441545.000000 0 0 1
-25.547088 -8.391705 -32.371352 42.083000 0.317376 2.448426 0.052519 -0.018942 -619992.000000 0 0 1
-26.427888 -8.846705 -33.369662 43.476796 0.323024 2.445772 0.043682 -0.010294 1481140.000000 0 0 1
-27.664818 -9.418305 -32.871612 43.983969 0.328136 2.414868 0.038944 -0.010769 1006550.000000 0 0 1
-28.732938 -8.497205 -32.170512 43.962780 0.287535 2.391707 0.020956 -0.005072 1198790.000000 0 0 1
-30.082788 -9.063505 -32.168672 44.966040 0.292636 2.367992 0.016909 -0.002577 1685810.000000 0 0 1
-30.908848 -8.377105 -31.206172 44.714181 0.264668 2.343262 0.023519 -0.000898 1066290.000000 0 0 1
-32.406808 -8.836905 -31.266022 45.889609 0.266214 2.320376 0.030205 -0.005425 697661.000000 0 0 1
-32.424428 -10.238405 -31.140742 46.107638 0.305854 2.312293 0.028424 -0.005554 121960.000000 0 0 1
-33.747938 -10.731605 -31.150442 47.163977 0.307881 2.292242 0.027924 -0.008564 -123720.000000 0 0 1
-33.790488 -12.277605 -31.196122 47.599734 0.348514 2.285488 0.026665 -0.010829 360864.000000 0 0 1
-35.155378 -12.712705 -31.154762 48.663463 0.346984 2.265566 0.020665 -0.015743 543123.000000 0 0 1
-35.203484 -14.072605 -31.241872 49.126144 0.380291 2.260038 0.021797 -0.022026 281140.000000 0 0 1
-36.630668 -14.612805 -30.979352 50.150375 0.379577 2.236648 0.030340 -0.027827 262498.000000 0 0 1
-36.974368 -14.418605 -29.592342 49.504613 0.371823 2.211512 0.032480 -0.024100 -60659.900000 0 0 1
36.756752 -15.703705 -29.051482 49.413094 -0.403761 2.199295 0.033432 -0.020716 -31580.000000 0 0 1
36.801232 -15.740605 -27.510142 48.568563 -0.404172 2.172950 0.049085 -0.015854 530411.000000 0 0 1
-35.948508 -15.391805 -27.012912 47.527890 0.404546 2.175307 0.051042 -0.027588 457340.000000 0 0 1
-35.914330 -15.558505 -25.608252 46.772735 0.408805 2.150175 0.058695 -0.033721 224289.000000 0 0 1
-34.538493 -15.139705 -25.012992 45.252270 0.413118 2.156452 0.084404 -0.028763 416566.000000 0 0 1
-33.471458 -16.056105 -25.082702 44.802667 0.447272 2.164999 0.079021 -0.028515 245095.000000 0 0 1
-32.341348 -15.559505 -24.374692 43.384174 0.448416 2.167397 0.075677 -0.014986 1139820.000000 0 0 1
-31.057608 -16.493105 -24.404292 42.803820 0.488177 2.177476 0.085023 -0.020576 809036.000000 0 0 1
-31.153888 -17.694205 -23.636792 42.922576 0.516528 2.153980 0.106785 -0.028425 139861.000000 0 0 1
-31.849408 -18.741105 -24.310992 44.233902 0.531868 2.152683 0.089282 -0.033895 19175.600000 0 0 1
-31.641708 -20.104605 -23.615192 44.306547 0.566031 2.132933 0.087736 -0.038851 737456.000000 0 0 1
-30.316148 -20.584105 -23.893992 43.745823 0.596480 2.148618 0.088196 -0.035679 680880.000000 0 0 1
-30.156278 -21.895405 -23.368192 43.987296 0.628006 2.130870 0.072726 -0.027518 -196705.000000 0 0 1
-28.720528 -22.459005 -23.547792 43.402467 0.663659 2.144260 0.084294 -0.029697 -31275.700000 0 0 1
-27.704958 -21.813605 -22.841092 42.013254 0.666982 2.145593 0.111914 -0.029540 -469511.000000 0 0 1
-27.663638 -21.727105 -21.424892 41.187012 0.665777 2.117865 0.116826 -0.032230 -671051.000000 0 0 1
-27.459158 -23.063605 -20.640592 41.375950 0.698615 2.093073 0.097737 -0.027834 -170744.000000 0 0 1
-27.722148 -22.928005 -19.275792 40.813809 0.691027 2.062679 0.099540 -0.027713 94991.100000 0 0 1
-27.984648 -24.216305 -18.704892 41.466166 0.713334 2.038780 0.086055 0.000151 67840.500000 0 0 1
-27.922998 -24.051305 -17.145892 40.646533 0.711043 2.006258 0.067559 0.000695 724502.000000 0 0 1
-29.092818 -23.481005 -16.537592 40.880822 0.679059 1.987263 0.055973 0.002683 162906.000000 0 0 1
-28.791168 -22.254405 -15.842692 39.688547 0.658034 1.981414 0.072851 0.006248 -605768.000000 0 0 1
-29.887738 -21.559005 -15.083292 39.819257 0.624900 1.959289 0.053407 0.023822 -453099.000000 0 0 1
-30.749468 -20.843205 -15.963992 40.432883 0.595698 1.976676 0.045844 0.024586 211817.000000 0 0 1
-31.806888 -20.211305 -15.234292 40.647984 0.566070 1.954962 0.046375 0.023353 73403.300000 0 0 1
-32.860288 -19.598005 -16.155192 41.531561 0.537771 1.970327 0.055202 0.005477 -168605.000000 0 0 1
-33.785798 -20.480605 -16.761492 42.917163 0.544958 1.972030 0.019855 0.007588 -291351.000000 0 0 1
-34.516660 -19.755605 -17.710692 43.535644 0.519840 1.989755 0.026051 0.002488 50340.200000 0 0 1
-35.307070 -20.652405 -18.723092 44.985166 0.529270 2.000065 0.022795 -0.001982 1125980.000000 0 0 1
-36.439518 -21.371205 -18.170292 45.986154 0.530422 1.977001 0.020501 -0.001310 643834.000000 0 0 1
-36.110348 -22.469805 -17.314492 45.919941 0.556622 1.957414 0.030477 0.000008 -533495.000000 0 0 1
36.870982 -23.551405 -17.329592 47.057972 -0.568427 1.947934 0.031790 0.006602 -116320.000000 0 0 1
35.581682 -23.210105 -16.860192 45.705920 -0.577994 1.948605 0.029761 -0.001482 -63783.100000 0 0 1
34.838872 -24.418905 -16.743292 45.720540 -0.611336 1.945729 0.029783 -0.004907 130335.000000 0 0 1
33.377182 -24.240005 -16.287392 44.349671 -0.628124 1.946846 0.031085 -0.012318 -399323.000000 0 0 1
32.449102 -23.879505 -17.225392 43.816539 -0.634420 1.974824 0.025335 -0.014944 -118594.000000 0 0 1
31.167122 -24.373605 -16.825092 42.994719 -0.663687 1.972872 0.035297 -0.015106 1007470.000000 0 0 1
29.952182 -24.163005 -17.772592 42.389256 -0.678825 2.003439 0.052304 -0.018868 314220.000000 0 0 1
29.591792 -22.841105 -17.921992 41.455857 -0.657353 2.017855 0.053813 -0.022446 -770171.000000 0 0 1
28.415672 -22.710605 -18.623192 40.866188 -0.674270 2.043968 0.078595 -0.033795 -955721.000000 0 0 1
35.292112 29.268895 -18.779792 49.546766 0.692372 1.959546 0.065417 -0.025137 75142.600000 0 0 1
34.126002 29.130195 -19.569492 48.950152 0.706584 1.982078 0.064198 -0.040867 -8331.630000 0 0 1
34.364922 28.669095 -20.898992 49.392639 0.695282 2.007682 0.080902 -0.035086 -428106.000000 0 0 1
33.196132 28.948495 -21.820192 49.154037 0.717153 2.030759 0.089609 -0.035165 -1370560.000000 0 0 1
32.044872 28.180295 -21.622892 47.838817 0.721317 2.039797 0.083235 -0.027819 383705.000000 0 0 1
31.047872 28.326295 -22.651092 47.743286 0.739592 2.065119 0.115603 -0.018808 744103.000000 0 0 1
30.254542 29.653595 -22.749392 48.085423 0.775367 2.063607 0.098853 -0.013380 -192706.000000 0 0 1
31.125152 30.761195 -23.038792 49.455153 0.779517 2.055394 0.111312 -0.033765 352699.000000 0 0 1
30.330242 31.940495 -23.064492 49.720113 0.811251 2.053174 0.101969 -0.020415 77683.600000 0 0 1
31.073052 33.232295 -22.665192 50.829430 0.818964 2.032984 0.081679 -0.017798 139966.000000 0 0 1
31.399982 33.270495 -21.244992 50.440405 0.814314 2.005553 0.081785 -0.024122 478174.000000 0 0 1
32.745952 32.863195 -20.990092 50.920241 0.787185 1.995680 0.079293 -0.022333 129894.000000 0 0 1
33.043832 32.818095 -19.469492 50.477553 0.781971 1.966769 0.065018 -0.024712 -435581.000000 0 0 1
33.105592 -33.997376 -18.819492 51.048752 -0.798687 1.948360 0.066069 -0.024792 212202.000000 0 0 1
33.207322 34.016895 -17.459292 50.642890 0.797440 1.922772 0.049264 -0.032014 -424123.000000 0 0 1
33.189932 -32.614876 -16.915792 49.512077 -0.776660 1.919468 0.049098 -0.016694 -141814.000000 0 0 1
34.357862 -31.861576 -17.055692 49.865012 -0.747719 1.919880 0.047463 -0.016507 -571803.000000 0 0 1
35.396492 -32.097676 -16.149892 50.437997 -0.736561 1.896730 0.048409 -0.016749 -425154.000000 0 0 1
36.605752 -31.212476 -16.460692 50.844411 -0.706040 1.900483 0.038630 -0.009920 444034.000000 0 0 1
-36.463548 -31.773376 -17.373992 51.390596 0.716772 1.915669 0.039918 -0.014152 -322689.000000 0 0 1
-35.324174 -30.999376 -17.494892 50.148079 0.720283 1.927156 0.029330 -0.003900 -319993.000000 0 0 1
-34.261629 -31.643576 -18.426392 50.146855 0.745695 1.947061 0.026528 -0.008274 -643316.000000 0 0 1
-33.743468 -32.764276 -17.807592 50.291448 0.770676 1.932735 0.028674 -0.016487 399429.000000 0 0 1
-32.758888 -33.449176 -18.602192 50.378901 0.795824 1.948994 0.024978 -0.012000 1483840.000000 0 0 1
-31.303858 -32.894376 -18.838392 49.161535 0.810168 1.964048 0.031089 -0.010093 225593.000000 0 0 1
-31.313058 -31.759376 -19.751192 48.777814 0.792474 1.987689 0.030632 0.002640 579384.000000 0 0 1
-30.066558 -31.293076 -20.303692 47.911318 0.805385 2.008407 0.040172 0.002334 603250.000000 0 0 1
-29.384168 -32.159476 -21.380292 48.526056 0.830463 2.027057 0.038789 0.010893 -198636.000000 0 0 1
-30.240478 -32.655176 -22.377692 49.815742 0.823771 2.036676 0.035095 0.018146 -259555.000000 0 0 1
-29.620488 -33.753176 -22.982692 50.446549 0.850517 2.043826 0.027890 0.014670 -151032.000000 0 0 1
-30.423508 33.788095 -24.171792 51.492725 -0.837749 2.059432 0.006918 0.005690 -971504.000000 0 0 1
-31.596308 33.181495 -23.716292 51.592643 -0.809864 2.048435 0.004894 -0.003915 -63542.700000 0 0 1
-32.430198 32.500495 -24.696892 52.133832 -0.786481 2.064308 0.012697 -0.002774 898096.000000 0 0 1
-33.177178 33.494995 -25.627812 53.660270 -0.790165 2.068710 0.016732 -0.009243 -834582.000000 0 0 1
-32.339278 33.929395 -26.669172 53.928448 -0.809389 2.088089 0.004854 -0.018865 -328046.000000 0 0 1
-33.037588 -33.198076 -27.449932 54.287137 0.787821 2.100924 0.010005 -0.021000 129045.000000 0 0 1
-32.330878 -32.493576 -28.639052 54.049176 0.787908 2.129244 0.011375 -0.019638 -227935.000000 0 0 1
-32.052048 -33.264476 -29.777462 54.959589 0.803958 2.143381 0.016547 -0.015271 -45295.700000 0 0 1
-33.180048 -33.520376 -30.606532 56.225359 0.790500 2.146416 0.020907 -0.017636 -223574.000000 0 0 1
-32.972938 33.726495 -31.926552 56.956087 -0.796695 2.165842 0.040011 -0.014251 -18670.800000 0 0 1
-32.275488 -33.618376 -32.925312 57.061182 0.805775 2.185869 0.037197 -0.031952 78137.500000 0 0 1
-32.432228 33.707095 33.823879 57.724107 -0.804671 0.944735 0.035081 -0.035740 -485648.000000 0 0 1
-31.316008 -33.908376 32.851617 56.654206 0.825123 0.952237 0.039207 -0.032421 -205154.000000 0 0 1
-30.096148 33.581195 33.208270 56.002357 -0.840073 0.936042 0.037811 -0.025812 -471402.000000 0 0 1
-29.876698 32.270595 32.681403 54.791263 -0.823899 0.931699 0.045223 -0.029398 -869977.000000 0 0 1
-28.448918 31.775495 32.886072 53.856446 -0.840578 0.913947 0.048834 -0.023215 -629024.000000 0 0 1
-28.253348 31.199595 -33.760702 53.957867 -0.834914 2.246807 0.053985 -0.023451 540430.000000 0 0 1
-26.876228 30.936595 -33.486612 52.922186 -0.855516 2.255898 0.066535 -0.018575 452926.000000 0 0 1
-26.306138 29.583595 33.932438 52.140314 -0.843973 0.862171 0.075342 -0.021095 -245297.000000 0 0 1
-26.512678 28.409195 -33.215442 51.120153 -0.819916 2.278055 0.074966 -0.013650 157676.000000 0 0 1
-25.975088 27.223495 -33.722922 50.527808 -0.808861 2.301526 0.073608 -0.014942 -251198.000000 0 0 1
-26.031008 26.204595 -32.576952 49.249893 -0.788721 2.293563 0.093101 -0.025697 -61549.900000 0 0 1
-25.020638 26.275995 -31.574192 48.097712 -0.809866 2.286912 0.085194 -0.018271 86247.100000 0 0 1
-25.066138 27.367895 -30.697542 48.162766 -0.829268 2.261878 0.062868 -0.011088 893039.000000 0 0 1
-23.808038 27.467095 -29.728652 46.958032 -0.856639 2.256335 0.073201 -0.006686 1877200.000000 0 0 1
-22.560638 27.867195 -30.346542 46.973137 -0.890243 2.273182 0.069644 -0.008034 270100.000000 0 0 1
-21.445238 27.713095 -29.540772 45.831988 -0.912217 2.271224 0.043654 -0.006603 -226317.000000 0 0 1
-21.121338 28.949395 -28.537282 45.809987 -0.940483 2.243303 0.033855 0.003852 -261592.000000 0 0 1
-20.594338 30.087495 -29.288552 46.767547 -0.970561 2.247540 0.032931 0.014085 99556.200000 0 0 1
-20.601438 31.316395 -28.558042 47.124279 -0.988924 2.221838 0.039539 0.007639 -230032.000000 0 0 1
-20.160938 32.517395 -29.399642 48.251253 -1.015797 2.225978 0.046579 0.009033 354527.000000 0 0 1
-18.758038 32.510295 -29.629052 47.819076 -1.047470 2.239039 0.067707 0.000494 -65939.000000 0 0 1
-18.443338 33.488595 -30.596562 48.967258 -1.067389 2.245719 0.077519 0.001881 1099510.000000 0 0 1
-16.899138 33.651995 -30.902132 48.713237 -1.105411 2.257987 0.090056 -0.001870 -299933.000000 0 0 1
-16.200038 -33.770776 -29.863012 47.903090 1.123515 2.243886 0.111435 -0.005796 132061.000000 0 0 1
-14.829938 -33.525976 -30.137612 47.457284 1.154329 2.258866 0.120246 -0.004723 386568.000000 0 0 1
-13.963138 33.313395 -30.338372 47.171690 -1.173895 2.269398 0.128432 -0.015137 -1692200.000000 0 0 1
-13.918038 32.509695 -29.145522 45.826341 -1.166286 2.260099 0.147978 -0.023289 105628.000000 0 0 1
-13.300138 31.218895 -29.308272 44.838465 -1.168055 2.283182 0.129149 -0.024904 57632.100000 0 0 1
-13.073838 30.468195 -27.918932 43.344007 -1.165460 2.270674 0.120174 -0.034577 34418.300000 0 0 1
-11.985738 31.032295 -27.229252 42.989457 -1.202213 2.256727 0.127767 -0.031204 -152249.000000 0 0 1
-12.020638 30.630295 -25.909062 41.880667 -1.196822 2.237807 0.119788 -0.036787 493996.000000 0 0 1
-10.770238 31.113795 -25.103022 41.403237 -1.237550 2.222203 0.118977 -0.038171 -154589.000000 0 0 1
-9.597938 30.546195 -25.528842 40.950119 -1.266354 2.243897 0.109842 -0.025637 -2197110.000000 0 0 1
-8.495338 31.064395 -24.909592 40.714312 -1.303848 2.229148 0.106614 -0.031257 194185.000000 0 0 1
-7.168638 30.416195 -25.494052 40.329654 -1.339335 2.255110 0.077991 -0.027829 718623.000000 0 0 1
-6.903338 29.155695 -24.933492 38.979349 -1.338303 2.264851 0.079516 -0.040384 -635349.000000 0 0 1
-5.828938 28.592295 -25.615722 38.828612 -1.369688 2.291233 0.071720 -0.045482 -338163.000000 0 0 1
-5.302738 27.287795 -24.965592 37.363399 -1.378862 2.302560 0.086449 -0.034262 216586.000000 0 0 1
-6.198438 26.181195 -25.092612 36.790146 -1.338325 2.321355 0.100581 -0.033504 337187.000000 0 0 1
-5.641838 25.022795 -24.472192 35.452205 -1.349037 2.332682 0.110895 -0.043419 -50892.600000 0 0 1
-6.643138 23.846095 -24.431492 34.780244 -1.299101 2.349635 0.099328 -0.043958 -44107.200000 0 0 1
-6.638838 23.023195 -25.564722 35.038503 -1.290058 2.388559 0.102869 -0.039463 -227408.000000 0 0 1
-7.348138 21.855895 -25.416082 34.316942 -1.246460 2.404801 0.092837 -0.042406 -617713.000000 0 0 1
-7.365438 20.755595 -26.489872 34.449350 -1.229794 2.447995 0.076564 -0.031909 162002.000000 0 0 1
-6.116138 20.113195 -26.688682 33.974013 -1.275595 2.474400 0.094292 -0.044334 -46939.900000 0 0 1
-6.005938 18.951895 -25.874012 32.629896 -1.263904 2.486439 0.085262 -0.038043 885264.000000 0 0 1
-4.657938 18.208695 -26.265852 32.297801 -1.320358 2.520494 0.089033 -0.048520 938449.000000 0 0 1
-4.665038 17.648795 -27.573492 33.068717 -1.312380 2.556795 0.085690 -0.046762 58523.000000 0 0 1
-3.815638 16.497795 -27.763142 32.519662 -1.343511 2.593911 0.083492 -0.042047 223407.000000 0 0 1
-3.324338 16.468395 -29.272122 33.750799 -1.371611 2.620552 0.087897 -0.034980 359265.000000 0 0 1
-2.511438 17.611495 -29.623702 34.554823 -1.429149 2.600790 0.101226 -0.042620 211053.000000 0 0 1
-2.386838 17.739095 -31.065342 35.852866 -1.437047 2.618879 0.104162 -0.040315 -49831.700000 0 0 1
-1.414238 18.839095 -31.550532 36.774280 -1.495868 2.602064 0.113388 -0.041327 -120341.000000 0 0 1
-0.065238 18.690095 -31.162112 36.337325 -1.567306 2.601340 0.137310 -0.048213 -241880.000000 0 0 1
0.746862 19.795895 -31.480862 37.195161 1.533086 2.579928 0.145008 -0.034204 122539.000000 0 0 1
0.535162 21.151195 -30.781972 37.352233 1.545500 2.539408 0.145271 -0.040238 -381034.000000 0 0 1
0.962962 21.212395 -29.446752 36.304328 1.525431 2.516841 0.165665 -0.063736 -405334.000000 0 0 1
0.969862 22.475195 -28.848982 36.583313 1.527671 2.479298 0.165694 -0.065054 157886.000000 0 0 1
2.065962 22.562995 -27.769162 35.839689 1.479487 2.457220 0.170909 -0.066906 1321260.000000 0 0 1
3.391862 22.786295 -28.311812 36.500393 1.423026 2.458553 0.153496 -0.070274 581486.000000 0 0 1
4.402362 22.773095 -27.333542 35.848531 1.379838 2.437923 0.137175 -0.068003 116916.000000 0 0 1
5.135362 24.125595 -27.085392 36.633793 1.361067 2.402909 0.142897 -0.061192 127770.000000 0 0 1
5.778762 24.576595 -28.285642 37.914123 1.339859 2.412899 0.127471 -0.065911 201990.000000 0 0 1
6.198762 25.933295 -28.247972 38.844670 1.336171 2.385035 0.115855 -0.063166 -364322.000000 0 0 1
7.013862 26.410795 -29.455062 40.178664 1.311220 2.393668 0.117964 -0.059567 -264145.000000 0 0 1
8.359062 26.024595 -29.299142 40.069854 1.260007 2.390878 0.092425 -0.058292 -671561.000000 0 0 1
9.192062 26.645495 -30.211822 41.318648 1.238604 2.390863 0.088927 -0.054955 151396.000000 0 0 1
10.596462 26.935395 -29.577462 41.383896 1.195990 2.367005 0.086863 -0.048204 425906.000000 0 0 1
11.405362 27.721995 -30.406412 42.698258 1.180485 2.363314 0.090761 -0.040831 99202.300000 0 0 1
12.564262 28.278195 -29.786432 42.950536 1.152685 2.337140 0.085985 -0.035740 699625.000000 0 0 1
13.383962 29.205595 -30.718792 44.449313 1.141089 2.333802 0.099139 -0.032067 39471.500000 0 0 1
12.784562 30.474995 -30.679602 45.093330 1.173585 2.319047 0.105399 -0.028180 296798.000000 0 0 1
13.532562 31.375795 -31.453412 46.442307 1.163597 2.314825 0.135460 -0.037715 25755.200000 0 0 1
12.900462 32.801095 -31.453482 47.240399 1.196085 2.299385 0.145446 -0.041681 264002.000000 0 0 1
11.942462 32.879395 -32.506052 47.752701 1.222393 2.319537 0.123289 -0.039045 95057.700000 0 0 1
10.969962 33.837995 -32.181852 47.968965 1.257297 2.306203 0.119743 -0.024125 333344.000000 0 0 1
9.963962 -33.886076 -33.355462 48.581206 -1.284814 2.327587 0.091467 -0.021041 577742.000000 0 0 1
10.494462 -32.957576 33.684377 48.280150 -1.262524 0.798634 0.081648 -0.009179 311535.000000 0 0 1
9.732262 -32.969576 32.485550 47.297155 -1.283759 0.813665 0.065085 -0.017075 129731.000000 0 0 1
10.042962 -31.790376 31.513004 45.875468 -1.264806 0.813547 0.072140 -0.020995 -38972.300000 0 0 1
9.413662 -30.535676 31.762544 45.054453 -1.271757 0.788400 0.061994 -0.015068 -98269.900000 0 0 1
9.800362 -29.574376 30.878874 43.865655 -1.250805 0.789864 0.092970 -0.025679 -511991.000000 0 0 1
8.928962 -28.277676 31.032654 42.922942 -1.264944 0.762683 0.094392 -0.031946 547317.000000 0 0 1
7.570962 -28.476476 30.645054 42.512922 -1.310940 0.765781 0.054431 -0.026489 22421.900000 0 0 1
6.819262 -28.722176 31.807324 43.395525 -1.337691 0.748129 0.048685 -0.012279 -1907190.000000 0 0 1
5.326262 -28.705776 31.597874 43.021115 -1.387336 0.745906 0.065046 -0.011100 -1103060.000000 0 0 1
4.779562 -29.855876 31.010204 43.311088 -1.412055 0.772758 0.065405 -0.011210 -198122.000000 0 0 1
5.139462 -30.173076 29.672304 42.629500 -1.402083 0.800914 0.063679 -0.020906 -639639.000000 0 0 1
4.679262 -29.205276 28.542704 41.103888 -1.411927 0.803205 0.054994 -0.029272 411571.000000 0 0 1
3.257962 -29.179876 28.454034 40.886569 -1.459606 0.801087 0.079227 -0.029488 545065.000000 0 0 1
2.698662 -28.254676 27.509054 39.526669 -1.475573 0.801038 0.092282 -0.034549 1357720.000000 0 0 1
1.161362 -28.551076 27.201274 39.451515 -1.530142 0.810017 0.090058 -0.031331 1376350.000000 0 0 1
0.942362 -29.776776 26.444604 39.835431 -1.539159 0.844846 0.101800 -0.035313 187451.000000 0 0 1
0.952462 -30.938276 27.261814 41.246705 -1.540020 0.848719 0.110633 -0.039113 -542163.000000 0 0 1
1.381062 -32.292576 26.569724 41.840985 -1.528055 0.882766 0.104641 -0.043524 1469000.000000 0 0 1
2.800562 -32.570676 26.402974 42.021532 -1.485023 0.891404 0.081747 -0.036983 1249360.000000 0 0 1
3.406262 -31.975276 25.316554 40.926139 -1.464669 0.903848 0.076328 -0.040191 -598449.000000 0 0 1
4.931562 -32.052376 25.463984 41.232143 -1.418134 0.905139 0.076911 -0.031875 -81737.600000 0 0 1
5.689162 -31.454576 24.429124 40.231071 -1.391862 0.918239 0.066233 -0.038418 322330.000000 0 0 1
7.084462 -31.493876 24.665514 40.625625 -1.349532 0.918338 0.060983 -0.036000 393929.000000 0 0 1
7.923362 -31.032176 23.399794 39.665174 -1.320810 0.939820 0.049913 -0.025244 -468746.000000 0 0 1
9.274362 -30.861876 23.661264 39.979052 -1.278870 0.937455 0.026871 -0.009187 -544306.000000 0 0 1
10.037662 -30.647276 22.490874 39.317294 -1.254285 0.961811 0.025765 -0.007192 -265320.000000 0 0 1
11.150562 -29.598076 22.631174 38.891531 -1.210507 0.949727 0.010328 -0.001212 -320158.000000 0 0 1
12.183162 -30.183576 23.402904 40.089570 -1.187160 0.947438 0.023511 -0.001451 -140022.000000 0 0 1
13.302862 -29.306276 23.379324 39.779602 -1.144683 0.942557 0.038228 -0.005709 113472.000000 0 0 1
14.457162 -29.793976 24.294044 41.071780 -1.119028 0.937876 0.047033 -0.001371 -272815.000000 0 0 1
14.337562 -29.693076 25.699434 41.805566 -1.120955 0.908744 0.048320 -0.006349 -350.545000 0 0 1
15.544962 -29.251176 26.272344 42.278993 -1.082322 0.900263 0.044914 -0.008371 -158473.000000 0 0 1
-11.481938 -14.053005 25.954424 31.669449 0.885748 0.610186 0.079215 -0.031618 -744207.000000 0 0 1
-10.121438 -14.055905 25.698084 30.990378 0.946718 0.593072 0.087725 -0.031029 -1200800.000000 0 0 1
-9.394738 -14.291505 26.882344 31.861711 0.989261 0.566621 0.081394 -0.029199 1137470.000000 0 0 1
-7.822538 -14.066805 26.870394 31.322279 1.063283 0.539689 0.105697 -0.023621 1214230.000000 0 0 1
-7.127538 -14.777005 25.897924 30.657204 1.121376 0.564683 0.098847 -0.034321 -187626.000000 0 0 1
-7.408938 -14.476605 24.501894 29.407606 1.097764 0.585959 0.098780 -0.029906 -803778.000000 0 0 1
-6.745638 -15.507205 23.515734 28.964923 1.160486 0.623449 0.095563 -0.036998 321499.000000 0 0 1
-7.341838 -16.823305 23.330534 29.685687 1.159302 0.666616 0.090770 -0.033952 -109626.000000 0 0 1
-7.395938 -17.650405 24.426434 31.030427 1.173999 0.664578 0.095896 -0.031053 -147619.000000 0 0 1
-7.961138 -19.066405 24.218864 31.834901 1.175255 0.706306 0.095537 -0.035756 -409921.000000 0 0 1
-9.285638 -19.098105 23.766234 31.871532 1.118244 0.729229 0.072364 -0.031254 -642126.000000 0 0 1
-9.597738 -20.364105 23.248864 32.362370 1.130366 0.769308 0.068008 -0.031482 688906.000000 0 0 1
-11.168538 -20.428205 23.240104 32.896052 1.070474 0.786297 0.048940 -0.028333 652913.000000 0 0 1
-11.583038 -20.619005 24.598784 34.123457 1.058965 0.765731 0.053277 -0.023075 546159.000000 0 0 1
-13.010338 -20.734205 24.575574 34.686236 1.010414 0.783411 0.078381 -0.023841 533526.000000 0 0 1
-13.713538 -20.907405 25.910754 36.007609 0.990272 0.767583 0.086682 -0.032625 -458718.000000 0 0 1
-13.324938 -22.088105 26.618634 37.067371 1.027981 0.769706 0.091439 -0.023513 -142920.000000 0 0 1
-12.327438 -21.803605 27.554114 37.236972 1.056218 0.737776 0.098402 -0.018762 -453570.000000 0 0 1
-11.923138 -23.066505 28.371604 38.460015 1.093718 0.741153 0.092935 -0.007479 368404.000000 0 0 1
-12.928338 -23.614205 29.248954 39.752659 1.069889 0.743988 0.089718 -0.010523 522243.000000 0 0 1
-12.344538 -24.632805 30.052564 40.771550 1.106235 0.742033 0.077753 0.000346 398226.000000 0 0 1
-13.368738 -25.295805 31.030944 42.208061 1.084612 0.744849 0.079561 -0.012500 366858.000000 0 0 1
-13.451038 -24.768705 32.339384 42.898193 1.073292 0.716874 0.070125 -0.013378 -310600.000000 0 0 1
-14.550238 -25.334795 33.003228 44.076914 1.049474 0.724600 0.073114 -0.014337 -191980.000000 0 0 1
-14.743838 -24.977205 -33.513072 44.321186 1.037546 2.428192 0.075801 -0.013702 99270.600000 0 0 1
-14.871238 -23.582605 -33.228592 43.375480 1.008179 2.443498 0.080847 -0.018733 147189.000000 0 0 1
-16.084738 -22.965205 -33.639272 43.791781 0.959805 2.446765 0.080500 -0.024103 -286027.000000 0 0 1
-16.148038 -21.478105 -33.309362 42.796983 0.926120 2.462768 0.068790 -0.015444 -9244.700000 0 0 1
-16.470938 -21.198705 -31.974302 41.749645 0.910251 2.443171 0.071842 -0.010678 156347.000000 0 0 1
-16.399138 -19.804605 -31.709062 40.824242 0.879186 2.460240 0.059131 -0.014046 -164604.000000 0 0 1
-16.471438 -19.419505 -30.239672 39.533065 0.867354 2.441715 0.063569 -0.008522 -531268.000000 0 0 1
-17.694338 -19.732105 -29.652082 39.770486 0.839792 2.412201 0.071075 -0.005188 -348100.000000 0 0 1
-17.813838 -19.370505 -28.278632 38.629397 0.827237 2.392122 0.047998 0.000298 65606.600000 0 0 1
-17.063538 -20.320105 -27.266112 38.046181 0.872291 2.369795 0.040477 -0.001071 -214370.000000 0 0 1
-15.675338 -20.249905 -27.405022 37.507467 0.912052 2.390077 0.034991 -0.001765 -488101.000000 0 0 1
-14.996338 -21.321005 -26.772602 37.366397 0.957819 2.369552 0.033791 -0.012474 512378.000000 0 0 1
-13.453338 -21.330105 -26.929852 36.894208 1.008094 2.389002 0.085790 -0.012347 -100739.000000 0 0 1
-12.781938 -20.329605 -26.214372 35.550866 1.009516 2.399974 0.078388 -0.019606 270152.000000 0 0 1
-11.368838 -20.295405 -26.358792 35.155936 1.060180 2.418508 0.057347 -0.029024 585427.000000 0 0 1
-10.585238 -21.302805 -25.478612 34.857086 1.109637 2.390502 0.097099 -0.031163 -534505.000000 0 0 1
-10.688538 -22.672105 -25.806472 35.975591 1.130257 2.370763 0.099937 -0.025543 50912.000000 0 0 1
-9.834238 -23.402305 -24.963292 35.602613 1.172977 2.347826 0.125984 -0.024616 116587.000000 0 0 1
-9.823138 -24.885905 -25.361532 36.864747 1.194844 2.329473 0.114655 -0.022241 145740.000000 0 0 1
-9.046438 -25.302375 -26.493602 37.735383 1.227426 2.349123 0.120266 -0.023151 47675.600000 0 0 1
-9.414838 -26.520235 -27.124062 39.085506 1.229669 2.337781 0.112961 -0.015020 -138919.000000 0 0 1
-9.328438 -27.803315 -26.308012 39.397406 1.247083 2.301992 0.132623 -0.016139 -478093.000000 0 0 1
-10.377138 -28.018715 -25.408562 39.221530 1.216096 2.275518 0.120239 -0.021879 -271327.000000 0 0 1
-10.244238 -29.229415 -24.651892 39.585589 1.233697 2.243048 0.143430 -0.022421 -463807.000000 0 0 1
-11.014738 -29.319075 -23.362792 39.073682 1.211425 2.211695 0.154651 -0.028141 -719062.000000 0 0 1
-10.856838 -28.326335 -22.373192 37.693658 1.204789 2.206263 0.128462 -0.039225 -100462.000000 0 0 1
-11.688638 -27.184275 -22.564092 37.212193 1.164717 2.222275 0.122598 -0.034432 69422.400000 0 0 1
-11.563738 -26.191325 -21.406092 35.748095 1.155025 2.212803 0.132645 -0.044609 -55032.600000 0 0 1
-12.193738 -26.608155 -20.240192 35.585763 1.141086 2.175809 0.102301 -0.034228 -108553.000000 0 0 1
-12.238538 -25.590065 -19.264792 34.289436 1.124697 2.167391 0.092523 -0.029974 -83972.700000 0 0 1
-12.980538 -26.120945 -18.023692 34.287776 1.109600 2.124286 0.112350 -0.032375 -232333.000000 0 0 1
-14.367738 -26.237495 -18.228492 35.030215 1.069795 2.118074 0.133371 -0.036470 -137508.000000 0 0 1
-14.924438 -26.410265 -16.914492 34.732420 1.056434 2.079441 0.129195 -0.029488 -633319.000000 0 0 1
-16.436138 -26.483435 -16.748792 35.384191 1.015353 2.063876 0.144452 -0.037060 -1616580.000000 0 0 1
-17.067838 -25.213705 -16.938092 34.841655 0.975724 2.078469 0.135894 -0.032578 -170801.000000 0 0 1
-18.403238 -25.310195 -16.500692 35.377365 0.942108 2.056035 0.129173 -0.029856 -208294.000000 0 0 1
-19.433638 -25.889255 -17.479592 36.789345 0.926883 2.065904 0.125988 -0.024411 -1107230.000000 0 0 1
-19.257638 -27.302825 -17.778492 37.846739 0.956499 2.059803 0.129814 -0.028925 -86122.500000 0 0 1
-19.558638 -28.263125 -16.716592 38.220269 0.965446 2.023474 0.125920 -0.037232 -342359.000000 0 0 1
-21.038738 -28.627975 -16.482792 39.164676 0.937029 2.005188 0.112415 -0.030273 279756.000000 0 0 1
-21.540938 -29.648025 -17.340492 40.542694 0.942469 2.012754 0.098564 -0.019479 380774.000000 0 0 1
-22.937938 -29.937325 -17.282692 41.485948 0.917008 2.000489 0.082911 -0.012369 636535.000000 0 0 1
-23.412438 -31.085845 -18.211092 42.966450 0.925280 2.008482 0.057084 -0.009602 -64754.500000 0 0 1
-22.870738 -32.363845 -17.995092 43.523700 0.955604 1.997042 0.057102 -0.019531 -70398.700000 0 0 1
-23.056538 -33.104475 -19.186392 44.672450 0.962438 2.014725 0.044328 0.010748 331975.000000 0 0 1
-22.500338 33.487927 -19.145792 44.657226 -0.979184 2.013880 0.033127 0.004058 69405.100000 0 0 1
-23.202638 32.792923 -18.161492 44.086029 -0.955021 1.995396 0.032411 -0.001763 -68786.800000 0 0 1
-22.584938 31.545447 -17.904292 42.728893 -0.949446 2.003163 0.027378 -0.009765 -311684.000000 0 0 1
-23.531638 30.492407 -17.354692 42.245831 -0.913538 1.994130 0.035818 -0.019834 -273504.000000 0 0 1
-23.879138 30.255907 -16.000892 41.733220 -0.902652 1.964281 0.033950 -0.025067 123531.000000 0 0 1
-24.591238 29.011437 -15.812292 41.187632 -0.867674 1.964822 0.031286 -0.019460 48181.300000 0 0 1
-23.766538 27.712027 -15.721992 39.749035 -0.861892 1.977443 0.038986 -0.025733 -86826.700000 0 0 1
-23.079138 27.362237 -16.921892 39.594053 -0.870107 2.012394 0.020952 -0.015888 91872.200000 0 0 1
-22.727738 25.990857 -16.970392 38.471664 -0.852277 2.027636 0.021648 -0.016037 -217698.000000 0 0 1
-21.868638 25.665297 -18.185892 38.310200 -0.865102 2.065421 0.038846 -0.007382 -994399.000000 0 0 1
-21.656938 24.249207 -18.398692 37.357180 -0.841807 2.085765 0.052664 -0.015823 201819.000000 0 0 1
-20.747938 23.829997 -19.414092 37.084399 -0.854427 2.121763 0.054346 -0.008800 52282.500000 0 0 1
-19.339738 24.440627 -19.464692 36.745666 -0.901386 2.129060 0.048284 -0.005627 -1009500.000000 0 0 1
-18.618138 24.049807 -18.293392 35.491921 -0.912018 2.112299 0.064347 -0.015010 -699839.000000 0 0 1
-17.458038 24.770437 -18.126392 35.311807 -0.956861 2.109850 0.077624 -0.022785 -878493.000000 0 0 1
-17.560838 26.046127 -17.282992 35.853669 -0.977582 2.073781 0.096829 -0.034437 -192008.000000 0 0 1
-18.344338 27.116717 -17.804692 37.267119 -0.976020 2.068898 0.070014 -0.029131 -25467.500000 0 0 1
-18.239838 28.338727 -17.063992 37.775057 -0.998908 2.039496 0.092288 -0.043865 269786.000000 0 0 1
-19.474238 29.327807 -17.188692 39.176745 -0.984629 2.025001 0.077402 -0.034909 650619.000000 0 0 1
-19.577538 29.923317 -18.483092 40.253069 -0.991434 2.047860 0.087012 -0.035719 186793.000000 0 0 1
-20.067838 29.030147 -19.472292 40.306795 -0.965950 2.074990 0.053529 -0.026614 -444774.000000 0 0 1
-19.936938 29.750517 -20.843792 41.437162 -0.980395 2.097888 0.051001 -0.030105 307104.000000 0 0 1
-20.952638 30.734347 -20.947692 42.689799 -0.972435 2.083684 0.051026 -0.021582 190658.000000 0 0 1
-21.189538 30.882647 -22.309992 43.594382 -0.969439 2.108032 0.052367 -0.020624 268937.000000 0 0 1
-21.892538 32.192412 -22.814892 45.123762 -0.973584 2.100882 0.050766 -0.013065 112482.000000 0 0 1
-21.042138 33.316097 -22.680992 45.466045 -1.007472 2.093074 0.037187 -0.009266 90735.600000 0 0 1
-21.456538 -33.699005 -23.484792 46.341573 1.003820 2.102237 0.050925 0.003581 -589445.000000 0 0 1
-20.473438 -32.531195 -23.494192 45.049055 1.009077 2.119433 0.062488 0.000869 -161321.000000 0 0 1
-20.421838 -31.693585 -22.318292 43.813707 0.998402 2.105273 0.076323 -0.006792 130866.000000 0 0 1
-19.604038 -32.346495 -21.359092 43.437597 1.025930 2.084859 0.089804 -0.024695 -322342.000000 0 0 1
-19.169638 -31.498355 -20.119792 42.005088 1.024083 2.070294 0.113129 -0.035823 -103365.000000 0 0 1
-18.083538 -30.674165 -20.446592 41.060709 1.038106 2.092041 0.123952 -0.036773 -239876.000000 0 0 1
-17.704038 -29.829215 -19.412892 39.750162 1.035160 2.081020 0.123623 -0.042876 43423.700000 0 0 1
-16.352838 -29.133205 -19.661192 38.764951 1.059309 2.102717 0.141481 -0.043995 1473700.000000 0 0 1
-15.140138 -29.941835 -19.565992 38.840253 1.102638 2.098737 0.154461 -0.047095 1834310.000000 0 0 1
-13.991338 -29.255105 -20.105892 38.155807 1.124697 2.125795 0.143036 -0.044835 960911.000000 0 0 1
-12.711438 -30.159035 -20.367592 38.548500 1.171911 2.127467 0.167645 -0.050477 781960.000000 0 0 1
-12.028538 -30.610815 -19.222292 38.094674 1.196382 2.099706 0.151443 -0.047371 464827.000000 0 0 1
-11.331038 -29.568025 -18.454192 36.649935 1.204839 2.098471 0.127160 -0.037476 419273.000000 0 0 1
-10.479538 -30.165625 -17.250292 36.295430 1.236440 2.066072 0.112506 -0.024256 388805.000000 0 0 1
-11.327838 -30.713535 -16.274092 36.557998 1.217453 2.032147 0.138619 -0.042538 -179466.000000 0 0 1
-11.681138 -32.027825 -16.484192 37.867653 1.221070 2.021180 0.146347 -0.045116 -336658.000000 0 0 1
-12.667438 -32.635555 -15.487292 38.280538 1.200548 1.987309 0.162592 -0.053342 -334971.000000 0 0 1
-12.173638 -32.977615 -14.224792 37.921831 1.217166 1.955310 0.142670 -0.045619 109301.000000 0 0 1
-13.221438 -33.324565 -13.326692 38.248317 1.193097 1.926687 0.156356 -0.042919 438070.000000 0 0 1
-12.618738 -33.913735 -12.031392 38.133035 1.214585 1.891791 0.128601 -0.035932 542040.000000 0 0 1
-11.801338 -33.011365 -11.269192 36.824129 1.227462 1.881814 0.108998 -0.022730 206627.000000 0 0 1
-11.413138 -33.563085 -10.042892 36.845625 1.243013 1.846856 0.116277 -0.024798 -426218.000000 0 0 1
-10.285938 -32.749225 -9.410892 35.593217 1.266471 1.838379 0.096466 -0.025371 238020.000000 0 0 1
-9.053338 -33.064565 -10.062092 35.727777 1.303539 1.856291 0.049101 -0.021687 230149.000000 0 0 1
-7.911438 -32.576495 -9.326692 34.796638 1.332551 1.842148 0.033503 -0.015617 944729.000000 0 0 1
-6.691538 -33.359605 -9.927092 35.442729 1.372835 1.854682 0.023189 -0.020116 161587.000000 0 0 1
-6.523938 33.448633 -9.367392 35.342904 -1.378171 1.839045 0.020375 -0.004920 529215.000000 0 0 1
-5.349738 32.819180 -9.921892 34.701040 -1.409211 1.860768 0.023389 -0.001466 919012.000000 0 0 1
-4.669638 31.800847 -8.946492 33.363739 -1.424998 1.842269 0.025243 -0.012992 140283.000000 0 0 1
-4.018238 32.488500 -7.877692 33.670564 -1.447739 1.806949 0.043241 -0.018609 -47699.800000 0 0 1
-3.284138 31.585437 -7.084292 32.536327 -1.467192 1.790289 0.038359 -0.023864 -228906.000000 0 0 1
-3.049338 32.218325 -5.686292 32.858071 -1.476431 1.744728 0.054912 -0.030158 -476683.000000 0 0 1
-2.157238 33.290211 -5.848292 33.868781 -1.506086 1.744341 0.036669 -0.024946 -46391.100000 0 0 1
-1.684438 33.969868 -4.689392 34.333361 -1.521251 1.707809 0.051438 -0.026100 102250.000000 0 0 1
-0.706238 33.286401 -3.717292 33.500769 -1.549583 1.681987 0.058805 -0.023843 741486.000000 0 0 1
0.630662 33.063610 -4.231792 33.339288 1.551724 1.698071 0.060344 -0.031053 777826.000000 0 0 1
1.383962 32.290527 -3.356592 32.494002 1.527963 1.674280 0.065038 -0.033125 74152.000000 0 0 1
2.911662 32.371730 -3.566292 32.697479 1.481093 1.680083 0.078560 -0.030048 -11190.900000 0 0 1
3.548762 33.604882 -3.497492 33.972257 1.465584 1.673930 0.077339 -0.024430 116334.000000 0 0 1
4.949262 33.400956 -3.694392 33.967154 1.423689 1.679776 0.088776 -0.020514 330529.000000 0 0 1
5.751362 -33.432985 -3.423892 34.096417 -1.400437 1.671384 0.083147 -0.019687 -300991.000000 0 0 1
5.629762 -32.408255 -4.428592 33.190384 -1.398799 1.704625 0.084634 -0.029090 -3315.730000 0 0 1
6.366262 -31.250925 -4.015092 32.144526 -1.369832 1.696031 0.066326 -0.030709 151241.000000 0 0 1
6.100862 -29.950305 -4.838492 30.945957 -1.369846 1.727793 0.064172 -0.027770 -143775.000000 0 0 1
6.956362 -29.752865 -5.945392 31.128309 -1.341117 1.762973 0.076035 -0.030080 -222578.000000 0 0 1
6.731362 -28.535325 -6.609792 30.054373 -1.339136 1.792537 0.076088 -0.026611 124645.000000 0 0 1
7.350562 -27.230255 -5.995592 28.835129 -1.307139 1.780251 0.063611 -0.026726 -19117.400000 0 0 1
6.690862 -26.773115 -4.861992 28.021532 -1.325903 1.745188 0.049888 -0.029855 -368223.000000 0 0 1
7.255962 -25.564105 -4.373292 26.931359 -1.294236 1.733905 0.037927 -0.024076 86098.700000 0 0 1
6.177162 -24.876405 -3.449292 25.862917 -1.327405 1.704563 0.033120 -0.021780 756474.000000 0 0 1
5.041862 -24.352905 -4.099692 25.204996 -1.366647 1.734176 0.049760 -0.023995 -296589.000000 0 0 1
4.246062 -23.625605 -3.166492 24.212082 -1.392972 1.701954 0.052334 -0.026158 -176027.000000 0 1 0
3.019762 -23.048405 -3.860792 23.563820 -1.440520 1.735382 0.058369 -0.022705 -510805.000000 0 1 0
2.096562 -23.974205 -4.343392 24.454511 -1.483567 1.749355 0.069454 -0.026275 -643993.000000 0 1 0
1.015762 -23.262305 -4.910192 23.796566 -1.527158 1.778630 0.077944 -0.024591 292117.000000 0 1 0
-15.578738 23.157095 18.037774 33.231152 -0.978600 0.997032 0.008944 -0.011343 -269616.000000 0 0 1
-15.610638 22.532695 19.301074 33.525302 -0.964919 0.957316 0.024507 -0.013729 209812.000000 0 0 1
-15.378938 23.399095 20.378974 34.631373 -0.989345 0.941651 0.036017 -0.016118 -804717.000000 0 0 1
-15.173838 22.771295 21.827174 35.002897 -0.983007 0.897480 0.052752 -0.018487 489272.000000 0 0 1
-13.988738 21.955795 22.054674 34.119648 -1.003520 0.867950 0.054645 -0.014806 1689690.000000 0 0 1
-12.731738 22.641795 22.054374 34.075555 -1.058550 0.866865 0.023405 -0.018423 236393.000000 0 0 1
-12.425838 23.680295 23.162974 35.379107 -1.087558 0.857000 0.046919 -0.016863 -721720.000000 0 0 1
-12.520338 23.140995 24.487934 35.943337 -1.074854 0.821269 0.033684 -0.014901 225988.000000 0 0 1
-12.447938 24.196695 25.455184 37.261208 -1.095657 0.818722 0.059009 -0.019679 -279879.000000 0 0 1
-11.940638 23.761595 26.813594 37.764548 -1.105136 0.781269 0.052914 -0.023244 -528672.000000 0 0 1
-10.616838 23.319995 26.798654 37.077046 -1.143571 0.762976 0.018059 -0.016113 -593936.000000 0 0 1
-10.162038 22.596195 27.898604 37.312025 -1.148172 0.726188 0.009785 -0.016907 -1142540.000000 0 0 1
-8.695738 22.186295 27.817764 36.628890 -1.197256 0.708331 0.005455 -0.023454 -176857.000000 0 0 1
-7.759838 23.132195 28.311014 37.374150 -1.247136 0.711317 0.021567 -0.023487 191628.000000 0 0 1
-7.532238 24.220095 27.326004 37.283484 -1.269287 0.748184 0.018949 -0.021089 -669610.000000 0 0 1
-6.457138 25.245995 27.745554 38.064034 -1.320396 0.754056 0.029571 -0.028694 516789.000000 0 0 1
-5.126538 24.749995 27.830464 37.594925 -1.366552 0.737322 0.036882 -0.028030 263155.000000 0 0 1
-4.213238 25.805695 28.123874 38.401010 -1.408957 0.748995 0.051019 -0.023855 249609.000000 0 0 1
-2.735338 25.379295 28.150994 38.000910 -1.463432 0.736539 0.057014 -0.027402 -282565.000000 0 0 1
-2.159938 25.181895 26.879694 36.895950 -1.485232 0.754627 0.051045 -0.025120 370650.000000 0 0 1
-0.765738 24.876695 27.023634 36.738442 -1.540025 0.744291 0.060700 -0.017253 850251.000000 0 0 1
-0.167638 24.810495 25.595204 35.646925 -1.564040 0.769843 0.052139 -0.017570 -192926.000000 0 0 1
-0.517238 23.663195 24.911354 34.362624 -1.548941 0.759827 0.047167 -0.007428 1016.420000 0 0 1
-0.108238 23.596995 23.550434 33.338459 -1.566209 0.786391 0.045335 -0.002730 -45639.500000 0 0 1
-0.706238 22.331595 22.855674 31.962177 -1.539182 0.774051 0.040672 0.003206 261562.000000 0 0 1
-0.025338 21.194195 23.360294 31.542002 -1.569601 0.736820 0.051164 0.000986 241250.000000 0 0 1
-0.379538 20.017495 22.602874 30.194935 -1.551838 0.724901 0.053634 -0.003524 92234.700000 0 0 1
0.552862 18.836095 22.925174 29.676047 1.541454 0.688005 0.067624 -0.002231 497945.000000 0 0 1
1.856662 18.894495 22.356274 29.330056 1.472846 0.704044 0.081231 -0.004249 -4262.200000 0 0 1
2.605662 17.741395 22.565774 28.822921 1.424970 0.671466 0.061143 -0.006958 -93513.500000 0 0 1
4.048662 17.912295 22.038474 28.686867 1.348505 0.694705 0.061484 -0.010489 147869.000000 0 0 1
4.966962 18.636595 22.877374 29.922695 1.310334 0.700455 0.062275 -0.007920 408021.000000 0 0 1
6.140262 18.909795 22.093374 29.722052 1.256824 0.732757 0.086611 -0.011309 722270.000000 0 0 1
7.306162 19.519495 22.942874 30.996229 1.212639 0.737454 0.094921 -0.019563 -25763.700000 0 0 1
7.108762 20.706795 23.705264 32.268335 1.240098 0.745676 0.080621 -0.015946 91594.400000 0 0 1
6.746862 21.863095 22.918874 32.385026 1.271472 0.784559 0.085671 -0.015716 13555.000000 0 0 1
5.323662 22.370495 23.286064 32.726461 1.337165 0.779114 0.057665 -0.003399 18865.000000 0 0 1
5.161362 23.577195 22.611974 33.073028 1.355283 0.817978 0.051480 -0.004542 -82051.800000 0 0 1
3.906762 24.040295 23.038774 33.525866 1.409696 0.813177 0.041143 -0.003175 -412802.000000 0 0 1
3.746362 25.501595 22.477174 34.199269 1.424933 0.853644 0.042327 -0.001139 56008.400000 0 0 1
3.772362 25.755995 21.056674 33.481122 1.425365 0.890644 0.051951 -0.006327 -218904.000000 0 0 1
2.635762 25.187795 20.484974 32.573094 1.466531 0.890668 0.046854 -0.002274 -630069.000000 0 0 1
2.464062 25.677395 19.025774 32.052774 1.475127 0.935301 0.060785 -0.010296 -334485.000000 0 0 1
1.832362 26.944595 18.917374 32.973259 1.502896 0.959757 0.064226 -0.020713 215282.000000 0 0 1
1.628562 27.264895 17.565674 32.474292 1.511136 0.999277 0.069307 -0.016275 -467713.000000 0 0 1
0.458862 28.220595 17.414074 33.164176 1.554538 1.017979 0.056440 0.002494 -299435.000000 0 0 1
0.746662 29.570695 17.829674 34.538107 1.545552 1.028351 0.064816 0.000774 -327351.000000 0 0 1
-0.450538 30.246495 18.024274 35.212610 -1.555902 1.033436 0.049018 0.001102 -604435.000000 0 0 1
-0.255738 31.626095 18.690574 36.737078 -1.562710 1.037046 0.045853 -0.000768 -135055.000000 0 0 1
0.350162 31.583795 19.950274 37.358696 1.559710 1.007449 0.049644 -0.005200 -50585.600000 0 0 1
0.653562 32.913295 20.244274 38.646382 1.550942 1.019451 0.046953 -0.007626 -278824.000000 0 0 1
1.507562 33.006995 21.512274 39.427306 1.525154 0.993669 0.042095 -0.011413 -234264.000000 0 0 1
0.723962 32.724295 22.686374 39.825560 1.548677 0.964724 0.044319 -0.007746 350400.000000 0 0 1
1.388262 32.816495 23.931754 40.639618 1.528518 0.941127 0.051860 -0.023227 -387490.000000 0 0 1
0.512562 32.331695 25.111004 40.940979 1.554944 0.910506 0.070767 -0.014055 847691.000000 0 0 1
-0.605338 33.258095 25.282884 41.781474 -1.552597 0.920877 0.074998 -0.016299 1441290.000000 0 0 1
-1.635338 32.845195 26.199604 42.046408 -1.521048 0.898082 0.087170 -0.024507 576533.000000 0 0 1
-1.320238 33.068295 27.713154 43.165659 -1.530893 0.873668 0.104815 -0.027771 -252251.000000 0 0 1
-0.332438 32.164895 28.223374 42.793105 -1.560461 0.850602 0.080460 -0.033968 388709.000000 0 0 1
0.106662 32.791195 29.405634 44.045036 1.567544 0.839780 0.083445 -0.028826 -790659.000000 0 0 1
1.273762 32.075495 30.167514 44.051547 1.531106 0.816435 0.070461 -0.025233 520864.000000 0 0 1
2.619962 32.114795 29.755864 43.859272 1.489395 0.825160 0.043105 -0.022882 293623.000000 0 0 1
2.780862 31.719695 28.446784 42.697679 1.483350 0.841645 0.043681 -0.026645 -1810360.000000 0 0 1
4.257362 31.452195 28.192564 42.452166 1.436254 0.844504 0.028005 -0.022055 -596787.000000 0 0 1
4.774962 30.243595 28.671504 41.946758 1.414205 0.818220 0.034455 -0.023036 932055.000000 0 0 1
6.203962 30.178095 28.559714 42.010283 1.368043 0.823270 0.042360 -0.029514 744951.000000 0 0 1
6.995962 29.122795 29.326484 41.918056 1.335041 0.795938 0.055913 -0.032100 -90341.900000 0 0 1
6.961662 29.371095 30.695674 43.050556 1.338067 0.777008 0.062928 -0.030115 179000.000000 0 0 1
7.366962 28.194495 31.394324 42.834627 1.315220 0.748193 0.049574 -0.028411 -317232.000000 0 0 1
7.383762 28.322395 32.918395 44.048822 1.315769 0.726783 0.066729 -0.039941 -106186.000000 0 0 1
6.100262 28.328395 33.524116 44.312273 1.358694 0.712787 0.073653 -0.040179 148269.000000 0 0 1
6.072162 27.773495 -33.114392 43.644028 1.355552 2.432170 0.091569 -0.044379 -118543.000000 0 0 1
6.261562 26.266495 -32.903062 42.564627 1.336778 2.454375 0.098566 -0.042312 -687275.000000 0 0 1
7.565562 25.793095 -33.077852 42.622363 1.285482 2.459203 0.075602 -0.037810 -416095.000000 0 0 1
7.596662 24.396295 -32.882722 41.643270 1.268927 2.481000 0.093176 -0.044921 1257500.000000 0 0 1
9.080362 23.810295 -32.988542 41.684854 1.206459 2.483859 0.071531 -0.038948 1216150.000000 0 0 1
9.562762 23.863195 33.621585 42.323865 1.189658 0.652796 0.051543 -0.027460 316593.000000 0 0 1
10.794662 23.257095 33.241929 41.981461 1.136242 0.657007 0.067524 -0.040167 112234.000000 0 0 1
11.083362 21.747895 33.623804 41.549634 1.099475 0.627932 0.078684 -0.041663 -745516.000000 0 0 1
10.489662 20.822095 32.688843 40.151627 1.104133 0.619558 0.068461 -0.034276 260124.000000 0 0 1
10.119262 19.570695 33.318402 39.944055 1.093593 0.584249 0.067310 -0.027666 1045530.000000 0 0 1
8.778862 19.648695 -33.806472 40.075145 1.150614 2.574706 0.103977 -0.046899 530662.000000 0 0 1
8.927262 20.302395 -32.539202 39.378712 1.156528 2.543329 0.111625 -0.050440 652701.000000 0 0 1
7.628562 20.253495 -31.924172 38.568793 1.210576 2.545829 0.132069 -0.055106 602909.000000 0 0 1
7.640562 20.813795 -30.478012 37.689541 1.218977 2.512666 0.138499 -0.070633 3663.990000 0 0 1
8.008162 22.188695 -30.513112 38.568366 1.224434 2.483473 0.138097 -0.064628 16474.400000 0 0 1
8.293162 22.757895 -29.215962 37.950900 1.221344 2.449380 0.107028 -0.058520 281313.000000 0 0 1
9.814662 23.075195 -29.163602 38.461772 1.168643 2.431420 0.105020 -0.061234 347612.000000 0 0 1
10.545862 21.913095 -28.882982 37.757458 1.122254 2.441777 0.105590 -0.063755 253269.000000 0 0 1
11.963662 22.137795 -28.835172 38.271116 1.075340 2.424082 0.100782 -0.057973 1059190.000000 0 0 1
12.757062 20.792495 -28.701832 37.667833 1.020479 2.437149 0.107440 -0.066393 112901.000000 0 0 1
12.753862 19.959895 -29.874622 38.125470 1.002211 2.471215 0.100152 -0.060343 707209.000000 0 0 1
11.455562 19.404895 -30.179392 37.663983 1.037507 2.500228 0.122368 -0.059019 588387.000000 0 0 1
11.447662 18.396495 -31.301352 38.069078 1.014160 2.536106 0.112953 -0.051108 -427018.000000 0 0 1
11.853262 17.100395 -30.866292 37.224338 0.964678 2.548465 0.106862 -0.044629 108635.000000 0 0 1
11.883362 16.171695 -31.954632 37.733759 0.937078 2.580820 0.095358 -0.038722 -574032.000000 0 0 1
13.128862 16.131095 -32.823722 38.858410 0.887646 2.576802 0.074185 -0.018869 -749835.000000 0 0 1
13.275562 17.278195 -33.572472 40.023587 0.915659 2.565903 0.077088 -0.020419 -242833.000000 0 0 1
13.848562 16.989095 33.140238 39.732700 0.886889 0.584334 0.080706 -0.014344 81594.900000 0 0 1
12.926762 16.635095 31.910234 38.237294 0.910189 0.583514 0.088275 -0.016991 -396781.000000 0 0 1
13.510462 17.054995 30.667194 37.601626 0.900848 0.617063 0.070109 -0.022603 164011.000000 0 0 1
12.686462 16.970695 29.501714 36.322197 0.928864 0.622844 0.077243 -0.018330 476021.000000 0 0 1
11.266562 17.618495 29.478194 36.142921 1.001857 0.617030 0.075498 -0.019532 679871.000000 0 0 1
10.322762 16.873195 30.264324 36.155131 1.021757 0.578893 0.081581 -0.020685 743803.000000 0 0 1
9.073262 17.581795 30.399724 36.271020 1.094383 0.576956 0.093591 -0.025554 1339210.000000 0 0 1
8.031562 16.781095 31.302164 36.413413 1.124409 0.536246 0.119635 -0.032665 549295.000000 0 0 1
8.224962 16.801895 32.722834 37.692673 1.115563 0.519337 0.127438 -0.031751 -267552.000000 0 0 1
7.452362 15.843495 33.349686 37.666373 1.131129 0.483449 0.143529 -0.039723 -529987.000000 0 0 1
7.598162 15.766995 -33.061332 37.408313 1.121731 2.654712 0.136269 -0.041253 -95019.500000 0 0 1
6.914162 16.835195 -32.401292 37.162793 1.181103 2.629813 0.137586 -0.043479 150140.000000 0 0 1
6.609062 16.532395 -31.101142 35.836864 1.190493 2.621661 0.144643 -0.055414 -52029.500000 0 0 1
5.616262 17.601995 -30.570972 35.720540 1.261938 2.597964 0.146845 -0.064153 -448280.000000 0 0 1
5.368862 17.624295 -29.148792 34.483221 1.275099 2.577930 0.138405 -0.069944 198918.000000 0 0 1
4.553662 18.644495 -28.591272 34.435649 1.331250 2.550408 0.141666 -0.073270 631717.000000 0 0 1
3.025362 18.556895 -28.861932 34.445933 1.409186 2.564204 0.151065 -0.073189 -282212.000000 0 0 1
2.367562 17.555095 -28.067392 33.189836 1.436741 2.578601 0.145554 -0.062407 129583.000000 0 0 1
0.984962 17.419495 -28.338232 33.278587 1.514313 2.589723 0.148517 -0.055954 628350.000000 0 0 1
-0.030538 18.503295 -27.893562 33.472731 -1.569146 2.555887 0.143134 -0.059290 -573911.000000 0 0 1
-0.091738 18.662795 -26.477062 32.393567 -1.565881 2.527602 0.134610 -0.062815 33446.400000 0 0 1
-0.747738 19.882895 -26.146192 32.855928 -1.533207 2.491096 0.143583 -0.062112 -273277.000000 0 0 1
-1.094238 20.225295 -24.702692 31.944999 -1.516747 2.454807 0.124041 -0.060081 -704919.000000 0 0 1
-2.090538 19.417295 -24.184092 31.084916 -1.463546 2.462274 0.113175 -0.050192 -491891.000000 0 0 1
-2.595538 19.953895 -23.000892 30.560363 -1.441446 2.422856 0.111486 -0.039765 -177861.000000 0 0 1
-3.739538 19.168895 -22.366092 29.692975 -1.378132 2.423778 0.079310 -0.032581 -167723.000000 0 0 1
-5.064838 19.583195 -22.562692 30.302297 -1.317710 2.410712 0.081355 -0.025546 161139.000000 0 0 1
-6.037438 18.634595 -22.063592 29.504252 -1.257477 2.415555 0.070595 -0.032785 -220312.000000 0 0 1
-7.463538 19.115495 -22.178392 30.215685 -1.198555 2.394993 0.100481 -0.023224 -666162.000000 0 0 1
-7.814438 20.160995 -21.277592 30.335905 -1.201024 2.348156 0.062744 -0.014638 -201021.000000 0 0 1
-7.394138 21.383995 -21.703392 31.352604 -1.237887 2.335379 0.065160 -0.019472 -408591.000000 0 0 1
-7.881638 22.476895 -20.740492 31.583209 -1.233538 2.287222 0.073434 -0.023642 372264.000000 0 0 1
-7.231038 22.481395 -19.453592 30.596459 -1.259602 2.259856 0.082125 -0.028617 556487.000000 0 0 1
-7.891838 23.432595 -18.621692 30.953757 -1.245939 2.216295 0.091899 -0.038822 -102135.000000 0 0 1
-7.227538 23.299495 -17.262692 29.884851 -1.270007 2.186631 0.098628 -0.037340 764731.000000 0 0 1
-5.814338 23.531195 -17.374992 29.823045 -1.328558 2.192724 0.089841 -0.041515 241814.000000 0 0 1
-5.179138 23.420595 -16.107792 28.893057 -1.353163 2.162164 0.087420 -0.041622 431317.000000 0 0 1
-3.637238 23.538095 -16.267692 28.842837 -1.417483 2.170032 0.093375 -0.041149 456336.000000 0 0 1
-3.299038 24.901095 -16.509192 30.058304 -1.439078 2.152250 0.075081 -0.039013 140391.000000 0 0 1
-2.012538 25.100295 -17.096292 30.436136 -1.490788 2.167248 0.079245 -0.042941 457633.000000 0 0 1
-1.693938 26.584795 -17.238192 31.729734 -1.507164 2.145138 0.077310 -0.053482 -133676.000000 0 0 1
-2.388838 27.317895 -18.205992 32.915530 -1.483572 2.156892 0.066455 -0.055813 80352.900000 0 0 1
-1.775538 28.616695 -18.250792 33.987633 -1.508830 2.137653 0.074740 -0.056509 -627293.000000 0 0 1
-2.460638 29.654995 -19.166192 35.395147 -1.488010 2.143007 0.100025 -0.053435 504476.000000 0 0 1
-3.616138 30.271695 -18.592792 35.709157 -1.451904 2.118435 0.064878 -0.050625 589664.000000 0 0 1
-4.793638 29.464695 -18.637092 35.192165 -1.409518 2.128903 0.030062 -0.052127 -487780.000000 0 0 1
-6.048338 29.973495 -17.927592 35.445612 -1.371681 2.101079 0.052003 -0.040795 -62300.400000 0 0 1
-6.422438 31.274795 -18.345092 36.822587 -1.368257 2.092320 0.098830 -0.046910 161151.000000 0 0 1
-5.856938 32.283395 -17.505892 37.188407 -1.391326 2.060920 0.092611 -0.068365 11872.900000 0 0 1
-6.480938 33.652895 -17.896692 38.662792 -1.380544 2.052051 0.093951 -0.043044 182488.000000 0 0 1
-7.871138 33.610595 -17.643892 38.767691 -1.340756 2.043302 0.123658 -0.063485 -214346.000000 0 0 1
-8.456038 -33.317276 -18.147992 38.870234 1.322241 2.056563 0.177626 -0.056990 -157897.000000 0 0 1
30.272762 -20.353105 -26.460522 45.064934 -0.591909 2.198348 0.044166 0.004376 126923.000000 0 0 1
29.725862 -21.559505 -26.012952 45.001253 -0.627490 2.187133 0.046219 -0.001464 -432520.000000 0 0 1
28.323262 -21.636805 -25.967342 44.098315 -0.652353 2.200433 0.050576 0.005083 159893.000000 0 0 1
27.945962 -22.924705 -25.108712 44.010979 -0.687011 2.177923 0.042427 0.004977 157151.000000 0 0 1
28.209862 -24.195805 -25.787522 45.235269 -0.708952 2.177394 0.027662 0.010550 795537.000000 0 0 1
29.557462 -24.630505 -26.080662 46.481246 -0.694724 2.166511 0.035887 0.009394 934046.000000 0 0 1
29.482362 -26.118525 -26.660372 47.562196 -0.724972 2.165830 0.035691 0.008586 -16982.800000 0 0 1
29.209562 -27.190165 -25.757722 47.496988 -0.749608 2.143971 0.054678 -0.006181 -250716.000000 0 0 1
29.238162 -28.479545 -26.354882 48.585331 -0.772255 2.144141 0.041706 0.001366 747746.000000 0 0 1
28.047962 -28.899685 -27.322662 48.666290 -0.800353 2.166908 0.064976 -0.003109 229209.000000 0 0 1
27.991462 -28.311035 -28.638252 49.042697 -0.791074 2.194377 0.028875 -0.006242 396205.000000 0 0 1
29.117562 -28.397395 -29.536882 50.266011 -0.772877 2.198900 0.018861 -0.006832 134570.000000 0 0 1
29.470262 -29.800215 -30.195412 51.655707 -0.790965 2.195123 0.032694 -0.000290 -282565.000000 0 0 1
30.124462 -30.786165 -29.372522 52.134597 -0.796261 2.169289 0.047841 -0.002256 743379.000000 0 0 1
31.386962 -30.511015 -28.759142 52.375105 -0.771248 2.152083 0.044939 -0.003910 723511.000000 0 0 1
32.620762 -30.179395 -29.631752 53.413020 -0.746543 2.158879 0.044378 -0.005072 -411978.000000 0 0 1
32.435062 -28.907255 -30.213172 52.919736 -0.727951 2.178428 0.038927 -0.008385 -126042.000000 0 0 1
33.494362 -28.446095 -31.045222 53.803889 -0.704076 2.185856 0.038032 -0.010017 -141885.000000 0 0 1
33.145162 -27.154435 -31.739432 53.323134 -0.686374 2.208346 0.029941 -0.004154 94907.100000 0 0 1
33.070262 -25.904495 -31.059862 52.243661 -0.664485 2.207464 0.024907 0.006370 -132800.000000 0 0 1
31.953462 -25.838615 -30.205172 51.000100 -0.679983 2.204654 0.017848 0.000965 -411562.000000 0 0 1
31.960462 -24.519505 -29.404862 49.873071 -0.654407 2.201352 0.020045 0.002031 -390674.000000 0 0 1
32.890262 -24.468605 -28.330742 49.830843 -0.639616 2.175524 0.022352 -0.000325 318770.000000 0 0 1
33.034962 -23.149505 -27.781712 48.979912 -0.611234 2.173906 0.018467 0.003157 -109578.000000 0 0 1
34.032462 -23.097805 -26.598522 48.981613 -0.596287 2.144839 0.026731 -0.000798 -507453.000000 0 0 1
33.631562 -23.780405 -25.470792 48.428823 -0.615466 2.124620 0.028623 -0.002879 -76272.300000 0 0 1
32.685762 -23.096205 -24.653092 47.006049 -0.615151 2.122885 0.043300 -0.000795 -183677.000000 0 0 1
33.062862 -21.880505 -23.762992 46.223253 -0.584615 2.110745 0.038412 -0.002487 -375571.000000 0 0 1
33.210862 -20.645905 -24.451892 46.120600 -0.556195 2.129601 0.037735 -0.004895 71594.000000 0 0 1
33.398962 -19.614505 -23.561292 45.336012 -0.531013 2.117300 0.018654 -0.012262 -223104.000000 0 0 1
33.539062 -18.291105 -24.295792 45.273819 -0.499279 2.137248 0.012901 -0.014727 914387.000000 0 0 1
32.395062 -18.066505 -25.167692 44.824674 -0.508730 2.166957 0.032953 -0.009083 1136340.000000 0 0 1
32.516462 -16.908605 -25.936012 44.898752 -0.479520 2.186650 0.038577 -0.010980 115689.000000 0 0 1
31.386862 -16.845305 -27.018932 44.709307 -0.492574 2.219714 0.025742 0.000552 -203228.000000 0 0 1
30.133562 -16.655205 -26.406982 43.390738 -0.504924 2.225073 0.028018 0.004183 -144958.000000 0 0 1
29.213762 -16.812305 -27.508132 43.506262 -0.522204 2.255289 0.012981 -0.004477 -88921.400000 0 0 1
27.747162 -16.505505 -27.167192 42.194704 -0.536627 2.270320 0.017125 0.000904 250323.000000 0 0 1
27.035162 -17.448205 -26.319752 41.570052 -0.573127 2.256402 0.047471 0.006949 509355.000000 0 0 1
27.172062 -17.103805 -24.956092 40.665312 -0.561802 2.231528 0.062710 0.012549 -67676.100000 0 0 1
26.659162 -18.219305 -24.004392 40.235119 -0.599509 2.210058 0.076936 0.015097 -67420.800000 0 0 1
26.427962 -17.778105 -22.698492 39.111632 -0.592168 2.189957 0.090567 0.004607 58137.200000 0 0 1
26.034262 -18.743505 -21.777392 38.773143 -0.623994 2.167189 0.085908 0.001593 -287413.000000 0 0 1
26.097362 -18.175605 -20.323492 37.742142 -0.608342 2.139432 0.092956 0.002704 57436.700000 0 0 1
25.133462 -17.171305 -19.979992 36.410777 -0.599365 2.151651 0.113737 0.002688 219335.000000 0 0 1
25.121562 -15.953505 -20.699292 36.250074 -0.565795 2.178537 0.096113 0.002023 -412058.000000 0 0 1
26.272262 -14.964605 -20.453592 36.503707 -0.517764 2.165563 0.068874 -0.007994 -134802.000000 0 0 1
26.291962 -14.430805 -19.131292 35.574172 -0.501973 2.138605 0.070172 -0.020629 676586.000000 0 0 1
27.432262 -13.560505 -19.099992 36.072510 -0.459099 2.128794 0.055897 -0.019293 393210.000000 0 0 1
27.427462 -12.686305 -17.819692 35.082039 -0.433233 2.103592 0.061638 -0.012837 -99019.000000 0 0 1
27.921762 -13.260905 -16.613392 35.092466 -0.443392 2.063963 0.051674 -0.009922 59502.400000 0 0 1
27.592762 -12.505905 -15.498692 34.028924 -0.425538 2.043681 0.038846 -0.002908 132757.000000 0 0 1
28.132162 -12.938905 -14.109092 34.027934 -0.431083 1.998335 0.067550 -0.015861 74390.600000 0 0 1
27.399862 -14.089805 -13.743792 33.736729 -0.474966 1.990384 0.086578 -0.018920 320572.000000 0 0 1
27.818162 -14.554505 -12.478992 33.784745 -0.482036 1.949125 0.093861 -0.018432 -155217.000000 0 0 1
27.072862 -15.745805 -11.914892 33.508729 -0.526786 1.934326 0.089232 -0.035566 -1124690.000000 0 0 1
25.754362 -15.631905 -11.528992 32.257732 -0.545522 1.936281 0.078847 -0.022100 -678912.000000 0 0 1
25.344262 -16.813005 -10.853292 32.292456 -0.585727 1.913563 0.069264 -0.016898 -1052730.000000 0 0 1
23.911862 -16.784405 -10.399492 31.010367 -0.612019 1.912779 0.090280 -0.026107 -1092100.000000 0 0 1
23.771162 -15.996905 -9.270392 30.114935 -0.592343 1.883712 0.074774 -0.019751 211267.000000 0 0 1
22.491762 -16.196405 -8.707292 29.052019 -0.624091 1.875189 0.086757 -0.028165 -251168.000000 0 0 1
22.274262 -15.773605 -7.231692 28.235558 -0.616177 1.829803 0.077584 -0.021593 -270042.000000 0 0 1
22.443062 -14.374005 -6.885792 27.526663 -0.569643 1.823631 0.082629 -0.004057 391726.000000 0 0 1
21.990462 -14.023905 -5.584492 26.672774 -0.567699 1.781727 0.073873 -0.009596 -64902.500000 0 0 1
22.856762 -14.523105 -4.371692 27.431074 -0.566040 1.730849 0.074216 -0.012997 622840.000000 0 0 1
24.222562 -14.097805 -4.432292 28.374739 -0.527087 1.727644 0.086542 -0.014675 452404.000000 0 0 1
25.061262 -14.993205 -3.748192 29.443369 -0.539141 1.698444 0.078759 -0.022026 412688.000000 0 0 1
26.542662 -14.777105 -4.217792 30.670271 -0.507996 1.708754 0.083751 -0.021536 440116.000000 0 0 1
27.109462 -13.607205 -3.697792 30.557366 -0.465195 1.692105 0.089023 -0.024136 -737529.000000 0 0 1
28.442762 -13.418105 -4.020292 31.704873 -0.440800 1.697942 0.099159 -0.036303 -567685.000000 0 0 1
29.153162 -12.192405 -3.399092 31.782313 -0.396113 1.677950 0.130498 -0.046897 -674631.000000 0 0 1
29.500062 -12.362705 -2.037392 32.050602 -0.396840 1.634407 0.141651 -0.050278 294447.000000 0 0 1
30.006862 -11.237405 -1.342892 32.070148 -0.358327 1.612682 0.135973 -0.047138 1622810.000000 0 0 1
31.490662 -10.778005 -1.775092 33.331339 -0.329763 1.624077 0.142202 -0.044554 1025530.000000 0 0 1
31.602062 -10.289705 -3.111992 33.380426 -0.314777 1.664160 0.138321 -0.050993 -16456.800000 0 0 1
32.892862 -10.306005 -3.683792 34.665897 -0.303632 1.677263 0.160172 -0.054310 -5196.160000 0 0 1
32.969262 -9.992105 -5.152792 34.833399 -0.294274 1.719268 0.156533 -0.052931 125599.000000 0 0 1
32.073662 -10.884305 -5.807792 34.364493 -0.327159 1.740617 0.126267 -0.053668 387462.000000 0 0 1
32.170462 -10.812605 -7.227992 34.700071 -0.324242 1.780632 0.114948 -0.040222 215364.000000 0 0 1
31.017862 -11.523005 -8.020292 34.047210 -0.355695 1.808595 0.116453 -0.036187 384037.000000 0 0 1
30.949962 -12.953205 -7.968492 34.484526 -0.396370 1.803978 0.098809 -0.035016 -448579.000000 0 0 1
29.672662 -13.390705 -8.311592 33.598518 -0.423919 1.820771 0.092897 -0.030630 -314653.000000 0 0 1
29.526462 -14.943805 -8.285192 34.114127 -0.468528 1.816116 0.094913 -0.023299 -33668.500000 0 0 1
29.978162 -15.582105 -9.467992 35.087534 -0.479348 1.844022 0.107680 -0.030954 240117.000000 0 0 1
30.060962 -17.010805 -9.426892 35.803564 -0.514951 1.837232 0.101479 -0.028670 -92422.200000 0 0 1
30.437062 -17.606605 -10.811692 36.787226 -0.524430 1.869099 0.088388 -0.032549 131298.000000 0 0 1
31.761862 -17.487105 -11.317892 37.983015 -0.503280 1.873364 0.084806 -0.028045 474971.000000 0 0 1
32.024562 -17.806805 -12.686392 38.776274 -0.507465 1.904102 0.072873 -0.017078 -64198.300000 0 0 1
31.234562 -17.037605 -13.799692 38.161621 -0.499361 1.940792 0.072459 -0.020641 124477.000000 0 0 1
31.812162 -15.773605 -13.983592 38.162300 -0.460311 1.945959 0.067343 -0.025310 -35136.000000 0 0 1
31.151362 -15.140005 -15.029092 37.755804 -0.452397 1.980198 0.069353 -0.024540 -1254810.000000 0 0 1
31.927862 -14.009105 -15.746492 38.256966 -0.413479 1.995003 0.063548 -0.023759 174452.000000 0 0 1
32.918362 -14.480405 -16.653892 39.631462 -0.414413 2.004483 0.040174 -0.021363 575562.000000 0 0 1
34.116262 -14.833305 -15.955992 40.478883 -0.410131 1.975972 0.048428 -0.023247 -511521.000000 0 0 1
35.245062 -15.321905 -16.891692 41.979810 -0.410079 1.984908 0.045637 -0.022011 83874.600000 0 0 1
36.529962 -15.548005 -16.346492 42.934676 -0.402399 1.961381 0.039030 -0.014832 142780.000000 0 0 1
-36.599748 -15.991505 -17.332592 43.539505 0.411931 1.980229 0.037423 -0.021473 -913552.000000 0 0 1
-35.164348 -15.952305 -16.882592 42.142963 0.425885 1.982971 0.040212 -0.011343 -1154170.000000 0 0 1
-34.764448 -16.825505 -15.827792 41.739471 0.450754 1.959733 0.029931 -0.009138 -42565.600000 0 0 1
-35.233948 -16.537905 -14.547992 41.552105 0.438848 1.928490 0.021147 -0.010952 -686547.000000 0 0 1
-34.563448 -17.298305 -13.401892 40.908117 0.464031 1.904569 0.028698 -0.010064 -155594.000000 0 0 1
-33.230948 -16.954405 -13.071692 39.529949 0.471774 1.907818 0.061406 -0.011582 140864.000000 0 0 1
-32.809948 -17.451905 -11.836492 39.002105 0.488848 1.879143 0.073961 -0.007566 92926.000000 0 0 1
-31.504348 -16.758505 -11.373392 37.452977 0.488874 1.879340 0.094734 -0.006749 81710.100000 0 0 1
-31.698948 -15.418905 -11.063692 36.945517 0.452722 1.874923 0.083567 -0.025386 997132.000000 0 0 1
-30.612748 -14.920005 -10.217292 35.554746 0.453500 1.862274 0.135542 -0.035509 677105.000000 0 0 1
-30.692048 -15.262005 -8.703692 35.365023 0.461455 1.819461 0.133032 -0.031381 -400121.000000 0 0 1
-30.338848 -16.571205 -8.498392 35.598781 0.499924 1.811851 0.097320 -0.024533 -119966.000000 0 0 1
-30.281448 -16.930705 -7.104492 35.413114 0.509812 1.772785 0.130616 -0.031719 -215057.000000 0 0 1
-30.353148 -18.477005 -6.865792 36.191883 0.546817 1.761658 0.100566 -0.029390 -780359.000000 0 0 1
-31.346748 -19.237705 -7.427892 37.521747 0.550437 1.770075 0.066245 -0.017658 -750588.000000 0 0 1
-31.182348 -19.540305 -8.817392 37.840570 0.559782 1.805972 0.066332 -0.011717 33609.100000 0 0 1
-32.445848 -20.202105 -9.439292 39.369510 0.556901 1.812916 0.048553 -0.002803 152004.000000 0 0 1
-33.583748 -19.366805 -9.499392 39.914655 0.523090 1.811095 0.029667 -0.006182 452832.000000 0 0 1
-34.751048 -20.199605 -9.447192 41.290541 0.526531 1.801639 0.017707 -0.011679 1031110.000000 0 0 1
-36.098148 -19.532105 -9.884992 42.217206 0.495972 1.807136 0.029436 -0.025072 463070.000000 0 0 1
-36.289448 -19.473605 -11.246692 42.692311 0.492512 1.837379 0.022403 -0.025477 -736654.000000 0 0 1
36.482762 -18.955405 -11.435492 42.673994 -0.479182 1.842085 0.054966 -0.035683 -1019500.000000 0 0 1
36.094962 -18.826905 -12.907892 42.707286 -0.480773 1.877839 0.040779 -0.027630 -235734.000000 0 0 1
35.460562 -19.969405 -13.480092 42.871220 -0.512879 1.890655 0.027063 -0.015441 181947.000000 0 0 1
35.039062 -19.684705 -14.801992 42.828991 -0.511852 1.923682 0.024507 -0.016726 230482.000000 0 0 1
33.774162 -20.473905 -15.230192 42.330055 -0.544966 1.938846 0.032718 -0.025000 618902.000000 0 0 1
32.576762 -20.166305 -14.501292 40.965995 -0.554302 1.932623 0.049716 -0.027158 1979780.000000 0 0 1
31.343262 -20.841905 -14.915092 40.487591 -0.586818 1.948069 0.066408 -0.030182 1673370.000000 0 0 1
30.678262 -20.338205 -16.230092 40.227034 -0.585426 1.986094 0.063618 -0.030670 -454123.000000 0 0 1
30.185962 -19.008505 -16.187092 39.173173 -0.561982 1.996782 0.062021 -0.031812 320819.000000 0 0 1
29.375362 -18.712305 -17.316292 38.896224 -0.567187 2.032185 0.056842 -0.030575 126719.000000 0 0 1
28.531862 -17.398905 -17.149492 37.561871 -0.547599 2.044928 0.059994 -0.015960 1813110.000000 0 0 1
27.297262 -17.676505 -16.374592 36.410529 -0.574655 2.037250 0.079754 -0.035488 2009870.000000 0 0 1
26.505362 -16.516205 -16.106292 35.138752 -0.557251 2.046948 0.059626 -0.020710 -1161540.000000 0 0 1
25.216262 -16.710905 -15.305492 33.902394 -0.585254 2.039195 0.064526 -0.023146 1021530.000000 0 0 1
24.102762 -17.349805 -16.012192 33.739430 -0.623909 2.065288 0.080558 -0.021226 1224440.000000 0 0 1
23.673562 -16.659605 -17.182392 33.663253 -0.613220 2.106469 0.084539 -0.012277 -705923.000000 0 0 1
22.545462 -17.416005 -17.983492 33.690074 -0.657736 2.133875 0.087290 -0.004658 1046820.000000 0 0 1
21.253862 -17.349905 -17.383292 32.479604 -0.684612 2.135548 0.082932 -0.003444 314263.000000 0 0 1
20.292362 -18.047005 -18.160092 32.668996 -0.726900 2.160219 0.083314 -0.009697 500149.000000 0 0 1
18.896762 -18.282505 -17.532292 31.602514 -0.768878 2.158889 0.087144 -0.005267 301339.000000 0 0 1
18.173562 -17.075705 -17.423892 30.421211 -0.754263 2.180659 0.095757 -0.010564 858129.000000 0 0 1
16.858362 -17.297805 -16.873292 29.463985 -0.798263 2.180562 0.099939 -0.025512 1084560.000000 0 0 1
16.034562 -16.009605 -16.516692 28.039539 -0.784619 2.200679 0.102396 -0.019869 -38724.300000 0 0 1
15.673762 -15.251405 -17.689592 28.128168 -0.771742 2.250924 0.097668 -0.013433 228160.000000 0 0 1
14.282762 -15.025405 -17.546592 27.159584 -0.810732 2.273201 0.092096 -0.011030 -4607.570000 0 0 1
13.562462 -14.791605 -18.863792 27.542233 -0.828721 2.325269 0.087577 -0.022464 -143375.000000 0 0 1
13.579262 -13.491905 -19.347092 27.216499 -0.782171 2.361515 0.092240 -0.032334 41388.400000 0 0 1
13.108462 -13.444905 -20.695892 27.944896 -0.798068 2.404754 0.075230 -0.013998 29824.400000 0 0 1
13.002462 -11.956405 -21.243292 27.627832 -0.743511 2.447930 0.075846 -0.010720 101072.000000 0 0 1
14.225562 -11.316705 -21.589492 28.223051 -0.672003 2.441775 0.069875 0.000602 57377.400000 0 0 1
13.970862 -10.271305 -22.508692 28.413481 -0.633958 2.485175 0.035956 -0.003864 -135085.000000 0 0 1
15.257962 -9.509805 -22.884292 29.102107 -0.557353 2.475666 0.049516 0.006620 58440.100000 0 0 1
15.965662 -10.203405 -23.902892 30.501805 -0.568663 2.471324 0.067748 0.004848 -462888.000000 0 0 1
17.070062 -9.482905 -24.323992 31.192453 -0.507078 2.465149 0.087899 -0.010648 -517000.000000 0 0 1
22.140262 5.536495 -7.475392 24.015109 0.245039 1.887335 0.145221 0.016180 -422958.000000 0 1 0
21.917762 6.948295 -7.354792 24.140424 0.306994 1.880385 0.138648 0.007151 598963.000000 0 1 0
21.347162 7.290695 -6.102392 23.368671 0.329109 1.834995 0.136612 0.000331 -249378.000000 0 1 0
21.093462 8.829995 -5.939692 23.625895 0.396448 1.824929 0.121420 0.003157 -721995.000000 0 1 0
20.002162 9.324495 -6.666792 23.053825 0.436223 1.864170 0.047761 -0.004931 197570.000000 0 1 0
19.916562 10.690695 -6.789392 23.602039 0.492632 1.862580 0.069206 0.003376 -157931.000000 0 1 0
19.527362 11.521795 -5.573092 23.347998 0.533059 1.811820 0.095863 0.009043 650323.000000 0 1 0
20.629762 11.725295 -4.642992 24.179062 0.516836 1.764022 0.109497 0.010478 1170030.000000 0 1 0
20.257862 12.710095 -3.743892 24.206285 0.560334 1.726086 0.125802 -0.008586 50579.800000 0 1 0
21.409662 12.893395 -2.729292 25.140850 0.542053 1.679571 0.125936 -0.025968 130516.000000 0 0 1
22.636062 13.415095 -3.228592 26.509996 0.534992 1.692887 0.110179 -0.032491 986853.000000 0 0 1
23.652162 13.650595 -2.263692 27.402333 0.523441 1.653500 0.114873 -0.033186 166714.000000 0 0 1
24.414362 12.441795 -1.703892 27.454737 0.471306 1.632898 0.116219 -0.037888 -744400.000000 0 0 1
25.601662 12.056695 -2.375592 28.398106 0.440126 1.654547 0.113688 -0.034338 692306.000000 0 0 1
26.253862 10.926995 -1.728092 28.489486 0.394398 1.631491 0.127283 -0.037921 -189702.000000 0 0 1
27.692862 10.650695 -2.153592 29.748443 0.367161 1.643253 0.144814 -0.039224 -842425.000000 0 0 1
28.532262 11.721095 -1.982992 30.909648 0.389783 1.634995 0.120509 -0.042643 393672.000000 0 0 1
29.892762 11.261995 -2.002792 32.006577 0.360301 1.633412 0.111709 -0.033789 1007200.000000 0 0 1
31.021262 12.234195 -1.532292 33.381764 0.375653 1.616715 0.091695 -0.024091 -176425.000000 0 0 1
30.883662 12.555595 -0.144892 33.338635 0.386136 1.575142 0.119170 -0.027822 704237.000000 0 0 1
31.789762 13.555695 0.355408 34.561137 0.403070 1.560513 0.098054 -0.019669 698637.000000 0 0 1
33.308362 13.193295 0.420208 35.828573 0.377136 1.559068 0.097187 -0.016249 84666.500000 0 0 1
34.170662 14.258295 0.708008 37.032883 0.395303 1.551677 0.089596 -0.018723 323090.000000 0 0 1
35.113862 14.600595 -0.309692 38.029681 0.394059 1.578940 0.108015 -0.014471 14352.400000 0 0 1
34.575162 15.531695 -1.365092 37.928075 0.422201 1.606796 0.067190 -0.001630 -406030.000000 0 0 1
33.457262 15.025295 -2.055492 36.733812 0.422096 1.626782 0.085135 0.001508 -269514.000000 0 0 1
33.149962 15.943995 -3.043192 36.910595 0.448305 1.653338 0.072304 0.008036 289920.000000 0 0 1
31.759662 15.708395 -3.711292 35.625883 0.459320 1.675160 0.073302 -0.010065 -98199.500000 0 0 1
31.664262 14.567395 -4.532892 35.147996 0.431187 1.700122 0.079419 -0.012366 -116127.000000 0 0 1
30.481762 14.554695 -5.265792 34.186336 0.445477 1.725444 0.080398 -0.025795 125330.000000 0 0 1
29.159962 14.021695 -4.605992 32.682205 0.448214 1.712200 0.083042 -0.032306 -148046.000000 0 0 1
28.163962 13.936495 -5.588592 31.916564 0.459507 1.746804 0.110251 -0.042747 -538391.000000 0 0 1
27.004062 13.394395 -5.015592 30.557902 0.460454 1.735676 0.109358 -0.024870 -501430.000000 0 0 1
25.902062 13.307195 -6.084992 29.749377 0.474587 1.776792 0.098791 -0.025802 -390552.000000 0 0 1
26.170562 12.219395 -6.978192 29.713753 0.436830 1.807858 0.092224 -0.013227 641651.000000 0 0 1
25.158662 11.958295 -7.955692 28.969849 0.443706 1.848991 0.106333 -0.014878 256700.000000 0 0 1
24.878062 13.030595 -9.096092 29.520388 0.482489 1.884022 0.108370 -0.010847 -245191.000000 0 0 1
24.173362 14.167495 -8.691492 29.336179 0.530120 1.871583 0.100353 -0.023532 -190756.000000 0 0 1
24.036962 15.150295 -9.700092 30.023304 0.562395 1.899784 0.098881 -0.032760 -1060180.000000 0 0 1
23.023762 16.260895 -9.322792 29.688799 0.614919 1.890218 0.097201 -0.033912 370981.000000 0 0 1
21.663162 15.877595 -9.385492 28.451329 0.632487 1.906972 0.106651 -0.030471 220945.000000 0 0 1
21.252262 14.962695 -8.349892 27.299480 0.613440 1.881641 0.116800 -0.035212 -450788.000000 0 0 1
19.743962 14.522795 -8.376592 25.901794 0.634193 1.900115 0.131656 -0.018706 685259.000000 0 0 1
18.802762 15.506095 -7.920392 25.626460 0.689604 1.885012 0.150535 -0.037338 -51480.000000 0 0 1
17.610762 14.786795 -7.758492 24.268961 0.698452 1.896196 0.162916 -0.044309 -709153.000000 0 1 0
16.875862 15.204295 -6.479192 23.620865 0.733339 1.848658 0.166915 -0.025698 -83260.500000 0 1 0
17.389662 14.491995 -5.318492 23.253057 0.694759 1.801561 0.180162 -0.023980 817564.000000 0 1 0
16.656862 14.921695 -4.183092 22.750963 0.730506 1.755713 0.151191 -0.018534 16725.100000 0 1 0
16.326162 13.860295 -3.087892 21.637616 0.703891 1.713995 0.105872 -0.008452 525729.000000 0 1 0
17.490862 13.343395 -2.398592 22.129837 0.651692 1.679397 0.114732 -0.013051 995579.000000 0 1 0
17.184762 12.347295 -1.470492 21.211650 0.623036 1.640177 0.095303 -0.017564 -192402.000000 0 1 0
16.953962 12.896695 -0.010192 21.301683 0.650307 1.571275 0.088370 -0.024521 147460.000000 0 1 0
15.772862 13.678895 0.083708 20.878275 0.714419 1.566787 0.077991 -0.032685 659837.000000 0 1 0
16.008062 14.691695 1.085408 21.755047 0.742546 1.520883 0.080297 -0.026848 38229.200000 0 1 0
14.737662 15.536795 1.376008 21.458893 0.811788 1.506629 0.085100 -0.026128 -106267.000000 0 1 0
14.555562 16.651895 0.519208 22.122830 0.852472 1.547325 0.084975 -0.027965 89483.000000 0 1 0
13.709562 17.624695 1.055208 22.353869 0.909701 1.523574 0.072010 -0.031566 -307748.000000 0 1 0
13.682662 18.957895 0.333308 23.382218 0.945629 1.556541 0.066234 -0.033703 63917.400000 0 1 0
12.910762 19.040795 -0.856992 23.021166 0.974949 1.608031 0.059848 -0.036515 21798.700000 0 1 0
12.557862 20.368695 -1.163292 23.956980 1.018313 1.619373 0.057329 -0.040367 -628457.000000 0 1 0
11.063462 20.629995 -1.228592 23.441552 1.078547 1.623231 0.051801 -0.037151 -398674.000000 0 1 0
10.405562 20.645595 0.036108 23.119637 1.103947 1.569235 0.036807 -0.036126 -212665.000000 0 1 0
9.011062 20.493095 -0.097492 22.386954 1.156531 1.575151 0.032451 -0.032524 74718.000000 0 1 0
8.323462 20.412295 1.260408 22.080092 1.183612 1.513682 0.019612 -0.032030 -81843.100000 0 1 0
8.331762 21.614095 1.979108 23.248747 1.202871 1.485566 0.019680 -0.029085 943872.000000 0 1 0
7.252062 21.592695 2.965208 22.970184 1.246776 1.441346 0.009490 -0.027089 809134.000000 0 1 0
6.972162 23.049695 3.369008 24.315627 1.277062 1.431796 0.013377 -0.018718 -79829.600000 0 1 0
7.412062 23.319295 4.687408 24.913851 1.263044 1.381524 0.012106 -0.019799 84840.000000 0 1 0
7.209562 24.647695 5.045208 26.171374 1.286230 1.376806 0.012752 -0.013907 -192132.000000 0 0 1
7.751162 25.023395 6.428908 26.973722 1.270413 1.330140 0.017568 -0.012557 -318374.000000 0 0 1
7.126762 24.367195 7.520708 26.478520 1.286259 1.282801 0.017160 -0.019614 -123436.000000 0 0 1
7.881662 24.364895 8.709608 27.048586 1.257936 1.242957 0.022915 -0.024056 -396348.000000 0 0 1
7.459162 23.313995 9.725108 26.339309 1.261145 1.192622 0.029604 -0.025661 -452243.000000 0 0 1
6.268362 23.644595 10.390908 26.576874 1.311650 1.169105 0.033991 -0.025569 36570.200000 0 0 1
5.683662 22.522195 11.048008 25.721815 1.323599 1.126836 0.031149 -0.028226 64257.500000 0 0 1
4.357062 22.805595 11.786408 26.038406 1.382019 1.101056 0.036223 -0.031058 517142.000000 0 0 1
3.270262 23.149695 10.922308 25.805035 1.430459 1.133753 0.036253 -0.029338 296607.000000 0 0 1
2.055362 23.247095 11.630308 26.075199 1.482612 1.108472 0.045966 -0.028848 309939.000000 0 0 1
0.791962 23.579495 10.788408 25.942428 1.537222 1.141909 0.071464 -0.022830 156707.000000 0 0 1
0.732062 24.856195 10.239708 26.892712 1.541353 1.180177 0.063618 -0.018900 30227.700000 0 0 1
-0.119438 24.905595 9.109808 26.519645 -1.566001 1.220143 0.062754 -0.021940 438957.000000 0 0 1
-1.548838 25.452395 9.328908 27.152382 -1.510019 1.220074 0.071064 -0.029822 264765.000000 0 0 1
-2.481538 24.580395 9.927308 26.625276 -1.470181 1.188715 0.062743 -0.028798 1706970.000000 0 0 1
-3.851938 25.077495 9.732208 27.174143 -1.418386 1.204519 0.064085 -0.024432 1344230.000000 0 0 1
-4.998038 24.205095 10.285408 26.770443 -1.367171 1.176447 0.050986 -0.027973 -62291.800000 0 0 1
-5.300138 24.420095 11.611308 27.554582 -1.357071 1.135816 0.040971 -0.012141 100222.000000 0 0 1
-6.139338 25.547495 11.840608 28.819542 -1.334958 1.147406 0.041380 -0.011192 -321994.000000 0 0 1
-6.696038 25.634295 13.288608 29.640194 -1.315291 1.105899 0.038477 -0.005643 101329.000000 0 0 1
-7.711038 24.689195 13.570008 29.208930 -1.268071 1.087631 0.028504 -0.018280 -15248.600000 0 0 1
-7.990238 24.739795 14.974508 30.002288 -1.258401 1.048222 0.025538 0.006934 332394.000000 0 0 1
-9.261438 23.942395 15.382908 29.927352 -1.201702 1.030945 0.022506 -0.002028 961571.000000 0 0 1
-10.509538 24.562495 15.041508 30.659640 -1.166498 1.058022 0.028476 0.004365 902202.000000 0 0 1
-11.616938 23.737595 15.418708 30.596785 -1.115673 1.042651 0.015432 0.000364 168922.000000 0 0 1
-12.991138 24.325195 15.092708 31.436835 -1.080273 1.070032 0.014633 -0.004071 -368623.000000 0 0 1
-13.469438 25.084595 16.222808 32.769531 -1.078019 1.052895 0.013557 -0.007139 168518.000000 0 0 1
-14.280038 26.135295 15.736108 33.683798 -1.070730 1.084707 0.005332 -0.006078 -160211.000000 0 0 1
-15.068638 26.995395 16.805508 35.188639 -1.061685 1.072894 0.021851 0.000513 874747.000000 0 0 1
-16.261138 26.407695 17.350608 35.536384 -1.018860 1.060714 0.021442 -0.005218 512603.000000 0 0 1
-16.695238 27.215295 18.452508 36.876799 -1.020545 1.046756 0.043176 -0.014241 -807647.000000 0 0 1
-18.027538 26.774295 19.020808 37.465266 -0.978205 1.038293 0.039747 -0.023603 -322760.000000 0 0 1
-19.105738 27.101795 18.142008 37.797738 -0.956748 1.070169 0.032528 -0.019992 -525290.000000 0 0 1
-20.268038 26.482895 18.591308 38.180804 -0.917559 1.062227 0.058271 -0.019226 -576090.000000 0 0 1
-21.436038 26.762695 17.615308 38.549250 -0.895466 1.096226 0.057642 -0.024204 -352776.000000 0 0 1
-21.986338 28.082995 17.712308 39.821847 -0.906566 1.109858 0.055072 -0.022006 164915.000000 0 0 1
-22.699838 28.346795 16.540508 39.905035 -0.895574 1.143407 0.054123 -0.019545 65820.700000 0 0 1
-23.852138 29.391095 16.642508 41.348930 -0.889056 1.156562 0.057207 -0.026428 271564.000000 0 0 1
-25.012838 29.059095 17.368708 42.092102 -0.860090 1.145451 0.079759 -0.027755 -362138.000000 0 0 1
-25.818408 30.141195 17.558608 43.398002 -0.862493 1.154261 0.078914 -0.032617 -463040.000000 0 0 1
-27.226238 29.831595 18.095708 44.256601 -0.831028 1.149568 0.100857 -0.030215 -765207.000000 0 0 1
-28.082248 29.152195 17.250808 44.000608 -0.804090 1.167928 0.116797 -0.023042 500138.000000 0 0 1
-29.448898 29.021695 17.678208 44.966826 -0.778092 1.166753 0.128125 -0.022849 931732.000000 0 0 1
-29.726338 28.114995 18.959008 45.094923 -0.757547 1.136883 0.114563 -0.023283 -851954.000000 0 0 1
-29.574258 26.826195 18.563108 44.032607 -0.736713 1.135613 0.105133 -0.014580 103844.000000 0 0 1
-29.652828 25.859795 19.628908 43.969458 -0.717177 1.108034 0.103961 -0.011475 -33738.000000 0 0 1
-29.725798 24.467895 19.105408 42.980432 -0.688680 1.110165 0.091472 -0.014377 -642011.000000 0 0 1
-30.927298 24.250395 18.445808 43.414597 -0.664976 1.131972 0.093601 -0.011836 -474352.000000 0 0 1
-30.879778 23.297595 17.413708 42.421408 -0.646350 1.147801 0.103961 -0.004049 -195140.000000 0 0 1
-31.198258 21.772995 17.809608 42.006865 -0.609309 1.132973 0.091497 -0.003077 -191610.000000 0 0 1
-32.519528 21.351395 17.587308 42.693268 -0.580981 1.146208 0.095525 -0.005740 -202468.000000 0 0 1
-32.597918 19.950295 17.423708 42.002668 -0.549205 1.143047 0.082245 -0.011029 185275.000000 0 0 1
-33.943178 19.528895 16.780908 42.604177 -0.522090 1.165948 0.097908 -0.024204 184640.000000 0 0 1
-34.153814 19.883295 15.425708 42.423825 -0.527205 1.198657 0.087161 -0.023030 633469.000000 0 0 1
-35.381774 19.315195 14.946608 42.992415 -0.499696 1.215725 0.105016 -0.028742 581045.000000 0 0 1
-35.754479 19.632895 13.481308 42.960202 -0.502154 1.251594 0.116164 -0.031357 -4067.860000 0 0 1
-35.914287 21.059295 13.344108 43.719505 -0.530342 1.260626 0.115580 -0.040865 18144.600000 0 0 1
-36.383938 21.461195 12.075208 43.933865 -0.532925 1.292363 0.082758 -0.018077 -370374.000000 0 0 1
-35.428489 21.291495 10.903908 42.748109 -0.541133 1.312873 0.104717 -0.028233 -379781.000000 0 0 1
-35.388272 20.008795 10.389608 41.959810 -0.514595 1.320585 0.107794 -0.033107 1207720.000000 0 0 1
-34.193996 19.870895 9.554508 40.686244 -0.526423 1.333749 0.128313 -0.033092 1118400.000000 0 0 1
-33.197308 18.844795 10.106208 39.488264 -0.516301 1.311987 0.113428 -0.029707 -385769.000000 0 0 1
-32.765998 19.165795 11.391708 39.632175 -0.529264 1.279248 0.123919 -0.041283 29965.700000 0 0 1
-31.985278 18.156495 11.982908 38.682120 -0.516294 1.255836 0.113407 -0.036945 -179961.000000 0 0 1
-31.489898 18.501895 13.344108 38.884431 -0.531215 1.220503 0.095353 -0.019068 -123296.000000 0 0 1
-30.384288 19.381295 13.433108 38.461512 -0.567802 1.214014 0.103264 -0.013342 24468.500000 0 0 1
-30.713528 20.725795 13.526708 39.444280 -0.593619 1.220760 0.110020 -0.011628 122395.000000 0 0 1
-29.432588 21.543995 13.816408 39.004027 -0.631867 1.208705 0.108381 -0.014993 227020.000000 0 0 1
-28.966858 21.271495 15.125808 38.991607 -0.633403 1.172417 0.094028 -0.011944 -201348.000000 0 0 1
-27.834948 22.079295 15.369108 38.710323 -0.670594 1.162519 0.119235 -0.014403 -189222.000000 0 0 1
-27.228298 21.835095 16.761708 38.718296 -0.675915 1.123073 0.104955 -0.011345 -136909.000000 0 0 1
-26.414868 20.668595 16.846108 37.533018 -0.663954 1.105336 0.110360 -0.017143 335037.000000 0 0 1
-25.845458 20.520995 18.152408 37.664424 -0.671065 1.067916 0.097340 -0.007578 -217318.000000 0 0 1
-24.805238 19.429095 18.288908 36.431768 -0.664454 1.044882 0.096537 -0.009890 -624023.000000 0 0 1
-24.122538 19.472795 19.478208 36.612664 -0.679143 1.009827 0.093161 -0.012419 -165687.000000 0 0 1
-23.046338 18.546795 19.402208 35.377436 -0.677637 0.990305 0.088689 -0.014522 178224.000000 0 0 1
-22.191538 18.495395 20.714508 35.547642 -0.694803 0.948718 0.091082 -0.019324 101359.000000 0 0 1
-22.814938 17.940795 21.842808 36.324947 -0.666369 0.925648 0.119638 -0.004935 566432.000000 0 0 1
-23.913438 18.609495 22.490608 37.735835 -0.661308 0.932284 0.097808 -0.015576 435225.000000 0 0 1
-24.502038 17.756895 23.594608 38.371379 -0.627119 0.908536 0.084331 -0.023237 -125237.000000 0 0 1
-23.538638 17.351695 24.570508 38.195008 -0.635231 0.872007 0.097130 -0.017598 369186.000000 0 0 1
-23.900138 16.127995 25.167608 38.271887 -0.593618 0.853167 0.102206 -0.014784 -319078.000000 0 0 1
21.356362 24.485695 33.441087 46.625635 0.853556 0.770984 0.046105 0.001528 541269.000000 0 0 1
22.089462 23.325995 32.994989 46.051229 0.812619 0.772047 0.063636 -0.013252 392459.000000 0 0 1
21.349762 22.155395 33.282487 45.325466 0.803914 0.746161 0.060165 -0.013411 271048.000000 0 0 1
20.324562 21.713695 32.214334 43.844449 0.818431 0.745511 0.069972 -0.017410 47905.100000 0 0 1
20.893562 21.031695 31.108204 42.972009 0.788693 0.761332 0.081239 -0.012829 468359.000000 0 0 1
20.024062 19.976795 30.632674 41.694078 0.784217 0.745571 0.086096 -0.021826 253035.000000 0 0 1
20.475362 19.368495 29.297324 40.653564 0.757625 0.766045 0.084382 -0.015592 -628638.000000 0 0 1
21.659262 18.668295 29.412794 41.021231 0.711367 0.771287 0.089672 -0.014951 -810202.000000 0 0 1
22.107762 18.007495 28.207294 40.108285 0.683540 0.790798 0.080739 -0.011532 237283.000000 0 0 1
23.391862 17.191895 28.457664 40.651927 0.633801 0.795354 0.076388 -0.009329 262123.000000 0 0 1
24.613262 17.898295 28.544494 41.724691 0.628736 0.817406 0.078985 -0.009171 -69105.300000 0 0 1
25.680062 17.094395 29.027604 42.359010 0.587311 0.815814 0.075444 0.000839 582552.000000 0 0 1
26.961962 18.000495 28.960364 43.470311 0.588666 0.841681 0.064386 -0.005621 633403.000000 0 0 1
27.746662 17.910495 27.743604 43.132015 0.573206 0.872093 0.077830 0.001963 90403.200000 0 0 1
29.096862 18.227895 27.970544 44.285832 0.559645 0.887192 0.085508 -0.000265 -145634.000000 0 0 1
29.851962 17.902995 26.673294 43.853410 0.540218 0.916958 0.082258 -0.002824 -320337.000000 0 0 1
29.821162 18.915195 25.638494 43.639646 0.565250 0.942825 0.092792 -0.015481 101681.000000 0 0 1
30.647962 18.581995 24.559794 43.448494 0.545042 0.970045 0.092509 -0.003462 -387821.000000 0 0 1
31.093062 19.684195 23.628514 43.732742 0.564384 1.000011 0.101385 -0.013040 -1077700.000000 0 0 1
30.037662 20.169595 22.910774 42.824961 0.591325 1.006305 0.091850 -0.016592 -707552.000000 0 0 1
30.374662 21.045895 21.828274 42.918800 0.605929 1.037244 0.090375 -0.022816 -55996.700000 0 0 1
31.037462 20.364795 20.576874 42.443571 0.580677 1.064656 0.117605 -0.018268 -311132.000000 0 0 1
30.244762 19.363695 19.968974 41.090854 0.569478 1.063322 0.113784 -0.036057 94845.500000 0 0 1
30.868562 18.602795 18.924474 40.707098 0.542362 1.087282 0.136158 -0.032544 50952.700000 0 0 1
32.019762 17.642495 19.293674 41.337255 0.503601 1.085197 0.160743 -0.042481 -12490.500000 0 0 1
31.530562 16.437795 19.914374 40.754874 0.480565 1.060268 0.163847 -0.037160 223695.000000 0 0 1
32.529262 15.519695 20.294874 41.362976 0.445160 1.057957 0.141443 -0.036644 -808582.000000 0 0 1
31.944562 14.105995 20.710874 40.600178 0.415828 1.035475 0.142637 -0.035246 -16409.500000 0 0 1
31.317062 14.073095 21.949274 40.750228 0.422334 1.001987 0.126281 -0.032955 -364745.000000 0 0 1
30.055762 14.668095 21.994374 40.028170 0.454025 0.989064 0.130574 -0.026677 -1270180.000000 0 0 1
29.191762 14.104995 23.107084 39.812652 0.450105 0.951582 0.093422 -0.021241 -114201.000000 0 0 1
28.714962 12.732895 22.927774 38.889054 0.417372 0.940271 0.107142 -0.024162 516488.000000 0 0 1
27.841862 12.329995 23.982784 38.760444 0.416899 0.903654 0.082354 -0.012344 -14803.000000 0 0 1
27.438162 10.830095 23.804474 37.905101 0.375937 0.891813 0.093648 -0.013742 -41757.800000 0 0 1
26.703662 10.593795 22.612874 36.560309 0.377673 0.903953 0.072694 -0.010659 -46926.200000 0 0 1
26.226862 9.259095 22.720874 35.914026 0.339379 0.885831 0.062558 -0.005675 40800.400000 0 0 1
25.014662 8.869995 21.831274 34.365894 0.340760 0.882451 0.049609 -0.019921 121805.000000 0 0 1
23.759962 9.376395 22.238374 33.867357 0.375869 0.854453 0.041552 -0.009833 -7190.050000 0 0 1
22.782762 8.909895 21.348774 32.468610 0.372794 0.853273 0.045093 0.000044 377023.000000 0 0 1
21.287462 9.174095 21.735374 31.776510 0.406910 0.817554 0.027039 0.000009 446872.000000 0 0 1
20.823362 8.132395 22.545174 31.749538 0.372326 0.781164 0.035024 0.005620 -1128990.000000 0 0 1
19.463262 8.313695 22.646374 30.996683 0.403689 0.751587 0.054698 -0.003177 -1271060.000000 0 0 1
18.960362 7.925395 24.077334 31.654783 0.395925 0.706525 0.043279 0.003542 -439009.000000 0 0 1
18.959362 6.540495 24.339524 31.538040 0.332191 0.689206 0.056858 0.000429 302804.000000 0 0 1
18.864062 6.189195 25.744204 32.510353 0.317028 0.656920 0.042808 -0.001789 -136578.000000 0 0 1
18.939962 4.628095 25.935624 32.446850 0.239660 0.644623 0.046347 -0.007329 734455.000000 0 0 1
20.273762 4.201995 25.628164 32.946700 0.204369 0.679531 0.052300 -0.003702 881839.000000 0 0 1
20.310262 2.762395 25.714334 32.884108 0.135180 0.672979 0.059085 -0.003995 -141553.000000 0 0 1
21.643562 2.197495 25.198154 33.289935 0.101184 0.712194 0.059272 -0.003229 304236.000000 0 0 1
22.677862 2.344395 26.171204 34.708984 0.103012 0.716638 0.062979 -0.011341 888473.000000 0 0 1
24.005062 2.234095 25.636064 35.191505 0.092800 0.754706 0.074378 -0.007920 1087470.000000 0 0 1
25.099762 2.708295 26.641454 36.702861 0.107485 0.758500 0.062937 -0.008798 -166365.000000 0 0 1
25.289762 1.719295 27.667244 37.523386 0.067879 0.741682 0.076485 -0.019730 -112500.000000 0 0 1
25.827462 2.203195 28.868014 38.797862 0.085098 0.731667 0.075943 -0.001619 616616.000000 0 0 1
27.385162 2.333595 28.845614 39.842970 0.085008 0.761238 0.056207 -0.004831 196029.000000 0 0 1
27.915062 3.572495 28.226684 39.859242 0.127285 0.783909 0.073807 0.010871 887780.000000 0 0 1
29.314262 3.640395 27.951024 40.667410 0.123553 0.813020 0.081696 0.010216 685516.000000 0 0 1
29.787362 2.699595 26.777474 40.144836 0.090382 0.840592 0.097489 0.005036 -376999.000000 0 0 1
29.398262 3.106795 25.481884 39.028662 0.105289 0.859387 0.092106 0.008056 46857.300000 0 0 1
29.615162 2.104995 24.483644 38.482953 0.070959 0.881207 0.112429 0.009628 -232201.000000 0 0 1
29.328162 2.566895 23.041464 37.385012 0.087301 0.906724 0.107844 0.006296 129796.000000 0 0 1
30.277562 3.453395 22.503574 37.882286 0.113567 0.934725 0.101275 0.003972 1535150.000000 0 0 1
31.598562 2.904695 22.113874 38.677252 0.091667 0.962154 0.089713 0.002729 1663150.000000 0 0 1
32.461862 3.978695 21.498974 39.138324 0.121957 0.989261 0.104486 -0.013534 -852618.000000 0 0 1
32.002062 4.304795 20.215474 38.096308 0.133714 1.011439 0.098122 -0.020821 132015.000000 0 0 1
32.579162 5.559195 19.788874 38.521501 0.169009 1.031293 0.117811 -0.021481 -239017.000000 0 0 1
34.082662 5.773595 19.620074 39.748077 0.167807 1.054560 0.095754 -0.021226 -914081.000000 0 0 1
34.959162 5.675395 20.722474 41.033816 0.160940 1.041403 0.090256 -0.019781 222900.000000 0 0 1
34.914662 6.823895 21.555274 41.596022 0.193012 1.026045 0.101397 -0.027819 -622352.000000 0 0 1
35.610562 6.671195 22.895174 42.857975 0.185191 1.007223 0.121115 -0.027238 -188360.000000 0 0 1
34.984162 5.696195 23.649014 42.610024 0.161406 0.982421 0.124194 -0.014066 -14367.900000 0 0 1
35.672862 5.457395 24.827494 43.803433 0.151807 0.968188 0.127461 -0.014493 530407.000000 0 0 1
34.831262 4.371795 25.656724 43.480995 0.124861 0.939654 0.128678 -0.007108 718959.000000 0 0 1
34.896662 3.095095 25.046784 43.066206 0.088462 0.950117 0.132996 -0.008544 211102.000000 0 0 1
34.223762 2.132795 25.865544 42.951614 0.062239 0.924540 0.113312 -0.007503 111639.000000 0 0 1
34.251262 0.710195 25.326064 42.603555 0.020732 0.934204 0.113766 -0.011351 -424450.000000 0 0 1
33.253862 0.428695 24.395184 41.244735 0.012891 0.937911 0.118340 -0.006095 -250967.000000 0 0 1
33.293862 -0.968805 24.138124 41.134765 -0.029090 0.943688 0.113015 -0.010978 -43653.600000 0 0 1
32.208262 -1.439105 23.133744 39.681397 -0.044652 0.948396 0.123052 -0.008014 -226221.000000 0 0 1
30.992262 -1.639005 23.797934 39.109440 -0.052835 0.916632 0.110134 -0.003347 -1234150.000000 0 0 1
30.153962 -2.347105 22.985264 37.988060 -0.077681 0.920948 0.126125 -0.010430 -918662.000000 0 0 1
28.665262 -2.108305 23.192574 36.932881 -0.073417 0.891860 0.109251 -0.004646 -463442.000000 0 0 1
28.201962 -0.842105 22.832774 36.295942 -0.029851 0.890437 0.105417 -0.006273 124612.000000 0 0 1
26.796762 -0.845205 22.615374 35.074720 -0.031531 0.870065 0.093074 -0.000843 465409.000000 0 0 1
26.079962 0.511495 22.741574 34.606434 0.019610 0.853767 0.083110 0.001799 -5621.400000 0 0 1
26.291762 1.316495 21.570674 34.033570 0.050031 0.884333 0.074520 -0.000191 -102994.000000 0 0 1
25.297262 2.283195 21.482774 33.266711 0.090011 0.868760 0.066476 0.000877 -331438.000000 0 0 1
25.300562 3.197695 20.277574 32.581033 0.125722 0.899025 0.071880 -0.013207 -161175.000000 0 0 1
24.711762 2.607195 19.132574 31.361187 0.105115 0.914645 0.075799 -0.018906 276084.000000 0 0 1
24.346762 3.589395 18.169574 30.590554 0.146374 0.934824 0.070355 -0.018030 98878.700000 0 0 1
23.872062 3.068895 16.803274 29.353765 0.127855 0.961318 0.078246 -0.020547 -272855.000000 0 0 1
24.936762 2.562595 16.051774 29.766902 0.102404 1.001251 0.087764 -0.026609 -123394.000000 0 0 1
24.772862 2.755895 14.663174 28.918823 0.110791 1.039042 0.084320 -0.032733 -376731.000000 0 0 1
24.021662 1.716295 13.803874 27.758474 0.071327 1.050330 0.101599 -0.010683 708951.000000 0 0 1
22.619462 1.682395 14.122374 26.719131 0.074242 1.013906 0.088923 -0.008963 827251.000000 0 0 1
22.056262 0.503395 13.563074 25.897666 0.022819 1.019587 0.101504 -0.013488 -583504.000000 0 0 1
20.529262 0.542095 13.762474 24.721452 0.026400 0.980386 0.108194 -0.034330 -287784.000000 0 1 0
19.747162 1.362395 12.902574 23.628012 0.068883 0.993129 0.121367 -0.032363 450340.000000 0 1 0
19.610862 1.013695 11.508174 22.760746 0.051645 1.040702 0.115236 -0.032230 -857554.000000 0 1 0
19.371762 -0.483405 11.071174 22.317476 -0.024949 1.051722 0.113714 -0.023126 281249.000000 0 1 0
20.502662 -1.347305 11.196774 23.399618 -0.065619 1.071848 0.110979 -0.033736 1735320.000000 0 1 0
21.644962 -1.060205 10.320274 24.002843 -0.048942 1.126347 0.124194 -0.035924 662160.000000 0 1 0
22.805162 -2.060005 10.466274 25.176615 -0.090086 1.142068 0.134953 -0.044347 -556438.000000 0 0 1
23.467562 -1.895105 11.659974 26.273045 -0.080579 1.110962 0.130570 -0.045759 -382519.000000 0 0 1
24.414462 -2.896605 11.914674 27.320610 -0.118091 1.119530 0.122543 -0.045570 -96800.600000 0 0 1
24.983162 -2.683405 13.326774 28.442257 -0.106998 1.083141 0.144111 -0.035593 71173.200000 0 0 1
25.723562 -1.503805 13.596174 29.134499 -0.058394 1.085275 0.127112 -0.037099 82050.900000 0 0 1
25.958462 -1.452605 14.973874 30.002812 -0.055901 1.048257 0.119944 -0.030689 206167.000000 0 0 1
27.061062 -0.486405 15.493874 31.186501 -0.017972 1.050873 0.146277 -0.031386 1697690.000000 0 0 1
28.425062 -0.943205 15.264074 32.277945 -0.033170 1.078223 0.153515 -0.030582 1109070.000000 0 0 1
29.388262 0.012695 15.569574 33.257808 0.000432 1.083603 0.126793 -0.030641 307145.000000 0 0 1
30.770462 -0.539505 16.046574 34.707419 -0.017531 1.090166 0.130050 -0.026713 489292.000000 0 0 1
31.399862 -1.241505 15.020274 34.829604 -0.039518 1.124918 0.132293 -0.021833 -836047.000000 0 0 1
32.746562 -1.467205 15.262274 36.158361 -0.044775 1.135041 0.116327 -0.021918 -435141.000000 0 0 1
33.435562 -2.329805 14.166774 36.387667 -0.069568 1.170893 0.100494 -0.035405 -51297.900000 0 0 1
33.318462 -1.730905 12.856374 35.754752 -0.051904 1.202988 0.105984 -0.034464 377365.000000 0 0 1
34.021462 -2.531705 11.888674 36.127690 -0.074278 1.235474 0.093277 -0.031206 146163.000000 0 0 1
33.917862 -2.106005 10.417074 35.543946 -0.062012 1.273354 0.110408 -0.029464 -420344.000000 0 0 1
34.577062 -0.932605 10.039874 36.017247 -0.026965 1.288302 0.099587 -0.023638 -247949.000000 0 0 1
33.823862 0.243695 10.148174 35.314282 0.007205 1.279319 0.103975 -0.022269 -802581.000000 0 0 1
34.475362 1.468495 9.560374 35.806533 0.042570 1.300517 0.119315 -0.030705 -488673.000000 0 0 1
34.455262 1.451095 8.136974 35.432769 0.042090 1.339083 0.112750 -0.028821 124783.000000 0 0 1
34.865462 2.708995 7.660674 35.799791 0.077543 1.355142 0.118222 -0.032408 -121709.000000 0 0 1
34.951362 2.782695 6.168874 35.600507 0.079449 1.396637 0.100692 -0.037158 -152563.000000 0 0 1
35.550762 3.977395 5.771074 36.235089 0.111416 1.410848 0.093334 -0.020684 4522.370000 0 0 1
35.634862 4.045895 4.375274 36.129707 0.113053 1.449399 0.129882 -0.035900 -36549.400000 0 0 1
36.358462 5.317895 3.836474 36.945045 0.145233 1.466766 0.157021 -0.044395 70816.600000 0 0 1
35.664562 6.406495 4.377074 36.498808 0.177736 1.450583 0.151795 -0.045388 59355.900000 0 0 1
36.095162 7.628795 3.801774 37.087906 0.208287 1.468109 0.145042 -0.049093 -1026480.000000 0 0 1
34.987162 8.736595 3.820074 36.263240 0.244704 1.465258 0.160275 -0.034875 639643.000000 0 0 1
33.991062 8.664295 2.812174 35.190491 0.249584 1.490798 0.171688 -0.042059 144768.000000 0 0 1
33.199062 7.502095 2.839774 34.154407 0.222240 1.487555 0.175716 -0.042691 -1282730.000000 0 0 1
31.840862 7.597395 2.112174 32.802777 0.234226 1.506362 0.175696 -0.040036 -41502.700000 0 0 1
31.989362 7.893995 0.759874 32.957728 0.241936 1.547738 0.178746 -0.035665 -405099.000000 0 0 1
30.823562 7.827895 -0.000726 31.802011 0.248701 1.570819 0.149312 -0.024495 -641206.000000 0 0 1
31.150962 7.790895 -1.495626 32.145255 0.245074 1.617340 0.129036 -0.025755 -814981.000000 0 0 1
30.181262 7.265295 -2.330026 31.130726 0.236228 1.645713 0.153509 -0.026057 -48361.200000 0 0 1
30.645762 6.965495 -3.639926 31.637477 0.223494 1.686103 0.133156 -0.027259 -178471.000000 0 0 1
29.632662 6.184595 -4.539326 30.609629 0.205755 1.719643 0.162451 -0.030417 -27165.600000 0 0 1
29.653562 4.786495 -4.399326 30.357838 0.160034 1.716224 0.172351 -0.032394 531348.000000 0 0 1
28.530362 4.255495 -5.055426 29.285630 0.148065 1.744290 0.170995 -0.028712 -350745.000000 0 0 1
28.425362 2.716395 -5.210326 29.026324 0.095273 1.751278 0.196675 -0.020193 -512780.000000 0 0 1
27.912062 2.089695 -4.036226 28.279695 0.074728 1.714011 0.191091 -0.029956 540097.000000 0 0 1
27.537062 0.770895 -4.284226 27.879000 0.027988 1.725080 0.176557 -0.028134 -334351.000000 0 0 1
27.744662 -0.095305 -2.963326 27.902628 -0.003435 1.677199 0.171386 -0.027281 1490640.000000 0 0 1
29.127062 -0.126705 -2.496026 29.234089 -0.004350 1.656281 0.170467 -0.039050 1662330.000000 0 0 1
29.056562 0.079395 -1.159026 29.079777 0.002732 1.610664 0.174559 -0.035122 633583.000000 0 0 1
30.433062 0.555295 -0.587126 30.443790 0.018244 1.590083 0.188825 -0.037515 521060.000000 0 0 1
31.436562 -0.431205 -0.451626 31.442763 -0.013716 1.585160 0.175407 -0.034793 1144810.000000 0 0 1
32.616462 0.118895 0.201374 32.617301 0.003645 1.564622 0.126921 -0.032083 834145.000000 0 0 1
-3.235638 -21.287805 -8.676992 23.214870 1.419956 1.953865 0.031565 -0.001615 92336.200000 0 1 0
-3.629438 -21.851305 -7.458492 23.372664 1.406202 1.895588 0.031999 -0.008516 -217592.000000 0 1 0
-2.910438 -23.045605 -7.166992 24.309182 1.445171 1.870070 0.043525 -0.010613 -201701.000000 0 1 0
-3.350938 -23.619505 -5.813992 24.554272 1.429865 1.809848 0.043891 -0.010425 -652504.000000 0 1 0
-3.033038 -22.868505 -4.673592 23.537423 1.438936 1.770685 0.051279 -0.014576 -205360.000000 0 1 0
-3.464038 -23.452005 -3.497992 23.963139 1.424149 1.717294 0.056163 -0.015949 -250266.000000 0 1 0
-2.903738 -22.753605 -2.237392 23.046998 1.443866 1.668029 0.056624 -0.017925 422139.000000 0 1 0
-1.500138 -22.879305 -2.067892 23.021494 1.505323 1.660742 0.071724 -0.018418 -137331.000000 0 1 0
-1.208638 -22.482505 -0.706992 22.526066 1.517089 1.602187 0.063214 -0.026454 447155.000000 0 1 0
0.304062 -22.408205 -0.378292 22.413460 -1.557228 1.587675 0.058140 -0.025644 -124939.000000 0 1 0
1.003462 -21.351205 -0.974392 21.396970 -1.523833 1.616351 0.038645 -0.020139 -149088.000000 0 1 0
2.171262 -21.065005 -0.225092 21.177806 -1.468085 1.581425 0.027247 -0.019612 610666.000000 0 1 0
3.074662 -19.890205 -0.781092 20.141596 -1.417429 1.609586 0.029347 -0.019409 848747.000000 0 1 0
3.890862 -20.337905 -1.847392 20.788988 -1.381769 1.659778 0.031270 -0.015196 -567175.000000 0 1 0
4.862362 -19.469105 -2.327892 20.201675 -1.326055 1.686286 0.038607 -0.011651 -62155.900000 0 1 0
5.637562 -20.106105 -3.538292 21.179166 -1.297425 1.738648 0.041212 -0.005061 -840689.000000 0 1 0
6.641862 -20.927705 -3.070892 22.170104 -1.263479 1.709758 0.050443 -0.015297 -814950.000000 0 1 0
7.393162 -21.554005 -4.081892 23.149423 -1.240365 1.748051 0.046764 -0.010913 16286.500000 0 1 0
8.589962 -20.840805 -4.726092 23.031772 -1.179842 1.777463 0.060187 -0.007402 -508597.000000 0 1 0
8.190062 -19.837305 -5.660492 22.195426 -1.179252 1.828675 0.042777 -0.003756 -387985.000000 0 1 0
9.215762 -18.932605 -5.941392 21.878618 -1.117791 1.845812 0.057093 -0.015758 -423566.000000 0 1 0
8.952462 -17.868905 -7.043592 21.190954 -1.106343 1.909629 0.040410 -0.007961 -726442.000000 0 1 0
10.074762 -17.042505 -7.137992 21.045159 -1.036906 1.916836 0.052838 -0.025902 -188536.000000 0 1 0
10.165562 -16.276905 -8.307692 20.911576 -1.012529 1.979344 0.054457 -0.009980 -270712.000000 0 1 0
10.524462 -17.025605 -9.639192 22.215975 -1.017134 2.019597 0.050993 0.004052 -489177.000000 0 1 0
9.522162 -17.636405 -10.438692 22.598244 -1.075729 2.050961 0.042902 -0.000792 144662.000000 0 1 0
9.053462 -16.731305 -11.432892 22.194881 -1.074805 2.111937 0.028515 -0.004714 27831.900000 0 1 0
8.559662 -17.264205 -12.796892 23.131819 -1.110511 2.157016 0.028413 -0.008946 348262.000000 0 1 0
7.324962 -17.963605 -12.665292 23.167991 -1.183612 2.149181 0.018569 -0.000601 524580.000000 0 1 0
6.861262 -18.471105 -13.914492 24.122017 -1.215134 2.185649 0.017968 0.005509 206046.000000 0 1 0
5.653962 -19.427005 -13.692792 24.430889 -1.287583 2.165750 0.021314 0.016848 -93026.500000 0 1 0
5.878162 -20.688905 -12.991792 25.127082 -1.293970 2.114190 0.031338 0.012427 -225844.000000 0 0 1
4.714562 -21.412505 -12.645992 25.310938 -1.354076 2.093963 0.053585 0.004656 -128015.000000 0 0 1
4.955562 -22.828005 -12.098992 26.307052 -1.357030 2.048695 0.036503 0.006135 -423710.000000 0 0 1
5.622862 -23.666605 -13.016192 27.588875 -1.337535 2.062118 0.048869 -0.007454 -213675.000000 0 0 1
5.147662 -24.978205 -13.059592 28.652436 -1.367556 2.044060 0.045533 -0.019170 367233.000000 0 0 1
3.738162 -25.201065 -13.702092 28.927752 -1.423537 2.064245 0.058853 -0.018512 448509.000000 0 0 1
2.681762 -24.854705 -12.819192 28.094125 -1.463315 2.044623 0.063323 -0.014976 -146482.000000 0 0 1
1.405762 -25.022905 -13.424392 28.431254 -1.514676 2.062547 0.057132 -0.021833 247155.000000 0 0 1
0.604562 -26.238655 -12.975292 29.277819 -1.547760 2.029937 0.058107 -0.019424 -770801.000000 0 0 1
1.149462 -27.459545 -13.447492 30.597106 -1.528961 2.025841 0.064325 -0.014004 -77099.800000 0 0 1
0.635362 -28.697665 -12.948292 31.489965 -1.548660 1.994553 0.051657 -0.012431 142986.000000 0 0 1
-0.770838 -29.186305 -13.389192 32.120166 1.544392 2.000770 0.039569 -0.015091 40381.400000 0 0 1
-1.798438 -28.394075 -12.848192 31.217525 1.507542 1.994972 0.033036 -0.017350 49695.200000 0 0 1
-3.034238 -28.793005 -13.462292 31.929250 1.465803 2.006037 0.037075 -0.003389 888621.000000 0 0 1
-4.340038 -28.118565 -12.933292 31.253154 1.417657 1.997446 0.023701 -0.013033 351138.000000 0 0 1
-4.571238 -28.297415 -11.548092 30.903047 1.410637 1.953778 0.021097 -0.023312 -237278.000000 0 0 1
-5.338838 -29.381105 -11.128292 31.868345 1.391048 1.927509 0.022605 -0.016230 -631703.000000 0 0 1
-5.801038 -29.293455 -9.644292 31.381059 1.375294 1.883181 0.020995 -0.020780 650792.000000 0 0 1
-7.162938 -28.921185 -9.406292 31.244534 1.328011 1.876594 0.036055 -0.020686 415356.000000 0 0 1
-7.457638 -27.532155 -9.267092 29.991914 1.306274 1.884923 0.041727 -0.021053 -706129.000000 0 0 1
-8.860738 -27.225825 -8.687992 29.920552 1.256154 1.865408 0.054311 -0.015611 1351860.000000 0 0 1
-10.003738 -27.282625 -9.597792 30.602843 1.219348 1.889804 0.079399 -0.018525 930230.000000 0 0 1
-10.258838 -28.597635 -10.001392 31.985877 1.226365 1.888811 0.090579 -0.026883 -1410180.000000 0 0 1
-11.396738 -28.862595 -10.970992 32.913488 1.194727 1.910628 0.109819 -0.031959 -642501.000000 0 0 1
-11.242338 -28.131695 -12.166392 32.646646 1.190607 1.952680 0.121577 -0.035758 -198006.000000 0 0 1
-11.767238 -28.842695 -13.205892 33.834369 1.183430 1.971765 0.133497 -0.040295 -476536.000000 0 0 1
-12.128638 -27.903565 -14.390292 33.656995 1.160770 2.012585 0.140088 -0.038418 -654618.000000 0 0 1
-13.251438 -27.096655 -14.414392 33.430585 1.115952 2.016590 0.131006 -0.040924 -611879.000000 0 0 1
-13.315038 -26.142515 -13.410492 32.257753 1.099717 1.999541 0.140760 -0.036123 227458.000000 0 0 1
-14.325038 -24.970605 -13.721192 31.890577 1.049958 2.015575 0.155590 -0.033664 512974.000000 0 0 1
-13.830338 -24.026705 -14.657292 31.359161 1.048494 2.057145 0.145674 -0.033722 222201.000000 0 0 1
-14.883438 -23.183705 -15.063392 31.399151 1.000081 2.071153 0.150942 -0.034369 21560.200000 0 0 1
-14.505038 -22.398905 -16.340092 31.290664 0.996126 2.120229 0.136044 -0.033403 -96558.500000 0 0 1
-13.533738 -21.395105 -16.240992 30.077939 1.006777 2.141190 0.124574 -0.027806 22489.200000 0 0 1
-13.408338 -20.655905 -17.453992 30.184297 0.995034 2.187375 0.087229 -0.020410 -150824.000000 0 0 1
-13.530738 -19.112805 -17.330592 29.132964 0.954761 2.207912 0.082423 -0.018211 312602.000000 0 0 1
-12.265938 -18.499205 -17.094692 28.016108 0.985300 2.227076 0.074042 -0.009848 257671.000000 0 0 1
-12.321538 -17.137705 -17.324492 27.306762 0.947450 2.258080 0.072169 -0.006890 53934.900000 0 0 1
-10.982338 -16.373905 -17.421192 26.309968 0.979991 2.294483 0.073099 -0.014742 -174623.000000 0 0 1
-10.434138 -15.952905 -16.237492 25.040418 0.991573 2.276345 0.087215 -0.016009 -332611.000000 0 0 1
-9.138538 -15.463805 -16.509792 24.397036 1.037048 2.314085 0.080192 -0.013298 -360886.000000 0 1 0
-8.448338 -14.754505 -15.278192 22.858105 1.050772 2.302842 0.072858 -0.015485 -176660.000000 0 1 0
-8.177938 -15.607205 -14.181592 22.618158 1.088146 2.248493 0.074934 -0.012590 202814.000000 0 1 0
-7.039738 -16.410505 -14.457992 22.975990 1.165562 2.251404 0.060570 -0.005568 -325368.000000 0 1 0
-6.478238 -17.301405 -13.331892 22.782570 1.212522 2.195898 0.048738 -0.006645 -30155.700000 0 1 0
-5.697438 -16.564405 -12.344092 21.429347 1.239515 2.184668 0.040912 -0.011379 680818.000000 0 1 0
-5.231338 -17.331905 -11.254892 21.317467 1.277659 2.127000 0.024842 -0.013725 -277509.000000 0 1 0
-4.176238 -18.425005 -11.511492 22.123205 1.347901 2.118040 0.031036 -0.010173 -1237740.000000 0 1 0
-2.891938 -17.951205 -11.706092 21.625024 1.411069 2.142804 0.036872 -0.003816 -1937050.000000 0 1 0
-2.018338 -18.981605 -11.794092 22.438262 1.464863 2.124245 0.015813 0.002959 -669266.000000 0 1 0
-0.645738 -18.510605 -12.292592 22.229874 1.535926 2.156728 0.020988 0.006206 -1046320.000000 0 1 0
-0.514138 -18.426305 -13.711692 22.973975 1.542901 2.210348 0.030423 0.015083 -595193.000000 0 1 0
0.621162 -17.697605 -14.089692 22.629858 -1.535712 2.242877 0.033619 0.009641 340262.000000 0 1 0
1.957862 -18.508205 -14.010892 23.295750 -1.465405 2.216093 0.045768 -0.000286 -309164.000000 0 1 0
2.041262 -19.527305 -14.992592 24.703445 -1.466641 2.222954 0.066863 0.005145 129310.000000 0 1 0
1.521062 -20.771405 -14.499092 25.376930 -1.497698 2.178945 0.062142 -0.000670 -573730.000000 0 0 1
1.542262 -21.958705 -15.528892 26.939001 -1.500677 2.185170 0.082051 -0.005423 1314250.000000 0 0 1
2.847862 -22.497705 -15.866492 27.676752 -1.444881 2.181298 0.067743 -0.008470 1074510.000000 0 0 1
3.675062 -21.661405 -16.660392 27.573379 -1.402737 2.219583 0.066844 -0.005961 -116336.000000 0 0 1
5.058862 -22.239905 -17.018392 28.457532 -1.347134 2.211834 0.075684 -0.007150 -61939.700000 0 0 1
5.008962 -23.141305 -18.113392 29.811150 -1.357634 2.223837 0.068598 -0.015576 199275.000000 0 0 1
6.255462 -23.740105 -18.424792 30.695217 -1.313155 2.214609 0.059381 -0.017337 152630.000000 0 0 1
6.603162 -23.493505 -19.919692 31.501439 -1.296802 2.255369 0.058023 -0.011484 -255306.000000 0 0 1
6.917462 -22.166805 -20.227392 30.795550 -1.268309 2.287401 0.072695 -0.018808 7726.270000 0 0 1
7.214162 -22.027605 -21.590392 31.676561 -1.254300 2.320728 0.049008 -0.022776 -4866.470000 0 0 1
7.478262 -20.629105 -22.075592 31.125811 -1.223020 2.359212 0.043233 -0.034031 -117121.000000 0 0 1
6.288462 -19.886005 -22.179192 30.445271 -1.264521 2.386917 0.071877 -0.035190 -95008.000000 0 0 1
6.529762 -18.538205 -22.441792 29.831810 -1.232134 2.422308 0.078172 -0.037103 -540204.000000 0 0 1
5.242862 -17.823305 -22.765792 29.384334 -1.284708 2.457131 0.074251 -0.041508 -1388740.000000 0 0 1
4.677262 -18.133005 -24.042192 30.474738 -1.318357 2.479849 0.064852 -0.036804 -99869.500000 0 0 1
3.655862 -17.289005 -24.496892 30.205508 -1.362410 2.516668 0.070680 -0.034654 311985.000000 0 0 1
2.290462 -17.220305 -23.769392 29.440943 -1.438563 2.510458 0.073706 -0.034291 -577939.000000 0 0 1
2.452462 -16.860805 -22.440992 28.176221 -1.426356 2.492200 0.078911 -0.029766 -836187.000000 0 0 1
1.283262 -16.236205 -21.975192 27.352700 -1.491923 2.503782 0.069513 -0.025105 -15078.300000 0 0 1
1.526862 -15.367705 -20.725592 25.846621 -1.471766 2.501212 0.068243 -0.023254 814.971000 0 0 1
2.409162 -14.268205 -20.884692 25.407796 -1.403526 2.535675 0.063371 -0.016997 -176500.000000 0 0 1
2.453762 -13.326505 -19.825492 24.013888 -1.388709 2.542033 0.059263 -0.019682 -145444.000000 0 1 0
3.648862 -12.356905 -19.728092 23.562787 -1.283667 2.563043 0.052675 -0.018684 -374847.000000 0 1 0
4.854962 -13.017605 -19.389592 23.853406 -1.213821 2.519850 0.048128 -0.017582 -436425.000000 0 1 0
5.989162 -12.209905 -19.342292 23.644790 -1.114764 2.528785 0.048329 -0.020701 -227436.000000 0 1 0
6.142262 -11.138305 -18.263392 22.256251 -1.066838 2.533250 0.051624 -0.014555 -476053.000000 0 1 0
5.241562 -9.991905 -18.266492 21.470372 -1.087678 2.588258 0.021770 -0.007938 387286.000000 0 1 0
5.559962 -8.942405 -19.235092 21.928715 -1.014536 2.640722 0.035092 -0.012016 -516286.000000 0 1 0
4.948362 -8.914105 -20.616492 22.999724 -1.064034 2.682331 0.052552 -0.023915 -534218.000000 0 1 0
3.549662 -8.780605 -20.607992 22.680134 -1.186621 2.710803 0.037417 -0.021727 -514755.000000 0 1 0
3.057262 -9.106505 -21.872992 23.889392 -1.246897 2.727780 0.047766 -0.027958 176546.000000 0 1 0
1.552262 -8.770605 -22.009392 23.743344 -1.395626 2.757053 0.047698 -0.028448 179085.000000 0 1 0
1.288462 -7.390805 -21.778892 23.034849 -1.398198 2.809849 0.037052 -0.030548 -896183.000000 0 1 0
-0.090038 -7.221205 -21.895792 23.056011 1.558328 2.823003 0.038057 -0.028102 -542515.000000 0 1 0
-0.548838 -6.217205 -22.971492 23.804292 1.482747 2.876296 0.044832 -0.025452 -150498.000000 0 1 0
-0.271138 -6.698005 -24.310292 25.217595 1.530338 2.872532 0.055025 -0.024673 35580.000000 0 0 1
-1.030838 -6.125305 -25.383912 26.132833 1.404067 2.901609 0.069483 -0.034612 165054.000000 0 0 1
-0.537438 -4.736605 -25.690962 26.129482 1.457815 2.958128 0.069271 -0.026120 6527.890000 0 0 1
-1.214338 -4.123505 -26.795642 27.138245 1.284401 2.982527 0.067840 -0.028467 14009.300000 0 0 1
-0.768338 -2.781805 -27.208082 27.360711 1.301314 3.035918 0.055921 -0.019306 -609744.000000 0 0 1
-1.255938 -1.550605 -26.380162 26.455523 0.890008 3.066095 0.048960 -0.018419 661608.000000 0 0 1
-2.669438 -1.524705 -26.172342 26.352270 0.518952 3.024669 0.042862 -0.023942 279475.000000 0 0 1
-3.364638 -0.951405 -27.246922 27.470361 0.275572 3.013961 0.053141 -0.014565 -1345840.000000 0 0 1
-4.861938 -1.060705 -27.118892 27.571686 0.214799 2.960112 0.045405 -0.023083 -884090.000000 0 0 1
-5.470138 -0.149405 -26.262562 26.826608 0.027306 2.936168 0.051488 -0.023963 -354227.000000 0 0 1
-6.870938 -0.266005 -26.215642 27.102407 0.038695 2.885081 0.067932 -0.036631 -439585.000000 0 0 1
-7.529838 0.994195 -25.640682 26.741942 -0.131275 2.853611 0.074470 -0.034603 -1157590.000000 0 0 1
-7.682438 2.115495 -26.470792 27.644132 -0.268708 2.849195 0.084009 -0.038511 336382.000000 0 0 1
-8.776038 2.059495 -27.369412 28.815709 -0.230502 2.823420 0.106797 -0.047307 1710420.000000 0 0 1
-10.258938 1.850895 -26.780582 28.737975 -0.178498 2.770380 0.095550 -0.042219 531766.000000 0 0 1
-11.306638 2.293995 -27.585022 29.900434 -0.200172 2.745466 0.098993 -0.049735 294056.000000 0 0 1
-12.545938 1.651895 -27.283872 30.075555 -0.130915 2.707323 0.079272 -0.029997 303350.000000 0 0 1
-13.684338 2.162695 -28.170152 31.392608 -0.156745 2.684524 0.070304 -0.022276 -774099.000000 0 0 1
-14.950838 1.646795 -27.810812 31.617729 -0.109705 2.645808 0.063872 -0.019730 -277585.000000 0 0 1
-15.870038 1.947395 -28.826802 32.964147 -0.122099 2.635179 0.052158 -0.018696 -242104.000000 0 0 1
-16.878438 3.043095 -28.390202 33.168444 -0.178379 2.598163 0.062455 -0.004512 -398719.000000 0 0 1
-16.375038 4.370795 -28.277762 32.967826 -0.260837 2.601650 0.072918 -0.007642 45183.900000 0 0 1
-15.960638 5.128195 -29.404922 33.848040 -0.310884 2.623436 0.061287 -0.011559 -556037.000000 0 0 1
-17.048438 5.723395 -30.287902 35.224473 -0.323891 2.605780 0.053253 -0.002539 -119657.000000 0 0 1
-17.838538 6.703295 -29.616702 35.217846 -0.359451 2.569846 0.051532 0.001701 131784.000000 0 0 1
-18.701938 7.485095 -30.374322 36.447065 -0.380706 2.555995 0.040801 -0.004898 -109379.000000 0 0 1
-19.679238 8.337095 -29.515832 36.441239 -0.400726 2.514875 0.036799 -0.002814 -207174.000000 0 0 1
-18.955438 9.242795 -28.763592 35.666260 -0.453684 2.508945 0.029323 -0.001327 154164.000000 0 0 1
-19.788638 10.136795 -28.067652 35.806953 -0.473402 2.471655 0.052071 0.002904 -281066.000000 0 0 1
-9.080438 24.348695 31.277114 40.664127 -1.213839 0.693275 0.040356 -0.019584 -1531350.000000 0 0 1
-9.833538 25.521295 30.986624 41.330447 -1.203020 0.723144 0.048622 -0.024957 182372.000000 0 0 1
-9.694938 26.637695 31.925784 42.694430 -1.221743 0.726093 0.073036 -0.027342 -1058080.000000 0 0 1
-8.482238 27.495395 31.747324 42.846677 -1.271563 0.736310 0.066996 -0.035583 -983889.000000 0 0 1
-8.372738 28.332595 30.646164 42.567900 -1.283458 0.767086 0.081953 -0.023734 -208191.000000 0 0 1
-7.000838 28.478995 30.401224 42.240968 -1.329751 0.767413 0.080820 -0.023025 -131956.000000 0 0 1
-6.598438 29.362295 29.156084 41.901802 -1.349744 0.801236 0.109842 -0.031641 -179774.000000 0 0 1
-6.903338 30.727695 29.389944 43.076863 -1.349804 0.819937 0.111826 -0.030569 104050.000000 0 0 1
-6.127038 31.646195 28.687314 43.150716 -1.379552 0.843548 0.118607 -0.027381 -298497.000000 0 0 1
-6.173738 33.032595 29.269294 44.564100 -1.386030 0.854241 0.112431 -0.026498 -470833.000000 0 0 1
-5.491738 33.127295 30.474014 45.345809 -1.406514 0.833842 0.116737 -0.027981 -461948.000000 0 0 1
-5.873438 -33.897876 31.347424 46.542715 1.399231 0.831836 0.109243 -0.024924 -11439.200000 0 0 1
-7.114338 33.937695 32.251068 47.355173 -1.364159 0.821606 0.090384 -0.028556 130701.000000 0 0 1
-6.996238 32.905595 33.204870 47.268266 -1.361300 0.791924 0.098092 -0.028438 -21347.400000 0 0 1
-7.170038 31.576695 32.672420 45.999828 -1.347515 0.780911 0.099260 -0.020809 -233351.000000 0 0 1
-7.040038 30.536295 33.831156 46.114798 -1.344209 0.747149 0.088819 -0.015912 -300097.000000 0 0 1
-5.770238 30.549495 -33.559422 45.747154 -1.384114 2.394378 0.086000 -0.023706 -428931.000000 0 0 1
-5.906138 30.220795 -32.214102 44.563744 -1.377796 2.378753 0.087155 -0.018181 -617568.000000 0 0 1
-4.609138 29.896995 -31.449282 43.636359 -1.417833 2.375626 0.084420 -0.018955 35972.800000 0 0 1
-4.016938 28.651295 -31.741572 42.948340 -1.431503 2.402476 0.102024 -0.013476 375978.000000 0 0 1
-3.230738 28.696495 -32.943232 43.808482 -1.458685 2.421861 0.092620 -0.016834 -370302.000000 0 0 1
-2.500138 27.364095 -33.320662 43.189246 -1.479684 2.451998 0.108129 -0.030286 -111535.000000 0 0 1
-1.453838 26.904995 -32.447422 42.176150 -1.516813 2.448590 0.130992 -0.028583 881119.000000 0 0 1
-0.819238 25.659095 -32.756802 41.618126 -1.538879 2.476857 0.144032 -0.030629 486955.000000 0 0 1
-0.201038 25.525095 33.775094 42.335894 -1.562920 0.647178 0.131822 -0.024051 -399828.000000 0 0 1
-1.195538 25.203295 32.794509 41.377714 -1.523396 0.655793 0.129728 -0.024701 25809.800000 0 0 1
-0.800138 25.001395 31.476624 40.205570 -1.538804 0.671495 0.132429 -0.021758 -202300.000000 0 0 1
-0.366838 26.293995 30.727244 40.443446 -1.556846 0.707855 0.107227 -0.024701 134632.000000 0 0 1
-1.387338 27.272395 30.790444 41.155312 -1.519970 0.725523 0.105359 -0.030064 202889.000000 0 0 1
-0.937238 28.477395 30.160694 41.491059 -1.537897 0.756970 0.091450 -0.028960 351229.000000 0 0 1
-2.066838 29.545795 30.042964 42.187742 -1.500956 0.778275 0.094751 -0.022448 234281.000000 0 0 1
-2.182538 30.209695 31.273334 43.536314 -1.498675 0.769401 0.108388 -0.028321 -30580.800000 0 0 1
-3.088638 31.288295 31.313434 44.373734 -1.472400 0.787421 0.101232 -0.021013 -198574.000000 0 0 1
-2.835838 32.165495 32.538207 45.840986 -1.482860 0.781574 0.109999 -0.009269 619145.000000 0 0 1
-1.592038 32.865895 32.365091 46.154098 -1.522394 0.793661 0.139220 -0.017027 525222.000000 0 0 1
-0.977238 33.003195 33.661456 47.151453 -1.541195 0.775743 0.094440 -0.016680 146154.000000 0 0 1
0.518762 33.352195 33.496909 47.272413 1.555244 0.783294 0.089306 -0.019960 -47111.400000 0 0 1
0.657662 -33.430376 33.009358 46.985532 -1.551126 0.791832 0.103461 -0.016242 916107.000000 0 0 1
2.034962 -33.036676 32.869285 46.647111 -1.509277 0.788885 0.076379 -0.013734 800026.000000 0 0 1
2.255062 -31.524176 32.593253 45.400211 -1.499384 0.770001 0.084888 -0.013764 -135854.000000 0 0 1
1.777062 -30.696976 33.689664 45.612014 -1.512970 0.739785 0.080995 -0.006063 339952.000000 0 0 1
2.123062 -29.317976 33.604452 44.646504 -1.498507 0.718676 0.071370 -0.020032 -208421.000000 0 0 1
1.731062 -28.357276 -33.212942 43.706192 -1.509827 2.433977 0.075200 -0.019560 277397.000000 0 0 1
0.377062 -27.926576 -33.267102 43.436574 -1.557295 2.443202 0.057771 -0.028479 376332.000000 0 0 1
-0.045338 -27.162676 -32.120532 42.065920 1.569127 2.439630 0.056390 -0.031315 1199170.000000 0 0 1
-1.592638 -26.834976 -32.200072 41.946360 1.511517 2.445961 0.088415 -0.031570 1256900.000000 0 0 1
-2.026738 -26.280876 -30.941872 40.647159 1.493830 2.436005 0.095120 -0.028137 531346.000000 0 0 1
-3.370738 -25.798676 -30.941352 40.426487 1.440877 2.442417 0.096211 -0.037025 423202.000000 0 0 1
-3.687738 -25.290876 -29.528392 39.053217 1.426004 2.428140 0.101215 -0.033594 -158829.000000 0 0 1
-3.930238 -26.392876 -28.637962 39.142861 1.422970 2.391501 0.096866 -0.034817 69662.200000 0 0 1
-4.182038 -26.067776 -27.283662 37.965993 1.411722 2.372633 0.103148 -0.027355 -312351.000000 0 0 1
-2.970638 -25.618676 -26.459522 36.949257 1.455356 2.369001 0.102557 -0.033523 -307612.000000 0 0 1
-2.540838 -24.335476 -26.870092 36.341066 1.466764 2.402955 0.102080 -0.034112 -532798.000000 0 0 1
-1.447038 -23.925976 -26.128222 35.457443 1.510390 2.399254 0.073427 -0.034471 -1488320.000000 0 0 1
-0.572238 -22.804176 -26.734562 35.143914 1.545708 2.435213 0.053471 -0.030975 503898.000000 0 0 1
0.162562 -23.181076 -27.902222 36.275649 -1.563784 2.448341 0.028778 -0.032306 -133953.000000 0 0 1
0.994662 -24.288376 -27.873762 36.984607 -1.529867 2.424407 0.026564 -0.028784 -984385.000000 0 0 1
1.744262 -24.650876 -29.160622 38.223684 -1.500155 2.438574 0.016874 -0.032135 172808.000000 0 0 1
2.613162 -23.630776 -29.601342 37.966849 -1.460661 2.464924 0.025044 -0.027012 -290762.000000 0 0 1
3.399262 -23.989576 -30.694742 39.105268 -1.430036 2.473373 0.020828 -0.021546 -520084.000000 0 0 1
4.534362 -22.979476 -30.956542 38.819122 -1.375977 2.493863 0.033027 -0.025264 677365.000000 0 0 1
5.720662 -23.044676 -30.091262 38.331021 -1.327473 2.473552 0.027084 -0.020376 2144130.000000 0 0 1
6.695662 -24.100976 -30.234072 39.240133 -1.299813 2.450403 0.046913 -0.008555 409068.000000 0 0 1
7.356762 -24.259276 -31.617762 40.525514 -1.276355 2.465772 0.074646 -0.010081 -36250.100000 0 0 1
6.461362 -24.806776 -32.670552 41.526983 -1.315990 2.476291 0.026322 -0.015986 673834.000000 0 0 1
6.790262 -24.599876 33.961634 42.481221 -1.301474 0.644416 0.048829 -0.019456 -285370.000000 0 0 1
6.409562 -23.217276 33.446865 41.216710 -1.301437 0.624102 0.062267 -0.022708 167247.000000 0 0 1
5.003562 -23.052476 33.539506 41.004278 -1.357061 0.612955 0.061468 -0.027450 15004.400000 0 0 1
4.592262 -21.944976 32.824032 39.750320 -1.364511 0.599257 0.082559 -0.039743 97208.800000 0 0 1
3.141562 -21.471776 33.195168 39.658868 -1.425516 0.578987 0.057224 -0.037626 1091680.000000 0 0 1
2.102162 -22.387676 32.834200 39.795877 -1.477173 0.600478 0.055396 -0.035845 247784.000000 0 0 1
1.855062 -23.411576 33.806742 41.163564 -1.491725 0.607148 0.050726 -0.030042 -75505.800000 0 0 1
0.432262 -24.031676 33.702358 41.395136 -1.552811 0.619511 0.062892 -0.023848 394377.000000 0 0 1
0.348662 -25.006776 32.731231 41.192159 -1.556855 0.652450 0.064472 -0.017254 -28925.400000 0 0 1
-0.963038 -25.277876 32.277158 41.008699 1.532717 0.664734 0.064175 -0.018584 16363.200000 0 0 1
-1.040638 -26.427176 31.268614 40.953691 1.531439 0.702063 0.075981 -0.020712 226191.000000 0 0 1
-2.333338 -26.614676 30.715664 40.709182 1.483349 0.715882 0.082073 -0.023873 294312.000000 0 0 1
-2.237038 -27.448076 29.548494 40.392013 1.489475 0.750214 0.093800 -0.033058 565340.000000 0 0 1
-3.653638 -27.766676 28.981574 40.302221 1.439964 0.768281 0.104425 -0.023964 902209.000000 0 0 1
-4.540038 -28.614276 29.748144 41.525183 1.413445 0.772185 0.098336 -0.015673 -176474.000000 0 0 1
-5.608638 -28.995276 28.986814 41.381376 1.379723 0.794727 0.081041 -0.016139 -949381.000000 0 0 1
-6.882438 -29.443076 29.715474 42.394246 1.341165 0.794093 0.063490 -0.011335 595412.000000 0 0 1
-8.027038 -29.832176 28.924234 42.320248 1.307949 0.818303 0.089820 -0.012500 1286680.000000 0 0 1
-9.269138 -30.074876 29.569024 43.182662 1.271832 0.816545 0.076409 -0.012715 400828.000000 0 0 1
-9.337238 -31.214176 30.642724 44.726786 1.280134 0.816043 0.059592 -0.007219 -694417.000000 0 0 1
-9.175738 -32.596676 30.228844 45.392956 1.296404 0.842047 0.086347 -0.019110 832556.000000 0 0 1
-10.258738 -33.017176 29.377584 45.369793 1.269544 0.866478 0.095373 -0.020981 407907.000000 0 0 1
-10.170638 33.504095 29.133684 45.549290 -1.276073 0.876808 0.107567 -0.028446 -187139.000000 0 0 1
-10.583038 32.689395 30.222664 45.760318 -1.257700 0.849371 0.111385 -0.024973 309720.000000 0 0 1
-10.403138 31.316595 29.844494 44.493238 -1.250073 0.835557 0.110160 -0.030617 -66107.500000 0 0 1
-11.041338 30.338195 30.844384 44.650793 -1.221756 0.808213 0.100293 -0.019114 -570319.000000 0 0 1
-12.429038 30.463095 30.907834 45.141726 -1.183410 0.816626 0.101837 -0.017297 -411307.000000 0 0 1
-13.157338 29.436995 31.550034 45.111605 -1.150468 0.796270 0.085926 -0.021826 92152.300000 0 0 1
-13.195038 29.459495 33.124844 46.251770 -1.149686 0.772475 0.088796 -0.032483 -162252.000000 0 0 1
-14.258238 30.304495 33.561469 47.413416 -1.131027 0.784350 0.097926 -0.014621 575142.000000 0 0 1
-14.451138 30.180695 -33.032352 47.019635 -1.124235 2.349732 0.091545 -0.023173 1856080.000000 0 0 1
-16.013438 30.238395 -32.634672 47.284380 -1.083771 2.332532 0.087132 -0.013682 1827530.000000 0 0 1
-16.161838 29.716195 -31.348702 46.119393 -1.072669 2.318190 0.075594 -0.014055 -67240.800000 0 0 1
-17.465238 29.766795 -30.809722 46.263761 -1.040187 2.299574 0.091038 -0.006282 71045.700000 0 0 1
-17.449638 29.369095 -29.351862 45.039599 -1.034690 2.280607 0.085516 -0.014351 -337944.000000 0 0 1
-17.348538 27.980795 -29.190322 43.999677 -1.015789 2.296178 0.072518 -0.017730 93376.200000 0 0 1
-17.361638 27.609395 -27.834242 42.877153 -1.009447 2.277279 0.061092 -0.015441 -223986.000000 0 0 1
-17.861438 26.180395 -27.673622 42.074617 -0.972086 2.288594 0.029420 -0.016144 565367.000000 0 0 1
-19.268038 26.019795 -27.856302 42.711364 -0.933394 2.281278 0.032387 -0.014423 278744.000000 0 0 1
-19.675438 24.684895 -27.664552 41.973734 -0.897848 2.290407 0.014662 -0.015898 -130681.000000 0 0 1
-21.176038 24.388995 -27.824272 42.631418 -0.855795 2.281900 0.032866 -0.011952 -412734.000000 0 0 1
-21.955738 24.821295 -26.741872 42.582612 -0.846582 2.249777 0.029492 -0.009764 -141410.000000 0 0 1
-23.236038 24.225895 -26.882512 43.005545 -0.806251 2.246048 0.051048 -0.020731 105574.000000 0 0 1
-24.222238 24.672895 -25.803572 43.142704 -0.794615 2.211922 0.075878 -0.029738 -455013.000000 0 0 1
-24.587138 26.061195 -25.789062 44.145090 -0.814494 2.194676 0.046883 -0.003839 -138851.000000 0 0 1
-25.836558 26.307695 -25.178392 44.649457 -0.794433 2.169912 0.044514 -0.001142 296957.000000 0 0 1
-25.946068 26.004295 -23.641592 43.684628 -0.786519 2.142645 0.037323 0.001084 -739533.000000 0 0 1
-25.815188 24.654095 -23.146892 42.544412 -0.762396 2.146070 0.036364 -0.011715 -246175.000000 0 0 1
-26.980928 23.859895 -23.057192 42.765631 -0.724087 2.140227 0.036233 -0.005921 -173075.000000 0 0 1
-27.640598 23.792195 -21.642392 42.408305 -0.710713 2.106369 0.023506 -0.003926 422.941000 0 0 1
-26.895118 23.135795 -20.634292 41.041277 -0.710399 2.097596 0.031802 -0.012371 -150859.000000 0 0 1
-25.786848 23.840395 -20.167292 40.497477 -0.746197 2.092074 0.028619 -0.000661 -134277.000000 0 0 1
-24.911338 23.131695 -19.034692 38.961129 -0.748372 2.081230 0.036652 -0.002536 202418.000000 0 0 1
-25.467928 23.100095 -17.711792 38.677349 -0.736684 2.046470 0.037255 -0.013339 90076.000000 0 0 1
-24.444838 23.034195 -16.753892 37.534213 -0.755696 2.033493 0.047010 -0.015287 -342219.000000 0 0 1
-24.913138 23.227295 -15.304492 37.341655 -0.750393 1.993086 0.031239 -0.013810 -429279.000000 0 0 1
-25.713808 24.345095 -15.088692 38.490937 -0.758063 1.973608 0.048545 -0.022328 -12895.000000 0 0 1
-26.010768 24.407595 -13.719992 38.216867 -0.753611 1.937996 0.027367 -0.019021 -7087.120000 0 0 1
-26.314768 25.856695 -13.257892 39.202135 -0.776618 1.915793 0.035198 -0.016179 229728.000000 0 0 1
-25.144648 26.610795 -12.960692 38.837704 -0.813719 1.911037 0.055209 -0.016157 114254.000000 0 0 1
-25.337248 27.446195 -11.854892 39.189389 -0.825332 1.878114 0.073757 -0.018982 615853.000000 0 0 1
-23.944238 27.997195 -11.405992 38.565090 -0.863270 1.871047 0.086785 -0.021174 711535.000000 0 0 1
-23.076838 26.989895 -10.883992 37.141031 -0.863396 1.868206 0.074092 -0.021448 -93328.900000 0 0 1
-21.907838 27.610195 -10.410292 36.751196 -0.900050 1.857992 0.078550 -0.025966 -233326.000000 0 0 1
-20.910838 26.638595 -9.740292 35.238490 -0.905280 1.850854 0.107038 -0.029285 -173747.000000 0 0 1
-20.353038 25.859895 -10.766092 34.624978 -0.904002 1.886972 0.093699 -0.029888 -127661.000000 0 0 1
-19.529038 24.857895 -10.177992 33.209785 -0.904881 1.882285 0.105533 -0.021493 136681.000000 0 0 1
-18.933238 23.901995 -11.292592 32.516081 -0.900879 1.925479 0.106303 -0.027658 -53837.700000 0 0 1
-18.130738 22.863495 -10.787692 31.110085 -0.900339 1.924909 0.084605 -0.020899 159891.000000 0 0 1
-17.709838 22.091495 -11.900292 30.713018 -0.895045 1.968679 0.114900 -0.015516 65335.500000 0 0 1
-17.194138 20.724795 -11.411392 29.246801 -0.878241 1.971619 0.094819 -0.004560 366933.000000 0 0 1
-18.302238 19.899495 -11.087692 29.221546 -0.827185 1.959982 0.088443 0.001456 524840.000000 0 0 1
-17.865638 18.632995 -10.579192 27.897829 -0.806419 1.959741 0.111289 -0.019099 -355203.000000 0 0 1
-19.074038 17.690795 -10.375292 28.007675 -0.747792 1.950284 0.097189 -0.003786 353877.000000 0 0 1
-19.666438 17.208495 -11.613092 28.596591 -0.718840 1.988979 0.092818 -0.004881 370007.000000 0 0 1
-20.412238 18.107095 -12.444692 29.989944 -0.725626 1.998698 0.087073 -0.007356 -251561.000000 0 0 1
-21.434538 17.350495 -13.351492 30.638888 -0.680485 2.021689 0.086069 -0.013501 100534.000000 0 0 1
-20.797638 16.551695 -14.338892 30.201063 -0.672202 2.065512 0.098684 -0.023068 16955.600000 0 0 1
-21.596138 16.433195 -15.513892 31.258982 -0.650461 2.090130 0.083111 -0.019590 84776.600000 0 0 1
-20.895238 16.102495 -16.873192 31.314628 -0.656574 2.139841 0.109164 -0.026965 317641.000000 0 0 1
-20.001138 17.177395 -17.228792 31.495074 -0.709593 2.149610 0.086235 -0.021619 275241.000000 0 0 1
-19.361238 16.992495 -18.431592 31.675322 -0.720332 2.191849 0.094152 -0.018792 -328129.000000 0 0 1
-18.501938 18.175295 -18.887692 32.084388 -0.776493 2.200231 0.079595 -0.004870 22410.500000 0 0 1
-17.234038 18.426595 -18.317692 31.178347 -0.818828 2.198779 0.099735 -0.011959 348154.000000 0 0 1
-16.544138 19.503395 -18.846492 31.769186 -0.867308 2.205864 0.095509 -0.009891 -63814.100000 0 0 1
34.428392 29.942795 2.368808 45.689128 0.715827 1.518927 0.102460 -0.006037 45948.000000 0 0 1
35.555242 29.936795 1.524808 46.504968 0.699819 1.538002 0.117671 -0.005735 -177313.000000 0 0 1
35.416972 30.710595 0.357008 46.878887 0.714347 1.563181 0.092961 0.003669 -54983.700000 0 0 1
36.687202 30.943695 -0.511092 47.997128 0.700677 1.581445 0.060299 0.008772 311188.000000 0 0 1
-36.352308 31.612095 0.275208 48.175622 -0.715765 1.565084 0.030539 0.015256 -47291.400000 0 0 1
-35.192149 31.668495 -0.513692 47.346012 -0.732745 1.581646 0.044793 0.006611 -300727.000000 0 0 1
-34.358118 32.926695 -0.087692 47.588394 -0.764127 1.572639 0.021462 0.006190 -221574.000000 0 0 1
-33.911658 32.734195 1.194908 47.148233 -0.767733 1.545450 0.010625 0.014046 -273297.000000 0 0 1
-33.418058 33.930695 1.690908 47.654148 -0.793010 1.535306 0.004674 0.015401 -199658.000000 0 0 1
-32.696218 33.718995 3.035808 47.066224 -0.800797 1.506251 0.023666 0.016709 -155677.000000 0 0 1
-32.288818 -33.211076 3.729808 46.469934 0.799478 1.490447 0.026871 0.023729 -8707.740000 0 0 1
-31.668728 -33.534576 4.939908 46.388348 0.814006 1.464104 0.050229 0.012452 -341993.000000 0 0 1
-31.427268 -32.196876 5.751108 45.358431 0.797494 1.443662 0.056926 0.009311 677525.000000 0 0 1
-32.548688 -31.624076 6.458808 45.839017 0.770991 1.429424 0.054240 0.001892 640841.000000 0 0 1
-33.021528 -32.345076 7.561208 46.837988 0.775050 1.408654 0.055836 -0.012884 -245294.000000 0 0 1
-34.091680 -31.528576 8.436908 47.196135 0.746358 1.391068 0.072928 -0.012989 1265970.000000 0 0 1
-35.417080 -31.345676 7.962308 47.961644 0.724490 1.404010 0.062272 -0.017115 756448.000000 0 0 1
-36.143658 -32.562776 7.630608 49.243523 0.733327 1.415213 0.056471 -0.010750 -638526.000000 0 0 1
36.395412 -32.433276 7.378008 49.304954 -0.727896 1.420592 0.055556 -0.012238 136866.000000 0 0 1
35.508482 -32.530776 8.505308 48.902392 -0.741662 1.395983 0.057109 -0.015642 871799.000000 0 0 1
34.151382 -32.363176 8.094408 47.741088 -0.758520 1.400425 0.053164 -0.011398 761851.000000 0 0 1
33.191832 -32.505176 9.352408 47.389363 -0.774947 1.372140 0.065011 -0.026345 1710960.000000 0 0 1
31.788322 -32.522576 8.928508 46.345805 -0.796815 1.376935 0.058689 -0.027279 2291770.000000 0 0 1
30.741872 -32.648076 9.900608 45.923650 -0.815460 1.353502 0.061916 -0.031393 454109.000000 0 0 1
30.698622 -31.606476 11.107408 45.439512 -0.799968 1.323850 0.059970 -0.021336 -860666.000000 0 0 1
30.351882 -30.238676 10.917308 44.213142 -0.783530 1.321291 0.031802 -0.014698 501202.000000 0 0 1
31.049152 -29.572276 9.849008 43.995140 -0.761041 1.345017 0.023904 -0.019536 110003.000000 0 0 1
30.511142 -28.096976 9.682208 42.592429 -0.744230 1.341469 0.013087 -0.021740 -162216.000000 0 0 1
30.726122 -27.654776 8.366808 42.176827 -0.732838 1.371097 0.015186 -0.016730 65628.400000 0 0 1
30.457832 -26.246576 8.246408 41.043459 -0.711267 1.368500 0.015538 -0.016151 -468628.000000 0 0 1
30.312942 -25.742576 6.778208 40.342271 -0.704045 1.401978 0.004014 -0.009703 541212.000000 0 0 1
31.523372 -25.613976 6.027008 41.062435 -0.682340 1.423487 0.026308 -0.017950 398043.000000 0 0 1
31.171172 -25.140976 4.742808 40.326231 -0.678720 1.452913 0.026211 -0.008579 119296.000000 0 0 1
32.445562 -24.545576 4.127608 40.892994 -0.647658 1.469687 0.061272 -0.013437 397918.000000 0 0 1
33.415092 -25.559276 3.866708 42.246851 -0.652970 1.479142 0.068101 -0.009325 843768.000000 0 0 1
34.701292 -24.931476 3.643208 42.883927 -0.623008 1.485739 0.063536 -0.015800 1363590.000000 0 0 1
35.958632 -25.834876 3.547408 44.419007 -0.623009 1.490849 0.052951 -0.014560 389591.000000 0 0 1
36.122602 -26.644576 4.657708 45.127265 -0.635528 1.467399 0.035275 -0.013282 -267601.000000 0 0 1
36.753632 -27.860776 4.357108 46.325336 -0.648628 1.476603 0.037123 -0.020347 -908750.000000 0 0 1
36.357922 -28.932076 5.357508 46.772497 -0.672148 1.456000 0.051981 -0.019162 222104.000000 0 0 1
35.096152 -29.556176 5.214408 46.178973 -0.699918 1.457638 0.034943 -0.018791 156705.000000 0 0 1
34.014772 -28.716376 5.596308 44.865952 -0.701136 1.445737 0.031126 -0.013201 -578068.000000 0 0 1
32.727082 -29.520176 6.006408 44.481228 -0.733925 1.435350 0.024582 -0.013832 858392.000000 0 0 1
31.948282 -30.161876 4.976708 44.217634 -0.756644 1.458007 0.011188 -0.014789 -17756.400000 0 0 1
31.190992 -29.205976 4.289008 42.944879 -0.752544 1.470757 0.017870 -0.016297 -981834.000000 0 0 1
29.701412 -29.608076 4.219008 42.149877 -0.783824 1.470533 0.014956 -0.014812 6693.650000 0 0 1
29.614952 -30.864576 3.603508 42.926131 -0.806057 1.486751 0.034166 -0.007891 -720586.000000 0 0 1
28.309572 -31.224676 3.261608 42.273519 -0.834324 1.493565 0.051635 -0.009772 -334985.000000 0 0 1
28.171672 -32.667476 2.710508 43.222147 -0.859161 1.508044 0.065172 -0.010531 -327484.000000 0 0 1
28.466872 -32.687676 1.342908 43.366466 -0.854308 1.539825 0.068615 -0.007398 67333.500000 0 0 1
28.336672 -33.998676 0.848808 44.267341 -0.875981 1.551621 0.081303 -0.004753 144672.000000 0 0 1
27.841072 -33.983476 -0.633692 43.936358 -0.884425 1.585220 0.072336 -0.007441 -55749.900000 0 0 1
28.963042 -33.843376 -1.459892 44.568635 -0.862947 1.603558 0.075755 -0.001769 -4075.500000 0 0 1
28.595872 -33.930876 -2.790292 44.461377 -0.870516 1.633595 0.067456 -0.003690 -98987.300000 0 0 1
29.586722 -33.344076 -3.821592 44.741548 -0.845033 1.656315 0.063886 0.006936 66181.200000 0 0 1
29.822382 -31.960476 -3.776292 43.876040 -0.819991 1.656970 0.042093 0.001410 573194.000000 0 0 1
30.940302 -31.716476 -4.642992 44.551033 -0.797785 1.675203 0.028919 0.001573 243979.000000 0 0 1
31.355262 -30.241576 -4.593992 43.804226 -0.767320 1.675865 0.011399 0.010397 -758156.000000 0 0 1
30.477362 -29.315076 -5.149592 42.600019 -0.765962 1.691975 0.021973 -0.001326 -186937.000000 0 0 1
30.860192 -27.973876 -4.844592 41.932795 -0.736379 1.686587 0.014819 -0.007772 6219.260000 0 0 1
31.900542 -27.425076 -5.834192 42.471369 -0.710102 1.708600 0.025369 -0.009093 246697.000000 0 0 1
33.186812 -28.019676 -5.693592 43.805065 -0.701176 1.701141 0.018292 0.002487 60504.600000 0 0 1
34.212382 -27.471676 -6.488192 44.353993 -0.676552 1.717605 0.029473 -0.008234 48402.400000 0 0 1
34.333192 -28.105776 -7.883092 45.064908 -0.685991 1.746628 0.025669 -0.017062 -160102.000000 0 0 1
33.227632 -27.849576 -8.778892 44.235092 -0.697571 1.770583 0.028924 -0.014255 605417.000000 0 0 1
32.936742 -28.842476 -9.812792 44.866561 -0.719222 1.791289 0.029246 -0.007590 305409.000000 0 0 1
32.642152 -30.312676 -9.282892 45.503193 -0.748413 1.776244 0.027384 -0.009051 -674013.000000 0 0 1
33.785052 -30.943176 -8.818592 46.654876 -0.741522 1.760958 0.030311 0.001481 -1085580.000000 0 0 1
33.494872 -32.039776 -7.989592 47.034958 -0.763198 1.741489 0.035776 -0.002047 -84799.500000 0 0 1
34.678852 -32.744276 -7.299492 48.250316 -0.756713 1.722663 0.026905 -0.004287 -137142.000000 0 0 1
34.549152 -34.037476 -6.772392 48.969981 -0.777938 1.709538 0.026963 -0.002994 -117506.000000 0 0 1
33.943722 33.978195 -5.479492 48.339620 0.785906 1.684395 0.037644 0.002810 -139531.000000 0 0 1
33.969242 32.516295 -4.912692 47.279525 0.763548 1.674892 0.026914 0.005788 -779421.000000 0 0 1
32.993192 31.737095 -5.500292 46.109079 0.765996 1.690370 0.050759 -0.010129 -368543.000000 0 0 1
32.961702 30.422795 -5.049492 45.138871 0.745364 1.682897 0.049121 0.005965 302333.000000 0 0 1
31.689152 29.681395 -5.546092 43.771529 0.752695 1.697843 0.075489 -0.010476 304000.000000 0 0 1
31.730502 29.481095 -6.916092 43.861055 0.748667 1.729139 0.054670 -0.009445 138814.000000 0 0 1
30.455342 29.018995 -7.323392 42.699673 0.761252 1.743158 0.045792 -0.009020 178849.000000 0 0 1
30.368812 28.618995 -8.820892 42.651141 0.755743 1.779115 0.044142 -0.008499 -591495.000000 0 0 1
31.046682 27.424895 -9.084192 42.409243 0.723536 1.786672 0.059337 -0.009065 -42403.200000 0 0 1
31.385972 27.295895 -10.450692 42.887785 0.715812 1.816950 0.045787 -0.014476 -164954.000000 0 0 1
32.504912 28.202895 -11.025492 44.424477 0.714652 1.821603 0.057962 -0.022510 -815421.000000 0 0 1
33.735002 27.750895 -10.445092 44.913946 0.688379 1.805503 0.048217 -0.028085 -210076.000000 0 0 1
34.782482 28.482895 -11.002992 46.283499 0.686151 1.810825 0.054929 -0.020562 -507449.000000 0 0 1
35.084582 29.903795 -10.436492 47.266111 0.705848 1.793434 0.052956 -0.025400 -723383.000000 0 0 1
35.836402 29.794395 -9.216792 47.506873 0.693596 1.766044 0.043906 -0.016074 410201.000000 0 0 1
35.712382 31.026695 -8.471492 48.060340 0.715304 1.747990 0.034493 -0.013662 -311043.000000 0 0 1
36.728222 30.982695 -7.301492 48.602485 0.700747 1.721596 0.025053 -0.002501 974234.000000 0 0 1
-35.913220 31.119495 -7.524392 48.112356 -0.714006 1.727833 0.028727 -0.009316 319316.000000 0 0 1
-35.269681 30.023095 -8.041292 47.010627 -0.705216 1.742694 0.037920 -0.020116 -1038560.000000 0 0 1
-33.825108 30.277695 -8.479192 46.181960 -0.730115 1.755448 0.066737 -0.025930 -284104.000000 0 0 1
-33.075948 30.953095 -7.462492 45.910796 -0.752256 1.734064 0.052160 -0.026639 -297774.000000 0 0 1
-31.816548 31.369295 -7.893092 45.372087 -0.778320 1.745650 0.085516 -0.038105 -508752.000000 0 0 1
-31.741118 32.741695 -8.671792 46.418931 -0.800914 1.758716 0.061215 -0.032389 -425991.000000 0 0 1
-31.865908 33.976295 -7.987192 47.261189 -0.817439 1.740612 0.048241 -0.021927 -292022.000000 0 0 1
-30.808098 -33.806276 -7.130892 46.290958 0.831766 1.725457 0.097802 -0.020041 -453716.000000 0 0 1
-30.927758 -32.436076 -6.402192 45.272655 0.809198 1.712686 0.069956 -0.026241 -117723.000000 0 0 1
-31.920208 -32.241776 -5.420992 45.692657 0.790410 1.689717 0.065065 -0.022852 -128594.000000 0 0 1
-31.688848 -32.985476 -4.241592 45.937085 0.805444 1.663263 0.072999 -0.011248 -719437.000000 0 0 1
-32.805848 -32.979776 -3.230392 46.629655 0.788042 1.640129 0.058880 -0.005516 -867151.000000 0 0 1
-33.072348 -31.745276 -2.671492 45.920362 0.764927 1.629006 0.060942 -0.009955 -363948.000000 0 0 1
-34.119524 -31.823576 -1.757292 46.690149 0.750595 1.608443 0.061131 -0.004364 -314420.000000 0 0 1
-34.560848 -30.411076 -1.270092 46.053218 0.721615 1.598379 0.067311 -0.005440 292272.000000 0 0 1
-35.675437 -30.430476 -0.363592 46.892247 0.706222 1.578550 0.029138 -0.001399 192578.000000 0 0 1
-36.194888 -29.133376 -0.131692 46.463328 0.677723 1.573631 0.044562 -0.011068 171557.000000 0 0 1
36.748442 -29.149876 0.955308 46.915625 -0.670598 1.550433 0.044189 -0.003340 1135710.000000 0 0 1
35.537862 -29.913176 0.591908 46.455227 -0.699671 1.558055 0.016265 0.006645 1723110.000000 0 0 1
34.527632 -29.888676 1.604508 45.695348 -0.713507 1.535676 0.030899 0.004086 479092.000000 0 0 1
33.642442 -28.627676 1.792208 44.210517 -0.705039 1.530247 0.024593 0.014028 -1145810.000000 0 0 1
32.752692 -28.500676 0.740508 43.423217 -0.716092 1.553742 0.023176 0.001358 -543372.000000 0 0 1
32.245762 -27.190976 0.779808 42.187042 -0.700557 1.552311 0.023058 -0.000834 -391305.000000 0 0 1
30.967102 -26.955276 -0.073892 41.055497 -0.716246 1.572596 0.008863 -0.010400 172699.000000 0 0 1
29.793302 -27.479276 0.525208 40.534274 -0.745016 1.557839 0.002163 0.001242 122843.000000 0 0 1
29.500682 -28.868076 0.453508 41.277860 -0.774560 1.559809 0.017232 -0.007624 -694813.000000 0 0 1
29.091482 -29.339776 -0.989392 41.329357 -0.789647 1.594738 0.025892 -0.002912 -531940.000000 0 0 1
27.889072 -28.778476 -1.453392 40.101289 -0.801092 1.607047 0.028917 -0.000545 -195771.000000 0 0 1
27.671072 -29.313576 -2.769592 40.405998 -0.814214 1.639394 0.040660 -0.002260 -393185.000000 0 0 1
26.261372 -29.856676 -3.048992 39.879533 -0.849378 1.647326 0.053293 -0.015542 -310804.000000 0 0 1
25.314272 -28.805476 -3.065492 38.470314 -0.849818 1.650566 0.050136 -0.013567 34046.500000 0 0 1
24.091772 -29.393976 -3.519992 38.168176 -0.884208 1.663151 0.044512 -0.016524 45991.800000 0 0 1
22.879072 -28.475876 -3.505692 36.696285 -0.893952 1.666475 0.047013 -0.014968 -333913.000000 0 0 1
23.093872 -27.471676 -4.499992 36.170013 -0.871760 1.695532 0.060070 -0.021157 138185.000000 0 0 1
22.216372 -26.361876 -4.447192 34.760513 -0.870529 1.699086 0.066034 -0.030567 -1861.170000 0 0 1
21.976672 -25.767476 -5.869292 34.371290 -0.864630 1.742399 0.077857 -0.047083 33510.400000 0 0 1
20.845372 -26.283476 -6.548192 34.179372 -0.900278 1.763571 0.092092 -0.044037 -163756.000000 0 0 1
20.362372 -25.324076 -7.514192 33.352633 -0.893578 1.798042 0.099269 -0.042845 -139389.000000 0 0 1
18.884972 -25.595176 -7.858192 32.764408 -0.935128 1.812997 0.095289 -0.036200 -136720.000000 0 0 1
18.090772 -25.368476 -6.712492 31.873079 -0.951319 1.782986 0.092536 -0.034048 -569399.000000 0 0 1
16.743572 -25.680276 -6.982492 31.441676 -0.993016 1.794741 0.086383 -0.032988 -43072.200000 0 0 1
15.757372 -24.868876 -6.118992 30.069883 -1.006024 1.775720 0.079504 -0.023460 -140750.000000 0 0 1
15.722072 -25.194576 -4.729692 30.071917 -1.012898 1.728731 0.074154 -0.019688 24536.500000 0 0 1
15.131172 -24.200876 -3.920192 28.809767 -1.012030 1.707291 0.073868 -0.019421 23625.700000 0 0 1
14.880172 -24.585376 -2.420392 28.839531 -1.026529 1.654821 0.064828 -0.015690 -102012.000000 0 0 1
14.018272 -25.668576 -2.261292 29.334301 -1.070932 1.647960 0.061180 -0.014384 -238318.000000 0 0 1
14.593972 -26.640576 -1.447792 30.410532 -1.069636 1.618423 0.070080 -0.012435 -129370.000000 0 0 1
14.000572 -28.024676 -1.690792 31.372875 -1.107485 1.624716 0.067651 -0.007607 660083.000000 0 0 1
12.695572 -28.272376 -1.142192 31.013052 -1.148737 1.607634 0.062953 -0.014585 301491.000000 0 0 1
12.195072 -29.570376 -1.426392 32.018144 -1.179639 1.615361 0.061775 -0.016937 -549338.000000 0 0 1
12.901972 -30.850876 -0.950092 33.453552 -1.174696 1.599200 0.066444 -0.017191 -822894.000000 0 0 1
13.955272 -31.193776 -1.797992 34.220375 -1.150129 1.623362 0.074791 -0.014430 -689663.000000 0 0 1
14.589572 -32.402676 -1.461592 35.565788 -1.147728 1.611903 0.072517 -0.018261 -277830.000000 0 0 1
16.030372 -32.436076 -2.001992 36.236444 -1.111788 1.626073 0.063189 -0.010908 -455093.000000 0 0 1
16.828972 -31.478176 -1.373692 35.720819 -1.079835 1.609262 0.061200 -0.005554 -324625.000000 0 0 1
18.073372 -31.405976 -2.048692 36.292964 -1.048605 1.627275 0.064477 -0.008143 54372.900000 0 0 1
19.078472 -30.517976 -1.265992 36.013021 -1.012085 1.605957 0.054879 -0.013476 -242605.000000 0 0 1
18.822672 -29.135176 -1.355692 34.712957 -0.997206 1.609861 0.062197 -0.010652 -356184.000000 0 0 1
19.600572 -28.404676 -0.504292 34.514669 -0.966781 1.585408 0.070676 -0.011387 -679987.000000 0 0 1
19.146272 -26.920076 -0.397192 33.036768 -0.952575 1.582819 0.071230 -0.012206 -305432.000000 0 0 1
19.375172 -26.062276 -1.484692 32.509135 -0.931521 1.616482 0.071088 -0.019422 231995.000000 0 0 1
18.572072 -26.245776 -2.654992 32.261612 -0.954974 1.653185 0.082626 -0.020125 27663.000000 0 0 1
32.865912 -29.556876 13.673108 46.268034 -0.732438 1.270797 0.070761 -0.029046 -47237.800000 0 0 1
33.556972 -29.565576 14.890008 47.137098 -0.722250 1.249405 0.090867 -0.025217 -178530.000000 0 0 1
33.031182 -30.452976 15.811508 47.628212 -0.744809 1.232397 0.085325 -0.015410 -463427.000000 0 0 1
33.910232 -30.652176 17.015508 48.774863 -0.734977 1.214444 0.085599 -0.007100 -301746.000000 0 0 1
33.188292 -31.368576 18.004308 49.087732 -0.757218 1.195253 0.078163 -0.011935 122455.000000 0 0 1
33.971522 -31.779476 19.069008 50.275506 -0.752072 1.181767 0.059729 -0.011009 -322342.000000 0 0 1
34.882062 -33.010776 18.885808 51.605652 -0.757843 1.196128 0.054925 -0.001700 647420.000000 0 0 1
36.039312 -32.817476 18.043008 51.974695 -0.738642 1.216266 0.068917 0.006523 822004.000000 0 0 1
36.633152 33.985795 17.773508 53.036966 0.747928 1.229069 0.074052 0.006926 494314.000000 0 0 1
-36.182058 -33.944576 16.787408 52.375496 0.753503 1.244518 0.083139 -0.002627 1097740.000000 0 0 1
-35.131940 -33.167276 17.426508 51.361509 0.756641 1.224633 0.071591 -0.005873 198556.000000 0 0 1
-34.027328 -33.122976 16.588508 50.300787 0.771931 1.234719 0.087069 -0.012534 -1056810.000000 0 0 1
-32.982808 -32.088376 17.049608 49.073604 0.771654 1.215968 0.079459 -0.010747 -292896.000000 0 0 1
-31.756538 -32.103076 16.368108 48.031241 0.790825 1.223049 0.087625 -0.016971 -93113.600000 0 0 1
-31.810078 -31.385576 15.162408 47.189342 0.778681 1.243684 0.094380 -0.021321 -408174.000000 0 0 1
-30.488038 -31.446676 14.369208 46.096508 0.800875 1.253794 0.070042 -0.026194 32576.700000 0 0 1
-29.411118 -30.791976 15.008408 45.148776 0.808331 1.231927 0.080119 -0.028742 -191606.000000 0 0 1
-28.339208 -30.745276 14.081908 44.121229 0.826098 1.245949 0.066558 -0.016387 -277039.000000 0 0 1
-27.111298 -30.029076 14.658308 43.030615 0.836417 1.223190 0.068455 -0.017965 4720.450000 0 0 1
-26.030478 -30.097476 13.712308 42.088849 0.857731 1.238945 0.062428 -0.013605 -144362.000000 0 0 1
-24.893838 -29.863776 14.522908 41.502568 0.875913 1.213302 0.057390 -0.020667 -793495.000000 0 0 1
-23.558738 -29.917076 13.799108 40.502604 0.903744 1.223138 0.052821 -0.013755 -537052.000000 0 0 1
-23.219438 -31.204976 13.358608 41.125968 0.931086 1.239973 0.049962 -0.018816 -1021510.000000 0 0 1
-21.977338 -31.187376 12.771408 40.233875 0.956932 1.247779 0.037471 -0.022356 -1049400.000000 0 0 1
-21.573738 -32.667576 12.395708 41.063978 0.987143 1.264150 0.026947 -0.016986 -105261.000000 0 0 1
-22.159938 -33.257576 11.247808 41.516772 0.983039 1.296446 0.026270 -0.017002 228657.000000 0 0 1
-21.788238 33.448695 11.137308 41.443723 -0.993443 1.298719 0.028742 -0.007565 142731.000000 0 0 1
-22.753138 32.744895 10.164108 41.149028 -0.963528 1.321206 0.031985 0.003138 146002.000000 0 0 1
-22.603038 33.093995 8.798408 41.030742 -0.971574 1.354683 0.026308 0.006140 103704.000000 0 0 1
-23.784238 32.744195 8.106308 41.274502 -0.942594 1.373111 0.045118 0.001158 -305796.000000 0 0 1
-23.697838 33.293595 6.654908 41.404575 -0.952206 1.409367 0.050500 -0.000336 -436324.000000 0 0 1
-22.923238 32.608495 5.658708 40.259282 -0.958071 1.429773 0.032286 0.005261 -486592.000000 0 0 1
-21.546938 32.624895 5.818708 39.528619 -0.987114 1.423057 0.022610 0.000235 -950346.000000 0 0 1
-20.792738 33.954795 5.509308 40.194758 -1.021334 1.433298 0.025280 0.002936 -692151.000000 0 0 1
-20.940538 -33.046976 6.445708 39.650421 1.005994 1.407508 0.031514 -0.006085 -67566.400000 0 0 1
-20.231738 -33.227676 7.625308 39.642742 1.023871 1.377239 0.033755 -0.008150 -619992.000000 0 0 1
-20.286838 -32.011076 8.634108 38.869173 1.005934 1.346795 0.040387 -0.018723 -525314.000000 0 0 1
-19.475338 -30.914476 8.277908 37.463547 1.008628 1.347999 0.070474 -0.034478 -165218.000000 0 0 1
-19.381938 -29.880976 9.218208 36.790048 0.995379 1.317535 0.075827 -0.032304 60010.700000 0 0 1
-18.591338 -30.240676 10.504308 37.019952 1.019581 1.283097 0.052779 -0.025635 -219642.000000 0 0 1
-17.257038 -30.565776 10.206708 36.554738 1.056823 1.287818 0.069301 -0.036227 -477202.000000 0 0 1
-16.490538 -30.814176 11.370008 36.752257 1.079417 1.256267 0.081717 -0.036668 -13281.200000 0 0 1
-15.141438 -31.446776 11.012408 36.598306 1.122063 1.265161 0.083298 -0.035037 138783.000000 0 0 1
-14.093238 -30.571176 10.587808 35.289061 1.138835 1.266071 0.082944 -0.021840 484741.000000 0 0 1
-13.008738 -31.316776 10.025408 35.362077 1.177092 1.283347 0.088187 -0.009477 739214.000000 0 0 1
-11.910438 -30.354076 9.471608 33.954967 1.196873 1.288100 0.098617 -0.005938 511809.000000 0 0 1
-11.264338 -29.569276 10.489108 33.335398 1.206822 1.250704 0.102497 -0.008295 -246801.000000 0 0 1
-10.087338 -28.989276 10.008808 32.284807 1.235933 1.255586 0.097780 -0.011641 280217.000000 0 0 1
-9.132338 -28.335076 11.034508 31.749590 1.259010 1.215841 0.093627 -0.003287 535093.000000 0 0 1
-9.757738 -27.188476 11.581208 31.121553 1.226222 1.189495 0.087324 -0.017124 -67373.100000 0 0 1
-9.152638 -26.909076 12.813908 31.177963 1.242940 1.147254 0.083575 -0.005562 -65432.100000 0 0 1
-9.574338 -25.613176 13.459508 30.477222 1.213074 1.113387 0.080222 -0.019200 119181.000000 0 0 1
-9.023638 -24.439676 12.879908 29.062275 1.217102 1.111650 0.068094 -0.019220 442448.000000 0 0 1
-9.812438 -23.985776 11.745108 28.452574 1.182475 1.145275 0.064387 -0.017805 301052.000000 0 0 1
-9.282638 -22.704776 11.122008 26.932755 1.182692 1.145100 0.055728 -0.026151 -565960.000000 0 0 1
-8.143738 -22.898876 10.364908 26.421777 1.229107 1.167680 0.049029 -0.021905 -500606.000000 0 0 1
-7.496838 -21.648776 9.996508 24.996045 1.237427 1.159363 0.051843 -0.017989 -43179.300000 0 1 0
-6.353438 -21.848576 9.009808 24.472496 1.287807 1.193766 0.053150 -0.023512 -459485.000000 0 1 0
-5.218138 -22.386176 9.626608 24.920703 1.341789 1.174191 0.053106 -0.027023 -690997.000000 0 1 0
-4.180938 -22.521576 8.666508 24.491018 1.387244 1.209096 0.055189 -0.031039 265275.000000 0 1 0
-2.950538 -23.251676 9.278008 25.207688 1.444575 1.193872 0.061569 -0.027113 160185.000000 0 0 1
-2.146738 -22.425376 10.109208 24.692146 1.475359 1.148989 0.057711 -0.025850 127356.000000 0 1 0
-1.062338 -23.251776 10.557008 25.558248 1.525140 1.144988 0.062931 -0.030918 725657.000000 0 0 1
-0.096138 -22.612576 11.587908 25.409003 1.566545 1.097239 0.062508 -0.033713 45786.300000 0 0 1
-0.797938 -22.413776 12.808108 25.827537 1.535211 1.051915 0.068987 -0.029800 -84825.800000 0 0 1
-0.093838 -21.981776 13.994608 26.058709 1.566527 1.003870 0.083811 -0.034392 -123227.000000 0 0 1
0.685362 -20.654576 13.886408 24.898063 -1.537626 0.979147 0.066333 -0.034793 761997.000000 0 1 0
1.954162 -20.685276 13.201308 24.616538 -1.476605 1.004775 0.064440 -0.035053 670200.000000 0 1 0
2.399962 -19.362476 12.989308 23.439015 -1.447476 0.983425 0.055807 -0.038109 68891.900000 0 1 0
3.844862 -19.354076 12.445908 23.329463 -1.374690 1.008081 0.075780 -0.039563 72319.800000 0 1 0
4.019362 -19.547176 11.049308 22.810843 -1.367999 1.065132 0.067242 -0.037184 -180870.000000 0 1 0
5.404062 -19.851476 10.946608 23.304789 -1.305012 1.081828 0.090428 -0.032190 328787.000000 0 1 0
5.804262 -20.750276 9.753208 23.651395 -1.298048 1.145738 0.087421 -0.031918 -668314.000000 0 1 0
5.867762 -19.980776 8.560408 22.515386 -1.285157 1.180781 0.072410 -0.033858 -315465.000000 0 1 0
6.316962 -20.738776 7.481508 22.934119 -1.275128 1.238497 0.070096 -0.036436 974343.000000 0 1 0
7.791962 -21.321876 7.541408 23.920909 -1.220429 1.250061 0.080588 -0.020817 462481.000000 0 1 0
8.871862 -20.533376 7.078808 23.461436 -1.162952 1.264299 0.092494 -0.026438 53757.300000 0 1 0
9.354762 -19.457376 7.846508 22.971041 -1.122641 1.222196 0.093231 -0.019494 226517.000000 0 1 0
10.059962 -19.822076 9.182708 24.050773 -1.101156 1.179048 0.075459 -0.013325 64926.800000 0 1 0
9.090662 -19.983176 10.204808 24.209617 -1.143862 1.135677 0.087934 -0.020192 7239.940000 0 1 0
9.572762 -19.461176 11.449308 24.524718 -1.113658 1.085074 0.074976 -0.017561 90319.300000 0 1 0
8.750962 -19.881376 12.670508 25.147370 -1.156156 1.042746 0.098580 -0.019291 -132811.000000 0 0 1
8.820962 -21.252876 12.957108 26.407968 -1.177385 1.057959 0.084337 -0.019845 188355.000000 0 0 1
7.888462 -21.560676 13.984508 26.882281 -1.220052 1.023696 0.107315 -0.019067 267244.000000 0 0 1
8.200662 -22.889576 14.719708 28.422761 -1.226773 1.026420 0.099042 -0.017243 127125.000000 0 0 1
8.045662 -23.978476 13.880808 28.850941 -1.247064 1.068863 0.097526 -0.015874 -137518.000000 0 0 1
7.975862 -25.117776 14.719408 30.185725 -1.263328 1.061425 0.100509 -0.015138 145682.000000 0 0 1
8.093762 -26.395876 13.864708 30.894682 -1.273268 1.105404 0.105609 -0.025153 488828.000000 0 0 1
9.400962 -26.692976 13.379508 31.303423 -1.232173 1.129166 0.102270 -0.017002 308444.000000 0 0 1
9.326362 -27.472076 12.190808 31.469220 -1.243519 1.172999 0.101265 -0.023636 538872.000000 0 0 1
10.757262 -27.768276 11.636108 31.971782 -1.201204 1.198292 0.105584 -0.023668 800997.000000 0 0 1
11.554862 -28.639376 12.435508 33.292200 -1.187310 1.187989 0.095091 -0.020319 1066600.000000 0 0 1
12.843262 -28.864276 11.816608 33.730224 -1.152147 1.212876 0.121686 -0.016705 751068.000000 0 0 1
13.813762 -29.731376 12.626108 35.131088 -1.135852 1.203172 0.104277 -0.020257 -521317.000000 0 0 1
14.404362 -28.914276 13.633208 35.062592 -1.108610 1.171441 0.092531 -0.019990 65608.600000 0 0 1
15.387362 -29.486176 14.449008 36.262644 -1.089822 1.160965 0.075303 -0.019692 87415.700000 0 0 1
16.802962 -29.772976 13.893208 36.902451 -1.056988 1.184797 0.077546 -0.016188 -371686.000000 0 0 1
17.394462 -28.474776 13.715808 36.076357 -1.022421 1.180796 0.073119 -0.025499 472576.000000 0 0 1
18.654162 -28.669476 13.058108 36.611894 -0.993955 1.206103 0.053923 -0.015829 639560.000000 0 0 1
19.571862 -27.386176 13.009708 36.087573 -0.950298 1.201988 0.037789 -0.018478 163489.000000 0 0 1
20.868962 -27.682376 12.560908 36.872807 -0.924822 1.223183 0.038102 -0.015119 -157828.000000 0 0 1
21.631762 -26.544976 12.183008 36.345489 -0.887030 1.228979 0.031748 -0.019348 1129010.000000 0 0 1
23.080262 -27.022176 11.774208 37.436993 -0.863914 1.250859 0.040430 -0.020782 359546.000000 0 0 1
23.988762 -27.378276 12.732508 38.563551 -0.851289 1.234313 0.037205 -0.021317 -192080.000000 0 0 1
25.065862 -28.116476 12.189908 39.590751 -0.842697 1.257814 0.017736 -0.024364 -416039.000000 0 0 1
26.085162 -28.763076 13.156308 40.998032 -0.834183 1.244116 0.021373 -0.018129 -695131.000000 0 0 1
27.101162 -28.006976 13.692408 41.307938 -0.801834 1.232933 0.015178 -0.020244 474923.000000 0 0 1
28.230662 -28.072876 12.739008 41.801184 -0.782596 1.261118 0.004083 -0.021955 155091.000000 0 0 1
29.412762 -27.206676 13.224108 42.192308 -0.746454 1.251999 0.040295 -0.028511 -359865.000000 0 0 1
29.282362 -25.796676 13.293208 41.226625 -0.722197 1.242488 0.049880 -0.030096 -32575.500000 0 0 1
28.479362 -25.376376 14.383908 40.766792 -0.727845 1.210198 0.053068 -0.024117 -193165.000000 0 0 1
29.248662 -25.364576 15.766408 41.802220 -0.714398 1.184061 0.058677 -0.020696 66606.800000 0 0 1
29.514762 -26.638476 16.345708 42.987344 -0.734221 1.180736 0.056877 -0.017865 76893.900000 0 0 1
30.292462 -26.433276 17.512108 43.852312 -0.717470 1.159996 0.078129 -0.005228 159712.000000 0 0 1
30.660762 -27.787676 18.225008 45.214911 -0.736282 1.155922 0.079623 0.004201 546636.000000 0 0 1
29.530962 -28.406476 18.864108 45.109424 -0.765992 1.139349 0.067193 -0.002833 428533.000000 0 0 1
29.855462 -29.390876 19.842208 46.356072 -0.777557 1.128474 0.079486 -0.005474 168862.000000 0 0 1
28.602562 -30.151276 20.363908 46.280609 -0.811751 1.115187 0.066140 -0.006888 -932927.000000 0 0 1
27.651562 -29.285876 21.020008 45.432501 -0.814094 1.089798 0.077590 0.000206 767349.000000 0 0 1
26.396962 -29.892276 21.306808 45.214244 -0.847414 1.080099 0.099083 -0.007929 377211.000000 0 0 1
25.568462 -30.246976 20.051608 44.392486 -0.869024 1.102139 0.103859 -0.014571 -1763680.000000 0 0 1
26.085162 -31.293276 19.297208 45.078676 -0.875918 1.128431 0.080863 -0.011570 -352292.000000 0 0 1
25.549462 -31.488576 18.014808 44.371598 -0.889150 1.152725 0.085087 -0.015502 -297078.000000 0 0 1
26.316662 -30.612176 16.983508 43.796251 -0.860710 1.172570 0.087839 -0.008920 -1067270.000000 0 0 1
27.538062 -31.198176 16.759008 44.861291 -0.847632 1.187937 0.065432 -0.019745 -1268660.000000 0 0 1
28.253762 -30.235676 16.045408 44.383852 -0.819270 1.200905 0.068507 -0.029607 36279.400000 0 0 1
29.324662 -30.850976 15.061808 45.150599 -0.810757 1.230687 0.057545 -0.032149 -115016.000000 0 0 1
28.761462 -31.590876 14.050808 44.973663 -0.832245 1.253054 0.067384 -0.025772 210093.000000 0 0 1
28.893062 -33.004876 14.344508 46.150794 -0.851730 1.254743 0.051891 -0.031331 -275183.000000 0 0 1
27.972062 -33.906276 13.504608 45.983108 -0.881007 1.272715 0.060648 -0.029240 -315095.000000 0 0 1
28.282362 -33.935976 12.116108 45.807669 -0.876017 1.303111 0.064681 -0.029709 317648.000000 0 0 1
27.705762 33.002895 11.578608 44.619105 0.872433 1.308293 0.065535 -0.030446 -583537.000000 0 0 1
28.271462 32.681295 10.198708 44.399958 0.857621 1.339026 0.063257 -0.031882 -338528.000000 0 0 1
29.563762 32.141395 10.361508 44.882582 0.827147 1.337837 0.069855 -0.037016 -108903.000000 0 0 1
30.062862 31.561195 9.166508 44.541100 0.809707 1.363516 0.077162 -0.038930 147615.000000 0 0 1
31.533762 31.143495 9.445008 45.315600 0.779172 1.360830 0.071102 -0.041636 187992.000000 0 0 1
31.654362 30.096395 10.372408 44.892967 0.760174 1.337642 0.062879 -0.033182 340840.000000 0 0 1
33.044662 29.946095 10.620008 45.842152 0.736247 1.337008 0.073735 -0.031358 322699.000000 0 0 1
33.373462 28.951695 11.801408 45.730317 0.714570 1.309777 0.063582 -0.019592 -369.760000 0 0 1
33.110862 27.598395 11.517508 44.616741 0.694845 1.309697 0.065633 -0.022685 212554.000000 0 0 1
33.333962 26.885795 12.676008 44.661843 0.678727 1.283019 0.071179 -0.024805 -83555.200000 0 0 1
33.085562 25.401495 12.532208 43.553951 0.654766 1.278930 0.066237 -0.028056 375861.000000 0 0 1
34.246162 24.790595 11.964808 43.937795 0.626583 1.295001 0.074297 -0.022825 165317.000000 0 0 1
34.230962 23.383395 12.003608 43.158181 0.599298 1.288949 0.083022 -0.029223 242995.000000 0 0 1
33.136362 22.586495 11.175808 41.630121 0.598285 1.299008 0.081387 -0.031498 886942.000000 0 0 1
31.852862 22.428495 11.745308 40.688997 0.613491 1.277969 0.094623 -0.033491 93009.500000 0 0 1
30.863162 22.199295 10.770408 39.513861 0.623550 1.294730 0.088235 -0.023462 -401486.000000 0 0 1
29.498062 21.802795 11.312108 38.385692 0.636506 1.271659 0.079172 -0.015623 -309121.000000 0 0 1
28.911162 22.771195 12.199808 38.771355 0.667150 1.250698 0.077748 -0.008240 604342.000000 0 0 1
27.739662 22.290095 12.864308 37.839498 0.676899 1.223911 0.098623 -0.004442 388445.000000 0 0 1
24.597362 9.071795 25.898464 36.851841 0.353334 0.791509 0.032317 -0.003828 -223304.000000 0 0 1
24.235762 7.798995 26.500494 36.748778 0.311332 0.765370 0.029309 -0.008158 -426628.000000 0 0 1
22.850662 7.707695 26.560754 35.875270 0.325323 0.737185 0.020039 -0.003747 -898609.000000 0 0 1
22.455162 6.489695 27.410334 36.023283 0.281341 0.706088 0.042210 -0.007422 -315726.000000 0 0 1
22.626262 6.398795 28.846214 37.215540 0.275607 0.683904 0.052349 -0.001996 706556.000000 0 0 1
23.992162 6.371495 29.278304 38.385400 0.259574 0.703248 0.054555 -0.006970 478026.000000 0 0 1
24.087962 6.341095 30.832204 39.636653 0.257407 0.679525 0.064877 -0.011860 -158152.000000 0 0 1
24.000662 7.612795 31.363594 40.220163 0.307153 0.676454 0.065731 -0.011332 246913.000000 0 0 1
24.058062 7.548795 32.779153 41.355140 0.304045 0.655693 0.077518 -0.017210 -765.052000 0 0 1
24.216962 8.903295 33.531173 42.309213 0.352309 0.655855 0.084674 -0.023352 784625.000000 0 0 1
25.466862 9.564395 33.232353 42.946805 0.359264 0.685974 0.073353 -0.026943 653368.000000 0 0 1
26.051562 10.182295 -33.626252 43.738860 0.372595 2.447752 0.086206 -0.018809 163496.000000 0 0 1
27.306462 11.040095 -33.928672 44.929738 0.384211 2.426679 0.054409 -0.020787 91470.700000 0 0 1
27.019862 12.358495 33.537372 44.805811 0.428979 0.724992 0.037349 -0.020031 302875.000000 0 0 1
26.688662 13.310995 -33.483112 44.839559 0.462648 2.413931 0.034410 -0.014449 -459897.000000 0 0 1
26.261562 14.646695 33.867086 45.289898 0.508754 0.726077 0.035905 -0.007692 -31217.100000 0 0 1
27.352862 15.385395 33.291118 45.751372 0.512373 0.755902 0.018284 -0.006203 448414.000000 0 0 1
27.098062 16.778395 33.158427 45.992400 0.554398 0.765618 0.041670 -0.008231 -156292.000000 0 0 1
27.601362 17.661995 -33.689752 46.997667 0.569239 2.370054 0.034063 -0.007597 -129884.000000 0 0 1
26.955962 17.359995 -32.437002 45.608688 0.572155 2.362003 0.026634 -0.013248 314683.000000 0 0 1
27.860262 16.757895 -31.570272 45.317804 0.541520 2.341502 0.011068 -0.006796 -304365.000000 0 0 1
27.065762 16.235195 -30.330332 43.772892 0.540304 2.336303 0.012513 -0.003430 311673.000000 0 0 1
26.357762 15.072995 -30.746582 43.212025 0.519473 2.362467 0.028451 0.002230 -78683.700000 0 0 1
25.712462 14.368895 -29.743762 41.860330 0.509597 2.361073 0.058707 -0.013919 -90851.900000 0 0 1
24.871362 13.128295 -30.134632 41.219326 0.485677 2.390700 0.075245 -0.017776 -1048150.000000 0 0 1
23.791662 13.560695 -30.930662 41.311518 0.518051 2.416922 0.068489 -0.018600 -594630.000000 0 0 1
23.089462 12.548195 -31.510402 41.030305 0.497808 2.446476 0.072161 -0.020833 -393137.000000 0 0 1
22.222962 11.699795 -30.562652 39.557818 0.484601 2.453734 0.085317 -0.020861 -749987.000000 0 0 1
21.044662 12.325195 -30.044002 38.696645 0.529815 2.459727 0.098857 -0.021797 834346.000000 0 0 1
20.221162 11.301395 -29.455102 37.472923 0.509643 2.475168 0.098611 -0.031029 798581.000000 0 0 1
18.877262 11.801195 -28.824992 36.421140 0.558710 2.483951 0.082571 -0.019695 440685.000000 0 0 1
17.875762 12.173095 -29.737702 36.770342 0.597849 2.512806 0.056129 -0.008480 -235397.000000 0 0 1
16.773662 12.639595 -29.014052 35.818017 0.645762 2.515018 0.055481 -0.020579 -522011.000000 0 0 1
15.504162 13.100895 -29.758942 36.022315 0.701580 2.542992 0.049783 -0.023506 309949.000000 0 0 1
14.841162 12.021295 -30.427432 35.924926 0.680807 2.581061 0.052800 -0.010134 91439.000000 0 0 1
13.539562 11.772395 -29.924992 34.891463 0.715696 2.601497 0.060034 -0.018527 -182148.000000 0 0 1
12.621962 11.175895 -30.971362 35.262442 0.724708 2.643112 0.066940 -0.017244 -289036.000000 0 0 1
12.284462 12.184695 -31.950892 36.335029 0.781321 2.645274 0.074267 -0.014752 -511961.000000 0 0 1
11.292462 11.629495 -32.740972 36.534041 0.800101 2.681874 0.092075 -0.008846 -475280.000000 0 0 1
10.886662 12.574295 -33.919512 37.777846 0.857208 2.685699 0.113298 -0.015352 110632.000000 0 0 1
11.853962 12.686595 33.028970 37.314594 0.819314 0.483983 0.082977 -0.006007 49873.500000 0 0 1
11.221762 12.964495 31.799834 36.128044 0.857329 0.494517 0.106566 -0.017684 -235957.000000 0 0 1
12.113162 13.054495 30.544824 35.357246 0.822783 0.527851 0.092797 -0.005067 -441504.000000 0 0 1
12.576362 11.831795 30.159154 34.752422 0.754903 0.519981 0.079755 -0.004941 -18926.400000 0 0 1
12.548262 11.805995 28.796084 33.556741 0.754930 0.539178 0.086747 -0.000443 -261785.000000 0 0 1
13.076162 10.462795 28.290434 32.875596 0.674828 0.534487 0.080702 -0.000384 205009.000000 0 0 1
12.210262 9.315295 28.449074 32.329786 0.651711 0.495008 0.108337 -0.009432 473192.000000 0 0 1
12.880362 8.094595 28.200404 32.041988 0.561073 0.494707 0.062342 -0.010384 -47132.400000 0 0 1
11.995462 6.815295 28.368884 31.545728 0.516676 0.452644 0.081382 -0.012447 237164.000000 0 0 1
11.029662 6.671095 27.347144 30.232818 0.543965 0.440469 0.094379 -0.011848 362935.000000 0 0 1
9.905762 5.822295 27.552194 29.852080 0.531377 0.395102 0.070861 -0.019214 427588.000000 0 0 1
10.114462 4.326795 27.134764 29.280009 0.404226 0.385173 0.064154 -0.011006 33901.600000 0 0 1
10.942762 3.604495 28.029924 30.305331 0.318202 0.389978 0.061278 -0.013197 225478.000000 0 0 1
11.395062 2.386995 27.529854 29.890434 0.206491 0.400091 0.031529 -0.008800 -333234.000000 0 0 1
11.900062 1.459295 28.637064 31.045491 0.122020 0.396489 0.026803 -0.008741 -11435.100000 0 0 1
10.864462 0.964595 29.454454 31.409105 0.088552 0.354650 0.037871 -0.013786 -76219.900000 0 0 1
11.193762 -0.247005 30.104844 32.119511 -0.022063 0.356065 0.031955 -0.019669 -73220.800000 0 0 1
10.195062 -0.517505 31.232804 32.858715 -0.050717 0.315897 0.051444 -0.015000 -116560.000000 0 0 1
10.257562 0.435495 32.281380 33.874692 0.042431 0.307925 0.038353 -0.022149 -291703.000000 0 0 1
8.979962 0.762195 32.767639 33.984391 0.084674 0.268399 0.054751 -0.021269 -225091.000000 0 0 1
9.011062 2.126495 33.543560 34.797869 0.231747 0.269311 0.053732 -0.021323 -58751.200000 0 0 1
9.014862 3.370495 32.847840 34.228769 0.357790 0.285020 0.066718 -0.025578 -312569.000000 0 0 1
10.121662 3.604395 32.044608 33.797879 0.342105 0.323512 0.048724 -0.020008 -624739.000000 0 0 1
10.254962 5.065495 31.367374 33.387657 0.458800 0.349657 0.057549 -0.017665 58863.700000 0 0 1
10.350462 6.158095 32.242973 34.418942 0.536704 0.357485 0.049619 -0.020221 197673.000000 0 0 1
10.534862 7.383695 31.579294 34.099181 0.611318 0.386852 0.063803 -0.018182 -233908.000000 0 0 1
10.658062 8.598695 32.556710 35.319559 0.678861 0.398161 0.090137 -0.021967 262006.000000 0 0 1
9.446062 9.207295 33.015890 35.553500 0.772599 0.380105 0.116133 -0.031283 523947.000000 0 0 1
8.870862 8.557595 -33.820792 35.996814 0.767426 2.792109 0.104567 -0.029926 684783.000000 0 0 1
7.435362 9.032695 -33.388752 35.379132 0.882092 2.804564 0.115821 -0.037332 728657.000000 0 0 1
7.025962 8.356095 -32.212092 34.011871 0.871657 2.814822 0.111982 -0.035853 -140468.000000 0 0 1
5.621262 8.341495 -32.124882 33.662846 0.977809 2.838148 0.110537 -0.037977 218816.000000 0 0 1
4.944662 7.590795 -30.891562 32.192522 0.993436 2.856331 0.100955 -0.025426 173912.000000 0 0 1
5.381862 8.164195 -29.644442 31.215565 0.987979 2.822973 0.101805 -0.032199 104186.000000 0 0 1
4.857562 7.633595 -28.471932 29.875050 1.004084 2.833896 0.080709 -0.025231 -1276720.000000 0 0 1
3.475862 8.038695 -28.071362 29.405843 1.162682 2.839173 0.090649 -0.021544 -490568.000000 0 0 1
2.466762 7.353495 -28.835922 29.860831 1.247138 2.878834 0.091809 -0.019969 -195829.000000 0 0 1
1.149162 7.560595 -28.407882 29.419228 1.419957 2.878626 0.108952 -0.012717 -492123.000000 0 0 1
0.208162 6.837095 -29.406162 30.191250 1.540360 2.913044 0.110804 -0.022753 -264045.000000 0 0 1
-0.079438 7.495195 -30.595752 31.500545 -1.560198 2.901336 0.120769 -0.026292 -150830.000000 0 0 1
-0.671738 6.688795 -31.556132 32.264233 -1.470705 2.931699 0.110720 -0.025299 -961368.000000 0 0 1
-0.810938 7.512195 -32.880242 33.737235 -1.463263 2.915715 0.114870 -0.039251 -123132.000000 0 0 1
0.349862 8.078995 -33.464582 34.427763 1.527518 2.904492 0.104510 -0.033863 13473.500000 0 0 1
1.387262 7.164995 -33.771462 34.551025 1.379546 2.928764 0.116795 -0.037931 -408123.000000 0 0 1
1.412062 6.593195 32.798261 33.484177 1.359814 0.202756 0.130052 -0.043473 -109792.000000 0 0 1
0.365962 5.662595 32.527148 33.018393 1.506258 0.172713 0.124565 -0.041618 26979.100000 0 0 1
0.163762 5.340595 31.163994 31.618718 1.540142 0.169800 0.138250 -0.040680 45422.500000 0 0 1
1.199362 4.390695 30.514174 30.851767 1.304142 0.148070 0.135344 -0.036333 205558.000000 0 0 1
0.902962 4.199995 29.124914 29.440040 1.359029 0.146445 0.112376 -0.035822 -32605.400000 0 0 1
1.879962 3.430595 28.466114 28.733655 1.069491 0.136569 0.083775 -0.024428 -172111.000000 0 0 1
1.895262 3.641295 26.912564 27.223835 1.090890 0.151364 0.093149 -0.022937 21308.900000 0 0 1
2.468462 4.861295 26.559374 27.113205 1.100945 0.202467 0.101874 -0.025956 -160096.000000 0 0 1
2.178562 5.222795 25.239944 25.866552 1.175614 0.220559 0.075804 -0.020859 -500635.000000 0 0 1
2.514262 6.659495 24.915464 25.912367 1.209796 0.278285 0.080386 -0.015193 332487.000000 0 0 1
3.910462 6.917495 24.948964 26.183855 1.056282 0.308343 0.082147 -0.008654 12536.800000 0 0 1
4.506362 6.790495 23.675274 25.038705 0.984900 0.331525 0.062473 -0.013148 -123235.000000 0 0 1
6.063562 6.746495 23.684424 25.362057 0.838660 0.365759 0.064852 -0.015642 522741.000000 0 0 1
6.670462 5.730495 24.492624 26.023495 0.709745 0.344710 0.071084 -0.019520 18289.100000 0 0 1
6.499162 4.348695 24.228944 25.459615 0.589697 0.312194 0.070272 -0.021028 -772822.000000 0 0 1
6.775362 3.697395 22.847774 24.116324 0.499545 0.325788 0.063401 -0.022104 923742.000000 0 1 0
5.789862 3.968295 21.821674 22.922813 0.600851 0.311212 0.039348 -0.020779 2182620.000000 0 1 0
4.400162 3.539795 21.995474 22.708863 0.677460 0.251318 0.025559 -0.024405 1410980.000000 0 1 0
3.362462 3.920795 20.951274 21.578570 0.861908 0.241712 -0.004680 -0.017835 -1179.990000 0 1 0
3.035662 5.311895 21.035674 21.907329 1.051609 0.283037 -0.000277 -0.024471 311959.000000 0 1 0
1.703962 5.629995 20.664474 21.485363 1.276903 0.277318 0.002479 -0.009735 4715.950000 0 1 0
1.479262 7.150495 20.796574 22.041218 1.366799 0.337664 0.015551 -0.002269 -40113.300000 0 1 0
2.379962 7.908895 19.974474 21.614682 1.278494 0.392081 0.010622 -0.009122 192793.000000 0 1 0
2.241662 9.299395 20.207174 22.356961 1.334254 0.442129 0.028968 -0.010928 -678584.000000 0 1 0
3.312962 10.227295 19.711674 22.452692 1.257529 0.499295 0.051297 -0.020533 -1149810.000000 0 1 0
3.178962 10.563695 18.320174 21.385188 1.278484 0.542005 0.022943 -0.015289 -34679.200000 0 1 0
4.000862 11.617895 17.876774 21.692429 1.239145 0.602181 0.026495 -0.013530 1078710.000000 0 1 0
5.563262 11.390995 17.829574 21.876892 1.116479 0.618074 0.034940 -0.015531 768873.000000 0 1 0
5.983962 10.419295 16.914274 20.747583 1.049477 0.617652 0.028713 -0.015497 9786.580000 0 1 0
7.217962 9.798995 17.234674 21.098656 0.935925 0.614848 0.034536 -0.012316 -68648.800000 0 1 0
7.033962 8.381895 17.794774 20.889873 0.872614 0.551313 0.033265 -0.010309 -105127.000000 0 1 0
6.528262 8.380195 19.138474 21.888972 0.908985 0.506715 0.043999 -0.009112 1887.890000 0 1 0
6.409362 7.139295 19.827974 22.027211 0.839221 0.450664 0.039141 -0.015474 48903.400000 0 1 0
7.722562 6.369095 20.129874 22.481441 0.689645 0.461468 0.067391 -0.021254 737886.000000 0 1 0
8.540462 6.094095 18.948974 21.659666 0.619766 0.505669 0.047986 -0.018729 -528277.000000 0 1 0
9.782662 5.581795 19.258674 22.310389 0.518506 0.529191 0.057940 -0.020135 -776116.000000 0 1 0
9.900162 4.049995 19.079474 21.873317 0.388313 0.510968 0.057619 -0.025135 -142597.000000 0 1 0
9.370462 3.301495 20.212974 22.522650 0.338749 0.456840 0.081945 -0.028676 158618.000000 0 1 0
9.732262 1.976295 20.116674 22.434421 0.200342 0.458567 0.077041 -0.038001 23453.900000 0 1 0
9.058262 1.001595 21.141674 23.022287 0.110125 0.406998 0.072291 -0.027817 331764.000000 0 1 0
9.548562 1.163495 22.485974 24.457060 0.121253 0.404228 0.073278 -0.019828 132533.000000 0 1 0
8.868962 0.240795 23.292314 24.924855 0.027144 0.363940 0.071374 -0.023292 -422454.000000 0 1 0
9.360362 0.262895 24.743804 26.456405 0.028079 0.361783 0.071513 -0.014195 -284399.000000 0 0 1
10.647062 -0.284805 24.950264 27.128523 -0.026743 0.403465 0.069850 -0.014647 -29737.300000 0 0 1
10.686862 -1.718205 24.826974 27.083942 -0.159413 0.411135 0.061810 -0.016688 -268249.000000 0 0 1
12.088362 -2.323905 25.069734 27.928849 -0.189926 0.456437 0.054707 -0.015353 183398.000000 0 0 1
12.068962 -3.719405 25.082834 28.082778 -0.298944 0.466440 0.054526 -0.007297 -595691.000000 0 0 1
13.282262 -4.260005 25.508394 29.073086 -0.310364 0.500404 0.049462 -0.008943 -475356.000000 0 0 1
13.305962 -5.842005 25.538844 29.383843 -0.413712 0.517324 0.053205 -0.002660 -204855.000000 0 0 1
13.313362 -6.391805 24.222524 28.369552 -0.447605 0.547514 0.054953 -0.004915 217422.000000 0 0 1
13.140162 -7.784805 24.317274 28.715795 -0.534845 0.560808 0.061600 -0.015303 -8979.930000 0 0 1
12.869262 -8.426505 22.954674 27.632245 -0.579726 0.590396 0.067341 -0.014878 124143.000000 0 0 1
12.420462 -9.791205 23.027554 27.935709 -0.667574 0.601822 0.069402 -0.009460 -195738.000000 0 0 1
12.416362 -10.336605 21.749474 27.093377 -0.694245 0.638887 0.070246 -0.015351 192885.000000 0 0 1
11.814062 -11.796405 21.666574 27.352654 -0.784650 0.656522 0.088185 -0.014365 391290.000000 0 0 1
10.439862 -11.717705 22.001974 27.025584 -0.843005 0.619590 0.075362 -0.019736 -364358.000000 0 0 1
9.937062 -13.002305 22.341474 27.693801 -0.918235 0.632196 0.075272 -0.020088 573078.000000 0 0 1
8.418562 -12.948305 22.682974 27.441722 -0.994304 0.597780 0.041198 -0.018158 593791.000000 0 0 1
7.551062 -12.652305 21.604474 26.150577 -1.032723 0.598544 0.030326 -0.025485 -286247.000000 0 0 1
6.191662 -12.642505 21.987674 26.107995 -1.115383 0.569480 0.014260 -0.019198 -36672.600000 0 0 1
5.468062 -11.495105 21.364574 24.869302 -1.126788 0.537338 0.014645 -0.010617 -236008.000000 0 1 0
5.923262 -10.224705 21.849674 24.840247 -1.045730 0.495759 0.018286 -0.006602 -46396.200000 0 1 0
5.104362 -9.197705 21.311974 23.766627 -1.064153 0.458497 0.010887 -0.002589 324942.000000 0 1 0
5.548262 -7.850205 21.863474 23.883476 -0.955543 0.414240 0.016594 -0.017121 -40863.100000 0 1 0
4.941162 -6.753305 21.184674 22.777459 -0.939133 0.376188 0.012262 -0.012603 -194785.000000 0 1 0
5.434362 -5.490005 21.575074 22.916288 -0.790492 0.343822 0.029756 -0.020908 -371045.000000 0 1 0
-8.386738 -14.725005 -20.396092 26.517234 1.053062 2.448328 0.052609 -0.006986 42478.400000 0 0 1
-7.567538 -14.546905 -19.246792 25.284760 1.091107 2.435960 0.034904 -0.010889 -47830.700000 0 0 1
-6.774238 -13.410405 -19.520692 24.633040 1.103039 2.485628 0.037804 -0.022561 -409442.000000 0 1 0
-5.888938 -13.056305 -18.363092 23.288406 1.147076 2.479175 0.023647 -0.022196 212191.000000 0 1 0
-4.932438 -14.106405 -18.015092 23.406477 1.234425 2.449109 0.038935 -0.010972 403366.000000 0 1 0
-4.174138 -13.602605 -16.967192 22.143620 1.273055 2.443756 0.038012 -0.013500 -171235.000000 0 1 0
-3.060338 -14.505205 -16.367392 22.082983 1.362864 2.405618 0.038357 -0.004390 220154.000000 0 1 0
-1.931338 -14.591605 -17.220492 22.653705 1.439202 2.434359 0.036030 -0.003920 -494104.000000 0 1 0
-1.115338 -15.610105 -16.720892 22.902131 1.499468 2.389268 0.046118 0.010669 -1074550.000000 0 1 0
-0.063838 -16.085505 -17.663292 23.890153 1.566828 2.402907 0.037354 0.021153 -996548.000000 0 1 0
-0.417338 -16.780905 -18.841192 25.234172 1.545932 2.413814 0.061355 -0.007493 -692149.000000 0 0 1
-0.913438 -18.064605 -18.547092 25.906735 1.520274 2.368734 0.052975 0.004845 -426577.000000 0 0 1
-1.524838 -18.659605 -19.789292 27.241917 1.489259 2.383906 0.061590 -0.013201 -985336.000000 0 0 1
-2.828038 -18.262105 -20.051692 27.268528 1.417158 2.396967 0.080987 -0.019867 -929133.000000 0 0 1
-3.190338 -18.569605 -21.370392 28.490387 1.400653 2.418997 0.054050 -0.028611 -66860.100000 0 0 1
-3.913338 -17.327405 -21.936592 28.227066 1.348676 2.460917 0.062638 -0.033715 -387024.000000 0 0 1
-3.186538 -16.132405 -22.021792 27.483956 1.375783 2.500194 0.067569 -0.029587 -455665.000000 0 0 1
-3.231338 -15.435705 -20.768992 26.077837 1.364435 2.492154 0.059207 -0.016574 -423346.000000 0 0 1
-2.291338 -14.274405 -20.619292 25.182614 1.411633 2.530098 0.068677 -0.017856 -519293.000000 0 0 1
-2.495538 -13.221505 -21.518392 25.378674 1.384243 2.582794 0.064686 -0.032329 -449139.000000 0 0 1
-1.616138 -12.174105 -21.321992 24.605855 1.438816 2.619027 0.048667 -0.017428 -270899.000000 0 1 0
-1.686438 -11.192905 -22.486792 25.175008 1.421251 2.675250 0.059911 -0.021112 -391605.000000 0 0 1
-2.759238 -10.313005 -22.449392 24.858533 1.309370 2.697698 0.058726 -0.027163 -398582.000000 0 1 0
-2.727538 -9.474605 -23.562592 25.542188 1.290497 2.745297 0.062301 -0.024175 543339.000000 0 0 1
-3.930838 -8.457805 -23.573692 25.351625 1.135737 2.764853 0.063309 -0.026953 147598.000000 0 0 1
-5.221338 -9.024105 -23.672092 25.866287 1.046262 2.726730 0.065307 -0.029217 -518963.000000 0 0 1
-6.003138 -7.883405 -23.662092 25.653077 0.919982 2.745014 0.069545 -0.030749 -1214220.000000 0 0 1
-7.506038 -8.252705 -23.475992 25.991728 0.832744 2.697987 0.053168 -0.034413 274492.000000 0 0 1
-8.169638 -8.728805 -24.630692 27.378934 0.818476 2.689700 0.062260 -0.030598 90655.500000 0 0 1
-8.364738 -7.738905 -25.631952 28.050962 0.746555 2.723251 0.059054 -0.031036 -949999.000000 0 0 1
-9.378638 -8.276405 -26.635332 29.426156 0.723047 2.702549 0.058192 -0.026466 -219016.000000 0 0 1
-10.015238 -7.266505 -27.371682 30.038576 0.627665 2.717027 0.063613 -0.027771 -3366.870000 0 0 1
-10.712538 -7.720005 -28.513062 31.422152 0.624452 2.707897 0.067014 -0.025246 -662011.000000 0 0 1
-11.591138 -6.682805 -29.187042 32.107597 0.522994 2.711767 0.064737 -0.031734 -165575.000000 0 0 1
-10.881138 -5.636205 -29.839332 32.257584 0.477927 2.751919 0.043848 -0.018229 -219408.000000 0 0 1
-11.723138 -5.031105 -30.751742 33.292846 0.405389 2.748357 0.069965 -0.024395 -1715.640000 0 0 1
-10.992238 -3.958405 -31.636402 33.724771 0.345652 2.787831 0.054261 -0.026494 462332.000000 0 0 1
-10.074238 -4.472905 -32.601322 34.414290 0.417848 2.815556 0.050111 -0.023005 395571.000000 0 0 1
-9.424338 -3.438805 -33.352022 34.828163 0.349874 2.849407 0.041836 -0.022184 537710.000000 0 0 1
-8.222438 -3.925305 33.731058 34.939960 0.445396 0.263821 0.041306 -0.016476 1269040.000000 0 0 1
-7.023838 -4.217405 -33.490492 34.478020 0.540744 2.901676 0.027745 -0.015321 312653.000000 0 0 1
-6.068838 -4.832505 33.661363 34.543759 0.672470 0.226512 0.028845 -0.013599 99987.400000 0 0 1
-4.627438 -4.309705 33.870935 34.456161 0.749861 0.184569 0.042671 -0.017989 28789.700000 0 0 1
-4.439838 -2.872705 33.781625 34.193023 0.574284 0.155279 0.058559 -0.026412 -706247.000000 0 0 1
-3.118538 -2.431205 33.775552 34.006234 0.662176 0.116544 0.056583 -0.031038 -347147.000000 0 0 1
-3.082238 -0.944805 -33.735842 33.889525 0.297439 3.046322 0.062033 -0.032455 -109597.000000 0 0 1
-3.302438 -0.851005 -32.358732 32.537945 0.252203 3.036589 0.071607 -0.035015 7243.320000 0 0 1
-3.574438 0.494495 -31.993362 32.196217 -0.137470 3.029279 0.082472 -0.034809 -572749.000000 0 0 1
-4.009438 0.594095 -30.511932 30.779970 -0.147104 3.009526 0.098440 -0.043585 224186.000000 0 0 1
-5.133138 -0.167305 -30.111712 30.546560 0.032582 2.972658 0.073100 -0.039861 148930.000000 0 0 1
-6.338538 0.553095 -30.306212 30.966909 -0.087039 2.934654 0.073254 -0.042261 -371986.000000 0 0 1
-7.618938 -0.250805 -30.546692 31.483512 0.032907 2.897033 0.058322 -0.041842 -236863.000000 0 0 1
-8.007438 -0.841105 -29.320682 30.406067 0.104657 2.873597 0.058198 -0.030752 356608.000000 0 0 1
-9.189038 -1.622205 -29.527392 30.966706 0.174737 2.835508 0.044738 -0.017127 438875.000000 0 0 1
-9.398338 -2.420605 -28.187732 29.811681 0.252078 2.810004 0.048492 -0.019651 -198920.000000 0 0 1
-9.830738 -1.655805 -27.132382 28.905904 0.166865 2.789477 0.052299 -0.018889 -79945.100000 0 0 1
-10.086038 -2.387105 -25.933522 27.928015 0.232398 2.761377 0.046015 -0.025139 145955.000000 0 0 1
-11.104638 -1.633705 -25.034202 27.435256 0.146071 2.720109 0.085255 -0.025332 356765.000000 0 0 1
-10.523338 -0.482205 -24.448992 26.621915 0.045790 2.734759 0.074833 -0.024447 400055.000000 0 0 1
-11.457338 0.146395 -23.593792 26.228974 -0.012777 2.689493 0.093219 -0.032241 280716.000000 0 0 1
-10.739538 1.325595 -22.939992 25.364111 -0.122810 2.700832 0.094517 -0.034316 218643.000000 0 0 1
-10.596438 2.520795 -23.653092 26.040501 -0.233550 2.710045 0.077195 -0.034394 472575.000000 0 0 1
-9.856738 3.554695 -22.908892 25.191437 -0.346119 2.712616 0.074017 -0.040636 -57531.200000 0 0 1
-9.857738 4.865795 -23.750992 26.171752 -0.458516 2.708102 0.099945 -0.048002 -204848.000000 0 0 1
-11.134138 5.410195 -24.004892 27.008778 -0.452313 2.665475 0.106396 -0.041058 -220162.000000 0 0 1
-11.723838 4.766695 -25.085572 28.097254 -0.386167 2.674347 0.096159 -0.038750 191942.000000 0 0 1
-13.231438 5.100695 -25.387362 29.079309 -0.367943 2.632196 0.094076 -0.019166 945750.000000 0 0 1
-13.382538 6.475595 -25.806582 29.782635 -0.450672 2.618939 0.083774 -0.022479 -675615.000000 0 0 1
-14.732938 6.766895 -25.916242 30.569625 -0.430564 2.582577 0.088366 -0.025066 -704835.000000 0 0 1
-15.088238 8.184595 -26.254422 31.367773 -0.497027 2.562550 0.099500 -0.015697 -174660.000000 0 0 1
-14.724538 9.080295 -25.214042 30.577961 -0.552592 2.540260 0.133731 -0.022264 212319.000000 0 0 1
-15.285938 10.342895 -25.414782 31.409338 -0.594867 2.513496 0.108155 -0.021536 -192462.000000 0 0 1
-15.011138 11.327695 -24.301392 30.727978 -0.646451 2.483002 0.111400 -0.019092 95810.100000 0 0 1
-15.555738 10.838895 -23.077692 29.867081 -0.608560 2.453848 0.140173 -0.019294 182291.000000 0 0 1
-15.050738 11.636795 -22.044392 29.118636 -0.658166 2.429589 0.142023 -0.024842 -219788.000000 0 0 1
-15.882638 11.567795 -20.714592 28.551119 -0.629487 2.382595 0.143083 -0.032426 555576.000000 0 0 1
-17.073238 12.342495 -20.953392 29.713251 -0.625940 2.353483 0.120685 -0.028194 276277.000000 0 0 1
-17.717138 12.667695 -19.735792 29.391648 -0.620720 2.306995 0.116281 -0.026533 -417774.000000 0 0 1
-19.181838 12.998795 -20.029892 30.628552 -0.595576 2.283605 0.086526 -0.027247 -547130.000000 0 0 1
-19.353938 14.170695 -20.799092 31.748791 -0.632003 2.285130 0.081568 -0.017758 84207.400000 0 0 1
-20.725838 14.476595 -20.948892 32.832731 -0.609705 2.262758 0.039431 -0.015914 105109.000000 0 0 1
-21.051238 15.707095 -21.751892 34.102966 -0.641024 2.262474 0.042066 -0.018658 -98849.300000 0 0 1
-21.054738 15.479195 -23.141892 34.906370 -0.633954 2.295576 0.055294 -0.021425 187148.000000 0 0 1
-21.594338 16.595295 -23.825192 36.185067 -0.655238 2.289522 0.047923 -0.012737 -8097.440000 0 0 1
-21.516638 16.528095 -25.357642 37.136958 -0.655019 2.322404 0.037291 -0.005927 337013.000000 0 0 1
-20.232738 16.930095 -25.813102 36.909458 -0.696762 2.345302 0.033994 -0.017516 299147.000000 0 0 1
-20.027138 16.476395 -27.114132 37.519782 -0.688432 2.378443 0.021188 -0.027684 -93167.000000 0 0 1
-18.962538 17.344195 -27.835262 37.884044 -0.740853 2.396093 0.005692 -0.013479 -57996.700000 0 0 1
-19.337438 18.689995 -28.138742 38.923531 -0.768374 2.378821 -0.009961 -0.025658 46122.900000 0 0 1
-18.982938 19.673495 -27.223412 38.581246 -0.803260 2.354084 -0.016124 -0.027808 -940486.000000 0 0 1
-19.746338 21.042195 -27.391182 39.786539 -0.817158 2.330151 0.027417 -0.022342 531958.000000 0 0 1
-20.906738 21.295695 -26.623062 39.992321 -0.794614 2.299234 0.049416 -0.008659 -347333.000000 0 0 1
-22.063838 20.640495 -27.019652 40.532760 -0.752080 2.300452 0.085364 -0.027874 -1045340.000000 0 0 1
-23.175638 20.874995 -25.983372 40.595705 -0.733218 2.265363 0.097293 -0.009723 -262552.000000 0 0 1
-22.982238 20.179995 -24.772792 39.358693 -0.720566 2.251591 0.057722 0.006555 361370.000000 0 0 1
-23.928538 20.489795 -23.725192 39.437183 -0.708135 2.216292 0.052004 -0.006277 426660.000000 0 0 1
-23.457538 19.885795 -22.422092 38.058523 -0.703178 2.200800 0.048654 0.009735 537188.000000 0 0 1
-22.269838 20.445695 -21.863292 37.309190 -0.742720 2.196913 0.047589 0.010915 190372.000000 0 0 1
-21.577238 19.699595 -20.894092 35.919554 -0.739940 2.191603 0.052006 0.008977 -23230.000000 0 0 1
-22.195838 19.556095 -19.427292 35.390899 -0.722258 2.151886 0.064220 -0.005111 -692374.000000 0 0 1
-23.258038 18.625195 -19.472292 35.595005 -0.675233 2.149634 0.086026 -0.008147 -19667.600000 0 0 1
-23.830238 18.448695 -18.190492 35.201259 -0.658792 2.113855 0.079657 -0.011451 122009.000000 0 0 1
-24.969438 19.455695 -17.854892 36.342731 -0.661916 2.084369 0.056846 -0.019499 -266946.000000 0 0 1
-26.206918 19.239795 -18.502892 37.407610 -0.633279 2.088204 0.062540 -0.019741 218178.000000 0 0 1
-27.022398 20.379195 -18.401992 38.524731 -0.646158 2.068794 0.045871 -0.018579 -83871.100000 0 0 1
-28.471658 20.281595 -19.053692 39.812330 -0.618962 2.069842 0.026837 -0.009647 1423840.000000 0 0 1
-29.299048 19.219695 -18.575692 39.659642 -0.580570 2.058250 0.040977 -0.013529 267951.000000 0 0 1
-29.596408 19.268495 -17.220092 39.290633 -0.577107 2.024475 0.022426 -0.013581 -1408870.000000 0 0 1
-30.530048 18.068195 -16.930092 39.308670 -0.534381 2.016060 0.013334 -0.011054 -142211.000000 0 0 1
-29.990548 16.738895 -16.748492 38.211720 -0.509071 2.024511 0.036203 -0.016335 441027.000000 0 0 1
-31.020978 15.830895 -16.374492 38.484313 -0.471876 2.010294 0.017641 -0.010056 366526.000000 0 0 1
-30.373868 14.557495 -15.902992 37.247788 -0.446932 2.011915 0.073167 -0.009542 -112159.000000 0 0 1
-29.606998 14.626295 -14.721892 36.155732 -0.458848 1.990161 0.072653 -0.009362 361346.000000 0 0 1
-30.396638 14.857995 -13.553892 36.447546 -0.454651 1.951823 0.033190 -0.002729 565863.000000 0 0 1
-29.481288 15.446195 -12.428192 35.527331 -0.482610 1.928176 0.057895 -0.011590 527771.000000 0 0 1
-29.030188 16.771295 -12.642092 35.830862 -0.523875 1.931387 0.050518 -0.000619 -103116.000000 0 0 1
-29.928708 17.764895 -12.201692 36.880894 -0.535681 1.907990 0.021089 -0.001086 -253905.000000 0 0 1
-29.460888 19.217195 -12.437292 37.308588 -0.577987 1.910664 0.056188 -0.011863 210590.000000 0 0 1
-28.574468 19.745395 -11.443192 36.569489 -0.604671 1.889058 0.026165 -0.020058 239521.000000 0 0 1
-28.107518 21.066395 -11.712892 37.027252 -0.643177 1.892656 0.008880 -0.026565 306838.000000 0 0 1
-27.087778 21.558695 -10.656892 36.222844 -0.672225 1.869418 0.030273 -0.015528 376767.000000 0 0 1
-27.740138 22.420395 -9.719692 36.968389 -0.679739 1.836843 0.020125 -0.009825 448584.000000 0 0 1
-27.105358 23.713995 -9.571392 37.264803 -0.718763 1.830556 0.040885 -0.007339 148106.000000 0 0 1
-27.644998 24.563595 -8.405692 37.924554 -0.726446 1.794295 0.060252 0.004093 -78981.200000 0 0 1
-27.143218 24.191095 -7.181892 37.061340 -0.727954 1.765814 0.050992 0.003026 59705.700000 0 0 1
-27.859888 24.818095 -6.143792 37.813455 -0.727719 1.733996 0.075035 -0.011476 112393.000000 0 0 1
-27.679748 24.111595 -4.809592 37.022556 -0.716612 1.701074 0.075676 -0.011831 18984.600000 0 0 1
-28.167868 22.805695 -4.999992 36.585905 -0.680588 1.707890 0.072201 -0.007627 -56811.000000 0 0 1
-27.885148 21.998795 -3.875792 35.728843 -0.667940 1.679488 0.075894 -0.020186 102694.000000 0 0 1
-27.896338 20.476795 -4.314192 34.872870 -0.633203 1.694826 0.078289 -0.014567 294145.000000 0 0 1
-26.883068 20.090295 -5.250692 33.968943 -0.641785 1.725992 0.050859 -0.020484 278161.000000 0 0 1
-27.018218 20.572795 -6.605992 34.595710 -0.650784 1.762924 0.038044 -0.010033 -777514.000000 0 0 1
-27.963348 19.827795 -7.544092 35.099909 -0.616783 1.787418 0.041031 -0.016257 -8741.760000 0 0 1
-27.544128 18.427295 -7.573892 33.994235 -0.589623 1.795481 0.046438 -0.012972 470239.000000 0 0 1
-28.038318 17.861195 -8.777292 34.383287 -0.567202 1.828931 0.039376 -0.010017 29467.000000 0 0 1
-27.744318 16.370995 -8.966292 33.438766 -0.533084 1.842259 0.069209 -0.011787 247549.000000 0 0 1
-28.510398 15.550895 -8.097292 33.469976 -0.499340 1.815148 0.064054 -0.008177 175509.000000 0 0 1
-28.210988 14.222695 -8.490092 32.714317 -0.466966 1.833324 0.078280 -0.016216 302854.000000 0 0 1
-28.785048 13.093195 -7.559592 32.513969 -0.426889 1.805447 0.085745 -0.021684 -457671.000000 0 0 1
-30.172758 13.152395 -7.422492 33.741283 -0.411069 1.792593 0.092662 -0.003315 -577474.000000 0 0 1
-30.695088 12.115895 -6.591692 33.651653 -0.375944 1.767951 0.099452 -0.012101 76524.400000 0 0 1
-31.278708 10.878595 -7.350792 33.922493 -0.334710 1.789223 0.104200 -0.011635 -109074.000000 0 0 1
-30.304918 10.027595 -7.923292 32.889501 -0.319550 1.814096 0.118337 -0.014174 -43376.500000 0 0 1
-30.875408 8.788395 -8.285392 33.153800 -0.277307 1.823381 0.117355 -0.007061 -97950.600000 0 0 1
-29.902688 7.679095 -8.743992 32.087328 -0.251371 1.846793 0.152885 -0.008031 -362646.000000 0 0 1
-29.295788 7.869795 -9.990792 31.937326 -0.262437 1.888962 0.138183 -0.022453 -223476.000000 0 0 1
-28.378178 6.836795 -10.145192 30.902875 -0.236412 1.905292 0.158970 -0.031663 -827597.000000 0 0 1
-27.624628 6.936195 -11.521492 30.724187 -0.246002 1.955190 0.122708 -0.029922 -16927.700000 0 0 1
-26.754198 8.050195 -11.682492 30.283219 -0.292277 1.966843 0.144893 -0.037724 429259.000000 0 0 1
-25.975168 7.930295 -12.838692 30.040488 -0.296315 2.012389 0.121418 -0.030825 -186896.000000 0 0 1
-32.617798 25.623995 -33.515802 53.327468 -0.665888 2.250407 0.048975 -0.010449 220699.000000 0 0 1
-33.243368 26.915495 -33.712042 54.461612 -0.680598 2.238272 0.046754 -0.013859 204738.000000 0 0 1
-32.711868 27.530995 33.120559 54.083209 -0.699609 0.911703 0.046162 -0.022001 41863.200000 0 0 1
-33.364428 28.909095 32.848945 55.027030 -0.713975 0.931090 0.049286 -0.021721 139086.000000 0 0 1
-33.074198 29.317195 31.492714 54.269619 -0.725254 0.951698 0.067281 -0.019724 205871.000000 0 0 1
-33.642008 30.571595 31.203204 55.136622 -0.737619 0.969241 0.071175 -0.022093 20438.300000 0 0 1
-33.479388 30.947995 29.719204 54.423147 -0.746128 0.993123 0.084678 -0.027241 270991.000000 0 0 1
-32.124658 31.178795 29.361324 53.536887 -0.770458 0.990309 0.088184 -0.022499 365460.000000 0 0 1
-32.012018 31.864195 28.104704 53.197468 -0.783084 1.014189 0.096604 -0.022541 865112.000000 0 0 1
-30.487748 31.876395 27.701754 52.086414 -0.807661 1.010022 0.099553 -0.025519 692403.000000 0 0 1
-30.114318 30.588895 27.225064 50.830668 -0.793216 1.005575 0.126417 -0.028249 592006.000000 0 0 1
-28.961708 30.506295 26.377004 49.650387 -0.811366 1.010715 0.107462 -0.023739 330988.000000 0 0 1
-29.158748 31.041995 24.955874 49.362270 -0.816671 1.040759 0.117351 -0.022346 -288298.000000 0 0 1
-29.051078 32.417495 25.014894 50.205618 -0.840110 1.049218 0.101273 -0.026573 242648.000000 0 0 1
-30.083208 33.059295 24.273204 50.863591 -0.832496 1.073306 0.107236 -0.027427 49439.200000 0 0 1
-30.235718 -33.568276 24.649494 51.464797 0.837582 1.071329 0.102029 -0.019878 -134361.000000 0 0 1
-30.635448 -33.493376 25.957664 52.288978 0.829934 1.051318 0.093744 -0.024663 115596.000000 0 0 1
-30.588618 -32.165576 26.463764 51.678029 0.810522 1.033181 0.065955 -0.019247 -335637.000000 0 0 1
-30.877908 -32.167976 27.900104 52.598856 0.805858 1.011687 0.070292 -0.024518 915758.000000 0 0 1
-32.288998 -32.411776 28.100044 53.690922 0.787296 1.019999 0.061996 -0.029443 1118820.000000 0 0 1
-32.484448 -32.558776 29.512524 54.647071 0.786541 1.000292 0.050722 -0.025593 454750.000000 0 0 1
-33.965408 -32.963076 29.789394 55.925140 0.770423 1.009049 0.059218 -0.027903 481747.000000 0 0 1
-34.320031 -33.243876 31.104044 57.012993 0.769472 0.993738 0.047407 -0.025106 117454.000000 0 0 1
-35.702347 -33.546776 31.202314 58.082942 0.754280 1.003679 0.048262 -0.029037 196659.000000 0 0 1
-36.218198 -33.953376 32.602137 59.392668 0.753134 0.989718 0.057919 -0.019556 -164690.000000 0 0 1
-35.904069 32.784695 32.948374 58.732732 -0.740016 0.975217 0.036008 -0.009966 -67855.900000 0 0 1
-36.745278 32.360295 -33.975332 59.596370 -0.722030 2.177412 0.033509 -0.012102 16971.600000 0 0 1
-36.369648 31.012495 -33.241442 58.219581 -0.706061 2.178479 0.028541 -0.013762 408974.000000 0 0 1
-35.207016 31.132095 -32.437862 57.104783 -0.724050 2.174920 0.027778 -0.016947 -72607.100000 0 0 1
-34.776259 29.815195 -32.020022 55.889318 -0.708742 2.180859 0.028340 -0.015897 286906.000000 0 0 1
-33.735478 29.653195 -30.888552 54.511440 -0.721086 2.173223 0.022116 -0.011660 48282.200000 0 0 1
-34.169801 29.876495 -29.567462 54.170242 -0.718464 2.148170 0.031835 -0.021694 -376035.000000 0 0 1
-34.133172 31.230495 -29.273332 54.748016 -0.741019 2.134940 0.020559 -0.010423 537250.000000 0 0 1
-35.233901 31.496395 -28.197282 55.032149 -0.729447 2.108748 0.019222 -0.005753 676563.000000 0 0 1
-34.838924 30.912095 -26.924742 53.798234 -0.725746 2.094945 0.005874 -0.018348 -391805.000000 0 0 1
-35.963170 30.570495 -26.173552 53.971841 -0.704523 2.077100 0.069128 -0.023389 -408030.000000 0 0 1
-35.688256 30.319695 -24.649092 52.919876 -0.704245 2.055314 0.075912 -0.030078 -180362.000000 0 0 1
-35.584286 31.503595 -23.945292 53.217431 -0.724647 2.037508 0.055097 -0.024814 -234897.000000 0 0 1
-35.439131 31.292195 -22.525992 52.369398 -0.723334 2.015440 0.048174 -0.025842 -700810.000000 0 0 1
-36.661998 31.012595 -21.673492 52.684186 -0.702112 1.994770 0.042353 -0.027562 -328089.000000 0 0 1
36.371012 32.014195 -21.564392 53.035670 0.721774 1.989528 0.053050 -0.031401 210711.000000 0 0 1
36.667322 33.209595 -20.805192 53.667735 0.735955 1.968895 0.054076 -0.034958 -385593.000000 0 0 1
36.946302 33.224095 -19.263592 53.291235 0.732403 1.940649 0.053869 -0.035509 -189375.000000 0 0 1
-35.927922 32.500595 -19.015092 52.044961 -0.735354 1.944815 0.050775 -0.038905 -427992.000000 0 0 1
-35.695203 32.269895 -17.645992 51.253046 -0.735043 1.922280 0.054545 -0.032419 246738.000000 0 0 1
-34.391377 31.459295 -17.384392 49.746067 -0.740901 1.927794 0.054163 -0.032378 135718.000000 0 0 1
-34.185369 31.102295 -16.030792 48.918080 -0.738210 1.904672 0.056270 -0.026860 -693304.000000 0 0 1
-33.121888 30.236895 -15.887492 47.578795 -0.739895 1.911255 0.054022 -0.025645 -1001790.000000 0 0 1
-32.858068 29.911895 -14.420992 46.715513 -0.738497 1.884620 0.062086 -0.025768 -590678.000000 0 0 1
-33.842168 29.128195 -13.820092 46.741192 -0.710677 1.870956 0.043472 -0.017934 -341946.000000 0 0 1
-33.534468 28.934495 -12.481292 46.016825 -0.711895 1.845470 0.049532 -0.013948 50698.900000 0 0 1
-34.391508 27.908895 -11.700092 45.810200 -0.681717 1.829062 0.052476 -0.015810 324994.000000 0 0 1
-33.774808 27.689195 -10.417692 44.899415 -0.686709 1.804953 0.065318 -0.007803 850734.000000 0 0 1
-34.492986 26.613195 -9.773492 44.649181 -0.657153 1.791478 0.073603 -0.017964 467944.000000 0 0 1
-33.751708 26.082595 -8.519392 43.497812 -0.657921 1.767929 0.090636 -0.012859 54658.400000 0 0 1
-33.559018 27.088095 -7.590192 43.790223 -0.679102 1.745007 0.083845 -0.018308 480375.000000 0 0 1
-32.661638 26.612395 -6.593892 42.643658 -0.683695 1.726047 0.076396 -0.023949 -172567.000000 0 0 1
-32.142778 27.615295 -5.535092 42.736401 -0.709779 1.700678 0.084168 -0.028623 235357.000000 0 0 1
-31.161668 26.885695 -4.781592 41.433728 -0.711867 1.686457 0.097124 -0.027256 600050.000000 0 0 1
-31.046458 27.319095 -3.423592 41.496223 -0.721622 1.653394 0.095488 -0.022731 56116.100000 0 0 1
-30.072758 26.380995 -2.630192 40.090468 -0.720097 1.636450 0.092365 -0.028001 176712.000000 0 0 1
-30.652158 25.139395 -2.408592 39.715807 -0.686908 1.631479 0.088411 -0.029819 176634.000000 0 0 1
-29.812798 24.303195 -1.624492 38.497886 -0.683937 1.613006 0.101237 -0.039178 307794.000000 0 0 1
-30.582638 23.039295 -1.111992 38.305919 -0.645639 1.599830 0.108057 -0.042266 20072.800000 0 0 1
-30.919738 22.135795 -2.062092 38.082487 -0.621325 1.624971 0.094809 -0.029511 322440.000000 0 0 1
-31.839538 21.150595 -1.560092 38.256212 -0.586353 1.611588 0.096333 -0.021538 365218.000000 0 0 1
-32.380888 20.318595 -2.747192 38.326418 -0.560386 1.642537 0.117052 -0.017817 357936.000000 0 0 1
-31.317128 19.535695 -3.320792 37.059864 -0.557738 1.660523 0.090237 -0.021439 611205.000000 0 0 1
-31.734628 18.654495 -4.319892 37.063975 -0.531421 1.687614 0.092121 -0.013713 -259761.000000 0 0 1
-30.607378 17.846095 -4.995092 35.780520 -0.527874 1.710857 0.079101 -0.009907 -89397.200000 0 0 1
-30.466528 16.616095 -4.286592 34.966824 -0.499296 1.693696 0.093530 -0.021603 591543.000000 0 0 1
-29.535838 15.672595 -4.850692 33.786464 -0.487850 1.714863 0.085363 -0.017089 155462.000000 0 0 1
-29.252188 14.425795 -3.987392 32.858688 -0.458155 1.692446 0.083078 -0.019471 -368579.000000 0 0 1
-30.412908 13.684095 -3.707792 33.555136 -0.422807 1.681521 0.112650 -0.014189 242926.000000 0 0 1
-30.170808 12.614295 -2.861492 32.826609 -0.396008 1.658077 0.104095 -0.017398 245484.000000 0 0 1
-31.570978 12.076795 -2.458992 33.891330 -0.365355 1.643415 0.117231 -0.022607 200027.000000 0 0 1
-32.300318 11.502795 -3.541092 34.469757 -0.342117 1.673708 0.111789 -0.009177 354266.000000 0 0 1
-33.356298 10.779995 -2.931892 35.177363 -0.312582 1.654239 0.129571 -0.017534 485893.000000 0 0 1
-34.438419 10.117295 -3.887092 36.103654 -0.285740 1.678670 0.105117 -0.010680 564548.000000 0 0 1
-34.047278 8.911795 -4.489392 35.479457 -0.256004 1.697671 0.105279 -0.011301 578765.000000 0 0 1
-35.044964 8.448195 -5.405692 36.451928 -0.236554 1.719642 0.109708 -0.003623 358427.000000 0 0 1
-34.473522 7.543895 -6.533092 35.888931 -0.215436 1.753853 0.114969 -0.009397 -76299.100000 0 0 1
-33.717798 6.438295 -6.071792 34.859836 -0.188675 1.745867 0.114447 -0.007494 506503.000000 0 0 1
-33.179898 5.767795 -7.187292 34.435886 -0.172114 1.781057 0.111715 -0.008620 91697.000000 0 0 1
-32.162028 4.633595 -6.833592 33.204882 -0.143086 1.778078 0.126431 -0.013483 -633927.000000 0 0 1
-30.847018 4.974795 -6.636192 31.942544 -0.159896 1.780075 0.140608 -0.015955 -582687.000000 0 0 1
-30.016188 3.863795 -6.293092 30.911219 -0.128020 1.775816 0.129397 -0.020114 830948.000000 0 0 1
-28.496298 4.228195 -6.182792 29.464276 -0.147302 1.782208 0.168666 -0.017534 585542.000000 0 0 1
-27.880258 4.641695 -7.367792 29.208534 -0.164974 1.825799 0.163473 -0.017863 203295.000000 0 0 1
-26.473108 4.724895 -7.224192 27.844910 -0.176619 1.833243 0.171135 -0.026394 -18220.400000 0 0 1
-25.777428 5.313995 -8.408092 27.629881 -0.203301 1.880012 0.165992 -0.023919 -742005.000000 0 0 1
-25.907528 4.630295 -9.595892 28.012868 -0.176857 1.920429 0.160495 -0.036359 -13640.600000 0 0 1
-24.759838 4.679595 -10.381692 27.253031 -0.186796 1.961606 0.152873 -0.042348 -435662.000000 0 0 1
-25.052838 3.839995 -11.617692 27.881195 -0.152092 2.000593 0.133528 -0.046594 -255168.000000 0 0 1
-25.967838 4.423795 -12.481092 29.149206 -0.168737 2.013274 0.147110 -0.032098 -277907.000000 0 0 1
-26.183538 3.630295 -13.620092 29.736570 -0.137770 2.046568 0.136118 -0.028340 130510.000000 0 0 1
-27.197708 4.237195 -14.624592 31.169662 -0.154550 2.059173 0.110422 -0.026278 -453265.000000 0 0 1
-26.640688 5.346495 -15.317192 31.191788 -0.198058 2.084108 0.092318 -0.027981 239558.000000 0 0 1
-27.499208 6.317695 -15.929092 32.401477 -0.225822 2.084741 0.118545 -0.030555 337970.000000 0 0 1
-28.441968 5.736695 -17.058092 33.657595 -0.199028 2.102280 0.086253 -0.017261 -237935.000000 0 0 1
-29.656418 5.183795 -16.679392 34.417684 -0.173047 2.076722 0.095768 -0.026141 -390139.000000 0 0 1
-30.346768 4.728295 -17.861592 35.529137 -0.154566 2.097551 0.104035 -0.013875 859692.000000 0 0 1
-31.782328 4.134795 -17.663192 36.595099 -0.129371 2.074492 0.110885 -0.019623 531686.000000 0 0 1
-31.887668 2.998195 -16.791292 36.162965 -0.093748 2.053666 0.118443 -0.031969 29673.600000 0 0 1
-31.585398 1.772695 -17.356892 36.083812 -0.056065 2.072610 0.142250 -0.031106 -47222.100000 0 0 1
-31.846198 0.617495 -16.351692 35.804182 -0.019387 2.045076 0.136282 -0.034543 -97139.900000 0 0 1
-31.409888 -0.652705 -16.725092 35.591232 0.020777 2.059998 0.137377 -0.024181 290333.000000 0 0 1
-31.821448 -1.636505 -15.746792 35.542146 0.051382 2.029789 0.148450 -0.033433 49130.000000 0 0 1
-31.758708 -3.094605 -16.266092 35.815888 0.097134 2.042224 0.124316 -0.020624 552348.000000 0 0 1
-32.643698 -3.396205 -17.383292 37.139252 0.103666 2.057887 0.134619 -0.026753 615362.000000 0 0 1
-32.286488 -4.566905 -18.054092 37.272297 0.140517 2.076455 0.117774 -0.026283 -216532.000000 0 0 1
-33.127528 -4.819305 -19.298792 38.640680 0.144464 2.093751 0.130402 -0.020318 -191931.000000 0 0 1
-32.871468 -6.055605 -19.950692 38.926005 0.182178 2.108923 0.118797 -0.014764 495053.000000 0 0 1
-33.855598 -6.300605 -20.974792 40.321719 0.183997 2.117865 0.111177 -0.016706 220646.000000 0 0 1
-33.442698 -7.404105 -21.980692 40.698718 0.217882 2.141332 0.105314 -0.018391 -829485.000000 0 0 1
-32.302878 -7.113305 -22.682192 40.106818 0.216747 2.171890 0.099363 -0.016820 -915053.000000 0 0 1
-31.985228 -8.032405 -23.659892 40.587742 0.246041 2.193129 0.082540 -0.010396 -182244.000000 0 0 1
-30.673498 -7.687605 -24.392892 39.937150 0.245569 2.227844 0.077281 -0.001466 -404883.000000 0 0 1
-30.603638 -6.487605 -25.216132 40.181152 0.208895 2.249213 0.081269 -0.004825 -140761.000000 0 0 1
-30.676918 -6.683205 -26.638632 41.174692 0.214506 2.274395 0.069162 -0.007446 951725.000000 0 0 1
-32.114988 -6.978305 -27.241292 42.686733 0.213965 2.262912 0.079254 -0.006040 968583.000000 0 0 1
-32.685868 -8.144705 -26.736032 43.006018 0.244208 2.241684 0.057908 -0.002266 41039.400000 0 0 1
-34.067058 -8.323205 -27.050102 44.289369 0.239624 2.227814 0.052287 -0.008061 788013.000000 0 0 1
-34.754770 -9.511405 -26.377272 44.655586 0.267131 2.202701 0.035719 -0.011168 -425479.000000 0 0 1
-34.361804 -10.817505 -26.846852 44.927780 0.304990 2.211246 0.041898 0.001880 -286859.000000 0 0 1
-35.309141 -11.833005 -26.671242 45.805137 0.323363 2.192322 0.038612 -0.002971 -108163.000000 0 0 1
-36.436138 -11.810205 -27.755172 47.301402 0.313449 2.197864 0.024435 -0.000297 377827.000000 0 0 1
36.615722 -10.815805 -27.427932 47.010469 -0.287219 2.193758 0.024341 -0.012099 235468.000000 0 0 1
35.680032 -10.709005 -28.485092 46.895074 -0.291585 2.223607 0.025435 -0.018265 -55610.100000 0 0 1
34.543082 -9.741505 -28.151222 45.613734 -0.274872 2.235931 0.033031 -0.016720 -511184.000000 0 0 1
33.533192 -10.075805 -27.262682 44.376240 -0.291890 2.232362 0.030433 -0.013358 -100524.000000 0 0 1
32.646772 -8.967305 -27.075752 43.351132 -0.268066 2.245375 0.021722 -0.012239 542758.000000 0 0 1
31.434662 -9.224205 -26.140482 41.911201 -0.285428 2.244278 0.030828 -0.007757 202013.000000 0 0 1
31.818532 -9.517805 -24.795692 41.446761 -0.290656 2.212117 0.015729 0.003478 -212165.000000 0 0 1
30.739232 -10.037105 -24.073792 40.313662 -0.315610 2.210755 0.006198 0.009981 -300536.000000 0 0 1
30.982892 -10.121005 -22.550192 39.634398 -0.315736 2.176031 0.000075 0.009178 -288657.000000 0 0 1
31.784542 -11.200605 -22.224192 40.368619 -0.338804 2.153797 -0.010160 0.006484 -188833.000000 0 0 1
32.196362 -11.001205 -20.910792 39.936118 -0.329253 2.121874 0.007821 0.000794 -519887.000000 0 0 1
33.060822 -12.070305 -20.271292 40.615705 -0.350058 2.093356 0.025284 -0.008654 28893.300000 0 0 1
34.399252 -11.995305 -20.762292 41.931715 -0.335524 2.088798 0.031063 -0.009488 429097.000000 0 0 1
35.186532 -12.905105 -19.974392 42.468931 -0.351529 2.060460 0.050040 -0.011915 398787.000000 0 0 1
36.666442 -13.078505 -20.449692 43.973460 -0.342621 2.054483 0.052827 -0.023726 -114863.000000 0 0 1
-36.608688 -11.853005 -20.284792 43.498995 0.313124 2.055931 0.071696 -0.022046 540228.000000 0 0 1
-36.743428 -10.808205 -21.246092 43.798324 0.286084 2.077261 0.080719 -0.019350 -776659.000000 0 0 1
-36.144568 -11.166605 -22.652792 44.093898 0.299641 2.110335 0.058307 -0.016019 -25009.600000 0 0 1
-36.775448 -12.149605 -23.438792 45.270558 0.319084 2.115014 0.053644 -0.011578 611819.000000 0 0 1
35.932582 -11.867705 -23.877692 44.745246 -0.318997 2.133691 0.057078 -0.011070 525001.000000 0 0 1
35.335422 -12.996405 -24.768192 45.066195 -0.352444 2.152677 0.044576 -0.019314 -239149.000000 0 0 1
35.328042 -14.341505 -24.268292 45.196232 -0.385627 2.137618 0.047617 -0.029371 574435.000000 0 0 1
34.534762 -14.644205 -23.107792 44.057606 -0.401059 2.122913 0.027708 -0.029958 13484.800000 0 0 1
-30.091998 8.893695 -18.790092 36.574495 -0.287369 2.110345 0.064128 0.006740 1020390.000000 0 0 1
-28.980268 7.992895 -19.018092 35.572885 -0.269114 2.134858 0.070612 -0.001368 769651.000000 0 0 1
-28.343478 8.080795 -20.297292 35.785920 -0.277734 2.173882 0.071376 -0.019743 -169336.000000 0 0 1
-27.235978 7.043195 -20.422892 34.763481 -0.253055 2.198739 0.077647 -0.026159 -203617.000000 0 0 1
-26.141118 7.366395 -19.570292 33.475635 -0.274671 2.195199 0.087759 -0.029209 -528726.000000 0 0 1
-25.182948 6.375595 -19.634292 32.562778 -0.247961 2.218012 0.104129 -0.037081 -784140.000000 0 0 1
-23.812438 6.892195 -19.190892 31.350038 -0.281738 2.229572 0.089048 -0.033288 -320975.000000 0 0 1
-23.291738 7.924195 -19.978992 31.693186 -0.327931 2.252849 0.094144 -0.034181 -767410.000000 0 0 1
-22.047638 8.334795 -19.515392 30.600943 -0.361429 2.262355 0.079000 -0.030617 -449767.000000 0 0 1
-21.417138 9.446995 -20.392492 31.045020 -0.415424 2.287454 0.077772 -0.023196 106138.000000 0 0 1
-20.658638 8.971495 -21.530992 31.158477 -0.409699 2.333689 0.116712 -0.030845 425741.000000 0 0 1
-20.137738 10.007195 -22.349592 31.704522 -0.461195 2.353126 0.097229 -0.027197 111502.000000 0 0 1
-19.110538 9.496095 -23.385292 31.658496 -0.461167 2.401897 0.121328 -0.016599 97120.500000 0 0 1
-19.701338 8.706495 -24.446192 32.581622 -0.416118 2.419321 0.123837 -0.013339 109699.000000 0 0 1
-18.733138 7.984295 -25.157692 32.366478 -0.402897 2.461121 0.101247 -0.007895 -277212.000000 0 0 1
-19.345438 6.892795 -26.099422 33.210487 -0.342277 2.474913 0.077670 -0.003642 -29357.400000 0 0 1
-19.846638 5.763295 -25.433402 32.771368 -0.282619 2.459232 0.103123 -0.004292 224364.000000 0 0 1
-20.326938 4.803095 -26.391942 33.656927 -0.232036 2.472115 0.098679 -0.008746 -344367.000000 0 0 1
-20.738438 3.486095 -25.692282 33.201341 -0.166541 2.455666 0.096444 -0.001190 910767.000000 0 0 1
-19.693738 2.583095 -25.196882 32.084242 -0.130419 2.474034 0.088202 0.001754 1673920.000000 0 0 1
-18.677838 3.134095 -24.302792 30.810873 -0.166249 2.479607 0.093143 -0.005184 154245.000000 0 0 1
-17.865238 1.990095 -23.706792 29.751289 -0.110937 2.492831 0.086788 -0.009395 -359161.000000 0 0 1
-18.456338 1.203195 -22.666692 29.255137 -0.065099 2.457185 0.101781 -0.010173 212296.000000 0 0 1
-19.559738 0.400795 -23.037592 30.223743 -0.020488 2.437555 0.088466 -0.010509 -3799.010000 0 0 1
-20.030638 -0.391605 -21.805692 29.611957 0.019548 2.398502 0.110554 -0.020820 -67110.400000 0 0 1
-19.076638 -1.393505 -21.515292 28.788327 0.072918 2.414879 0.127321 -0.028954 450050.000000 0 0 1
-19.444838 -2.040205 -20.345992 28.217433 0.104540 2.376103 0.122793 -0.030158 -76936.000000 0 0 1
-18.603538 -3.317205 -20.114092 27.598409 0.176456 2.387384 0.116386 -0.040957 28384.100000 0 0 1
-18.813638 -4.247705 -21.145192 28.620187 0.222055 2.402115 0.117710 -0.042894 342649.000000 0 0 1
-19.084138 -5.583305 -20.701592 28.704242 0.284620 2.376334 0.121667 -0.034640 -195480.000000 0 0 1
-19.131638 -6.606205 -21.847392 29.782042 0.332484 2.394365 0.090193 -0.042155 -274252.000000 0 0 1
-17.855338 -6.629705 -22.419992 29.418058 0.355524 2.437372 0.097403 -0.040051 -152651.000000 0 0 1
-17.947538 -7.486705 -23.530592 30.526278 0.395198 2.450940 0.109231 -0.041743 226681.000000 0 0 1
-16.619538 -7.710605 -24.294792 30.428595 0.434393 2.495462 0.101240 -0.040268 -724999.000000 0 0 1
-16.732838 -8.295205 -25.620932 31.705369 0.460237 2.511706 0.094167 -0.053092 -119366.000000 0 0 1
-15.509638 -8.452905 -26.292032 31.674460 0.499004 2.550030 0.086635 -0.049132 325511.000000 0 0 1
-14.370838 -9.327605 -25.665072 30.858080 0.575717 2.552983 0.080388 -0.043081 -238997.000000 0 0 1
-13.719738 -8.832105 -24.502892 29.438563 0.571970 2.554112 0.076375 -0.040435 423509.000000 0 0 1
-12.772638 -9.846205 -24.094792 28.993914 0.656733 2.551752 0.061530 -0.034153 467522.000000 0 0 1
-11.731938 -9.259305 -23.103792 27.516510 0.668145 2.567405 0.070517 -0.034334 182092.000000 0 0 1
-12.363838 -8.887905 -21.908792 26.680602 0.623274 2.534221 0.070203 -0.035836 153032.000000 0 0 1
-11.430238 -8.153205 -21.178792 25.409965 0.619597 2.556179 0.064243 -0.033341 -531146.000000 0 0 1
-11.976738 -7.869405 -19.717192 24.374935 0.581321 2.513097 0.063763 -0.027711 292688.000000 0 1 0
-12.935738 -6.830005 -19.672592 24.515162 0.485792 2.502213 0.071177 -0.019911 2118190.000000 0 1 0
-14.302538 -7.227805 -20.081092 25.691516 0.467919 2.468061 0.100654 -0.031656 1603140.000000 0 0 1
-15.413338 -6.186805 -19.836892 25.871796 0.381707 2.444541 0.109923 -0.023356 -54451.000000 0 0 1
-15.747038 -5.916405 -18.478492 24.988552 0.359398 2.403091 0.103370 -0.021265 201315.000000 0 1 0
-15.103638 -4.764705 -18.031192 23.998879 0.305586 2.420879 0.109787 -0.022447 -487458.000000 0 1 0
-15.166038 -4.454105 -16.489492 22.841872 0.285657 2.377337 0.107516 -0.011980 195088.000000 0 1 0
-16.433338 -4.053305 -15.984192 23.280427 0.241824 2.327590 0.129189 -0.018184 466981.000000 0 1 0
-16.495538 -2.635505 -15.817892 23.005529 0.158432 2.328932 0.068746 -0.026197 195417.000000 0 1 0
-17.799138 -2.263105 -15.058092 23.423857 0.126468 2.269013 0.067380 -0.025749 128742.000000 0 1 0
-17.939638 -2.647705 -13.705492 22.730628 0.146532 2.217993 0.099710 -0.025094 871863.000000 0 1 0
-18.931338 -2.014605 -12.889792 22.991323 0.106017 2.165952 0.107612 -0.034346 230212.000000 0 1 0
-18.260838 -0.865605 -12.130192 21.939668 0.047367 2.156623 0.082290 -0.029035 -53383.600000 0 1 0
-18.003538 0.241295 -12.951492 22.179422 -0.013402 2.194372 0.105659 -0.035720 303703.000000 0 1 0
-17.288638 1.268495 -12.368492 21.295203 -0.073240 2.190521 0.104174 -0.024518 -1058430.000000 0 1 0
-16.752038 2.262495 -13.429292 21.589246 -0.134246 2.242137 0.111651 -0.022983 119167.000000 0 1 0
-15.880138 1.741595 -14.403392 21.509757 -0.109235 2.304495 0.104558 -0.030665 567185.000000 0 1 0
-14.580138 1.305895 -14.011092 20.263181 -0.089328 2.334299 0.089474 -0.023853 159634.000000 0 1 0
-13.972238 0.338995 -15.112892 20.584894 -0.024257 2.395246 0.082956 -0.025313 228333.000000 0 1 0
-13.559238 0.924495 -16.319192 21.237318 -0.068077 2.447166 0.093064 -0.030125 455940.000000 0 1 0
-12.803538 0.033995 -17.147092 21.399872 -0.002655 2.500213 0.064680 -0.028258 112729.000000 0 1 0
-12.366938 0.598695 -18.488892 22.251713 -0.048373 2.551515 0.086833 -0.030515 197473.000000 0 1 0
-11.185738 1.379395 -18.297092 21.489696 -0.122698 2.589513 0.066660 -0.023090 28973.800000 0 1 0
-10.739638 2.078195 -19.427892 22.295778 -0.191145 2.628786 0.070676 -0.019688 214252.000000 0 1 0
-9.294038 2.602995 -19.246392 21.530869 -0.273075 2.676762 0.046144 -0.016758 -946479.000000 0 1 0
-8.359438 1.626195 -19.647592 21.413841 -0.192134 2.732591 0.045591 -0.011852 400422.000000 0 1 0
-7.002238 2.021995 -19.347192 20.674469 -0.281117 2.781321 0.038010 -0.009119 1148860.000000 0 1 0
-6.459338 3.185895 -20.204992 21.450284 -0.458212 2.799174 0.039555 -0.011515 -1301170.000000 0 1 0
-6.246738 2.777295 -21.520892 22.580609 -0.418354 2.834015 0.039500 -0.016929 170368.000000 0 1 0
-6.030938 3.857595 -22.399592 23.515845 -0.569054 2.832243 0.042477 -0.011976 -341836.000000 0 1 0
-5.492838 3.467595 -23.795492 24.666190 -0.563113 2.875101 0.056394 -0.023000 318290.000000 0 1 0
-4.102238 3.158895 -23.798492 24.355189 -0.656205 2.927373 0.057067 -0.024006 138718.000000 0 1 0
-3.741738 2.330195 -24.844492 25.232503 -0.556985 2.965997 0.072015 -0.028333 85370.700000 0 0 1
-2.317438 1.730395 -24.761392 24.929728 -0.641376 3.025317 0.061718 -0.022044 -284200.000000 0 1 0
-1.303238 2.722995 -24.645892 24.830085 -1.124411 3.019713 0.057535 -0.019153 -273790.000000 0 1 0
0.003162 2.258895 -24.763292 24.866107 1.569396 3.050625 0.052021 -0.013444 -296376.000000 0 1 0
0.575262 1.397195 -23.607092 23.655399 1.180222 3.077674 0.047530 -0.016132 -957297.000000 0 1 0
0.342862 -0.013705 -23.635392 23.637883 -0.039950 3.127076 0.042187 -0.020131 216565.000000 0 1 0
1.216462 -0.652405 -22.720992 22.762884 -0.492274 3.080914 0.037173 -0.017634 -219875.000000 0 1 0
0.868262 -2.198805 -22.582092 22.705495 -1.194712 3.037287 0.040913 -0.027525 655237.000000 0 1 0
-0.361938 -2.466905 -21.887692 22.029246 1.425118 3.028168 0.042479 -0.030902 247773.000000 0 1 0
-1.494038 -2.659405 -22.686592 22.890742 1.058943 3.007939 0.045042 -0.030527 -405126.000000 0 1 0
-2.446338 -1.492005 -22.805592 22.984901 0.547662 3.016602 0.047051 -0.030971 -1757900.000000 0 1 0
-2.966238 -1.088205 -21.565192 21.795419 0.351618 2.996116 0.038597 -0.029841 555334.000000 0 1 0
-3.923838 -0.010505 -21.623492 21.976625 0.002677 2.962084 0.035114 -0.023914 797481.000000 0 1 0
-5.197438 -0.140305 -22.496892 23.089894 0.026988 2.914467 0.026135 -0.011982 -645338.000000 0 1 0
-6.041338 -1.139405 -21.953892 22.798451 0.186412 2.868552 0.021446 -0.007725 549898.000000 0 1 0
-7.427038 -0.746205 -22.012392 23.243561 0.100135 2.814660 0.035111 -0.015983 720581.000000 0 1 0
-8.350338 -1.862205 -21.566792 23.201777 0.219419 2.763938 0.029729 -0.011692 -416197.000000 0 1 0
-8.692938 -2.834005 -22.496592 24.283645 0.315147 2.755558 0.057298 -0.017112 -126304.000000 0 1 0
-8.919738 -4.071005 -21.899692 23.994402 0.428167 2.720640 0.039318 -0.027358 -650156.000000 0 1 0
-9.782038 -4.982605 -22.759592 25.268828 0.471110 2.692171 0.048260 -0.032096 -398456.000000 0 0 1
-11.130738 -4.603305 -22.614992 25.622678 0.392147 2.652195 0.061804 -0.035842 -472761.000000 0 0 1
-11.893338 -5.186705 -23.659592 26.983878 0.411236 2.639973 0.054114 -0.037669 395787.000000 0 0 1
-13.422538 -5.284005 -23.397992 27.487293 0.375035 2.589120 0.107355 -0.036662 295383.000000 0 0 1
-14.146338 -4.095705 -23.482292 27.718436 0.281818 2.581437 0.088186 -0.033164 -391284.000000 0 0 1
-15.467538 -4.277505 -23.914392 28.799999 0.269804 2.550551 0.095591 -0.038318 508566.000000 0 0 1
-16.351138 -2.962305 -23.897892 29.107460 0.179224 2.533997 0.096374 -0.032221 204964.000000 0 0 1
-15.964038 -2.385405 -25.124232 29.862480 0.148326 2.570537 0.087319 -0.026829 241350.000000 0 0 1
-16.585238 -1.142105 -25.408262 30.363700 0.068754 2.562204 0.078295 -0.020517 -149356.000000 0 0 1
-17.992638 -1.369405 -26.006612 31.653660 0.075963 2.535006 0.088779 -0.023546 -454087.000000 0 0 1
-18.272838 -1.968505 -27.286092 32.898365 0.107315 2.548839 0.082483 -0.034220 -149082.000000 0 0 1
-17.965038 -1.085205 -28.334772 33.567537 0.060333 2.575704 0.082395 -0.033804 -207019.000000 0 0 1
-18.135438 -1.670505 -29.751112 34.882852 0.091854 2.592286 0.082800 -0.035372 460438.000000 0 0 1
-19.464538 -2.037705 -30.110122 35.911557 0.104308 2.565233 0.074000 -0.039345 475780.000000 0 0 1
-19.518938 -2.653105 -31.419782 37.084102 0.135097 2.581597 0.078471 -0.048916 -903291.000000 0 0 1
-20.835338 -3.347005 -31.753692 38.126247 0.159280 2.555045 0.048314 -0.039239 -164989.000000 0 0 1
-21.957338 -2.536705 -32.017692 38.906197 0.115019 2.537373 0.043179 -0.033431 367378.000000 0 0 1
-22.668438 -1.926705 -30.949952 38.411845 0.084791 2.507720 0.041772 -0.021992 15806.400000 0 0 1
-23.906938 -1.146605 -31.506962 39.566969 0.047924 2.491941 0.046539 -0.021868 -103009.000000 0 0 1
-23.562838 0.034295 -32.230772 39.925320 -0.001455 2.510319 0.047802 -0.024403 72927.600000 0 0 1
-24.618438 0.920495 -32.489352 40.773433 -0.037373 2.492821 0.046729 -0.029617 -503210.000000 0 0 1
-24.112938 2.203995 -33.203372 41.094468 -0.091150 2.511506 0.054622 -0.031239 -123779.000000 0 0 1
-23.396138 3.190595 -32.440032 40.123744 -0.135537 2.512394 0.045875 -0.027592 468450.000000 0 0 1
-24.121638 4.058895 -31.603432 39.963796 -0.166706 2.482914 0.042036 -0.019091 -170043.000000 0 0 1
-25.203038 5.014695 -32.222742 41.214626 -0.196407 2.468388 0.040912 -0.026382 -41558.900000 0 0 1
-26.354908 4.331895 -32.615582 42.155933 -0.162911 2.455440 0.061387 -0.035838 -149490.000000 0 0 1
-27.084968 4.928895 -33.682082 43.501404 -0.180009 2.456366 0.074163 -0.041636 -188198.000000 0 0 1
-28.431908 4.309295 33.946348 44.489302 -0.150421 0.702820 0.085637 -0.037172 -205768.000000 0 0 1
-28.210338 2.967795 33.450007 43.858112 -0.104817 0.703339 0.091402 -0.037269 573037.000000 0 0 1
-29.442298 2.538495 32.900461 44.223672 -0.086007 0.731825 0.097023 -0.032229 118513.000000 0 0 1
-29.742568 1.059295 32.730713 44.238468 -0.035600 0.737919 0.088463 -0.016124 -133241.000000 0 0 1
-29.808318 0.433595 -33.947472 45.179140 -0.014545 2.420973 0.083454 -0.011313 71299.200000 0 0 1
-30.176158 -0.905405 33.851928 45.358277 0.029995 0.728276 0.065326 -0.005049 -935783.000000 0 0 1
-29.924448 -1.784305 -32.883082 44.496667 0.059556 2.402383 0.041128 -0.010535 1469590.000000 0 0 1
-28.532528 -2.092605 -32.540172 43.328362 0.073210 2.420392 0.063219 -0.018804 1797760.000000 0 0 1
-27.713248 -0.982905 -32.256992 42.538262 0.035452 2.431506 0.067281 -0.016682 -1264870.000000 0 0 1
-27.676808 -0.506905 -30.793572 41.406603 0.018313 2.409366 0.092069 -0.016673 -387735.000000 0 0 1
-27.045178 -1.467405 -29.913042 40.353253 0.054204 2.405771 0.084367 -0.022765 603010.000000 0 0 1
-27.369628 -1.194005 -28.553742 39.570676 0.043598 2.376890 0.099878 -0.026697 60952.400000 0 0 1
-26.247798 -1.481105 -27.477692 38.028465 0.056368 2.378289 0.098992 -0.028655 364866.000000 0 0 1
-26.010208 -2.885105 -27.359222 37.860029 0.110470 2.378412 0.087910 -0.021732 56374.500000 0 0 1
-25.106268 -3.102405 -26.295672 36.488518 0.122948 2.375544 0.090385 -0.023006 -137003.000000 0 0 1
-25.160318 -4.383905 -25.511532 36.098456 0.172507 2.355649 0.081035 -0.022890 466155.000000 0 0 1
-26.315738 -4.374305 -24.668492 36.334379 0.164718 2.317100 0.100533 -0.016482 355068.000000 0 0 1
-26.661838 -5.597305 -24.037392 36.331524 0.206932 2.293764 0.090515 -0.017394 -226659.000000 0 0 1
-27.776708 -5.412305 -23.027392 36.484234 0.192439 2.253844 0.101535 -0.019140 -419564.000000 0 0 1
-28.024108 -6.510605 -22.245892 36.367820 0.228272 2.228994 0.095385 -0.021844 358158.000000 0 0 1
-29.099638 -6.143605 -21.361992 36.617858 0.208068 2.193676 0.106299 -0.020149 416103.000000 0 0 1
-29.460178 -7.305405 -20.405092 36.573745 0.243072 2.162669 0.104833 -0.023688 -543578.000000 0 0 1
-28.479028 -7.634205 -19.488992 35.343414 0.261907 2.154859 0.102490 -0.024292 -389497.000000 0 0 1
-28.923148 -8.603105 -18.549692 35.421081 0.289113 2.121974 0.116271 -0.017407 313716.000000 0 0 1
-29.734508 -8.054805 -17.293392 35.328208 0.264542 2.082320 0.112311 -0.032028 474578.000000 0 0 1
-28.970638 -7.205505 -16.430592 34.076114 0.243771 2.073930 0.112342 -0.037010 390188.000000 0 0 1
-29.753438 -6.465405 -15.507792 34.169579 0.213973 2.041875 0.111832 -0.033816 121201.000000 0 0 1
-28.842548 -5.735505 -14.475892 32.777127 0.196295 2.028229 0.120711 -0.034445 493835.000000 0 0 1
-28.149808 -4.629605 -15.102892 32.279131 0.163004 2.057691 0.119670 -0.028309 148041.000000 0 0 1
-27.088038 -4.185405 -14.318692 30.924171 0.153299 2.052202 0.121836 -0.035981 -475932.000000 0 0 1
-14.367638 20.809695 -4.616292 25.705692 -0.966522 1.751358 0.075844 -0.016664 48588.000000 0 0 1
-14.590238 20.426795 -5.944792 25.796697 -0.950558 1.803334 0.106215 -0.020451 342249.000000 0 0 1
-15.406938 19.252495 -6.064692 25.393165 -0.895899 1.811959 0.099637 -0.032750 140572.000000 0 0 1
-15.447738 18.701195 -7.534792 25.399614 -0.880384 1.871979 0.113466 -0.027188 -309765.000000 0 0 1
-14.248938 18.112195 -7.988692 24.390635 -0.904215 1.904486 0.107352 -0.025291 -263838.000000 0 1 0
-14.330838 17.358695 -9.216892 24.323822 -0.880657 1.959430 0.090917 -0.022527 -273359.000000 0 1 0
-14.950738 15.935595 -9.059592 23.654682 -0.817274 1.963831 0.086796 -0.028733 703804.000000 0 1 0
-16.348138 15.891195 -8.744992 24.418571 -0.771226 1.937059 0.089263 -0.023564 604103.000000 0 1 0
-16.538238 15.051695 -7.664292 23.639125 -0.738375 1.900984 0.089741 -0.012345 -273069.000000 0 1 0
-17.936038 15.218695 -7.064992 24.560624 -0.703622 1.862574 0.108061 -0.011515 219310.000000 0 1 0
-18.988038 14.685195 -7.871992 25.262003 -0.658305 1.887687 0.092534 -0.017935 12279.700000 0 0 1
-20.279738 15.117795 -7.545092 26.395907 -0.640591 1.860683 0.095955 -0.018738 334310.000000 0 0 1
-21.363438 14.467495 -8.478892 27.158728 -0.595265 1.888302 0.087723 -0.010763 305016.000000 0 0 1
-21.617738 13.126195 -8.108892 26.558948 -0.545694 1.881067 0.116818 -0.017290 159799.000000 0 0 1
-22.533938 12.517695 -9.003492 27.304467 -0.507059 1.906829 0.121222 -0.015150 421101.000000 0 0 1
-23.026038 11.096295 -8.587792 26.964354 -0.449065 1.894929 0.136557 -0.021483 -17433.400000 0 0 1
-21.967538 10.176895 -8.638992 25.705527 -0.433834 1.913543 0.136116 -0.022907 -159103.000000 0 0 1
-22.082038 9.183395 -7.553692 25.080060 -0.394117 1.876730 0.150293 -0.024072 563415.000000 0 0 1
-20.809738 8.322795 -7.181192 23.534732 -0.380461 1.880873 0.103325 -0.010303 358744.000000 0 1 0
-20.582138 7.266195 -8.129692 23.291928 -0.339375 1.927337 0.097668 -0.013326 281420.000000 0 1 0
-19.502838 6.441995 -7.741292 21.949660 -0.319028 1.931234 0.058284 -0.005297 -203108.000000 0 1 0
-19.271438 5.176695 -8.632592 21.741852 -0.262425 1.979096 0.046039 -0.018131 -205607.000000 0 1 0
-20.278538 4.143195 -8.584592 22.407150 -0.201540 1.963966 0.072374 -0.018676 898749.000000 0 1 0
-20.304438 3.343295 -9.683992 22.742637 -0.163194 2.010651 0.081369 -0.013968 -147023.000000 0 1 0
-21.334538 2.216695 -9.488892 23.454537 -0.103530 1.987300 0.088779 -0.019135 105002.000000 0 1 0
-20.872638 1.235395 -8.488692 22.566593 -0.059118 1.956447 0.085015 -0.023116 623884.000000 0 1 0
-21.822438 0.258195 -8.083592 23.272944 -0.011831 1.925528 0.094537 -0.024259 -75565.200000 0 1 0
-21.830938 -1.022105 -8.977492 23.626890 0.046785 1.960559 0.088918 -0.035579 -809224.000000 0 1 0
-20.629138 -1.718805 -8.956892 22.555299 0.083127 1.979160 0.074179 -0.024201 -262438.000000 0 1 0
-20.649838 -3.087005 -9.397392 22.896646 0.148394 1.993718 0.067923 -0.019287 -120994.000000 0 1 0
-21.622638 -4.101805 -8.757792 23.686751 0.187472 1.949519 0.075022 -0.022017 -95526.600000 0 1 0
-21.239338 -4.265405 -7.439692 22.905287 0.198189 1.901599 0.057830 -0.017128 1049420.000000 0 1 0
-22.196338 -4.996605 -6.604192 23.690902 0.221419 1.853304 0.073003 -0.015442 276111.000000 0 1 0
-22.460838 -6.473805 -6.800692 24.344379 0.280621 1.853917 0.092149 -0.027215 433929.000000 0 1 0
-21.380338 -7.312505 -6.333192 23.467017 0.329548 1.844061 0.075160 -0.024345 1115600.000000 0 1 0
-21.636138 -8.719005 -6.535692 24.225168 0.383076 1.843971 0.092311 -0.025483 -552776.000000 0 1 0
-20.634738 -9.684805 -5.937292 23.555027 0.438824 1.825605 0.090718 -0.017556 7558.630000 0 1 0
-19.351438 -9.764105 -6.556392 22.645136 0.467295 1.864530 0.079817 -0.014355 577686.000000 0 1 0
-18.592438 -10.617305 -5.710792 22.158950 0.518864 1.831458 0.082007 -0.009368 404543.000000 0 1 0
-17.453838 -11.504505 -6.309092 21.835630 0.582773 1.863911 0.042907 -0.010945 326072.000000 0 1 0
-16.381538 -10.932405 -7.021292 20.908630 0.588483 1.913260 0.050400 -0.024434 494999.000000 0 1 0
-16.721538 -10.498105 -8.333992 21.430713 0.560624 1.970213 0.056429 -0.027596 -16099.300000 0 1 0
-15.644238 -10.855805 -9.410992 21.240467 0.606632 2.029815 0.053909 -0.021197 473592.000000 0 1 0
-15.650338 -12.193705 -9.793792 22.125503 0.661887 2.029345 0.051575 -0.023936 350249.000000 0 1 0
-14.656938 -12.418405 -10.794292 22.035411 0.702908 2.082727 0.055126 -0.010691 279711.000000 0 1 0
-14.726338 -13.834705 -11.436492 23.217610 0.754190 2.085846 0.063530 -0.014120 229171.000000 0 1 0
-15.857138 -13.942405 -12.310792 24.441667 0.721233 2.098650 0.080590 -0.014944 429927.000000 0 1 0
-15.789738 -15.111605 -13.137392 25.500343 0.763457 2.112020 0.068296 -0.009048 162539.000000 0 0 1
-16.564738 -14.979005 -14.493492 26.623719 0.735170 2.146449 0.087590 -0.011649 151340.000000 0 0 1
-16.721438 -16.219205 -15.164992 27.796512 0.770153 2.147868 0.086029 -0.004421 555702.000000 0 0 1
-17.501438 -15.949505 -16.363992 28.783107 0.739037 2.175511 0.095181 -0.008132 319466.000000 0 0 1
-17.799738 -17.219205 -17.296992 30.207906 0.768822 2.180468 0.087116 -0.022314 -418088.000000 0 0 1
-18.985738 -17.856705 -16.921692 31.075132 0.754763 2.146638 0.067321 -0.013722 -132970.000000 0 0 1
-19.831738 -18.137305 -18.101392 32.402470 0.740801 2.163544 0.072530 -0.014641 -113434.000000 0 0 1
-21.244338 -18.233905 -17.566692 33.051261 0.709290 2.131165 0.072404 -0.017677 -1023580.000000 0 0 1
-21.767638 -16.958905 -17.150192 32.489438 0.661859 2.126887 0.072822 -0.000381 224070.000000 0 0 1
-21.777438 -16.722805 -15.770792 31.664284 0.654856 2.092159 0.074512 -0.002993 -254747.000000 0 0 1
-21.778438 -15.231205 -15.434192 30.732788 0.610304 2.096944 0.084401 -0.008438 -86754.500000 0 0 1
-23.007438 -14.552305 -15.509992 31.331639 0.563978 2.088662 0.098041 -0.002745 119095.000000 0 0 1
-22.843538 -13.280205 -14.960292 30.364476 0.526597 2.085975 0.112902 -0.002879 469169.000000 0 0 1
-24.192338 -12.578205 -14.565792 30.913472 0.479460 2.061424 0.127307 -0.018542 418575.000000 0 0 1
-24.814538 -13.199505 -13.456992 31.162138 0.488861 2.017326 0.140295 -0.016577 223216.000000 0 0 1
-25.738698 -12.296005 -12.867792 31.293008 0.445669 1.994570 0.168539 -0.026193 -490304.000000 0 0 1
-26.517998 -12.982305 -11.764292 31.782747 0.455265 1.949964 0.183882 -0.034531 -436355.000000 0 0 1
-27.297758 -11.997505 -11.111792 31.821056 0.414092 1.927510 0.158887 -0.042699 365165.000000 0 0 1
-27.921128 -12.448305 -9.888192 32.129831 0.419388 1.883631 0.146520 -0.036340 384537.000000 0 0 1
-28.746038 -11.332505 -9.184492 32.235311 0.375521 1.859720 0.153283 -0.042940 -462188.000000 0 0 1
-27.871308 -10.462505 -8.586692 30.983949 0.359109 1.851606 0.158480 -0.048451 -274433.000000 0 0 1
-28.507078 -9.375005 -7.914492 31.035196 0.317724 1.828661 0.191959 -0.045708 -31675.400000 0 0 1
-27.501578 -8.439905 -7.226192 29.661197 0.297764 1.816897 0.148676 -0.037688 -153504.000000 0 0 1
-27.097678 -8.874205 -5.954192 29.128818 0.316482 1.776656 0.143168 -0.043226 592921.000000 0 0 1
-26.342268 -7.836505 -5.206392 27.971993 0.289150 1.758017 0.132231 -0.035222 318457.000000 0 0 1
-27.064838 -6.516005 -4.826992 28.253559 0.236259 1.742484 0.136120 -0.034921 -268874.000000 0 0 1
-28.067528 -6.668405 -3.820592 29.100699 0.233260 1.702465 0.142294 -0.038023 273027.000000 0 0 1
-27.751818 -6.889805 -2.416892 28.696240 0.243345 1.655120 0.153743 -0.033988 -589618.000000 0 0 1
-27.042328 -5.739205 -1.608592 27.691398 0.209127 1.628919 0.153420 -0.022572 -349759.000000 0 0 1
-27.929208 -4.715105 -1.271392 28.352942 0.167246 1.615653 0.162406 -0.027384 8276.360000 0 0 1
-27.443688 -3.615005 -0.485692 27.685017 0.130970 1.588341 0.145693 -0.032941 -751853.000000 0 0 1
-28.575788 -2.689805 -0.042692 28.702134 0.093852 1.572284 0.146300 -0.034006 -386382.000000 0 0 1
-29.528788 -3.154005 0.865808 29.709370 0.106408 1.541650 0.139918 -0.024392 -349402.000000 0 0 1
-29.174728 -3.227605 2.236308 29.437786 0.110182 1.494756 0.145427 -0.029223 -309829.000000 0 0 1
-30.264478 -3.632105 3.272808 30.656844 0.119441 1.463836 0.105434 -0.023109 -111422.000000 0 0 1
-30.631198 -4.910405 3.186308 31.185492 0.158955 1.468445 0.109926 -0.023269 554746.000000 0 0 1
-31.672098 -5.279405 4.128408 32.373409 0.165171 1.442923 0.111028 -0.027796 528511.000000 0 0 1
-32.327718 -6.658605 3.920408 33.238351 0.203131 1.452573 0.105559 -0.024263 -349780.000000 0 0 1
-31.460478 -7.692905 4.233808 32.662939 0.239820 1.440809 0.095062 -0.016558 -202260.000000 0 0 1
-32.133428 -8.904705 4.074108 33.592399 0.270333 1.449216 0.110922 -0.023837 -176391.000000 0 0 1
-31.215168 -10.096405 4.353208 33.094932 0.312825 1.438877 0.105031 -0.016908 -72326.800000 0 0 1
-31.131428 -10.384405 5.741008 33.316075 0.321960 1.397612 0.088141 -0.011155 569356.000000 0 0 1
-30.193428 -11.416605 6.096408 32.850390 0.361499 1.384133 0.088923 -0.006920 157927.000000 0 0 1
-30.366128 -11.772305 7.585408 33.439906 0.369840 1.341968 0.081919 -0.017564 -270638.000000 0 0 1
-29.996778 -10.752205 8.456308 32.968557 0.344179 1.311401 0.085152 -0.010530 470734.000000 0 0 1
-30.316368 -11.007905 9.843208 33.721579 0.348298 1.274587 0.094542 -0.010731 -227711.000000 0 0 1
-30.454598 -9.682805 10.665608 33.689678 0.307835 1.248670 0.078305 -0.015481 900656.000000 0 0 1
-29.213698 -8.979505 10.948108 32.464330 0.298207 1.226818 0.091976 -0.014976 1167030.000000 0 0 1
-29.479288 -7.913705 11.767308 32.712760 0.262266 1.202833 0.091209 -0.018534 -272408.000000 0 0 1
-28.428858 -6.787205 11.851208 31.539138 0.234357 1.185577 0.111997 -0.016696 -213692.000000 0 0 1
-28.375118 -5.993705 10.664508 30.899895 0.208171 1.218418 0.123261 -0.015338 437279.000000 0 0 1
-27.600248 -4.807605 10.812508 30.029936 0.172457 1.202467 0.133128 -0.022944 -29647.100000 0 0 1
-27.837948 -3.883605 9.576008 29.694000 0.138613 1.242438 0.131270 -0.028145 -148112.000000 0 0 1
-27.054048 -4.248205 8.483408 28.669443 0.155755 1.270394 0.136145 -0.020657 34851.400000 0 0 1
-27.389728 -3.555505 7.325108 28.574394 0.129090 1.311550 0.135569 -0.038985 310878.000000 0 0 1
-26.452188 -4.013205 6.129808 27.448107 0.150567 1.345574 0.138651 -0.027554 238704.000000 0 0 1
-25.095908 -3.632705 6.253008 26.117068 0.143754 1.329026 0.172458 -0.047092 61887.500000 0 0 1
-24.546538 -3.856005 4.991308 25.343923 0.155816 1.372557 0.196038 -0.027241 -1171440.000000 0 0 1
-23.028538 -3.937105 5.049908 23.902216 0.169329 1.357919 0.199694 -0.033846 -837056.000000 0 1 0
-22.514138 -2.632605 5.068608 23.227307 0.116403 1.350809 0.162313 -0.037892 -405485.000000 0 1 0
-21.246038 -2.575205 4.483508 21.866130 0.120620 1.364288 0.125594 -0.029947 -536800.000000 0 1 0
-20.499138 -1.251905 4.726608 21.074220 0.060995 1.344588 0.080851 -0.032092 -608296.000000 0 1 0
-20.750738 -0.206105 3.859108 21.107542 0.009932 1.386931 0.085115 -0.024060 1146720.000000 0 1 0
-21.863538 0.618995 4.277408 22.286625 -0.028304 1.377671 0.089726 -0.053203 502477.000000 0 1 0
-22.195738 1.687495 3.201608 22.488857 -0.075882 1.427947 0.112264 -0.030677 -256250.000000 0 1 0
-21.139638 2.590695 2.997508 21.507697 -0.121943 1.430972 0.055977 -0.017479 87005.100000 0 1 0
-21.541438 3.441995 1.947608 21.901462 -0.158445 1.481753 0.085528 -0.012516 944854.000000 0 1 0
-20.403538 4.310995 1.191908 20.888027 -0.208224 1.513704 0.048095 -0.003205 477332.000000 0 1 0
-20.827938 5.167695 0.115208 21.459761 -0.243202 1.565428 0.077789 -0.000369 734441.000000 0 1 0
-21.615438 4.596195 -0.973192 22.120110 -0.209514 1.614806 0.099788 -0.007827 225200.000000 0 1 0
-21.021738 3.477895 -1.882992 21.390532 -0.163958 1.658940 0.076273 -0.007246 -596502.000000 0 1 0
-21.054938 2.300295 -1.109192 21.209245 -0.108820 1.623118 0.053777 -0.006576 468436.000000 0 1 0
-20.577438 1.213395 -1.840992 20.695230 -0.058899 1.659871 0.048917 -0.004988 -355351.000000 0 1 0
-19.929438 0.061695 -0.997892 19.954500 -0.003096 1.620826 0.057191 -0.007492 -161369.000000 0 1 0
-20.803938 -0.858605 -0.355592 20.824684 0.041248 1.587873 0.083877 -0.016001 506503.000000 0 1 0
-20.220638 -1.652205 0.672508 20.299168 0.081528 1.537660 0.089967 -0.017938 80848.900000 0 1 0
-19.177738 -2.716405 0.192308 19.370118 0.140708 1.560868 0.049862 -0.013909 -37542.800000 0 1 0
-18.488838 -3.302205 1.252908 18.823163 0.176742 1.504185 0.057591 -0.014785 538821.000000 0 1 0
-17.730938 -4.456805 0.897108 18.304482 0.246256 1.521766 0.040497 -0.014399 101267.000000 0 1 0
-18.603638 -5.735605 0.857008 19.486584 0.299059 1.526803 0.048294 -0.009332 -195914.000000 0 1 0
-19.111838 -6.157605 2.093008 20.188094 0.311686 1.466934 0.058453 -0.017925 1400090.000000 0 1 0
-20.280938 -6.972205 1.766208 21.518540 0.331124 1.488625 0.089531 -0.020701 940224.000000 0 1 0
-21.099538 -7.424905 2.986308 22.566296 0.338366 1.438072 0.117729 -0.023229 903.123000 0 1 0
-20.276338 -8.256405 3.786608 22.217932 0.386693 1.399530 0.102092 -0.021041 535513.000000 0 1 0
-20.861538 -8.599905 4.990108 23.109809 0.391011 1.353152 0.083738 -0.021712 -355211.000000 0 1 0
-19.862138 -9.344305 5.883108 22.725129 0.439736 1.308933 0.076024 -0.015163 -262769.000000 0 1 0
-19.490438 -10.571505 5.382408 22.816752 0.496985 1.332655 0.081470 -0.010358 402027.000000 0 1 0
-18.517338 -11.230305 6.198808 22.526357 0.545167 1.292019 0.080253 -0.011723 199408.000000 0 1 0
-18.142538 -12.550705 5.471608 22.729064 0.605190 1.327677 0.061231 -0.009063 -42755.200000 0 1 0
-19.147438 -13.533205 5.649708 24.118275 0.615268 1.334349 0.081209 -0.008291 92927.300000 0 1 0
-18.724038 -14.767105 5.080708 24.381767 0.667795 1.360877 0.080227 -0.006949 -267411.000000 0 1 0
-19.562438 -16.004505 5.356808 25.836573 0.685695 1.361947 0.093701 -0.012366 -429225.000000 0 0 1
-18.877238 -17.109605 4.869908 25.938479 0.736319 1.381927 0.099195 -0.025450 98985.900000 0 0 1
-19.435138 -18.360605 5.273308 27.251498 0.756976 1.376063 0.093946 -0.020650 -267831.000000 0 0 1
-18.405038 -19.479805 5.172608 27.294030 0.813760 1.380129 0.092294 -0.028110 -672769.000000 0 0 1
-18.021238 -19.832805 3.884508 27.077565 0.833218 1.426841 0.100295 -0.029450 185096.000000 0 0 1
-17.193638 -20.982705 3.853508 27.399719 0.884326 1.429688 0.089539 -0.029497 -798564.000000 0 0 1
-15.703538 -20.699105 3.919908 26.275839 0.921777 1.421054 0.085655 -0.023831 -1132160.000000 0 0 1
-15.132538 -21.945105 4.206108 26.986527 0.967109 1.414299 0.082068 -0.025263 263559.000000 0 0 1
-13.699738 -21.872605 4.288808 26.162712 1.011232 1.406125 0.084564 -0.024147 548486.000000 0 0 1
-13.119438 -23.252505 4.410808 27.060189 1.057104 1.407066 0.086576 -0.021705 -416466.000000 0 0 1
-13.214238 -24.017205 3.201208 27.598731 1.067800 1.454544 0.091949 -0.026359 150601.000000 0 0 1
-12.895038 -25.360035 3.513908 28.666372 1.100389 1.447908 0.081800 -0.023386 -12182.200000 0 0 1
19.105562 19.378795 -23.917092 36.229650 0.792498 2.291818 0.075748 -0.011650 -976435.000000 0 0 1
18.299762 19.655195 -24.946192 36.654065 0.821095 2.319357 0.064278 -0.026500 -887484.000000 0 0 1
18.808162 19.202795 -26.185712 37.525802 0.795780 2.343126 0.063848 -0.021998 -255804.000000 0 0 1
17.888962 19.460695 -27.402042 38.073686 0.827455 2.374182 0.048355 -0.022964 92360.400000 0 0 1
17.785462 20.825795 -27.824942 39.041822 0.863978 2.364130 0.040059 -0.015935 497494.000000 0 0 1
16.801662 20.989995 -28.857082 39.441184 0.895775 2.391533 0.034827 -0.023789 357304.000000 0 0 1
16.470262 22.467995 -29.212322 40.366324 0.938229 2.379917 0.044237 -0.024681 -210674.000000 0 0 1
15.649062 23.118195 -28.255342 39.720379 0.975732 2.362222 0.054764 -0.029240 442315.000000 0 0 1
15.206362 24.393095 -28.862702 40.734655 1.013357 2.358243 0.055148 -0.027852 206848.000000 0 0 1
14.331262 25.237695 -27.914672 40.268539 1.054351 2.336734 0.057721 -0.026639 418573.000000 0 0 1
13.023162 24.802095 -27.578922 39.310859 1.087284 2.348380 0.070549 -0.040259 77335.100000 0 0 1
12.446562 25.676395 -26.639362 39.036519 1.119425 2.321867 0.065559 -0.029716 -155710.000000 0 0 1
11.031262 25.226295 -26.144392 37.968197 1.158560 2.330334 0.087437 -0.031632 701245.000000 0 0 1
10.340262 26.055595 -25.258382 37.733287 1.193005 2.304187 0.079098 -0.035356 -81206.200000 0 0 1
9.914662 27.302795 -25.754522 38.820595 1.222466 2.296182 0.089466 -0.039846 -318775.000000 0 0 1
9.343162 28.241695 -24.619092 38.613310 1.251302 2.262150 0.102748 -0.041659 474605.000000 0 0 1
10.398362 28.782495 -23.823992 38.783251 1.224114 2.232277 0.095299 -0.034105 392673.000000 0 0 1
9.884162 29.667395 -22.824092 38.714212 1.249197 2.201302 0.113775 -0.035883 -379730.000000 0 0 1
10.930462 30.104395 -21.828892 38.758872 1.222512 2.169046 0.085321 -0.034674 604503.000000 0 0 1
12.003862 30.960495 -22.333892 40.018092 1.200925 2.162884 0.075751 -0.039833 574097.000000 0 0 1
12.981462 31.179795 -21.375992 39.970377 1.176282 2.135062 0.044183 -0.023505 -494019.000000 0 0 1
14.189362 31.955795 -21.917092 41.265843 1.152917 2.130718 0.038248 -0.013613 38911.200000 0 0 1
15.089562 31.149395 -22.667992 41.374117 1.119686 2.150623 0.037990 -0.012032 -682851.000000 0 0 1
16.074862 31.892995 -23.264092 42.623730 1.103934 2.148142 0.027569 -0.001714 -1078570.000000 0 0 1
17.344362 31.104195 -23.543592 42.691903 1.062121 2.154930 0.004542 0.003631 -678855.000000 0 0 1
18.221262 31.026995 -22.448892 42.410395 1.039789 2.128601 0.011971 0.006806 -420786.000000 0 0 1
19.268662 30.187395 -22.845392 42.479079 1.002689 2.138626 0.011006 -0.002726 -567640.000000 0 0 1
20.174462 29.632295 -21.750592 41.930539 0.973054 2.116160 0.019810 -0.000110 -584345.000000 0 0 1
21.073162 30.538295 -21.228392 42.747050 0.966775 2.090479 0.026076 -0.002928 197414.000000 0 0 1
22.019262 29.803895 -20.407992 42.303738 0.934499 2.074207 0.047378 0.001859 643206.000000 0 0 1
22.558762 30.587995 -19.193692 42.578410 0.935341 2.038440 0.055352 -0.013958 -231270.000000 0 0 1
23.440962 31.664895 -19.466492 43.944154 0.933544 2.029719 0.068017 -0.014221 82175.200000 0 0 1
23.917862 32.050895 -18.193692 43.935572 0.929702 1.997749 0.070552 -0.017470 -287111.000000 0 0 1
25.331662 32.664095 -18.254992 45.187177 0.911161 1.986667 0.079973 -0.020935 -67600.000000 0 0 1
26.383562 31.819395 -18.583792 45.320234 0.878522 1.993311 0.071854 -0.020801 -415942.000000 0 0 1
27.577562 32.509795 -18.812392 46.597369 0.867299 1.986378 0.065862 -0.020372 562097.000000 0 0 1
28.869162 31.803495 -19.313892 47.094769 0.833724 1.993368 0.084250 -0.026968 777412.000000 0 0 1
29.299662 30.651795 -18.566892 46.289656 0.807948 1.983516 0.068686 -0.020326 342619.000000 0 0 1
30.612762 30.303695 -18.984892 47.073148 0.780325 1.985923 0.063907 -0.018733 124275.000000 0 0 1
31.309162 29.152495 -18.238792 46.505754 0.749743 1.973800 0.058789 -0.023093 -318414.000000 0 0 1
31.548362 29.432595 -16.886692 46.332896 0.750717 1.943854 0.051973 -0.021066 62834.200000 0 0 1
31.982762 28.322295 -16.175692 45.680439 0.724773 1.932754 0.061157 -0.021928 -557446.000000 0 0 1
32.367662 28.728295 -14.754892 45.724035 0.725900 1.899371 0.062012 -0.026912 935986.000000 0 0 1
33.705562 29.279795 -14.638892 46.985833 0.715247 1.887630 0.045633 -0.018816 866357.000000 0 0 1
33.961562 30.586595 -15.025892 48.111381 0.733160 1.888425 0.046581 -0.024996 -874553.000000 0 0 1
35.430562 30.962195 -15.021892 49.392707 0.718197 1.879823 0.045404 -0.026567 -535866.000000 0 0 1
35.978062 31.180095 -13.741392 49.552449 0.714077 1.851790 0.047794 -0.024154 358847.000000 0 0 1
-36.705548 31.621195 -13.790492 50.372363 -0.711123 1.848108 0.037117 -0.032562 735512.000000 0 0 1
-36.036148 31.724295 -12.404092 49.587260 -0.721850 1.823628 0.027915 -0.018056 -288258.000000 0 0 1
-36.588848 32.821995 -11.724792 50.532148 -0.731182 1.804957 0.040215 -0.026860 177221.000000 0 0 1
-35.764748 33.224395 -10.694192 49.973427 -0.748592 1.786462 0.031268 -0.020653 -213435.000000 0 0 1
-36.554148 -33.771176 -9.916692 50.744841 0.745846 1.767485 0.024890 -0.012326 344495.000000 0 0 1
-35.803548 -32.913976 -9.027692 49.464362 0.743373 1.754334 0.022979 -0.015227 -73995.800000 0 0 1
-35.300548 -33.670576 -7.932192 49.424246 0.761770 1.731985 0.016155 -0.011124 -69572.900000 0 0 1
-34.938048 -32.846976 -6.672092 48.415988 0.754559 1.709044 0.022681 -0.007098 -221929.000000 0 0 1
-35.998648 -32.020676 -6.246392 48.582340 0.726982 1.699727 0.016185 0.000171 -118584.000000 0 0 1
-35.591948 -31.046776 -5.337592 47.530821 0.717297 1.683331 0.048993 -0.002799 88379.500000 0 0 1
-36.830548 -30.194976 -4.937892 47.881193 0.686719 1.674108 0.026872 -0.000393 421381.000000 0 0 1
36.286862 -30.937276 -4.153792 47.865493 -0.705987 1.657686 0.007567 0.005075 939137.000000 0 0 1
35.007162 -30.302576 -3.971792 46.470664 -0.713487 1.656370 0.010973 0.014062 608703.000000 0 0 1
34.945162 -29.456076 -2.695092 45.783057 -0.700371 1.629697 0.007072 0.012065 -320607.000000 0 0 1
35.439762 -28.142776 -2.814292 45.342175 -0.671134 1.632904 0.032777 -0.001781 382993.000000 0 0 1
34.593262 -27.252376 -2.113392 44.089139 -0.667254 1.618749 0.037065 -0.002813 -47533.700000 0 0 1
34.806062 -25.805176 -2.526692 43.402226 -0.637974 1.629045 0.063838 -0.021159 -229702.000000 0 0 1
34.499462 -25.567476 -3.885792 43.116216 -0.637779 1.661042 0.050657 -0.012360 425080.000000 0 0 1
34.419262 -24.169576 -4.046492 42.251960 -0.612208 1.666714 0.059649 -0.015952 -353426.000000 0 0 1
34.226862 -23.793976 -5.521692 42.049025 -0.607487 1.702492 0.056691 -0.019486 -340200.000000 0 0 1
35.337662 -23.912476 -6.372792 43.141272 -0.594907 1.719058 0.066314 -0.024986 -160294.000000 0 0 1
35.071662 -23.255476 -7.561092 42.755219 -0.585519 1.748577 0.040869 -0.024431 -537172.000000 0 0 1
36.278662 -23.025376 -8.465992 43.794775 -0.565531 1.765332 0.047132 -0.028706 -518313.000000 0 0 1
36.719162 -24.248876 -8.980592 44.910532 -0.583643 1.772120 0.046959 -0.017010 -1001360.000000 0 0 1
-36.211548 -24.012076 -9.753292 44.530694 0.585533 1.791610 0.052419 -0.015545 -465768.000000 0 0 1
-35.616948 -25.288776 -10.483292 44.922028 0.617420 1.806335 0.054881 -0.020006 -100915.000000 0 0 1
-34.942048 -26.276376 -9.711492 44.785129 0.644779 1.789379 0.059869 -0.009812 539372.000000 0 0 1
-35.781648 -27.188376 -8.969492 45.825603 0.649770 1.767799 0.047898 -0.014078 66128.000000 0 0 1
-34.944648 -28.299376 -8.371592 45.739115 0.680709 1.754863 0.041460 -0.011226 -164455.000000 0 0 1
-34.283148 -29.082976 -9.342692 45.917749 0.703516 1.775693 0.040996 -0.013011 130154.000000 0 0 1
-33.511648 -30.061776 -8.653092 45.843396 0.731185 1.760689 0.050101 -0.022713 -66106.400000 0 0 1
-33.045848 -31.171076 -9.639992 46.439138 0.756212 1.779900 0.042152 -0.022392 -287012.000000 0 0 1
-31.894248 -30.728176 -10.314792 45.473716 0.766780 1.799618 0.021068 0.001990 -73492.400000 0 0 1
-31.481848 -31.623276 -11.340692 46.040739 0.787639 1.819676 0.011059 -0.002565 -65115.000000 0 0 1
-31.662548 -30.967776 -12.735692 46.083815 0.774305 1.850800 0.006530 0.001108 -397900.000000 0 0 1
-30.772948 -29.975576 -13.116492 44.917167 0.772273 1.867129 -0.003419 0.005395 -430701.000000 0 0 1
-31.131048 -29.507976 -14.412392 45.250192 0.758638 1.894948 -0.006776 0.020703 -6146.000000 0 0 1
-30.231148 -28.401976 -14.936092 44.087202 0.754211 1.916422 0.004586 0.002832 767437.000000 0 0 1
-28.907348 -28.809976 -15.327992 43.595835 0.783711 1.930069 0.015367 -0.001699 800665.000000 0 0 1
-28.108248 -27.693576 -15.786692 42.499734 0.777967 1.951371 0.048752 0.002303 682519.000000 0 0 1
-26.760048 -28.217576 -16.369892 42.193662 0.811903 1.969225 0.069968 -0.001245 34378.800000 0 0 1
-26.856448 -28.926976 -17.609892 43.222067 0.822498 1.990433 0.049702 0.006724 -81481.000000 0 0 1
-27.072548 -28.166876 -18.786592 43.350107 0.805206 2.019024 0.051778 0.009065 -298863.000000 0 0 1
-25.777648 -27.663776 -19.422192 42.508743 0.820677 2.045302 0.072721 0.005311 -137013.000000 0 0 1
-25.269748 -26.514376 -18.791192 41.166506 0.809428 2.044818 0.085947 0.001613 487193.000000 0 0 1
-23.842748 -26.390376 -18.787192 40.222968 0.836071 2.056778 0.099551 -0.017024 867094.000000 0 0 1
-23.405348 -25.247676 -17.827092 38.769327 0.823247 2.048594 0.110041 -0.018338 28289.300000 0 0 1
-23.500448 -25.692976 -16.480392 38.522765 0.829938 2.012864 0.105932 -0.015540 -71193.000000 0 0 1
-23.141048 -24.671776 -15.633992 37.264277 0.817402 2.003739 0.115345 -0.019230 -184518.000000 0 0 1
-23.703848 -24.730476 -14.210892 37.086633 0.806591 1.964034 0.100611 -0.014341 216531.000000 0 0 1
-25.073748 -24.358276 -14.186492 37.726317 0.770925 1.956312 0.073331 0.004559 257246.000000 0 0 1
-25.536848 -24.215976 -12.826492 37.457483 0.758856 1.920296 0.059811 0.005473 -352149.000000 0 0 1
-27.030848 -23.992076 -12.585492 38.271152 0.725911 1.905883 0.028041 0.026707 -985793.000000 0 0 1
-27.572348 -25.285176 -12.695392 39.506297 0.742155 1.897952 0.029952 0.016234 419533.000000 0 0 1
-28.956148 -25.479476 -12.411892 40.518111 0.721617 1.882131 0.017039 0.016762 899362.000000 0 0 1
-30.132048 -24.651076 -13.061692 41.063654 0.685681 1.894504 0.017559 0.019104 -237347.000000 0 0 1
-30.237648 -23.344276 -12.467592 40.183472 0.657450 1.886270 0.028300 0.030417 209455.000000 0 0 1
-30.777048 -23.272676 -11.126892 40.157837 0.647438 1.851549 0.036104 0.016678 -54821.300000 0 0 1
-32.254748 -23.698276 -10.913392 41.485891 0.633651 1.836992 0.025129 0.005463 661325.000000 0 0 1
-33.360248 -22.843076 -11.288592 41.977906 0.600410 1.843065 0.041122 -0.003876 836710.000000 0 0 1
-33.543748 -22.544176 -12.683392 42.359076 0.591743 1.874887 0.037516 0.009929 157865.000000 0 0 1
-34.982048 -22.208276 -13.225992 43.495725 0.565650 1.879764 0.026278 -0.005657 826060.000000 0 0 1
-35.822648 -23.333176 -13.224292 44.750208 0.577326 1.870789 0.035676 -0.005372 772638.000000 0 0 1
36.826162 -23.052676 -13.493792 45.493676 -0.559308 1.871935 0.047641 -0.024055 1203910.000000 0 0 1
35.988462 -24.271976 -13.002192 45.313963 -0.593363 1.861823 0.054179 -0.017276 -259265.000000 0 0 1
35.818262 -25.370976 -13.860092 46.029735 -0.616291 1.876655 0.043255 -0.008220 173309.000000 0 0 1
35.051862 -26.450476 -13.308992 45.884529 -0.646445 1.865080 0.045776 -0.017314 388947.000000 0 0 1
34.823062 -27.563376 -14.317792 46.662453 -0.669553 1.882665 0.040439 -0.019113 201510.000000 0 0 1
34.146562 -27.207476 -15.502792 46.331102 -0.672778 1.911986 0.044996 -0.028129 -239996.000000 0 0 1
34.104562 -28.359776 -16.293592 47.253351 -0.693687 1.922836 0.040378 -0.015287 38958.200000 0 0 1
33.156562 -28.240376 -17.506492 46.939895 -0.705496 1.952989 0.035307 -0.013156 536210.000000 0 0 1
31.764162 -28.305176 -17.217592 45.897609 -0.727878 1.955334 0.069994 -0.020296 658759.000000 0 0 1
30.943262 -28.228976 -18.395392 45.746596 -0.739559 1.984622 0.067043 -0.020031 143122.000000 0 0 1
29.438662 -28.417276 -18.225592 44.792283 -0.767746 1.989845 0.075689 -0.024869 -229538.000000 0 0 1
28.859262 -27.313776 -17.563092 43.443775 -0.757892 1.986979 0.067743 -0.028308 -844797.000000 0 0 1
27.485062 -27.446576 -17.400392 42.561918 -0.784698 1.991963 0.081022 -0.027697 -483186.000000 0 0 1
26.912862 -26.667676 -16.182292 41.198710 -0.780822 1.974456 0.081676 -0.031398 66542.300000 0 0 1
26.756762 -25.297276 -16.380892 40.301490 -0.757368 1.989371 0.086257 -0.032132 -8994.130000 0 0 1
26.726662 -24.633976 -15.156592 39.381081 -0.744676 1.965863 0.087548 -0.024985 -256850.000000 0 0 1
26.527962 -23.075676 -15.413592 38.390082 -0.715913 1.983950 0.094042 -0.032363 1018660.000000 0 0 1
25.214762 -22.615276 -15.812292 37.379988 -0.731103 2.007566 0.107888 -0.034111 798156.000000 0 0 1
25.150962 -21.232776 -15.658792 36.449958 -0.701125 2.014843 0.108348 -0.039031 96723.300000 0 0 1
23.738462 -20.613076 -15.806892 35.189080 -0.715046 2.036665 0.118086 -0.030507 -221678.000000 0 0 1
22.867862 -21.030176 -14.789792 34.408507 -0.743560 2.015100 0.116998 -0.029472 -373035.000000 0 0 1
21.619862 -20.392376 -14.855392 33.225745 -0.756189 2.034322 0.105155 -0.028609 -148400.000000 0 0 1
21.584862 -18.958576 -14.110092 32.006696 -0.720711 2.027340 0.110850 -0.028500 -392502.000000 0 0 1
21.031562 -19.077076 -12.801992 31.147270 -0.736707 1.994363 0.099445 -0.036380 333320.000000 0 0 1
20.629862 -17.833576 -12.214992 29.880323 -0.712826 1.991932 0.088694 -0.039001 112598.000000 0 0 1
19.731162 -17.902576 -10.925092 28.795462 -0.736847 1.959948 0.095868 -0.039266 -242166.000000 0 0 1
20.360462 -18.507776 -9.815992 29.213694 -0.737768 1.913470 0.093723 -0.043281 -74873.700000 0 0 1
19.500962 -18.613276 -8.704092 28.328480 -0.762112 1.883104 0.088897 -0.046926 -268477.000000 0 0 1
20.071762 -19.389276 -7.512492 28.900817 -0.768105 1.833757 0.086516 -0.042680 146774.000000 0 0 1
21.155562 -18.810476 -6.805192 29.115330 -0.726788 1.806711 0.084325 -0.043178 283874.000000 0 0 1
21.738762 -19.673876 -5.815292 29.890681 -0.735578 1.766597 0.079662 -0.031338 -290985.000000 0 0 1
23.001462 -19.046476 -5.231792 30.318429 -0.691615 1.744226 0.072346 -0.024925 340386.000000 0 0 1
23.986262 -18.820776 -6.279492 31.128675 -0.665310 1.773917 0.061029 -0.026615 850936.000000 0 0 1
25.061962 -17.993076 -5.906692 31.412446 -0.622667 1.759959 0.069194 -0.027378 470818.000000 0 0 1
26.216262 -17.555976 -6.893692 32.295939 -0.590072 1.785905 0.076710 -0.033943 1007500.000000 0 0 1
27.188562 -18.565876 -7.199492 33.700777 -0.599127 1.786085 0.087197 -0.036273 327413.000000 0 0 1
26.784662 -19.701876 -7.913992 34.179136 -0.634199 1.804461 0.091249 -0.043522 -747851.000000 0 0 1
27.890762 -20.750876 -8.079292 35.689893 -0.639653 1.799151 0.079244 -0.042330 206218.000000 0 0 1
28.978362 -20.352976 -8.892292 36.511121 -0.612302 1.816821 0.071361 -0.033543 342830.000000 0 0 1
30.049462 -21.293176 -8.899192 37.888853 -0.616477 1.807888 0.060199 -0.027452 231498.000000 0 0 1
-30.620938 29.540495 4.100908 42.744592 -0.767441 1.474709 0.072340 -0.010021 414121.000000 0 0 1
-29.983738 30.493595 3.268308 42.890159 -0.793829 1.494521 0.062132 0.001266 62981.400000 0 0 1
-29.016068 31.300895 3.914008 42.860211 -0.823260 1.479349 0.060398 0.016993 500342.000000 0 0 1
-28.344808 32.426295 3.039008 43.175552 -0.852459 1.500351 0.057389 0.016282 70181.700000 0 0 1
-27.428838 31.988095 2.051808 42.187549 -0.861981 1.522142 0.061257 0.013977 197726.000000 0 0 1
-26.925898 33.024095 1.191008 42.626440 -0.886771 1.542852 0.077347 -0.003350 445444.000000 0 0 1
-25.648808 33.748895 1.717708 42.424047 -0.920933 1.530296 0.069314 0.003915 942785.000000 0 0 1
-24.408138 33.042895 1.538208 41.109077 -0.934579 1.533370 0.058839 0.002539 826416.000000 0 0 1
-23.318438 33.655495 2.221308 41.004587 -0.964881 1.516598 0.051339 -0.002496 242140.000000 0 0 1
-21.929138 33.182995 1.793108 39.814740 -0.986828 1.525745 0.048770 -0.006196 -114987.000000 0 0 1
-21.586638 33.806095 0.520008 40.113656 -1.002518 1.557833 0.067207 -0.014075 -290391.000000 0 0 1
-20.252738 33.580995 0.165108 39.215863 -1.028100 1.566586 0.066905 -0.018902 -685490.000000 0 0 1
-19.760438 -33.664776 -1.083592 39.050816 1.040008 1.598548 0.072958 -0.020387 71988.700000 0 0 1
-19.447738 -32.256276 -0.835792 37.674665 1.028237 1.592983 0.085350 -0.030338 127479.000000 0 0 1
-18.401038 -32.028776 0.072908 36.938408 1.049326 1.568823 0.093070 -0.030805 -656421.000000 0 0 1
-18.171638 -30.575776 0.357708 35.569853 1.034568 1.560740 0.102883 -0.030155 -113141.000000 0 0 1
-17.546738 -29.934976 -0.753892 34.706759 1.040614 1.592520 0.100944 -0.024995 149373.000000 0 0 1
-17.443638 -28.505576 -0.647492 33.425553 1.021645 1.590169 0.087425 -0.020253 450630.000000 0 0 1
-16.430438 -27.890076 -1.679292 32.413510 1.038420 1.622628 0.090596 -0.013768 488467.000000 0 0 1
-16.955938 -27.988476 -3.014592 32.862538 1.026109 1.662659 0.083586 -0.010781 322777.000000 0 0 1
-16.042338 -27.517176 -3.973092 32.098864 1.042975 1.694891 0.090551 -0.005781 69078.200000 0 0 1
-16.760038 -27.504076 -5.343092 32.648456 1.023519 1.735191 0.121098 -0.016443 -50984.500000 0 0 1
-17.623638 -26.427376 -5.388792 32.218596 0.982653 1.738843 0.117644 -0.012114 -237731.000000 0 0 1
-18.375838 -26.355176 -6.635392 32.806938 0.961926 1.774457 0.143584 -0.017527 619458.000000 0 0 1
-18.825838 -24.932576 -6.910592 31.996903 0.924058 1.788489 0.111857 -0.011575 740610.000000 0 0 1
-17.694838 -24.064476 -7.116192 30.705805 0.936764 1.804677 0.112349 -0.005276 786702.000000 0 0 1
-18.114938 -22.745376 -7.469892 30.021699 0.898240 1.822254 0.092489 -0.003988 682622.000000 0 0 1
-16.900038 -21.773776 -7.230492 28.495414 0.910759 1.827344 0.108981 0.002855 664172.000000 0 0 1
-15.843538 -21.981676 -8.133792 28.290817 0.946272 1.862419 0.126665 -0.009111 -1345370.000000 0 0 1
-14.727138 -21.301076 -7.688292 27.013594 0.965879 1.859394 0.130661 -0.020304 -639849.000000 0 0 1
-13.769138 -21.139676 -8.868192 26.741726 0.993479 1.908821 0.099570 -0.006614 -173917.000000 0 0 1
-14.362938 -20.380676 -9.949592 26.845117 0.956901 1.950483 0.114760 -0.010294 -10884.400000 0 0 1
-13.535638 -20.273876 -11.082792 26.778197 0.982121 1.997502 0.116552 -0.003425 -96966.200000 0 0 1
-14.177138 -19.289176 -12.070392 26.809661 0.936978 2.037814 0.131665 -0.009471 59636.800000 0 0 1
-15.191438 -19.925076 -12.823292 28.146496 0.919389 2.043832 0.109268 0.014113 -413761.000000 0 0 1
-15.805838 -18.999276 -13.682292 28.248931 0.876894 2.076413 0.110221 -0.018186 547199.000000 0 0 1
-17.084938 -19.579076 -14.386092 29.701767 0.853320 2.076418 0.124716 -0.020702 763764.000000 0 0 1
-18.274238 -19.605976 -13.584392 30.047925 0.820540 2.039904 0.122546 -0.020129 -297719.000000 0 0 1
-19.311938 -19.822976 -14.479492 31.233908 0.798456 2.052830 0.097640 -0.013707 -852026.000000 0 0 1
-20.698838 -19.729676 -13.802292 31.752248 0.761431 2.020487 0.076619 0.000699 -20040.800000 0 0 1
-21.640438 -20.218676 -14.724092 33.074194 0.751446 2.032176 0.090489 -0.003836 169990.000000 0 0 1
-22.985138 -20.263576 -14.234192 33.786703 0.722553 2.005670 0.082647 0.007371 952631.000000 0 0 1
-23.985038 -20.891476 -15.264092 35.280708 0.716572 2.018223 0.085888 -0.000488 38378.400000 0 0 1
-24.115838 -20.178276 -16.469492 35.496206 0.696735 2.053278 0.085565 -0.018556 210299.000000 0 0 1
-24.322638 -21.038076 -17.558492 36.640033 0.713114 2.070558 0.105840 -0.026237 -135257.000000 0 0 1
-24.494138 -20.199776 -18.854592 36.925457 0.689608 2.106693 0.109180 -0.026782 -15276.500000 0 0 1
-23.311338 -19.652476 -19.395992 36.136447 0.700442 2.137369 0.096020 -0.035110 158610.000000 0 0 1
-23.610838 -19.048376 -20.686292 36.718319 0.678852 2.169265 0.101997 -0.041871 129437.000000 0 0 1
-22.337638 -18.483976 -21.339192 35.999841 0.691275 2.205275 0.086477 -0.025682 361512.000000 0 0 1
-21.289138 -19.354676 -21.756692 36.071936 0.737839 2.218237 0.064146 -0.023483 -73453.800000 0 0 1
-20.216938 -18.521776 -22.146192 35.245349 0.741667 2.250219 0.055096 -0.021327 -616785.000000 0 0 1
-18.926138 -19.303276 -22.308892 35.049990 0.795263 2.260732 0.070073 -0.018436 -682563.000000 0 0 1
-19.064638 -20.256776 -23.343392 36.314066 0.815707 2.268970 0.045642 -0.017541 76732.300000 0 0 1
-17.996738 -21.132476 -23.082692 36.100897 0.865365 2.264506 0.037671 -0.012162 -392726.000000 0 0 1
-18.180838 -22.569776 -23.700792 37.438820 0.892687 2.256288 0.039886 -0.009092 -185336.000000 0 0 1
-18.303938 -22.587176 -25.104302 38.411465 0.889765 2.283078 0.048856 -0.009332 156786.000000 0 0 1
-18.443738 -23.910476 -25.611182 39.595644 0.913760 2.274201 0.067356 -0.018608 4514.940000 0 0 1
-18.121938 -23.934976 -27.152982 40.479281 0.922746 2.306066 0.075914 -0.011655 1217080.000000 0 0 1
-16.747738 -24.173676 -27.548312 40.295941 0.964913 2.323548 0.059322 -0.002445 1116050.000000 0 0 1
-16.683738 -24.045276 -28.956612 41.170472 0.964212 2.350874 0.094501 -0.010173 -154616.000000 0 0 1
-15.275838 -23.768976 -29.526302 40.867077 0.999584 2.378202 0.056745 -0.014026 -23760.900000 0 0 1
-14.453638 -24.914476 -29.366122 41.134024 1.045115 2.365867 0.067563 -0.007986 486654.000000 0 0 1
-13.233838 -24.778976 -30.118072 41.185318 1.080262 2.390996 0.073752 -0.005348 439610.000000 0 0 1
-12.372338 -26.025876 -29.931452 41.548921 1.127033 2.375162 0.081925 -0.005559 -1017570.000000 0 0 1
-12.648238 -27.148276 -30.829312 42.982011 1.134803 2.370660 0.077297 0.000563 267643.000000 0 0 1
-11.681238 -28.160076 -30.691292 43.259642 1.177584 2.359538 0.080695 -0.002460 -773195.000000 0 0 1
-10.316138 -27.947476 -31.269862 43.188985 1.217185 2.380415 0.076949 -0.006666 -1342620.000000 0 0 1
-9.591838 -26.890376 -30.666012 41.898687 1.228164 2.391915 0.087276 -0.005046 -180209.000000 0 0 1
-8.447138 -26.540076 -31.424872 41.991099 1.262656 2.416397 0.075407 -0.004288 104159.000000 0 0 1
-7.474438 -25.490276 -30.803632 40.675363 1.285565 2.429972 0.109312 -0.010388 181595.000000 0 0 1
-7.938038 -24.111476 -30.666562 39.809719 1.252750 2.450153 0.114647 -0.010041 105306.000000 0 0 1
-8.938438 -23.910976 -29.691962 39.156648 1.213059 2.431477 0.110867 -0.013051 -79508.700000 0 0 1
-9.398738 -22.437876 -29.531072 38.260669 1.174122 2.452525 0.115545 -0.021522 -46426.300000 0 0 1
-9.968138 -21.875776 -30.702522 38.994336 1.143237 2.477309 0.098360 -0.018762 50986.100000 0 0 1
-10.337638 -20.570676 -30.424882 38.153544 1.105117 2.493825 0.099017 -0.019315 60329.300000 0 0 1
-10.927738 -19.891576 -31.653262 38.948931 1.068441 2.519544 0.081405 -0.015805 154482.000000 0 0 1
-11.697338 -18.707476 -31.458012 38.424002 1.011998 2.529953 0.083891 -0.015476 -85881.300000 0 0 1
-12.581738 -18.513876 -32.516542 39.476439 0.973904 2.538693 0.084700 -0.009778 -487821.000000 0 0 1
-13.494738 -17.321676 -32.167372 38.947250 0.908951 2.542631 0.092932 -0.017228 77573.900000 0 0 1
-12.866738 -16.031076 -32.260432 38.252893 0.894465 2.574276 0.099680 -0.023252 130453.000000 0 0 1
-11.725738 -15.699176 -31.501392 37.098447 0.929281 2.585132 0.090524 -0.021678 230277.000000 0 0 1
-11.346138 -14.193976 -31.427952 36.303168 0.896444 2.617360 0.089301 -0.017708 137973.000000 0 0 1
-10.771238 -13.548776 -32.646362 36.950966 0.899113 2.654089 0.086866 -0.028393 117966.000000 0 0 1
-11.440138 -13.680776 -33.867692 38.276115 0.874357 2.656916 0.090538 -0.023925 -570714.000000 0 0 1
-11.787738 -12.386276 33.348831 37.476862 0.810153 0.473777 0.086763 -0.013882 369615.000000 0 0 1
-12.953638 -11.826776 33.946643 38.210522 0.739956 0.476925 0.068193 -0.011255 -110032.000000 0 0 1
-13.799438 -11.135676 33.047100 37.503847 0.678974 0.492475 0.074601 -0.028122 217750.000000 0 0 1
-14.881738 -10.343776 33.785355 38.339406 0.607406 0.492365 0.087388 -0.028902 -116539.000000 0 0 1
-14.430838 -9.144376 -33.563102 37.660995 0.564809 2.670758 0.083423 -0.028218 -204205.000000 0 0 1
-15.373438 -8.600476 -32.660842 37.108508 0.510060 2.646962 0.089328 -0.033598 164680.000000 0 0 1
-14.832438 -7.366476 -31.828802 35.879504 0.460961 2.661826 0.090293 -0.041527 -244047.000000 0 0 1
-14.749938 -6.157076 -32.604472 36.311456 0.395442 2.685798 0.083094 -0.047307 578965.000000 0 0 1
-15.950938 -5.370576 -32.649652 36.732483 0.324772 2.665625 0.087646 -0.037885 552312.000000 0 0 1
-16.313338 -4.675276 -31.277732 35.584824 0.279111 2.644479 0.089483 -0.040319 -294976.000000 0 0 1
-16.815738 -5.597276 -30.324472 35.123669 0.321324 2.612693 0.096090 -0.044209 -166863.000000 0 0 1
-17.089238 -5.211976 -28.993392 34.056182 0.296025 2.589331 0.098981 -0.051960 630986.000000 0 0 1
-15.864238 -4.887176 -28.033272 32.579486 0.298837 2.606964 0.091942 -0.045762 871654.000000 0 0 1
-15.332638 -3.609576 -28.338032 32.421642 0.231208 2.634267 0.093777 -0.038347 -248344.000000 0 0 1
-14.072038 -3.276876 -27.816022 31.344717 0.228787 2.662520 0.079163 -0.032841 -38659.200000 0 0 1
-13.591038 -1.913776 -28.407452 31.549361 0.139892 2.691514 0.068825 -0.017097 18781.100000 0 0 1
-13.344338 -2.178776 -29.771802 32.698297 0.161845 2.715288 0.061147 -0.023972 145279.000000 0 0 1
-13.439938 -0.949776 -30.484372 33.329131 0.070551 2.725429 0.058805 -0.030785 -84258.900000 0 0 1
-13.738338 -1.122776 -31.967902 34.813063 0.081545 2.734493 0.054735 -0.032628 816771.000000 0 0 1
-15.086638 -1.525776 -32.299462 35.681787 0.100792 2.702667 0.051908 -0.039703 1199250.000000 0 0 1
-15.077538 -1.741776 -33.666592 36.929736 0.115011 2.718051 0.049360 -0.034753 396634.000000 0 0 1
-16.502438 -1.923776 33.695317 37.568681 0.116051 0.458089 0.050696 -0.036019 270392.000000 0 0 1
-16.436138 -1.993776 32.283722 36.281683 0.120715 0.473873 0.056874 -0.030661 -396863.000000 0 0 1
-17.627238 -1.981776 31.563174 36.206090 0.111957 0.512004 0.061708 -0.027002 -470755.000000 0 0 1
-17.406338 -2.084776 30.019484 34.763434 0.119203 0.528556 0.062070 -0.015912 270099.000000 0 0 1
-16.566038 -1.054776 29.477054 33.829616 0.063585 0.512872 0.046570 -0.005213 433052.000000 0 0 1
-16.727338 -0.912776 28.093364 32.708930 0.054514 0.537698 0.043046 -0.010647 22557.300000 0 0 1
-16.165238 0.497224 27.647244 32.030177 -0.030749 0.529297 0.046231 -0.009203 504730.000000 0 0 1
-17.025838 1.565224 28.039484 32.841160 -0.091675 0.547572 0.045678 -0.006335 1057790.000000 0 0 1
-18.309538 1.697224 27.386784 32.987205 -0.092432 0.591286 0.056587 -0.013165 847812.000000 0 0 1
-18.316138 2.559224 26.073844 31.966794 -0.138826 0.616938 0.056583 -0.015223 -295950.000000 0 0 1
-18.097138 3.916224 26.287744 32.154140 -0.213114 0.613646 0.042927 -0.007793 60708.900000 0 0 1
-18.575638 4.638224 25.178904 31.631387 -0.244691 0.650122 0.039878 -0.006422 -300088.000000 0 0 1
-18.558438 6.157224 25.352294 32.016650 -0.320347 0.656969 0.030380 -0.002568 520632.000000 0 0 1
-17.264438 6.752224 25.372164 31.422923 -0.372816 0.630994 0.016805 0.001958 465348.000000 0 0 1
-16.710738 6.975224 24.046154 30.101828 -0.395424 0.645453 0.011284 0.006581 75334.700000 0 0 1
-15.516338 7.945224 23.891384 29.575016 -0.473245 0.630347 0.004794 0.003698 607664.000000 0 0 1
-14.325638 7.363224 24.458694 29.285981 -0.474776 0.582359 0.001159 0.001621 335571.000000 0 0 1
-13.266338 8.203224 24.039714 28.656526 -0.553802 0.575553 0.017879 0.000598 -853572.000000 0 0 1
-11.891038 7.953224 24.595664 28.453423 -0.589507 0.526804 0.014367 0.004838 -1099300.000000 0 0 1
-10.860938 8.606224 23.904504 27.630642 -0.670091 0.525357 0.017564 -0.001698 -411221.000000 0 0 1
-9.712238 8.759224 24.692204 27.942021 -0.733850 0.487099 0.022446 -0.006810 -499777.000000 0 0 1
-9.690038 10.065224 25.527214 29.100588 -0.804388 0.500785 0.027141 -0.012754 -517613.000000 0 0 1
-10.763338 10.200224 26.471184 30.341681 -0.758543 0.510631 0.018932 -0.016236 550874.000000 0 0 1
-10.824038 11.420224 27.250474 31.466961 -0.812194 0.523644 0.043148 -0.015737 -378215.000000 0 0 1
-11.271838 12.661224 26.434154 31.402634 -0.843386 0.570221 0.033898 -0.017911 -96965.500000 0 0 1
-12.606038 12.651224 25.963484 31.512984 -0.787187 0.602541 0.023454 -0.019221 132920.000000 0 0 1
-12.759838 11.985224 24.690234 30.266594 -0.754105 0.616757 0.018579 -0.009476 84392.700000 0 0 1
-14.218238 11.672224 24.223234 30.416512 -0.687375 0.649503 0.008151 -0.013274 607511.000000 0 0 1
-15.023938 12.810224 23.910194 31.008353 -0.706033 0.690247 0.008928 -0.014625 1055340.000000 0 0 1
-16.378438 12.551224 23.493804 31.268919 -0.653868 0.720696 0.012710 -0.010430 1003240.000000 0 0 1
-16.598138 12.077224 22.070874 30.141019 -0.629027 0.749171 0.010144 -0.002148 -610120.000000 0 0 1
-16.434738 10.719224 21.989274 29.470842 -0.577941 0.728556 0.013812 -0.002236 113328.000000 0 0 1
-16.232038 10.379224 20.629474 28.227337 -0.568907 0.751254 0.025919 -0.002686 -529527.000000 0 0 1
-16.426938 8.883224 20.345574 27.616994 -0.495731 0.742612 0.021252 -0.002309 362213.000000 0 0 1
-17.777338 8.490224 20.497174 28.429770 -0.445557 0.765587 0.037558 -0.001855 -207634.000000 0 0 1
-18.022038 7.082224 20.436874 28.153465 -0.374436 0.758440 0.025757 0.002205 149499.000000 0 0 1
-19.449038 6.685224 20.882374 29.309228 -0.331078 0.777764 0.047744 -0.006217 204687.000000 0 0 1
-19.833438 7.202224 22.136474 30.582034 -0.348329 0.761446 0.038355 -0.008613 203384.000000 0 0 1
-21.230838 7.460224 22.146174 31.573034 -0.337909 0.793399 0.039965 -0.009763 90452.200000 0 0 1
-21.808638 8.209224 23.314804 32.963436 -0.360016 0.785135 0.071648 -0.011717 -1001060.000000 0 0 1
-21.763438 9.646224 23.335694 33.335439 -0.417210 0.795362 0.063506 -0.002835 1236990.000000 0 0 1
-20.461138 10.272224 23.335264 32.691150 -0.465275 0.775873 0.042360 0.002485 728607.000000 0 0 1
-19.373338 9.928224 24.360524 32.670032 -0.473573 0.729281 0.038708 -0.008671 -694908.000000 0 0 1
-19.604738 10.387224 25.699324 33.951369 -0.487228 0.712171 0.050428 -0.009493 43766.600000 0 0 1
-18.840338 9.731224 26.665174 34.068850 -0.476768 0.671828 0.048292 -0.013218 -131653.000000 0 0 1
-31.528008 -13.998105 20.814574 40.289064 0.417844 1.027885 0.036922 -0.014942 105521.000000 0 0 1
-31.169068 -15.353005 21.172874 40.688034 0.457687 1.023511 0.049938 -0.013790 246256.000000 0 0 1
-31.931638 -16.353605 20.515874 41.327606 0.473316 1.051326 0.033373 -0.010140 47594.000000 0 0 1
-31.555758 -16.521105 19.007974 40.373455 0.482312 1.080595 0.035294 -0.021230 197058.000000 0 0 1
-32.034038 -15.388405 18.275674 39.962268 0.447826 1.095813 0.038992 -0.030565 120061.000000 0 0 1
-31.537948 -15.369105 16.940874 38.959527 0.453453 1.120944 0.041030 -0.028618 -872906.000000 0 0 1
-32.100568 -14.165205 16.101274 38.605058 0.415575 1.140570 0.035612 -0.022331 -232674.000000 0 0 1
-33.396248 -14.352905 15.592674 39.553088 0.405909 1.165576 0.039209 -0.019132 268679.000000 0 0 1
-34.517922 -14.197305 16.457574 40.790957 0.390212 1.155500 0.044045 -0.020650 -216277.000000 0 0 1
-34.889584 -12.789005 17.007274 40.866723 0.351348 1.141573 0.019003 -0.019348 -1750610.000000 0 0 1
-36.066290 -12.948405 17.662474 42.194804 0.344685 1.138900 0.001216 -0.016104 -1165210.000000 0 0 1
-36.484668 -11.699705 18.209374 42.421638 0.310315 1.127137 0.004561 -0.006900 -168634.000000 0 0 1
36.447062 -11.883005 19.246274 42.895375 -0.315167 1.105509 0.010724 0.002760 -318587.000000 0 0 1
36.907382 -12.445605 20.418574 43.976882 -0.325237 1.087949 0.008733 -0.003816 99912.900000 0 0 1
35.992672 -12.020605 21.410174 43.570207 -0.322327 1.057106 0.017954 -0.010803 -941044.000000 0 0 1
36.502982 -12.385305 22.820774 44.795661 -0.327107 1.036261 0.016077 -0.015558 346722.000000 0 0 1
-36.351818 -11.766205 23.303544 44.754367 0.313034 1.023127 0.017300 -0.009052 -282611.000000 0 0 1
-35.195488 -12.251305 22.696574 43.634291 0.334975 1.023764 0.008552 -0.012684 -842952.000000 0 0 1
-33.960348 -11.355105 23.017274 42.568046 0.322678 0.999507 0.033309 -0.009271 103200.000000 0 0 1
-33.962078 -10.242905 22.157674 41.824662 0.292922 1.012461 0.042487 -0.002486 288645.000000 0 0 1
-32.702418 -9.576305 22.001074 40.561078 0.284867 0.997483 0.063186 -0.013274 164120.000000 0 0 1
-32.816488 -8.187205 21.299974 39.970503 0.244493 1.008781 0.058112 -0.008066 -40084.400000 0 0 1
-33.085908 -8.126705 19.915274 39.463132 0.240856 1.041814 0.053000 -0.008513 731103.000000 0 0 1
-34.372905 -8.535705 19.432974 40.397962 0.243403 1.068957 0.036986 -0.005619 238141.000000 0 0 1
-34.500516 -8.372305 17.864174 39.743047 0.238070 1.104600 0.039763 -0.007553 -529399.000000 0 0 1
-35.778070 -8.776205 17.481274 40.776059 0.240546 1.127727 -0.011243 -0.004704 -434922.000000 0 0 1
-36.043238 -8.673505 16.110274 40.421351 0.236152 1.160852 0.001371 -0.001114 -986261.000000 0 0 1
36.517432 -8.654405 15.842674 40.735880 -0.232701 1.171346 0.014684 -0.004949 -877905.000000 0 0 1
35.929892 -9.935405 16.036074 40.581093 -0.269781 1.164553 0.006845 0.006548 -783573.000000 0 0 1
34.548732 -9.824305 15.921274 39.288915 -0.277048 1.153560 0.037509 -0.001267 -744784.000000 0 0 1
33.825402 -11.176505 16.054174 39.074399 -0.319124 1.147397 0.044642 -0.002537 -57322.800000 0 0 1
33.555642 -11.519605 17.406974 39.518163 -0.330692 1.114663 0.034128 -0.014598 413883.000000 0 0 1
32.654952 -12.629905 17.555274 39.166926 -0.369048 1.106027 0.060277 -0.015284 425942.000000 0 0 1
32.358382 -13.046305 18.994974 39.725055 -0.383246 1.072237 0.048387 -0.015129 150959.000000 0 0 1
33.336172 -13.940405 19.533574 41.075489 -0.396077 1.075204 0.030211 -0.018359 19605.700000 0 0 1
33.168432 -14.189705 20.893374 41.689636 -0.404246 1.045852 0.038340 -0.017737 -317131.000000 0 0 1
33.901502 -15.374905 21.568574 43.022122 -0.425775 1.045653 0.021803 -0.011072 72306.700000 0 0 1
33.851822 -15.297605 22.959154 43.670188 -0.424432 1.017212 0.021861 -0.016740 -148119.000000 0 0 1
34.446592 -16.413405 23.588334 44.859526 -0.444662 1.017110 0.011337 -0.004731 -130022.000000 0 0 1
34.993722 -16.182705 24.975054 45.936847 -0.433156 0.995978 0.017769 0.001429 -450844.000000 0 0 1
36.117222 -15.346805 24.972614 46.514617 -0.401800 1.004066 0.024291 -0.003047 -251984.000000 0 0 1
36.413552 -14.954205 26.249824 47.314145 -0.389677 0.982675 0.028685 -0.008878 -632340.000000 0 0 1
-36.487128 -13.945205 26.291374 47.085195 0.365064 0.978366 0.030054 -0.018594 572522.000000 0 0 1
-35.193922 -14.556905 26.057654 46.146690 0.392192 0.970763 0.019160 -0.016478 158737.000000 0 0 1
-34.189749 -13.642105 26.323954 45.254795 0.379654 0.950000 0.039377 -0.021172 -85207.900000 0 0 1
-32.788238 -14.276405 26.076044 44.258834 0.410657 0.940763 0.037914 -0.010250 -55581.200000 0 0 1
-32.466358 -14.367105 24.741034 43.273512 0.416619 0.962176 0.030096 -0.008255 1175200.000000 0 0 1
-31.130378 -14.897005 24.493844 42.319849 0.446329 0.953566 0.045283 -0.017400 1217380.000000 0 0 1
-30.901768 -16.435305 24.652904 42.811262 0.488807 0.957152 0.051674 -0.011828 -687163.000000 0 0 1
-30.957898 -16.788405 26.018594 43.785948 0.496911 0.934498 0.059199 -0.012265 6091.600000 0 0 1
-30.504348 -18.048105 26.320544 44.147711 0.534262 0.932046 0.061963 -0.020559 -267451.000000 0 0 1
-30.193988 -18.300505 27.787904 44.930535 0.544891 0.904010 0.064588 -0.028807 -595941.000000 0 0 1
-29.099088 -17.527705 28.153244 44.120092 0.542142 0.878762 0.068244 -0.025869 -841064.000000 0 0 1
-28.596908 -18.122905 29.310684 44.781012 0.564857 0.857231 0.073956 -0.032196 291663.000000 0 0 1
-27.269558 -17.382105 29.663644 43.882777 0.567479 0.828510 0.059179 -0.023469 134055.000000 0 0 1
-27.483398 -16.023205 30.056634 43.766214 0.527836 0.813782 0.067318 -0.022729 -495856.000000 0 0 1
-26.313768 -15.270605 30.108634 42.803453 0.525829 0.790604 0.055477 -0.012294 -617612.000000 0 0 1
-26.573128 -13.921605 30.840824 43.024396 0.482583 0.771563 0.058380 -0.013237 -148859.000000 0 0 1
-26.159438 -13.969105 32.187952 43.766612 0.490475 0.744473 0.053822 -0.014100 144444.000000 0 0 1
-26.061338 -12.642505 32.667212 43.659741 0.451661 0.725417 0.058986 -0.006108 -615047.000000 0 0 1
-25.279298 -12.517805 -33.976962 44.160755 0.459784 2.448686 0.058294 -0.011869 286001.000000 0 0 1
-23.854938 -12.607805 33.934833 43.354212 0.486202 0.671749 0.057688 -0.009473 766226.000000 0 0 1
-23.337538 -13.940905 -33.986282 43.520764 0.538476 2.466935 0.061296 -0.009117 -364087.000000 0 0 1
-23.351238 -14.630105 -32.604572 42.689324 0.559694 2.439921 0.064373 -0.012773 -843106.000000 0 0 1
-22.287538 -14.242305 -31.770942 41.339695 0.568622 2.447342 0.068276 -0.006632 -17157.400000 0 0 1
-22.295638 -15.016605 -30.539962 40.685171 0.592734 2.419828 0.072153 -0.007296 863150.000000 0 0 1
-20.830538 -15.092505 -29.941472 39.473874 0.627005 2.431826 0.076291 -0.008849 1174360.000000 0 0 1
-20.250338 -14.000305 -29.291202 38.263027 0.604905 2.442649 0.070956 -0.004142 4040.190000 0 0 1
-20.996038 -13.674805 -28.150652 37.686776 0.577291 2.414280 0.079829 -0.005082 -589448.000000 0 0 1
-20.433638 -12.573305 -27.242242 36.300982 0.551611 2.419546 0.084663 -0.018866 -386797.000000 0 0 1
-19.235438 -12.859205 -26.552502 35.219264 0.589282 2.424805 0.070444 -0.011046 105929.000000 0 0 1
-18.878438 -11.641105 -25.902102 34.100288 0.552561 2.433473 0.078152 -0.020225 358640.000000 0 0 1
-17.493938 -11.651805 -25.192462 32.809489 0.587574 2.446260 0.075879 -0.019339 -134743.000000 0 0 1
-17.488338 -12.362405 -23.954992 32.132735 0.615338 2.412083 0.077267 -0.025428 624131.000000 0 0 1
-16.235238 -12.487105 -23.278392 31.006359 0.655636 2.420011 0.070255 -0.028448 800187.000000 0 0 1
-15.030338 -13.334805 -23.804992 31.151336 0.725694 2.440554 0.053045 -0.020599 13850.700000 0 0 1
-14.339638 -12.678805 -24.837092 31.356952 0.724005 2.484999 0.064843 -0.028877 -3075.710000 0 0 1
-13.819538 -13.606805 -25.775232 32.256586 0.777642 2.496541 0.073351 -0.023747 -120296.000000 0 0 1
-12.881938 -12.945005 -26.826042 32.452334 0.787840 2.543887 0.082837 -0.028756 -118941.000000 0 0 1
-13.517838 -12.028205 -27.645042 33.040248 0.727152 2.562041 0.081423 -0.027422 -136921.000000 0 0 1
-12.650738 -11.380605 -28.567452 33.251446 0.732594 2.604372 0.090550 -0.037768 -89109.000000 0 0 1
-13.434738 -10.417005 -29.449352 34.003978 0.659546 2.618055 0.082493 -0.035804 119749.000000 0 0 1
-12.633738 -9.544705 -30.266252 34.157850 0.647008 2.659594 0.074708 -0.027232 174130.000000 0 0 1
-12.039038 -10.180805 -31.370612 35.109864 0.701963 2.675873 0.091894 -0.024449 -192556.000000 0 0 1
-11.156638 -9.331305 -32.329652 35.450673 0.696540 2.718836 0.074424 -0.023145 1940530.000000 0 0 1
-9.819938 -9.170605 -31.715882 34.444569 0.751219 2.740873 0.057974 -0.020748 1595240.000000 0 0 1
-9.157438 -7.988905 -32.127622 34.349168 0.717353 2.779972 0.043143 -0.013464 -26868.900000 0 0 1
-7.657138 -7.873605 -31.796932 33.640308 0.799335 2.809013 0.047866 -0.016477 -272295.000000 0 0 1
-7.282438 -7.722705 -30.423332 32.221937 0.814731 2.805895 0.038052 -0.013264 -131412.000000 0 0 1
-7.630338 -6.504405 -29.742252 31.386795 0.705909 2.816446 0.049469 -0.009129 -816040.000000 0 0 1
-7.108738 -5.156905 -30.245332 31.494570 0.627591 2.858997 0.035779 -0.018636 -240109.000000 0 0 1
-5.743338 -4.969505 -29.950352 30.898309 0.713289 2.893246 0.031702 -0.023164 -260800.000000 0 0 1
-5.340538 -3.690905 -30.428902 31.113698 0.604735 2.931399 0.041407 -0.030717 69655.200000 0 0 1
-3.855438 -3.524805 -30.026512 30.477534 0.740628 2.969342 0.050540 -0.021078 -1448810.000000 0 0 1
-2.971738 -4.342705 -30.735442 31.182651 0.970681 2.972029 0.048587 -0.021468 -1985970.000000 0 0 1
-1.679338 -4.072305 -30.460432 30.777293 1.179663 2.997975 0.077747 -0.022974 -1749420.000000 0 0 1
-1.135038 -2.775305 -31.038782 31.183275 1.182575 3.045289 0.075726 -0.016974 -1013250.000000 0 0 1
0.220162 -2.484105 -30.661652 30.762902 -1.482399 3.060437 0.064353 -0.015399 638647.000000 0 0 1
0.681562 -1.351705 -31.385812 31.422299 -1.103775 3.093398 0.061441 -0.004808 15842.800000 0 0 1
0.942362 -0.048705 -30.524302 30.538884 -0.051638 3.110689 0.057861 -0.013346 -365664.000000 0 0 1
-0.143638 0.533095 -29.875812 29.880913 -1.307606 3.123115 0.064936 -0.014122 -721525.000000 0 0 1
0.273462 1.658995 -29.134612 29.183089 1.407429 3.083946 0.092870 -0.032082 -55368.400000 0 0 1
-0.839238 2.436995 -28.435462 28.552036 -1.239142 3.051197 0.080684 -0.025734 -678808.000000 0 0 1
-1.886038 2.927095 -29.188542 29.395510 -0.998412 3.022857 0.061723 -0.040420 -1090300.000000 0 0 1
-2.632538 3.785595 -28.430602 28.802086 -0.963158 2.980809 0.079754 -0.038859 -851372.000000 0 0 1
-3.949038 4.145195 -29.098322 29.656195 -0.809628 2.947322 0.097653 -0.044816 -599457.000000 0 0 1
-3.726838 4.880295 -30.299632 30.915600 -0.918616 2.941639 0.096149 -0.047229 -655729.000000 0 0 1
-4.929738 5.018295 -30.977302 31.766002 -0.794300 2.918291 0.105621 -0.041732 -822106.000000 0 0 1
-4.897138 5.483295 -32.441902 33.264478 -0.841806 2.918743 0.109937 -0.037762 -148589.000000 0 0 1
-4.483438 4.584295 -33.479952 34.088476 -0.796520 2.952359 0.111476 -0.039014 1035530.000000 0 0 1
-3.094738 4.167895 -33.489392 33.889352 -0.932101 2.987806 0.099944 -0.037223 823328.000000 0 0 1
-2.594638 3.742195 33.120520 33.432096 -0.964550 0.136632 0.093266 -0.036012 -302393.000000 0 0 1
-3.356638 2.640595 32.675717 32.953638 -0.666565 0.129966 0.084057 -0.034852 57074.400000 0 0 1
-2.957238 1.959395 31.450504 31.649940 -0.585165 0.112320 0.081654 -0.022589 37355.500000 0 0 1
-2.818838 2.791695 30.121654 30.381795 -0.780560 0.130955 0.084806 -0.024442 1020890.000000 0 0 1
-4.086238 3.413095 29.805924 30.277709 -0.695878 0.176763 0.065996 -0.023066 930415.000000 0 0 1
-3.905938 4.304695 28.770034 29.351348 -0.833926 0.199354 0.065678 -0.027007 -407559.000000 0 0 1
-5.174238 5.113795 28.655904 29.564920 -0.779523 0.248617 0.073188 -0.021481 -514307.000000 0 0 1
-5.216838 6.032995 27.572594 28.702968 -0.857820 0.281578 0.072181 -0.018157 -192261.000000 0 0 1
-6.416838 6.784295 27.592634 29.129984 -0.813226 0.326332 0.063480 -0.014522 -396157.000000 0 0 1
-6.665038 7.731395 26.395954 28.300947 -0.859334 0.369001 0.065059 -0.013314 -200705.000000 0 0 1
-5.712738 8.787195 26.375804 28.381917 -0.994336 0.378237 0.092444 -0.018367 2823.480000 0 0 1
-5.637538 9.448295 25.128184 27.431328 -1.032827 0.412704 0.075835 -0.021594 44880.900000 0 0 1
-4.852638 10.785795 25.182174 27.821276 -1.148017 0.439085 0.077780 -0.025025 -585542.000000 0 0 1
-4.838238 11.537995 24.007134 27.071690 -1.173737 0.480425 0.092825 -0.022939 81813.100000 0 0 1
-4.308638 12.829795 24.168874 27.700226 -1.246800 0.510469 0.085958 -0.013716 -473441.000000 0 0 1
-2.763038 12.914095 24.235714 27.600328 -1.360019 0.498930 0.079571 -0.011954 -218332.000000 0 0 1
-2.055938 12.390195 25.330104 28.272920 -1.406362 0.460312 0.078151 -0.015500 83822.800000 0 0 1
-2.330438 13.164695 26.474304 29.658539 -1.395590 0.467635 0.088673 -0.020378 -1160650.000000 0 0 1
-1.570938 12.641495 27.709344 30.497262 -1.447162 0.430913 0.096603 -0.019764 645839.000000 0 0 1
-0.165338 12.792995 27.508564 30.338246 -1.557873 0.435335 0.099542 -0.015111 86744.300000 0 0 1
0.568562 12.383795 28.635204 31.203471 1.524917 0.408562 0.100885 -0.024475 -537507.000000 0 0 1
2.069062 12.576095 28.467964 31.190771 1.407734 0.420941 0.104601 -0.020556 -410712.000000 0 0 1
2.467262 13.969195 28.575284 31.902550 1.395978 0.460781 0.101299 -0.023250 291654.000000 0 0 1
3.845362 14.024695 28.222204 31.748570 1.303188 0.475796 0.122787 -0.026805 391953.000000 0 0 1
4.567462 15.345895 28.421354 32.621030 1.281511 0.513035 0.117061 -0.029930 -262145.000000 0 0 1
4.665762 15.678795 29.830254 34.021141 1.281557 0.501598 0.127381 -0.022357 808125.000000 0 0 1
3.615662 16.593595 30.252184 34.693156 1.356255 0.511538 0.100862 -0.019418 706143.000000 0 0 1
3.702462 18.066295 29.766784 35.016578 1.368658 0.554665 0.102669 -0.015686 -232997.000000 0 0 1
4.851562 18.763595 30.156614 35.847337 1.317775 0.571203 0.121476 -0.014030 -175011.000000 0 0 1
5.246862 19.890995 29.321874 35.818341 1.312890 0.611779 0.099315 -0.016743 58413.500000 0 0 1
6.478562 20.622895 29.878594 36.878259 1.266414 0.626311 0.103352 -0.012462 -365989.000000 0 0 1
6.289462 21.289295 31.137904 38.240823 1.283539 0.619346 0.099518 -0.025104 101422.000000 0 0 1
7.391862 22.068895 31.572924 39.224040 1.247596 0.635225 0.069787 -0.023836 -16710.100000 0 0 1
7.401662 23.491295 30.894404 39.510629 1.265562 0.673046 0.055373 -0.014766 -117667.000000 0 0 1
7.688862 23.559895 29.543844 38.561976 1.255340 0.697984 0.031122 -0.012132 125430.000000 0 0 1
7.589262 24.939095 29.110834 39.076797 1.275388 0.730314 0.029754 -0.015644 96506.300000 0 0 1
7.985862 25.053295 27.614244 38.131196 1.262223 0.760937 0.051095 -0.014916 -121985.000000 0 0 1
7.085862 24.307295 26.801174 36.869459 1.287145 0.756969 0.046580 -0.016097 369561.000000 0 0 1
7.550862 24.106295 25.479694 35.879574 1.267245 0.781092 0.058383 -0.017647 -335819.000000 0 0 1
29.038502 2.198395 7.116808 29.978601 0.075562 1.331112 0.107517 -0.005753 51312.300000 0 0 1
29.363442 3.281295 7.921808 30.589764 0.111286 1.308841 0.097652 -0.012449 194619.000000 0 0 1
28.807972 3.095795 9.236108 30.410342 0.107052 1.262206 0.102496 -0.010589 134118.000000 0 0 1
29.258122 4.153695 10.283508 31.289638 0.141025 1.235917 0.104353 -0.012136 -37961.200000 0 0 1
28.817272 5.473295 10.053108 31.007372 0.187695 1.240613 0.099784 -0.010609 -87574.800000 0 0 1
29.668092 6.229395 9.227708 31.688352 0.206963 1.275313 0.108097 -0.016917 -440645.000000 0 0 1
29.221392 7.695095 9.021108 31.535451 0.257492 1.280681 0.138068 -0.023093 748790.000000 0 0 1
27.996872 7.803395 8.261408 30.215372 0.271825 1.293852 0.113136 -0.013382 848556.000000 0 0 1
28.220172 8.706995 7.181608 30.393509 0.299271 1.332253 0.137447 -0.046673 334521.000000 0 0 1
27.073372 8.717395 6.121208 29.093464 0.311508 1.358814 0.126451 -0.034027 691116.000000 0 0 1
25.879772 9.350695 6.576408 28.292177 0.346717 1.336204 0.113984 -0.027893 324557.000000 0 0 1
24.875172 9.209595 5.597408 27.109442 0.354584 1.362826 0.135309 -0.031084 139107.000000 0 0 1
23.521172 9.945595 5.795508 26.186797 0.400036 1.347635 0.086329 -0.028456 284859.000000 0 0 1
23.584972 11.364195 5.770508 26.808480 0.449015 1.353849 0.082362 -0.021879 94484.700000 0 0 1
22.489072 11.784995 6.545308 26.219946 0.482688 1.318497 0.077839 -0.015856 -121865.000000 0 0 1
22.462272 13.298395 6.903808 27.001177 0.534540 1.312240 0.073501 -0.001025 -108856.000000 0 0 1
22.246572 14.040295 5.729608 26.923378 0.562989 1.356345 0.073153 -0.004183 380001.000000 0 0 1
22.202072 15.440795 6.007708 27.702757 0.607677 1.352196 0.090268 -0.019690 -156293.000000 0 0 1
21.983972 16.250395 4.716008 27.741866 0.636549 1.399971 0.085529 -0.022230 1097650.000000 0 0 1
20.584972 16.288595 4.313408 26.601972 0.669405 1.407931 0.102743 -0.020778 1587480.000000 0 0 1
20.260772 17.251995 3.295908 26.814050 0.705363 1.447567 0.104729 -0.021124 -404448.000000 0 0 1
18.778972 17.290695 2.894408 25.690379 0.744160 1.457892 0.094712 -0.020898 -130338.000000 0 0 1
17.977372 17.825095 3.943808 25.621740 0.781145 1.416258 0.102179 -0.033093 39678.400000 0 0 1
16.626672 17.846795 3.546608 24.648180 0.820776 1.426406 0.081738 -0.039719 -438250.000000 0 1 0
15.783372 18.933895 4.277008 25.017994 0.875898 1.398995 0.091330 -0.044115 -811736.000000 0 0 1
14.435572 18.676195 4.056408 23.950793 0.912775 1.400612 0.086326 -0.045951 -494246.000000 0 1 0
13.697572 19.896295 4.133108 24.506502 0.967865 1.401333 0.069026 -0.042492 147419.000000 0 1 0
12.174572 19.680195 4.022908 23.488595 1.016798 1.398677 0.054897 -0.040743 -82328.600000 0 1 0
11.517472 19.005495 5.075308 22.795170 1.025971 1.346266 0.046087 -0.043564 332047.000000 0 1 0
10.121572 19.148995 4.820508 22.189357 1.084555 1.351806 0.037782 -0.031075 714636.000000 0 1 0
9.177772 18.625995 5.960108 21.602826 1.112974 1.291276 0.024999 -0.028795 -50488.200000 0 1 0
9.063072 19.524295 7.064608 22.654935 1.136201 1.253672 0.032888 -0.025395 -881490.000000 0 1 0
8.495372 18.833395 8.120308 22.199269 1.147044 1.196313 0.031947 -0.023395 -570216.000000 0 1 0
7.591472 19.813095 8.902108 23.009492 1.204896 1.173541 0.029729 -0.021547 -333901.000000 0 1 0
6.440972 20.199295 8.214408 22.737066 1.262118 1.201158 0.028063 -0.022095 -561699.000000 0 1 0
6.568072 21.207295 7.191708 23.336872 1.270457 1.257528 0.027848 -0.019670 -744762.000000 0 1 0
5.282372 21.421195 6.295908 22.943616 1.329024 1.292822 0.017534 -0.015757 1826590.000000 0 1 0
4.036572 21.527295 7.062208 23.012891 1.385439 1.258883 0.023796 -0.017910 1132730.000000 0 1 0
3.877172 22.636195 7.947008 24.301949 1.401160 1.237657 0.025777 -0.020200 -883739.000000 0 1 0
3.860472 24.001695 7.222808 25.360473 1.411321 1.281993 0.031405 -0.015052 -126819.000000 0 0 1
2.639572 24.293295 6.568308 25.303640 1.462567 1.308210 0.033953 -0.018593 169870.000000 0 0 1
2.784072 25.364895 5.620608 26.128915 1.461473 1.353991 0.048720 -0.017291 1136110.000000 0 0 1
1.483872 25.529795 4.705208 26.002140 1.512738 1.388839 0.050837 -0.021267 1415290.000000 0 0 1
0.300772 25.952395 5.367408 26.503327 1.559207 1.366868 0.054723 -0.019685 349048.000000 0 0 1
-0.826628 25.891395 4.506308 26.293620 -1.538880 1.398562 0.071602 -0.027291 394900.000000 0 0 1
-2.126228 26.486695 5.112608 27.059280 -1.490693 1.380713 0.089022 -0.025793 639146.000000 0 0 1
-3.028728 26.924395 4.063708 27.397262 -1.458777 1.421922 0.106654 -0.035388 461925.000000 0 0 1
-3.965428 27.871295 4.564808 28.519663 -1.429468 1.410047 0.099795 -0.035810 308799.000000 0 0 1
-4.956928 28.424695 3.518408 29.067398 -1.398144 1.449456 0.098169 -0.043576 223544.000000 0 0 1
-4.237828 29.258795 2.606108 29.678748 -1.426957 1.482873 0.104157 -0.042955 248176.000000 0 0 1
-5.033528 29.620595 1.499208 30.082614 -1.402471 1.520939 0.126735 -0.052412 -270527.000000 0 0 1
-4.337028 30.442395 0.368908 30.751997 -1.429282 1.558800 0.109597 -0.049101 -298243.000000 0 0 1
-4.075428 31.807195 0.722008 32.075350 -1.443362 1.548285 0.111977 -0.047106 885477.000000 0 0 1
-2.976128 32.031495 1.655708 32.212038 -1.478150 1.519373 0.126242 -0.043740 404862.000000 0 0 1
-2.486428 33.495795 1.735608 33.632766 -1.496701 1.519169 0.105206 -0.042728 -1177890.000000 0 0 1
-1.848328 33.856495 0.523908 33.910958 -1.516257 1.555346 0.069982 -0.040756 -60253.200000 0 0 1
-0.952128 -33.153976 0.677808 33.174570 1.542086 1.550363 0.076841 -0.033926 865926.000000 0 0 1
0.382672 -33.443076 1.479808 33.477987 -1.559354 1.526580 0.059262 -0.021932 -82746.100000 0 0 1
0.150472 -33.602076 2.867108 33.724508 -1.566318 1.485678 0.061089 -0.030395 -297067.000000 0 0 1
1.341372 -33.856776 3.566808 34.070555 -1.531198 1.465915 0.051012 -0.026112 8505.220000 0 0 1
1.090672 -33.681576 5.049908 34.075500 -1.538426 1.422051 0.064784 -0.030263 429883.000000 0 0 1
0.250972 33.433395 5.695008 33.915896 1.563290 1.402081 0.074628 -0.038199 184567.000000 0 0 1
-0.202128 33.824495 6.979308 34.537633 -1.564821 1.367317 0.078318 -0.036201 453627.000000 0 0 1
0.822372 33.584895 8.156008 34.570825 1.546315 1.332629 0.075218 -0.034636 410968.000000 0 0 1
1.107172 32.274795 8.493508 33.392034 1.536505 1.313613 0.082269 -0.040235 9509.410000 0 0 1
2.372172 32.198295 9.118008 33.548405 1.497255 1.295547 0.102078 -0.037661 -280910.000000 0 0 1
2.904672 30.788795 9.298408 32.293148 1.476733 1.278724 0.092913 -0.036255 -382061.000000 0 0 1
2.259172 29.933795 10.205808 31.706379 1.495467 1.243077 0.112913 -0.038655 -245817.000000 0 0 1
2.836772 28.684795 10.196908 30.575181 1.472222 1.230780 0.085774 -0.031566 -224908.000000 0 0 1
2.113372 27.711295 11.145308 29.943282 1.494680 1.189403 0.083771 -0.035691 -371129.000000 0 0 1
2.429672 28.090295 12.476208 30.832187 1.484516 1.154202 0.094111 -0.032757 -48799.600000 0 0 1
2.242872 27.088095 13.428708 30.317084 1.488186 1.111919 0.095483 -0.024614 -932714.000000 0 0 1
0.775672 26.809595 13.720608 30.126585 1.541872 1.097939 0.071427 -0.019893 -562889.000000 0 0 1
-0.005128 27.802995 14.394608 31.308327 -1.570612 1.093061 0.076742 -0.024580 231905.000000 0 0 1
-0.456828 28.840195 13.578108 31.879940 -1.554958 1.130825 0.095578 -0.034934 -262404.000000 0 0 1
-1.191528 30.018395 14.341108 33.289505 -1.531124 1.125418 0.067838 -0.024506 111668.000000 0 0 1
-2.256328 29.672895 15.167708 33.401064 -1.494902 1.099425 0.043868 -0.014282 -272480.000000 0 0 1
-2.953428 30.852995 15.613208 34.704500 -1.475361 1.104154 0.036538 -0.013370 -91133.600000 0 0 1
-4.296128 30.475995 16.277308 34.816573 -1.430752 1.084318 0.027822 0.003052 -61313.600000 0 0 1
-5.177928 29.807095 15.402808 33.948790 -1.398798 1.099875 0.035490 -0.010124 -515788.000000 0 0 1
-6.437728 29.750595 15.994108 34.385371 -1.357692 1.087000 0.029021 0.005709 301094.000000 0 0 1
-7.573228 28.921095 15.222908 33.548777 -1.314688 1.099822 0.028117 -0.005791 548517.000000 0 0 1
-8.765528 28.805195 15.930408 34.063935 -1.275396 1.084152 0.036726 -0.002211 -71392.400000 0 0 1
-9.804528 28.286695 15.095708 33.528291 -1.237142 1.103765 0.038766 -0.005565 191893.000000 0 0 1
-11.073628 27.775295 15.764908 33.802730 -1.191423 1.085603 0.043963 0.000475 -233895.000000 0 0 1
-11.952128 28.642395 16.456008 35.128911 -1.175476 1.083265 0.041257 -0.005296 652263.000000 0 0 1
-11.436628 28.956295 17.743108 35.834081 -1.194641 1.052793 0.049064 -0.010186 -586397.000000 0 0 1
-12.164828 30.090995 18.395408 37.307400 -1.186616 1.055174 0.058359 -0.010860 116878.000000 0 0 1
-13.407728 29.701695 18.991508 37.717837 -1.146768 1.043134 0.065434 -0.013824 542329.000000 0 0 1
-14.267728 30.829195 19.037608 38.941467 -1.137350 1.059994 0.070443 -0.011163 -153075.000000 0 0 1
-15.312928 30.606495 20.116108 39.697621 -1.106896 1.039405 0.068819 -0.019418 36722.000000 0 0 1
-14.612828 30.768695 21.348208 40.199419 -1.127409 1.010948 0.075091 -0.028229 279061.000000 0 0 1
-15.539728 30.433195 22.316808 40.813018 -1.098691 0.992252 0.064088 -0.022106 -233867.000000 0 0 1
-14.940628 30.460995 23.716008 41.394971 -1.114791 0.960732 0.073081 -0.021782 -252147.000000 0 0 1
-14.003328 29.390595 23.924608 40.401573 -1.126161 0.937047 0.070460 -0.025885 849805.000000 0 0 1
-13.623328 29.112295 25.340808 40.930152 -1.133109 0.903171 0.073965 -0.023226 169742.000000 0 0 1
-12.979128 30.266395 26.129408 42.038772 -1.165686 0.900070 0.074692 -0.024611 191075.000000 0 0 1
-14.001128 31.249695 26.510108 43.305437 -1.149573 0.912000 0.080554 -0.024619 1018480.000000 0 0 1
-13.562828 32.444495 27.141408 44.421297 -1.174843 0.913473 0.086000 -0.027707 -250110.000000 0 0 1
-14.674228 33.409295 27.666708 45.792583 -1.156938 0.922067 0.096652 -0.029597 233005.000000 0 0 1
-15.553428 32.914095 28.661908 46.333052 -1.129352 0.903829 0.077325 -0.028264 197618.000000 0 0 1
-14.971428 32.708895 29.956008 46.812155 -1.141543 0.876403 0.101111 -0.026101 -37676.600000 0 0 1
-15.875928 32.054695 31.059808 47.373624 -1.110935 0.855773 0.090218 -0.020837 -130012.000000 0 0 1
-17.066928 32.704795 31.379808 48.431147 -1.089824 0.865938 0.097767 -0.020653 -446381.000000 0 0 1
-17.750328 32.156795 32.475408 49.028418 -1.066424 0.846806 0.073816 -0.012423 1030510.000000 0 0 1
-19.197028 32.782595 32.618708 50.071993 -1.041043 0.861320 0.066177 -0.004892 832221.000000 0 0 1
-19.293828 -34.024676 33.152108 51.273703 1.054954 0.867715 0.090414 -0.017095 -622136.000000 0 0 1
-20.640028 -33.667076 33.185408 51.582497 1.020827 0.871935 0.061691 -0.011768 -422099.000000 0 0 1
-20.806628 -32.153776 33.403708 50.819177 0.996464 0.853559 0.088376 -0.013080 -47390.700000 0 0 1
-20.306128 -31.532376 -33.394759 50.217920 0.998667 2.298286 0.090141 -0.011583 114799.000000 0 0 1
-20.910128 -31.992176 -32.200059 49.975760 0.991894 2.270922 0.069521 -0.007175 35186.200000 0 0 1
-20.544328 -31.070476 -31.042459 48.487917 0.986576 2.265568 0.083676 -0.006963 34292.300000 0 0 1
-21.007428 -29.731376 -31.194359 47.941159 0.955672 2.279276 0.100407 -0.012389 181336.000000 0 0 1
-20.484728 -28.799176 -30.222059 46.501499 0.952530 2.278270 0.099112 -0.011048 74498.600000 0 0 1
-21.021928 -27.360676 -30.430559 46.005945 0.915669 2.293545 0.097922 -0.020808 61547.000000 0 0 1
-22.382128 -27.194576 -30.089559 46.323711 0.882166 2.277789 0.094500 -0.019916 -117815.000000 0 0 1
-22.693328 -25.822376 -30.194859 45.754909 0.849805 2.291517 0.106835 -0.018605 122488.000000 0 0 1
-23.986928 -25.565876 -29.385059 45.743507 0.817251 2.268406 0.099386 -0.019360 -140130.000000 0 0 1
-23.905628 -25.809976 -27.972359 44.945375 0.823684 2.242555 0.098642 -0.021123 -58467.500000 0 0 1
-23.031028 -24.980976 -27.247559 43.553494 0.825990 2.246711 0.108304 -0.030345 -308547.000000 0 0 1
-23.017528 -25.347676 -25.742559 42.836790 0.833539 2.215479 0.107174 -0.025562 572163.000000 0 0 1
-24.155328 -24.935176 -24.964859 42.760812 0.801283 2.194229 0.096870 -0.026390 361734.000000 0 0 1
-23.915628 -25.315076 -23.628659 42.084722 0.813817 2.166939 0.091565 -0.017741 690486.000000 0 0 1
-25.200528 -25.132476 -22.707359 42.217675 0.784046 2.138697 0.090985 -0.017950 1687830.000000 0 0 1
-26.392828 -25.843176 -23.090259 43.561579 0.774876 2.129468 0.076219 -0.011494 501022.000000 0 0 1
-26.327428 -27.309976 -23.004459 44.364100 0.803714 2.115936 0.062980 0.005668 -1154570.000000 0 0 1
-27.711728 -27.939376 -23.040159 45.600411 0.789489 2.100482 0.030787 0.010917 -322648.000000 0 0 1
-28.504428 -27.676576 -21.919059 45.375548 0.770664 2.074941 0.036604 0.013282 -404691.000000 0 0 1
-29.626928 -26.885376 -22.239259 45.772950 0.736924 2.078144 0.034890 0.011321 -154894.000000 0 0 1
-30.346528 -26.432976 -20.928759 45.361073 0.716582 2.050348 0.037405 0.015028 -68954.600000 0 0 1
-30.890528 -27.552276 -20.243459 46.077654 0.728340 2.025653 0.021063 0.017666 97230.100000 0 0 1
-31.249128 -27.202476 -18.933759 45.551838 0.716278 1.999457 0.018316 0.019552 -860036.000000 0 0 1
-31.988328 -28.286676 -18.152659 46.399441 0.724062 1.972760 0.012816 0.012157 291839.000000 0 0 1
-33.323628 -28.586276 -18.546659 47.661493 0.709027 1.970487 0.015243 0.006455 973701.000000 0 0 1
-34.387128 -27.640776 -18.461559 47.825895 0.677061 1.967105 0.006388 0.012186 58579.500000 0 0 1
-34.862928 -27.178176 -17.050959 47.379449 0.662160 1.938937 0.013295 0.013133 -641836.000000 0 0 1
-34.059528 -26.165776 -16.474659 46.001235 0.655071 1.937066 0.011386 0.015435 -22890.900000 0 0 1
-34.399128 -25.652176 -15.230559 45.533548 0.640757 1.911861 0.010730 0.013921 -129590.000000 0 0 1
-33.997028 -26.535076 -13.987059 45.338129 0.662744 1.884418 0.011985 0.012801 82715.100000 0 0 1
-34.811528 -27.682776 -13.795159 46.566994 0.671819 1.871553 0.033532 0.005818 408398.000000 0 0 1
-34.525428 -28.330676 -12.547259 46.390366 0.687161 1.844679 0.036522 -0.005217 19053.800000 0 0 1
-35.449828 -29.580876 -12.450859 47.819895 0.695393 1.834202 0.052359 -0.008893 13613.200000 0 0 1
-35.240728 -30.635776 -13.359859 48.568977 0.715609 1.849459 0.045044 -0.014563 146097.000000 0 0 1
-35.699528 -31.926076 -12.987159 49.622544 0.729657 1.835599 0.031428 -0.020036 -179190.000000 0 0 1
-35.120928 -32.942376 -13.974159 50.139374 0.753401 1.853243 0.029945 -0.007937 -667900.000000 0 0 1
-33.752128 -33.160076 -13.854459 49.302564 0.776550 1.855642 0.022276 -0.011033 -541701.000000 0 0 1
-33.229928 -33.993076 -14.874159 49.809617 0.796750 1.874043 0.040348 -0.029623 503358.000000 0 0 1
-31.686428 33.874795 -14.921959 48.725725 -0.818765 1.882041 0.034475 -0.024927 491151.000000 0 0 1
-31.380028 33.013295 -15.971359 48.266636 -0.810757 1.908052 0.048770 -0.027203 -941151.000000 0 0 1
-29.997728 32.895595 -16.073959 47.332399 -0.831442 1.917285 0.049634 -0.025644 -848793.000000 0 0 1
9.695162 20.232595 -9.299992 24.286703 1.123939 1.963757 0.064175 -0.026009 -2068390.000000 0 1 0
8.385962 19.912495 -9.099692 23.444322 1.172199 1.969409 0.067996 -0.032395 -1163780.000000 0 1 0
7.570462 19.898095 -10.272392 23.638277 1.207246 2.020353 0.077027 -0.038350 251735.000000 0 1 0
7.773662 18.751495 -11.252992 23.209443 1.177800 2.076983 0.063436 -0.025978 -329978.000000 0 1 0
9.118662 18.621295 -11.666292 23.790860 1.115431 2.083309 0.089843 -0.027442 -133342.000000 0 1 0
9.101962 17.351095 -12.267892 23.117253 1.087682 2.130200 0.086060 -0.039259 -663725.000000 0 1 0
10.333862 16.993395 -13.041092 23.783067 1.024435 2.151168 0.102595 -0.032337 -744744.000000 0 1 0
10.141762 15.745695 -13.694992 23.202049 0.998582 2.202164 0.109455 -0.045429 191937.000000 0 1 0
11.289762 15.351295 -14.417992 23.895596 0.936687 2.218522 0.117196 -0.048866 -260661.000000 0 1 0
11.273962 13.922495 -14.987792 23.357483 0.890129 2.267470 0.105424 -0.053777 -400621.000000 0 1 0
11.364562 12.800495 -14.025892 22.129880 0.844750 2.257251 0.113354 -0.057618 -43081.900000 0 1 0
12.674662 12.561495 -13.609792 22.442475 0.780914 2.222360 0.140277 -0.053468 -439715.000000 0 1 0
13.635962 11.765795 -14.514492 23.131016 0.711907 2.249122 0.143779 -0.047648 -44004.800000 0 1 0
14.076662 12.391595 -15.701392 24.458900 0.721820 2.267835 0.112227 -0.033968 42698.100000 0 1 0
15.062162 11.646095 -16.363092 25.104801 0.658186 2.280740 0.108426 -0.042786 -12025.500000 0 0 1
15.624562 12.352595 -17.651792 26.613894 0.668976 2.295956 0.073008 -0.029716 751079.000000 0 0 1
16.717462 13.268595 -17.400692 27.537488 0.670886 2.254787 0.053198 -0.016959 545466.000000 0 0 1
17.291562 13.739095 -18.567992 28.853617 0.671412 2.269890 0.037169 -0.007638 455442.000000 0 0 1
18.497362 14.751195 -18.425792 29.987664 0.673200 2.232480 0.039660 0.004057 64112.000000 0 0 1
18.326562 16.041995 -17.776392 30.153086 0.719023 2.201283 0.043679 -0.005167 -268270.000000 0 0 1
17.445862 16.847595 -18.472192 30.486414 0.767954 2.221713 0.047741 0.002349 -601738.000000 0 0 1
17.220662 18.272995 -17.835892 30.798906 0.815038 2.188430 0.048317 0.002197 170710.000000 0 0 1
18.216062 19.281395 -18.004692 32.058791 0.813801 2.167133 0.064200 0.001835 391399.000000 0 0 1
17.781862 20.460195 -17.338492 32.178215 0.855320 2.139840 0.033812 0.005057 -571.093000 0 0 1
18.796562 21.603095 -17.467392 33.542723 0.854756 2.118526 0.055016 -0.003548 966637.000000 0 0 1
20.033562 21.404695 -16.724992 33.752481 0.818475 2.089228 0.091152 -0.009085 762608.000000 0 0 1
20.259662 22.646095 -16.059392 34.368643 0.840961 2.056995 0.086323 -0.015012 -531633.000000 0 0 1
21.669062 22.878695 -15.535592 35.133141 0.812545 2.028837 0.096616 -0.021018 -1156100.000000 0 0 1
21.983162 22.189795 -14.302792 34.354276 0.790076 2.000204 0.099786 -0.020465 431757.000000 0 0 1
23.072662 22.809995 -13.597492 35.178622 0.779673 1.967659 0.089789 -0.022979 1276420.000000 0 0 1
24.520662 22.555295 -14.137992 36.192362 0.743674 1.972117 0.090046 -0.016134 128505.000000 0 0 1
24.810962 23.267595 -15.342992 37.314505 0.753308 1.994545 0.087605 -0.022089 559055.000000 0 0 1
26.006662 24.056695 -15.254292 38.571550 0.746468 1.977387 0.080869 -0.013067 478516.000000 0 0 1
26.775862 24.455795 -16.513492 39.846307 0.740143 1.998112 0.080199 -0.015499 -119120.000000 0 0 1
27.500862 23.406195 -17.136792 39.972704 0.705137 2.013863 0.086192 -0.013476 188409.000000 0 0 1
27.502462 23.678995 -18.538692 40.752464 0.710833 2.043067 0.071548 -0.013656 -726188.000000 0 0 1
28.093462 22.484395 -19.284192 40.824879 0.674950 2.062767 0.067734 -0.012173 -267835.000000 0 0 1
29.491262 22.499795 -19.372692 41.848256 0.651726 2.052091 0.060826 -0.005543 -653043.000000 0 0 1
29.773162 21.759295 -20.524992 42.204069 0.631123 2.078678 0.070674 -0.006868 -134156.000000 0 0 1
31.262562 21.632495 -20.871692 43.369807 0.605311 2.072876 0.097211 -0.010072 -170126.000000 0 0 1
31.844162 22.816795 -21.316592 44.598811 0.621724 2.069131 0.081557 -0.006330 -808341.000000 0 0 1
33.219362 22.704195 -21.513792 45.627292 0.599541 2.061800 0.098903 -0.014413 -757651.000000 0 0 1
33.700362 24.066895 -21.968692 46.878069 0.620155 2.058541 0.103915 -0.016317 -176106.000000 0 0 1
33.363762 24.476695 -23.321292 47.498757 0.632942 2.084019 0.112384 -0.017767 677023.000000 0 0 1
31.966862 24.650595 -23.551192 46.735327 0.656888 2.098936 0.092009 -0.016787 132493.000000 0 0 1
31.704362 25.058295 -25.004492 47.521673 0.668844 2.124887 0.097641 -0.017426 -90255.400000 0 0 1
31.739162 26.419395 -25.299372 48.429507 0.694182 2.120455 0.121406 -0.024075 262526.000000 0 0 1
30.605862 26.869795 -26.045212 48.343126 0.720487 2.139758 0.100343 -0.019925 344359.000000 0 0 1
30.670462 26.669995 -27.578022 49.117341 0.715744 2.166960 0.101729 -0.015739 -26554.600000 0 0 1
30.342862 25.348995 -27.837802 48.354980 0.695968 2.184252 0.079947 -0.024962 -173080.000000 0 0 1
29.972662 25.168395 -29.186032 48.822465 0.698491 2.211549 0.072588 -0.026696 -439765.000000 0 0 1
29.250062 23.802295 -29.330802 47.774589 0.683070 2.231841 0.066835 -0.028981 -213551.000000 0 0 1
27.955262 23.965495 -28.818582 46.758447 0.708705 2.234869 0.056409 -0.023568 -396658.000000 0 0 1
27.195062 22.765495 -29.033532 45.834323 0.696968 2.256794 0.058361 -0.027142 691281.000000 0 0 1
25.744862 22.795195 -28.470772 44.643070 0.724705 2.262360 0.037770 -0.014530 422547.000000 0 0 1
25.821962 22.780895 -27.089282 43.812922 0.722910 2.237367 0.032329 -0.003327 611063.000000 0 0 1
24.523362 22.930195 -26.503282 42.773977 0.751838 2.239045 0.029543 -0.005947 396632.000000 0 0 1
24.463362 23.093495 -24.928992 41.871473 0.756601 2.208522 0.037127 -0.003676 -296027.000000 0 0 1
24.803162 21.836595 -24.361992 41.055334 0.721878 2.206065 0.036526 -0.007565 168075.000000 0 0 1
25.086462 21.980295 -22.990592 40.509645 0.719499 2.174304 0.055954 -0.008238 -126644.000000 0 0 1
25.665562 20.806595 -22.233692 39.824271 0.681220 2.163126 0.078873 -0.010644 -99056.200000 0 0 1
26.988262 20.453695 -22.546892 40.682703 0.648521 2.158214 0.054645 -0.009199 -130648.000000 0 0 1
27.225962 19.042895 -22.228592 39.974932 0.610349 2.160438 0.096135 -0.010197 261374.000000 0 0 1
28.415462 18.348295 -22.932992 40.865885 0.573357 2.166603 0.104841 -0.015989 1395520.000000 0 0 1
29.737962 18.603095 -22.424592 41.632726 0.559007 2.139605 0.106474 -0.026142 1085990.000000 0 0 1
30.823462 18.208695 -23.249792 42.687179 0.533584 2.146774 0.090517 -0.015008 977839.000000 0 0 1
32.096262 17.776695 -22.441292 43.009215 0.505799 2.119731 0.088329 -0.009344 306629.000000 0 0 1
32.860262 18.814595 -21.865492 43.725114 0.520001 2.094473 0.083041 -0.005012 -83485.800000 0 0 1
33.791362 18.157795 -21.021892 43.743361 0.493079 2.072105 0.072436 0.002650 89563.000000 0 0 1
34.586262 19.094895 -20.055292 44.306199 0.504450 2.040534 0.064608 -0.007145 630256.000000 0 0 1
33.639362 19.686495 -19.154992 43.429006 0.529482 2.027581 0.051369 -0.002847 568274.000000 0 0 1
34.252962 20.364195 -18.064192 43.752496 0.536383 1.996402 0.040035 -0.003744 -33562.800000 0 0 1
33.499062 20.235995 -16.692492 42.547879 0.543412 1.973952 0.053262 -0.011987 65008.700000 0 0 1
33.832962 19.046495 -16.014492 41.998837 0.512736 1.962007 0.053935 -0.017455 227794.000000 0 0 1
33.477162 18.997995 -14.640292 41.182307 0.516173 1.934245 0.063008 -0.022217 -285966.000000 0 0 1
34.208762 17.877095 -13.910392 41.028392 0.481554 1.916696 0.063038 -0.020835 -1106290.000000 0 0 1
35.599462 17.953095 -13.989992 42.253464 0.467088 1.908262 0.048726 -0.022315 -313836.000000 0 0 1
36.290762 17.091495 -13.053992 42.184658 0.440147 1.885410 0.044825 -0.017507 192110.000000 0 0 1
36.191262 17.439195 -11.569292 41.806477 0.449032 1.851190 0.078325 -0.025878 -312888.000000 0 0 1
36.948462 18.631095 -11.226792 42.875954 0.467038 1.835728 0.054689 -0.027637 348016.000000 0 0 1
36.721262 19.059795 -9.912592 42.543935 0.478763 1.805954 0.069139 -0.025702 -10250.600000 0 0 1
35.534962 20.057195 -9.717792 41.945919 0.513859 1.804595 0.070620 -0.026383 328105.000000 0 0 1
34.292462 19.429095 -9.951292 40.650842 0.515476 1.818109 0.101971 -0.040316 -3301.080000 0 0 1
33.193962 20.334995 -9.841092 40.152189 0.549641 1.818414 0.071758 -0.026034 1515240.000000 0 0 1
31.757362 19.675595 -9.972192 38.666571 0.554678 1.831647 0.058444 -0.021634 968629.000000 0 0 1
31.499062 19.247595 -11.261792 38.593896 0.548507 1.866907 0.071135 -0.030374 -767431.000000 0 0 1
30.258962 18.638595 -11.361692 37.310723 0.552079 1.880226 0.076726 -0.031899 -677738.000000 0 0 1
29.967362 18.057895 -12.743792 37.236200 0.542318 1.920098 0.108047 -0.024962 -596089.000000 0 0 1
30.642762 16.873995 -12.986292 37.314265 0.503356 1.926260 0.105511 -0.034213 -111563.000000 0 0 1
30.341962 16.229695 -14.223192 37.233545 0.491171 1.962755 0.099808 -0.030408 -148717.000000 0 0 1
31.568162 15.554795 -14.893892 38.214245 0.457820 1.971153 0.093826 -0.032899 173768.000000 0 0 1
32.243462 14.595795 -14.075892 38.089485 0.425076 1.949319 0.076513 -0.036205 427624.000000 0 0 1
33.374862 14.046195 -14.742992 39.096456 0.398360 1.957452 0.069790 -0.027339 201681.000000 0 0 1
34.255962 13.159295 -13.860092 39.226779 0.366765 1.931927 0.059144 -0.042637 -445755.000000 0 0 1
34.955962 13.885295 -12.877792 39.756235 0.378110 1.900665 0.061968 -0.026833 -319010.000000 0 0 1
35.649062 12.988095 -12.072092 39.815596 0.349385 1.878845 0.065113 -0.020575 -700112.000000 0 0 1
36.563562 13.743195 -11.142692 40.619319 0.359534 1.848679 0.074940 -0.016192 -994508.000000 0 0 1
-36.333448 14.207995 -11.780392 40.752475 -0.372762 1.864053 0.033543 -0.012488 -390038.000000 0 0 1
-35.435848 14.588395 -10.691692 39.784832 -0.390539 1.842879 0.027533 -0.003656 423964.000000 0 0 1
-34.016148 14.981895 -11.260392 38.837507 -0.414871 1.864956 0.040254 -0.014370 683347.000000 0 0 1
-33.143248 13.986395 -11.724792 37.836026 -0.399325 1.885868 0.050945 -0.008516 156470.000000 0 0 1
-32.856248 12.919595 -10.839592 36.931636 -0.374644 1.868687 0.076642 -0.004475 -1627400.000000 0 0 1
-31.690248 12.078095 -11.280392 35.740726 -0.364134 1.891903 0.099775 -0.011176 -672730.000000 0 0 1
-32.002748 11.238395 -12.321392 36.087312 -0.337716 1.919237 0.078466 -0.011985 16153.800000 0 0 1
-31.304848 10.024495 -12.206792 35.064081 -0.309904 1.926370 0.119443 -0.022814 -125993.000000 0 0 1
-31.316848 9.205395 -13.554892 35.344298 -0.285891 1.964390 0.128233 -0.034448 671119.000000 0 0 1
-32.553948 8.544895 -13.872692 36.403659 -0.256694 1.961760 0.087851 -0.026278 730950.000000 0 0 1
-32.360348 7.796995 -15.049392 36.530391 -0.236436 1.995410 0.105536 -0.031296 637586.000000 0 0 1
-33.683648 7.383695 -15.821892 37.939944 -0.215794 2.000966 0.115390 -0.028712 558132.000000 0 0 1
-34.364348 6.481195 -14.949792 38.031705 -0.186413 1.974783 0.121910 -0.031237 -138472.000000 0 0 1
-35.421248 5.878495 -15.662092 39.172984 -0.164461 1.982115 0.084597 -0.034709 -256252.000000 0 0 1
-36.464148 5.261195 -14.702392 39.667047 -0.143295 1.950500 0.082873 -0.027895 28643.600000 0 0 1
36.703362 4.276195 -15.261792 39.979306 0.115984 1.962477 0.089610 -0.026257 426932.000000 0 0 1
35.819262 3.795895 -14.244692 38.734218 0.105580 1.947390 0.104769 -0.028721 987544.000000 0 0 1
34.695162 2.775695 -14.693992 37.780579 0.079832 1.970266 0.113639 -0.024749 532729.000000 0 0 1
35.230462 1.496795 -15.029292 38.331521 0.042460 1.973696 0.118628 -0.024719 625437.000000 0 0 1
34.280462 0.392495 -14.927092 37.391473 0.011449 1.981453 0.101612 -0.021196 679955.000000 0 0 1
33.886662 -0.044605 -13.514892 36.482327 -0.001316 1.950290 0.126747 -0.030850 782992.000000 0 0 1
35.096462 -0.430305 -12.803892 37.361564 -0.012260 1.920588 0.152947 -0.029976 1252450.000000 0 0 1
35.089362 -0.263105 -11.353992 36.881509 -0.007498 1.883729 0.159784 -0.024901 -204040.000000 0 0 1
35.150362 1.263295 -10.875992 36.816180 0.035924 1.870685 0.157401 -0.035885 1041500.000000 0 0 1
33.933362 2.047795 -11.076592 35.754125 0.060274 1.885778 0.143703 -0.026211 1560450.000000 0 0 1
34.144062 3.327695 -10.452992 35.863011 0.097154 1.866560 0.142034 -0.031057 -231035.000000 0 0 1
33.056362 4.347395 -10.827392 35.055033 0.130764 1.884799 0.123743 -0.031012 -372666.000000 0 0 1
32.930762 4.714495 -12.207892 35.435776 0.142198 1.922510 0.122228 -0.029184 41441.200000 0 0 1
31.703362 5.330395 -12.457992 34.477788 0.166575 1.940494 0.114895 -0.029562 -328841.000000 0 0 1
31.826062 6.173495 -13.752292 35.215562 0.191597 1.971990 0.072643 -0.025962 -188814.000000 0 0 1
31.987062 5.395695 -14.969892 35.726508 0.167111 2.003155 0.068709 -0.017386 255799.000000 0 0 1
32.427262 6.051795 -16.172692 36.738366 0.184504 2.026632 0.055620 -0.008839 -459452.000000 0 0 1
31.390062 7.020495 -16.817492 36.296713 0.220032 2.052550 0.065754 -0.009915 913176.000000 0 0 1
30.260762 6.445895 -17.509392 35.550557 0.209875 2.085780 0.058359 -0.005055 1512050.000000 0 0 1
29.260762 5.895395 -16.600692 34.154515 0.198816 2.078357 0.061001 -0.002617 641996.000000 0 0 1
27.832762 5.627095 -17.213492 33.205891 0.199486 2.115760 0.051758 0.002548 765316.000000 0 0 1
27.739362 4.607195 -18.210392 33.500998 0.164586 2.145490 0.054960 0.000383 -169078.000000 0 0 1
26.681862 4.912395 -19.076292 33.165620 0.182071 2.183624 0.050900 -0.002584 -50558.300000 0 0 1
26.144062 3.672395 -19.896792 33.058748 0.139555 2.216627 0.051636 0.002315 -84548.000000 0 0 1
25.328262 2.830095 -19.137292 31.871088 0.111275 2.214872 0.065094 -0.011263 -116809.000000 0 0 1
24.894262 1.714295 -19.888792 31.909672 0.068755 2.243732 0.070567 -0.011368 489170.000000 0 0 1
23.767162 0.927595 -19.118592 30.516537 0.039009 2.247850 0.076919 -0.016708 1275270.000000 0 0 1
22.495562 1.546195 -18.893392 29.417704 0.068625 2.268221 0.073669 -0.024858 1240390.000000 0 0 1
21.458062 0.615795 -18.493692 28.334507 0.028690 2.281928 0.078765 -0.027600 400025.000000 0 0 1
20.172962 1.416695 -18.260192 27.246836 0.070112 2.305243 0.082654 -0.031352 -1455140.000000 0 0 1
19.493962 1.739795 -19.441392 27.586395 0.089012 2.352861 0.070615 -0.027605 353284.000000 0 0 1
18.364662 2.605395 -19.382292 26.827638 0.140930 2.378171 0.045824 -0.019374 126249.000000 0 0 1
17.143562 2.072995 -18.649192 25.416361 0.120336 2.394618 0.059519 -0.027214 -1701060.000000 0 0 1
17.239162 2.045395 -17.241492 24.467150 0.118096 2.352767 0.062535 -0.033019 -154225.000000 0 1 0
15.977562 1.728695 -16.707692 23.182275 0.107776 2.375622 0.032849 -0.020899 74906.100000 0 1 0
15.039662 2.933295 -16.434792 22.469937 0.192619 2.391187 0.035098 -0.022582 -565567.000000 0 1 0
14.530262 3.385595 -17.643892 23.106227 0.228919 2.439665 0.037685 -0.015162 -13514.100000 0 1 0
13.635962 4.477195 -17.466392 22.606627 0.317247 2.453758 0.042449 -0.019379 65872.500000 0 1 0
-20.160338 -22.063405 -17.043192 34.404992 0.830439 2.089057 0.100655 -0.023119 9515.420000 0 0 1
-19.898238 -22.412205 -18.364292 35.149595 0.844746 2.120531 0.097310 -0.028756 40597.500000 0 0 1
-20.955638 -22.037505 -19.206292 35.967653 0.810557 2.134107 0.105535 -0.024699 -263016.000000 0 0 1
-20.685638 -22.590105 -20.554992 36.887886 0.829378 2.161841 0.093187 -0.018313 -104102.000000 0 0 1
-20.930438 -23.984405 -20.542292 37.885626 0.853288 2.143872 0.093159 -0.017700 108733.000000 0 0 1
-20.350738 -24.638805 -21.632092 38.589774 0.880424 2.165865 0.085240 -0.017467 26940.000000 0 0 1
-20.173938 -26.186945 -21.375892 39.365881 0.914378 2.144809 0.088425 -0.008096 548708.000000 0 0 1
-21.494138 -26.722355 -21.391092 40.418573 0.893408 2.128500 0.093132 -0.005673 505319.000000 0 0 1
-21.318238 -28.117675 -21.248292 41.189329 0.922081 2.112818 0.118536 -0.013624 -356647.000000 0 0 1
-22.602138 -28.941165 -21.300292 42.451738 0.907768 2.096421 0.102531 -0.004409 -196005.000000 0 0 1
-23.334338 -28.878585 -22.531992 43.429882 0.891187 2.116258 0.070744 0.003220 15444.900000 0 0 1
-22.817938 -29.574555 -23.642092 44.207025 0.913652 2.135072 0.070823 0.004943 -494648.000000 0 0 1
-23.231238 -29.095035 -25.064842 44.882711 0.896995 2.163315 0.053965 0.007810 392299.000000 0 0 1
-24.530138 -29.521535 -25.475532 46.067900 0.877482 2.156757 0.043731 0.011387 643388.000000 0 0 1
-25.080138 -28.803655 -26.603612 46.544774 0.854391 2.179215 0.045434 0.008299 -204670.000000 0 0 1
-24.494338 -28.919205 -28.013602 47.128069 0.868051 2.207334 0.052852 -0.007645 -478624.000000 0 0 1
-24.919938 -30.120675 -28.611462 48.444547 0.879608 2.202601 0.032269 0.004878 164995.000000 0 0 1
-24.443538 -30.196955 -29.930642 49.042695 0.890307 2.227233 0.055138 -0.001409 70482.800000 0 0 1
-25.116568 -31.315135 -30.783302 50.587462 0.894802 2.224986 0.030186 0.000457 -20519.700000 0 0 1
-24.726038 -32.608275 -30.362682 50.956540 0.922020 2.209126 0.031795 0.002665 136235.000000 0 0 1
-25.557078 -33.661065 -30.838382 52.318613 0.921403 2.201155 0.030913 -0.000787 -201358.000000 0 0 1
-25.044538 33.034832 -30.507922 51.470985 -0.922115 2.205229 0.038314 -0.003300 -237815.000000 0 0 1
-24.021338 32.691143 -31.421442 51.313181 -0.937097 2.229821 0.045282 -0.010515 12383.900000 0 0 1
-23.560838 31.374177 -31.240022 50.153674 -0.926679 2.243223 0.051005 -0.003504 775945.000000 0 0 1
-22.366538 30.848887 -32.160702 49.862076 -0.943465 2.271811 0.050032 -0.000650 917812.000000 0 0 1
-22.715838 30.625727 -33.537352 50.780886 -0.932613 2.292191 0.043702 0.010286 17635.600000 0 0 1
-21.888738 29.637647 33.885637 50.057401 -0.934667 0.827205 0.038220 0.010902 -140040.000000 0 0 1
-21.819238 29.402037 32.387108 48.882345 -0.932371 0.846575 0.041014 0.004633 -106631.000000 0 0 1
-21.296838 30.492287 31.679864 48.856409 -0.961122 0.865279 0.044244 0.000808 198050.000000 0 0 1
-21.240738 30.287127 30.271704 47.800158 -0.959190 0.884990 0.057090 -0.002120 -205168.000000 0 0 1
-20.667738 31.505967 29.575404 47.900792 -0.990219 0.905324 0.066933 -0.016019 97311.300000 0 0 1
-21.652538 32.538453 29.417984 48.918311 -0.983640 0.925582 0.060415 -0.011638 341719.000000 0 0 1
-21.150838 33.818790 29.408084 49.557077 -1.011897 0.935497 0.075781 -0.030444 -436683.000000 0 0 1
-22.263938 -33.203135 29.270574 49.546923 0.980119 0.938790 0.088765 -0.036789 40489.800000 0 0 1
-22.686638 -32.732805 30.557424 50.198369 0.964726 0.916333 0.077651 -0.030033 342617.000000 0 0 1
-23.852938 -31.899525 30.565654 50.207584 0.928735 0.916267 0.081183 -0.030977 196645.000000 0 0 1
-23.795438 -30.397755 30.164104 48.991015 0.906630 0.907514 0.102953 -0.027875 -435984.000000 0 0 1
-23.468838 -30.281715 28.764594 47.907938 0.911476 0.926778 0.074464 -0.024924 73010.800000 0 0 1
-23.432238 -28.962615 28.312084 46.791847 0.890561 0.920949 0.087402 -0.030419 561014.000000 0 0 1
-24.745338 -28.594275 27.530104 46.774683 0.857432 0.941509 0.081099 -0.018168 1123740.000000 0 0 1
-25.940578 -28.549955 28.340354 47.866368 0.833248 0.937168 0.101228 -0.016575 1176120.000000 0 0 1
-26.862958 -29.653815 28.252164 48.981139 0.834739 0.955994 0.075670 -0.021851 13338.900000 0 0 1
-27.818978 -29.613215 27.068584 48.821576 0.816629 0.983108 0.058418 -0.004449 -1295610.000000 0 0 1
-27.175818 -29.626845 25.813424 47.776646 0.828521 1.000010 0.052851 -0.006147 -381586.000000 0 0 1
-27.948048 -29.809075 24.678004 47.735503 0.817609 1.027484 0.047115 -0.005952 -934146.000000 0 0 1
-27.070468 -29.903055 23.428754 46.646644 0.835075 1.044586 0.052348 -0.005227 -1016750.000000 0 0 1
-26.333888 -28.726685 23.240014 45.373939 0.828828 1.033065 0.045402 -0.011200 543476.000000 0 0 1
-25.448128 -28.732305 22.123774 44.301399 0.845940 1.047899 0.074473 -0.016886 252742.000000 0 0 1
-24.282938 -29.756705 22.070974 44.297296 0.886346 1.049221 0.082932 -0.024370 -1010200.000000 0 0 1
-24.615638 -31.094745 21.647174 45.181998 0.901178 1.071155 0.090270 -0.030873 367719.000000 0 0 1
-23.436338 -31.860085 21.554574 45.043608 0.936574 1.071820 0.087566 -0.014033 303926.000000 0 0 1
-22.790038 -32.379055 22.869074 45.725087 0.957490 1.047033 0.089678 -0.016803 -76764.700000 0 0 1
-22.278038 -31.419715 23.786154 45.269091 0.954025 1.017565 0.097460 -0.030108 -326864.000000 0 0 1
-21.463438 -32.157595 24.623404 45.837780 0.982255 1.003699 0.101080 -0.035489 -104089.000000 0 0 1
-20.471938 -31.281395 25.491374 45.248603 0.991303 0.972346 0.107084 -0.020864 -524213.000000 0 0 1
-19.267438 -30.986605 24.840084 44.141065 1.014502 0.973096 0.119874 -0.023455 280372.000000 0 0 1
-18.291638 -30.387605 25.714784 43.809139 1.028949 0.943481 0.131915 -0.022371 811488.000000 0 0 1
-17.590938 -31.294105 26.835054 44.820556 1.058698 0.928892 0.117705 -0.036713 -756884.000000 0 0 1
-18.474038 -31.767075 27.779614 46.066735 1.044056 0.923503 0.113713 -0.035322 -146562.000000 0 0 1
-17.769138 -32.556965 28.730354 46.916218 1.071194 0.911734 0.122174 -0.037236 6656.330000 0 0 1
-17.951438 -32.020685 30.126764 47.488949 1.059836 0.883570 0.139738 -0.035967 -165398.000000 0 0 1
-17.486838 -30.735315 30.322224 46.582039 1.053521 0.861971 0.143477 -0.029931 -66584.300000 0 0 1
-17.569738 -30.218855 31.652234 47.156535 1.044153 0.834948 0.144177 -0.022686 -88109.500000 0 0 1
-17.259238 -28.696705 31.793854 46.176090 1.029321 0.811329 0.145181 -0.028616 270533.000000 0 0 1
-18.174938 -27.797105 31.127084 45.518159 0.991724 0.817785 0.156440 -0.026801 421492.000000 0 0 1
-18.247338 -27.830515 29.724374 44.621086 0.990453 0.841760 0.150751 -0.023197 883136.000000 0 0 1
-16.931338 -27.383715 28.926974 43.281727 1.017030 0.838819 0.126009 -0.017402 1093020.000000 0 0 1
-16.759738 -25.968855 28.860004 42.286760 0.997677 0.819642 0.111148 -0.009335 -97135.600000 0 0 1
-15.586638 -25.788225 28.119594 41.215136 1.027141 0.819942 0.089516 -0.011861 -339142.000000 0 0 1
-15.676138 -24.411105 27.328204 39.855666 0.999944 0.815260 0.084111 -0.008903 54849.600000 0 0 1
-16.732838 -24.523705 26.378424 39.714245 0.972040 0.844366 0.101352 -0.015272 362861.000000 0 0 1
-16.616638 -23.411805 25.506584 38.403269 0.953554 0.844403 0.082324 -0.013331 194718.000000 0 0 1
-17.250338 -22.070205 26.019434 38.231911 0.907369 0.822258 0.079436 -0.017714 -341769.000000 0 0 1
-17.026438 -20.971305 25.114734 36.884212 0.888846 0.821795 0.070805 -0.018794 73207.800000 0 0 1
-17.477838 -19.730105 25.565114 36.719571 0.845856 0.800670 0.075802 -0.020317 -115960.000000 0 0 1
-17.159538 -18.673305 24.414214 35.202215 0.827618 0.804402 0.058426 -0.025148 199836.000000 0 0 1
-15.809638 -18.264805 24.395044 34.331704 0.857327 0.780490 0.061513 -0.023510 -153113.000000 0 0 1
-15.747338 -17.200405 23.504034 33.110001 0.829472 0.781473 0.056909 -0.017459 600119.000000 0 0 1
-14.359538 -16.474405 23.534864 32.116852 0.853880 0.748385 0.048320 -0.015084 352116.000000 0 0 1
-13.263038 -17.309105 23.189124 31.831569 0.916978 0.754675 0.022733 -0.013286 -508305.000000 0 0 1
-12.041038 -16.657905 23.282714 31.057321 0.944904 0.723234 0.017661 -0.015300 -788739.000000 0 0 1
-11.595538 -15.709405 22.167074 29.540160 0.934937 0.722122 0.024677 -0.018065 -446202.000000 0 0 1
-11.018138 -16.275905 20.980674 28.748794 0.975701 0.752777 0.061638 -0.018735 355654.000000 0 0 1
-9.653038 -16.643705 21.131574 28.578619 1.045227 0.738589 0.056926 -0.017429 -61002.500000 0 0 1
-9.361638 -17.954105 20.403074 28.745010 1.090160 0.781589 0.055094 -0.020291 -151919.000000 0 0 1
-9.477338 -17.825605 18.975374 27.706262 1.082135 0.816362 0.046253 -0.021242 -165550.000000 0 0 1
-9.095838 -19.032205 18.306874 27.930283 1.124970 0.856019 0.042755 -0.024322 -4249.120000 0 0 1
-8.563938 -18.649505 16.886974 26.576587 1.140314 0.882260 0.047433 -0.032095 67773.600000 0 0 1
-7.383938 -17.869905 16.898174 25.678869 1.178958 0.852560 0.067434 -0.033112 -225867.000000 0 0 1
-7.088938 -17.644605 15.543074 24.559566 1.188772 0.885539 0.082406 -0.032988 333478.000000 0 1 0
-5.992538 -16.558405 15.351774 23.361683 1.223557 0.853785 0.063611 -0.032127 316335.000000 0 1 0
-6.488238 -15.245405 15.644474 22.787478 1.168429 0.814079 0.067654 -0.037641 175625.000000 0 1 0
-5.419738 -14.312305 15.725274 21.943105 1.208806 0.771826 0.050177 -0.026757 -151269.000000 0 1 0
-5.691538 -13.144705 16.681374 21.987385 1.162177 0.709513 0.035318 -0.016691 -161401.000000 0 1 0
-5.629338 -13.452405 18.104474 23.247121 1.174475 0.678072 0.056258 -0.016525 -50413.600000 0 1 0
-6.579038 -14.353805 18.662974 24.446310 1.141022 0.702194 0.079277 -0.024106 -193037.000000 0 1 0
-7.843938 -13.705505 19.202274 24.861528 1.050978 0.688234 0.086209 -0.028881 -490181.000000 0 1 0
-7.684638 -12.897005 20.374574 25.308292 1.033436 0.635028 0.081233 -0.030608 -159343.000000 0 0 1
-8.909838 -12.431105 20.931174 25.923573 0.948925 0.631033 0.084435 -0.026443 597954.000000 0 0 1
-8.628038 -11.514305 22.136174 26.401372 0.927723 0.576367 0.109003 -0.027220 -563755.000000 0 0 1
-8.290538 -10.214305 21.744374 25.414225 0.888986 0.544090 0.107910 -0.027036 71574.800000 0 0 1
-7.814738 -9.565305 22.936474 26.050855 0.885782 0.493986 0.104123 -0.028037 1358540.000000 0 0 1
-6.305838 -9.849905 23.368184 26.131518 1.001346 0.464037 0.122434 -0.030278 1009150.000000 0 0 1
-5.952538 -11.070205 24.004134 27.095767 1.077439 0.482366 0.117018 -0.029919 -247537.000000 0 0 1
-4.595238 -11.182405 24.363864 27.198534 1.180899 0.460617 0.108801 -0.028314 -11511.900000 0 0 1
-4.397938 -12.462205 25.186054 28.442675 1.231538 0.483222 0.103760 -0.026307 365707.000000 0 0 1
-3.034638 -12.762005 25.508954 28.684221 1.337345 0.474978 0.089255 -0.030108 590606.000000 0 0 1
-2.993138 -13.805005 26.418464 29.957842 1.357286 0.491015 0.087819 -0.032511 95835.400000 0 0 1
-3.068738 -15.256905 25.845584 30.169265 1.372307 0.541986 0.095865 -0.042494 403062.000000 0 0 1
-1.857238 -15.682805 25.219094 29.755712 1.452920 0.559467 0.085082 -0.038212 468607.000000 0 0 1
-2.018538 -17.000805 24.733104 30.080364 1.452618 0.605471 0.091105 -0.034633 149414.000000 0 0 1
-0.656538 -17.774005 24.680854 30.421881 1.533875 0.624447 0.082679 -0.037817 793886.000000 0 0 1
-0.069738 -18.138905 25.913424 31.631160 1.566952 0.610717 0.077341 -0.034161 -2267.080000 0 0 1
0.731862 -17.133105 26.487074 31.553827 -1.528106 0.574572 0.083508 -0.030352 -22053.700000 0 0 1
1.463962 -17.562405 27.842894 32.951601 -1.487631 0.564300 0.071694 -0.020375 169131.000000 0 0 1
2.624162 -18.372005 27.655824 33.305576 -1.428921 0.591032 0.073257 -0.029277 561784.000000 0 0 1
3.344162 -18.601905 28.895784 34.527969 -1.392921 0.579237 0.073999 -0.032869 405741.000000 0 0 1
4.180462 -17.477505 29.520404 34.560002 -1.336016 0.546828 0.082265 -0.033135 -540770.000000 0 0 1
3.417862 -16.348805 29.891984 34.241728 -1.364706 0.509539 0.078229 -0.031326 683235.000000 0 0 1
4.332362 -15.332005 30.355584 34.282667 -1.295406 0.483335 0.095586 -0.038314 716377.000000 0 0 1
3.507162 -14.237805 31.107734 34.390499 -1.329277 0.440486 0.105891 -0.042073 335619.000000 0 0 1
2.938462 -14.843505 32.261728 35.634019 -1.375360 0.438562 0.093199 -0.043182 -239878.000000 0 0 1
2.038362 -13.921405 32.803154 35.693240 -1.425410 0.405184 0.088524 -0.035603 1810.310000 0 0 1
1.172562 -14.430205 -33.973302 36.929541 -1.489717 2.738747 0.072471 -0.028948 575219.000000 0 0 1
1.986662 -14.782305 -32.882602 36.107186 -1.437202 2.715758 0.086559 -0.030344 369454.000000 0 0 1
1.120562 -15.159405 -31.802012 35.248137 -1.497012 2.695715 0.073721 -0.033769 761637.000000 0 0 1
1.929362 -15.468405 -30.525222 34.275110 -1.446708 2.669447 0.074446 -0.028038 32235.500000 0 0 1
1.135162 -15.957605 -29.500732 33.559305 -1.499780 2.644689 0.057273 -0.025326 -676561.000000 0 0 1
1.876862 -16.085305 -28.323882 32.626706 -1.454640 2.622198 0.059693 -0.028574 4844.530000 0 0 1
1.559562 -17.377505 -27.573592 32.629939 -1.481290 2.577436 0.067607 -0.036649 -43995.900000 0 0 1
2.256862 -18.482305 -28.103782 33.712188 -1.449289 2.556460 0.053401 -0.026141 -93027.400000 0 0 1
1.955062 -19.632505 -27.329392 33.706872 -1.471541 2.516307 0.062478 -0.031923 -816527.000000 0 0 1
2.838962 -20.881105 -27.636502 34.754230 -1.435666 2.490131 0.045054 -0.025472 -218052.000000 0 0 1
4.142262 -20.913105 -27.137222 34.510073 -1.375257 2.475685 0.035600 -0.023879 -343705.000000 0 0 1
4.227662 -20.839405 -25.716912 33.369350 -1.370644 2.450696 0.048836 -0.030192 -1657790.000000 0 0 1
5.541162 -21.504605 -25.299682 33.663429 -1.318609 2.421202 0.029648 -0.027679 -457564.000000 0 0 1
5.569762 -22.956705 -25.314012 34.624150 -1.332775 2.390742 0.039207 -0.024496 153314.000000 0 0 1
5.628362 -23.604705 -26.558692 35.975334 -1.336725 2.401265 0.023876 -0.018643 -87766.500000 0 0 1
4.922662 -25.000805 -26.610342 36.842681 -1.376383 2.377874 0.035500 -0.008990 360792.000000 0 0 1
5.682562 -25.942045 -25.848102 37.059487 -1.355154 2.342666 0.040291 -0.011228 344345.000000 0 0 1
5.188062 -27.290115 -26.022902 38.063865 -1.382930 2.323568 0.050008 -0.010716 61060.100000 0 0 1
5.994362 -28.253345 -25.135032 38.287775 -1.361732 2.286935 0.057348 -0.008511 693387.000000 0 0 1
7.364262 -28.483265 -25.504382 38.935873 -1.317790 2.285026 0.062299 -0.016150 403050.000000 0 0 1
7.799362 -29.650145 -24.938092 39.520496 -1.313577 2.253659 0.063342 -0.014660 467644.000000 0 0 1
9.271562 -30.057515 -25.279632 40.354378 -1.271596 2.247775 0.085454 -0.018541 583351.000000 0 0 1
9.402162 -30.252505 -26.639042 41.391464 -1.269470 2.269973 0.087053 -0.019748 -174017.000000 0 0 1
10.709162 -30.535095 -27.083402 42.197024 -1.233483 2.267681 0.104120 -0.025912 32386.400000 0 0 1
10.901562 -30.471465 -28.631032 43.209839 -1.227223 2.295087 0.113635 -0.028123 31375.500000 0 0 1
10.145362 -31.463255 -29.290052 44.167544 -1.258872 2.295826 0.107738 -0.033859 98122.900000 0 0 1
9.915262 -31.057365 -30.605812 44.716754 -1.261768 2.324628 0.110393 -0.027195 7223.180000 0 0 1
-34.972257 -4.782605 -5.415192 35.710732 0.135911 1.723024 0.213242 -0.050968 6233.960000 0 0 1
-34.640678 -4.105805 -4.203792 35.135538 0.117975 1.690729 0.175086 -0.054949 441689.000000 0 0 1
-33.755098 -2.999705 -4.298892 34.159703 0.088634 1.696978 0.172631 -0.057195 -119086.000000 0 0 1
-34.345598 -1.761905 -5.043792 34.758657 0.051254 1.716419 0.233138 -0.045030 -93900.400000 0 0 1
-35.328833 -1.102505 -4.240692 35.599514 0.031197 1.690202 0.183012 -0.036904 322917.000000 0 0 1
-35.770689 0.051495 -4.843992 36.097217 -0.001440 1.705395 0.166957 -0.041042 153081.000000 0 0 1
37.011362 0.597995 -4.091792 37.241661 0.016156 1.680890 0.175940 -0.040346 211136.000000 0 0 1
-36.788808 1.192595 -2.843592 36.917810 -0.032406 1.647898 0.170561 -0.033357 -210826.000000 0 0 1
36.187962 1.965895 -2.338592 36.316696 0.054271 1.635235 0.155347 -0.037856 -701684.000000 0 0 1
36.646112 3.027395 -1.257592 36.792448 0.082424 1.604984 0.135779 -0.036145 54398.400000 0 0 1
-36.682888 4.169995 -1.614192 36.954414 -0.113191 1.614491 0.160833 -0.046861 894637.000000 0 0 1
-35.463646 3.949295 -2.356792 35.760615 -0.110905 1.636749 0.143733 -0.010213 100730.000000 0 0 1
-34.543462 5.167395 -2.537992 35.019911 -0.148490 1.643333 0.122824 -0.015371 -214245.000000 0 0 1
-33.963718 5.615295 -1.357992 34.451557 -0.163850 1.610224 0.132038 -0.022239 159817.000000 0 0 1
-33.487798 6.936495 -1.457492 34.229693 -0.204247 1.613389 0.135084 -0.030112 -264561.000000 0 0 1
-32.868078 7.398095 -0.154392 33.690743 -0.221395 1.575379 0.144400 -0.034915 542186.000000 0 0 1
-31.579488 6.786495 0.173508 32.300939 -0.211682 1.565425 0.163822 -0.031563 1688470.000000 0 0 1
-30.948098 7.352395 1.316408 31.836699 -0.233248 1.529436 0.165464 -0.047438 141945.000000 0 0 1
-30.650678 8.880695 1.442608 31.943887 -0.282017 1.525620 0.155141 -0.044118 -353816.000000 0 0 1
-31.884098 9.568395 1.616308 33.328101 -0.291548 1.522280 0.151051 -0.045184 313103.000000 0 0 1
-31.737918 10.923095 1.675208 33.606781 -0.331468 1.520928 0.141278 -0.031116 4600.010000 0 0 1
-33.060228 11.710895 1.548808 35.107300 -0.340437 1.526666 0.137094 -0.028274 -701088.000000 0 0 1
-33.511078 11.860395 0.210508 35.548637 -0.340167 1.564875 0.118703 -0.024216 153282.000000 0 0 1
-34.720422 12.560495 0.097108 36.922665 -0.347114 1.568166 0.117531 -0.015662 790374.000000 0 0 1
-36.065945 11.860095 0.552108 37.969976 -0.317705 1.556255 0.141566 -0.021813 266825.000000 0 0 1
-36.458308 10.869995 -0.371792 38.046067 -0.289757 1.580569 0.137243 -0.017660 -223811.000000 0 0 1
36.327862 10.372595 0.018708 37.779686 0.278127 1.570301 0.143330 -0.024940 2830.030000 0 0 1
35.842582 9.125595 -0.734692 36.993337 0.249305 1.590658 0.147024 -0.035585 181948.000000 0 0 1
35.313592 9.491995 -2.006192 36.622023 0.262585 1.625605 0.137538 -0.029887 121006.000000 0 0 1
34.937872 8.353295 -2.798892 36.031462 0.234684 1.648554 0.125754 -0.037136 115577.000000 0 0 1
34.350242 8.781295 -4.167292 35.698972 0.250280 1.687797 0.104517 -0.025620 -114843.000000 0 0 1
33.062532 9.341195 -4.185492 34.610798 0.275354 1.692023 0.119373 -0.030396 -18304.700000 0 0 1
32.755732 9.630995 -5.518592 34.585386 0.285966 1.731046 0.096531 -0.018851 405280.000000 0 0 1
31.405392 10.380895 -5.828092 33.586133 0.319239 1.745206 0.132460 -0.027862 791853.000000 0 0 1
30.272222 9.546495 -5.595992 32.231323 0.305484 1.745300 0.125473 -0.020460 525529.000000 0 0 1
29.071012 10.156695 -6.043592 31.381638 0.336118 1.764591 0.154049 -0.016259 298649.000000 0 0 1
27.914072 9.113995 -6.038092 29.978641 0.315590 1.773597 0.175027 -0.007845 -72806.600000 0 0 1
27.961472 8.289795 -7.165692 30.031846 0.288217 1.811723 0.158154 -0.018928 -401840.000000 0 0 1
26.828872 7.509595 -7.276192 28.794538 0.272923 1.826259 0.182872 -0.021038 -755283.000000 0 0 1
26.829072 6.490495 -8.399392 28.852651 0.237360 1.866187 0.165313 -0.026013 416107.000000 0 0 1
27.820372 5.421295 -8.354492 29.549300 0.192456 1.857436 0.159511 -0.024886 1163400.000000 0 0 1
27.513072 4.353195 -9.284392 29.361870 0.156922 1.892524 0.152441 -0.025237 -219972.000000 0 0 1
28.454772 3.122395 -9.103692 30.038320 0.109295 1.878708 0.137413 -0.018460 -812452.000000 0 0 1
29.766122 3.409195 -9.462492 31.419475 0.114036 1.876712 0.155883 -0.016679 -487667.000000 0 0 1
30.779162 3.084395 -8.563492 32.096787 0.099877 1.840870 0.116031 -0.024202 -565374.000000 0 0 1
31.050512 1.589595 -8.121792 32.134478 0.051149 1.826311 0.122101 -0.024432 -739372.000000 0 0 1
30.059762 1.107195 -7.228492 30.936488 0.036816 1.806632 0.158882 -0.037979 303188.000000 0 0 1
30.295192 -0.205905 -6.690292 31.025813 -0.006797 1.788140 0.158054 -0.031096 -404729.000000 0 0 1
29.918272 -1.471705 -7.487692 30.876115 -0.049151 1.815746 0.149447 -0.033396 -442253.000000 0 0 1
30.720362 -1.705505 -8.607692 31.949050 -0.055460 1.843586 0.155815 -0.033375 145895.000000 0 0 1
30.527602 -3.059005 -9.087992 31.998182 -0.099871 1.858776 0.123138 -0.024526 -81770.000000 0 0 1
31.303162 -3.372005 -10.401692 33.158010 -0.107307 1.889884 0.124543 -0.027651 -885397.000000 0 0 1
32.677712 -3.272605 -10.297392 34.417715 -0.099815 1.874639 0.173007 -0.034557 -873340.000000 0 0 1
33.344612 -3.888005 -11.359092 35.440214 -0.116077 1.897069 0.136718 -0.038891 412122.000000 0 0 1
34.878062 -4.011705 -11.106692 36.822977 -0.114518 1.877192 0.169900 -0.033386 370923.000000 0 0 1
35.325102 -5.111905 -10.349492 37.163240 -0.143713 1.853015 0.150299 -0.044351 951136.000000 0 0 1
36.756882 -5.145805 -10.245192 38.503398 -0.139092 1.840126 0.165778 -0.031931 796684.000000 0 0 1
-36.838238 -6.455005 -9.486692 38.583937 0.173465 1.819215 0.161497 -0.049429 -103936.000000 0 0 1
36.814382 -6.546305 -8.113492 38.262013 -0.175980 1.784469 0.161588 -0.046357 396531.000000 0 0 1
36.807252 -7.911605 -7.695692 38.426436 -0.211725 1.772431 0.143637 -0.044814 -404561.000000 0 0 1
36.455002 -8.046605 -6.210992 37.845627 -0.217244 1.735656 0.171814 -0.041868 -477974.000000 0 0 1
-36.585778 -7.687505 -5.278892 37.755577 0.207110 1.711073 0.162619 -0.038523 312724.000000 0 0 1
-36.725948 -8.272305 -4.004192 37.858418 0.221547 1.676762 0.168480 -0.039979 -346621.000000 0 0 1
-36.397588 -9.822705 -3.968192 37.908000 0.263593 1.675668 0.165335 -0.043713 257542.000000 0 0 1
36.614372 -10.526105 -4.674392 38.383083 -0.279937 1.692882 0.127794 -0.038666 1012810.000000 0 0 1
-36.875778 -11.639005 -5.435192 39.049081 0.305731 1.710438 0.102457 -0.038301 362866.000000 0 0 1
36.197202 -12.087705 -6.559092 38.721722 -0.322297 1.741008 0.083528 -0.033925 -117545.000000 0 0 1
36.329912 -11.229705 -7.709392 38.799530 -0.299788 1.770826 0.116136 -0.037056 250049.000000 0 0 1
35.784362 -11.820505 -8.868092 38.715475 -0.319041 1.801906 0.092144 -0.031115 -30242.300000 0 0 1
36.196582 -11.061005 -10.128892 39.180772 -0.296570 1.832283 0.070309 -0.039449 118427.000000 0 0 1
35.318792 -9.965105 -10.337592 38.125926 -0.274999 1.845377 0.083917 -0.040277 514111.000000 0 0 1
35.521182 -9.481305 -11.662192 38.570147 -0.260839 1.877967 0.093154 -0.035646 -935428.000000 0 0 1
34.586262 -8.389205 -12.009592 37.560865 -0.237963 1.896248 0.099542 -0.032981 -896380.000000 0 0 1
34.700622 -7.985005 -13.370692 38.035101 -0.226174 1.930007 0.106443 -0.024870 440522.000000 0 0 1
33.832872 -6.926005 -13.711492 37.156935 -0.201922 1.948746 0.091684 -0.032019 -173869.000000 0 0 1
34.001622 -6.403805 -15.123692 37.760364 -0.186158 1.982878 0.083974 -0.028852 -395956.000000 0 0 1
35.040302 -5.453705 -15.144392 38.560580 -0.154402 1.974409 0.082494 -0.029487 -27272.800000 0 0 1
34.632062 -4.111805 -15.343792 38.101426 -0.118175 1.985271 0.098589 -0.029867 -807997.000000 0 0 1
35.662072 -3.015305 -15.411892 38.966677 -0.084352 1.977424 0.110920 -0.033085 -705516.000000 0 0 1
36.576382 -3.105305 -16.497392 40.244734 -0.084696 1.993170 0.095745 -0.030801 1660640.000000 0 0 1
-36.093628 -2.652305 -16.334292 39.706344 0.073352 1.994761 0.131297 -0.032600 1487160.000000 0 0 1
-35.846033 -1.179805 -15.934592 39.245907 0.032901 1.988890 0.127381 -0.026052 -670851.000000 0 0 1
-36.132958 -0.276605 -16.969092 39.920136 0.007655 2.009842 0.105525 -0.019841 58706.100000 0 0 1
-35.939490 1.037195 -16.494192 39.557314 -0.028851 2.000905 0.111869 -0.018970 -48380.300000 0 0 1
-36.254618 2.098095 -17.597192 40.354188 -0.057807 2.022022 0.082523 -0.018934 106444.000000 0 0 1
-35.265414 2.200795 -18.608492 39.934558 -0.062326 2.055532 0.083303 -0.012045 167903.000000 0 0 1
-35.367529 3.333195 -19.447892 40.499294 -0.093967 2.071683 0.062984 -0.005970 -444454.000000 0 0 1
-34.590690 3.400095 -20.786392 40.498772 -0.097980 2.109775 0.067410 0.000757 -1062410.000000 0 0 1
-33.282028 3.769095 -20.529192 39.285458 -0.112767 2.120653 0.079942 -0.005469 -992151.000000 0 0 1
-32.632628 4.048195 -21.707692 39.401779 -0.123423 2.154277 0.070773 -0.005933 -691413.000000 0 0 1
-31.178038 4.492595 -21.519092 38.148719 -0.143110 2.170120 0.104516 -0.017743 -374294.000000 0 0 1
-30.357008 3.445295 -21.083892 37.120729 -0.113009 2.174848 0.112435 -0.009234 -125704.000000 0 0 1
-29.013378 3.725795 -21.416292 36.253486 -0.127717 2.202769 0.096563 -0.014292 -77223.500000 0 0 1
-27.915938 2.853695 -20.810692 34.936057 -0.101871 2.208908 0.118387 -0.022416 195333.000000 0 0 1
-27.294258 3.330995 -19.577992 33.754553 -0.121440 2.189538 0.103385 -0.017968 391635.000000 0 0 1
-26.872368 2.274295 -18.768492 32.856550 -0.084432 2.178794 0.103667 -0.023842 -169101.000000 0 0 1
-25.989328 2.602095 -17.549192 31.467288 -0.099789 2.162404 0.087290 -0.027387 -533327.000000 0 0 1
-24.848238 3.369995 -17.712692 30.700672 -0.134801 2.185783 0.083706 -0.030409 -577262.000000 0 0 1
-24.170338 3.425495 -16.498992 29.464487 -0.140786 2.165136 0.089035 -0.035963 -303366.000000 0 0 1
-22.983138 4.434295 -16.454492 28.611849 -0.190595 2.183515 0.097646 -0.041098 646124.000000 0 0 1
-21.759838 3.853995 -16.878792 27.807147 -0.175297 2.223070 0.116867 -0.048269 40919.300000 0 0 1
-20.785638 4.787895 -17.237392 27.424339 -0.226397 2.250476 0.107686 -0.045726 19952.500000 0 0 1
-19.464138 4.208995 -17.807392 26.714631 -0.212965 2.300405 0.147826 -0.046958 -181808.000000 0 0 1
-18.905438 3.348595 -16.908992 25.584032 -0.175305 2.292840 0.173911 -0.045496 -701272.000000 0 0 1
-17.847838 2.664995 -17.504292 25.140560 -0.148222 2.340966 0.147409 -0.047264 -852418.000000 0 0 1
-17.857538 1.132595 -17.108392 24.756242 -0.063339 2.333770 0.160929 -0.036467 486363.000000 0 1 0
-18.896838 0.337095 -17.674392 25.876403 -0.017837 2.322701 0.130996 -0.035918 839874.000000 0 0 1
-20.205538 0.525395 -17.144192 26.504021 -0.025997 2.274246 0.131571 -0.038934 -313432.000000 0 0 1
-21.217238 -0.479705 -17.638992 27.595930 0.022605 2.264239 0.117265 -0.036584 -686839.000000 0 0 1
-21.237138 -1.757105 -16.993092 27.255616 0.082549 2.243971 0.118445 -0.038748 48700.600000 0 0 1
-22.268138 -2.518905 -17.536492 28.455991 0.112638 2.234790 0.111776 -0.029174 -383419.000000 0 0 1
-22.624238 -3.616505 -16.511392 28.241128 0.158510 2.195254 0.127120 -0.039763 -50530.000000 0 0 1
-22.877138 -3.164805 -15.222192 27.660343 0.137467 2.153550 0.123226 -0.036076 319296.000000 0 0 1
-23.144538 -4.316805 -14.415592 27.606407 0.184396 2.120205 0.134557 -0.048422 -82897.700000 0 0 1
-23.155438 -4.014805 -12.873192 26.795747 0.171678 2.071929 0.122811 -0.044086 130574.000000 0 0 1
-24.423038 -3.531205 -12.452092 27.640709 0.143590 2.038120 0.114383 -0.041550 597702.000000 0 0 1
-24.373538 -2.782705 -11.284892 27.002992 0.113677 2.001943 0.118583 -0.047627 -73488.800000 0 0 1
-25.463158 -1.657205 -11.163192 27.852030 0.064991 1.983190 0.140799 -0.044364 152638.000000 0 0 1
-25.624568 -1.207205 -9.826192 27.470527 0.047076 1.936599 0.131520 -0.048998 521435.000000 0 0 1
-26.243998 0.048695 -9.732592 27.990590 -0.001855 1.925923 0.131313 -0.047233 -435978.000000 0 0 1
-26.532888 0.418595 -8.253792 27.790186 -0.015775 1.872350 0.146653 -0.035229 442433.000000 0 0 1
-25.352578 0.754695 -7.500292 26.449521 -0.029759 1.858311 0.138490 -0.032173 1166150.000000 0 0 1
-25.677908 0.955495 -6.177592 26.427837 -0.037194 1.806732 0.142166 -0.034541 282235.000000 0 0 1
-24.370738 1.288395 -5.401892 24.995465 -0.052817 1.788630 0.105660 -0.026659 269736.000000 0 1 0
-24.024338 2.647095 -5.620392 24.814607 -0.109741 1.799274 0.129750 -0.024259 494958.000000 0 1 0
-22.678738 2.962595 -5.303392 23.478247 -0.129898 1.798648 0.113413 -0.008995 229180.000000 0 1 0
-22.240938 4.472395 -5.395392 23.318917 -0.198442 1.804286 0.116388 -0.014628 -188052.000000 0 1 0
-22.567338 5.224995 -4.241892 23.549500 -0.227520 1.751912 0.114805 -0.013929 637675.000000 0 1 0
-22.340438 6.562895 -4.509092 23.717054 -0.285729 1.762081 0.116656 -0.016871 -430837.000000 0 1 0
-22.912038 7.496395 -3.386692 24.343934 -0.316204 1.710368 0.128313 -0.008755 -229272.000000 0 1 0
-22.196138 7.496895 -2.164792 23.527820 -0.325726 1.662937 0.105143 -0.007788 765225.000000 0 1 0
-20.837238 7.900895 -2.128092 22.386232 -0.362423 1.666003 0.112451 -0.008566 -65059.400000 0 1 0
-20.505238 9.398195 -2.381692 22.681784 -0.429761 1.675995 0.111383 -0.008864 -590620.000000 0 1 0
-20.596538 9.848095 -3.750992 23.135952 -0.446010 1.733643 0.112516 -0.007453 444205.000000 0 1 0
-19.947538 11.088295 -3.903292 23.153623 -0.507341 1.740188 0.107994 -0.007877 -113656.000000 0 1 0
-19.812338 11.465495 -5.415492 23.522625 -0.524614 1.803105 0.103420 -0.012262 236561.000000 0 1 0
-18.673838 10.904695 -6.062392 22.458344 -0.528539 1.844126 0.064139 -0.010008 401861.000000 0 1 0
-18.638138 11.448195 -7.372792 23.082448 -0.550821 1.895904 0.066422 -0.008544 658277.000000 0 1 0
-17.309538 11.016595 -8.093892 22.056667 -0.566788 1.946534 0.049243 -0.006144 320151.000000 0 1 0
-17.204538 9.653795 -8.524692 21.490981 -0.511340 1.978676 0.044492 -0.007466 198844.000000 0 1 0
-18.055438 9.215695 -9.581392 22.421663 -0.471942 2.012331 0.066682 -0.006129 10974.700000 0 1 0
-18.117138 10.010195 -10.957992 23.420339 -0.504781 2.057691 0.069193 -0.007246 482061.000000 0 1 0
-16.995038 9.622395 -11.752092 22.793277 -0.515187 2.112498 0.065455 -0.011371 363600.000000 0 1 0
-17.026338 10.349795 -12.967892 23.773529 -0.546186 2.147753 0.076154 -0.025569 97114.600000 0 1 0
-15.845338 9.915595 -13.861392 23.270839 -0.559155 2.208877 0.060851 -0.018322 -332731.000000 0 1 0
-15.963338 8.702995 -14.557392 23.291371 -0.499140 2.245944 0.072706 -0.031890 93066.000000 0 1 0
-15.567438 7.580695 -13.728492 22.097139 -0.453160 2.241170 0.058584 -0.024476 -216140.000000 0 1 0
-15.773938 6.207495 -14.370792 22.223181 -0.374915 2.273991 0.077473 -0.033176 -78034.600000 0 1 0
-14.930838 6.008395 -15.495392 22.341395 -0.382587 2.337234 0.097636 -0.029152 309373.000000 0 1 0
-15.025338 4.726695 -16.109792 22.530598 -0.304780 2.367447 0.101686 -0.030241 22700.200000 0 1 0
33.115222 -15.639505 28.425574 46.359738 -0.441223 0.910752 0.038705 -0.008269 -79149.700000 0 0 1
32.310592 -14.517605 28.712764 45.597786 -0.422283 0.889634 0.046284 -0.009518 -66158.900000 0 0 1
31.218302 -14.700405 29.599844 45.462458 -0.440090 0.861786 0.061171 -0.015411 248964.000000 0 0 1
31.452522 -14.676605 31.115874 46.613963 -0.436595 0.839920 0.052529 -0.023659 -209931.000000 0 0 1
32.078552 -13.457105 31.480834 46.916630 -0.397207 0.835246 0.031254 -0.027037 138285.000000 0 0 1
32.469032 -13.450705 32.847603 48.105349 -0.392741 0.819172 0.017351 -0.026679 -422255.000000 0 0 1
32.962382 -12.089905 33.323445 48.405955 -0.351544 0.811493 0.024967 -0.025991 -44476.400000 0 0 1
32.958532 -12.108305 -33.224702 48.340012 -0.352073 2.328579 0.012813 -0.037073 59499.500000 0 0 1
33.118732 -10.757705 -32.770152 47.816959 -0.314071 2.325846 0.046086 -0.032871 -182945.000000 0 0 1
32.557932 -10.485705 -31.363142 46.407065 -0.311573 2.312882 0.047291 -0.026869 -552792.000000 0 0 1
31.164622 -10.452605 -31.372442 45.439199 -0.323609 2.332875 0.093729 -0.031495 -599248.000000 0 0 1
30.733162 -9.992905 -30.084592 44.152781 -0.314368 2.320436 0.075839 -0.026979 948720.000000 0 0 1
29.177002 -10.193305 -29.893232 42.997747 -0.336105 2.339533 0.078831 -0.004560 1091140.000000 0 0 1
28.651472 -10.009005 -28.593572 41.697475 -0.336084 2.326414 0.075319 -0.010526 -234948.000000 0 0 1
27.746572 -11.003905 -28.287032 41.123161 -0.377560 2.329335 0.110814 -0.010664 -954926.000000 0 0 1
27.254372 -10.927605 -26.811212 39.762476 -0.381324 2.310791 0.102445 -0.005889 -799305.000000 0 0 1
26.429372 -9.810105 -26.426612 38.640856 -0.355419 2.323896 0.102343 -0.011410 574442.000000 0 0 1
25.117272 -9.747005 -26.947122 38.105497 -0.370171 2.356286 0.100337 -0.011507 579722.000000 0 0 1
24.146372 -10.993205 -26.891232 37.776133 -0.427231 2.362936 0.103664 -0.001968 -604337.000000 0 0 1
24.622772 -12.061505 -27.700722 38.975516 -0.455496 2.361319 0.095387 -0.004209 210115.000000 0 0 1
23.822472 -13.235405 -27.526952 38.735245 -0.507121 2.361209 0.098753 -0.003549 534534.000000 0 0 1
24.630072 -14.387305 -28.164422 40.085779 -0.528673 2.349846 0.098729 -0.000830 263602.000000 0 0 1
24.694972 -14.162705 -29.575682 41.050516 -0.520710 2.375277 0.098395 -0.011422 753886.000000 0 0 1
25.661072 -15.008805 -30.264562 42.422855 -0.529232 2.365138 0.092726 -0.006139 609185.000000 0 0 1
25.884572 -14.719205 -31.749822 43.528350 -0.517047 2.388249 0.107690 -0.019569 230399.000000 0 0 1
24.880072 -15.375005 -32.559482 43.766753 -0.553524 2.409731 0.113908 -0.022388 419212.000000 0 0 1
25.215572 -15.731505 -33.913272 45.093407 -0.557794 2.421989 0.118359 -0.022988 -186379.000000 0 0 1
25.079872 -14.549105 33.127944 44.024279 -0.525667 0.718958 0.091266 -0.036754 1142780.000000 0 0 1
23.822472 -13.820405 33.114628 43.070783 -0.525690 0.693768 0.116651 -0.028201 902654.000000 0 0 1
23.727772 -12.877905 32.074610 41.924077 -0.497249 0.699655 0.107628 -0.034704 -1033420.000000 0 0 1
22.872672 -11.635705 32.375451 41.312451 -0.470596 0.670239 0.122948 -0.034568 569107.000000 0 0 1
21.458772 -11.804905 32.438618 40.646016 -0.502936 0.646701 0.109598 -0.031036 664738.000000 0 0 1
20.884872 -12.150105 31.165394 39.434563 -0.526904 0.659487 0.095560 -0.034181 -501779.000000 0 0 1
19.363172 -12.476405 31.396644 38.940241 -0.572384 0.632964 0.102674 -0.030842 738878.000000 0 0 1
18.606072 -11.266805 31.297934 38.114138 -0.544486 0.607350 0.091638 -0.029525 -238283.000000 0 0 1
17.505472 -11.355905 32.172446 38.346635 -0.575465 0.575372 0.065982 -0.021192 -29588.800000 0 0 1
16.712572 -10.079205 32.541904 37.945698 -0.542689 0.540228 0.065100 -0.021387 -577583.000000 0 0 1
15.699372 -9.792505 31.593684 36.613172 -0.557701 0.529806 0.075140 -0.029112 201579.000000 0 0 1
14.858772 -8.685205 31.951834 36.292363 -0.528957 0.494089 0.074922 -0.027631 251872.000000 0 0 1
13.827972 -8.974205 33.039317 36.923511 -0.575664 0.462804 0.079408 -0.026463 -2053770.000000 0 0 1
12.813872 -9.836105 32.609390 36.391161 -0.654679 0.459938 0.078477 -0.025429 -1070710.000000 0 0 1
11.801872 -9.894405 33.545130 36.911505 -0.697707 0.430400 0.073762 -0.022334 -870983.000000 0 0 1
10.590872 -9.054105 33.154544 35.963415 -0.707330 0.397849 0.080371 -0.025433 -1174010.000000 0 0 1
10.849872 -7.662605 33.193292 35.752341 -0.614901 0.380651 0.078912 -0.025705 709742.000000 0 0 1
9.925372 -6.906305 32.370993 34.555626 -0.607917 0.357487 0.086732 -0.019474 536871.000000 0 0 1
10.408072 -5.460805 32.303148 34.375016 -0.483188 0.348964 0.077428 -0.018405 51125.800000 0 0 1
10.396772 -4.784205 33.552635 35.450823 -0.431273 0.328722 0.077397 -0.026412 405960.000000 0 0 1
10.903572 -3.447205 33.419699 35.322053 -0.306210 0.329690 0.058427 -0.021575 -342324.000000 0 0 1
10.701972 -2.688605 -33.242382 35.025944 -0.246131 2.821095 0.057241 -0.030227 -418830.000000 0 0 1
9.370972 -2.236805 -33.231602 34.599968 -0.234311 2.859417 0.050601 -0.011324 -172406.000000 0 0 1
9.101672 -1.519205 -31.997692 33.301663 -0.165390 2.860827 0.045308 -0.009814 -900947.000000 0 0 1
7.643672 -1.188005 -31.846572 32.772569 -0.154190 2.903310 0.053845 -0.006263 -1284020.000000 0 0 1
7.073972 -0.222005 -32.724822 33.481403 -0.031373 2.928601 0.059252 -0.003684 627399.000000 0 0 1
5.676972 -0.080005 -32.441462 32.934524 -0.014092 2.968339 0.073562 -0.005486 364600.000000 0 0 1
5.052572 1.014695 -33.277862 33.674534 0.198191 2.987952 0.093093 -0.009030 -62753.500000 0 0 1
5.639072 2.312995 -33.286172 33.839597 0.389245 2.960490 0.077376 -0.015776 139923.000000 0 0 1
4.879572 3.073095 33.744233 34.233426 0.562035 0.169258 0.096299 -0.017877 463162.000000 0 0 1
5.523172 4.455495 33.595820 34.337094 0.678808 0.208165 0.091142 -0.025830 265619.000000 0 0 1
5.005572 5.262995 32.585606 33.385276 0.810462 0.219313 0.111799 -0.041367 -375780.000000 0 0 1
5.844872 6.372895 32.524667 33.654574 0.828589 0.259858 0.113793 -0.040780 -232338.000000 0 0 1
5.388272 7.542595 31.665404 32.994273 0.950485 0.284777 0.137156 -0.046279 402115.000000 0 0 1
4.186172 8.148795 32.213521 33.490862 1.096236 0.277074 0.148669 -0.044937 835988.000000 0 0 1
3.886572 9.395595 31.599544 33.195088 1.178571 0.311306 0.161239 -0.049252 -72992.800000 0 0 1
3.439172 9.402795 30.102414 31.723742 1.220150 0.321089 0.156893 -0.045588 -744560.000000 0 0 1
2.213672 8.775795 29.946754 31.284549 1.323703 0.293498 0.131846 -0.046104 -759851.000000 0 0 1
1.843572 8.708595 28.569664 29.924306 1.362181 0.302042 0.102544 -0.034318 -41905.300000 0 0 1
0.667472 7.766095 28.308924 29.362441 1.485060 0.268687 0.108249 -0.034842 155902.000000 0 0 1
-0.604628 8.275295 28.659384 29.836327 -1.497862 0.281811 0.112353 -0.027037 -393269.000000 0 0 1
-1.562828 8.065395 27.643954 28.838884 -1.379399 0.288874 0.098907 -0.033604 244168.000000 0 0 1
-2.986628 8.348095 28.177054 29.539076 -1.227224 0.304854 0.084628 -0.025234 -223578.000000 0 0 1
-3.172628 9.679495 28.472894 30.240104 -1.254063 0.343562 0.099507 -0.024443 -547254.000000 0 0 1
-4.496728 9.859095 28.894324 30.859428 -1.142882 0.358795 0.070954 -0.010859 -710073.000000 0 0 1
-4.870728 11.099395 29.669714 32.050156 -1.157272 0.387841 0.054972 -0.001123 -277260.000000 0 0 1
-4.860828 12.361695 29.103004 31.990999 -1.196151 0.428176 0.051229 -0.013318 -192913.000000 0 0 1
-5.970428 12.538095 28.281844 31.507341 -1.126383 0.456440 0.045269 -0.013454 -528732.000000 0 0 1
-6.068228 13.981895 27.809764 31.712770 -1.161322 0.501367 0.026770 -0.009833 -59504.000000 0 0 1
-5.149928 14.364695 26.831644 30.867513 -1.226558 0.517109 0.031413 -0.005868 -189880.000000 0 0 1
-5.575028 15.659095 26.443334 31.233606 -1.228764 0.561174 0.034684 -0.001258 -381718.000000 0 0 1
-4.494328 16.455095 25.750714 30.887998 -1.304172 0.585058 0.066048 -0.006666 -512689.000000 0 0 1
-4.296528 15.970595 24.441694 29.511294 -1.307991 0.594881 0.064617 -0.005911 -262075.000000 0 0 1
-3.300728 16.664795 23.740974 29.193220 -1.375261 0.621105 0.076115 -0.007646 -167386.000000 0 0 1
-3.096328 16.294595 22.206274 27.716777 -1.383013 0.641523 0.073293 -0.003168 -3450.900000 0 0 1
-2.464428 15.037695 22.001074 26.762903 -1.408357 0.605753 0.073158 -0.013372 138776.000000 0 0 1
-2.277028 14.869795 20.633374 25.534914 -1.418846 0.629969 0.073322 -0.023222 -290246.000000 0 0 1
-1.270728 13.808695 20.233674 24.529501 -1.479031 0.600822 0.071166 -0.020797 -767787.000000 0 1 0
-1.772628 12.520495 20.422774 24.020715 -1.430153 0.554403 0.074791 -0.016634 226187.000000 0 1 0
-0.997628 11.459495 19.862274 22.952674 -1.483958 0.524933 0.071004 -0.017996 -130882.000000 0 1 0
-1.905528 10.212195 19.688074 22.260733 -1.386324 0.485524 0.049196 -0.011583 -296251.000000 0 1 0
-2.172628 9.553795 20.958274 23.135354 -1.347189 0.437301 0.066301 -0.019038 517936.000000 0 1 0
-3.287128 10.029295 21.727574 24.155320 -1.254077 0.452185 0.084006 -0.022624 55674.400000 0 1 0
-4.692228 9.868295 21.137074 23.794457 -1.126952 0.477124 0.071379 -0.021045 -940060.000000 0 1 0
-5.322328 8.666195 21.398874 23.692656 -1.020039 0.443662 0.046853 -0.015127 258289.000000 0 1 0
-6.691428 8.772195 21.014674 23.734851 -0.919154 0.483457 0.046086 -0.015675 351844.000000 0 1 0
-7.404228 7.432895 21.052974 23.522293 -0.787330 0.462315 0.042709 -0.015408 -147663.000000 0 1 0
-7.396628 6.811295 22.343874 24.502093 -0.744224 0.422865 0.037710 -0.015655 238042.000000 0 1 0
-8.061628 5.543095 22.314274 24.364782 -0.602349 0.413198 0.032935 -0.011431 302171.000000 0 1 0
-8.018328 4.895895 23.694204 25.488795 -0.548169 0.377489 0.027440 -0.014029 524758.000000 0 0 1
-8.949628 5.542295 24.606794 26.763916 -0.554473 0.404239 0.008836 -0.006083 628598.000000 0 0 1
-8.904228 4.718895 25.768134 27.668574 -0.487328 0.372792 0.013683 0.002281 285287.000000 0 0 1
-9.869428 5.228795 26.901704 29.128124 -0.487200 0.393521 0.011074 0.004576 147017.000000 0 0 1
-9.480328 6.455995 27.494084 29.790622 -0.597852 0.395223 0.016268 -0.006707 -291257.000000 0 0 1
-10.494628 7.029595 28.287594 30.979677 -0.590188 0.419969 0.024697 -0.002760 -44810.800000 0 0 1
-9.959628 8.277195 28.990774 31.751711 -0.693404 0.420105 0.035731 -0.006108 230564.000000 0 0 1
-8.878628 7.898795 29.823274 32.103718 -0.727063 0.379186 0.040475 -0.011853 107039.000000 0 0 1
-8.413128 8.824195 30.808474 33.133204 -0.809241 0.376827 0.045655 -0.019584 174703.000000 0 0 1
-7.454328 8.096295 31.764244 33.616725 -0.826657 0.333525 0.067227 -0.022550 908157.000000 0 0 1
-6.133528 7.791495 31.298814 32.832048 -0.903904 0.306814 0.062286 -0.026681 304931.000000 0 0 1
-5.275028 7.263195 32.277041 33.502050 -0.942657 0.271257 0.086704 -0.023601 -30094.100000 0 0 1
-3.791328 7.306795 31.894394 32.939578 -1.092161 0.252585 0.076118 -0.025006 -113382.000000 0 0 1
-3.370028 8.626495 31.734414 33.058230 -1.198367 0.283955 0.072583 -0.029497 -634510.000000 0 0 1
-1.964628 8.705695 31.722564 32.954059 -1.348843 0.274245 0.092315 -0.032748 40291.700000 0 0 1
-1.477728 10.098895 31.223244 32.849085 -1.425502 0.315937 0.094963 -0.033300 -200654.000000 0 0 1
-1.715528 11.139295 32.190564 34.106588 -1.417990 0.336783 0.099133 -0.042066 145670.000000 0 0 1
-1.912128 12.412995 31.525824 33.935472 -1.417955 0.379113 0.086323 -0.036340 -44290.700000 0 0 1
-2.088928 13.635695 32.468564 35.277521 -1.418783 0.401757 0.089327 -0.040837 -216618.000000 0 0 1
-0.839228 13.989895 33.022530 35.873513 -1.510880 0.401370 0.143601 -0.046375 -50509.900000 0 0 1
-1.001628 15.066495 33.950144 37.156626 -1.504414 0.418490 0.136746 -0.047721 -694905.000000 0 0 1
0.229272 15.337695 -33.209822 36.581276 1.555849 2.708892 0.119922 -0.045093 258999.000000 0 0 1
1.307772 15.986495 -33.984512 37.579587 1.489173 2.700614 0.137884 -0.046247 1048590.000000 0 0 1
2.456572 16.032895 -33.165382 36.919251 1.418758 2.686732 0.157977 -0.046655 -355636.000000 0 0 1
3.585972 16.875995 -33.747572 37.901940 1.361421 2.669001 0.160350 -0.037386 -275872.000000 0 0 1
3.348172 18.294795 -33.802632 38.581443 1.389787 2.638586 0.138960 -0.032087 210170.000000 0 0 1
4.531772 18.944095 33.715772 38.938015 1.335991 0.523883 0.106430 -0.011762 539785.000000 0 0 1
4.363372 20.461995 33.786141 39.739598 1.360700 0.554453 0.110040 -0.027862 32940.500000 0 0 1
4.455072 21.078895 -32.884922 39.313937 1.362509 2.561606 0.145123 -0.056589 18578.400000 0 0 1
4.265772 22.458795 -32.962852 40.114136 1.383094 2.535230 0.119942 -0.039655 -17519.600000 0 0 1
4.075572 23.198395 -31.635692 39.441005 1.396888 2.501602 0.150038 -0.044054 -5503.440000 0 0 1
3.920372 24.624895 -31.719252 40.346818 1.412918 2.475375 0.152995 -0.052432 -119933.000000 0 0 1
3.348972 25.112995 -30.544222 39.684098 1.438222 2.449143 0.147339 -0.054654 -380682.000000 0 0 1
3.004572 26.586395 -30.754242 40.763799 1.458262 2.425612 0.147749 -0.057081 58846.400000 0 0 1
4.039972 27.541795 -30.536022 41.319735 1.425150 2.402408 0.122681 -0.050385 185320.000000 0 0 1
3.495672 28.815695 -30.280572 41.946121 1.450075 2.377329 0.116415 -0.046238 355136.000000 0 0 1
4.596272 29.884595 -29.901462 42.524254 1.418191 2.350632 0.126784 -0.047239 664501.000000 0 0 1
5.255472 29.509395 -28.697212 41.496438 1.394549 2.334441 0.115022 -0.056824 -23731.400000 0 0 1
6.098772 30.533595 -28.204712 42.011918 1.373651 2.306825 0.107677 -0.047042 93072.400000 0 0 1
7.373172 30.004795 -27.475192 41.346555 1.329838 2.297634 0.112437 -0.056334 801211.000000 0 0 1
8.442972 29.484795 -28.293052 41.726895 1.291909 2.315907 0.108142 -0.055478 566114.000000 0 0 1
9.583272 30.296395 -28.421132 42.631813 1.264438 2.300522 0.118799 -0.053721 -317946.000000 0 0 1
9.488772 31.616795 -29.258052 44.110001 1.279231 2.296013 0.128942 -0.054391 -1203420.000000 0 0 1
8.773272 32.587995 -28.566202 44.215107 1.307814 2.273225 0.116926 -0.045528 33192.100000 0 0 1
8.439572 33.769895 -29.317492 45.509862 1.325899 2.270774 0.100975 -0.030596 -262708.000000 0 0 1
7.280072 33.710795 -30.319652 45.920567 1.358106 2.291965 0.076774 -0.021941 -623532.000000 0 0 1
7.471772 32.903895 -31.430182 46.112364 1.347504 2.320743 0.067499 -0.023274 -372892.000000 0 0 1
6.284072 32.466295 -32.032932 46.039751 1.379604 2.340283 0.051888 -0.021421 -397645.000000 0 0 1
6.394972 31.763195 -33.402292 46.535034 1.372120 2.371417 0.063401 -0.029038 -53303.500000 0 0 1
6.492072 32.689595 33.544539 47.286285 1.374750 0.782160 0.065737 -0.019244 270712.000000 0 0 1
6.005572 32.068995 32.366168 45.957113 1.385670 0.789403 0.076234 -0.014514 -66031.400000 0 0 1
5.797572 33.033895 31.123244 45.754851 1.397062 0.822737 0.054230 -0.019688 -310096.000000 0 0 1
7.019972 33.419095 30.576364 45.836994 1.363748 0.840531 0.057713 -0.011025 -159636.000000 0 0 1
6.833772 -33.672076 29.568934 45.330244 -1.370565 0.860181 0.022387 -0.020828 -405057.000000 0 0 1
18.669962 -22.044205 29.226234 41.093640 -0.868086 0.779577 0.072810 -0.010462 -449441.000000 0 0 1
17.765462 -21.006005 29.519354 40.351656 -0.868785 0.750200 0.061469 -0.013272 247249.000000 0 0 1
16.408762 -21.401005 29.632294 40.066487 -0.916675 0.738353 0.053968 -0.012308 388492.000000 0 0 1
15.944462 -21.679605 31.061434 41.097979 -0.936667 0.713937 0.065164 -0.031804 -303428.000000 0 0 1
16.709162 -22.750605 31.581724 42.357897 -0.937322 0.729373 0.068930 -0.034829 306268.000000 0 0 1
16.286962 -23.081405 32.890334 43.356550 -0.956301 0.709633 0.106794 -0.033854 341598.000000 0 0 1
17.186262 -24.178005 33.561360 44.791834 -0.952844 0.723831 0.092050 -0.034070 70141.900000 0 0 1
17.002562 -25.485455 33.072989 45.082348 -0.982461 0.747173 0.115618 -0.038789 11406.800000 0 0 1
17.704162 -26.519745 33.788428 46.458499 -0.982159 0.756443 0.120054 -0.041040 1959.600000 0 0 1
17.316962 -27.989595 33.547967 46.997454 -1.016745 0.775851 0.111776 -0.030810 15573.000000 0 0 1
17.773262 -28.506545 32.260030 46.574902 -1.013291 0.805642 0.097873 -0.031725 299362.000000 0 0 1
17.290662 -29.837485 32.019281 47.058228 -1.045591 0.822463 0.114763 -0.032462 -183598.000000 0 0 1
18.005962 -30.603505 30.898454 47.069137 -1.038978 0.854695 0.100567 -0.030194 765113.000000 0 0 1
19.293262 -31.096415 31.327784 48.173095 -1.015487 0.862795 0.091259 -0.037236 733738.000000 0 0 1
19.993762 -31.610935 30.226214 48.089768 -1.006825 0.891125 0.073282 -0.032687 -383433.000000 0 0 1
21.332662 -32.334835 30.393694 49.238203 -0.987603 0.905517 0.070626 -0.032077 -183842.000000 0 0 1
22.437062 -31.513105 30.707174 49.390567 -0.952068 0.899858 0.062602 -0.031351 -273902.000000 0 0 1
23.537762 -32.300765 31.023944 50.594968 -0.941063 0.910713 0.056689 -0.035015 -252243.000000 0 0 1
24.820262 -31.465055 31.356924 50.885674 -0.902910 0.906858 0.047053 -0.040316 172210.000000 0 0 1
25.427362 -30.985525 30.185704 50.177986 -0.883608 0.925328 0.044582 -0.030929 -461005.000000 0 0 1
26.218262 -29.872875 30.476204 50.085776 -0.850461 0.916652 0.038138 -0.023129 357466.000000 0 0 1
27.439162 -29.587005 29.550094 50.015063 -0.823045 0.938717 0.048857 -0.021767 -150049.000000 0 0 1
28.573962 -30.316455 29.802634 51.222610 -0.814978 0.949825 0.038749 -0.014833 -633693.000000 0 0 1
29.644362 -30.131215 28.892164 51.199956 -0.793543 0.971211 0.041434 -0.034802 -197886.000000 0 0 1
30.722362 -31.168915 29.062954 52.535893 -0.792613 0.984593 0.015445 -0.022753 -602515.000000 0 0 1
30.216662 -32.472905 28.847044 52.912080 -0.821373 0.994183 0.009617 -0.025815 396882.000000 0 0 1
31.218562 -33.471855 29.095374 54.235639 -0.820216 1.004557 0.014332 -0.023779 5411.970000 0 0 1
30.588162 33.243562 29.655134 54.038848 0.826974 0.989899 0.007501 -0.019511 -278858.000000 0 0 1
30.019162 33.306662 30.941404 54.478017 0.837266 0.966770 0.024898 -0.017916 1117350.000000 0 0 1
28.906162 -33.864935 31.171524 54.351301 -0.864232 0.960001 0.009604 -0.014637 9854.530000 0 0 1
27.626062 -33.974655 30.362284 53.285503 -0.888096 0.964529 0.024498 -0.017197 -822265.000000 0 0 1
26.979062 32.847057 30.668824 52.415415 0.883170 0.945780 0.024324 -0.019885 87341.600000 0 0 1
25.603562 32.835920 30.354274 51.527876 0.908530 0.940871 0.027887 -0.026083 283340.000000 0 0 1
24.928262 31.443157 30.497674 50.400382 0.900459 0.920895 0.038322 -0.026621 -163033.000000 0 0 1
24.989162 30.716567 29.296994 49.257280 0.887854 0.933811 0.032974 -0.019274 390907.000000 0 0 1
24.259862 29.459147 29.285044 48.104013 0.881884 0.916267 0.060341 -0.026125 73638.600000 0 0 1
24.004162 28.852567 27.882124 46.755570 0.876869 0.931865 0.062605 -0.026112 -97448.900000 0 0 1
22.812662 29.402347 27.324324 46.168542 0.910937 0.937458 0.089819 -0.032705 204475.000000 0 0 1
22.603062 29.133597 25.984574 45.109456 0.910961 0.956928 0.081283 -0.035315 -112586.000000 0 0 1
21.177462 29.590277 25.635134 44.511004 0.949618 0.957057 0.102687 -0.033498 -181700.000000 0 0 1
21.033962 30.997547 25.451754 45.288710 0.974599 0.974008 0.101076 -0.037081 641484.000000 0 0 1
19.653162 31.329817 25.241284 44.776407 1.010546 0.971916 0.095936 -0.023410 560397.000000 0 0 1
19.419862 32.698762 24.626034 45.307633 1.034873 0.996160 0.114203 -0.024332 -134958.000000 0 0 1
19.934062 33.024333 23.355994 45.094078 1.027721 1.026356 0.109854 -0.021323 -568259.000000 0 0 1
21.242262 33.476755 23.275024 45.974488 1.005368 1.039954 0.097517 -0.012547 -755964.000000 0 0 1
21.847462 33.566490 21.920374 45.656584 0.993809 1.070011 0.112113 -0.022346 -231799.000000 0 0 1
21.208862 -33.434755 21.258874 44.940387 -1.005512 1.078051 0.105661 -0.007059 483283.000000 0 0 1
21.742062 -33.245145 19.947074 44.450452 -0.991620 1.105432 0.125662 -0.014973 55294.700000 0 0 1
21.257962 -31.992835 19.192574 42.939461 -0.984323 1.107423 0.116821 -0.015383 -48702.400000 0 0 1
21.714362 -30.790725 19.850974 42.586893 -0.956573 1.085886 0.109227 -0.010852 524078.000000 0 0 1
21.240162 -29.557225 19.247874 41.173471 -0.947688 1.084356 0.095545 -0.021115 -122040.000000 0 0 1
22.089862 -29.067135 18.064474 40.733102 -0.920951 1.111314 0.074203 -0.022838 -179703.000000 0 0 1
21.900662 -29.858405 16.888974 40.698904 -0.937950 1.142882 0.074309 -0.026317 293703.000000 0 0 1
22.443362 -29.202855 15.758374 40.060424 -0.915539 1.166507 0.061414 -0.016527 -118644.000000 0 0 1
22.243062 -29.972495 14.397074 40.004750 -0.932360 1.202653 0.050554 -0.025512 -365769.000000 0 0 1
23.142662 -31.016735 14.162174 41.209075 -0.929774 1.219978 0.075561 -0.018065 -29876.600000 0 0 1
23.424562 -31.303955 12.777674 41.132914 -0.928388 1.254926 0.059487 -0.015358 206870.000000 0 0 1
22.190862 -31.686005 11.877474 40.466179 -0.959845 1.272893 0.050183 -0.006312 272870.000000 0 0 1
21.443262 -32.773165 12.439574 41.093026 -0.991409 1.263254 0.040683 -0.011388 250046.000000 0 0 1
20.160762 -32.710155 11.858974 40.212508 -1.018445 1.271438 0.048491 -0.005004 213733.000000 0 0 1
18.980362 -33.401625 12.620674 40.437657 -1.054052 1.253392 0.066731 -0.004870 329763.000000 0 0 1
18.623862 -32.658665 13.773874 40.039433 -1.052533 1.219615 0.062005 -0.003596 206238.000000 0 0 1
19.017062 -33.306465 14.948474 41.163408 -1.051994 1.199150 0.061168 -0.011297 -681607.000000 0 0 1
19.071562 -32.318265 16.155774 40.855890 -1.037675 1.164257 0.073835 -0.012373 128754.000000 0 0 1
17.804962 -31.811485 16.527474 40.026799 -1.060535 1.145149 0.089323 -0.016728 -391749.000000 0 0 1
16.770362 -32.584645 16.992374 40.394862 -1.095481 1.136627 0.076430 -0.007486 -949601.000000 0 0 1
16.966262 -33.488785 18.271274 41.751553 -1.101863 1.117847 0.056711 -0.011993 -95730.000000 0 0 1
17.865462 33.498171 18.024274 42.025905 1.080844 1.127538 0.056936 -0.007067 459033.000000 0 0 1
18.228562 32.840679 19.252174 42.207072 1.064076 1.097148 0.059948 -0.011968 40672.400000 0 0 1
18.957862 31.513727 18.995874 41.392738 1.029220 1.094019 0.079307 -0.013496 -180211.000000 0 0 1
18.129962 30.408167 18.607574 39.994924 1.033161 1.086881 0.044746 -0.013924 -274707.000000 0 0 1
18.965862 29.318477 18.385774 39.462814 0.996610 1.086143 0.050393 -0.022319 -509421.000000 0 0 1
18.277262 27.948447 18.227474 38.044905 0.991640 1.071162 0.045184 -0.015978 -200661.000000 0 0 1
18.046362 27.309117 19.422074 38.061477 0.986854 1.035284 0.054363 -0.025933 -41817.900000 0 0 1
17.601262 25.969357 19.221274 36.792245 0.975146 1.021101 0.056256 -0.022760 -487335.000000 0 0 1
17.517762 25.081557 20.531274 36.844127 0.961123 0.979730 0.074636 -0.026660 43619.100000 0 0 1
16.352962 25.261747 21.308974 36.873400 0.996293 0.954649 0.070462 -0.025488 299215.000000 0 0 1
15.302662 24.362467 20.989674 35.612746 1.009953 0.940497 0.069458 -0.020689 248873.000000 0 0 1
13.936562 24.673827 21.653474 35.663685 1.056637 0.918318 0.089372 -0.037089 163350.000000 0 0 1
13.375462 25.912257 21.257674 36.086518 1.094286 0.940882 0.090568 -0.035689 -46656.900000 0 0 1
12.098162 26.062107 21.847874 36.096102 1.136192 0.920692 0.096901 -0.034215 255421.000000 0 0 1
11.204562 27.153337 21.161774 36.203130 1.179441 0.946497 0.087000 -0.036282 -100429.000000 0 0 1
11.557862 28.497007 21.497374 37.520670 1.185487 0.960699 0.074541 -0.034186 -54084.000000 0 0 1
11.310362 29.459817 20.487874 37.623903 1.204224 0.994951 0.073715 -0.029840 73569.900000 0 0 1
11.909062 30.864857 20.845974 39.102683 1.202551 1.008526 0.066942 -0.030547 -446741.000000 0 0 1
11.167662 31.584947 21.762374 39.949049 1.230940 0.994701 0.066143 -0.027019 -504586.000000 0 0 1
11.496062 31.398617 23.161364 40.675317 1.219822 0.964995 0.081128 -0.023031 283552.000000 0 0 1
10.634162 32.273864 24.130154 41.676757 1.252502 0.953315 0.076760 -0.018224 756093.000000 0 0 1
9.263662 31.974367 24.364664 41.253030 1.288796 0.938975 0.039712 -0.014683 187632.000000 0 0 1
8.953162 32.412012 25.654374 42.294734 1.301287 0.919067 0.044652 -0.013943 -250707.000000 0 0 1
7.494662 32.309810 26.167604 42.247335 1.342865 0.902830 0.078546 -0.034336 -544934.000000 0 0 1
6.487562 33.030222 25.480864 42.217987 1.376852 0.922844 0.064870 -0.029440 427225.000000 0 0 1
5.971562 32.339714 24.332564 40.909538 1.388202 0.933793 0.068768 -0.035304 -287919.000000 0 0 1
5.127662 31.072567 24.610254 39.968262 1.407248 0.907465 0.053458 -0.025080 -667657.000000 0 0 1
5.893962 30.020827 25.156924 39.608833 1.376933 0.882614 0.052725 -0.031193 -70803.300000 0 0 1
5.262562 28.792107 24.867004 38.406352 1.390014 0.866535 0.042437 -0.022286 359115.000000 0 0 1
6.333262 27.616807 24.937904 37.745163 1.345368 0.849057 0.048155 -0.031152 691094.000000 0 0 1
7.335662 27.462387 23.935314 37.160381 1.309774 0.870939 0.057105 -0.032878 365127.000000 0 0 1
8.345562 28.449327 23.952484 38.114749 1.285453 0.891262 0.085733 -0.038141 -460208.000000 0 0 1
9.604562 27.962657 24.703454 38.528151 1.239943 0.874762 0.091121 -0.044550 -1151240.000000 0 0 1
9.354162 27.796217 26.076644 39.244381 1.246175 0.844014 0.089087 -0.044564 469566.000000 0 0 1
10.497462 27.446757 26.868374 39.817468 1.205496 0.830118 0.092872 -0.033148 -435457.000000 0 0 1
11.580962 28.458677 26.975174 40.886122 1.184322 0.850292 0.098311 -0.024087 -1341720.000000 0 0 1
11.093562 29.623687 27.605404 41.984382 1.212479 0.853279 0.093403 -0.030636 -71455.100000 0 0 1
12.081762 30.599327 27.649304 42.974083 1.194748 0.871872 0.073596 -0.021806 -328949.000000 0 0 1
11.671862 31.823667 28.555564 44.321534 1.219263 0.870712 0.060884 -0.026418 -1525.520000 0 0 1
11.649862 31.501767 29.962144 45.009007 1.216578 0.842375 0.078442 -0.038018 35840.900000 0 0 1
10.333162 31.246977 30.392464 44.797876 1.251424 0.825166 0.091420 -0.034159 -159576.000000 0 0 1
10.247162 31.083677 31.967388 45.750554 1.252352 0.797172 0.122278 -0.029390 122566.000000 0 0 1
10.663762 29.807137 32.502112 45.371451 1.227226 0.772231 0.101892 -0.030437 204986.000000 0 0 1
10.838962 29.805917 33.915636 46.434321 1.222012 0.751889 0.117424 -0.031719 -132467.000000 0 0 1
10.929262 28.412407 -33.520322 45.280522 1.203579 2.404285 0.102552 -0.037539 655944.000000 0 0 1
12.144362 27.748107 -33.940532 45.490688 1.158248 2.412979 0.119757 -0.034066 771142.000000 0 0 1
12.236162 26.458007 -33.423412 44.349456 1.137617 2.424375 0.104596 -0.042409 -152736.000000 0 0 1
13.463462 25.681317 -33.946752 44.645009 1.087936 2.434680 0.113623 -0.040029 -125678.000000 0 0 1
13.572762 24.304567 -33.574182 43.613731 1.061493 2.449336 0.082199 -0.036248 -259182.000000 0 0 1
13.884062 24.047447 -32.239962 42.549525 1.047189 2.430585 0.083179 -0.032570 -374656.000000 0 0 1
14.022462 22.510067 -32.047432 41.597722 1.013678 2.450285 0.061763 -0.048675 997328.000000 0 0 1
15.244762 21.914367 -32.575202 42.116340 0.962995 2.455074 0.049954 -0.028701 996030.000000 0 0 1
15.124362 20.546767 -32.419732 41.254757 0.936254 2.474853 0.046585 -0.023182 -489459.000000 0 0 1
16.403262 19.874367 -32.849362 41.750905 0.880789 2.476394 0.065852 -0.030311 349474.000000 0 0 1
17.523162 20.159867 -31.968132 41.658648 0.855255 2.445546 0.043286 -0.029797 1595110.000000 0 0 1
18.778662 19.589267 -32.437772 42.291685 0.806522 2.444951 0.055635 -0.027665 885974.000000 0 0 1
19.947662 19.914767 -31.514432 42.280807 0.784573 2.411871 0.040767 -0.020577 -407967.000000 0 0 1
20.390362 21.236867 -31.745802 43.296274 0.805731 2.393845 0.027126 -0.012000 -290840.000000 0 0 1
21.448962 21.681767 -30.935822 43.441709 0.790796 2.363313 0.014221 -0.002365 -211993.000000 0 0 1
21.086562 22.078967 -29.544142 42.485059 0.808385 2.339774 0.018759 -0.012120 -8323.210000 0 0 1
20.257562 23.228117 -29.612252 42.741078 0.853603 2.336201 0.006452 -0.001297 -177176.000000 0 0 1
19.835362 23.725437 -28.383082 41.975437 0.874464 2.313366 0.006316 0.002040 261021.000000 0 0 1
20.911762 24.414957 -27.431352 42.259567 0.862532 2.277218 0.011438 -0.000784 656451.000000 0 0 1
21.551862 25.600917 -27.976842 43.618728 0.871059 2.267112 0.016862 0.005989 -596468.000000 0 0 1
20.741062 26.683787 -28.312302 44.088577 0.910057 2.268120 0.023220 0.005269 -1235400.000000 0 0 1
21.425662 27.842617 -29.059592 45.593094 0.914914 2.261874 0.034702 -0.007798 -398113.000000 0 0 1
21.676062 27.655957 -30.444192 46.492499 0.906027 2.284740 0.035372 -0.005677 22054.600000 0 0 1
22.194262 26.405337 -30.948672 46.342717 0.871831 2.302075 0.033304 0.001999 -28718.700000 0 0 1
23.587062 25.962547 -30.440812 46.444014 0.833303 2.285549 0.062218 -0.003570 -971166.000000 0 0 1
24.628362 26.719937 -30.932062 47.721104 0.826109 2.275994 0.056761 -0.004654 -968551.000000 0 0 1
25.828362 26.192247 -30.397382 47.719377 0.792393 2.261400 0.065201 -0.015330 -91512.800000 0 0 1
27.076262 26.955947 -30.894032 49.134390 0.783171 2.250762 0.063114 -0.005521 -174256.000000 0 0 1
27.239562 28.147297 -30.249492 49.490361 0.801786 2.228397 0.051014 -0.008120 164608.000000 0 0 1
28.426162 28.703287 -30.810942 50.805901 0.790249 2.222377 0.062163 -0.023841 357690.000000 0 0 1
28.780162 30.057817 -30.130082 51.376959 0.807110 2.197467 0.047377 -0.015364 -110328.000000 0 0 1
29.074662 29.794927 -28.800782 50.621722 0.797632 2.176014 0.068517 -0.018862 106327.000000 0 0 1
28.865662 30.990927 -28.025812 50.784940 0.820889 2.155381 0.059644 -0.017410 -603399.000000 0 0 1
29.273862 30.862027 -26.566272 50.151675 0.811802 2.129065 0.076504 -0.012253 -392455.000000 0 0 1
28.537462 30.033077 -25.704572 48.755487 0.810928 2.126115 0.072251 -0.002747 -394603.000000 0 0 1
27.218962 30.413517 -25.446862 48.097783 0.840771 2.128295 0.063168 0.000340 -437664.000000 0 0 1
26.609762 29.813847 -24.124192 46.678920 0.842123 2.113918 0.061889 0.003006 25549.100000 0 0 1
26.496762 30.769967 -23.107692 46.720817 0.859879 2.088160 0.091536 -0.010253 252899.000000 0 0 1
25.873062 30.210347 -21.951492 45.430699 0.862581 2.075087 0.061332 -0.009680 186845.000000 0 0 1
3.185962 -25.929935 -19.152192 32.393183 -1.448541 2.203394 0.064268 -0.003869 -222174.000000 0 0 1
3.082062 -27.079675 -18.358692 32.861063 -1.457469 2.163585 0.069945 0.004007 216367.000000 0 0 1
2.790662 -26.760855 -16.991692 31.822142 -1.466890 2.134071 0.073794 0.003888 -323780.000000 0 0 1
3.006562 -27.962745 -16.107292 32.409865 -1.463688 2.090920 0.067911 -0.003540 -95796.900000 0 0 1
4.326762 -28.210835 -15.681992 32.565272 -1.418610 2.073225 0.065213 -0.004622 -267849.000000 0 0 1
4.431162 -29.244355 -14.739792 33.047374 -1.420418 2.033110 0.068758 -0.014005 -720831.000000 0 0 1
5.792062 -29.783235 -14.378592 33.575779 -1.378720 2.013344 0.088110 -0.007732 -894508.000000 0 0 1
6.661762 -28.844705 -13.760692 32.645868 -1.343823 2.005911 0.077425 -0.001457 -43662.600000 0 0 1
8.006662 -29.270375 -13.688992 33.290389 -1.303787 1.994566 0.084093 -0.001871 228476.000000 0 0 1
8.318762 -30.319975 -12.560592 33.856626 -1.303020 1.950875 0.085868 -0.014712 -894826.000000 0 0 1
8.489162 -29.816515 -11.244692 32.977773 -1.293422 1.918753 0.076629 -0.026884 20833.000000 0 0 1
8.940562 -30.760375 -10.287392 33.644684 -1.287938 1.881539 0.090766 -0.025000 51982.700000 0 0 1
10.321162 -31.413005 -10.351992 34.647756 -1.253345 1.874208 0.086066 -0.025903 685.430000 0 0 1
11.460562 -30.723515 -9.839992 34.236009 -1.213760 1.862325 0.078181 -0.028358 233307.000000 0 0 1
12.485962 -31.665625 -9.613592 35.369933 -1.195208 1.846061 0.079031 -0.026551 -259836.000000 0 0 1
13.669462 -31.116815 -8.797092 35.106968 -1.156880 1.824075 0.087573 -0.031596 -458591.000000 0 0 1
14.375362 -30.171115 -9.524592 34.751476 -1.126157 1.848427 0.076008 -0.036423 446023.000000 0 0 1
15.536862 -29.821825 -8.753892 34.747172 -1.090498 1.825472 0.073487 -0.032106 1143270.000000 0 0 1
16.720462 -29.010775 -9.399492 34.778576 -1.047945 1.844466 0.080505 -0.035185 677820.000000 0 0 1
16.472362 -27.635785 -9.508092 33.548161 -1.033285 1.858151 0.084603 -0.032006 -61367.600000 0 0 1
15.718662 -27.259095 -10.632992 33.214381 -1.047731 1.896665 0.070636 -0.027979 -351287.000000 0 0 1
15.360162 -25.756535 -10.596792 31.806063 -1.033058 1.910459 0.071618 -0.025418 -673642.000000 0 0 1
14.287962 -25.265175 -9.821392 30.642041 -1.056116 1.897075 0.060240 -0.024480 103031.000000 0 0 1
13.758062 -23.995805 -10.169592 29.470384 -1.050201 1.923119 0.052229 -0.007855 517903.000000 0 0 1
13.130562 -23.828605 -11.608492 29.579911 -1.067153 1.974085 0.028404 -0.002298 152623.000000 0 0 1
14.118262 -23.585905 -12.596692 30.237342 -1.031415 2.000492 0.036086 -0.007961 -145432.000000 0 0 1
13.498262 -23.739205 -13.839992 30.615328 -1.053780 2.039871 0.034111 -0.009125 411127.000000 0 0 1
14.252262 -23.196105 -15.129492 31.146232 -1.019838 2.078025 0.044272 -0.009776 126335.000000 0 0 1
15.323662 -23.974705 -15.584592 32.441957 -1.002080 2.071889 0.049992 -0.013150 -187108.000000 0 0 1
15.796862 -23.523905 -16.834392 32.959243 -0.979439 2.106869 0.053360 -0.011795 -124300.000000 0 0 1
16.912062 -24.443705 -17.461292 34.473312 -0.965542 2.101936 0.065634 -0.017436 395040.000000 0 0 1
18.095062 -24.587805 -16.731592 34.812894 -0.936357 2.072152 0.091728 -0.020161 -499593.000000 0 0 1
19.029562 -23.547905 -16.932992 34.689397 -0.891123 2.080744 0.094662 -0.022505 45215.200000 0 0 1
20.447562 -23.983405 -16.434092 35.544140 -0.864811 2.051448 0.098309 -0.023817 646248.000000 0 0 1
21.205462 -24.757305 -17.357392 36.930676 -0.862521 2.060086 0.107940 -0.021496 -252971.000000 0 0 1
22.494662 -24.971105 -16.832592 37.588589 -0.837524 2.035112 0.116054 -0.007289 134372.000000 0 0 1
23.265462 -26.023495 -17.658492 39.119386 -0.841296 2.039130 0.104969 -0.015594 -133094.000000 0 0 1
23.546462 -25.707325 -19.015792 39.710235 -0.829242 2.070156 0.116065 -0.020481 89446.400000 0 0 1
24.265362 -26.750705 -19.666392 41.123898 -0.834077 2.069427 0.099666 -0.028992 -88939.800000 0 0 1
25.568462 -26.276505 -20.363792 41.939063 -0.799054 2.077796 0.089809 -0.025115 91066.500000 0 0 1
25.413262 -25.303985 -21.317192 41.719878 -0.783244 2.107098 0.096562 -0.026026 -146952.000000 0 0 1
25.833762 -24.044005 -20.784292 40.957102 -0.749531 2.103037 0.097352 -0.018166 -372621.000000 0 0 1
24.844262 -22.867305 -20.997192 39.762207 -0.743986 2.127121 0.128317 -0.020001 -11483.000000 0 0 1
24.867562 -22.239105 -22.307192 40.132085 -0.729658 2.160175 0.115731 -0.010111 78126.500000 0 0 1
24.304062 -23.057305 -23.301192 40.807748 -0.759080 2.178519 0.097397 -0.015585 -450557.000000 0 0 1
23.671062 -22.319205 -24.515892 40.736900 -0.756012 2.216562 0.105291 -0.015011 679277.000000 0 0 1
24.517962 -21.480305 -25.313202 41.270960 -0.719455 2.231081 0.088069 0.000067 624858.000000 0 0 1
23.567462 -20.684305 -25.982402 40.722855 -0.720337 2.262733 0.075773 0.008572 557718.000000 0 0 1
24.188862 -20.038805 -27.261762 41.591567 -0.691838 2.285593 0.069668 0.008804 610762.000000 0 0 1
23.250162 -19.247905 -28.050662 41.205479 -0.691500 2.319583 0.068474 0.008200 850462.000000 0 0 1
23.855462 -18.724905 -29.232402 42.121710 -0.665485 2.337824 0.070926 -0.005923 -48881.900000 0 0 1
23.005062 -17.624105 -29.926722 41.658740 -0.653724 2.372264 0.096303 -0.007095 305238.000000 0 0 1
21.744862 -18.118105 -30.381602 41.522843 -0.694667 2.391586 0.085979 -0.010504 638676.000000 0 0 1
21.042562 -17.084505 -31.109662 41.261130 -0.681956 2.424881 0.091423 -0.011569 308394.000000 0 0 1
19.717662 -17.644305 -31.675022 41.272445 -0.729961 2.445669 0.077595 -0.014486 -127133.000000 0 0 1
19.984062 -18.431005 -32.863622 42.650702 -0.744992 2.450468 0.078752 -0.019021 624921.000000 0 0 1
18.836862 -19.011505 -33.472822 42.856674 -0.790012 2.467127 0.080777 -0.023987 216550.000000 0 0 1
19.327962 -19.961605 33.391119 43.439644 -0.801524 0.694024 0.087680 -0.034857 -152494.000000 0 0 1
20.057162 -21.034405 33.870913 44.631544 -0.809176 0.709173 0.083775 -0.028109 21780.400000 0 0 1
20.574562 -21.848405 32.797896 44.456354 -0.815416 0.741058 0.078240 -0.030903 13164.200000 0 0 1
21.365462 -23.083005 33.239326 45.762003 -0.824020 0.757797 0.058146 -0.024416 -32302.500000 0 0 1
20.601062 -24.000205 -33.960342 46.408172 -0.861463 2.391719 0.072291 -0.025696 215045.000000 0 0 1
20.809562 -23.710505 -32.597562 45.363278 -0.850467 2.372568 0.072587 -0.028416 -458995.000000 0 0 1
19.893162 -24.514605 -31.706762 44.743966 -0.889093 2.358346 0.093070 -0.034266 -497504.000000 0 0 1
20.097262 -25.905395 -31.689542 45.598427 -0.910990 2.339175 0.095314 -0.039646 516621.000000 0 0 1
21.113962 -26.288875 -30.747242 45.632195 -0.894136 2.310144 0.072304 -0.038248 279577.000000 0 0 1
21.243962 -27.813025 -30.692812 46.550177 -0.918513 2.290749 0.075470 -0.041411 -102649.000000 0 0 1
20.039962 -28.418755 -30.276562 46.107439 -0.956611 2.287168 0.086617 -0.047222 159998.000000 0 0 1
20.196562 -29.840295 -30.309402 47.085074 -0.975796 2.270140 0.083576 -0.040598 37068.900000 0 0 1
18.929762 -30.551155 -29.750552 46.656235 -1.016083 2.262246 0.119721 -0.042918 1104380.000000 0 0 1
17.684262 -30.514815 -30.460242 46.601646 -1.045564 2.283168 0.135768 -0.047103 600296.000000 0 0 1
17.731862 -31.297285 -31.629332 47.899411 -1.055326 2.292052 0.140551 -0.050152 -445953.000000 0 0 1
16.334162 -31.740535 -32.117002 48.018415 -1.095525 2.303454 0.147958 -0.050259 397164.000000 0 0 1
15.467462 -30.773295 -32.724752 47.509446 -1.105050 2.330636 0.149462 -0.048147 627196.000000 0 0 1
14.218762 -31.428015 -32.961662 47.711262 -1.145929 2.333470 0.127215 -0.030322 512968.000000 0 0 1
13.161162 -30.672965 -33.788202 47.494100 -1.165475 2.362312 0.126476 -0.029175 -210381.000000 0 0 1
12.447662 -29.713195 -33.121942 46.204776 -1.174081 2.370072 0.142619 -0.033658 -687920.000000 0 0 1
11.653562 -28.974585 -33.960142 46.137006 -1.188395 2.398045 0.120081 -0.027891 -1019120.000000 0 0 1
10.657762 -28.098605 -33.267832 44.831553 -1.208262 2.406939 0.120964 -0.036382 574133.000000 0 0 1
9.422062 -28.727775 -32.813982 44.618580 -1.253874 2.397102 0.112501 -0.018369 944698.000000 0 0 1
8.557462 -27.694695 -32.396732 43.471537 -1.271110 2.411691 0.064654 -0.014798 237157.000000 0 0 1
7.310562 -28.224845 -31.643372 43.027772 -1.317354 2.397079 0.038086 -0.011735 386072.000000 0 0 1
6.244962 -28.934515 -32.258452 43.781428 -1.358226 2.399131 0.033371 -0.006533 437006.000000 0 0 1
6.507762 -30.305055 -32.639402 45.011975 -1.359267 2.382015 0.033916 -0.005595 -248016.000000 0 0 1
5.212462 -31.123935 -32.729052 45.464931 -1.404862 2.374418 0.054664 -0.014408 166693.000000 0 0 1
4.654262 -31.549585 -31.439222 44.782398 -1.424331 2.349060 0.063727 -0.023806 359844.000000 0 0 1
3.696662 -32.581375 -31.507142 45.474293 -1.457820 2.336239 0.073970 -0.044327 -588597.000000 0 0 1
2.771862 -32.755015 -30.282772 44.694748 -1.486373 2.315218 0.061891 -0.049377 633921.000000 0 0 1
1.789062 -31.738435 -30.056942 43.748700 -1.514487 2.328199 0.057172 -0.041342 583699.000000 0 0 1
0.666662 -31.639755 -30.915012 44.240892 -1.549729 2.344498 0.045331 -0.007183 -238345.000000 0 0 1
-0.204638 -30.420425 -30.572252 43.128955 1.564069 2.358672 0.038486 -0.007928 137574.000000 0 0 1
-1.111738 -30.634485 -29.483372 42.532068 1.534522 2.336720 0.029946 -0.019051 460388.000000 0 0 1
-1.833138 -29.435115 -29.158742 41.473107 1.508599 2.350510 0.065164 -0.018852 374793.000000 0 0 1
-2.546438 -29.464825 -27.789292 40.582077 1.484588 2.325081 0.070249 -0.021435 222322.000000 0 0 1
-1.577638 -29.615615 -26.749252 39.938654 1.517576 2.304680 0.055527 -0.021345 132540.000000 0 0 1
-2.168438 -29.757225 -25.478792 39.234722 1.498054 2.277584 0.063259 -0.024629 -68593.600000 0 0 1
-1.236738 -30.210415 -24.306192 38.794196 1.529882 2.247905 0.037112 -0.023787 -204962.000000 0 0 1
-1.782338 -30.286855 -23.038492 38.095176 1.512016 2.220263 0.058697 -0.029926 -474269.000000 0 0 1
-0.754738 -30.571865 -22.134092 37.750849 1.546114 2.197305 0.051704 -0.018076 -84869.000000 0 0 1
-1.300638 -30.698675 -20.714392 37.056529 1.528454 2.163969 0.017711 -0.007057 31095.400000 0 0 1
-1.461538 -29.444155 -20.005092 35.627209 1.521199 2.167008 0.020944 -0.008420 523070.000000 0 0 1
-0.204938 -28.938425 -19.538492 34.917433 1.563715 2.164654 0.040918 -0.017487 533037.000000 0 0 1
-0.264038 -27.451125 -19.015592 33.395010 1.561178 2.176589 0.038025 -0.016980 -14728.900000 0 0 1
-1.284238 -27.226115 -18.043592 32.687640 1.523662 2.155558 0.040157 -0.018521 43425.900000 0 0 1
-0.996938 -26.126655 -17.150192 31.268595 1.532657 2.151341 0.047196 -0.017353 -165970.000000 0 0 1
-1.993038 -25.964495 -15.986392 30.556373 1.494186 2.121371 0.044170 -0.015661 -312406.000000 0 0 1
-1.772938 -24.818605 -15.211792 29.163420 1.499482 2.119528 0.032472 -0.011053 200027.000000 0 0 1
-2.774338 -24.629305 -14.231292 28.580225 1.458625 2.092020 0.035054 -0.017810 -32621.300000 0 0 1
-2.438738 -23.397405 -13.363392 27.054875 1.466940 2.087408 0.035437 -0.014025 -343648.000000 0 0 1
-1.398438 -23.655805 -12.470592 26.778133 1.511749 2.055222 0.041354 -0.015927 -458374.000000 0 0 1
-1.252138 -22.498105 -11.759692 25.416981 1.515198 2.051802 0.043757 -0.011455 53194.700000 0 0 1
-0.316138 -22.681705 -10.547292 25.016096 1.556859 2.006028 0.036379 -0.018813 131000.000000 0 0 1
0.079962 -21.363805 -10.166492 23.659588 -1.567053 2.014955 0.028621 -0.012283 -900828.000000 0 1 0
1.371962 -21.342605 -9.669392 23.470965 -1.506602 1.995414 0.032155 -0.015795 -407546.000000 0 1 0
2.009962 -19.966105 -9.435592 22.174663 -1.470466 2.010324 0.029749 -0.012969 -732882.000000 0 1 0
2.443562 -19.302005 -10.607992 22.160051 -1.444870 2.069969 0.027329 0.006214 -7291.830000 0 1 0
3.235962 -18.157405 -10.328992 21.138848 -1.394431 2.081311 0.015518 0.003990 140545.000000 0 1 0
4.716662 -18.465305 -10.007192 21.525758 -1.320710 2.054311 0.035256 -0.009323 -416903.000000 0 1 0
4.863062 -18.909305 -8.666592 21.361671 -1.319073 1.988549 0.042638 -0.015780 19354.200000 0 1 0
6.009162 -19.755105 -8.585492 22.362577 -1.275507 1.964837 0.051014 -0.003135 94146.100000 0 1 0
5.964062 -20.886705 -7.499392 22.979673 -1.292655 1.903235 0.051752 -0.013363 -257891.000000 0 1 0
5.003662 -21.814305 -7.952292 23.751620 -1.345321 1.912200 0.059829 -0.024264 1327.880000 0 1 0
4.838362 -22.917305 -7.082092 24.469749 -1.362729 1.864420 0.070332 -0.022084 173736.000000 0 1 0
3.827262 -23.969505 -7.638892 25.446763 -1.412461 1.875689 0.075921 -0.025430 102015.000000 0 0 1
4.259062 -24.757805 -8.764892 26.606613 -1.400435 1.906491 0.069153 -0.023913 250993.000000 0 0 1
3.263362 -25.596595 -9.407192 27.465077 -1.443988 1.920389 0.062040 -0.027731 760783.000000 0 0 1
3.914362 -26.703305 -10.311092 28.891302 -1.425246 1.935736 0.050642 -0.025776 364219.000000 0 0 1
4.448962 -27.807905 -9.548992 29.736444 -1.412152 1.897709 0.073592 -0.037447 -238020.000000 0 0 1
5.079462 -28.709765 -10.409392 30.958149 -1.395684 1.913719 0.092446 -0.023054 42289.500000 0 0 1
4.563862 -30.174025 -10.214692 32.181369 -1.420683 1.893793 0.092528 -0.033246 383989.000000 0 0 1
3.328462 -30.497045 -10.840192 32.537027 -1.462086 1.910454 0.094243 -0.024515 176474.000000 0 0 1
3.119562 -31.849895 -10.756992 33.761818 -1.473162 1.895063 0.097842 -0.021479 -456294.000000 0 0 1
1.816062 -32.356205 -11.373992 34.345156 -1.514728 1.908337 0.075314 -0.025438 -451438.000000 0 0 1
1.831662 -32.193005 -12.756592 34.676724 -1.513961 1.947516 0.081034 -0.023816 35268.400000 0 0 1
1.121162 -33.160685 -13.464292 35.807474 -1.536999 1.956293 0.071376 -0.015422 -337481.000000 0 0 1
0.870762 -32.798645 -14.915292 36.041299 -1.544254 1.997463 0.070187 -0.006489 382094.000000 0 0 1
-0.218738 -31.883125 -15.090392 35.274657 1.563936 2.012850 0.062584 -0.004975 396314.000000 0 0 1
-0.637538 -31.858975 -16.442692 35.857535 1.550788 2.047166 0.037377 -0.010274 787020.000000 0 0 1
-1.984938 -31.066525 -16.666192 35.310493 1.506990 2.062343 0.026939 -0.002185 1279910.000000 0 0 1
-3.165938 -31.621375 -16.056492 35.605413 1.471009 2.038633 0.028066 -0.005966 -703696.000000 0 0 1
-4.185038 -31.163115 -16.823092 35.660492 1.437300 2.062079 0.037023 -0.002978 -565206.000000 0 0 1
-5.563838 -30.948435 -16.122492 35.336902 1.392919 2.044574 0.040457 -0.009091 66447.800000 0 0 1
-5.731038 -29.842365 -15.216892 33.984781 1.381063 2.035051 0.030510 -0.001765 -43534.000000 0 0 1
-7.086238 -29.716095 -14.836492 33.961486 1.336704 2.022904 0.044377 -0.008005 96721.000000 0 0 1
-7.731638 -30.716915 -13.833092 34.563876 1.324212 1.982551 0.035998 -0.011026 -257560.000000 0 0 1
-8.066538 -31.936865 -14.435992 35.964291 1.323393 1.983839 0.044646 -0.013412 -87861.900000 0 0 1
-8.556238 -32.779755 -13.364092 36.418683 1.315471 1.946532 0.066125 -0.016133 403942.000000 0 0 1
-9.020338 33.881194 -13.834092 37.691961 -1.310598 1.946611 0.092091 -0.021832 -254142.000000 0 0 1
-7.969438 32.960352 -13.827792 36.621095 -1.333561 1.957990 0.062503 -0.020723 -320736.000000 0 0 1
-8.332938 31.645697 -14.230092 35.684500 -1.313321 1.980977 0.088124 -0.037193 -403184.000000 0 0 1
-8.034438 -22.058805 -3.124992 23.683510 1.221503 1.703130 0.077910 -0.018301 211592.000000 0 1 0
-7.747238 -21.124405 -4.140992 22.878111 1.219284 1.752802 0.056169 -0.010860 -378842.000000 0 1 0
-6.519038 -21.367205 -4.779292 22.845063 1.274671 1.781558 0.049973 -0.004897 -16981.000000 0 1 0
-6.188838 -20.269805 -5.780092 21.967616 1.274463 1.837050 0.042980 -0.010340 -300098.000000 0 1 0
-6.848038 -20.489405 -6.972392 22.700784 1.248245 1.882986 0.046486 -0.009853 -599855.000000 0 1 0
-6.809338 -19.341305 -7.821192 21.945938 1.232286 1.935192 0.034181 -0.008542 -169380.000000 0 1 0
-7.635338 -19.405705 -9.121292 22.761321 1.195942 1.983117 0.036497 -0.016218 239671.000000 0 1 0
-7.026838 -20.205305 -10.071192 23.644443 1.236108 2.010801 0.030795 -0.012753 -559438.000000 0 1 0
-7.906738 -20.297805 -11.139092 24.466237 1.199343 2.043488 0.072531 -0.014160 44091.500000 0 1 0
-7.433138 -21.213205 -12.318992 25.632190 1.233764 2.072142 0.067784 -0.013112 589697.000000 0 0 1
-6.261738 -20.721505 -12.977392 25.238915 1.277336 2.110850 0.063693 -0.005663 310354.000000 0 0 1
-5.837738 -21.639305 -13.965692 26.407939 1.307294 2.128035 0.045473 -0.002616 -261015.000000 0 0 1
-5.047638 -20.993605 -15.091292 26.343067 1.334838 2.180806 0.020942 0.013751 261240.000000 0 0 1
-3.682438 -20.774005 -14.732292 25.732471 1.395357 2.180370 0.026174 0.004974 486965.000000 0 0 1
-2.944238 -19.790505 -15.486392 25.301402 1.423109 2.229480 0.043179 0.005930 206945.000000 0 0 1
-3.381038 -18.263105 -15.421992 24.141463 1.387739 2.263757 0.044439 0.006473 -852615.000000 0 1 0
-4.573338 -17.990305 -16.084792 24.561902 1.321858 2.284804 0.046718 0.011225 -482819.000000 0 1 0
-4.502038 -17.990705 -17.510392 25.505835 1.325589 2.327495 0.055228 -0.005606 48561.800000 0 0 1
-5.933338 -17.848805 -18.145092 26.134818 1.249866 2.338227 0.054539 0.002447 1173620.000000 0 0 1
-6.861238 -18.858505 -17.753792 26.793972 1.221857 2.295087 0.045168 0.003370 310832.000000 0 0 1
-8.132038 -18.715505 -18.361092 27.450498 1.160900 2.303498 0.027655 0.002354 732574.000000 0 0 1
-9.201438 -19.748105 -17.861092 28.172197 1.134766 2.257507 0.053849 -0.001808 406141.000000 0 0 1
-8.702638 -21.036505 -18.166392 29.125388 1.178542 2.244303 0.058378 -0.000850 449711.000000 0 0 1
-9.258838 -22.002205 -17.303892 29.483008 1.172477 2.198034 0.093263 -0.017494 141755.000000 0 0 1
-8.622038 -23.364205 -17.664792 30.533105 1.217272 2.187741 0.102797 -0.023477 -475390.000000 0 0 1
-8.872738 -23.686105 -19.012392 31.642188 1.212379 2.215368 0.085310 -0.025286 -233848.000000 0 0 1
-8.392238 -24.849105 -19.530992 32.701182 1.245096 2.210872 0.090076 -0.037032 385863.000000 0 0 1
-6.833138 -24.894705 -19.752492 32.505369 1.302912 2.223918 0.060275 -0.027405 216460.000000 0 0 1
-6.261038 -24.048505 -20.711692 32.349735 1.316100 2.265611 0.077121 -0.021826 17200.800000 0 0 1
-6.131338 -22.648405 -20.363992 31.068243 1.306415 2.285588 0.056208 -0.026353 -414639.000000 0 0 1
-5.210638 -22.359905 -19.108292 29.870435 1.341847 2.264912 0.076253 -0.006271 -168372.000000 0 0 1
-3.856538 -22.624805 -19.328892 30.006012 1.401963 2.270730 0.074268 -0.024230 -31568.800000 0 0 1
-3.029538 -22.474905 -18.160292 29.053324 1.436807 2.246014 0.031665 -0.017617 751161.000000 0 0 1
-1.523138 -22.783605 -18.344792 29.290681 1.504043 2.247596 0.073321 -0.016593 113254.000000 0 0 1
-0.775838 -21.870805 -19.062792 29.022820 1.535338 2.287391 0.093352 -0.029584 -610111.000000 0 0 1
0.559762 -22.305405 -19.182192 29.424495 -1.545706 2.280900 0.064346 -0.025338 398271.000000 0 0 1
1.412762 -21.483605 -20.208192 29.528159 -1.505131 2.324536 0.063712 -0.030229 397140.000000 0 0 1
0.919962 -21.621605 -21.528392 30.525592 -1.528274 2.353582 0.063796 -0.036915 -500262.000000 0 0 1
1.817562 -21.077105 -22.433492 30.835198 -1.484775 2.385509 0.074381 -0.039318 -586510.000000 0 0 1
1.358562 -21.166105 -23.901492 31.955141 -1.506699 2.415795 0.084991 -0.042839 -262023.000000 0 0 1
0.751662 -20.016405 -24.503692 31.648892 -1.533262 2.456302 0.060435 -0.036912 689843.000000 0 0 1
-0.595838 -19.806105 -24.031692 31.147376 1.540722 2.452067 0.068062 -0.042439 29593.600000 0 0 1
-1.318238 -18.747405 -24.790892 31.109344 1.500596 2.492935 0.080773 -0.038972 -488979.000000 0 0 1
-0.799938 -17.435605 -24.612892 30.173410 1.524949 2.524760 0.063902 -0.041662 -527247.000000 0 0 1
-1.457038 -16.426205 -25.299682 30.199621 1.482326 2.563943 0.079491 -0.047794 -514395.000000 0 0 1
-0.994438 -14.992205 -24.938592 29.115090 1.504563 2.599347 0.075647 -0.039414 2117030.000000 0 0 1
0.438662 -14.768005 -25.238342 29.244834 -1.541102 2.611978 0.072593 -0.045117 1581160.000000 0 0 1
0.924962 -13.578005 -24.719092 28.217925 -1.502779 2.638316 0.071266 -0.042345 63505.800000 0 0 1
0.642462 -12.313005 -25.506592 28.330356 -1.518666 2.691317 0.066455 -0.034262 -418700.000000 0 0 1
1.220362 -11.132105 -25.073592 27.460846 -1.461607 2.721539 0.061185 -0.032159 -216511.000000 0 0 1
1.001162 -10.107605 -26.023002 27.934972 -1.472068 2.769467 0.058755 -0.029934 -396630.000000 0 0 1
1.912162 -8.869305 -25.890182 27.433966 -1.358453 2.804521 0.065864 -0.034253 1010360.000000 0 0 1
3.308062 -8.985005 -26.212672 27.906590 -1.218022 2.791382 0.057600 -0.033246 676053.000000 0 0 1
3.542062 -9.015905 -27.597872 29.248509 -1.196453 2.804031 0.066940 -0.036236 1127450.000000 0 0 1
5.045862 -8.675105 -28.034432 29.776628 -1.043980 2.797824 0.060776 -0.034706 1100680.000000 0 0 1
5.312862 -7.297305 -28.030512 29.448035 -0.941487 2.830056 0.065600 -0.033818 411417.000000 0 0 1
6.588762 -6.871505 -28.501172 30.049063 -0.806401 2.819225 0.049590 -0.026815 270140.000000 0 0 1
7.758162 -6.928105 -27.415532 29.322331 -0.728939 2.778974 0.062296 -0.027957 534199.000000 0 0 1
8.289762 -8.184105 -27.001182 29.406863 -0.778985 2.734291 0.048604 -0.028921 433604.000000 0 0 1
8.949062 -8.817105 -28.078652 30.760978 -0.777971 2.720887 0.071762 -0.036612 -956195.000000 0 0 1
9.337762 -10.293505 -27.699532 30.990549 -0.834044 2.676557 0.053489 -0.026345 -883067.000000 0 0 1
8.294762 -11.180905 -27.580302 30.894802 -0.932520 2.674135 0.069108 -0.035982 -687838.000000 0 0 1
8.482862 -12.389205 -26.831862 30.747360 -0.970414 2.631411 0.065695 -0.033952 -335412.000000 0 0 1
9.442462 -13.486505 -27.422062 31.984612 -0.959975 2.600899 0.074932 -0.037721 -275237.000000 0 0 1
8.821562 -14.283805 -28.401402 32.992222 -1.017542 2.607737 0.087071 -0.044992 -790622.000000 0 0 1
9.654362 -15.083905 -29.199112 34.253745 -1.001452 2.591423 0.083536 -0.042313 -531937.000000 0 0 1
8.985962 -15.827705 -30.348662 35.387922 -1.054438 2.601380 0.092006 -0.045176 -477672.000000 0 0 1
8.273162 -14.969405 -31.162752 35.547791 -1.065904 2.639638 0.083077 -0.046049 -139600.000000 0 0 1
7.506062 -15.657605 -32.123362 36.515914 -1.123774 2.646045 0.097030 -0.040324 82527.000000 0 0 1
6.385362 -14.685105 -32.660112 36.374553 -1.160638 2.685734 0.112462 -0.045823 114829.000000 0 0 1
6.825462 -13.718505 -33.539862 36.874201 -1.109121 2.713057 0.109308 -0.044320 -336104.000000 0 0 1
5.797562 -12.963705 33.864196 36.721290 -1.150261 0.397077 0.092377 -0.042813 -331226.000000 0 0 1
6.343062 -11.771705 33.011915 35.617327 -1.076562 0.384863 0.113307 -0.037320 36131.200000 0 0 1
6.756262 -12.195005 31.690364 34.621444 -1.064873 0.414447 0.106595 -0.036909 19040.900000 0 0 1
7.315462 -11.168905 31.004204 33.756794 -0.990925 0.406632 0.098668 -0.033782 -471211.000000 0 0 1
7.819762 -11.656105 29.660494 32.813997 -0.979888 0.442001 0.078314 -0.029063 -375821.000000 0 0 1
6.780462 -11.959805 28.783954 31.898709 -1.055042 0.445594 0.075616 -0.029087 -275089.000000 0 0 1
7.240462 -12.104405 27.480874 30.889146 -1.031725 0.474194 0.053300 -0.024427 -417441.000000 0 0 1
6.295262 -12.775505 26.465824 30.054679 -1.112957 0.493692 0.048440 -0.038211 -189742.000000 0 0 1
6.401662 -14.178305 26.607214 30.821250 -1.146686 0.529074 0.054398 -0.031939 110441.000000 0 0 1
5.898362 -14.969905 25.499874 30.151821 -1.195460 0.562891 0.038438 -0.033770 341114.000000 0 0 1
4.365762 -15.188805 25.385874 29.903215 -1.290908 0.556830 0.052860 -0.041971 53576.500000 0 0 1
3.657862 -14.061205 25.014214 28.927640 -1.316298 0.526210 0.034664 -0.043784 -491196.000000 0 0 1
2.293562 -14.295505 24.775164 28.695481 -1.411713 0.528861 0.042610 -0.041523 41631.600000 0 0 1
1.430262 -13.025505 24.688714 27.950707 -1.461430 0.487952 0.061282 -0.042757 -585761.000000 0 0 1
1.626062 -12.232705 23.583324 26.616843 -1.438644 0.482085 0.035026 -0.036496 -270603.000000 0 0 1
0.713962 -11.158005 23.425284 25.956786 -1.506897 0.445321 0.049032 -0.029356 1538230.000000 0 0 1
-0.765238 -11.577705 23.004924 25.765391 1.504797 0.467137 0.073303 -0.028239 815289.000000 0 0 1
-0.814938 -12.280905 21.796774 25.031662 1.504535 0.514034 0.075420 -0.019751 726195.000000 0 0 1
-2.119438 -12.890205 21.649174 25.285097 1.407832 0.542922 0.088660 -0.024537 1150210.000000 0 0 1
-2.348038 -13.559905 20.263974 24.495162 1.399336 0.596576 0.097535 -0.028898 283333.000000 0 1 0
-1.399638 -14.601805 20.027274 24.824653 1.475235 0.632166 0.111259 -0.033269 -58663.200000 0 1 0
-1.645738 -15.301705 18.834574 24.322660 1.463656 0.685088 0.107052 -0.036997 -58424.000000 0 1 0
-2.717438 -16.402005 18.775574 25.078525 1.406611 0.724741 0.080455 -0.035774 97267.200000 0 0 1
-2.664938 -17.238605 17.666474 24.826915 1.417419 0.779044 0.072394 -0.039203 -191045.000000 0 1 0
-3.707838 -18.184005 17.752274 25.681693 1.369647 0.807589 0.077541 -0.032347 -86776.300000 0 0 1
-3.318338 -19.451105 16.986874 26.036719 1.401824 0.860023 0.081286 -0.034929 590228.000000 0 0 1
-2.126538 -20.093705 17.467874 26.709657 1.465358 0.857948 0.086656 -0.039732 344387.000000 0 0 1
-2.118638 -21.499005 17.288574 27.669308 1.472568 0.895884 0.088870 -0.051791 -305799.000000 0 0 1
-0.965838 -22.216205 17.991274 28.603820 1.527349 0.890554 0.099980 -0.042584 304774.000000 0 0 1
0.294862 -22.141505 17.331274 28.119499 -1.557480 0.906705 0.117878 -0.044209 -102365.000000 0 0 1
1.093662 -23.243105 17.662574 29.213089 -1.523778 0.921518 0.118234 -0.028179 -748405.000000 0 0 1
2.370062 -23.280405 16.855774 28.839410 -1.469341 0.946569 0.098429 -0.035596 -623316.000000 0 0 1
3.149262 -22.135705 17.132774 28.168053 -1.429474 0.916962 0.104136 -0.032481 -54104.200000 0 0 1
4.380062 -22.094305 16.428874 27.879224 -1.375090 0.940620 0.082218 -0.022775 416889.000000 0 0 1
5.128462 -20.753205 16.759074 27.163637 -1.328533 0.905913 0.079972 -0.022895 -951084.000000 0 0 1
5.606962 -20.720605 18.077774 28.063988 -1.306527 0.870868 0.074307 -0.019690 -135008.000000 0 0 1
6.165462 -19.462505 18.441874 27.511902 -1.264011 0.836152 0.080211 -0.021808 216167.000000 0 0 1
7.233462 -18.771605 17.557674 26.701461 -1.202991 0.853228 0.097683 -0.027722 -800062.000000 0 0 1
6.778362 -18.237905 16.351974 25.415633 -1.214954 0.871888 0.080075 -0.030605 69608.000000 0 0 1
7.789662 -17.422805 15.775074 24.760572 -1.150360 0.880060 0.098744 -0.029715 274746.000000 0 1 0
7.155162 -16.410105 14.780174 23.215112 -1.159627 0.880635 0.062036 -0.021411 -122119.000000 0 1 0
6.623962 -17.008705 13.657774 22.797099 -1.199422 0.928418 0.067596 -0.026787 70475.300000 0 1 0
6.087862 -16.091505 12.714874 21.393144 -1.209111 0.934347 0.051812 -0.034260 55354.000000 0 1 0
6.520462 -16.545405 11.318074 21.079982 -1.195391 1.004025 0.056378 -0.024773 -208892.000000 0 1 0
7.834362 -16.092205 11.145574 21.084594 -1.117730 1.013831 0.058270 -0.025413 -295307.000000 0 1 0
8.381862 -16.386005 9.864874 20.882349 -1.097971 1.078782 0.060270 -0.025374 -3176.900000 0 1 0
9.796662 -15.821205 9.685474 20.978406 -1.016371 1.090899 0.047416 -0.018606 -61849.200000 0 1 0
10.444462 -16.380705 8.570874 21.233798 -1.003182 1.155301 0.045820 -0.015066 -655539.000000 0 1 0
11.799662 -16.009405 8.547274 21.646916 -0.935638 1.164892 0.043265 -0.014343 290751.000000 0 1 0
12.744862 -16.919305 7.693474 22.536280 -0.925204 1.222410 0.048324 -0.020837 306640.000000 0 1 0
12.885062 -18.252505 8.203174 23.800648 -0.956099 1.218918 0.047881 -0.023437 -93944.300000 0 1 0
13.813862 -18.998005 7.453774 24.643574 -0.942099 1.263520 0.056717 -0.026267 -148777.000000 0 1 0
14.349162 -20.160705 8.277974 26.093626 -0.952235 1.247977 0.063466 -0.027038 -366481.000000 0 0 1
13.392262 -21.132905 8.662074 26.476100 -1.005954 1.237494 0.074715 -0.023783 214551.000000 0 0 1
13.990162 -22.299605 9.213874 27.890724 -1.010493 1.234115 0.069333 -0.017662 509096.000000 0 0 1
12.902662 -22.983705 10.091074 28.223380 -1.059256 1.205161 0.083576 -0.022655 489767.000000 0 0 1
12.805862 -22.333405 11.357174 28.138168 -1.050169 1.155324 0.091690 -0.024537 -621435.000000 0 0 1
11.815462 -22.683705 12.269074 28.366984 -1.090585 1.123519 0.106682 -0.027987 -520583.000000 0 0 1
11.828662 -24.108205 12.833474 29.762743 -1.114658 1.124982 0.095915 -0.020458 -393258.000000 0 0 1
12.901562 -24.500005 13.642374 30.867700 -1.086100 1.113011 0.081522 -0.024836 -393590.000000 0 0 1
12.804362 -25.768245 14.270474 32.118539 -1.109628 1.110396 0.081231 -0.035976 346152.000000 0 0 1
14.021162 -26.093805 15.200174 33.294518 -1.077727 1.096698 0.065947 -0.034800 513013.000000 0 0 1
13.978762 -25.301915 16.394974 33.232332 -1.066052 1.054866 0.058791 -0.026027 -319426.000000 0 0 1
14.940662 -25.910675 17.159174 34.482223 -1.047744 1.049939 0.052132 -0.023640 -934129.000000 0 0 1
14.979062 -25.286175 18.553474 34.756213 -1.035997 1.007688 0.058196 -0.020380 -207443.000000 0 0 1
15.433562 -24.002505 18.718074 34.127429 -0.999359 0.990256 0.051918 -0.020442 183542.000000 0 0 1
16.801662 -23.975805 19.115974 34.965062 -0.959550 0.992359 0.044422 -0.017894 34442.700000 0 0 1
17.301962 -22.569305 19.385474 34.416973 -0.916746 0.972478 0.050878 -0.012456 -229758.000000 0 0 1
17.488762 -21.620805 18.300874 33.290209 -0.890661 0.988746 0.047727 -0.014932 254889.000000 0 0 1
16.293562 -20.968705 17.930874 32.041894 -0.910212 0.976885 0.062712 -0.017598 -172710.000000 0 0 1
16.605862 -19.836005 16.946074 30.925575 -0.873805 0.990869 0.041659 -0.011244 165396.000000 0 0 1
17.296862 -18.720605 17.500774 30.917949 -0.824907 0.969103 0.038798 -0.014466 1385500.000000 0 0 1
18.686562 -18.645705 17.093974 31.449227 -0.784304 0.996145 0.047994 -0.005548 1105600.000000 0 0 1
19.468662 -17.355005 17.404674 31.355186 -0.728062 0.982336 0.065016 -0.009383 -289657.000000 0 0 1
19.793062 -17.242105 18.756174 32.262200 -0.716627 0.950389 0.061632 -0.003989 89927.700000 0 0 1
20.126962 -15.914605 19.088574 31.980352 -0.669051 0.931184 0.074400 -0.009964 -160699.000000 0 0 1
20.857262 -15.848205 20.432374 33.221573 -0.649770 0.908368 0.067378 -0.004510 -623015.000000 0 0 1
22.137162 -16.383805 20.488674 34.325920 -0.637138 0.931182 0.074933 -0.004690 -717757.000000 0 0 1
22.567762 -16.387105 21.828274 35.416305 -0.628048 0.906717 0.095214 -0.005592 95641.600000 0 0 1
34.571062 -1.396405 -7.728092 35.451822 -0.040370 1.790549 0.187488 -0.032117 1049860.000000 0 0 1
35.937722 -1.066005 -8.071692 36.848453 -0.029654 1.791638 0.186082 -0.029825 805100.000000 0 0 1
36.750942 -2.180705 -7.825392 37.638066 -0.059268 1.780236 0.184043 -0.040345 781647.000000 0 0 1
-35.806417 -1.817005 -8.249592 36.789357 0.050702 1.796958 0.172856 -0.035594 1285630.000000 0 0 1
-34.888444 -2.927505 -8.168692 35.951374 0.083714 1.800013 0.180044 -0.038660 103587.000000 0 0 1
-33.672718 -2.620205 -8.781892 34.897550 0.077657 1.825179 0.206275 -0.038236 -234063.000000 0 0 1
-32.523938 -3.640405 -8.528592 33.820053 0.111466 1.825724 0.189274 -0.035196 -123307.000000 0 0 1
-32.108548 -3.589405 -7.221592 33.105801 0.111327 1.790701 0.173598 -0.041071 -269321.000000 0 0 1
-30.989868 -4.384505 -7.015392 32.075092 0.140549 1.791297 0.158328 -0.046912 -544910.000000 0 0 1
-30.309128 -4.361505 -5.662692 31.140521 0.142920 1.753657 0.159871 -0.057687 -225285.000000 0 0 1
-29.866648 -3.090805 -5.289192 30.488445 0.103120 1.745160 0.154428 -0.051953 422088.000000 0 0 1
-29.681128 -2.986005 -3.866092 30.080430 0.100265 1.699678 0.143163 -0.046918 -309183.000000 0 0 1
-29.361098 -1.516905 -3.469392 29.604252 0.051618 1.688259 0.169584 -0.044968 -355711.000000 0 0 1
-28.004568 -1.170905 -3.283392 28.220693 0.041787 1.687407 0.147280 -0.038053 262601.000000 0 0 1
-27.785358 0.179495 -2.820792 27.928752 -0.006460 1.671968 0.170211 -0.045063 -1220600.000000 0 0 1
-26.351668 0.422895 -2.448392 26.468545 -0.016047 1.663431 0.166346 -0.029445 -1110720.000000 0 0 1
-25.971258 -0.250905 -1.240192 26.002063 0.009661 1.618510 0.160260 -0.030753 226243.000000 0 0 1
-24.625238 -0.108105 -0.851192 24.640182 0.004390 1.605348 0.135118 -0.027684 -52810.200000 0 1 0
-24.310638 -0.907505 0.377308 24.330496 0.037312 1.555288 0.142975 -0.031649 -101613.000000 0 1 0
-24.507638 -2.313305 0.231908 24.617666 0.094112 1.561376 0.150724 -0.029254 208641.000000 0 1 0
-23.944438 -2.994605 1.309608 24.166482 0.124419 1.516579 0.151664 -0.030286 -279571.000000 0 1 0
-24.256638 -4.519605 1.332908 24.710078 0.184212 1.516828 0.160198 -0.019063 -1461440.000000 0 1 0
-25.447828 -4.960805 1.802208 25.989411 0.192526 1.501397 0.153395 -0.025470 -1024750.000000 0 0 1
-25.455028 -6.383205 1.810308 26.305531 0.245698 1.501923 0.140739 -0.018037 -316061.000000 0 0 1
-26.793068 -6.813105 2.404508 27.750109 0.249009 1.484039 0.148053 -0.016366 -459973.000000 0 0 1
-26.950668 -6.592705 3.766008 27.999733 0.239910 1.435886 0.148148 -0.012397 756789.000000 0 0 1
-28.259528 -7.004805 4.183908 29.413828 0.242977 1.428069 0.115523 0.000994 419082.000000 0 0 1
-28.205538 -7.498305 5.619608 29.721321 0.259835 1.380575 0.128782 -0.003633 -125580.000000 0 0 1
-27.340838 -8.600105 5.829508 29.248357 0.304753 1.370142 0.126268 0.001455 62841.800000 0 0 1
-27.323658 -9.104005 7.173508 29.680370 0.321623 1.326687 0.087423 -0.005908 1723.180000 0 0 1
-26.550398 -8.201705 8.196208 28.971873 0.299612 1.283978 0.108968 -0.013860 490788.000000 0 0 1
-25.176378 -8.010105 7.848208 27.560953 0.308033 1.282042 0.128918 -0.024379 450021.000000 0 0 1
-24.760738 -6.796005 8.467508 27.036614 0.267871 1.252250 0.132715 -0.028563 -383391.000000 0 0 1
-23.510238 -6.196105 7.847308 25.548057 0.257690 1.258590 0.180212 -0.042399 534960.000000 0 0 1
-22.235538 -6.704305 8.297608 24.662059 0.292844 1.227649 0.162023 -0.052381 555494.000000 0 1 0
-21.202638 -6.064905 7.607108 23.328159 0.278605 1.238631 0.155936 -0.048608 -467580.000000 0 1 0
-19.813638 -6.452805 8.130708 22.367998 0.314842 1.198777 0.161346 -0.055167 -300859.000000 0 1 0
-19.418738 -5.681005 9.212508 22.231318 0.284611 1.143520 0.127199 -0.050239 408434.000000 0 1 0
-18.384238 -6.257105 10.018108 21.851637 0.328054 1.094534 0.127327 -0.059027 281366.000000 0 1 0
-17.888438 -5.484505 11.299208 21.857449 0.297496 1.027512 0.103189 -0.028059 211184.000000 0 1 0
-18.856238 -5.462105 12.333008 23.183946 0.281954 1.009879 0.110864 -0.026492 237368.000000 0 1 0
-18.931538 -4.142405 12.840208 23.247227 0.215415 0.985636 0.105670 -0.023405 308020.000000 0 1 0
-20.066738 -4.044805 13.900708 24.743971 0.198902 0.974259 0.107910 -0.032125 252177.000000 0 1 0
-19.870538 -4.796805 15.071208 25.396632 0.236871 0.935479 0.101561 -0.031438 294408.000000 0 0 1
-21.033738 -4.709505 15.883508 26.774678 0.220269 0.935733 0.089447 -0.012127 216143.000000 0 0 1
-20.816438 -5.244905 17.265508 27.548700 0.246822 0.893451 0.090050 -0.015964 -220186.000000 0 0 1
-21.899438 -5.061305 18.145608 28.887112 0.227128 0.891616 0.079999 -0.019767 301062.000000 0 0 1
-21.795538 -5.868505 19.285508 29.688645 0.263015 0.863749 0.090437 -0.023137 -515601.000000 0 0 1
-22.823738 -5.407605 20.313008 31.028752 0.232639 0.857075 0.098577 -0.026305 -507667.000000 0 0 1
-22.674838 -4.068605 20.779108 31.023751 0.177543 0.836883 0.084573 -0.021441 256833.000000 0 0 1
-23.154238 -3.885505 22.112208 32.251598 0.166261 0.815347 0.083709 -0.030640 -13755.600000 0 0 1
-22.987838 -2.463805 22.743208 32.430919 0.106771 0.793603 0.082212 -0.017362 -31184.900000 0 0 1
-23.941438 -1.564905 22.201408 32.688589 0.065271 0.824153 0.082508 -0.018493 85897.200000 0 0 1
-23.802338 -0.131505 22.354708 32.654273 0.005525 0.816759 0.083126 -0.024197 -62293.400000 0 0 1
-25.078638 0.517395 21.738908 33.193160 -0.020628 0.856718 0.098761 -0.028019 -77240.500000 0 0 1
-26.209798 0.224395 22.502208 34.544945 -0.008561 0.861382 0.106122 -0.029546 649832.000000 0 0 1
-27.345048 1.018595 22.008108 35.116178 -0.037233 0.893456 0.108021 -0.028554 1323040.000000 0 0 1
-28.527538 1.232595 22.967108 36.644614 -0.043180 0.893418 0.111946 -0.025723 -127853.000000 0 0 1
-28.117778 2.078495 24.013608 37.034888 -0.073787 0.865309 0.112083 -0.027611 375896.000000 0 0 1
-29.093648 2.096295 25.051308 38.450004 -0.071929 0.861198 0.100745 -0.028129 162418.000000 0 0 1
-28.692718 3.128495 26.157208 38.952010 -0.108605 0.834533 0.115849 -0.026306 -50652.200000 0 0 1
-27.641268 2.639595 26.947008 38.693002 -0.095206 0.800384 0.119040 -0.030014 36802.400000 0 0 1
-27.184128 3.512295 27.930908 39.133728 -0.128492 0.775987 0.115137 -0.027974 -135155.000000 0 0 1
-25.992888 3.018895 28.776408 38.895059 -0.115625 0.737953 0.107496 -0.028032 -262714.000000 0 0 1
-26.357528 2.274095 29.939708 39.953434 -0.086066 0.723694 0.091274 -0.028881 247194.000000 0 0 1
-25.244828 1.930495 30.730708 39.817139 -0.076322 0.689136 0.084441 -0.028825 71801.400000 0 0 1
-25.633668 0.675295 31.608108 40.701516 -0.026338 0.681572 0.070273 -0.025737 156313.000000 0 0 1
-26.087028 -0.408605 30.844108 40.398749 0.015662 0.702094 0.051998 -0.025357 -22587.700000 0 0 1
-26.268868 -1.569605 31.610108 41.130475 0.059681 0.694252 0.063298 -0.020537 -646165.000000 0 0 1
-27.075838 -2.651905 30.870408 41.147487 0.097632 0.722374 0.052132 -0.010454 450260.000000 0 0 1
-28.469648 -2.456405 30.642608 41.898976 0.086068 0.750504 0.048705 -0.012243 545633.000000 0 0 1
-28.752888 -1.435005 29.690308 41.355800 0.049867 0.769981 0.055561 -0.006658 -740778.000000 0 0 1
-30.228348 -1.236905 29.293108 42.111389 0.040896 0.801528 0.062277 -0.019697 550276.000000 0 0 1
-31.042748 -0.716905 30.366208 43.431241 0.023090 0.796548 0.087840 -0.008649 -342660.000000 0 0 1
-32.404138 -0.575805 30.071408 44.211415 0.017768 0.822798 0.079827 -0.013519 30014.600000 0 0 1
-33.213358 -0.186605 31.339408 45.665309 0.005618 0.814428 0.085809 -0.009111 -144394.000000 0 0 1
-33.305928 -1.202405 32.282208 46.399047 0.036086 0.801331 0.063878 -0.016222 100687.000000 0 0 1
-34.221469 -0.910605 33.331208 47.779782 0.026603 0.798753 0.075938 -0.016269 243675.000000 0 0 1
-34.326639 -2.114405 -33.698059 48.149227 0.061519 2.346008 0.077986 -0.017230 272551.000000 0 0 1
-35.055888 -3.166705 33.600708 48.661595 0.090089 0.808620 0.059940 -0.009614 224055.000000 0 0 1
-35.000771 -4.398805 -33.713459 48.795499 0.125022 2.333548 0.045844 -0.010487 319602.000000 0 0 1
-36.171828 -5.381505 33.898908 49.864794 0.147693 0.823284 0.033326 -0.004307 1433490.000000 0 0 1
36.578932 -4.875905 -33.660859 49.948435 -0.132517 2.310288 0.032192 -0.011720 754844.000000 0 0 1
35.532242 -5.513005 33.580308 49.199294 -0.153928 0.819569 0.040820 -0.017217 365720.000000 0 0 1
34.126972 -4.978005 -33.959359 48.401124 -0.144846 2.348470 0.041857 -0.015582 193601.000000 0 0 1
33.612052 -5.493305 -32.700259 47.214970 -0.162000 2.335859 0.052042 -0.024447 371914.000000 0 0 1
33.129312 -6.853205 -32.749959 47.085853 -0.203985 2.339964 0.066901 -0.029158 -78301.700000 0 0 1
31.730272 -7.070605 -33.409859 46.615687 -0.219252 2.369867 0.082661 -0.032403 305591.000000 0 0 1
30.699182 -6.602605 -32.546859 45.225349 -0.211847 2.374108 0.091483 -0.035459 5489.310000 0 0 1
29.433302 -7.006905 -33.016259 44.782690 -0.233710 2.399795 0.096054 -0.033095 -322072.000000 0 0 1
28.267272 -6.676605 -32.101759 43.291323 -0.231945 2.406142 0.109848 -0.040385 271777.000000 0 0 1
26.997672 -7.204605 -32.502159 42.862233 -0.260783 2.431488 0.111880 -0.033830 123129.000000 0 0 1
25.978172 -6.810905 -31.630559 41.493929 -0.256407 2.437646 0.121534 -0.034103 -501347.000000 0 0 1
24.631172 -7.307905 -32.196359 41.191087 -0.288420 2.468078 0.117270 -0.038298 -262000.000000 0 0 1
24.538472 -8.715305 -32.359559 41.535939 -0.341272 2.463983 0.121378 -0.044361 26563.600000 0 0 1
24.210272 -9.498205 -31.213059 40.627678 -0.373869 2.446932 0.131314 -0.035561 -206284.000000 0 0 1
24.006172 -11.014305 -31.328459 40.976622 -0.430157 2.441131 0.139839 -0.036278 -106633.000000 0 0 1
22.767872 -11.401605 -31.880159 40.800945 -0.464268 2.467636 0.146522 -0.042983 -43876.600000 0 0 1
22.563372 -12.789305 -31.824659 41.054610 -0.515663 2.457794 0.128451 -0.029542 -883228.000000 0 0 1
21.290872 -13.253605 -32.543559 41.085795 -0.556801 2.485018 0.108276 -0.022108 776351.000000 0 0 1
20.046572 -12.917505 -31.902159 39.830575 -0.572411 2.499671 0.098720 -0.013952 474368.000000 0 0 1
19.625672 -11.599205 -32.130459 39.396383 -0.533792 2.524508 0.093378 -0.025474 -763383.000000 0 0 1
18.284872 -11.263005 -31.452159 38.084513 -0.552082 2.542507 0.074195 -0.023456 704941.000000 0 0 1
17.074972 -11.593405 -32.152459 38.206574 -0.596472 2.570929 0.054205 -0.013434 -12498.800000 0 0 1
15.963072 -11.336305 -31.351859 36.963097 -0.617511 2.583362 0.064209 -0.025299 -1009350.000000 0 0 1
14.698872 -11.707205 -32.082659 37.180808 -0.672585 2.611741 0.059293 -0.024326 -1208930.000000 0 0 1
14.614572 -13.104105 -32.445159 37.920860 -0.730959 2.597509 0.075276 -0.024615 -31753.600000 0 0 1
13.530972 -13.404705 -33.284659 38.348948 -0.780710 2.621840 0.062457 -0.032066 -7878.030000 0 0 1
12.114372 -13.555005 -32.664159 37.382395 -0.841462 2.633727 0.055581 -0.033519 344395.000000 0 0 1
11.400372 -12.342105 -32.424059 36.518703 -0.825042 2.663503 0.092900 -0.032201 -22364.300000 0 0 1
10.323172 -12.468705 -31.525159 35.438286 -0.879257 2.667219 0.093994 -0.038497 787196.000000 0 0 1
9.055272 -11.576405 -31.750259 34.986998 -0.906992 2.708060 0.086782 -0.036342 562107.000000 0 0 1
9.396372 -10.225105 -31.581059 34.499389 -0.827609 2.727320 0.086057 -0.027056 -635020.000000 0 0 1
8.281372 -9.420405 -31.586159 33.985447 -0.849655 2.763587 0.075996 -0.025477 -965724.000000 0 0 1
8.437372 -7.937205 -31.916859 33.954004 -0.754862 2.793435 0.086891 -0.023875 -144168.000000 0 0 1
8.924472 -7.133605 -30.835659 32.884227 -0.674333 2.786757 0.082019 -0.030273 354388.000000 0 0 1
9.336372 -5.810505 -31.170259 33.053212 -0.556692 2.802427 0.060631 -0.023570 -275052.000000 0 0 1
9.363772 -4.874905 -30.005859 31.808749 -0.480002 2.803295 0.053554 -0.018679 -478546.000000 0 0 1
8.087372 -4.511905 -29.564959 30.981441 -0.508884 2.838037 0.056971 -0.019492 -527796.000000 0 0 1
8.167772 -3.324705 -28.727759 30.050795 -0.386570 2.843755 0.058441 -0.015901 -607889.000000 0 0 1
6.768672 -2.841605 -28.419059 29.351875 -0.397473 2.888807 0.065217 -0.011479 -1649320.000000 0 0 1
6.201372 -2.242005 -29.572259 30.298550 -0.346913 2.922196 0.065376 -0.009521 -379174.000000 0 0 1
4.967672 -1.655205 -29.235159 29.700370 -0.321626 2.964367 0.076261 -0.008745 91414.500000 0 0 1
3.719572 -2.564705 -29.113659 29.462146 -0.603655 2.987634 0.076230 -0.016175 -669480.000000 0 0 1
3.695872 -3.355005 -27.905859 28.348765 -0.737092 2.964594 0.070845 -0.018612 1183.880000 0 0 1
2.704272 -4.384205 -27.868759 28.340820 -1.018100 2.958819 0.073225 -0.021872 319847.000000 0 0 1
3.009072 -5.402605 -26.769459 27.474472 -1.062620 2.914563 0.064266 -0.033841 -91042.800000 0 0 1
2.800472 -4.975105 -25.452059 26.084509 -1.058105 2.920935 0.060568 -0.035104 -56125.000000 0 0 1
3.222472 -5.931005 -24.494859 25.407858 -1.073091 2.872702 0.059997 -0.042252 -158284.000000 0 0 1
3.248272 -5.343805 -23.072259 23.904741 -1.024619 2.876908 0.060630 -0.041002 348282.000000 0 1 0
4.344472 -4.458605 -22.771459 23.607053 -0.798362 2.874734 0.059681 -0.038904 339752.000000 0 1 0
4.127372 -3.901605 -21.514059 22.251123 -0.757286 2.883487 0.052469 -0.032937 219117.000000 0 1 0
5.061972 -2.697005 -21.198759 21.960983 -0.489540 2.877355 0.061802 -0.034497 179669.000000 0 1 0
6.399672 -3.034505 -20.943859 22.109031 -0.442767 2.815492 0.061081 -0.034508 -500297.000000 0 1 0
7.190172 -1.925705 -20.667559 21.967132 -0.261683 2.795897 0.070612 -0.019325 -266000.000000 0 1 0
8.702672 -2.134005 -20.532159 22.402233 -0.240468 2.730095 0.072216 -0.018817 -1386960.000000 0 1 0
9.335372 -2.736805 -21.642759 23.728639 -0.285174 2.719160 0.073213 -0.033707 424901.000000 0 1 0
10.574072 -3.377305 -21.383259 24.092757 -0.309154 2.662772 0.069066 -0.033690 388475.000000 0 1 0
11.729872 -2.634905 -20.705659 23.942785 -0.220964 2.615543 0.057927 -0.028393 -1265040.000000 0 1 0
11.518472 -2.381905 -19.324859 22.622972 -0.203916 2.594833 0.054080 -0.014395 140429.000000 0 1 0
12.704372 -1.898705 -18.721959 22.705019 -0.148355 2.540244 0.050012 -0.016696 7527.380000 0 1 0
12.763872 -0.382905 -18.678659 22.626430 -0.029990 2.541926 0.036388 -0.016725 -74937.200000 0 1 0
12.968172 0.214395 -19.925459 23.774848 0.016531 2.564569 0.030214 -0.023295 143304.000000 0 1 0
13.001972 1.578995 -19.734359 23.685216 0.120851 2.555654 0.047613 -0.032052 -27367.600000 0 1 0
13.542572 2.357695 -20.966259 25.070780 0.172368 2.561264 0.057552 -0.032032 282156.000000 0 0 1
14.951872 2.372995 -21.170459 26.026485 0.157396 2.520804 0.059656 -0.031828 515673.000000 0 0 1
15.287172 3.382795 -22.152659 27.127131 0.217774 2.526333 0.064430 -0.037784 101505.000000 0 0 1
16.747772 3.374595 -22.674459 28.390260 0.198833 2.495879 0.051726 -0.029699 244089.000000 0 0 1
16.882872 2.398995 -23.662859 29.167061 0.141151 2.517146 0.046234 -0.027349 381236.000000 0 0 1
17.564872 1.220295 -23.184359 29.112340 0.069362 2.492075 0.045595 -0.023252 -209121.000000 0 0 1
9.453262 26.936995 3.064008 28.711566 1.233285 1.463876 0.016721 -0.015422 -77155.400000 0 0 1
9.456262 27.177795 4.480308 29.122613 1.235957 1.416340 0.016141 -0.009475 -564703.000000 0 0 1
10.727862 27.592995 4.834408 29.997199 1.199992 1.408928 0.031309 -0.007090 -792531.000000 0 0 1
10.796362 28.291495 6.210008 30.911719 1.206242 1.368525 0.028918 -0.002426 -56687.200000 0 0 1
10.554762 27.426095 7.265508 30.271791 1.203424 1.328421 0.018328 -0.004129 1763.820000 0 0 1
10.585962 28.086795 8.511508 31.198981 1.210359 1.294480 0.027797 0.002551 -224090.000000 0 0 1
10.502462 27.059095 9.654608 30.589341 1.200564 1.249686 0.037419 -0.002386 -12385.500000 0 0 1
11.666162 26.344695 10.005308 30.499975 1.153923 1.236565 0.038607 0.000869 -218137.000000 0 0 1
12.026062 25.281395 9.154908 29.454838 1.126787 1.254749 0.041077 -0.007858 314366.000000 0 0 1
13.361662 24.706395 9.735708 29.727496 1.075030 1.237142 0.052722 -0.012402 -17218.000000 0 0 1
14.443262 25.569795 9.719008 30.933499 1.056619 1.251193 0.065714 -0.012357 -573348.000000 0 0 1
15.502862 25.068095 10.508208 31.291701 1.016935 1.228326 0.073686 -0.014261 481740.000000 0 0 1
16.666362 26.077295 10.734508 32.757024 1.002112 1.236927 0.070720 -0.015759 -729197.000000 0 0 1
17.490962 26.429395 9.701508 33.144622 0.986171 1.273745 0.068290 -0.022962 -968581.000000 0 0 1
18.856262 26.302995 9.881808 33.838681 0.948827 1.274451 0.072018 -0.032446 -408794.000000 0 0 1
19.599262 27.128495 10.974208 35.221010 0.945155 1.253940 0.073218 -0.026517 -742646.000000 0 0 1
19.911962 28.519595 10.664208 36.381024 0.961289 1.273302 0.070607 -0.037790 659830.000000 0 0 1
18.830062 29.420195 10.983108 36.616223 1.001456 1.266154 0.058068 -0.019218 487351.000000 0 0 1
19.190662 30.942395 10.931808 38.016020 1.015652 1.279120 0.055827 -0.006161 -705473.000000 0 0 1
19.363962 31.572395 9.641708 38.271944 1.020641 1.316126 0.066435 -0.030625 -125532.000000 0 0 1
18.231162 31.511995 8.826108 37.460397 1.046301 1.332948 0.075744 -0.036470 153418.000000 0 0 1
16.968462 32.313495 9.242108 37.649797 1.087255 1.322786 0.069483 -0.024568 -232583.000000 0 0 1
17.275462 33.689895 9.443408 39.020874 1.096978 1.326360 0.061743 -0.020107 -544396.000000 0 0 1
16.138362 -33.697776 9.788408 38.623824 -1.124159 1.314573 0.074683 -0.013695 -639425.000000 0 0 1
16.384762 -32.189176 9.940108 37.462104 -1.099963 1.302242 0.102677 -0.011788 -53469.300000 0 0 1
16.891462 -31.695576 8.723608 36.959875 -1.081155 1.332519 0.095051 -0.023578 163099.000000 0 0 1
16.935762 -30.287976 8.708808 35.777435 -1.060949 1.324910 0.066759 -0.019197 -12247.700000 0 0 1
17.606662 -29.804976 7.402408 35.399531 -1.037222 1.360131 0.068645 -0.011922 79027.400000 0 0 1
16.799762 -30.017076 6.266508 34.964639 -1.060557 1.390599 0.084924 -0.006260 13139.700000 0 0 1
17.315762 -29.290176 5.198308 34.420524 -1.036887 1.419193 0.080102 -0.009672 -27885.400000 0 0 1
16.661362 -29.711976 3.863808 34.283108 -1.059728 1.457853 0.085486 -0.025298 93113.700000 0 0 1
17.170262 -30.951076 3.505808 35.567931 -1.064310 1.472069 0.071696 -0.024758 -39222.200000 0 0 1
16.825662 -31.289276 2.187008 35.593605 -1.077410 1.509314 0.081573 -0.033953 -160618.000000 0 0 1
17.232962 -32.701876 1.717608 37.004565 -1.085805 1.524364 0.075405 -0.025565 1329460.000000 0 0 1
18.671162 -32.944176 1.763008 37.908300 -1.055183 1.524272 0.077787 -0.019144 1386100.000000 0 0 1
18.977262 33.918695 1.235408 38.886252 1.060694 1.539021 0.092495 -0.021330 -75961.400000 0 0 1
20.446762 33.560895 1.547208 39.329348 1.023608 1.531446 0.097492 -0.029161 -74251.500000 0 0 1
20.592262 33.152495 2.897108 39.134671 1.014979 1.496699 0.080313 -0.048146 -119214.000000 0 0 1
21.853562 32.748095 3.373008 39.514467 0.982339 1.485331 0.043244 -0.032827 -320432.000000 0 0 1
22.035362 32.671195 4.927608 39.714550 0.977419 1.446400 0.043555 -0.019532 -433035.000000 0 0 1
21.285762 31.642895 5.430708 38.520762 0.978637 1.429344 0.053106 -0.035543 -62451.900000 0 0 1
22.124962 30.496595 5.636608 38.096294 0.943167 1.422294 0.038767 -0.035286 223290.000000 0 0 1
21.496362 29.339695 6.449908 36.939310 0.938478 1.395288 0.062966 -0.045249 365131.000000 0 0 1
20.365762 28.807295 5.746608 35.744203 0.955411 1.409325 0.069989 -0.039833 1849.220000 0 0 1
19.393762 28.395395 6.662908 35.025859 0.971578 1.379402 0.071097 -0.043176 -533649.000000 0 0 1
17.958762 28.634895 6.177408 34.360366 1.010643 1.390031 0.079477 -0.037146 -449310.000000 0 0 1
17.528462 30.025395 6.097108 35.297961 1.042383 1.397193 0.075392 -0.044332 -227105.000000 0 0 1
18.109562 30.828595 5.132808 36.120690 1.039673 1.428212 0.079505 -0.044079 -864055.000000 0 0 1
17.894862 32.326495 5.323008 37.330454 1.065219 1.427717 0.091693 -0.047840 -1615620.000000 0 0 1
16.647562 32.837795 5.312208 37.197872 1.101593 1.427497 0.087425 -0.041881 -1743840.000000 0 0 1
16.704762 -33.808776 5.399508 38.095106 -1.111884 1.428580 0.088654 -0.039715 -524193.000000 0 0 1
15.349562 -33.109476 5.634608 36.926891 -1.136690 1.417610 0.088153 -0.035231 318783.000000 0 0 1
14.518262 -33.168476 4.458308 36.480190 -1.158207 1.448278 0.078140 -0.026860 -47273.300000 0 0 1
13.319762 -32.444876 4.581708 35.370582 -1.181241 1.440897 0.078397 -0.024760 250788.000000 0 0 1
12.499262 -32.295276 3.277208 34.784429 -1.201520 1.476442 0.077094 -0.024851 79949.800000 0 0 1
11.278562 -31.604976 3.345008 33.723427 -1.228023 1.471444 0.070810 -0.028363 -127843.000000 0 0 1
10.809662 -31.262376 2.070408 33.143198 -1.237893 1.508287 0.062122 -0.016352 -799067.000000 0 0 1
9.789862 -30.128676 2.103408 31.749061 -1.256623 1.504497 0.056380 -0.021088 -300474.000000 0 0 1
9.276262 -29.599376 0.897808 31.031889 -1.267097 1.541861 0.058682 -0.009490 -476692.000000 0 0 1
8.327462 -30.408276 0.291908 31.529274 -1.303495 1.561538 0.045936 -0.013015 -1068910.000000 0 0 1
8.727962 -30.968476 -1.126392 32.194605 -1.296088 1.605790 0.068065 -0.022003 -477677.000000 0 0 1
9.800062 -31.856376 -1.081892 33.347270 -1.272352 1.603245 0.064486 -0.022523 -618389.000000 0 0 1
9.821962 -32.693676 -2.203792 34.208246 -1.278951 1.635264 0.072102 -0.015574 -239675.000000 0 0 1
10.987862 -33.688676 -2.232992 35.505581 -1.255517 1.633729 0.065832 -0.017074 -181732.000000 0 0 1
10.960162 33.487895 -1.162892 35.255023 1.254497 1.603787 0.066408 -0.019633 -1026750.000000 0 0 1
12.076662 32.721595 -1.276692 34.902414 1.217232 1.607383 0.083203 -0.021904 -1383130.000000 0 0 1
12.365962 31.883295 -0.026692 34.197401 1.200807 1.571577 0.069476 -0.026949 -368943.000000 0 0 1
12.791862 32.578395 1.140908 35.018356 1.196643 1.538210 0.067294 -0.023007 -730352.000000 0 0 1
14.013562 33.219995 1.128008 36.072433 1.171604 1.539521 0.076390 -0.023642 -116355.000000 0 0 1
15.250662 32.241595 1.387608 35.693538 1.128971 1.531911 0.084364 -0.034790 41244.800000 0 0 1
15.757062 31.724695 0.230408 35.423077 1.109807 1.564292 0.091475 -0.032791 -238246.000000 0 0 1
16.650962 30.670695 0.609708 34.904410 1.073424 1.553328 0.094905 -0.029235 -168019.000000 0 0 1
17.468062 30.165695 -0.606092 34.863587 1.045908 1.588182 0.088854 -0.022382 -34935.600000 0 0 1
18.481462 31.087795 -0.904792 36.177812 1.034436 1.595809 0.068755 -0.009058 208079.000000 0 0 1
18.000762 32.022195 -1.895792 36.783726 1.058685 1.622358 0.076257 -0.014635 94117.100000 0 0 1
19.206762 32.769595 -2.513892 38.066596 1.040649 1.636884 0.061672 -0.013611 -143394.000000 0 0 1
19.936662 33.547195 -1.612192 39.057445 1.034588 1.612086 0.050144 -0.014296 -546317.000000 0 0 1
20.947062 -33.960476 -2.406392 39.973542 -1.018110 1.631032 0.045248 -0.010423 -1482460.000000 0 0 1
22.056262 -33.280276 -1.578492 39.956816 -0.985515 1.610312 0.043690 -0.014136 -1069690.000000 0 0 1
22.921862 33.942695 -0.875692 40.966879 0.976833 1.592174 0.035604 -0.017230 469527.000000 0 0 1
23.699962 32.952695 -1.603192 40.621898 0.947293 1.610273 0.029524 -0.008885 569852.000000 0 0 1
24.727762 33.493895 -2.686392 41.719539 0.934840 1.635233 0.035403 -0.008839 -180092.000000 0 0 1
23.962462 -33.826476 -3.610692 41.610902 -0.954459 1.657678 0.039490 -0.020931 -205351.000000 0 0 1
24.765862 -33.120376 -4.528592 41.603069 -0.928735 1.679865 0.040199 -0.021105 -13560.000000 0 0 1
23.980562 -32.587176 -5.769092 40.868984 -0.936387 1.712430 0.041127 -0.019192 -306437.000000 0 0 1
23.026962 -31.609076 -5.498492 39.491874 -0.941203 1.710481 0.050813 -0.021608 -207323.000000 0 0 1
22.559362 -31.172776 -6.774492 39.071224 -0.944349 1.745065 0.057541 -0.021771 465559.000000 0 0 1
21.486662 -29.996376 -6.677392 37.497291 -0.949209 1.749828 0.070659 -0.023808 213403.000000 0 0 1
20.340962 -30.426576 -6.010192 37.089806 -0.981507 1.733558 0.071330 -0.022194 -968448.000000 0 0 1
19.490462 -29.317576 -5.930492 35.701108 -0.984084 1.737685 0.086055 -0.031919 -123146.000000 0 0 1
18.210662 -29.463876 -5.105092 35.011572 -1.017198 1.717130 0.081077 -0.024991 1101380.000000 0 0 1
17.046462 -30.053676 -5.742092 35.025376 -1.054843 1.735481 0.084773 -0.027039 521181.000000 0 0 1
15.901862 -29.959876 -4.939292 34.276231 -1.082835 1.715402 0.064720 -0.019639 18314.600000 0 0 1
14.782562 -30.943276 -5.346992 34.707360 -1.125122 1.725472 0.057377 -0.015780 -52238.100000 0 0 1
15.158062 -32.271776 -5.389192 36.059365 -1.131681 1.720812 0.050304 -0.007952 117233.000000 0 0 1
14.006062 -33.095576 -5.615292 36.373320 -1.170451 1.725796 0.067520 -0.010529 463245.000000 0 0 1
14.229862 33.464895 -5.529592 36.782667 1.168741 1.721700 0.062368 -0.013303 -86967.600000 0 0 1
14.410462 32.961495 -4.193392 36.217484 1.158645 1.686840 0.063720 -0.023803 -143845.000000 0 0 1
14.721362 31.570195 -4.162892 35.081696 1.134466 1.689739 0.069402 -0.021755 -707509.000000 0 0 1
13.690762 30.505295 -4.475292 33.734823 1.148941 1.703849 0.077347 -0.025971 -671034.000000 0 0 1
12.688562 30.318495 -3.516892 33.054187 1.174436 1.677396 0.073800 -0.030555 -199072.000000 0 0 1
13.035562 29.301095 -2.601692 32.175284 1.152206 1.651745 0.080964 -0.031371 -83903.000000 0 0 1
11.821362 28.492195 -2.097792 30.918450 1.177513 1.638698 0.069539 -0.027263 335021.000000 0 0 1
10.886262 29.203595 -1.319092 31.194562 1.213981 1.613095 0.052354 -0.028519 -402739.000000 0 0 1
9.922962 28.379695 -0.724492 30.073197 1.234433 1.594890 0.039711 -0.019371 16233.300000 0 0 1
8.875562 29.188395 0.086708 30.508123 1.275602 1.567954 0.033923 -0.011254 308293.000000 0 0 1
7.928362 28.358995 0.734708 29.455583 1.298185 1.545851 0.023851 -0.010885 280376.000000 0 0 1
6.725862 29.102595 0.976108 29.885633 1.343675 1.538129 0.040793 -0.010873 238973.000000 0 0 1
5.638562 28.357395 1.737508 28.964706 1.374517 1.510773 0.031031 -0.013371 -47051.600000 0 0 1
4.887762 27.412095 0.966608 27.861219 1.394344 1.536096 0.034208 -0.020346 -480548.000000 0 0 1
3.844362 26.886395 1.710908 27.213684 1.428774 1.507885 0.033341 -0.025039 -393287.000000 0 0 1
3.221862 25.756895 0.865808 25.972056 1.446355 1.537454 0.041317 -0.030182 -767788.000000 0 0 1
2.073462 25.174695 1.373108 25.297232 1.488619 1.516491 0.051741 -0.036066 -688880.000000 0 0 1
1.635662 24.347895 0.338908 24.405128 1.503718 1.556909 0.052347 -0.032772 26239.200000 0 1 0
0.261062 23.715395 0.676308 23.726473 1.559789 1.542288 0.053331 -0.028845 987239.000000 0 1 0
-0.867538 24.620695 0.636808 24.644204 -1.535575 1.544953 0.067278 -0.037729 86792.900000 0 1 0
-2.059238 23.897895 0.778308 23.999076 -1.484840 1.538360 0.053666 -0.034051 -115331.000000 0 1 0
-3.170438 24.832495 1.354108 25.070662 -1.443810 1.516758 0.094475 -0.042508 101009.000000 0 0 1
-4.476538 24.313095 1.203608 24.751054 -1.388715 1.522149 0.089755 -0.037341 191982.000000 0 1 0
-5.422638 24.984395 2.018608 25.645658 -1.357070 1.492003 0.084565 -0.035853 -458949.000000 0 0 1
-6.741538 25.310695 1.370208 26.228936 -1.310488 1.518532 0.092757 -0.038226 -719055.000000 0 0 1
-6.683338 26.350195 0.406308 27.187587 -1.322399 1.555851 0.106993 -0.044412 -434761.000000 0 0 1
-7.970338 26.681495 -0.025492 27.846528 -1.280513 1.571712 0.109074 -0.038860 -382990.000000 0 0 1
-8.077338 27.852295 -1.087992 29.020294 -1.288533 1.608296 0.104379 -0.041872 -273442.000000 0 0 1
-8.017538 29.165295 -0.510392 30.251543 -1.302523 1.587669 0.115586 -0.052591 77364.800000 0 0 1
-7.973138 30.092195 -1.542192 31.168726 -1.311791 1.620295 0.116997 -0.050642 -169454.000000 0 0 1
-7.811538 31.485795 -1.002792 32.455832 -1.327609 1.601698 0.113811 -0.049317 -552919.000000 0 0 1
-8.037238 32.561995 -1.916092 33.593930 -1.328805 1.627864 0.099555 -0.036448 -188004.000000 0 0 1
-7.180138 32.664695 -3.046692 33.583017 -1.354424 1.661642 0.073996 -0.031521 -1034440.000000 0 0 1
-5.731538 32.980295 -2.807192 33.592123 -1.398728 1.654461 0.088124 -0.033091 -1380680.000000 0 0 1
-5.634838 -33.804176 -2.296792 34.347474 1.405624 1.637716 0.089102 -0.034890 -7360.380000 0 0 1
-4.689738 -33.765776 -1.241292 34.112492 1.432789 1.607193 0.104259 -0.036940 -153952.000000 0 0 1
-4.393138 -32.289876 -1.006592 32.602898 1.435573 1.601676 0.098197 -0.031849 -885570.000000 0 0 1
-5.497938 -31.553176 -0.667992 32.035550 1.398285 1.591649 0.102084 -0.034427 -952100.000000 0 0 1
-5.457138 -30.266276 -1.277092 30.780818 1.392409 1.612298 0.100433 -0.030121 -314797.000000 0 0 1
-6.834638 -29.603976 -1.271892 30.409298 1.343903 1.612634 0.116125 -0.034441 -368605.000000 0 0 1
-7.288738 -29.362676 0.022008 30.253809 1.327483 1.570069 0.117529 -0.030515 -738625.000000 0 0 1
-8.384438 -28.512276 -0.009192 29.719501 1.284794 1.571106 0.094470 -0.020442 -379261.000000 0 0 1
-8.638738 -27.718176 1.287308 29.061697 1.268674 1.526486 0.095588 -0.019349 415315.000000 0 0 1
-7.536338 -26.831676 1.465208 27.908459 1.296977 1.518272 0.100902 -0.023795 169594.000000 0 0 1
-7.479838 -26.355276 2.812208 27.540099 1.294260 1.468505 0.107655 -0.021580 53842.500000 0 0 1
-8.576638 -25.350476 3.242608 26.957742 1.244562 1.450220 0.090760 -0.019417 249466.000000 0 0 1
-8.329638 -24.044976 2.850008 25.605981 1.237315 1.459263 0.091413 -0.023298 -514898.000000 0 0 1
-9.231938 -23.230776 3.538408 25.247138 1.192532 1.430183 0.088832 -0.024216 -24460.000000 0 0 1
-8.575238 -21.836776 3.858808 23.775405 1.196601 1.407773 0.063936 -0.015303 291282.000000 0 1 0
-7.721638 -21.961576 4.971508 23.804420 1.232699 1.360399 0.054929 -0.015253 -603364.000000 0 1 0
-7.043738 -20.776076 5.325508 22.574778 1.243926 1.332646 0.044160 -0.011345 -72882.500000 0 1 0
-7.840538 -19.523076 5.764708 21.814133 1.188908 1.303355 0.050980 -0.023144 -109215.000000 0 1 0
-8.402438 -19.781476 7.033108 22.613544 1.169126 1.254538 0.059329 -0.024117 20149.400000 0 1 0
-9.158438 -18.728476 7.593408 22.187669 1.115978 1.221501 0.051244 -0.029042 -474825.000000 0 1 0
-28.131078 28.535095 -5.725492 40.477036 -0.792528 1.712723 0.104880 -0.018355 36445.700000 0 0 1
-27.344218 29.134795 -4.735892 40.236442 -0.817091 1.688771 0.109568 -0.033011 -166534.000000 0 0 1
-26.517648 28.247495 -4.027692 38.952907 -0.816974 1.674380 0.093420 -0.031749 831103.000000 0 0 1
-25.475298 28.982495 -3.061392 38.708500 -0.849711 1.649967 0.085568 -0.026683 290813.000000 0 0 1
-26.083078 29.548595 -1.909792 39.460027 -0.847612 1.619213 0.074834 -0.028957 -337081.000000 0 0 1
-25.395118 30.520095 -1.221692 39.722547 -0.876799 1.601557 0.072657 -0.025122 -882636.000000 0 0 1
-24.142738 30.150395 -0.448992 38.627966 -0.895602 1.582420 0.053761 -0.014397 -691202.000000 0 0 1
-23.067238 29.857595 -1.282692 37.752070 -0.913003 1.604780 0.073351 -0.022099 185273.000000 0 0 1
-21.800438 30.099795 -0.645792 37.170873 -0.943966 1.588171 0.063723 -0.014805 1161730.000000 0 0 1
-20.575838 29.659095 -1.514792 36.129235 -0.964281 1.612736 0.056016 -0.011708 -853794.000000 0 0 1
-19.368138 30.013495 -1.017292 35.734711 -0.997722 1.599268 0.052207 -0.007677 -998644.000000 0 0 1
-18.288738 29.422895 -1.726492 34.686676 -1.014659 1.620591 0.050516 -0.010386 532365.000000 0 0 1
-16.840738 29.695595 -1.265992 34.161990 -1.054910 1.607863 0.045067 -0.015200 136673.000000 0 0 1
-16.517838 29.139795 -0.022492 33.495778 -1.055110 1.571468 0.042272 -0.009422 883973.000000 0 0 1
-15.384938 29.886795 0.524308 33.618325 -1.095400 1.555200 0.043260 -0.015664 992279.000000 0 0 1
-14.639038 29.147895 1.651808 32.659297 -1.105364 1.520198 0.062747 -0.020042 -503444.000000 0 0 1
-15.463238 29.024795 2.782008 33.004394 -1.081286 1.486404 0.046110 -0.016977 -45424.800000 0 0 1
-14.930538 28.310695 3.931208 32.247028 -1.085484 1.448583 0.049943 -0.026109 323827.000000 0 0 1
-13.787938 29.013795 4.724508 32.468885 -1.127168 1.424769 0.069158 -0.024601 168029.000000 0 0 1
-14.099538 30.130295 5.534508 33.723322 -1.133114 1.405935 0.057783 -0.028539 -493823.000000 0 0 1
-14.109138 31.403495 4.828708 34.764403 -1.148537 1.431448 0.070804 -0.029860 -108906.000000 0 0 1
-14.007738 32.608595 5.792008 35.959485 -1.165060 1.409021 0.077695 -0.030628 55417.100000 0 0 1
-15.155738 32.911295 6.555808 36.821575 -1.139243 1.391799 0.069760 -0.028232 7863.300000 0 0 1
-14.940138 -33.935176 7.202308 37.771380 1.156076 1.378940 0.095853 -0.034450 -169684.000000 0 0 1
-16.160538 -33.584876 8.038808 38.127802 1.122314 1.358364 0.071503 -0.025638 -366547.000000 0 0 1
-16.266438 33.703395 9.197508 38.537125 -1.121137 1.329804 0.042430 -0.022058 -50740.000000 0 0 1
-17.382938 33.914595 10.037708 39.409667 -1.097159 1.313257 0.066506 -0.025437 -632129.000000 0 0 1
-17.337838 32.940995 11.314208 38.906569 -1.086307 1.275729 0.056131 -0.020094 220746.000000 0 0 1
-16.488538 33.287995 12.389308 39.159385 -1.110892 1.248884 0.061448 -0.018605 62367.500000 0 0 1
-15.092738 33.226695 12.165708 38.468279 -1.144426 1.249019 0.065665 -0.013564 -189994.000000 0 0 1
-14.356438 33.408695 13.521108 38.795213 -1.164933 1.214799 0.061343 -0.009587 -185096.000000 0 0 1
-14.532938 32.426095 14.550208 38.397480 -1.149452 1.182149 0.049791 -0.003880 -16030.200000 0 0 1
-13.888838 31.177195 14.384308 37.038165 -1.151707 1.171940 0.040816 -0.007532 -382113.000000 0 0 1
-14.637238 30.070095 13.646408 36.120407 -1.117788 1.183374 0.039487 -0.011847 -295356.000000 0 0 1
-14.720238 30.285595 12.236808 35.827952 -1.118373 1.222238 0.044369 -0.008835 1097600.000000 0 0 1
-15.907838 29.718495 11.623008 35.655891 -1.079321 1.238751 0.026015 -0.008718 794287.000000 0 0 1
-15.733838 29.433995 10.092108 34.867813 -1.079895 1.277156 0.014988 -0.009239 60629.000000 0 0 1
-14.983538 28.254195 9.870608 33.469910 -1.083194 1.271435 0.008953 -0.003481 106569.000000 0 0 1
-14.763238 28.093895 8.541808 32.866132 -1.086960 1.307881 0.013694 -0.009012 241733.000000 0 0 1
-13.911938 26.761995 8.174308 31.250051 -1.091404 1.306140 0.027748 -0.017095 -64811.800000 0 0 1
-12.545938 26.964995 8.347608 30.890032 -1.135319 1.297158 0.028964 -0.014237 -437346.000000 0 0 1
-11.775438 25.778895 8.110408 29.478655 -1.142314 1.292073 0.043314 -0.017350 -370159.000000 0 0 1
-10.730738 26.022895 7.050508 29.018089 -1.179682 1.325371 0.073334 -0.026022 -1074950.000000 0 0 1
-11.235538 26.304595 5.794808 29.184737 -1.167121 1.370912 0.084524 -0.025081 -373585.000000 0 0 1
-10.325138 26.064795 4.770208 28.438300 -1.193628 1.402261 0.112319 -0.023419 -514743.000000 0 0 1
-10.783638 26.403495 3.348808 28.716649 -1.183055 1.453915 0.114738 -0.032929 -81111.700000 0 0 1
-10.661038 27.763895 3.206308 29.912740 -1.204168 1.463401 0.119620 -0.033158 78170.100000 0 0 1
-10.992038 28.201795 1.867708 30.325806 -1.199145 1.509169 0.124837 -0.038178 -181161.000000 0 0 1
-10.752738 29.665795 1.514208 31.590720 -1.223063 1.522846 0.154729 -0.048144 -115331.000000 0 0 1
-11.564038 30.618395 2.137908 32.799143 -1.209676 1.505568 0.127659 -0.050460 -308541.000000 0 0 1
-11.124038 31.931395 1.759908 33.859349 -1.235572 1.518796 0.129129 -0.053220 499483.000000 0 0 1
-11.956238 33.135795 2.378908 35.307106 -1.224510 1.503368 0.120909 -0.047148 702345.000000 0 0 1
-13.307538 33.212995 1.960708 35.833476 -1.189710 1.516052 0.090588 -0.043045 -31484.200000 0 0 1
-13.400338 -33.851676 1.013308 36.421585 1.193869 1.542971 0.083099 -0.040979 478619.000000 0 0 1
-14.893338 -33.610876 0.600308 36.767688 1.153686 1.554469 0.086499 -0.034235 799766.000000 0 0 1
-15.528238 33.394995 -0.133692 36.828926 -1.135549 1.574426 0.074001 -0.027037 -40666.700000 0 0 1
-15.459638 33.464595 -1.515592 36.894126 -1.138033 1.611887 0.072439 -0.028516 233185.000000 0 0 1
-14.139238 33.235695 -2.329292 36.193302 -1.168567 1.635198 0.073021 -0.029571 409445.000000 0 0 1
-13.700138 31.884995 -2.160992 34.770916 -1.164974 1.632986 0.068129 -0.031150 549923.000000 0 0 1
-12.278738 31.738595 -2.230692 34.103986 -1.201659 1.636252 0.075353 -0.028675 550315.000000 0 0 1
-11.847838 30.255495 -2.185492 32.565974 -1.197558 1.637956 0.056289 -0.030055 -22630.700000 0 0 1
-11.981638 29.726395 -3.513192 32.242220 -1.187651 1.679976 0.041869 -0.028395 -536232.000000 0 0 1
-10.817938 29.751095 -4.290192 31.946224 -1.222044 1.705497 0.051926 -0.029878 -403055.000000 0 0 1
-10.911338 29.149695 -5.687592 31.640334 -1.212621 1.751536 0.044511 -0.025286 -102091.000000 0 0 1
-11.227738 27.742195 -5.598592 30.447262 -1.186230 1.755727 0.040888 -0.018183 127720.000000 0 0 1
-11.057338 27.178395 -6.877592 30.136874 -1.184405 1.801037 0.036088 -0.016708 -3072.830000 0 0 1
-11.723038 25.766695 -6.960892 29.151436 -1.143818 1.811910 0.056929 -0.019687 109689.000000 0 0 1
-11.041138 24.737795 -6.223092 27.795541 -1.151001 1.796598 0.041395 -0.011934 368172.000000 0 0 1
-11.541938 23.464495 -6.546792 26.956620 -1.113658 1.816113 0.081853 -0.020709 213465.000000 0 0 1
-10.815238 22.474095 -5.568992 25.555195 -1.122276 1.790479 0.080839 -0.024137 569642.000000 0 0 1
-9.412238 22.295895 -5.772792 24.880159 -1.171341 1.804954 0.072071 -0.021102 514899.000000 0 1 0
-8.908038 21.040495 -5.396592 23.477197 -1.170302 1.802736 0.072271 -0.014389 -211456.000000 0 1 0
-8.646738 20.807595 -3.939792 22.874529 -1.176951 1.743894 0.069394 -0.024622 -373600.000000 0 1 0
-9.784938 20.699595 -3.111992 23.106336 -1.129217 1.705888 0.079943 -0.029873 -162150.000000 0 1 0
-10.378338 19.405595 -3.094392 22.223013 -1.079689 1.710493 0.080408 -0.026137 912416.000000 0 1 0
-11.686838 19.364295 -2.192992 22.723717 -1.027789 1.667454 0.084916 -0.023616 826478.000000 0 1 0
-11.475538 19.390095 -0.775992 22.544754 -1.036410 1.605223 0.075894 -0.028928 190520.000000 0 1 0
-11.120238 18.105895 -0.212292 21.249193 -1.020017 1.580787 0.074659 -0.027891 53666.800000 0 1 0
-10.921738 18.105295 1.326708 21.185991 -1.028002 1.508133 0.071492 -0.030534 -154187.000000 0 1 0
-12.161638 18.054095 1.979108 21.858011 -0.977994 1.480128 0.095523 -0.037259 -175405.000000 0 1 0
-12.109238 18.371195 3.332408 22.253975 -0.988021 1.420487 0.095799 -0.028883 -174496.000000 0 1 0
-13.478438 18.335295 4.031508 23.110699 -0.936894 1.395456 0.093751 -0.035675 -47353.500000 0 1 0
-13.930538 17.035095 4.359308 22.433411 -0.885322 1.375230 0.073626 -0.029009 463861.000000 0 1 0
-15.182138 17.056595 5.045408 23.385485 -0.843476 1.353337 0.089969 -0.037179 329497.000000 0 1 0
-15.637438 15.684495 5.606608 22.846595 -0.786901 1.322862 0.076292 -0.032256 23623.100000 0 1 0
-14.939738 15.199595 6.787208 22.367156 -0.794020 1.262490 0.078722 -0.028438 366492.000000 0 1 0
-15.304338 15.898695 7.975308 23.464799 -0.804444 1.224003 0.065207 -0.023548 -912097.000000 0 1 0
-14.250038 15.864395 9.107308 23.188050 -0.838954 1.167167 0.051228 -0.012159 756052.000000 0 1 0
-13.058438 16.634695 8.948008 22.963073 -0.905261 1.170524 0.052666 -0.023545 606936.000000 0 1 0
-12.165738 16.091195 7.976708 21.692386 -0.923435 1.194241 0.049899 -0.023341 -1296230.000000 0 1 0
-11.013038 16.964895 7.568708 21.595833 -0.995007 1.212723 0.063769 -0.032274 -1215060.000000 0 1 0
-10.067938 17.116795 8.530608 21.612943 -1.039105 1.165056 0.061098 -0.024391 -524090.000000 0 1 0
-9.333338 18.329295 8.391208 22.214559 -1.099813 1.183448 0.055874 -0.024563 -39355.000000 0 1 0
-8.048138 18.554095 9.210508 22.222971 -1.161524 1.143448 0.052986 -0.017492 -408875.000000 0 1 0
-7.003938 17.647295 8.824808 20.937034 -1.192979 1.135706 0.038753 -0.016676 516568.000000 0 1 0
-5.819538 17.849995 9.611808 21.092089 -1.255638 1.097630 0.035138 -0.015714 682176.000000 0 1 0
-4.886738 18.884295 8.959108 21.465377 -1.317578 1.140242 0.025164 -0.018518 -1354460.000000 0 1 0
-5.228138 20.210395 9.105208 22.774949 -1.317660 1.159508 0.035167 -0.019355 17784.100000 0 1 0
-4.501838 21.123095 8.267608 23.125852 -1.360814 1.205201 0.036518 -0.025160 358643.000000 0 1 0
-3.013538 21.482495 8.475208 23.289658 -1.431427 1.198340 0.051685 -0.026196 -323624.000000 0 1 0
-2.061438 20.564095 7.999408 22.161274 -1.470886 1.201496 0.040437 -0.022152 -639451.000000 0 1 0
-0.904838 21.327795 7.816108 22.732908 -1.528396 1.219811 0.037735 -0.024222 982001.000000 0 1 0
0.511662 20.594595 7.753608 22.011760 1.545957 1.210824 0.026210 -0.014538 1612180.000000 0 1 0
0.840562 20.122095 9.058608 22.083108 1.529048 1.148117 0.022716 -0.010048 -699518.000000 0 1 0
2.162562 19.656195 9.052608 21.748388 1.461218 1.141487 0.014496 -0.012049 -170090.000000 0 1 0
2.783362 19.303495 10.455008 22.128697 1.427594 1.078712 0.009513 -0.022937 1457040.000000 0 1 0
4.144762 18.786995 10.345508 21.843987 1.353656 1.077412 0.023603 -0.012466 1274620.000000 0 1 0
4.544162 18.255795 11.598408 22.100827 1.326838 1.018322 0.021381 -0.017333 323959.000000 0 1 0
6.045462 18.376395 12.007208 22.768675 1.252969 1.015310 0.030277 -0.021737 310898.000000 0 1 0
6.827562 17.506095 11.216608 21.883585 1.198931 1.032635 0.026081 -0.021050 -608472.000000 0 1 0
7.708062 16.850495 12.076508 22.117763 1.141774 0.993203 0.032009 -0.012247 -865049.000000 0 1 0
8.924162 16.292595 11.354208 21.771710 1.069687 1.022174 0.039452 -0.015227 -83545.000000 0 1 0
9.922162 17.219295 10.927008 22.679350 1.048043 1.068084 0.052373 -0.022589 242121.000000 0 1 0
10.975562 16.575095 10.251008 22.366938 0.985912 1.094703 0.055034 -0.021297 -273169.000000 0 1 0
12.065662 17.514595 9.752208 23.397581 0.967564 1.140870 0.064214 -0.016115 -885745.000000 0 1 0
13.000362 16.847195 9.008008 23.108042 0.913574 1.170359 0.064531 -0.016723 -882076.000000 0 1 0
13.874462 17.800995 8.421308 24.089304 0.908730 1.213666 0.068721 -0.018601 -169224.000000 0 1 0
14.846962 17.225095 7.401508 23.914818 0.859412 1.256135 0.069942 -0.032955 503284.000000 0 1 0
16.047462 16.653895 7.973908 24.463370 0.803941 1.238777 0.081302 -0.026874 1274900.000000 0 1 0
16.946762 16.208895 6.929308 24.452737 0.763147 1.283484 0.095350 -0.026439 -809215.000000 0 1 0
18.319662 15.864895 7.389808 25.336025 0.713712 1.274822 0.078424 -0.020155 -1288960.000000 0 0 1
18.515862 14.786095 8.297608 25.106096 0.673865 1.233961 0.083535 -0.015751 -185148.000000 0 0 1
19.569462 15.176495 9.134908 26.395765 0.659634 1.217412 0.086292 -0.013680 -248591.000000 0 0 1
19.871962 13.992495 10.137108 26.333358 0.613494 1.175639 0.079337 -0.017557 256888.000000 0 0 1
20.596562 12.838995 9.677908 26.128913 0.557416 1.191367 0.079852 -0.021037 468728.000000 0 0 1
20.773762 11.849595 10.700408 26.200398 0.518379 1.150089 0.079460 -0.024411 -145265.000000 0 0 1
21.771762 10.761795 10.208808 26.344746 0.459078 1.172869 0.071657 -0.016200 281905.000000 0 0 1
23.142062 11.173595 10.254208 27.668629 0.449814 1.191133 0.065679 -0.023687 1854220.000000 0 0 1
24.141662 10.333495 9.585308 27.954948 0.404439 1.220811 0.086561 -0.017978 791059.000000 0 0 1
24.331762 8.874195 10.022708 27.771220 0.349725 1.201561 0.096626 -0.018562 -97257.800000 0 0 1
23.232462 8.007295 9.657208 26.403139 0.331909 1.196347 0.097597 -0.023062 1056580.000000 0 0 1
23.422462 6.600995 9.977608 26.300904 0.274699 1.181688 0.101379 -0.030042 -144486.000000 0 0 1
24.446762 5.819995 9.135108 26.738862 0.233718 1.222133 0.118287 -0.031304 313592.000000 0 0 1
23.956862 5.621395 7.781508 25.808588 0.230477 1.264522 0.118801 -0.018958 1496480.000000 0 0 1
25.032562 5.237395 6.884708 26.485065 0.206248 1.307829 0.122069 -0.016777 844159.000000 0 0 1
24.355862 4.991595 5.529208 25.469515 0.202145 1.351963 0.108250 -0.019996 -66038.800000 0 0 1
23.723762 3.733195 5.408808 24.617247 0.156081 1.349273 0.131550 -0.026536 306125.000000 0 1 0
23.501362 3.528595 4.017608 24.101995 0.149031 1.403323 0.134831 -0.020615 -231911.000000 0 1 0
22.506062 2.418195 3.704608 22.936753 0.107036 1.408572 0.137565 -0.020176 -183288.000000 0 1 0
23.073762 1.177795 3.976108 23.443446 0.051001 1.400368 0.145378 -0.021812 -146847.000000 0 1 0
22.174562 0.201395 3.645808 22.473177 0.009082 1.407847 0.122801 -0.017549 -230926.000000 0 1 0
22.787362 -1.257805 3.900408 23.152951 -0.055142 1.401526 0.136653 -0.024089 171388.000000 0 1 0
22.592962 -1.608505 5.291308 23.259991 -0.071075 1.341302 0.124641 -0.028244 509447.000000 0 1 0
22.645762 -2.996905 5.416408 23.476572 -0.131574 1.337983 0.110453 -0.034099 -755607.000000 0 1 0
22.387362 -3.548205 6.876008 23.686773 -0.157184 1.276268 0.129229 -0.037615 -61501.800000 0 1 0
22.469262 -4.931705 7.089708 24.071839 -0.216061 1.271840 0.123879 -0.032457 476709.000000 0 1 0
22.640962 -5.234505 8.449408 24.726619 -0.227204 1.222057 0.161441 -0.038931 -61636.700000 0 1 0
22.412362 -6.725705 8.722008 24.972435 -0.291538 1.214009 0.153272 -0.032822 -123882.000000 0 1 0
21.071462 -7.139905 8.679108 23.881199 -0.326700 1.198851 0.130889 -0.025042 127407.000000 0 1 0
20.969162 -8.361105 9.437508 24.467946 -0.379414 1.174820 0.136015 -0.018522 109497.000000 0 1 0
-26.876158 -33.089776 5.393008 42.969125 0.888649 1.444956 0.076524 -0.005978 104435.000000 0 0 1
-27.993948 -33.890176 5.704608 44.325475 0.880390 1.441740 0.067046 -0.005839 130537.000000 0 0 1
-28.002828 34.038195 7.130808 44.649810 -0.882373 1.410404 0.059569 0.003185 268553.000000 0 0 1
-28.767928 32.760795 7.625108 44.260656 -0.850202 1.397655 0.081356 -0.009603 916016.000000 0 0 1
-30.190178 32.863495 7.648008 45.276354 -0.827770 1.401064 0.080420 -0.007850 141972.000000 0 0 1
-30.827498 31.709495 8.059608 44.953131 -0.799501 1.390533 0.108254 -0.015206 -825909.000000 0 0 1
-32.328948 31.863495 8.157108 46.119211 -0.778147 1.392991 0.108363 -0.014878 -892288.000000 0 0 1
-32.912218 32.100595 6.911808 46.491240 -0.772915 1.421574 0.091674 -0.003699 -1257490.000000 0 0 1
-34.282926 31.987995 6.986508 47.406351 -0.750782 1.422883 0.073055 -0.002746 -1248790.000000 0 0 1
-34.871517 32.072695 5.600308 47.707902 -0.743614 1.453138 0.051530 0.008346 -442478.000000 0 0 1
-34.715460 30.887995 4.906608 46.725862 -0.727122 1.465594 0.060408 -0.000045 85770.300000 0 0 1
-35.327117 30.922595 3.656708 47.091226 -0.719012 1.493067 0.067448 0.008466 -219261.000000 0 0 1
-35.064407 29.641895 2.892508 46.005665 -0.701792 1.507882 0.066869 0.001006 82201.300000 0 0 1
-35.541497 28.439795 3.512708 45.654781 -0.674854 1.493780 0.093662 -0.007263 124117.000000 0 0 1
-34.969523 27.325795 2.966808 44.478855 -0.663307 1.504045 0.079813 -0.014929 -370334.000000 0 0 1
-35.389744 26.003895 3.663808 44.068810 -0.633693 1.487562 0.101810 -0.022736 192414.000000 0 0 1
-36.742398 25.608595 3.482008 44.921357 -0.608694 1.493205 0.112150 -0.017794 107989.000000 0 0 1
36.878402 24.664895 4.416508 44.585639 0.589490 1.471577 0.118932 -0.019655 111107.000000 0 0 1
35.387542 24.295395 4.224608 43.132258 0.601643 1.472694 0.116024 -0.026116 49431.900000 0 0 1
35.039332 23.396595 3.151408 42.250288 0.588734 1.496138 0.086069 -0.027618 243092.000000 0 0 1
35.425062 22.059895 3.388708 41.869528 0.556958 1.489773 0.082996 -0.026425 -732538.000000 0 0 1
34.761732 21.019195 2.425208 40.694794 0.543842 1.511166 0.081970 -0.026597 1685030.000000 0 0 1
33.306422 20.877395 2.498408 39.388139 0.559913 1.507323 0.073650 -0.030037 1940800.000000 0 0 1
32.781612 20.246095 3.636008 38.700892 0.553264 1.476706 0.058803 -0.019987 -549094.000000 0 0 1
33.046382 18.772795 3.807508 38.196575 0.516614 1.470949 0.058234 -0.027791 -492732.000000 0 0 1
32.306822 18.016995 2.855908 37.101201 0.508723 1.493744 0.050113 -0.033545 410907.000000 0 0 1
32.626912 16.657995 2.782708 36.738912 0.472060 1.494981 0.058519 -0.027983 -295082.000000 0 0 1
31.844742 15.750995 3.748008 35.724348 0.459333 1.465688 0.079815 -0.024577 149529.000000 0 0 1
30.462952 15.585395 3.452808 34.392120 0.472899 1.470232 0.070969 -0.023845 532429.000000 0 0 1
29.944412 14.525795 4.278708 33.555535 0.451650 1.442937 0.094322 -0.029595 178407.000000 0 0 1
28.417472 14.487595 4.546708 32.219803 0.471467 1.429208 0.082396 -0.019537 369301.000000 0 0 1
27.717172 14.131995 3.355308 31.292380 0.471508 1.463365 0.090258 -0.029647 923291.000000 0 0 1
26.334372 14.534595 3.349308 30.265021 0.504320 1.459903 0.065618 -0.019058 944190.000000 0 0 1
25.534272 14.085295 2.094708 29.236662 0.504089 1.499088 0.072696 -0.025825 -180304.000000 0 0 1
25.932972 14.664095 0.864208 29.804389 0.514636 1.541796 0.086251 -0.030655 865197.000000 0 0 1
27.114372 14.128395 0.238108 30.575439 0.480359 1.563009 0.091754 -0.030289 -109242.000000 0 0 1
27.599872 14.902095 -1.067292 31.384144 0.495082 1.604810 0.114462 -0.035719 197542.000000 0 0 1
28.148072 16.228495 -0.961492 32.505423 0.522991 1.600380 0.077741 -0.033066 555095.000000 0 0 1
29.211282 16.319695 -0.026892 33.460906 0.509481 1.571600 0.071065 -0.029740 -658481.000000 0 0 1
29.840872 17.719995 -0.157192 34.705916 0.535860 1.575326 0.076638 -0.024095 -411484.000000 0 0 1
30.802202 17.958395 -1.146592 35.673440 0.527843 1.602943 0.067248 -0.011652 -213495.000000 0 0 1
31.315112 19.241395 -0.937592 36.766107 0.550973 1.596301 0.054740 0.002281 -583509.000000 0 0 1
32.509572 19.488095 -1.844292 37.948117 0.540020 1.619416 0.060810 -0.004607 -647362.000000 0 0 1
32.942672 20.815095 -1.984192 39.018263 0.563516 1.621671 0.003948 0.002749 342369.000000 0 0 1
32.111812 21.612995 -2.832892 38.811279 0.592412 1.643853 0.059536 -0.010028 73414.100000 0 0 1
32.690722 23.065695 -2.948392 40.117361 0.614457 1.644357 0.066011 -0.004488 150993.000000 0 0 1
32.532162 23.924195 -1.820092 40.423031 0.634092 1.615838 0.067504 0.002326 -5865.550000 0 0 1
33.536712 23.647795 -0.886292 41.045278 0.614162 1.592391 0.074710 0.005599 -613968.000000 0 0 1
33.541382 24.689895 0.264608 41.649553 0.634547 1.564443 0.078457 -0.013796 -262525.000000 0 0 1
34.297372 25.824295 -0.077992 42.932622 0.645388 1.572613 0.105367 -0.010047 461097.000000 0 0 1
35.574032 25.710795 0.599508 43.896654 0.625826 1.557139 0.104467 -0.014030 825882.000000 0 0 1
36.436832 26.971895 0.208708 45.333977 0.637224 1.566193 0.087161 -0.005925 -123760.000000 0 0 1
36.869912 26.908695 -1.157492 45.659699 0.630466 1.596149 0.087153 -0.019171 168912.000000 0 0 1
36.014992 27.588495 -2.059692 45.414173 0.653680 1.616165 0.072151 -0.015797 -33544.100000 0 0 1
36.242552 27.161795 -3.530992 45.428555 0.643146 1.648601 0.081858 -0.021239 57771.500000 0 0 1
-36.668258 27.730495 -4.162792 46.161351 -0.647491 1.661098 0.079677 -0.024306 103308.000000 0 0 1
-36.377368 26.989995 -5.333192 45.609381 -0.638326 1.687996 0.079717 -0.026635 -245905.000000 0 0 1
36.732302 27.109795 -6.567592 46.123056 0.635801 1.713675 0.064098 -0.014149 17879.900000 0 0 1
35.510572 26.426595 -6.431392 44.729504 0.639772 1.715081 0.065850 -0.011343 -463928.000000 0 0 1
34.539842 26.785495 -7.405692 44.331792 0.659620 1.738635 0.055447 -0.008714 708273.000000 0 0 1
33.243432 25.992695 -7.001492 42.775775 0.663600 1.735215 0.065877 -0.006387 -70788.700000 0 0 1
33.284082 24.583095 -7.169392 41.994749 0.636155 1.742358 0.057831 -0.011969 80304.900000 0 0 1
34.182302 23.769495 -6.392192 42.122189 0.607615 1.723138 0.066082 -0.014779 246123.000000 0 0 1
34.367562 22.259395 -6.801492 41.507473 0.574747 1.735401 0.073323 -0.008075 834929.000000 0 0 1
33.338812 21.408195 -6.229992 40.107357 0.570830 1.726761 0.058336 -0.004242 884556.000000 0 0 1
33.701372 20.094595 -6.364592 39.750262 0.537661 1.731603 0.083488 -0.013536 412168.000000 0 0 1
32.573522 19.255795 -5.666492 38.261327 0.533886 1.719443 0.084439 -0.007694 984280.000000 0 0 1
31.428832 19.078395 -6.500092 37.336415 0.545576 1.745783 0.073596 -0.018287 91373.300000 0 0 1
30.341012 18.538195 -5.795992 36.025481 0.548465 1.732385 0.108615 -0.029250 -1245320.000000 0 0 1
29.072112 18.488895 -6.553592 35.071021 0.566447 1.758768 0.093712 -0.036200 -1191230.000000 0 0 1
28.982742 17.279695 -7.251192 34.513288 0.537625 1.782472 0.095645 -0.036866 -37127.600000 0 0 1
27.899972 17.317295 -8.142392 33.831875 0.555496 1.813855 0.111397 -0.038923 -177348.000000 0 0 1
28.184972 16.382895 -9.326892 33.908448 0.526529 1.849449 0.096586 -0.039274 -87521.500000 0 0 1
27.257272 16.394395 -10.399092 33.464552 0.541499 1.886778 0.090867 -0.034875 110715.000000 0 0 1
27.607372 15.462095 -11.433892 33.644870 0.510543 1.917544 0.080995 -0.030562 -108862.000000 0 0 1
26.823572 15.685995 -12.751892 33.588171 0.529156 1.960219 0.083804 -0.021193 1517530.000000 0 0 1
25.372672 15.586395 -12.546892 32.313043 0.550867 1.969574 0.076634 -0.025052 2004520.000000 0 0 1
24.602072 15.644895 -13.756692 32.237731 0.566412 2.011666 0.065136 -0.023616 -72433.300000 0 0 1
24.340772 14.238495 -14.365992 31.647902 0.529291 2.041969 0.059652 -0.027060 43120.600000 0 0 1
25.468672 13.551795 -14.950492 32.493409 0.488994 2.048914 0.076467 -0.029470 733747.000000 0 0 1
26.003172 14.179695 -16.121992 33.721616 0.499233 2.069276 0.091146 -0.031898 -1394900.000000 0 0 1
27.365072 13.627195 -16.430992 34.706270 0.462028 2.063977 0.111628 -0.031636 -1005200.000000 0 0 1
27.464372 12.248395 -16.842792 34.467297 0.419501 2.081350 0.111345 -0.033838 476681.000000 0 0 1
28.804772 11.940095 -17.246092 35.632969 0.392959 2.076008 0.097534 -0.018682 803316.000000 0 0 1
28.962362 10.522295 -17.887192 35.629886 0.348482 2.096738 0.073247 -0.012763 -303214.000000 0 0 1
28.335472 10.410795 -19.119892 35.733093 0.352102 2.135393 0.073634 -0.015291 -281189.000000 0 0 1
28.413272 9.168995 -19.809192 35.829996 0.312151 2.156596 0.064897 -0.004224 78200.400000 0 0 1
29.782752 8.827595 -20.458692 37.195388 0.288150 2.153200 0.064696 -0.005023 -105524.000000 0 0 1
30.129452 9.747595 -21.536392 38.296419 0.312896 2.168034 0.066926 -0.006079 293211.000000 0 0 1
30.682282 9.177295 -22.738392 39.276707 0.290638 2.188210 0.047649 -0.005801 992130.000000 0 0 1
32.144732 8.584895 -22.636892 40.241933 0.260979 2.168227 0.041917 -0.003306 165496.000000 0 0 1
33.168552 9.506595 -22.733292 41.319860 0.279132 2.153374 0.037984 0.003657 -358838.000000 0 0 1
34.411082 8.928195 -22.373892 42.005075 0.253859 2.132522 0.005643 0.003241 295593.000000 0 0 1
35.577182 9.918695 -22.219092 43.102256 0.271890 2.112384 0.019875 -0.004712 -152932.000000 0 0 1
35.552002 10.482195 -20.923392 42.563008 0.286717 2.084707 0.019905 -0.011536 600242.000000 0 0 1
36.485782 11.580695 -20.760192 43.546646 0.307345 2.067733 0.004079 0.000483 377531.000000 0 0 1
36.471922 12.292895 -19.418092 43.108917 0.325093 2.038057 -0.008647 -0.000678 -198333.000000 0 0 1
-36.966168 11.645895 -18.324092 42.870699 -0.305199 2.012441 -0.000690 -0.001870 119894.000000 0 0 1
36.828982 12.384495 -17.102892 42.453016 0.324392 1.985443 -0.002297 -0.003543 27948.700000 0 0 1
-36.880578 11.679895 -15.785192 41.782404 -0.306702 1.958210 0.001052 -0.002388 -762978.000000 0 0 1
36.305752 10.588695 -15.638292 40.924129 0.283782 1.962895 0.008077 -0.001717 81724.100000 0 0 1
36.857842 9.553195 -14.762592 40.837461 0.253609 1.940669 0.016163 -0.014119 -246874.000000 0 0 1
36.038402 8.293895 -14.498492 39.721045 0.226202 1.944438 0.067177 -0.014965 -779578.000000 0 0 1
34.954692 8.544595 -13.646792 38.484745 0.239746 1.933285 0.076247 -0.022809 62463.600000 0 0 1
34.933902 7.885395 -12.405892 37.900701 0.222003 1.904269 0.083805 -0.021634 -172712.000000 0 0 1
33.842982 8.498995 -11.490892 36.737188 0.246042 1.888922 0.095864 -0.028484 -20051.300000 0 0 1
34.160112 9.845695 -11.277292 37.296492 0.280617 1.877973 0.089122 -0.034249 671073.000000 0 0 1
33.189672 10.590195 -10.504392 36.387482 0.308869 1.863646 0.079586 -0.026285 144720.000000 0 0 1
33.264002 10.305595 -8.950592 35.955699 0.300434 1.822376 0.093488 -0.024301 368098.000000 0 0 1
34.496242 10.726695 -8.352892 37.078613 0.301474 1.798022 0.095452 -0.016556 589646.000000 0 0 1
34.598682 12.175095 -8.112692 37.564845 0.338362 1.788476 0.099636 -0.018321 -336477.000000 0 0 1
34.378522 12.672395 -6.656692 37.239548 0.353160 1.750516 0.090781 -0.019883 58651.300000 0 0 1
35.479532 12.407195 -5.787792 38.029387 0.336408 1.723583 0.106600 -0.013727 603450.000000 0 0 1
35.210862 12.773595 -4.454992 37.720240 0.348009 1.689179 0.102233 -0.012223 393947.000000 0 0 1
36.603322 12.807895 -3.769092 38.962180 0.336595 1.667685 0.121533 -0.012124 663602.000000 0 0 1
-36.698928 14.023695 -4.039792 39.494243 -0.365005 1.673264 0.125209 -0.007495 968751.000000 0 0 1
-35.528317 13.987795 -3.183492 38.315197 -0.375071 1.653979 0.121357 -0.011220 1056970.000000 0 0 1
-34.679275 15.271795 -3.023292 38.013420 -0.414819 1.650413 0.112719 -0.011186 362632.000000 0 0 1
-35.259076 16.092995 -2.054292 38.812460 -0.428181 1.623750 0.125874 -0.008866 462726.000000 0 0 1
-34.453200 17.250895 -1.911692 38.578115 -0.464212 1.620370 0.141877 -0.015590 228186.000000 0 0 1
-35.187199 18.353695 -1.093792 39.701303 -0.480779 1.598350 0.125851 -0.009911 310116.000000 0 0 1
-36.271878 18.969195 -1.781092 40.971353 -0.481856 1.614282 0.114135 -0.007978 554135.000000 0 0 1
36.935322 19.711395 -0.912192 41.875879 0.490222 1.592581 0.094509 -0.008883 312330.000000 0 0 1
36.228632 20.827295 -1.694092 41.822960 0.521748 1.611314 0.072980 -0.010374 185347.000000 0 0 1
-36.872438 21.872195 -1.898692 42.913572 -0.535394 1.615055 0.084877 -0.007807 476995.000000 0 0 1
36.788722 22.572795 -3.017492 43.267152 0.550344 1.640594 0.059783 -0.009806 -804382.000000 0 0 1
-36.257718 23.619895 -3.366592 43.403404 -0.577390 1.648439 0.079909 -0.017619 -1433270.000000 0 0 1
-35.076439 23.071995 -3.828492 42.158403 -0.581813 1.661734 0.098979 -0.024617 -545455.000000 0 0 1
-34.109608 24.127395 -4.086792 41.979738 -0.615641 1.668302 0.107570 -0.027428 974558.000000 0 0 1
-32.703108 23.526995 -4.383292 40.524388 -0.623635 1.679173 0.099850 -0.032227 199150.000000 0 0 1
-32.704388 22.933795 -5.663592 40.343676 -0.611561 1.711645 0.093404 -0.019296 817606.000000 0 0 1
-31.417488 23.065795 -6.310892 39.483121 -0.633293 1.731323 0.075395 -0.006200 882279.000000 0 0 1
-31.305208 22.187295 -7.589292 39.113802 -0.616569 1.766066 0.059427 -0.015776 516074.000000 0 0 1
-32.223718 22.569695 -8.614092 40.273586 -0.610999 1.786351 0.063481 -0.024884 275603.000000 0 0 1
-31.556138 22.322695 -9.825492 39.882739 -0.615673 1.819719 0.026805 -0.019724 -120325.000000 0 0 1
-32.433078 22.255895 -11.070392 40.862978 -0.601411 1.845140 0.030563 -0.016635 -529585.000000 0 0 1
-33.011638 23.499795 -11.395792 42.093618 -0.618644 1.844942 0.045636 -0.022790 185108.000000 0 0 1
-33.669058 23.419795 -12.663592 42.923873 -0.607759 1.870277 0.036164 -0.024415 -462871.000000 0 0 1
-33.954688 24.824295 -13.296392 44.113042 -0.631295 1.876974 0.047683 -0.026598 991599.000000 0 0 1
-32.796808 25.690695 -13.362692 43.751617 -0.664493 1.881178 0.036615 -0.026355 413835.000000 0 0 1
-31.865548 25.456195 -14.388892 43.248945 -0.674047 1.909961 0.036414 -0.023061 -189118.000000 0 0 1
-30.500838 26.136595 -14.088292 42.566450 -0.708494 1.908129 0.038048 -0.020016 317540.000000 0 0 1
-29.608688 25.533695 -13.141492 41.247337 -0.711633 1.895051 0.034251 -0.019808 235471.000000 0 0 1
-29.995768 25.422195 -11.789992 41.049215 -0.703056 1.862115 0.045353 -0.012943 -708659.000000 0 0 1
-30.342968 26.680295 -10.977292 41.869258 -0.721255 1.836077 0.053002 0.001395 87044.600000 0 0 1
-29.219968 27.391195 -10.495292 41.403324 -0.753105 1.827082 0.070762 0.003303 -418887.000000 0 0 1
-29.544988 28.660795 -9.991292 42.357684 -0.770209 1.808919 0.056402 -0.004367 754470.000000 0 0 1
-28.365188 29.600895 -9.466492 42.076257 -0.806713 1.797723 0.076170 -0.001889 802462.000000 0 0 1
-28.726338 30.955795 -9.246692 43.231529 -0.822736 1.786349 0.067663 -0.027374 -421505.000000 0 0 1
-27.728698 31.652695 -8.548892 42.940160 -0.851383 1.771224 0.113616 -0.006091 12826.900000 0 0 1
35.213962 -24.955505 -33.934442 54.903067 -0.616529 2.237093 0.024688 -0.015817 -205222.000000 0 0 1
34.845482 -23.593605 -33.804712 53.977999 -0.595186 2.247554 0.021867 -0.019535 1041050.000000 0 0 1
33.625242 -23.591805 -33.010862 52.696748 -0.611806 2.247762 0.009088 -0.008663 839825.000000 0 0 1
33.111102 -22.193005 -32.650192 51.525815 -0.590485 2.257080 0.002203 -0.010212 -78524.300000 0 0 1
32.418522 -21.536105 -33.684542 51.472447 -0.586373 2.284210 0.002591 -0.010609 93692.100000 0 0 1
32.137002 -20.177305 -33.417342 50.563122 -0.560648 2.292818 0.007839 -0.008043 158371.000000 0 0 1
31.924552 -19.432305 33.238275 50.015742 -0.546788 0.843896 0.018151 -0.009092 558350.000000 0 0 1
33.139242 -19.154105 32.524643 50.228892 -0.524077 0.866460 0.035086 -0.028169 742661.000000 0 0 1
32.885932 -18.446705 31.281614 48.992906 -0.511196 0.878258 0.040235 -0.019286 6769.880000 0 0 1
34.110432 -18.470405 30.329744 49.239931 -0.496285 0.907194 0.037966 -0.021644 -31719.200000 0 0 1
35.068712 -17.526805 30.682004 49.783420 -0.463475 0.906748 0.023310 -0.027818 -269033.000000 0 0 1
36.287202 -17.675905 30.001724 50.292168 -0.453284 0.931602 0.043615 -0.030069 -342886.000000 0 0 1
-36.733188 -16.574405 30.344834 50.446476 0.423860 0.925387 0.049601 -0.034980 -1105900.000000 0 0 1
-35.473322 -16.847705 29.869154 49.339316 0.443399 0.920550 0.059534 -0.027248 -393480.000000 0 0 1
-34.553181 -15.753405 30.108174 48.462297 0.427764 0.900434 0.056779 -0.032141 1366390.000000 0 0 1
-33.037778 -16.162205 30.083654 47.515659 0.454973 0.885204 0.067257 -0.034870 1188110.000000 0 0 1
-32.123208 -15.164805 30.574204 46.868473 0.441065 0.860128 0.061952 -0.029364 548569.000000 0 0 1
-31.039828 -15.742605 31.276374 46.792223 0.469371 0.838728 0.061565 -0.030796 25805.800000 0 0 1
-29.994768 -14.814605 31.875064 46.207990 0.458761 0.809560 0.053260 -0.027035 -380298.000000 0 0 1
-30.562588 -14.008705 32.857579 47.009957 0.429785 0.796869 0.054361 -0.026876 628352.000000 0 0 1
-29.575498 -13.117405 33.362405 46.473933 0.417454 0.770053 0.044443 -0.021622 146689.000000 0 0 1
-30.115798 -12.560405 -33.241962 46.580609 0.395135 2.365482 0.037464 -0.005692 100808.000000 0 0 1
-29.979058 -13.446605 -32.171832 45.984583 0.421634 2.345665 0.046932 -0.007161 285127.000000 0 0 1
-30.218168 -12.804305 -30.923812 45.092905 0.400793 2.326471 0.053754 -0.000249 -519325.000000 0 0 1
-30.319318 -13.815905 -29.715472 44.644703 0.427567 2.299093 0.060174 -0.002772 69669.000000 0 0 1
-31.501528 -14.606305 -29.720952 45.705857 0.434163 2.278730 0.061033 -0.001180 175908.000000 0 0 1
-31.608188 -15.414905 -28.585672 45.319284 0.453749 2.253331 0.073813 -0.006636 -743957.000000 0 0 1
-32.869918 -16.211005 -28.498892 46.426447 0.458182 2.231725 0.063742 -0.012508 -920398.000000 0 0 1
-32.786638 -17.456905 -29.159712 47.222833 0.489261 2.236346 0.077796 -0.013651 -128027.000000 0 0 1
-33.996188 -18.161005 -29.131052 48.313363 0.490637 2.218003 0.057162 -0.011861 -549045.000000 0 0 1
-34.024528 -19.564605 -29.785332 49.270765 0.521845 2.219964 0.066174 -0.020236 -761929.000000 0 0 1
-35.278836 -20.137505 -29.898872 50.438655 0.518680 2.205299 0.035542 -0.018527 -824525.000000 0 0 1
-35.197144 -21.329705 -30.730742 51.363156 0.544824 2.212178 0.042594 -0.022957 132150.000000 0 0 1
-36.592048 -21.920805 -31.092932 52.785131 0.539727 2.200676 0.060033 -0.025441 344481.000000 0 0 1
36.752712 -22.403205 -29.966492 52.446698 -0.547424 2.178971 0.034051 -0.017164 -129544.000000 0 0 1
36.061302 -23.647205 -30.105492 52.592285 -0.580407 2.180265 0.032277 -0.019930 -317556.000000 0 0 1
36.856492 -24.960705 -30.148622 53.762229 -0.595287 2.166120 0.033547 -0.012951 -339292.000000 0 0 1
-36.510628 -25.050295 -31.356672 54.256650 0.601343 2.186989 0.041209 -0.012708 -765784.000000 0 0 1
-35.688266 -26.181345 -31.396192 54.266343 0.632930 2.187755 0.031945 -0.003825 -394025.000000 0 0 1
-36.003357 -27.213325 -32.448612 55.585242 0.647238 2.194152 0.042397 -0.005094 -230773.000000 0 0 1
36.739172 -27.731935 -32.320752 56.244627 -0.646587 2.182968 0.049655 -0.004105 -412609.000000 0 0 1
36.405022 -28.782425 -33.276652 57.105947 -0.668993 2.192865 0.045020 -0.014944 -28468.900000 0 0 1
37.013702 -30.201235 -33.121392 58.130503 -0.684390 2.177030 0.052406 -0.016683 -194233.000000 0 0 1
36.648352 -30.829935 -31.892762 57.538986 -0.699384 2.158295 0.052863 -0.019930 315625.000000 0 0 1
-36.424628 -31.801955 -31.458332 57.686606 0.717747 2.147581 0.051700 -0.022760 341441.000000 0 0 1
-36.729288 -32.493305 -30.071302 57.525113 0.724281 2.120871 0.049634 -0.025187 603751.000000 0 0 1
36.189512 -33.401435 -30.181562 57.760396 -0.745356 2.120612 0.049282 -0.020677 805636.000000 0 0 1
35.750912 -33.802465 -28.877632 57.049557 -0.757392 2.101552 0.057418 -0.017796 -499198.000000 0 0 1
34.462692 33.486375 -28.963972 56.106383 0.771031 2.113243 0.055490 -0.029534 -464887.000000 0 0 1
33.305122 -33.875205 -29.331562 55.831006 -0.793884 2.123938 0.064472 -0.026700 33831.600000 0 0 1
32.125882 33.510300 -28.968442 54.719130 0.806487 2.128692 0.075735 -0.025345 412313.000000 0 0 1
30.860522 33.937323 -29.753272 54.675140 0.832846 2.146211 0.058021 -0.020163 182525.000000 0 0 1
30.806432 33.692597 -31.126292 55.254624 0.830116 2.169201 0.049870 -0.018046 -436107.000000 0 0 1
29.498202 33.845887 -31.614332 54.910418 0.853927 2.184310 0.043727 -0.012853 -376666.000000 0 0 1
29.409022 33.305097 -33.057702 55.379886 0.847443 2.210461 0.030166 -0.021356 21837.000000 0 0 1
29.270682 31.878267 -33.093842 54.481182 0.828016 2.223625 0.031857 -0.017747 32361.400000 0 0 1
29.045462 31.479757 33.537858 54.400385 0.825596 0.906506 0.033095 -0.015649 43886.800000 0 0 1
28.941172 29.947357 33.523410 53.462648 0.802483 0.893044 0.031751 -0.016239 1226930.000000 0 0 1
30.206612 29.234857 33.645957 53.843911 0.769052 0.895819 0.042735 -0.010175 714499.000000 0 0 1
30.043182 27.848697 33.737080 53.069137 0.747510 0.881856 0.033243 -0.006016 125368.000000 0 0 1
31.332932 27.118947 -33.825602 53.491694 0.713429 2.255382 0.054445 -0.021088 42862.900000 0 0 1
31.562572 27.356797 -32.442162 52.887467 0.714137 2.231178 0.056026 -0.017102 140645.000000 0 0 1
32.655912 26.553937 -31.961152 52.849176 0.682704 2.220263 0.062932 -0.016412 564882.000000 0 0 1
33.152192 26.964627 -30.555922 52.534021 0.682834 2.191540 0.065501 -0.030982 -196577.000000 0 0 1
33.839842 28.248387 -30.560822 53.638327 0.695584 2.177007 0.032175 -0.025057 -8984.840000 0 0 1
33.160602 29.485167 -30.562552 53.880147 0.726795 2.173937 0.061126 -0.021256 -414332.000000 0 0 1
32.501332 29.881317 -29.275532 52.974395 0.743424 2.156320 0.077953 -0.015680 185847.000000 0 0 1
33.454242 30.089277 -28.224952 53.114959 0.732492 2.131041 0.074151 -0.017698 855819.000000 0 0 1
32.756342 30.051907 -26.975592 51.997862 0.742366 2.116223 0.089994 -0.017687 -157740.000000 0 0 1
33.694342 30.554937 -25.877662 52.331313 0.736574 2.088052 0.093493 -0.023377 -66044.200000 0 0 1
33.963232 31.892027 -25.948622 53.328543 0.753958 2.078968 0.074769 -0.022769 -9299.780000 0 0 1
34.615232 32.315295 -24.765892 53.440079 0.751049 2.052662 0.057798 -0.028884 130004.000000 0 0 1
34.894862 33.809996 -24.658592 54.486819 0.769609 2.040431 0.064233 -0.024620 -1047110.000000 0 0 1
33.707632 -33.561665 -24.575092 53.539938 -0.783228 2.047671 0.075455 -0.023420 -512979.000000 0 0 1
33.710132 -32.165005 -24.578692 52.678958 -0.761947 2.056211 0.058268 -0.023060 -1159760.000000 0 0 1
34.159802 -31.437905 -25.930262 53.175299 -0.743928 2.080178 0.046381 -0.017557 345725.000000 0 0 1
35.512652 -31.661895 -26.318672 54.371836 -0.728136 2.076073 0.059514 -0.022818 -202840.000000 0 0 1
36.423662 -30.973345 -25.495192 54.185202 -0.704705 2.060676 0.056888 -0.019186 -1941180.000000 0 0 1
-36.293628 -31.582345 -25.912332 54.645410 0.716099 2.064841 0.024975 -0.016772 -1187570.000000 0 0 1
-35.899925 -32.858825 -25.358472 54.877674 0.741198 2.051148 0.029283 -0.015583 -212793.000000 0 0 1
-35.909892 -33.014395 -23.917292 54.327778 0.743413 2.026663 0.030605 -0.019805 -810055.000000 0 0 1
-34.761725 -32.366675 -23.109792 52.820845 0.749735 2.023627 0.016512 -0.012904 -17664.600000 0 0 1
-34.699663 -30.977945 -23.171192 51.967334 0.728792 2.032953 -0.012639 -0.006971 -218240.000000 0 0 1
-33.976768 -30.480575 -22.056892 50.695095 0.731211 2.020934 0.020844 -0.012948 1202.410000 0 0 1
-33.631198 -28.946535 -22.144692 49.591801 0.710676 2.033690 0.029660 -0.006424 659309.000000 0 0 1
-34.764569 -28.054925 -22.211592 49.889968 0.678993 2.032207 0.018201 -0.002341 181045.000000 0 0 1
-35.119289 -27.853775 -23.554792 50.636207 0.670531 2.054631 0.015557 -0.005223 -149361.000000 0 0 1
-36.339918 -27.014995 -23.986192 51.241945 0.639262 2.057932 0.020354 -0.006683 -24412.900000 0 0 1
-36.353838 -25.791545 -23.299892 50.296026 0.617046 2.052461 0.013688 -0.000090 626027.000000 0 0 1
36.695582 -24.811705 -23.771292 50.271869 -0.594539 2.063324 0.024710 0.003189 895648.000000 0 0 1
-37.017358 -24.167205 -25.166172 50.869193 0.578384 2.088313 0.036901 0.000540 -258748.000000 0 0 1
-35.792898 -23.469605 -25.228202 49.683157 0.580376 2.103404 0.031375 -0.012837 -103260.000000 0 0 1
-35.765508 -22.766205 -26.461852 49.977007 0.566855 2.128784 0.046228 -0.022370 1491420.000000 0 0 1
-34.468525 -21.816105 -26.642712 48.722230 0.564280 2.149368 0.048682 -0.031859 892477.000000 0 0 1
-34.413064 -20.704905 -25.719342 47.691054 0.541638 2.140391 0.053896 -0.025468 61008.100000 0 0 1
-35.274203 -19.628605 -26.044632 48.040341 0.507788 2.143779 0.049889 -0.025067 65457.100000 0 0 1
-36.551468 -19.514805 -25.175192 48.483272 0.490398 2.116776 0.041713 -0.020249 112526.000000 0 0 1
-36.348288 -19.179605 -23.787092 47.485587 0.485531 2.095473 0.031531 -0.025278 -129788.000000 0 0 1
-35.660198 -20.115205 -22.958992 46.940244 0.513589 2.081867 0.022298 -0.023383 27476.000000 0 0 1
-36.460168 -21.373005 -22.524192 47.890379 0.530212 2.060459 0.034173 -0.007807 709180.000000 0 0 1
36.484472 -21.152105 -21.630692 47.396362 -0.525401 2.044717 0.026748 -0.007784 193935.000000 0 0 1
35.914192 -22.327205 -21.175292 47.294041 -0.556210 2.035029 0.030365 -0.004828 -122304.000000 0 0 1
34.870872 -22.059505 -20.066792 45.883283 -0.564050 2.023440 0.027084 -0.009862 -65393.900000 0 0 1
33.656532 -21.542205 -20.546192 44.933003 -0.569356 2.045711 0.037722 -0.005572 274427.000000 0 0 1
32.625172 -21.513305 -19.525292 43.685938 -0.582961 2.034146 0.036439 -0.005724 543557.000000 0 0 1
31.338012 -20.839705 -19.997692 42.617743 -0.586846 2.059219 0.033758 0.000667 -355110.000000 0 0 1
30.665112 -21.574105 -21.055992 43.001697 -0.613097 2.082490 0.040232 -0.001848 924749.000000 0 0 1
29.532622 -21.008205 -21.730292 42.257852 -0.618307 2.110907 0.063056 -0.002671 592412.000000 0 0 1
29.789352 -19.616405 -22.481692 42.162013 -0.582330 2.133200 0.053526 -0.008969 -629803.000000 0 0 1
30.130102 -18.578205 -21.568392 41.450794 -0.552536 2.118042 0.058005 -0.006659 227059.000000 0 0 1
29.919562 -17.312405 -22.127892 41.043187 -0.524559 2.140208 0.047170 -0.012704 116452.000000 0 0 1
30.832292 -16.286905 -21.393592 40.909404 -0.485985 2.121105 0.040519 -0.026496 -171253.000000 0 0 1
30.381022 -16.112105 -20.056792 39.810568 -0.487620 2.098795 0.035892 -0.020521 450941.000000 0 0 1
31.392802 -15.637805 -19.162792 39.965755 -0.462153 2.070859 0.027289 -0.021458 601834.000000 0 0 1
32.426892 -16.798805 -18.819992 41.084003 -0.477984 2.046637 0.032649 -0.023817 -380304.000000 0 0 1
33.464232 -16.901405 -19.745492 42.372123 -0.467686 2.055563 0.029338 -0.025743 -500603.000000 0 0 1
34.254102 -18.056705 -19.504292 43.356724 -0.485123 2.037401 0.032101 -0.027496 -175903.000000 0 0 1
35.385242 -18.162905 -20.534492 44.762393 -0.474223 2.047378 0.020514 -0.025676 -394095.000000 0 0 1
36.302752 -17.115305 -20.336092 44.993112 -0.440556 2.039783 0.028816 -0.027436 84290.400000 0 0 1
-36.707998 -17.269305 -21.309292 45.823487 0.439730 2.054465 0.031761 -0.017600 473566.000000 0 0 1
-35.796646 -16.037505 -21.605992 44.781919 0.421204 2.074270 0.042707 -0.022040 224872.000000 0 0 1
-34.998357 -15.602505 -20.518292 43.466348 0.419361 2.062411 0.059298 -0.024712 -488837.000000 0 0 1
-34.284141 -14.491105 -20.894492 42.684590 0.399901 2.082323 0.068011 -0.025570 -1197790.000000 0 0 1
-33.114528 -14.178905 -19.941992 41.173977 0.404559 2.076399 0.069695 -0.029259 115028.000000 0 0 1
-32.046698 -15.119305 -19.958292 40.668386 0.440826 2.083755 0.092369 -0.033833 291850.000000 0 0 1
-32.295058 -16.380305 -19.345392 41.055199 0.469397 2.061452 0.075291 -0.030020 -498128.000000 0 0 1
-31.359858 -17.476005 -19.924692 41.059040 0.508410 2.077467 0.071345 -0.031714 248250.000000 0 0 1
-31.562138 -18.760705 -19.344992 41.501341 0.536296 2.055707 0.075103 -0.027629 40399.600000 0 0 1
-30.526788 -19.669805 -19.660592 41.295579 0.572390 2.067004 0.088237 -0.032627 -40343.800000 0 0 1
-30.853448 -21.166205 -19.316992 42.108071 0.601284 2.047382 0.069823 -0.008743 -110171.000000 0 0 1
-31.875548 -21.689005 -20.140492 43.498309 0.597469 2.052193 0.051641 -0.017634 39539.400000 0 0 1
-32.294148 -22.910605 -19.607292 44.184315 0.617030 2.030588 0.040143 0.000570 445.970000 0 0 1
-33.212278 -23.532505 -20.696392 45.663714 0.616440 2.041187 0.016341 -0.002863 28477.400000 0 0 1
-32.505908 -23.868605 -21.862492 45.872790 0.633367 2.067568 0.022113 -0.011825 210077.000000 0 0 1
-33.294778 -24.724105 -22.670192 47.262683 0.638737 2.071068 0.025978 -0.006836 137968.000000 0 0 1
-32.735498 -24.819905 -24.149492 47.653315 0.648726 2.102236 0.032238 -0.005240 106990.000000 0 0 1
-31.424428 -25.270605 -24.366992 47.115267 0.677279 2.114347 0.029362 -0.010629 -317789.000000 0 0 1
-31.337208 -25.745015 -25.644642 47.984102 0.687742 2.134642 0.039078 -0.007027 -356016.000000 0 0 1
-29.897698 -26.193585 -25.927912 47.457695 0.719457 2.148781 0.044645 -0.011011 -488661.000000 0 0 1
-29.090458 -25.061955 -26.048272 46.399017 0.711143 2.166869 0.056170 -0.023364 -1448600.000000 0 0 1
-27.767138 -25.439215 -26.166262 45.856743 0.741673 2.178043 0.052995 -0.019630 -747057.000000 0 0 1
-26.810868 -24.248405 -26.251412 44.675994 0.735254 2.198880 0.074830 -0.028279 -448986.000000 0 0 1
-27.098148 -23.566305 -27.466592 45.211658 0.715800 2.223720 0.081150 -0.034213 -342917.000000 0 0 1
-26.262998 -22.476805 -27.610972 44.241582 0.707872 2.244770 0.094213 -0.032733 -315927.000000 0 0 1
-26.208948 -21.778505 -28.989712 44.739419 0.693334 2.275710 0.084092 -0.029016 74470.600000 0 0 1
-25.484038 -22.465505 -29.986252 45.313468 0.722529 2.293949 0.100936 -0.021848 246743.000000 0 0 1
-25.816108 -21.968705 -31.245952 46.102114 0.705056 2.315502 0.091397 -0.020105 -570344.000000 0 0 1
-25.100028 -22.794505 -32.347622 46.861173 0.737298 2.332681 0.080247 -0.034915 -75649.700000 0 0 1
-25.519588 -24.138705 -32.585092 47.913617 0.757598 2.318668 0.072668 -0.032625 -258397.000000 0 0 1
-24.706138 -24.843605 -33.465372 48.451306 0.788172 2.333255 0.092614 -0.022441 -204078.000000 0 0 1
-19.366138 -14.660905 -11.904892 27.050247 0.647990 2.026510 0.080846 0.015166 89875.800000 0 0 1
-19.772638 -14.023405 -10.716492 26.503892 0.616896 1.987050 0.091352 0.005485 336317.000000 0 0 1
-18.868138 -14.414905 -9.661192 25.634639 0.652389 1.957222 0.055603 -0.005166 327939.000000 0 0 1
-19.276838 -13.972505 -8.251392 25.197477 0.627199 1.904420 0.095720 -0.023086 -1407180.000000 0 0 1
-20.485438 -14.404805 -7.817992 26.234949 0.612852 1.873392 0.167921 -0.034749 -1248440.000000 0 0 1
-20.889838 -13.677605 -6.639292 25.836842 0.579707 1.830682 0.120846 -0.042037 -331298.000000 0 0 1
-22.068938 -14.415705 -6.015192 27.037624 0.578630 1.795149 0.172247 -0.049448 -710356.000000 0 0 1
-21.861438 -15.732905 -5.463892 27.482738 0.623802 1.770942 0.146411 -0.043013 72738.800000 0 0 1
-21.507038 -15.841205 -4.118092 27.026933 0.634843 1.723762 0.158180 -0.047056 -226255.000000 0 0 1
-21.742838 -17.237505 -3.544792 27.972274 0.670329 1.697863 0.131193 -0.039468 1412680.000000 0 0 1
-23.124238 -17.601505 -3.244292 29.241559 0.650612 1.681973 0.154904 -0.043085 1500250.000000 0 0 1
-23.208338 -18.503405 -2.173192 29.761144 0.673077 1.643883 0.141598 -0.031859 180304.000000 0 0 1
-24.544938 -19.288505 -2.167292 31.292132 0.666050 1.640112 0.107353 -0.034783 15498.300000 0 0 1
-24.608338 -20.202705 -3.237492 32.003139 0.687397 1.672131 0.083970 -0.025636 149177.000000 0 0 1
-25.586598 -21.214605 -3.024792 33.374883 0.692252 1.661552 0.087042 -0.023026 122087.000000 0 0 1
-25.514528 -22.395605 -4.001992 34.184356 0.720390 1.688136 0.077534 -0.022605 -553769.000000 0 0 1
-24.442038 -23.259105 -3.843992 33.958437 0.760604 1.684236 0.076484 -0.021620 -695233.000000 0 0 1
-24.305238 -24.255905 -4.868592 34.681359 0.784382 1.711642 0.076503 -0.014471 298293.000000 0 0 1
-22.854338 -24.281405 -5.438192 33.785815 0.815665 1.732460 0.079452 -0.013377 554213.000000 0 0 1
-22.396238 -23.155905 -6.213192 32.808400 0.802073 1.761325 0.071622 -0.014230 300915.000000 0 0 1
-21.860738 -22.161405 -5.335292 31.582987 0.792228 1.740540 0.073733 -0.016474 -479012.000000 0 0 1
-21.760038 -20.733405 -5.986892 30.646634 0.761243 1.767413 0.104895 -0.009559 -511731.000000 0 0 1
-20.595838 -20.506605 -6.707092 29.827746 0.783227 1.797597 0.081080 -0.001474 -444379.000000 0 0 1
-20.500338 -19.149505 -7.183092 28.957973 0.751342 1.821466 0.070520 -0.003233 373959.000000 0 0 1
-19.241338 -18.833705 -8.039592 28.099334 0.774693 1.860964 0.072682 -0.000058 19082.900000 0 0 1
-19.330438 -19.379205 -9.346492 28.923629 0.786658 1.899846 0.058175 0.005113 -40773.800000 0 0 1
-18.143638 -19.361705 -10.115592 28.397049 0.817864 1.935016 0.079311 0.005451 -153491.000000 0 0 1
-17.727038 -17.984005 -10.659792 27.409915 0.792594 1.970237 0.072121 0.008268 -186027.000000 0 0 1
-17.246338 -16.974405 -9.803992 26.109095 0.777452 1.955734 0.075805 -0.006366 180874.000000 0 0 1
-15.896738 -17.184705 -9.399392 25.226354 0.824312 1.952608 0.077246 -0.002991 231998.000000 0 0 1
-15.290438 -16.031505 -8.528192 23.738928 0.809053 1.938260 0.043263 -0.000279 63652.900000 0 1 0
-15.559138 -16.279505 -7.149292 23.626710 0.808020 1.878209 0.004974 -0.002461 -130233.000000 0 1 0
-15.867038 -15.111305 -6.475892 22.848448 0.761007 1.858163 0.027187 -0.007670 -150850.000000 0 1 0
-16.480838 -15.336005 -5.101892 23.083335 0.749432 1.793657 0.018615 -0.014752 20834.900000 0 1 0
-17.089038 -14.234605 -4.462892 22.684281 0.694522 1.768828 0.039607 -0.013807 351562.000000 0 1 0
-17.722438 -14.550605 -3.212592 23.154387 0.687432 1.709992 0.046846 -0.013455 -72765.300000 0 1 0
-18.507338 -13.423505 -2.606792 23.011028 0.627509 1.684325 0.063807 -0.017040 -467324.000000 0 1 0
-19.752938 -13.165505 -3.208292 23.954169 0.587893 1.705135 0.108918 -0.037321 -62726.700000 0 1 0
-20.435838 -12.207505 -2.458392 23.930949 0.538474 1.673706 0.111384 -0.027885 -1091270.000000 0 1 0
-21.944638 -12.315805 -2.421592 25.280631 0.511418 1.666732 0.131575 -0.029015 -746112.000000 0 0 1
-22.556138 -11.959205 -3.661092 25.791579 0.487513 1.713227 0.134834 -0.032568 303329.000000 0 0 1
-23.963538 -12.122405 -3.625892 27.098910 0.468332 1.705001 0.142272 -0.030751 378847.000000 0 0 1
-24.606138 -11.443405 -4.947792 27.584310 0.435309 1.751142 0.150101 -0.041652 279567.000000 0 0 1
-24.158638 -11.933005 -6.203592 27.649972 0.458791 1.797084 0.170884 -0.049111 351755.000000 0 0 1
-24.784838 -11.153205 -7.218692 28.121018 0.422855 1.830404 0.172766 -0.049513 24147.800000 0 0 1
-24.223138 -11.543405 -8.619192 28.183347 0.444708 1.881602 0.197298 -0.048118 286529.000000 0 0 1
-22.922938 -11.003405 -8.757792 26.893027 0.447534 1.902499 0.167029 -0.039968 113746.000000 0 0 1
-22.262938 -11.306305 -9.975692 26.888387 0.469910 1.950886 0.133733 -0.026122 717329.000000 0 0 1
-20.885538 -10.542605 -10.029592 25.454762 0.467464 1.975794 0.111693 -0.020884 376996.000000 0 0 1
-20.911638 -9.150205 -10.312992 25.047568 0.412465 1.995155 0.103786 -0.023429 -46227.000000 0 0 1
-19.801638 -8.433005 -9.857692 23.672653 0.402611 2.000297 0.104767 -0.021021 -425671.000000 0 1 0
-19.750038 -7.080505 -10.552592 23.485203 0.344232 2.036811 0.111341 -0.027748 -246227.000000 0 1 0
-19.320338 -7.192905 -11.879592 23.793655 0.356399 2.093559 0.120201 -0.021226 420614.000000 0 1 0
-19.274938 -5.916005 -12.487192 23.716077 0.297800 2.125308 0.127695 -0.035897 -169012.000000 0 1 0
-18.683038 -5.968905 -13.949292 24.067955 0.309233 2.189009 0.143089 -0.025432 -24137.100000 0 1 0
-19.531738 -6.544905 -14.921992 25.436006 0.323331 2.197710 0.157778 -0.035133 224819.000000 0 0 1
-19.169138 -6.193505 -16.229092 25.868877 0.312510 2.248954 0.170639 -0.045642 -193061.000000 0 0 1
-19.779638 -7.086905 -17.361192 27.255629 0.344044 2.261366 0.142587 -0.032984 272772.000000 0 0 1
-21.161638 -6.897005 -17.612492 28.382802 0.315064 2.240220 0.125903 -0.037310 350452.000000 0 0 1
-21.589638 -7.645205 -18.721792 29.581533 0.340336 2.256074 0.120342 -0.035093 565591.000000 0 0 1
-23.073438 -7.309605 -19.109592 30.838132 0.306795 2.239124 0.117375 -0.032944 160596.000000 0 0 1
-23.274738 -6.092905 -19.852392 31.192217 0.256036 2.260688 0.112204 -0.037594 514198.000000 0 0 1
-24.555538 -5.943805 -20.459592 32.509970 0.237488 2.251491 0.096684 -0.029999 1567800.000000 0 0 1
-25.788488 -5.641105 -19.472092 32.802904 0.215353 2.206332 0.114621 -0.027383 512347.000000 0 0 1
-25.833668 -4.318205 -18.930392 32.316947 0.165623 2.196630 0.116689 -0.029274 134.363000 0 0 1
-26.894628 -4.113405 -18.037792 32.643576 0.151769 2.156238 0.139199 -0.024374 -427050.000000 0 0 1
-27.080938 -2.610105 -17.740992 32.479727 0.096085 2.148638 0.126986 -0.023782 11822.300000 0 0 1
-27.414738 -1.709105 -18.743792 33.253851 0.062262 2.169604 0.130375 -0.023306 -648927.000000 0 0 1
-28.716058 -1.785705 -19.212492 34.596540 0.062105 2.159556 0.141940 -0.021886 -711350.000000 0 0 1
-29.023038 -0.633605 -20.192992 35.362340 0.021828 2.178558 0.142885 -0.021257 194530.000000 0 0 1
-28.218208 -0.717705 -21.383492 35.412372 0.025429 2.219109 0.136872 -0.020251 225855.000000 0 0 1
-28.735688 -1.533905 -22.403192 36.469105 0.053329 2.232303 0.146207 -0.011852 -74998.800000 0 0 1
-27.916228 -1.572205 -23.747192 36.684012 0.056259 2.274892 0.152409 -0.013471 -366839.000000 0 0 1
-28.014248 -0.409405 -24.602792 37.286232 0.014613 2.291397 0.153965 -0.015215 309242.000000 0 0 1
-27.577008 0.912795 -24.073192 36.617525 -0.033088 2.288190 0.126069 -0.008304 -107721.000000 0 0 1
-26.070608 0.947795 -23.774992 35.296249 -0.036339 2.309844 0.120069 -0.008904 -295186.000000 0 0 1
-25.204628 0.934195 -24.912292 35.450928 -0.037047 2.350018 0.108469 -0.015676 -660592.000000 0 0 1
-23.886938 0.798695 -24.507092 34.231875 -0.033424 2.368729 0.107037 -0.016960 -563016.000000 0 0 1
-22.967138 0.129995 -25.571782 34.371825 -0.005660 2.409796 0.092180 -0.015765 4678.460000 0 0 1
-22.730238 0.993895 -26.684102 35.066977 -0.043698 2.435567 0.059010 -0.010735 136976.000000 0 0 1
-22.090238 0.297195 -27.734532 35.458020 -0.013453 2.468952 0.042890 -0.013655 -44305.900000 0 0 1
-21.865338 1.072895 -29.015862 36.347825 -0.049029 2.495236 0.043430 -0.003805 164378.000000 0 0 1
-20.729738 1.939495 -29.003682 35.702903 -0.093289 2.518988 0.058463 -0.006308 573435.000000 0 0 1
-20.646138 2.869895 -30.115102 36.625383 -0.138119 2.536144 0.044566 -0.007196 -13860.100000 0 0 1
-20.044938 2.374095 -31.496972 37.409827 -0.117889 2.571672 0.040387 -0.011270 -261540.000000 0 0 1
-18.660338 2.242995 -31.357972 36.559016 -0.119627 2.601645 0.033868 -0.007838 -576217.000000 0 0 1
-18.061938 1.649795 -32.475362 37.196836 -0.091088 2.632255 0.030572 -0.001176 -105566.000000 0 0 1
-16.541838 1.447795 -32.323252 36.338976 -0.087301 2.667030 0.033288 -0.010835 -216525.000000 0 0 1
-15.905838 2.689695 -32.300662 36.104888 -0.167516 2.678408 0.034225 -0.005355 1178540.000000 0 0 1
-14.449438 2.603195 -32.320652 35.499119 -0.178247 2.715200 0.036248 -0.012003 1677290.000000 0 0 1
-13.704138 3.864795 -32.802812 35.759817 -0.274878 2.732066 0.043553 -0.016165 -283450.000000 0 0 1
-13.638738 4.917695 -31.891122 35.032022 -0.346059 2.714906 0.048988 -0.031247 58938.700000 0 0 1
-13.274538 6.138395 -32.426152 35.571739 -0.433133 2.717884 0.051688 -0.018879 -303381.000000 0 0 1
-13.064838 7.187895 -31.337452 34.704348 -0.502975 2.697460 0.061397 -0.024911 -429893.000000 0 0 1
-11.969338 7.075195 -30.447292 33.471795 -0.533857 2.713214 0.082170 -0.039981 102232.000000 0 0 1
-12.095238 6.122895 -29.418452 32.391819 -0.468614 2.709774 0.087923 -0.045158 584926.000000 0 0 1
-10.658338 5.521195 -29.142272 31.517547 -0.477957 2.750876 0.102670 -0.051680 823538.000000 0 0 1
-10.013738 4.871695 -30.209852 32.196949 -0.452790 2.788429 0.082154 -0.052232 48167.700000 0 0 1
-10.624138 3.626295 -30.534342 32.532574 -0.328927 2.789281 0.082479 -0.048437 -436154.000000 0 0 1
-9.978738 2.799395 -31.646412 33.300259 -0.273506 2.825108 0.079129 -0.042934 -432118.000000 0 0 1
-10.732138 1.633995 -31.853272 33.652335 -0.151092 2.813131 0.081470 -0.034243 120352.000000 0 0 1
-10.377238 0.852395 -32.934032 34.540760 -0.081957 2.835383 0.066324 -0.027795 -530066.000000 0 0 1
-10.885538 1.302495 33.674218 35.413901 -0.119088 0.314744 0.066728 -0.021616 -460676.000000 0 0 1
-12.271238 1.237695 33.508742 35.706456 -0.100522 0.352680 0.044673 -0.017021 -621770.000000 0 0 1
-12.554638 1.187395 32.143981 34.529182 -0.094298 0.373867 0.038019 -0.004730 -822044.000000 0 0 1
-14.016938 1.020495 31.809594 34.775944 -0.072676 0.416029 0.041051 0.001111 -889918.000000 0 0 1
-14.816538 2.149595 31.886834 35.226705 -0.144076 0.438972 0.039097 -0.002076 963179.000000 0 0 1
-16.045538 1.941995 31.121344 35.068058 -0.120444 0.479001 0.034966 -0.006022 1327640.000000 0 0 1
-16.924038 3.164995 30.787004 35.274352 -0.184876 0.509912 0.038946 -0.008596 111089.000000 0 0 1
-17.634938 3.806995 31.835374 36.592012 -0.212615 0.515576 0.040485 -0.011208 561389.000000 0 0 1
-16.795838 4.666095 32.607311 36.974442 -0.270979 0.490945 0.027133 -0.005245 -263070.000000 0 0 1
-17.440738 5.042395 33.905688 38.460380 -0.281442 0.491609 0.020148 -0.003679 1265200.000000 0 0 1
-18.778538 5.562095 33.623177 38.911289 -0.287962 0.527440 0.025595 -0.005440 870677.000000 0 0 1
-19.670738 5.168495 -33.383402 39.090956 -0.256943 2.594409 0.026123 -0.006864 -131042.000000 0 0 1
-21.037838 5.906095 -33.252772 39.789690 -0.273692 2.560227 0.022858 -0.009510 236384.000000 0 0 1
-21.097738 7.286095 -32.891482 39.749860 -0.332526 2.545368 0.026555 -0.012280 -15001.600000 0 0 1
-20.738838 8.155495 -33.931602 40.595137 -0.374672 2.560483 0.009141 -0.014083 -271190.000000 0 0 1
-20.742938 9.667495 -33.481772 40.555629 -0.436131 2.542019 0.018784 -0.006500 -210857.000000 0 0 1
-19.613738 10.067295 -32.704202 39.441273 -0.474213 2.548449 0.021860 -0.002024 527343.000000 0 0 1
-19.398838 11.467495 -32.586252 39.619215 -0.533882 2.536564 0.022919 -0.007584 -344973.000000 0 0 1
-18.807838 12.156795 -33.845622 40.583846 -0.573818 2.557056 0.009628 -0.018191 -460487.000000 0 0 1
-19.629138 12.043695 32.980833 40.225477 -0.550332 0.609562 0.027259 -0.024748 453634.000000 0 0 1
-18.887538 12.306495 31.799734 38.979636 -0.577476 0.616679 0.019383 -0.017628 -56639.300000 0 0 1
-19.564038 11.528395 30.653564 38.148348 -0.532488 0.637585 0.031235 -0.027181 -190295.000000 0 0 1
-19.507338 10.117395 30.688344 37.744833 -0.478453 0.621429 0.028500 -0.023758 585087.000000 0 0 1
-18.215538 9.537395 30.485664 36.771503 -0.482338 0.593378 0.027237 -0.020716 500720.000000 0 0 1
-18.194938 7.999295 30.643164 36.524622 -0.414209 0.575403 0.035685 -0.017345 -10582.000000 0 0 1
-18.946838 7.370495 29.635184 35.938155 -0.370996 0.601273 0.038530 -0.010988 126886.000000 0 0 1
-19.086538 5.995395 29.918694 35.991235 -0.304357 0.589395 0.034294 -0.008139 -294585.000000 0 0 1
-19.795138 5.250995 28.758974 35.305793 -0.259295 0.618812 0.044781 -0.011312 2021120.000000 0 0 1
-21.208338 5.652595 28.653074 36.093546 -0.260472 0.653673 0.071635 -0.022382 1917310.000000 0 0 1
-22.033038 4.744795 27.928404 35.888210 -0.212110 0.678993 0.075328 -0.023843 -33292.800000 0 0 1
-23.418238 5.247395 27.554084 36.540068 -0.220432 0.716546 0.083612 -0.018674 -705581.000000 0 0 1
-23.533038 6.066695 26.392344 35.877075 -0.252301 0.744196 0.094308 -0.021552 932942.000000 0 0 1
-24.839838 6.612695 26.105344 36.636516 -0.260179 0.777671 0.100163 -0.019700 607356.000000 0 0 1
-25.050038 7.001695 24.582414 35.788591 -0.272553 0.813611 0.105412 -0.023495 -218446.000000 0 0 1
-25.074938 5.916295 23.732264 35.028209 -0.231707 0.826413 0.105837 -0.022150 -447644.000000 0 0 1
-26.299278 5.272895 23.705624 35.796816 -0.197872 0.847009 0.106273 -0.019332 -1003890.000000 0 0 1
-26.612808 4.549195 22.444474 35.109702 -0.169304 0.877252 0.103376 -0.017745 -66683.400000 0 0 1
-27.176468 5.373895 21.411374 35.012656 -0.195222 0.912800 0.108123 -0.022720 146324.000000 0 0 1
-27.413008 4.561895 20.299474 34.414424 -0.164902 0.939919 0.104893 -0.021270 -227721.000000 0 0 1
-28.330148 5.127295 19.208374 34.609942 -0.179046 0.982438 0.129181 -0.031236 40046.100000 0 0 1
-29.689898 5.109795 19.590174 35.935706 -0.170436 0.994234 0.145853 -0.026302 6654.190000 0 0 1
-30.542718 5.529195 18.539774 36.154569 -0.179092 1.032363 0.149394 -0.028057 251196.000000 0 0 1
-32.027758 5.655795 18.952674 37.642651 -0.174788 1.043164 0.144480 -0.025547 201686.000000 0 0 1
-32.226848 6.744095 19.878574 38.460503 -0.206292 1.027621 0.134206 -0.042054 524928.000000 0 0 1
-33.620818 6.784595 20.191174 39.800423 -0.199123 1.038735 0.132460 -0.031555 609371.000000 0 0 1
-34.072018 7.958895 21.113374 40.865890 -0.229476 1.027862 0.119005 -0.023229 1532.970000 0 0 1
-33.755368 7.796995 22.450274 41.282355 -0.227004 0.995811 0.103995 -0.022488 258295.000000 0 0 1
-34.234075 8.949095 23.189814 42.306331 -0.255687 0.990657 0.092570 -0.006497 256187.000000 0 0 1
-0.596638 32.115395 11.384208 34.078656 -1.552221 1.230192 0.084587 -0.016335 -232854.000000 0 0 1
-0.964438 32.490795 12.692408 34.895260 -1.541122 1.198529 0.063145 -0.014860 11743.400000 0 0 1
-0.750238 33.866695 12.953608 36.267229 -1.548647 1.205559 0.063397 -0.021400 -141274.000000 0 0 1
-0.502538 -33.932476 14.475008 36.894326 1.555987 1.167625 0.040389 -0.010872 -267006.000000 0 0 1
-1.626438 33.885895 15.250108 37.194959 -1.522836 1.148337 0.031725 0.011732 -446789.000000 0 0 1
-1.382338 -33.687076 16.551308 37.558964 1.529785 1.114446 0.023844 -0.005026 648034.000000 0 0 1
-2.667738 -33.225076 17.325308 37.565793 1.490675 1.091450 0.027315 0.004176 57336.700000 0 0 1
-3.466438 33.835395 17.840908 38.407658 -1.468702 1.087710 0.031211 0.002848 -203998.000000 0 0 1
-4.210038 -33.731676 18.934608 38.911049 1.446629 1.062588 0.037727 0.000308 -347837.000000 0 0 1
-5.161938 33.293295 19.510208 38.932471 -1.416977 1.045893 0.029708 -0.004959 590809.000000 0 0 1
-6.244038 32.965995 18.621608 38.373287 -1.383605 1.064118 0.028813 -0.010991 726670.000000 0 0 1
-7.280838 32.195995 19.222408 38.198085 -1.348396 1.043464 0.050692 -0.023930 252237.000000 0 0 1
-8.499838 31.909995 18.342708 37.774991 -1.310472 1.063772 0.037096 -0.018784 390006.000000 0 0 1
-9.321138 33.097595 18.044808 38.832326 -1.296281 1.087517 0.058180 -0.024036 232816.000000 0 0 1
-10.010138 32.850795 16.868308 38.261174 -1.275019 1.114226 0.064351 -0.008713 -732651.000000 0 0 1
-11.081138 33.870995 16.537808 39.287848 -1.254615 1.136316 0.094534 -0.017739 -440731.000000 0 0 1
-12.241238 33.686195 17.315908 39.805129 -1.222243 1.120739 0.079291 -0.011160 -333266.000000 0 0 1
-13.144838 -33.332076 17.119508 39.710094 1.195161 1.125071 0.055586 -0.013748 -398475.000000 0 0 1
-14.490538 -33.554976 17.793108 40.651037 1.163142 1.117753 0.067498 -0.011706 -317821.000000 0 0 1
-14.402638 -33.435876 19.190508 41.154215 1.164062 1.085685 0.073044 -0.017658 133634.000000 0 0 1
-15.689838 -33.545376 19.778108 41.983768 1.133305 1.080271 0.059966 -0.020122 336261.000000 0 0 1
-15.636638 -33.182376 21.271808 42.403589 1.130426 1.045290 0.068165 -0.034143 10798.200000 0 0 1
-15.572238 -31.778876 21.472408 41.393911 1.115166 1.025427 0.072089 -0.022293 -14060.100000 0 0 1
-15.494938 -31.512976 22.841408 41.891415 1.113811 0.994106 0.060961 -0.015765 138375.000000 0 0 1
-15.409638 -29.930076 23.064508 40.807327 1.095336 0.970115 0.072908 -0.019559 -142102.000000 0 0 1
-15.425238 -29.408876 24.363208 41.187205 1.087734 0.937849 0.081058 -0.025354 -49085.400000 0 0 1
-15.351538 -27.967076 24.421208 40.177387 1.068787 0.917466 0.080602 -0.010127 342326.000000 0 0 1
-16.682038 -27.258076 24.024208 39.980691 1.021597 0.926176 0.098057 -0.009235 446135.000000 0 0 1
-17.750238 -27.292376 24.953308 41.019657 0.994159 0.916847 0.110044 -0.012641 117108.000000 0 0 1
-18.782738 -26.438176 24.516608 40.655042 0.953098 0.923490 0.111625 -0.012047 -605854.000000 0 0 1
-19.850738 -26.178676 25.586608 41.641918 0.922018 0.909116 0.115993 -0.012068 56222.500000 0 0 1
-20.843838 -27.128876 25.916308 42.919652 0.915669 0.922495 0.119506 -0.013767 608026.000000 0 0 1
-21.761638 -27.598776 24.938308 43.095017 0.903107 0.953685 0.111699 -0.019759 693266.000000 0 0 1
-23.013638 -26.689976 24.589608 42.972446 0.859229 0.961588 0.084657 -0.016970 565317.000000 0 0 1
-22.701338 -25.522776 23.844608 41.657270 0.843838 0.961367 0.079394 -0.012113 -288851.000000 0 0 1
-23.757638 -25.294776 22.990508 41.627088 0.816725 0.985679 0.071803 -0.015664 -717693.000000 0 0 1
-24.321938 -23.844776 22.945408 41.068501 0.775492 0.977966 0.074268 -0.008246 -351068.000000 0 0 1
-24.985038 -23.567076 24.124208 41.971855 0.756202 0.958472 0.066911 -0.005947 -151217.000000 0 0 1
-25.445308 -22.223576 24.049508 41.469626 0.717915 0.952153 0.056092 -0.007553 -67436.400000 0 0 1
-26.016658 -21.651076 25.365308 42.296979 0.694069 0.927676 0.065292 -0.005916 630812.000000 0 0 1
-27.299068 -22.255776 25.639308 43.565270 0.683975 0.941561 0.048712 -0.002035 849152.000000 0 0 1
-27.621758 -21.911876 26.963808 44.386245 0.670632 0.917911 0.052909 -0.011000 -1079000.000000 0 0 1
-28.994928 -22.387576 27.416608 45.755653 0.657509 0.928300 0.052346 -0.005153 -666923.000000 0 0 1
-30.102628 -21.678876 26.944208 45.849015 0.624132 0.942617 0.046990 -0.009355 190757.000000 0 0 1
-30.700488 -22.112376 25.729008 45.754333 0.624195 0.973596 0.040195 0.000743 312335.000000 0 0 1
-32.222568 -22.488576 25.888508 47.055762 0.609324 0.988233 0.034435 0.000911 688020.000000 0 0 1
-32.808218 -23.102576 24.750008 47.145212 0.613519 1.018112 0.024822 0.001676 -207492.000000 0 0 1
-32.271548 -24.301676 24.299008 47.143038 0.645442 1.029285 0.015331 0.001541 -577587.000000 0 0 1
-32.870478 -24.806576 22.930508 47.134305 0.646487 1.062725 0.025230 -0.001879 -778991.000000 0 0 1
-34.193786 -25.183676 22.964308 48.278276 0.634804 1.075076 0.030734 -0.000778 -1018870.000000 0 0 1
-34.398957 -25.814076 21.669408 48.158260 0.643777 1.104073 0.037993 -0.000945 954070.000000 0 0 1
-35.729745 -26.672876 21.573708 49.532634 0.641269 1.120152 0.058238 -0.004396 634215.000000 0 0 1
-35.762899 -27.902276 22.341908 50.563651 0.662552 1.113129 0.053643 0.001362 456117.000000 0 0 1
-34.800722 -28.910676 22.006908 50.311245 0.693211 1.118074 0.032927 0.002681 -121304.000000 0 0 1
-35.270829 -29.864676 20.900508 50.722396 0.702589 1.146086 0.052213 0.001653 -111622.000000 0 0 1
-35.246674 -29.218776 19.629308 49.813398 0.692163 1.165755 0.050051 -0.002776 410791.000000 0 0 1
-35.765218 -30.118876 18.676108 50.349722 0.699906 1.190789 0.071885 0.001659 -293252.000000 0 0 1
-35.899528 -29.468776 17.230708 49.538693 0.687336 1.215548 0.075590 0.002665 83200.500000 0 0 1
-34.684332 -29.364776 16.489208 48.344461 0.702534 1.222733 0.069654 -0.004160 293015.000000 0 0 1
-34.752112 -28.734376 15.224508 47.593689 0.690893 1.245188 0.080207 -0.014319 -207528.000000 0 0 1
-35.553211 -29.516376 14.158508 48.329190 0.692888 1.273475 0.081426 -0.018855 -216936.000000 0 0 1
-34.957642 -30.704676 13.797408 48.530221 0.720718 1.282514 0.092663 -0.027771 -60415.300000 0 0 1
-35.647950 -31.427776 12.775908 49.210825 0.722564 1.308172 0.106194 -0.029355 162299.000000 0 0 1
-35.954977 -30.826976 11.395108 48.712537 0.708761 1.334683 0.101557 -0.026192 -396845.000000 0 0 1
-37.015808 -29.926376 11.364408 48.937795 0.679888 1.336435 0.096763 -0.025884 -269519.000000 0 0 1
36.817562 -29.297976 10.150508 48.134573 -0.672151 1.358324 0.081217 -0.028524 -470064.000000 0 0 1
35.479752 -28.560976 10.158508 46.666235 -0.677778 1.351355 0.113902 -0.021502 -428057.000000 0 0 1
35.454802 -27.685776 9.023508 45.879940 -0.662970 1.372829 0.121164 -0.050072 -226021.000000 0 0 1
34.299812 -26.933176 8.772408 44.484022 -0.665669 1.372292 0.083585 -0.045104 -436801.000000 0 0 1
34.448412 -25.827976 7.757908 43.748858 -0.643346 1.392525 0.068386 -0.038442 38177.700000 0 0 1
35.220512 -24.721976 8.181008 43.801706 -0.612013 1.382919 0.093084 -0.040398 14563.100000 0 0 1
35.800562 -24.018176 7.132208 43.696927 -0.590920 1.406843 0.081315 -0.039916 -177415.000000 0 0 1
36.453762 -22.703876 7.501008 43.595962 -0.557025 1.397878 0.092784 -0.042628 -995430.000000 0 0 1
35.560402 -21.758476 7.973108 42.444599 -0.549104 1.381826 0.091227 -0.039446 -622668.000000 0 0 1
36.100072 -20.446276 8.097408 42.270953 -0.515330 1.378045 0.095475 -0.039094 396126.000000 0 0 1
35.176372 -19.410076 8.861808 41.141948 -0.504219 1.353699 0.100118 -0.028848 421427.000000 0 0 1
35.272352 -19.677076 10.249208 41.669802 -0.508859 1.322284 0.095568 -0.045965 254766.000000 0 0 1
34.416852 -18.781376 10.969308 40.713456 -0.499538 1.297998 0.088455 -0.032218 137133.000000 0 0 1
34.782712 -18.729876 12.486608 41.431398 -0.493957 1.264656 0.077561 -0.044368 870783.000000 0 0 1
35.993662 -17.989276 12.748508 42.209978 -0.463480 1.263979 0.058998 -0.032197 953162.000000 0 0 1
36.438592 -18.169476 14.079108 43.082736 -0.462553 1.237889 0.068159 -0.027338 -246113.000000 0 0 1
-36.403798 -17.318376 14.559208 42.861792 0.444044 1.224222 0.081196 -0.033119 -224179.000000 0 0 1
-35.207868 -17.707376 13.965908 41.811382 0.465995 1.230229 0.076631 -0.034599 -629000.000000 0 0 1
-34.041328 -17.247376 14.566208 40.846767 0.468961 1.206164 0.054316 -0.032331 146411.000000 0 0 1
-32.779878 -17.245076 13.648008 39.473803 0.484299 1.217760 0.063124 -0.033301 291171.000000 0 0 1
-32.092448 -18.471676 13.590108 39.443872 0.522268 1.219044 0.058056 -0.034610 -122935.000000 0 0 1
-30.874948 -18.354976 12.902008 38.165814 0.536361 1.225951 0.029818 -0.023311 -237237.000000 0 0 1
-30.217288 -19.713276 12.584808 38.210929 0.578049 1.235180 0.037453 -0.024910 41018.100000 0 0 1
-30.765698 -20.450376 11.486908 38.687144 0.586649 1.269333 0.049304 -0.024718 -16705.600000 0 0 1
-29.829918 -21.378876 10.963108 38.302351 0.621841 1.280511 0.047621 -0.022556 -360921.000000 0 0 1
-30.341018 -22.029276 9.687108 38.726043 0.628000 1.317967 0.058493 -0.021137 358485.000000 0 0 1
-31.016148 -23.274876 9.874808 40.015411 0.643764 1.321445 0.071290 -0.029546 673856.000000 0 0 1
-32.369348 -23.170676 10.333308 41.127025 0.621266 1.316821 0.098954 -0.034775 32454.300000 0 0 1
-33.085138 -24.472776 10.643808 42.506867 0.636871 1.317701 0.113560 -0.037920 -119939.000000 0 0 1
-33.633118 -25.179576 9.556608 43.087428 0.642639 1.347141 0.106529 -0.029390 31974.000000 0 0 1
-34.381655 -26.327476 9.930808 44.428089 0.653500 1.345366 0.114875 -0.020635 40200.000000 0 0 1
-34.669578 -27.149776 8.659308 44.878431 0.664351 1.376628 0.104397 -0.024000 -71569.600000 0 0 1
-33.506388 -27.442376 7.914708 44.027317 0.686231 1.390046 0.082798 -0.021754 -258280.000000 0 0 1
-33.817938 -27.996876 6.681408 44.408549 0.691506 1.419770 0.075208 -0.014191 34269.900000 0 0 1
-32.587918 -28.303376 5.801508 43.551245 0.715150 1.437188 0.056570 -0.010699 44506.200000 0 0 1
-31.907138 -27.175176 5.326408 42.248388 0.705478 1.444386 0.076467 -0.009080 -768864.000000 0 0 1
-30.723218 -27.556076 4.696308 41.536836 0.731107 1.457490 0.062728 -0.014425 -305249.000000 0 0 1
-29.980128 -26.343676 4.104308 40.120352 0.720924 1.468317 0.066177 -0.016082 -41728.000000 0 0 1
-30.385088 -26.018176 2.832008 40.102610 0.708129 1.500118 0.090395 -0.018357 -195830.000000 0 0 1
-29.611388 -24.946276 2.354808 38.790412 0.700098 1.510053 0.086897 -0.028409 -61359.400000 0 0 1
-29.845198 -24.559876 0.890208 38.661555 0.688554 1.547769 0.091889 -0.021336 -172791.000000 0 0 1
-29.464688 -25.547576 -0.053392 38.998068 0.714314 1.572165 0.097220 -0.024676 -177344.000000 0 0 1
-29.482598 -25.257376 -1.409692 38.847726 0.708364 1.607092 0.104390 -0.030815 1787740.000000 0 0 1
-30.958018 -25.006076 -2.020792 39.847036 0.679444 1.621532 0.118126 -0.024755 1823070.000000 0 0 1
-31.675448 -23.872176 -1.604092 39.696195 0.645833 1.611217 0.100383 -0.017663 -40230.600000 0 0 1
-32.973458 -23.934576 -2.174792 40.802482 0.627881 1.624122 0.099861 -0.018679 253009.000000 0 0 1
-33.809738 -22.617076 -2.055192 40.729035 0.589583 1.621278 0.081267 -0.019094 66576.900000 0 0 1
-34.053768 -22.165676 -0.759392 40.639303 0.577009 1.589484 0.085733 -0.032882 26249.900000 0 0 1
-34.823262 -20.992076 -0.788992 40.668776 0.542489 1.590198 0.088509 -0.019710 -256487.000000 0 0 1
-35.141644 -20.510276 0.629408 40.694013 0.528308 1.555329 0.092929 -0.029864 -187656.000000 0 0 1
-35.980126 -21.353876 1.400108 41.863084 0.535620 1.537345 0.092449 -0.038328 234813.000000 0 0 1
-35.978843 -20.899076 2.774908 41.700703 0.526235 1.504204 0.095365 -0.034859 -500659.000000 0 0 1
36.953802 -21.673376 3.586408 42.990476 -0.530433 1.487276 0.110052 -0.029003 1483930.000000 0 0 1
35.635582 -21.576276 3.021208 41.767908 -0.544432 1.498400 0.090289 -0.026327 589829.000000 0 0 1
35.024492 -20.311476 3.259208 40.618882 -0.525525 1.490471 0.080025 -0.033292 -1130020.000000 0 0 1
33.751612 -20.052676 2.467108 39.336596 -0.536088 1.508037 0.067799 -0.017539 -365610.000000 0 0 1
32.683452 -20.809976 2.949408 38.858232 -0.566978 1.494822 0.060372 -0.010313 -86493.300000 0 0 1
31.428222 -20.508876 2.349208 37.601409 -0.578174 1.508279 0.050539 -0.010643 854583.000000 0 0 1
30.145552 -21.118776 2.957208 36.925630 -0.611102 1.490625 0.022390 0.006022 202473.000000 0 0 1
29.869252 -22.375676 2.313908 37.392476 -0.642938 1.508875 0.011032 0.007382 -60298.300000 0 0 1
28.628072 -22.907976 2.724108 36.766325 -0.674858 1.496636 0.001211 0.008778 125883.000000 0 0 1
28.183272 -24.154176 1.819108 37.162215 -0.708567 1.521826 0.005103 0.003815 110783.000000 0 0 1
27.776872 -23.793076 0.513908 36.577715 -0.708301 1.556746 0.004256 -0.000394 180283.000000 0 0 1
27.446972 -24.992776 -0.243592 37.121887 -0.738632 1.577358 0.007419 -0.001710 -197564.000000 0 0 1
26.798572 -24.716376 -1.607892 36.491753 -0.745001 1.614872 0.031166 -0.010590 -51922.500000 0 0 1
27.587872 -24.184676 -2.681592 36.785598 -0.719759 1.643759 0.012214 -0.016937 -18380.100000 0 0 1
27.869472 -25.151476 -3.686092 37.721234 -0.734180 1.668672 0.016076 -0.017884 -72965.400000 0 0 1
26.817472 -25.544676 -4.803392 37.346752 -0.761095 1.699770 0.031367 -0.025992 328654.000000 0 0 1
26.499772 -24.486776 -5.684892 36.526130 -0.745938 1.727071 0.036058 -0.037573 401140.000000 0 0 1
25.293672 -23.828476 -5.323692 35.155481 -0.755579 1.722814 0.046167 -0.037885 -251929.000000 0 0 1
24.806472 -22.819576 -6.401492 34.308501 -0.743704 1.758482 0.061593 -0.042919 -136750.000000 0 0 1
24.240872 -23.398876 -7.592592 34.536571 -0.767726 1.792449 0.082485 -0.050955 -199943.000000 0 0 1
23.132272 -22.678876 -8.030292 33.375426 -0.775501 1.813785 0.082502 -0.054226 -576864.000000 0 0 1
23.320472 -21.355376 -8.804792 32.824090 -0.741441 1.842364 0.085905 -0.051338 -373040.000000 0 0 1
23.791272 -21.530876 -10.154392 33.655831 -0.735565 1.877285 0.093937 -0.047208 122192.000000 0 0 1
23.750672 -20.239376 -10.762192 33.008356 -0.705747 1.902913 0.102049 -0.043641 -35601.900000 0 0 1
24.646272 -20.278576 -12.019392 34.104621 -0.688480 1.930960 0.087000 -0.034973 402531.000000 0 0 1
26.010572 -20.489376 -11.700492 35.117886 -0.667216 1.910468 0.082057 -0.033898 431934.000000 0 0 1
26.937972 -20.058976 -12.698992 35.906563 -0.640059 1.932286 0.077266 -0.040480 600075.000000 0 0 1
28.363372 -20.660176 -12.662892 37.305129 -0.629540 1.917119 0.054686 -0.035762 108484.000000 0 0 1
28.501872 -22.068076 -13.013092 38.323587 -0.658852 1.917244 0.046165 -0.032314 -359207.000000 0 0 1
29.087212 -22.861576 -12.076092 38.917215 -0.666125 1.886307 0.058896 -0.029559 -424248.000000 0 0 1
29.397862 -24.277376 -12.615192 40.159288 -0.690288 1.890335 0.040379 -0.031145 -407252.000000 0 0 1
30.611712 -24.354776 -13.329492 41.326837 -0.672054 1.899206 0.031163 -0.031394 53040.700000 0 0 1
31.001092 -25.742076 -13.432592 42.475366 -0.692981 1.892564 0.045960 -0.024972 70149.500000 0 0 1
-3.263738 -8.834305 -27.390782 28.964666 1.216910 2.810421 0.047845 -0.027134 47776.300000 0 0 1
-3.365338 -7.481205 -27.038582 28.255599 1.148076 2.847027 0.056683 -0.021251 -634733.000000 0 0 1
-4.627638 -6.961805 -27.316702 28.567184 0.984144 2.844620 0.048120 -0.022516 -512514.000000 0 0 1
-4.788038 -5.518705 -26.857312 27.833373 0.856172 2.875981 0.035371 -0.020893 -91195.500000 0 0 1
-5.174938 -5.411305 -25.524182 26.599738 0.807722 2.856250 0.034111 -0.018625 145509.000000 0 0 1
-4.809638 -4.149205 -24.980392 25.775347 0.711813 2.892589 0.034078 -0.024787 98614.700000 0 0 1
-5.234738 -3.946205 -23.523592 24.419959 0.645960 2.869809 0.030413 -0.028293 -148407.000000 0 1 0
-4.580938 -4.839005 -22.670092 23.629093 0.812787 2.855715 0.026404 -0.035161 418094.000000 0 1 0
-5.230838 -4.851905 -21.401192 22.559115 0.747833 2.819805 0.026981 -0.027195 -61802.100000 0 1 0
-4.696938 -5.948605 -20.452992 21.812199 0.902437 2.786706 0.031700 -0.033844 -461605.000000 0 1 0
-5.253338 -7.265405 -20.629492 22.493546 0.944760 2.731614 0.034303 -0.028941 473545.000000 0 1 0
-4.510638 -8.202705 -19.853792 21.950018 1.068033 2.701002 0.044891 -0.036889 -854507.000000 0 1 0
-5.159038 -9.644205 -19.850492 22.664254 1.079592 2.637991 0.053705 -0.033515 47618.500000 0 1 0
-6.301538 -9.767405 -19.059892 22.324674 0.997831 2.593959 0.055470 -0.028371 -428586.000000 0 1 0
-7.452138 -9.090105 -19.498992 22.767851 0.884094 2.599104 0.042873 -0.026759 -805075.000000 0 1 0
-8.623438 -9.179805 -18.460192 22.347510 0.816639 2.542862 0.037942 -0.019026 -135061.000000 0 1 0
-9.257238 -10.402805 -18.560192 23.203352 0.843601 2.497913 0.061637 -0.017039 -466309.000000 0 1 0
-9.965238 -10.727105 -17.403692 22.743466 0.822200 2.442175 0.061885 -0.014816 123272.000000 0 1 0
-10.876738 -12.033305 -17.498192 23.859811 0.835838 2.394070 0.065985 -0.006055 905593.000000 0 1 0
-12.007138 -11.854405 -18.374792 24.946568 0.778997 2.398775 0.079482 -0.016724 350997.000000 0 1 0
-11.754038 -12.032605 -19.750392 25.942609 0.797109 2.436129 0.084174 -0.026525 107656.000000 0 0 1
-13.084938 -11.991005 -20.635592 27.218146 0.741801 2.431276 0.083968 -0.030280 1198260.000000 0 0 1
-14.035538 -13.009405 -20.447592 28.006159 0.747475 2.389280 0.078979 -0.023185 141025.000000 0 0 1
-14.717638 -12.960305 -19.174492 27.426985 0.721991 2.344949 0.079528 -0.015697 -491082.000000 0 0 1
-16.047938 -13.766305 -19.088292 28.485266 0.709019 2.305155 0.083698 -0.010219 206992.000000 0 0 1
-15.953338 -15.215405 -19.087192 29.160563 0.761727 2.284390 0.069291 -0.017559 -154194.000000 0 0 1
-15.847838 -15.841505 -20.353492 30.271635 0.785198 2.308191 0.104110 -0.016301 98043.500000 0 0 1
-15.259138 -17.277705 -20.368392 30.760880 0.847358 2.294484 0.046296 -0.010386 -174008.000000 0 0 1
-16.165638 -18.255705 -19.912792 31.482025 0.846044 2.255590 0.062782 -0.010933 400874.000000 0 0 1
-15.667838 -19.529505 -20.347592 32.263093 0.894676 2.253222 0.045824 -0.010204 -209024.000000 0 0 1
-16.449238 -20.708905 -19.756892 33.011679 0.899536 2.212401 0.064705 -0.019283 -194886.000000 0 0 1
-16.059238 -21.989005 -20.243392 33.929491 0.940003 2.210093 0.056860 -0.019615 132810.000000 0 0 1
-16.883638 -22.988405 -19.672692 34.648792 0.937327 2.174596 0.083911 -0.017545 -89813.600000 0 0 1
-16.490638 -24.382805 -20.032692 35.605773 0.976139 2.168354 0.083434 -0.014370 57258.000000 0 0 1
-16.819738 -24.712005 -21.381592 36.752677 0.973189 2.191699 0.070825 -0.017656 165486.000000 0 0 1
-16.283438 -26.022665 -21.611992 37.542078 1.011665 2.184224 0.081072 -0.012277 30792.400000 0 0 1
-16.416238 -26.448555 -23.114792 38.772574 1.015305 2.209510 0.088783 -0.011519 -529951.000000 0 0 1
-17.681138 -26.937635 -23.487992 39.874109 0.989954 2.200684 0.108501 -0.008659 -307270.000000 0 0 1
-17.779438 -28.323495 -23.286992 40.750617 1.010238 2.179070 0.109402 -0.005022 -112819.000000 0 0 1
-18.882938 -29.033845 -24.111892 42.200863 0.994156 2.178959 0.115372 -0.007235 -37970.600000 0 0 1
-18.503438 -29.113265 -25.469292 42.879415 1.004634 2.206787 0.111176 -0.006981 204204.000000 0 0 1
-18.712938 -27.945125 -26.301852 42.695333 0.980744 2.234497 0.125072 -0.023644 -139479.000000 0 0 1
-17.591638 -27.636485 -27.314982 42.653831 1.003944 2.265799 0.123435 -0.023480 -193507.000000 0 0 1
-17.535838 -28.431815 -28.487052 43.902003 1.018138 2.276906 0.129683 -0.016115 735622.000000 0 0 1
-16.385038 -28.079665 -29.282692 43.754007 1.042583 2.304005 0.090974 -0.004067 629876.000000 0 0 1
-16.618938 -28.259375 -30.800102 44.982526 1.039183 2.325006 0.099559 -0.013098 -15735.600000 0 0 1
-16.587238 -29.647215 -31.110712 46.064848 1.060698 2.312260 0.091117 -0.007163 11878.800000 0 0 1
-17.142038 -29.915935 -32.355292 47.282952 1.050461 2.324427 0.104212 -0.011596 -178167.000000 0 0 1
-17.013038 -31.345315 -32.962612 48.564452 1.073527 2.316841 0.107312 -0.015902 504275.000000 0 0 1
-15.677438 -31.584745 -33.410062 48.575821 1.110064 2.329239 0.103842 -0.018507 386771.000000 0 0 1
-15.721438 -32.681485 33.624154 49.455301 1.122423 0.823184 0.101304 -0.022189 997929.000000 0 0 1
-14.321438 -33.038925 32.957521 48.814673 1.161772 0.829620 0.093524 -0.027922 813392.000000 0 0 1
-13.518138 -33.807075 33.802970 49.681980 1.190410 0.822506 0.103989 -0.020097 -233012.000000 0 0 1
-12.544638 33.594949 33.014816 48.743888 -1.213422 0.826694 0.098167 -0.019447 1357.670000 0 0 1
-11.585238 32.802721 33.933039 48.597195 -1.231292 0.797845 0.106582 -0.023851 73457.700000 0 0 1
-10.756538 33.577271 -33.182722 48.417242 -1.260774 2.325880 0.108511 -0.019684 -103526.000000 0 0 1
-10.132138 32.789977 -32.235012 47.084380 -1.271102 2.324882 0.104336 -0.026920 -638926.000000 0 0 1
-9.336438 33.610536 -31.292262 46.861955 -1.299845 2.301984 0.082936 -0.028223 -97331.400000 0 0 1
-10.107838 -33.560635 -30.460732 46.436417 1.278256 2.286259 0.108876 -0.020501 331687.000000 0 0 1
-9.244438 -32.638355 -29.873832 45.201412 1.294787 2.292820 0.092466 -0.015073 -177055.000000 0 0 1
-10.057038 -31.695355 -28.965672 44.099316 1.263542 2.287401 0.115399 -0.011190 187009.000000 0 0 1
-10.185538 -32.037655 -27.566402 43.474855 1.262978 2.257611 0.144016 -0.016841 -42608.100000 0 0 1
-10.995438 -33.187465 -27.248422 44.325884 1.250865 2.232839 0.154222 -0.018890 22085.700000 0 0 1
-11.211838 -33.330845 -25.735832 43.577329 1.246306 2.202572 0.143982 -0.023775 -725979.000000 0 0 1
-10.064338 -33.351075 -24.977692 42.865723 1.277717 2.192839 0.149268 -0.040098 -990892.000000 0 0 1
-10.404038 -33.460085 -23.604592 42.249237 1.269334 2.163612 0.145822 -0.046593 64200.500000 0 0 1
-9.211938 -33.361435 -22.634492 41.354146 1.301384 2.149971 0.137029 -0.061420 177716.000000 0 0 1
-8.650738 33.424272 -22.465292 41.191098 -1.317538 2.147653 0.124791 -0.057530 -286704.000000 0 0 1
-7.536938 33.392620 -21.611092 40.483476 -1.348809 2.133914 0.117725 -0.059179 -498583.000000 0 0 1
-6.889738 32.051500 -21.340992 39.117836 -1.359060 2.147849 0.110797 -0.058772 -466198.000000 0 0 1
-5.814938 31.870647 -22.215692 39.282167 -1.390327 2.171886 0.084255 -0.065736 -270815.000000 0 0 1
-5.205938 30.583857 -22.125992 38.105559 -1.402194 2.190323 0.069974 -0.048092 -287056.000000 0 0 1
-3.753338 30.630857 -22.592592 38.246074 -1.448870 2.202743 0.078140 -0.053431 -515882.000000 0 0 1
-3.713238 30.817077 -23.956692 39.209737 -1.450882 2.228105 0.088440 -0.045025 1045200.000000 0 0 1
-2.469838 31.529687 -24.227492 39.839586 -1.492622 2.224494 0.067939 -0.048938 989508.000000 0 0 1
-2.237438 31.682537 -25.740422 40.882253 -1.500293 2.251865 0.078274 -0.024407 -229165.000000 0 0 1
-1.245238 32.585333 -26.155192 41.802495 -1.532600 2.246806 0.082305 -0.040166 -367275.000000 0 0 1
-1.687338 33.930231 -26.202792 42.903310 -1.521108 2.227792 0.070384 -0.031443 -149391.000000 0 0 1
-0.715438 -33.076265 -26.767672 42.556544 1.549170 2.251051 0.033258 -0.017507 212967.000000 0 0 1
0.417262 -32.832965 -25.945532 41.849114 -1.558088 2.239511 0.054606 -0.024315 87167.400000 0 0 1
1.156562 -31.712445 -26.425782 41.295747 -1.534342 2.265184 0.039085 -0.015378 -1161540.000000 0 0 1
2.379962 -31.389025 -25.652772 40.607879 -1.495120 2.254565 0.050302 -0.019445 -1410630.000000 0 0 1
2.203262 -31.096175 -24.311292 39.533092 -1.500061 2.233132 0.044930 -0.016525 236010.000000 0 0 1
3.238662 -30.230615 -23.886792 38.664685 -1.464072 2.236730 0.031998 -0.013734 -248131.000000 0 0 1
3.023962 -29.700715 -22.443092 37.349286 -1.469332 2.215420 0.046356 -0.011801 -228922.000000 0 0 1
3.184962 -30.690755 -21.409392 37.555672 -1.467391 2.177388 0.058211 -0.012664 576376.000000 0 0 1
3.521162 -29.929135 -20.211292 36.285645 -1.453685 2.161572 0.059793 -0.009817 -514579.000000 0 0 1
3.461362 -30.871705 -18.981492 36.405222 -1.459142 2.119281 0.065500 -0.005800 -21622.300000 0 0 1
2.149562 -31.332455 -18.680992 36.542069 -1.502299 2.107399 0.052824 -0.009238 393930.000000 0 0 1
1.892362 -32.606865 -19.191392 37.882690 -1.512826 2.102034 0.060490 -0.007478 -178006.000000 0 0 1
2.565062 -33.833965 -18.471892 38.633244 -1.495128 2.069326 0.050196 -0.012599 740325.000000 0 0 1
3.898662 33.875741 -18.845592 38.960515 1.456213 2.075685 0.056862 -0.006021 270266.000000 0 0 1
4.404962 33.098039 -17.813092 37.844288 1.438486 2.060874 0.063867 -0.022412 28113.900000 0 0 1
5.538062 32.181139 -18.334292 37.449194 1.400375 2.082402 0.081807 -0.019437 -72000.700000 0 0 1
6.682062 32.896982 -18.692892 38.422462 1.370402 2.078886 0.100203 -0.021051 -819885.000000 0 0 1
7.653362 32.061484 -19.244692 38.168978 1.336472 2.099248 0.086712 -0.036868 -393534.000000 0 0 1
9.021562 32.666534 -19.555692 39.126923 1.301341 2.094166 0.072058 -0.034128 39089.600000 0 0 1
9.818662 32.930142 -18.399592 38.978781 1.281023 2.062401 0.063264 -0.021861 -84573.100000 0 0 1
11.071962 33.493377 -18.639692 39.897779 1.251533 2.056902 0.058998 -0.009456 142779.000000 0 0 1
12.113362 33.709954 -17.504992 39.868776 1.225824 2.025354 0.034800 -0.007232 222650.000000 0 0 1
12.803562 32.564859 -17.037592 38.918900 1.196191 2.023915 0.042541 -0.015918 -70745.000000 0 0 1
13.363562 32.886715 -15.783892 38.849093 1.184827 1.989184 0.040037 -0.019080 355619.000000 0 0 1
14.682862 32.146391 -15.365292 38.536594 1.142343 1.980916 0.049946 -0.015875 641276.000000 0 0 1
14.438962 30.875287 -14.800092 37.159248 1.133358 1.980446 0.069987 -0.017785 -545203.000000 0 0 1
15.590862 30.125957 -14.543792 36.907589 1.093229 1.975841 0.075377 -0.020398 -446850.000000 0 0 1
15.335662 28.879927 -13.597892 35.413774 1.082646 1.964890 0.082066 -0.023872 -271632.000000 0 0 1
14.984662 29.336847 -12.301492 35.164149 1.098562 1.928187 0.071484 -0.026036 1288100.000000 0 0 1
13.556862 29.351697 -12.035292 34.498679 1.138110 1.927153 0.094842 -0.029508 1126480.000000 0 0 1
12.867062 28.044617 -11.565392 32.951785 1.140643 1.929413 0.088185 -0.021298 -452312.000000 0 0 1
12.478462 27.144837 -12.606092 32.426343 1.139906 1.970083 0.063694 -0.022388 88440.000000 0 0 1
12.110762 25.818347 -12.213692 31.023086 1.132193 1.975446 0.092173 -0.027308 417372.000000 0 0 1
11.014862 25.624897 -11.129992 30.030639 1.164825 1.950474 0.085643 -0.027541 174524.000000 0 0 1
9.679062 25.991857 -11.438592 30.001704 1.214317 1.961960 0.076533 -0.025030 412565.000000 0 0 1
8.878862 25.983147 -10.251792 29.309680 1.241520 1.928127 0.057080 -0.015690 366364.000000 0 0 1
7.922262 27.213237 -10.217792 30.128488 1.287508 1.916799 0.071240 -0.024587 394590.000000 0 0 1
8.653562 28.448197 -10.080192 31.397362 1.275503 1.897637 0.076190 -0.030411 631678.000000 0 0 1
7.807462 29.577407 -10.384392 32.305032 1.312716 1.898055 0.062044 -0.023609 527155.000000 0 0 1
8.603662 30.902837 -10.585792 33.779688 1.299263 1.889544 0.092052 -0.032350 -415440.000000 0 0 1
9.237462 31.418787 -9.443492 34.082993 1.284843 1.851543 0.085213 -0.035648 -279363.000000 0 0 1
9.715362 32.721610 -9.666892 35.475919 1.282177 1.846778 0.101501 -0.036207 -6566.400000 0 0 1
10.777162 33.032165 -10.740392 36.367942 1.255423 1.870593 0.076427 -0.022724 -1346920.000000 0 0 1
12.093862 32.793112 -10.382692 36.461624 1.217479 1.859549 0.075016 -0.030777 -922746.000000 0 0 1
12.863262 32.751779 -11.571892 37.041210 1.196556 1.888521 0.076183 -0.026686 581610.000000 0 0 1
14.403662 32.644399 -11.327792 37.435827 1.155260 1.878208 0.069683 -0.033635 655956.000000 0 0 1
14.926662 33.769255 -10.621992 38.418674 1.154599 1.850926 0.067282 -0.032411 -163844.000000 0 0 1
16.331062 33.774908 -10.739592 39.022901 1.120414 1.849607 0.058028 -0.029204 -201608.000000 0 0 1
17.026462 -33.320445 -9.810892 38.683408 -1.098394 1.827217 0.067020 -0.031333 -177418.000000 0 0 1
17.052462 -33.813225 -8.524092 38.817274 -1.103704 1.792196 0.065564 -0.022693 125470.000000 0 0 1
17.725762 -33.028775 -7.570692 38.241574 -1.078240 1.770083 0.061549 -0.021955 -776154.000000 0 0 1
17.963562 -33.584875 -6.154692 38.581260 -1.079643 1.731006 0.055597 -0.017717 -414807.000000 0 0 1
18.896262 33.481034 -6.020992 38.914017 1.056975 1.726146 0.035721 -0.020575 -649788.000000 0 0 1
20.226662 33.942830 -6.088692 39.978816 1.033394 1.723689 0.047461 -0.017505 -512061.000000 0 0 1
21.212962 32.893037 -6.694692 39.708444 0.998009 1.740202 0.032990 -0.008223 258048.000000 0 0 1
21.258662 31.635887 -6.027592 38.588754 0.979125 1.727639 0.032688 -0.000443 -141487.000000 0 0 1
22.187162 31.679007 -4.959192 38.992605 0.959819 1.698325 0.033161 0.003926 -497273.000000 0 0 1
22.541862 30.272557 -4.448092 38.004589 0.930741 1.688106 0.021057 0.003947 299899.000000 0 0 1
23.405962 29.557887 -5.371492 38.083601 0.901033 1.712313 0.026852 0.007344 177363.000000 0 0 1
23.852262 28.367157 -4.872692 37.381401 0.871644 1.701519 0.028914 0.008715 96068.400000 0 0 1
24.708162 27.491797 -5.873092 37.427068 0.838674 1.728369 0.027727 0.013017 60528.300000 0 0 1
25.893462 28.189147 -6.224892 38.779488 0.827820 1.732014 0.041974 0.004865 264550.000000 0 0 1
26.820762 27.388857 -6.951392 38.959269 0.795877 1.750184 0.027205 0.003794 153144.000000 0 0 1
27.596562 26.237837 -6.299292 38.596313 0.760165 1.734739 0.037867 0.008537 19759.600000 0 0 1
28.630062 26.763907 -5.403792 39.562459 0.751722 1.707814 0.046666 0.003919 839578.000000 0 0 1
29.274962 25.755977 -4.667692 39.270614 0.721540 1.689938 0.054495 0.004622 -8117.910000 0 0 1
30.542462 26.233687 -3.925792 40.453185 0.709653 1.667995 0.059332 0.003274 -214817.000000 0 0 1
30.289962 27.109927 -2.872492 40.751456 0.730053 1.641343 0.069190 -0.003068 266151.000000 0 0 1
31.450662 27.497537 -2.129092 41.830512 0.718437 1.621716 0.089082 -0.016327 309254.000000 0 0 1
31.280262 28.650937 -1.170392 42.434665 0.741554 1.598381 0.099469 -0.004521 -23146.000000 0 0 1
31.112162 29.864677 -1.875892 43.166938 0.764943 1.614267 0.081471 0.003520 56046.400000 0 0 1
30.600062 30.886057 -1.043092 43.490233 0.790049 1.594783 0.092584 0.003434 -103539.000000 0 0 1
33.669962 22.437295 19.230674 44.798632 0.587810 1.127113 0.138588 -0.023988 -25935.000000 0 0 1
33.963762 22.318295 20.599774 45.563079 0.581365 1.101661 0.118467 -0.038758 -45584.700000 0 0 1
34.804122 23.329295 21.055274 46.892511 0.590516 1.105138 0.121416 -0.027063 -169000.000000 0 0 1
34.788012 23.414595 22.595674 47.634164 0.592419 1.076561 0.087038 -0.018214 813977.000000 0 0 1
33.450102 23.681695 23.047684 47.020504 0.616055 1.058520 0.079607 -0.022181 934133.000000 0 0 1
33.428492 23.589995 24.443224 47.659450 0.614531 1.032269 0.084244 -0.022310 -325150.000000 0 0 1
32.214612 24.243395 25.096004 47.490345 0.645137 1.014029 0.063325 -0.017147 -274832.000000 0 0 1
32.187252 25.698995 25.029484 48.196812 0.673778 1.024743 0.038394 -0.019641 -207477.000000 0 0 1
30.939372 26.202095 25.405724 47.846059 0.702683 1.011029 0.028259 -0.011059 -378982.000000 0 0 1
30.779582 27.721895 25.654914 48.724335 0.733179 1.016280 0.012668 -0.001126 -363595.000000 0 0 1
30.781592 28.568895 24.503074 48.621897 0.748134 1.042629 0.003225 0.001096 372109.000000 0 0 1
30.469992 29.885095 24.881624 49.402779 0.775708 1.042980 -0.001565 0.001112 -340290.000000 0 0 1
30.300962 30.833695 23.759084 49.329091 0.794112 1.068266 0.016801 -0.006613 180122.000000 0 0 1
31.580492 31.282395 23.340264 50.206411 0.780656 1.087290 0.005302 -0.015877 278281.000000 0 0 1
31.511462 31.978695 22.079874 50.031291 0.792757 1.113726 0.017627 -0.010095 327448.000000 0 0 1
32.934152 32.325195 21.569274 50.939280 0.776067 1.133567 0.011914 -0.018965 652877.000000 0 0 1
33.697092 33.095595 22.488574 52.312030 0.776393 1.126422 0.018510 -0.004920 1034620.000000 0 0 1
35.037392 33.454995 22.096374 53.245707 0.762299 1.142866 0.024036 0.002632 1145300.000000 0 0 1
35.643422 -33.444776 22.896474 53.974579 -0.753585 1.132709 0.034328 0.001617 -230161.000000 0 0 1
35.156782 -32.175576 22.483974 52.695314 -0.741151 1.129979 0.030765 0.001626 359384.000000 0 0 1
35.752012 -31.146676 23.237704 52.804476 -0.716666 1.115119 0.042939 0.001999 -572153.000000 0 0 1
34.907872 -29.888276 23.027214 51.401568 -0.708085 1.106284 0.051489 0.001918 -7640.390000 0 0 1
33.618052 -29.931676 23.599534 50.823387 -0.727455 1.087903 0.048479 0.000866 -81566.800000 0 0 1
32.620092 -30.114476 22.634874 49.832616 -0.745479 1.099302 0.045305 0.003240 -850141.000000 0 0 1
31.902472 -31.453776 22.668774 50.209373 -0.778316 1.102368 0.034472 0.005062 -651769.000000 0 0 1
30.955922 -31.472876 23.717644 50.113249 -0.793679 1.077785 0.040248 -0.004351 -245071.000000 0 0 1
30.419882 -32.751476 23.827084 50.653316 -0.822290 1.081058 0.029521 -0.003691 -257770.000000 0 0 1
29.488032 -32.850976 25.057134 50.760129 -0.839292 1.054528 0.019378 -0.009067 -108895.000000 0 0 1
29.090242 33.892495 25.246654 51.306306 0.861498 1.056322 0.017620 -0.015744 -356778.000000 0 0 1
28.240072 33.734895 26.320404 51.267032 0.873829 1.031656 0.014331 -0.020314 -929183.000000 0 0 1
27.928972 32.238095 26.643144 50.290948 0.856895 1.012455 0.009317 -0.008322 446495.000000 0 0 1
27.054972 31.519495 25.800854 48.899225 0.861471 1.014984 0.020373 -0.009605 -114453.000000 0 0 1
25.749572 31.990295 25.598924 48.391367 0.893064 1.013377 0.031316 -0.017877 -903292.000000 0 0 1
25.176172 31.804195 24.217754 47.242419 0.901199 1.032554 0.061586 -0.019295 -271831.000000 0 0 1
25.625772 32.655895 23.182244 47.544760 0.905441 1.061472 0.074462 -0.023477 -879211.000000 0 0 1
26.923972 32.531995 22.744874 47.964157 0.879442 1.076735 0.048107 -0.014180 -1163560.000000 0 0 1
27.160572 33.464995 21.560474 48.191873 0.889015 1.106954 0.061626 -0.015116 -900692.000000 0 0 1
28.420272 33.417695 21.004174 48.637738 0.866038 1.124254 0.060339 -0.016232 -749889.000000 0 0 1
28.423172 -33.898776 19.822174 48.475998 -0.873033 1.149540 0.058576 -0.018723 174450.000000 0 0 1
29.859772 -33.652376 19.298874 48.954417 -0.845042 1.165576 0.061714 -0.023848 221682.000000 0 0 1
30.366162 33.344595 18.544274 48.763265 0.832113 1.180684 0.060890 -0.017333 -464977.000000 0 0 1
31.435762 33.730495 17.736574 49.401817 0.820597 1.203571 0.064018 -0.011600 -866453.000000 0 0 1
32.312822 32.556595 17.360674 49.045320 0.789156 1.208982 0.053975 -0.015175 -1029010.000000 0 0 1
33.221312 32.192195 18.338674 49.762436 0.769667 1.193375 0.049713 -0.012900 -416891.000000 0 0 1
33.982642 31.119295 17.823374 49.405498 0.741444 1.201717 0.081077 -0.016220 -16078.800000 0 0 1
34.889732 30.437895 18.864274 49.996197 0.717357 1.183902 0.072238 -0.024235 -83425.400000 0 0 1
35.956662 31.245495 19.316074 51.403047 0.715408 1.185561 0.075133 -0.017838 -181118.000000 0 0 1
36.731252 30.457395 20.189074 51.811549 0.692291 1.170530 0.092453 -0.019305 123684.000000 0 0 1
-36.063999 31.237195 20.680874 52.000701 -0.713801 1.161784 0.108834 -0.020399 675796.000000 0 0 1
-35.122214 31.659295 19.646374 51.204111 -0.733590 1.177010 0.107066 -0.024939 874438.000000 0 0 1
-33.951148 32.361495 20.027874 51.000613 -0.761431 1.167232 0.090370 -0.016857 418382.000000 0 0 1
-34.132992 33.735195 20.704674 52.266701 -0.779537 1.163493 0.074278 -0.012919 -382500.000000 0 0 1
-34.265711 33.717495 22.132074 52.922936 -0.777334 1.139340 0.078392 -0.011581 134888.000000 0 0 1
-34.500737 -33.088776 22.677974 52.909909 0.764511 1.127837 0.051177 -0.002893 -76271.500000 0 0 1
-34.612433 -33.060076 24.206534 53.637165 0.762463 1.102573 0.057528 -0.010801 -510136.000000 0 0 1
-35.680635 -33.776476 24.715024 54.998095 0.757990 1.104726 0.060630 -0.015489 -714278.000000 0 0 1
-35.614617 -33.961376 26.131874 55.719394 0.761641 1.082649 0.060960 -0.008604 132858.000000 0 0 1
-37.000508 33.733795 26.684564 56.736871 -0.739248 1.081141 0.037914 -0.015818 -193862.000000 0 0 1
-37.010128 33.117595 27.925774 56.976956 -0.729949 1.058564 0.050969 -0.015655 -147439.000000 0 0 1
35.784872 33.105195 28.599564 56.519432 0.746520 1.040240 0.045257 -0.020085 -27054.600000 0 0 1
35.869142 32.100995 29.802704 56.615108 0.730017 1.016425 0.044200 -0.007823 -95577.300000 0 0 1
35.758892 30.698295 29.472284 55.585063 0.709397 1.011937 0.024285 -0.012137 343552.000000 0 0 1
36.857892 30.142695 28.756994 55.624195 0.685506 1.027469 0.032538 -0.014065 -84086.600000 0 0 1
36.635692 28.622995 28.443004 54.501875 0.663226 1.021752 0.035822 -0.007195 -232517.000000 0 0 1
35.567102 28.390495 27.531164 53.188382 0.673657 1.026734 0.033206 -0.007592 300255.000000 0 0 1
35.342142 27.044795 27.133774 52.122257 0.653176 1.023267 0.048857 -0.018411 -84027.600000 0 0 1
34.972042 26.028095 28.197954 51.919458 0.639814 0.996660 0.037672 -0.024818 -236257.000000 0 0 1
36.068772 25.514495 28.961744 52.827346 0.615665 0.990545 0.027485 -0.016292 148963.000000 0 0 1
36.068892 24.132895 29.182714 52.297155 0.589670 0.978802 0.031088 -0.016248 -372267.000000 0 0 1
36.698222 23.252795 28.139704 51.761907 0.564775 0.996032 0.052447 -0.024732 -439558.000000 0 0 1
36.023512 23.229295 26.913514 50.612556 0.572737 1.010124 0.049907 -0.016516 -316455.000000 0 0 1
36.683742 22.427995 25.976654 50.234436 0.548751 1.027327 0.058042 -0.032793 -578727.000000 0 0 1
36.276642 20.918395 25.920924 49.249044 0.523062 1.016526 0.065020 -0.031608 59849.000000 0 0 1
34.957332 20.761395 25.373494 47.925618 0.535927 1.012862 0.089812 -0.014224 895108.000000 0 0 1
34.360212 19.509395 25.660434 47.113677 0.516399 0.994825 0.089035 -0.010581 -253378.000000 0 0 1
34.084242 19.118395 27.155764 47.588698 0.511185 0.963518 0.063283 0.006430 -942051.000000 0 0 1
32.972862 19.686095 27.773454 47.393214 0.538240 0.944656 0.054770 -0.002946 -284902.000000 0 0 1
33.039392 21.085495 27.992904 48.164326 0.568030 0.950599 0.064115 -0.024726 -834350.000000 0 0 1
32.067612 21.595495 29.092954 48.384886 0.592675 0.925692 0.061085 -0.021829 676546.000000 0 0 1
30.672162 21.399395 28.818334 47.214532 0.609168 0.914269 0.071037 -0.025425 935033.000000 0 0 1
30.070242 22.276695 27.848944 46.647983 0.637601 0.931037 0.064372 -0.021598 -189956.000000 0 0 1
29.787412 23.726395 28.328814 47.463181 0.672618 0.931216 0.052818 -0.019568 -904357.000000 0 0 1
30.982272 24.441895 28.399434 48.619290 0.667936 0.947003 0.056840 -0.022711 -433118.000000 0 0 1
30.900412 25.619095 29.156884 49.611465 0.692226 0.942578 0.041371 -0.013583 25365.100000 0 0 1
31.388862 25.324495 30.612544 50.633177 0.678873 0.921540 0.036703 -0.018789 718266.000000 0 0 1
32.744202 24.863495 30.720534 51.323751 0.649443 0.929089 0.023282 -0.014574 697047.000000 0 0 1
33.341792 24.728395 32.022776 52.427349 0.638144 0.913722 0.041663 -0.013225 89910.800000 0 0 1
32.664222 23.720195 33.017632 52.151348 0.628083 0.885230 0.050836 -0.009333 -376031.000000 0 0 1
33.143152 23.827095 -33.640272 52.894867 0.623308 2.260079 0.044315 -0.020179 -169304.000000 0 0 1
32.680902 22.790895 -32.812602 51.615242 0.608963 2.259731 0.037610 -0.028709 -539202.000000 0 0 1
33.407592 22.641495 -31.453622 51.166736 0.595626 2.232837 0.042634 -0.032829 -184398.000000 0 0 1
32.949572 23.646295 -30.491222 50.739888 0.622474 2.215463 0.045934 -0.041000 365885.000000 0 0 1
33.380412 23.543695 -29.133742 50.173025 0.614284 2.190342 0.065354 -0.051714 -73518.800000 0 0 1
34.848882 23.872795 -28.782652 51.115517 0.600613 2.168917 0.086908 -0.025062 -2867.940000 0 0 1
35.349572 23.356995 -27.589012 50.559817 0.583891 2.147986 0.078947 -0.031158 -1441270.000000 0 0 1
36.532612 23.999795 -27.313962 51.542938 0.581240 2.129310 0.110114 -0.021467 -1073540.000000 0 0 1
-36.725388 23.218595 -26.265162 50.771213 -0.563776 2.114517 0.098602 -0.016446 -601195.000000 0 0 1
-35.990920 22.181995 -26.856872 50.086713 -0.552335 2.136734 0.069102 -0.015408 -200652.000000 0 0 1
-36.210918 20.930995 -26.168572 49.336916 -0.524108 2.129875 0.042623 -0.012239 -649131.000000 0 0 1
-35.168559 19.859095 -26.367912 48.233578 -0.514046 2.149180 0.059361 -0.005801 -1088330.000000 0 0 1
-33.934788 20.242895 -25.843952 47.214982 -0.537859 2.150012 0.060677 -0.013040 -981760.000000 0 0 1
-33.042928 19.148595 -25.979232 46.189006 -0.525215 2.168148 0.044933 -0.013529 344409.000000 0 0 1
-31.704048 19.511295 -25.277102 44.997435 -0.551680 2.167290 0.039973 -0.015650 222243.000000 0 0 1
-31.999228 19.726695 -23.918992 44.555710 -0.552445 2.137476 0.034007 -0.007083 219249.000000 0 0 1
-30.812328 19.839495 -23.178592 43.361876 -0.572062 2.134758 0.037320 -0.007955 192760.000000 0 0 1
-31.260098 20.133895 -21.701692 43.052653 -0.572200 2.099105 0.033788 -0.011064 429858.000000 0 0 1
-31.935798 19.000195 -21.123892 42.744841 -0.536698 2.087694 0.003104 0.000168 136850.000000 0 0 1
-32.499328 19.412595 -19.904692 42.769755 -0.538449 2.054874 0.001393 0.007516 -528204.000000 0 0 1
-33.510848 18.431395 -19.268492 42.824853 -0.502853 2.037491 -0.020797 0.007608 418452.000000 0 0 1
-34.300076 18.857995 -18.147492 43.144532 -0.502685 2.004926 -0.013109 -0.000260 518570.000000 0 0 1
-35.313300 19.804795 -18.462992 44.498777 -0.511121 1.998640 -0.000886 0.000595 -240263.000000 0 0 1
-36.256638 19.924195 -17.191692 44.800353 -0.502484 1.964639 0.007171 -0.004949 -3959.060000 0 0 1
-35.696816 20.512395 -16.013092 44.175108 -0.521555 1.941736 0.005912 -0.014638 117830.000000 0 0 1
-36.621888 20.354695 -14.965792 44.491024 -0.507290 1.913864 0.019684 -0.007576 -614660.000000 0 0 1
-36.462458 21.375795 -13.764992 44.451214 -0.530241 1.885637 0.035502 -0.013815 -386018.000000 0 0 1
-36.894358 22.722795 -13.910992 45.508623 -0.552020 1.881447 0.048269 -0.023406 853031.000000 0 0 1
35.758582 22.922995 -14.183692 44.780767 0.570057 1.893083 0.060324 -0.019323 534016.000000 0 0 1
35.433822 24.363895 -14.596892 45.411721 0.602348 1.898040 0.062416 -0.022722 84104.200000 0 0 1
35.889942 25.275795 -13.607392 45.957752 0.613578 1.871387 0.060164 -0.022553 215421.000000 0 0 1
35.528442 26.615395 -13.908292 46.519782 0.642944 1.874416 0.049786 -0.013632 165304.000000 0 0 1
36.752972 27.428495 -14.409792 48.070214 0.641125 1.875243 0.077729 -0.023293 419888.000000 0 0 1
-36.773708 26.938695 -15.643092 48.194452 -0.632241 1.901367 0.077356 -0.019087 369798.000000 0 0 1
-35.671972 27.734495 -16.090792 47.964627 -0.660862 1.912903 0.073842 -0.028594 -301767.000000 0 0 1
-35.349448 27.574495 -17.586592 48.158327 -0.662460 1.944625 0.075154 -0.027871 -27409.800000 0 0 1
-34.738889 26.406595 -18.093992 47.238662 -0.649962 1.963874 0.066790 -0.030422 346789.000000 0 0 1
-33.423198 26.132595 -17.642892 45.948823 -0.663588 1.964887 0.059683 -0.023502 9100.180000 0 0 1
-32.904408 24.770195 -18.162792 45.012772 -0.645286 1.986139 0.044760 -0.026452 2465.530000 0 0 1
-32.684488 24.859795 -19.544892 45.478434 -0.650250 2.015025 0.035027 -0.017005 298200.000000 0 0 1
-31.993428 23.677495 -19.992992 44.541250 -0.637118 2.036291 0.020339 -0.014764 90440.300000 0 0 1
-31.747068 23.763395 -21.541192 45.128685 -0.642555 2.068408 0.018257 -0.003684 839681.000000 0 0 1
-32.944338 23.708895 -22.342092 46.331525 -0.623803 2.073986 0.046185 -0.006527 1184950.000000 0 0 1
-32.467998 23.317595 -23.624292 46.432621 -0.622818 2.104571 0.054708 -0.006772 148897.000000 0 0 1
-33.391558 23.731995 -24.762992 47.868670 -0.617883 2.114502 0.033116 -0.000403 -471745.000000 0 0 1
-33.316938 25.100395 -24.870492 48.565313 -0.645662 2.108429 0.017837 0.003866 -35840.800000 0 0 1
-34.077148 25.748895 -25.876572 49.938508 -0.647079 2.115505 0.031647 -0.006966 -265342.000000 0 0 1
-33.888528 27.298995 -25.956862 50.669776 -0.678118 2.108628 0.015186 0.005882 1305680.000000 0 0 1
-32.573928 27.463595 -26.561602 50.207854 -0.700484 2.128257 -0.008301 0.000040 803597.000000 0 0 1
-32.283958 28.848995 -26.615802 50.822430 -0.729269 2.121987 0.007506 -0.007218 -182930.000000 0 0 1
-31.049188 29.093195 -27.505492 50.665750 -0.752887 2.144661 0.015969 -0.000925 558251.000000 0 0 1
-29.847808 28.585095 -26.832612 49.274622 -0.763792 2.146652 -0.007507 0.004357 -585350.000000 0 0 1
-28.787538 28.646995 -27.675472 49.145747 -0.782951 2.168966 0.020461 0.001855 -854245.000000 0 0 1
-27.986108 29.978995 -27.417242 49.332216 -0.819765 2.160082 0.010251 -0.001970 -694786.000000 0 0 1
-27.202158 30.075595 -26.243662 48.303505 -0.835523 2.145168 0.022390 -0.001257 -351743.000000 0 0 1
-27.869228 29.995595 -25.035192 47.991566 -0.822129 2.119590 0.007743 0.003501 -717029.000000 0 0 1
-26.978908 30.355595 -23.843592 47.093954 -0.844225 2.101683 -0.010011 -0.002758 -111520.000000 0 0 1
-26.630668 31.726195 -23.798792 47.771607 -0.872494 2.092293 -0.002873 0.006062 -432444.000000 0 0 1
-25.979648 32.080195 -22.655892 47.088964 -0.890087 2.072739 0.016754 0.020168 -292892.000000 0 0 1
-25.437298 33.541595 -22.640692 47.798490 -0.921953 2.064249 0.014770 0.029070 14288.400000 0 0 1
-26.457568 -33.591676 -22.732592 48.427000 0.903648 2.059430 -0.000443 0.021674 61956.400000 0 0 1
-25.785928 -32.383976 -23.110192 47.410093 0.898343 2.079967 0.016143 0.018119 546115.000000 0 0 1
17.218562 8.863195 -25.350062 31.900796 0.475375 2.489232 0.054322 -0.030171 -22018.500000 0 0 1
16.011162 8.226195 -24.970792 30.782594 0.474610 2.516995 0.041684 -0.033905 110635.000000 0 0 1
16.105462 6.817595 -25.251792 30.716747 0.400438 2.535861 0.043238 -0.043245 486150.000000 0 0 1
14.708462 6.110095 -25.304382 29.899563 0.393723 2.579821 0.074007 -0.045073 295083.000000 0 0 1
14.105662 6.052795 -24.077092 28.553676 0.405342 2.574046 0.079463 -0.044648 -776834.000000 0 0 1
12.807462 5.577795 -24.206292 27.947942 0.410740 2.618185 0.067760 -0.038361 -640370.000000 0 0 1
11.844562 5.657295 -23.001792 26.483600 0.445590 2.623024 0.070890 -0.042072 -104260.000000 0 0 1
12.153562 4.907695 -21.865092 25.492681 0.383784 2.601577 0.068512 -0.030398 182034.000000 0 0 1
11.317862 5.223295 -20.722192 24.182350 0.432383 2.600049 0.069317 -0.026219 111826.000000 0 1 0
11.552162 6.537295 -19.981592 23.988595 0.514964 2.555236 0.066732 -0.034678 -217781.000000 0 1 0
11.151162 6.476695 -18.657092 22.680015 0.526189 2.536804 0.054586 -0.023739 -618508.000000 0 1 0
11.329362 7.704095 -17.934992 22.569260 0.597184 2.489251 0.057582 -0.031359 101741.000000 0 1 0
12.758462 8.184695 -17.590692 23.220682 0.570384 2.430339 0.042407 -0.027169 -90565.900000 0 1 0
13.346162 7.469295 -16.536892 22.525080 0.510228 2.395217 0.063773 -0.032726 -309006.000000 0 1 0
14.568662 8.097895 -16.271992 23.293767 0.507318 2.344173 0.046457 -0.025110 -554739.000000 0 1 0
15.253662 7.600595 -14.991792 22.697954 0.462271 2.292269 0.056436 -0.032023 -106177.000000 0 1 0
16.480562 8.251695 -14.725692 23.591215 0.464202 2.244906 0.044185 -0.037973 455885.000000 0 1 0
16.761362 8.186995 -13.334692 22.929984 0.454361 2.191416 0.026404 -0.034853 -269764.000000 0 1 0
17.604462 9.378995 -12.948392 23.781159 0.489513 2.146567 0.070817 -0.041830 -427171.000000 0 1 0
16.885162 10.592095 -13.002492 23.798445 0.560253 2.148807 0.102002 -0.030904 699155.000000 0 1 0
17.660062 11.671495 -12.503992 24.585594 0.583998 2.104343 0.138284 -0.053960 65333.100000 0 1 0
16.738262 12.858095 -12.093092 24.325767 0.655039 2.091085 0.154857 -0.045271 -690384.000000 0 1 0
15.789962 12.534395 -11.119692 23.023500 0.670962 2.074841 0.169545 -0.032325 282288.000000 0 1 0
15.354562 13.650395 -10.357292 23.008029 0.726711 2.037741 0.103602 -0.026758 -420090.000000 0 1 0
14.366762 14.606395 -11.029292 23.267916 0.793669 2.064639 0.073450 -0.033580 -1181580.000000 0 1 0
13.542062 15.173595 -10.075092 22.696540 0.842154 2.030747 0.115724 -0.039457 -210660.000000 0 1 0
13.276862 16.522895 -10.393792 23.607458 0.893899 2.026702 0.112803 -0.040512 -286911.000000 0 1 0
12.286762 17.147295 -9.421492 23.103220 0.949054 1.990840 0.108405 -0.033307 -172720.000000 0 1 0
12.795762 17.246595 -8.098392 22.951264 0.932480 1.931413 0.098924 -0.024871 440597.000000 0 1 0
11.776062 17.613895 -7.165692 22.366763 0.981480 1.896919 0.086571 -0.018794 254955.000000 0 1 0
12.128962 17.421895 -5.690192 21.977544 0.962631 1.832689 0.076247 -0.012709 382240.000000 0 1 0
13.222362 18.239095 -5.262492 23.134158 0.943523 1.800282 0.096394 -0.020143 424993.000000 0 1 0
13.653362 17.779695 -4.010692 22.773175 0.915925 1.747834 0.097824 -0.013852 222775.000000 0 1 0
14.860562 18.632595 -3.480592 24.085773 0.897547 1.715812 0.092954 -0.025353 54228.100000 0 1 0
16.011362 18.519495 -4.270392 24.850990 0.857905 1.743493 0.098541 -0.039294 -141263.000000 0 1 0
16.794362 19.694095 -4.231892 26.226264 0.864701 1.732866 0.077594 -0.032017 331692.000000 0 0 1
17.912562 19.598195 -5.370592 27.088603 0.830305 1.770379 0.062822 -0.023047 -18554.200000 0 0 1
19.075662 19.046895 -4.839792 27.387747 0.784644 1.748443 0.071584 -0.037361 -497706.000000 0 0 1
19.256962 17.734895 -5.346092 26.719615 0.744275 1.772237 0.089769 -0.044713 -572270.000000 0 0 1
20.309962 16.905695 -4.617592 26.825720 0.694178 1.743791 0.104120 -0.047537 371874.000000 0 0 1
21.666262 17.308595 -4.855292 28.152944 0.674053 1.744124 0.090221 -0.049368 631441.000000 0 0 1
22.496562 16.452295 -4.113592 28.172593 0.631442 1.717334 0.092558 -0.051543 -629654.000000 0 0 1
23.998862 16.525695 -4.393092 29.467665 0.603036 1.720436 0.100382 -0.048731 -613269.000000 0 0 1
24.607262 17.670795 -3.890592 30.543593 0.622779 1.698522 0.119380 -0.045029 363993.000000 0 0 1
26.011762 17.410695 -3.845892 31.536249 0.589851 1.693052 0.094792 -0.034475 397022.000000 0 0 1
26.749762 18.591895 -3.157392 32.728848 0.607383 1.667418 0.110841 -0.034134 -234623.000000 0 0 1
26.755562 19.835995 -3.853692 33.528760 0.637960 1.685988 0.117592 -0.029968 355477.000000 0 0 1
27.245962 20.957095 -3.082492 34.511506 0.655665 1.660233 0.124086 -0.007307 -65633.900000 0 0 1
26.987362 22.238395 -3.938292 35.190540 0.689223 1.682945 0.078283 -0.004818 -166319.000000 0 0 1
27.980762 22.680095 -4.829492 36.340525 0.681147 1.704086 0.074498 0.002526 -30361.200000 0 0 1
28.223162 21.835595 -5.952992 36.177040 0.658483 1.736100 0.083458 -0.005443 593604.000000 0 0 1
29.372262 22.360195 -6.920692 37.558010 0.650674 1.756122 0.068542 -0.004200 486863.000000 0 0 1
29.013662 23.545395 -7.674992 38.145560 0.681731 1.773382 0.058339 -0.002480 174653.000000 0 0 1
30.073162 24.331095 -8.202492 39.543371 0.680243 1.779744 0.047627 0.000437 176710.000000 0 0 1
30.949662 23.668895 -9.334192 40.065264 0.652877 1.805932 0.049440 -0.010951 -32474.700000 0 0 1
30.284962 23.580295 -10.534692 39.801872 0.661564 1.838667 0.040976 -0.005124 -320208.000000 0 0 1
31.106462 22.962195 -11.488792 40.334436 0.635894 1.859634 0.032570 -0.013584 -76492.300000 0 0 1
30.439862 22.678995 -12.847992 40.074842 0.640321 1.897159 0.050866 -0.007980 34496.500000 0 0 1
30.679562 23.735395 -13.690492 41.134342 0.658469 1.910093 0.048307 -0.011703 52686.400000 0 0 1
30.463162 23.200095 -14.977492 41.116590 0.650870 1.943644 0.054498 -0.011571 -46180.100000 0 0 1
30.717862 24.056495 -16.219392 42.253647 0.664378 1.964767 0.049411 -0.007411 377070.000000 0 0 1
32.053962 24.535895 -16.372892 43.560742 0.653320 1.956125 0.056794 -0.007128 452890.000000 0 0 1
32.279162 24.998595 -17.750892 44.519302 0.658966 1.980921 0.070252 -0.017776 367087.000000 0 0 1
33.742262 25.467395 -17.959592 45.931203 0.646542 1.972526 0.074731 -0.020684 99999.600000 0 0 1
34.682562 24.449895 -18.024492 46.103794 0.614049 1.972465 0.082513 -0.011206 -1707910.000000 0 0 1
35.979762 24.891395 -17.985292 47.303230 0.605213 1.960823 0.083463 -0.017569 -1491840.000000 0 0 1
36.923062 23.716695 -17.995092 47.430133 0.570963 1.959946 0.064153 -0.020888 -628218.000000 0 0 1
36.934862 23.059395 -19.244092 47.605198 0.558115 1.986948 0.055450 -0.009083 88449.500000 0 0 1
-35.984948 23.323095 -20.073592 47.347992 -0.575063 2.008608 0.078556 -0.009864 44647.600000 0 0 1
-35.955248 22.498995 -21.341092 47.480805 -0.559138 2.036966 0.076399 -0.013775 84044.500000 0 0 1
-35.902448 21.080795 -21.210492 46.725482 -0.530931 2.041977 0.034014 -0.005376 59560.400000 0 0 1
-35.901748 20.526395 -22.517692 47.088373 -0.519379 2.069401 0.026181 -0.009164 258180.000000 0 0 1
-35.528348 19.028695 -22.581192 46.198106 -0.491714 2.081499 0.016108 -0.006123 287745.000000 0 0 1
-36.618948 18.227495 -22.141992 46.512974 -0.461855 2.066941 0.021439 -0.005583 175306.000000 0 0 1
-36.330348 16.841495 -21.910992 45.646706 -0.434078 2.071465 0.011269 -0.003277 202619.000000 0 0 1
36.457362 15.909095 -21.829992 45.373860 0.411466 2.072721 0.022808 -0.006113 201251.000000 0 0 1
35.661762 15.871695 -23.016192 45.314646 0.418740 2.103564 0.062832 -0.008661 650454.000000 0 0 1
34.591862 14.924195 -22.835792 44.054534 0.407310 2.115720 0.083258 0.001233 132101.000000 0 0 1
34.818262 13.545995 -23.444692 44.107357 0.371030 2.131210 0.038485 -0.008196 -357965.000000 0 0 1
34.621062 13.440795 -24.884392 44.704652 0.370315 2.161132 0.041712 0.003803 261142.000000 0 0 1
34.891962 12.111595 -25.374112 44.810549 0.334104 2.172749 0.033136 0.001855 -318493.000000 0 0 1
34.887662 11.922395 -26.970082 45.680169 0.329294 2.202365 0.046386 0.003860 300390.000000 0 0 1
33.590262 11.938795 -27.562802 45.061609 0.341499 2.228965 0.031787 0.005607 545995.000000 0 0 1
33.002162 13.233295 -27.747662 45.102057 0.381353 2.233461 0.043569 0.003029 -150933.000000 0 0 1
33.325962 13.690795 -29.195572 46.372827 0.389794 2.251813 0.052233 -0.003953 643644.000000 0 0 1
34.723862 13.846895 -29.472492 47.603686 0.379447 2.238421 0.048981 -0.002196 541143.000000 0 0 1
35.057062 14.067495 -30.819042 48.751466 0.381604 2.255142 0.055717 -0.005847 465634.000000 0 0 1
36.554162 14.480995 -31.099662 50.130779 0.377185 2.240011 0.091807 -0.016267 1508910.000000 0 0 1
-36.414548 13.574295 -30.871022 49.631651 -0.356815 2.242094 0.080466 -0.005713 472675.000000 0 0 1
-36.234148 13.353695 -29.465542 48.574199 -0.353094 2.222584 0.065835 -0.010842 -942484.000000 0 0 1
-35.095448 12.359795 -29.169282 47.278981 -0.338613 2.235671 0.069986 -0.011471 -8391.260000 0 0 1
-35.368248 11.030095 -29.526062 47.374722 -0.302306 2.243682 0.066286 -0.017573 -32588.500000 0 0 1
-34.257348 10.195895 -29.315042 46.226550 -0.289278 2.257718 0.061928 -0.024926 -144797.000000 0 0 1
-34.431748 8.719095 -29.741452 46.326255 -0.248015 2.267900 0.061211 -0.020248 -563766.000000 0 0 1
-34.565348 8.574195 -31.129992 47.300703 -0.243150 2.289128 0.063301 -0.020582 168352.000000 0 0 1
-34.814848 7.217495 -31.651692 47.602474 -0.204415 2.298179 0.061878 -0.021904 -280766.000000 0 0 1
-36.191048 6.612295 -31.350422 48.335943 -0.180712 2.276533 0.065861 -0.013629 -443721.000000 0 0 1
-36.167448 5.837095 -30.141862 47.441415 -0.160011 2.259257 0.058729 -0.019959 753058.000000 0 0 1
36.542862 5.402495 -29.851302 47.493873 0.146777 2.250458 0.048390 -0.007204 455853.000000 0 0 1
36.357962 4.633595 -28.499552 46.428398 0.126760 2.231711 0.046309 -0.012197 121675.000000 0 0 1
36.987262 3.320695 -28.540782 46.836533 0.089539 2.226062 0.049055 -0.003522 641525.000000 0 0 1
36.572762 2.542895 -27.459512 45.804564 0.069418 2.213664 0.050670 -0.006162 -158028.000000 0 0 1
-36.677948 1.196495 -27.361952 45.775320 -0.032610 2.211481 0.104127 -0.014442 -201796.000000 0 0 1
-35.414348 1.403195 -26.784332 44.424604 -0.039602 2.217948 0.107129 -0.011937 -369764.000000 0 0 1
-34.838248 0.179695 -26.403932 43.713882 -0.005158 2.219328 0.132389 -0.018745 -39777.300000 0 0 1
-33.538848 0.438895 -25.602702 42.196508 -0.013085 2.222761 0.136070 -0.014307 -105126.000000 0 0 1
-33.717948 0.574395 -24.191592 41.502567 -0.017034 2.193082 0.122591 -0.013179 154464.000000 0 0 1
-32.487248 0.662595 -23.528292 40.117837 -0.020393 2.197502 0.149689 -0.008290 -174230.000000 0 0 1
-32.687948 0.340095 -22.082892 39.449610 -0.010404 2.164910 0.136898 0.000754 -290311.000000 0 0 1
-33.133048 -0.951805 -21.831792 39.690452 0.028719 2.153222 0.156112 -0.013401 222627.000000 0 0 1
-33.498748 -1.230005 -20.470892 39.277684 0.036701 2.119034 0.124420 -0.015686 1321940.000000 0 0 1
-35.020748 -0.916205 -20.096792 40.387786 0.026156 2.091621 0.103929 -0.012400 984202.000000 0 0 1
-35.819348 -2.025205 -20.395592 41.268721 0.056479 2.087727 0.092390 -0.014451 1110320.000000 0 0 1
36.893862 -1.894405 -19.797192 41.912703 -0.051302 2.062744 0.068171 -0.009172 1601880.000000 0 0 1
36.103562 -3.228005 -19.723792 41.266393 -0.089172 2.069130 0.062977 -0.014935 -116153.000000 0 0 1
35.796262 -3.964705 -20.906492 41.643399 -0.110308 2.096748 0.062430 -0.009261 484087.000000 0 0 1
36.944162 -4.584605 -21.467192 42.973597 -0.123464 2.093868 0.053174 -0.016670 17201.800000 0 0 1
36.557662 -5.589205 -22.558492 43.319597 -0.151713 2.118520 0.051581 -0.018626 -274324.000000 0 0 1
35.883062 -6.752505 -22.093792 42.676998 -0.186006 2.114954 0.058273 -0.015379 315151.000000 0 0 1
35.564362 -7.676705 -23.152292 43.125216 -0.212592 2.137510 0.056374 -0.011219 428301.000000 0 0 1
34.232162 -7.413905 -23.923292 42.416162 -0.213283 2.170035 0.039889 -0.003795 56389.600000 0 0 1
34.228062 -6.195005 -24.657192 42.637020 -0.179054 2.187446 0.046400 -0.013113 206645.000000 0 0 1
32.884262 -5.786405 -24.857492 41.626339 -0.174180 2.210749 0.051512 -0.002235 261868.000000 0 0 1
32.718962 -4.672605 -25.858042 41.964295 -0.141851 2.234694 0.068357 -0.023229 -32720.600000 0 0 1
32.806262 -5.080805 -27.207332 42.922073 -0.153652 2.257353 0.061162 -0.027996 328584.000000 0 0 1
32.058562 -4.088205 -27.884492 42.685006 -0.126838 2.282681 0.063106 -0.033845 -2925.350000 0 0 1
31.944862 -4.366805 -29.361352 43.607708 -0.135856 2.309468 0.068146 -0.029767 110890.000000 0 0 1
31.211662 -3.338105 -30.016712 43.431714 -0.106546 2.333840 0.066443 -0.039709 132242.000000 0 0 1
31.048162 -3.552505 -31.427182 44.320159 -0.113924 2.359010 0.086867 -0.046195 -482250.000000 0 0 1
30.382562 -2.316505 -32.141962 44.289638 -0.076097 2.382880 0.085581 -0.040916 73405.000000 0 0 1
29.183462 -1.773505 -31.604732 43.054371 -0.060696 2.395086 0.077787 -0.034639 428730.000000 0 0 1
28.018362 -2.577105 -31.562612 42.283195 -0.091721 2.413519 0.087238 -0.031462 14105.700000 0 0 1
27.335162 -2.796805 -32.964872 42.915219 -0.101960 2.446727 0.108589 -0.038149 -901544.000000 0 0 1
28.033762 -3.647805 -33.755242 44.029702 -0.129395 2.444399 0.115128 -0.049835 111427.000000 0 0 1
27.340962 -3.760405 32.921313 42.959070 -0.136680 0.697670 0.094004 -0.044952 284653.000000 0 0 1
27.985062 -4.949005 32.103499 42.875296 -0.175035 0.724600 0.078597 -0.050830 964996.000000 0 0 1
29.301362 -4.693305 31.606114 43.353701 -0.158825 0.753894 0.088640 -0.043470 308187.000000 0 0 1
29.417762 -3.669305 30.603414 42.607951 -0.124090 0.769504 0.113199 -0.045327 -595623.000000 0 0 1
30.242762 -2.456905 31.141764 43.479542 -0.081061 0.772398 0.091114 -0.041700 1340760.000000 0 0 1
31.618762 -2.755805 31.534044 44.740770 -0.086938 0.788632 0.086488 -0.033876 1256580.000000 0 0 1
32.208562 -1.527005 31.991914 45.422525 -0.047374 0.789334 0.073693 -0.023996 -1161650.000000 0 0 1
33.600162 -1.669405 32.488546 46.768189 -0.049644 0.802833 0.062265 -0.024027 -818740.000000 0 0 1
34.537762 -2.071405 31.471124 46.771566 -0.059903 0.832716 0.076186 -0.018191 846757.000000 0 0 1
35.893062 -2.024805 31.948794 48.095085 -0.056352 0.844261 0.060420 -0.013396 921830.000000 0 0 1
36.870762 -2.551605 30.868344 48.154112 -0.069094 0.874954 0.051737 -0.009424 106215.000000 0 0 1
36.962662 -1.731905 29.701914 47.449358 -0.046821 0.894421 0.057288 -0.001998 168424.000000 0 0 1
-36.054248 -2.262605 28.868474 46.243021 0.062673 0.896590 0.064863 -0.002840 329914.000000 0 0 1
-36.027748 -1.543205 27.537214 45.372660 0.042808 0.918627 0.075950 -0.002071 -58866.600000 0 0 1
36.994962 -1.867505 26.622224 45.616418 -0.050437 0.947628 0.100495 -0.017297 -291031.000000 0 0 1
-36.804848 -1.240705 25.395784 44.733456 0.033698 0.967071 0.108885 -0.021792 -103618.000000 0 0 1
-26.873748 15.010695 12.735308 33.312270 -0.509394 1.178511 0.107666 -0.012869 85048.000000 0 0 1
-28.160428 14.425595 12.630408 34.068089 -0.473411 1.190991 0.111678 -0.005557 469893.000000 0 0 1
-29.173978 15.337995 13.055108 35.451529 -0.484029 1.193668 0.107923 -0.007599 64399.000000 0 0 1
-30.474878 14.605495 13.419408 36.360957 -0.446921 1.192798 0.106044 -0.009362 -596056.000000 0 0 1
-31.382668 15.349495 14.149208 37.691895 -0.454896 1.185977 0.094532 -0.013368 -733380.000000 0 0 1
-32.541518 14.604695 14.403708 38.467055 -0.421857 1.187001 0.108209 -0.025805 -43848.100000 0 0 1
-33.509378 15.319095 15.356608 39.917145 -0.428791 1.175900 0.086185 -0.017357 -29264.700000 0 0 1
-32.968218 15.343995 16.661508 39.999343 -0.435601 1.141155 0.065390 -0.003300 59372.500000 0 0 1
-33.870998 15.818295 17.622708 41.328232 -0.436914 1.130278 0.060133 -0.006440 32634.700000 0 0 1
-33.138388 16.081095 18.972708 41.433296 -0.451795 1.095154 0.066083 0.005309 -21470.200000 0 0 1
-32.633608 14.913995 19.485508 40.829703 -0.428671 1.073287 0.066533 -0.003138 75821.200000 0 0 1
-31.564258 15.089595 20.416308 40.507084 -0.445942 1.042551 0.077469 0.003882 258285.000000 0 0 1
-31.928418 15.610395 21.842408 41.715693 -0.454743 1.019723 0.072906 -0.011021 -245657.000000 0 0 1
-32.392738 16.955595 21.875308 42.606464 -0.482222 1.031623 0.054676 -0.009541 94688.600000 0 0 1
-32.527978 17.620995 23.107908 43.618164 -0.496463 1.012459 0.054921 -0.024657 -907761.000000 0 0 1
-33.376208 16.962295 24.242908 44.602795 -0.470198 0.996161 0.047429 -0.017978 -70881.900000 0 0 1
-34.673462 16.573195 23.868008 45.239381 -0.445876 1.015031 0.105978 -0.011883 360483.000000 0 0 1
-35.609026 17.648695 23.694308 46.269854 -0.460141 1.033181 0.116914 -0.024897 -1158100.000000 0 0 1
37.018702 17.254095 23.319208 47.030560 0.436155 1.052005 0.069451 -0.025783 -483748.000000 0 0 1
36.418062 16.634395 24.453108 46.914101 0.428463 1.022503 0.090278 -0.020517 -111744.000000 0 0 1
35.877452 15.351295 24.203808 45.920346 0.404309 1.015633 0.119090 -0.020316 -21004.000000 0 0 1
35.280392 14.840895 25.491408 45.986630 0.398185 0.983248 0.144316 -0.015735 -25857.400000 0 0 1
34.098432 15.470695 25.986608 45.577947 0.425932 0.964099 0.095437 -0.010786 332612.000000 0 0 1
33.656142 15.008095 27.246908 45.829825 0.419459 0.934123 0.096105 -0.011172 144520.000000 0 0 1
32.730362 13.767695 27.284708 44.780368 0.398172 0.915618 0.109658 -0.011392 147981.000000 0 0 1
33.453982 12.600295 26.937508 44.761208 0.360213 0.925037 0.107639 -0.016685 360848.000000 0 0 1
32.567102 11.505395 27.164708 43.942140 0.339596 0.904355 0.089649 -0.012068 371394.000000 0 0 1
33.076282 10.052295 26.924908 43.818258 0.295042 0.909085 0.104625 -0.026643 165558.000000 0 0 1
34.092182 9.552595 27.795808 45.012619 0.273193 0.905221 0.101864 -0.019868 256500.000000 0 0 1
34.716862 8.412095 27.309808 44.964981 0.237724 0.918067 0.114163 -0.011973 -830919.000000 0 0 1
35.858872 7.946095 28.160908 46.282134 0.218070 0.916676 0.086605 -0.010608 -251009.000000 0 0 1
-36.963338 8.675095 27.963108 47.153802 -0.230523 0.935993 0.074791 -0.016427 382885.000000 0 0 1
-35.940387 7.972895 28.654908 46.651712 -0.218301 0.909386 0.094443 -0.019528 -274347.000000 0 0 1
-34.682012 8.809895 28.915108 46.005865 -0.248758 0.891161 0.092280 -0.020537 -59313.600000 0 0 1
-34.001148 9.065895 27.669908 44.764856 -0.260573 0.904452 0.089898 -0.018264 -803302.000000 0 0 1
-32.807378 9.678995 27.981408 44.192377 -0.286886 0.885151 0.080494 -0.012707 -1011880.000000 0 0 1
-32.118458 10.249795 26.762708 43.045280 -0.308909 0.899842 0.069897 -0.010366 -199796.000000 0 0 1
-31.565398 9.275595 25.886808 41.863323 -0.285808 0.904136 0.076416 -0.015614 121402.000000 0 0 1
-30.652848 9.844495 24.975908 40.746867 -0.310756 0.911004 0.081670 -0.014318 -61761.400000 0 0 1
-30.076768 8.710995 24.079208 39.500654 -0.281912 0.915253 0.087166 -0.022540 -371239.000000 0 0 1
-29.198968 9.249495 23.167608 38.404048 -0.306775 0.923215 0.095312 -0.021717 -576947.000000 0 0 1
-28.647808 8.310195 22.289308 37.236668 -0.282332 0.929063 0.105429 -0.016534 277013.000000 0 0 1
-27.606398 9.018795 21.342408 36.040952 -0.315762 0.937046 0.099586 -0.016601 -1070470.000000 0 0 1
-26.474188 9.360795 22.054708 35.705983 -0.339862 0.905013 0.105320 -0.016544 -418786.000000 0 0 1
-25.340618 9.914195 21.429708 34.636261 -0.372930 0.903700 0.104757 -0.014175 257183.000000 0 0 1
-24.603538 9.013895 20.467008 33.248801 -0.351180 0.907686 0.087309 -0.021435 -1081200.000000 0 0 1
-25.287028 8.857295 19.203808 32.964704 -0.336916 0.948926 0.093365 -0.024622 436043.000000 0 0 1
-24.619638 8.066095 18.230208 31.678525 -0.316607 0.957611 0.092195 -0.027199 -233257.000000 0 0 1
-24.421738 6.572295 18.548308 31.363292 -0.262888 0.938000 0.085187 -0.022182 -45940.200000 0 0 1
-23.237538 6.267495 19.288108 30.843083 -0.263445 0.895200 0.055616 -0.014022 735588.000000 0 0 1
-23.175338 4.952495 19.842808 30.908907 -0.210530 0.873722 0.060158 -0.015019 -105567.000000 0 0 1
-22.997838 3.783295 18.837108 29.967491 -0.163046 0.891064 0.073110 -0.022589 381959.000000 0 0 1
-24.216638 3.676195 18.051908 30.427477 -0.150654 0.935673 0.105433 -0.021498 1364000.000000 0 0 1
-24.269238 2.726595 16.976808 29.742936 -0.111879 0.963335 0.092500 -0.019094 -285552.000000 0 0 1
-24.369238 1.239195 17.365708 29.949343 -0.050807 0.952269 0.096235 -0.019176 -36165.100000 0 0 1
-23.126038 0.700195 17.799908 29.191448 -0.030268 0.915033 0.064260 -0.009312 666512.000000 0 0 1
-23.322638 -0.461205 18.591708 29.829679 0.019772 0.897889 0.093772 -0.021684 271751.000000 0 0 1
-22.044038 -1.359805 18.768408 28.983475 0.061608 0.866424 0.083728 -0.009913 745553.000000 0 0 1
-21.066338 -0.739505 19.603308 28.785884 0.035089 0.821663 0.062451 -0.008980 1790120.000000 0 0 1
-19.851738 -1.552905 19.777008 28.064801 0.078066 0.788809 0.049452 -0.012081 1798170.000000 0 0 1
-18.769638 -1.146505 20.793608 28.035476 0.061007 0.735211 0.056732 -0.013206 398402.000000 0 0 1
-19.291138 -1.102205 22.108808 29.362599 0.057073 0.718251 0.066306 -0.018531 -169358.000000 0 0 1
-18.275538 -0.724105 23.003308 29.388293 0.039601 0.671745 0.055093 -0.019380 -400911.000000 0 0 1
-18.646438 -1.052905 24.507708 30.812757 0.056407 0.651170 0.071954 -0.019262 756081.000000 0 0 1
-19.557738 -0.195305 25.193708 31.894610 0.009986 0.660142 0.066836 -0.020495 383553.000000 0 0 1
-20.915638 -0.146105 24.805208 32.446627 0.006985 0.700542 0.101643 -0.024632 411063.000000 0 0 1
-21.878338 0.927095 25.436708 33.564077 -0.042350 0.710777 0.084411 -0.025483 306562.000000 0 0 1
-21.547838 2.213095 25.034708 33.105040 -0.102347 0.713279 0.070925 -0.023430 777007.000000 0 0 1
-22.665638 2.965395 24.506408 33.512516 -0.130093 0.750627 0.077275 -0.020162 378138.000000 0 0 1
-22.187638 4.050195 23.460208 32.543459 -0.180555 0.765713 0.077022 -0.014940 112177.000000 0 0 1
-21.701438 3.537595 22.251308 31.282386 -0.161591 0.779444 0.080770 -0.019188 692108.000000 0 0 1
-20.396938 2.957395 22.218308 30.305684 -0.143989 0.747869 0.056178 -0.014029 -3054.080000 0 0 1
-20.091838 2.180595 20.931708 29.095933 -0.108108 0.767854 0.053536 -0.012220 -264891.000000 0 0 1
-19.776338 3.020795 19.866808 28.194304 -0.151576 0.788882 0.044506 -0.001381 388977.000000 0 0 1
-19.360238 2.217895 18.706308 27.012290 -0.114062 0.805832 0.053651 -0.010495 39187.500000 0 0 1
-18.818638 3.003495 17.519808 25.886401 -0.158267 0.827395 0.046552 -0.006456 -439331.000000 0 0 1
-17.520638 3.516195 17.669808 25.130827 -0.198058 0.791031 0.055518 -0.017451 -300806.000000 0 0 1
-17.179838 4.050195 16.459608 24.134407 -0.231525 0.820306 0.063642 -0.011460 567595.000000 0 1 0
-15.848338 4.907695 16.495508 23.395663 -0.300301 0.788279 0.077792 -0.008149 622809.000000 0 1 0
-15.792138 6.093095 17.280208 24.189316 -0.368232 0.775068 0.090611 -0.013228 -100683.000000 0 1 0
-16.527838 7.243295 16.936408 24.748266 -0.413038 0.817088 0.089599 -0.026589 -219116.000000 0 1 0
-15.930538 8.073095 15.754608 23.815217 -0.469048 0.847932 0.066098 -0.024272 73355.200000 0 1 0
-16.050938 7.602095 14.425808 22.880743 -0.442324 0.888627 0.080950 -0.022731 1058640.000000 0 1 0
-17.419438 7.453995 13.987408 23.550933 -0.404335 0.934872 0.055691 -0.032373 880501.000000 0 1 0
-17.730138 6.465595 12.882308 22.849848 -0.349681 0.971840 0.062298 -0.028038 -187347.000000 0 1 0
-17.512538 5.121295 13.198808 22.519440 -0.284503 0.944550 0.062563 -0.020470 307627.000000 0 1 0
-17.940838 4.274095 12.141308 22.080600 -0.233873 0.988596 0.050701 -0.027100 79134.200000 0 1 0
-17.635738 2.752295 12.461108 21.768638 -0.154815 0.961325 0.060309 -0.005633 -354909.000000 0 1 0
-18.267238 2.261495 13.599408 22.885590 -0.123174 0.934483 0.054158 -0.014063 133422.000000 0 1 0
-17.851038 0.946995 13.830208 22.601571 -0.053000 0.912319 0.049912 -0.004735 493985.000000 0 1 0
-18.920038 0.214395 14.764108 23.999847 -0.011331 0.908188 0.067436 -0.013773 222532.000000 0 1 0
-20.131838 0.071695 14.085008 24.569971 -0.003561 0.960316 0.077502 -0.013470 -697448.000000 0 1 0
-21.173438 0.027095 15.041608 25.972392 -0.001280 0.953125 0.087144 -0.017474 -849944.000000 0 0 1
-22.478638 -0.136305 14.285608 26.634307 0.006064 1.004677 0.107291 -0.017139 -898521.000000 0 0 1
-22.536438 -1.381405 13.634508 26.376109 0.061220 1.027540 0.126181 -0.030253 381797.000000 0 0 1
-23.801938 -1.552805 13.023308 27.176276 0.065146 1.071035 0.149255 -0.026411 137063.000000 0 0 1
-23.793738 -2.856005 12.134608 26.861635 0.119460 1.102076 0.145717 -0.037550 -94357.900000 0 0 1
-23.802138 -3.997905 12.961308 27.395629 0.166411 1.077972 0.134137 -0.034902 324542.000000 0 0 1
-23.770738 -5.208705 12.264808 27.250763 0.215713 1.103950 0.152924 -0.042283 -86012.600000 0 0 1
-23.988438 -6.482305 13.114408 28.097208 0.263923 1.085183 0.146813 -0.036729 -166834.000000 0 0 1
-25.306208 -6.607805 13.591708 29.475443 0.255411 1.091540 0.134418 -0.032169 121582.000000 0 0 1
-25.446158 -7.935705 14.042708 30.127728 0.302304 1.085912 0.153950 -0.048711 -336921.000000 0 0 1
-26.514218 -8.012505 15.110608 31.552091 0.293471 1.071384 0.150644 -0.038924 201995.000000 0 0 1
-27.855218 -7.677205 14.723808 32.429048 0.268934 1.099511 0.131193 -0.037695 779073.000000 0 0 1
-28.682938 -7.810305 15.872308 33.699287 0.265852 1.080374 0.120480 -0.033628 -561865.000000 0 0 1
-30.110888 -7.272705 15.666508 34.713070 0.236992 1.102559 0.097505 -0.032017 125861.000000 0 0 1
-30.911948 -7.864805 14.606908 35.082266 0.249140 1.141356 0.085604 -0.020821 717931.000000 0 0 1
-31.103158 -9.269005 14.453408 35.527762 0.289629 1.151826 0.080291 -0.022979 -844138.000000 0 0 1
-31.735118 -10.116405 15.575108 36.770142 0.308593 1.133402 0.072156 -0.021175 -135635.000000 0 0 1
-30.767158 -10.340905 16.600408 36.457178 0.324240 1.098042 0.086761 -0.023072 390851.000000 0 0 1
-31.160848 -11.079205 17.761308 37.539463 0.341610 1.077948 0.089243 -0.017705 -265617.000000 0 0 1
-30.034448 -11.144305 18.813808 37.151352 0.355304 1.039780 0.101133 -0.008617 1116830.000000 0 0 1
-28.874448 -11.864905 18.312008 36.191702 0.389879 1.040287 0.115726 -0.017158 1729870.000000 0 0 1
-27.659418 -11.666505 19.048508 35.552727 0.399150 1.005363 0.109603 -0.024326 149969.000000 0 0 1
-26.408098 -12.426605 18.724208 34.675699 0.439820 1.000382 0.129766 -0.022887 -640729.000000 0 0 1
-25.799418 -11.980805 17.513808 33.404836 0.434750 1.018916 0.115807 -0.015831 98473.000000 0 0 1
-24.857938 -12.948605 17.126508 32.846624 0.480231 1.022296 0.107041 -0.023424 -88490.200000 0 0 1
-24.260538 -12.895305 15.643108 31.615967 0.488556 1.053209 0.100044 -0.023742 597948.000000 0 0 1
-23.223938 -11.903605 15.551308 30.379109 0.473643 1.033392 0.106461 -0.029922 223172.000000 0 0 1
-22.781738 -11.966805 14.227908 29.404852 0.483667 1.065733 0.108976 -0.023454 -537529.000000 0 0 1
-21.690438 -11.007305 13.796108 27.963699 0.469608 1.054851 0.089897 -0.029199 -481522.000000 0 0 1
-22.063438 -9.663305 13.772008 27.746044 0.412812 1.051396 0.092173 -0.037863 1165820.000000 0 0 1
-20.884738 -8.809705 13.589908 26.428560 0.399178 1.030707 0.095938 -0.035214 1333590.000000 0 0 1
-20.279138 -8.670305 12.182408 25.195807 0.404027 1.066137 0.127468 -0.030793 -257345.000000 0 0 1
-19.588138 -9.746205 11.595408 24.761606 0.461691 1.083451 0.120165 -0.039934 364816.000000 0 1 0
-19.398138 -9.699305 10.208708 23.970440 0.463657 1.130854 0.137927 -0.030922 -508541.000000 0 1 0
-18.671238 -10.979305 9.741308 23.749807 0.531574 1.148163 0.115002 -0.025038 828609.000000 0 1 0
-17.246538 -11.077405 9.822908 22.729749 0.570941 1.123909 0.130944 -0.035700 1065200.000000 0 1 0
-16.677338 -11.382505 11.121208 23.051600 0.598893 1.067349 0.124978 -0.028750 -143740.000000 0 1 0
-15.174538 -11.704005 11.036608 22.114634 0.656990 1.048279 0.145661 -0.034610 -64270.000000 0 1 0
-14.865338 -13.079505 10.830008 22.568579 0.721579 1.070289 0.129567 -0.040573 699874.000000 0 1 0
-13.459938 -13.313005 10.914908 21.852717 0.779910 1.047802 0.149128 -0.043095 515294.000000 0 1 0
-13.205838 -14.851205 11.059908 22.743658 0.843975 1.062963 0.155833 -0.037727 -250943.000000 0 1 0
-13.349838 -15.465205 9.804508 22.660960 0.858679 1.123354 0.114391 -0.043563 240491.000000 0 1 0
-12.937738 -16.850505 9.903408 23.439327 0.916003 1.134581 0.093206 -0.036808 197309.000000 0 1 0
-13.078838 -17.579205 8.558508 23.523020 0.931150 1.198414 0.070776 -0.028099 -17030.400000 0 1 0
-12.275838 -17.240405 7.442008 22.434599 0.952036 1.232670 0.080963 -0.043305 -46683.000000 0 1 0
-12.493038 -18.211705 6.402408 22.994195 0.969535 1.288631 0.048601 -0.032576 -243661.000000 0 1 0
-11.644238 -18.019505 5.124508 22.057910 0.997096 1.336333 0.056188 -0.034343 -94262.800000 0 1 0
-12.039938 -18.907905 4.125108 22.792224 1.003780 1.388806 0.068465 -0.031476 692113.000000 0 1 0
-11.183938 -18.707905 2.973108 21.997853 1.031982 1.435227 0.069934 -0.039345 661151.000000 0 1 0
-11.554438 -19.717805 1.852408 22.928765 1.040742 1.489918 0.074645 -0.030441 108364.000000 0 1 0
-11.105138 -21.048805 2.087508 23.890039 1.085321 1.483305 0.063879 -0.034989 -243509.000000 0 1 0
-11.522538 -21.937205 1.011408 24.799854 1.087153 1.530002 0.064540 -0.030381 -226242.000000 0 1 0
-10.743938 -21.930305 -0.309692 24.422661 1.115251 1.583477 0.082926 -0.029937 -351657.000000 0 1 0
-10.948038 -20.886205 -1.282192 23.616458 1.087996 1.625115 0.084216 -0.040311 -193548.000000 0 1 0
-12.120438 -20.943705 -2.054492 24.285072 1.046175 1.655497 0.102795 -0.031358 504957.000000 0 1 0
-13.302738 -19.992605 -1.625392 24.068838 0.983683 1.638379 0.104394 -0.026786 64293.400000 0 1 0
-14.016338 -20.402905 -0.533092 24.759249 0.968864 1.592329 0.102947 -0.023161 -552773.000000 0 1 0
-14.989338 -19.431405 -0.288692 24.542679 0.913741 1.582559 0.107820 -0.015671 -304532.000000 0 1 0
27.114062 -20.507305 -3.919192 34.221075 -0.647543 1.685574 0.067143 -0.018291 -674372.000000 0 0 1
25.908462 -20.357805 -3.244992 33.109192 -0.665997 1.668963 0.078326 -0.028872 -447562.000000 0 0 1
25.857962 -21.323705 -2.208892 33.588894 -0.689590 1.636606 0.058694 -0.026206 -97404.300000 0 0 1
24.459962 -21.521405 -1.578792 32.618295 -0.721577 1.619217 0.045372 -0.028032 568679.000000 0 0 1
23.494362 -22.065605 -2.490792 32.327697 -0.754049 1.647921 0.046930 -0.031396 338985.000000 0 0 1
22.298662 -22.486805 -1.863692 31.723179 -0.789599 1.629579 0.054149 -0.027905 318712.000000 0 0 1
21.280362 -23.211505 -2.756392 31.610528 -0.828775 1.658106 0.070864 -0.035327 189559.000000 0 0 1
20.500162 -22.375205 -3.588192 30.557840 -0.829103 1.688491 0.076583 -0.039899 -403468.000000 0 0 1
19.541162 -23.105505 -4.314392 30.566899 -0.868783 1.712415 0.085269 -0.038447 293152.000000 0 0 1
18.526162 -22.143105 -5.080392 29.314606 -0.874100 1.744982 0.080187 -0.019030 559847.000000 0 0 1
17.468962 -21.646805 -4.268192 28.141895 -0.891802 1.723051 0.084288 -0.015289 542390.000000 0 0 1
17.964662 -20.628805 -3.362992 27.560595 -0.854320 1.693123 0.072540 -0.024713 -592407.000000 0 0 1
16.865562 -19.955905 -2.553092 26.252687 -0.869130 1.668201 0.089988 -0.018156 -272954.000000 0 0 1
16.342362 -20.881905 -1.625592 26.566319 -0.906750 1.632025 0.081869 -0.024599 -19326.300000 0 0 1
15.364362 -20.227705 -0.843892 25.415267 -0.921198 1.604007 0.080618 -0.014500 -93452.400000 0 0 1
15.043862 -20.991405 0.471808 25.829817 -0.948971 1.552529 0.075683 -0.019635 -62739.200000 0 0 1
14.313062 -22.191305 0.379508 26.409502 -0.997955 1.556426 0.086985 -0.021437 -304490.000000 0 0 1
13.375862 -22.293205 1.416208 26.036634 -1.030379 1.516377 0.068899 -0.020179 59670.700000 0 0 1
12.449062 -23.562405 1.291908 26.680238 -1.084731 1.522355 0.070416 -0.022394 542990.000000 0 0 1
13.056762 -24.761405 1.755508 28.047959 -1.085546 1.508166 0.071244 -0.019910 374967.000000 0 0 1
12.093762 -25.809615 1.635008 28.549405 -1.132603 1.513496 0.065403 -0.015630 365811.000000 0 0 1
12.477362 -27.142595 2.206508 29.954527 -1.139908 1.497068 0.075774 -0.018003 -115125.000000 0 0 1
12.118262 -27.203755 3.559208 29.992741 -1.151722 1.451847 0.087684 -0.023238 43667.800000 0 0 1
12.667462 -28.308955 4.223208 31.300112 -1.150047 1.435457 0.084009 -0.021381 14573.000000 0 0 1
12.105562 -28.508595 5.655108 31.484359 -1.169240 1.390200 0.091589 -0.022902 -737.165000 0 0 1
12.700262 -29.637645 6.293308 32.852585 -1.165950 1.378043 0.087197 -0.018742 -146230.000000 0 0 1
12.286962 -29.884325 7.617008 33.197306 -1.180714 1.339287 0.084617 -0.017182 -206916.000000 0 0 1
13.074462 -30.996365 8.346008 34.660814 -1.171634 1.327616 0.087910 -0.013584 -86072.400000 0 0 1
12.714362 -31.219725 9.694908 35.075881 -1.184052 1.290752 0.087132 -0.011260 339317.000000 0 0 1
11.778762 -32.308475 9.805608 35.759288 -1.221199 1.293027 0.077587 -0.011938 674362.000000 0 0 1
11.301262 -32.622485 11.249508 36.311106 -1.237309 1.255804 0.079036 -0.005838 354752.000000 0 0 1
12.447362 -33.102075 11.977408 37.338217 -1.211123 1.244242 0.083162 -0.004620 675814.000000 0 0 1
12.281162 -33.599005 13.267508 38.154250 -1.220361 1.215644 0.083910 -0.002319 245862.000000 0 0 1
11.248062 33.314437 13.524608 37.673407 1.245181 1.203604 0.081286 -0.000226 629853.000000 0 0 1
11.631962 32.143285 12.879308 36.529028 1.223579 1.210472 0.084470 -0.003079 216385.000000 0 0 1
10.489162 31.314967 12.931108 35.466367 1.247585 1.197591 0.077746 -0.003503 126361.000000 0 0 1
10.458262 30.221747 11.862908 34.109497 1.237644 1.215584 0.081478 -0.006708 -9283.310000 0 0 1
10.119862 30.620277 10.499908 33.915498 1.251602 1.256034 0.079578 -0.008070 69674.000000 0 0 1
10.996262 31.583957 9.961208 34.895412 1.235762 1.281311 0.057439 -0.006824 -145565.000000 0 0 1
10.623962 31.963937 8.546608 34.750631 1.249910 1.322306 0.049866 -0.007921 180463.000000 0 0 1
9.361462 32.603954 8.556508 34.983834 1.291191 1.323705 0.060642 -0.011276 -93242.100000 0 0 1
8.874462 32.963577 7.281708 34.905254 1.307811 1.360639 0.055754 -0.016448 -15065.900000 0 0 1
9.513762 -33.875395 6.582608 35.796435 -1.297003 1.385854 0.061932 -0.005476 153582.000000 0 0 1
8.799362 -32.669545 6.876208 34.525500 -1.307696 1.370292 0.065344 -0.005128 555782.000000 0 0 1
9.347262 -31.510965 6.164108 33.441119 -1.282429 1.385409 0.078587 -0.023442 29718.400000 0 0 1
8.487062 -30.276735 6.451608 32.098818 -1.297494 1.368426 0.066261 -0.023038 -42146.600000 0 0 1
8.399662 -29.859315 7.833308 31.992088 -1.296575 1.323430 0.089756 -0.018204 203802.000000 0 0 1
7.634562 -28.681115 8.058708 30.754441 -1.310641 1.305667 0.083761 -0.016183 -135530.000000 0 0 1
8.372562 -27.370405 7.745708 29.651894 -1.273937 1.306509 0.100412 -0.019054 -690930.000000 0 0 1
9.322762 -26.923395 8.731808 29.799791 -1.237448 1.273417 0.099334 -0.018255 6557.010000 0 0 1
10.275062 -26.074815 8.168108 29.192308 -1.195420 1.287207 0.106835 -0.025595 -440647.000000 0 0 1
9.907462 -24.808005 7.380008 27.713885 -1.190837 1.301251 0.098337 -0.025491 -789654.000000 0 0 1
9.390662 -25.291725 6.174108 27.676262 -1.215279 1.345820 0.087147 -0.021952 -796490.000000 0 0 1
8.631862 -24.389705 5.470808 26.444214 -1.230639 1.362410 0.087526 -0.022058 -30632.900000 0 0 1
8.267362 -24.859305 4.036508 26.507125 -1.249736 1.417921 0.078031 -0.024531 75695.100000 0 0 1
7.392562 -25.966535 4.049508 27.300355 -1.293439 1.421915 0.055759 -0.020010 -312786.000000 0 0 1
8.006562 -27.235175 3.935708 28.659197 -1.284873 1.433033 0.056407 -0.019111 44534.200000 0 0 1
6.978162 -28.297085 3.474608 29.351195 -1.329017 1.452138 0.055476 -0.019555 549928.000000 0 0 1
5.940462 -28.503015 4.445408 29.452888 -1.365322 1.419284 0.051023 -0.023748 251071.000000 0 0 1
4.892462 -29.399525 4.123308 30.087703 -1.405894 1.433321 0.047612 -0.019847 321447.000000 0 0 1
5.163962 -30.958855 4.213808 31.668176 -1.405517 1.437339 0.044615 -0.014016 -122650.000000 0 0 1
6.080762 -31.486355 3.277508 32.235202 -1.380021 1.468946 0.043300 -0.014494 319857.000000 0 0 1
6.706062 -32.710315 3.796108 33.605749 -1.368585 1.457595 0.042552 -0.015323 144519.000000 0 0 1
7.767762 -33.371035 2.910408 34.386546 -1.342099 1.486057 0.053303 -0.012456 -196450.000000 0 0 1
7.285862 -33.675535 1.598308 34.491738 -1.357726 1.524441 0.050374 -0.014808 -500160.000000 0 0 1
8.122762 33.498458 0.945108 34.482157 1.332906 1.543384 0.045146 -0.015886 -659599.000000 0 0 1
7.550662 32.799895 -0.308992 33.659190 1.344534 1.579976 0.064855 -0.013705 444566.000000 0 0 1
6.385862 32.012807 -0.187892 32.644055 1.373902 1.576552 0.055831 -0.014126 -289969.000000 0 0 1
5.144662 32.664219 -0.127592 33.067129 1.414578 1.574655 0.058673 -0.017679 -577502.000000 0 0 1
4.018862 31.691437 0.191108 31.945813 1.444657 1.564814 0.050202 -0.018089 -426197.000000 0 0 1
3.885262 30.614187 -0.776892 30.869520 1.444561 1.595966 0.061867 -0.015318 -99199.600000 0 0 1
2.841362 29.721117 -0.478492 29.860460 1.475485 1.586821 0.060000 -0.028335 -91028.900000 0 0 1
2.503462 28.665167 -1.546492 28.815807 1.483683 1.624490 0.067146 -0.017632 115224.000000 0 0 1
1.942362 29.244097 -2.729392 29.435345 1.504475 1.663655 0.078718 -0.031219 77890.800000 0 0 1
1.713262 28.256897 -3.724492 28.552746 1.510239 1.701612 0.088947 -0.036740 -136370.000000 0 0 1
1.396162 28.901167 -5.103092 29.381427 1.522526 1.745366 0.091006 -0.039370 1059240.000000 0 0 1
0.113462 29.555097 -5.249992 30.017979 1.566957 1.746595 0.085299 -0.038454 992695.000000 0 0 1
0.161562 30.424427 -6.399992 31.090702 1.565486 1.778128 0.070287 -0.031195 -249386.000000 0 0 1
0.113362 29.780667 -7.826492 30.792125 1.566990 1.827788 0.067810 -0.027783 174939.000000 0 0 1
-1.167638 29.186177 -8.087992 30.308611 -1.530811 1.840924 0.075908 -0.027927 802724.000000 0 0 1
-1.310738 28.709627 -9.456292 30.255283 -1.525173 1.888673 0.072517 -0.022950 -30795.300000 0 0 1
-1.588738 29.743107 -10.570792 31.605666 -1.517432 1.911827 0.057512 -0.019996 -43445.800000 0 0 1
-0.395938 30.426627 -10.930392 32.332799 -1.557784 1.915650 0.058774 -0.018376 44828.800000 0 0 1
-0.540638 31.713627 -11.392492 33.702156 -1.553750 1.915624 0.036184 -0.022428 92868.500000 0 0 1
-0.828538 32.860858 -10.300692 34.447449 -1.545588 1.874468 0.028093 -0.021537 399032.000000 0 0 1
0.224262 32.924604 -9.338992 34.224211 1.563985 1.847178 0.034445 -0.033388 138268.000000 0 0 1
-0.140038 33.709371 -8.235892 34.701170 -1.566642 1.810421 0.040358 -0.029225 -616199.000000 0 0 1
1.009462 34.015451 -7.297592 34.804091 1.541128 1.782040 0.062245 -0.036367 -797248.000000 0 0 1
1.892462 -33.080685 -7.684492 34.014181 -1.513651 1.798684 0.081047 -0.032771 -239999.000000 0 0 1
2.802762 -32.732995 -6.622892 33.513685 -1.485380 1.769723 0.086226 -0.045621 171114.000000 0 0 1
4.010762 -31.891425 -7.166792 32.931931 -1.445690 1.790176 0.060406 -0.042642 785521.000000 0 0 1
4.944162 -32.572665 -8.032992 33.910945 -1.420158 1.809955 0.070692 -0.036054 510737.000000 0 0 1
5.763462 -33.529315 -7.393692 34.815214 -1.400567 1.784796 0.098510 -0.030814 -936607.000000 0 0 1
6.216762 33.426099 -8.393192 35.019964 1.386912 1.812821 0.106845 -0.023380 -397193.000000 0 0 1
5.323262 32.453144 -8.789592 34.041160 1.408215 1.831960 0.091950 -0.026902 -720745.000000 0 0 1
4.088162 32.783508 -9.389192 34.345719 1.446735 1.847694 0.084773 -0.030071 161444.000000 0 0 1
3.230862 31.497707 -9.455992 33.044815 1.468579 1.861010 0.074342 -0.044899 -328837.000000 0 0 1
3.848162 30.555477 -10.302292 32.474340 1.445516 1.893618 0.080661 -0.026932 -29623.800000 0 0 1
3.238662 29.286897 -10.323692 31.221625 1.460660 1.907797 0.055412 -0.026360 54979.100000 0 0 1
4.115962 28.378417 -11.205692 30.787063 1.426762 1.943327 0.055106 -0.025678 191709.000000 0 0 1
3.972462 28.599457 -12.565292 31.489617 1.432779 1.981255 0.062915 -0.022464 44607.200000 0 0 1
5.184462 28.267537 -13.205392 31.627752 1.389405 2.001517 0.062811 -0.027952 151230.000000 0 0 1
5.233462 28.803757 -14.647292 32.735130 1.391063 2.034707 0.065354 -0.021093 -363018.000000 0 0 1
4.400862 28.091647 -15.507992 32.388363 1.415399 2.070099 0.070469 -0.019388 -199021.000000 0 0 1
4.275862 28.801677 -16.706892 33.569925 1.423414 2.091712 0.096613 -0.019872 -337431.000000 0 0 1
3.200762 28.177697 -17.574692 33.363113 1.457689 2.125593 0.081649 -0.021112 -397565.000000 0 0 1
3.524962 26.902847 -18.042792 32.584212 1.440513 2.157631 0.097355 -0.015608 -53669.600000 0 0 1
2.540362 26.406027 -18.936892 32.593521 1.474888 2.190755 0.109960 -0.030983 345792.000000 0 0 1
3.095062 25.228427 -19.733692 32.178744 1.448725 2.230968 0.116394 -0.031102 261117.000000 0 0 1
3.329262 24.025047 -18.995492 30.807720 1.433099 2.235190 0.117691 -0.037134 26841.100000 0 0 1
4.274362 23.271197 -19.755692 30.823792 1.389145 2.266497 0.114055 -0.034083 338556.000000 0 0 1
4.790462 22.017967 -19.049292 29.506185 1.356564 2.272609 0.104667 -0.033450 -94162.800000 0 0 1
3.825362 21.030267 -18.827492 28.484733 1.390866 2.292904 0.125769 -0.034035 -393997.000000 0 0 1
4.469762 19.982267 -18.164392 27.371790 1.350732 2.296440 0.103549 -0.026457 472525.000000 0 0 1
3.522962 18.835567 -17.721492 26.100596 1.385895 2.317154 0.096579 -0.035283 47445.800000 0 0 1
2.512762 19.127267 -16.779792 25.568100 1.440174 2.286672 0.085220 -0.027535 -86602.500000 0 0 1
1.600762 18.031867 -16.714292 24.638958 1.482254 2.316336 0.053048 -0.016439 7966.380000 0 1 0
2.006462 16.858867 -15.769092 23.171352 1.452338 2.319299 0.060650 -0.016248 205364.000000 0 1 0
3.147362 16.137667 -16.254592 23.120163 1.378182 2.350471 0.068527 -0.025177 922.023000 0 1 0
2.933362 14.950067 -17.044192 22.860744 1.377047 2.412180 0.082851 -0.031604 -315846.000000 0 1 0
2.808362 15.147367 -18.574092 24.131443 1.387475 2.449175 0.074045 -0.029680 -459686.000000 0 1 0
3.899462 15.850167 -19.121892 25.141208 1.329567 2.435002 0.091361 -0.027662 -457414.000000 0 0 1
3.810362 16.172067 -20.538892 26.417810 1.339403 2.461420 0.081576 -0.034576 -256623.000000 0 0 1
4.194062 15.007567 -21.558792 26.600728 1.298285 2.515731 0.096100 -0.036896 468275.000000 0 0 1
3.306962 13.884567 -21.628092 25.913154 1.336977 2.558271 0.096536 -0.037492 1079870.000000 0 0 1
2.042162 14.208367 -22.282792 26.506055 1.428044 2.569312 0.094325 -0.040664 1097140.000000 0 0 1
1.282362 12.949067 -22.748192 26.206927 1.472087 2.622001 0.089420 -0.037096 -151797.000000 0 0 1
0.740162 12.191067 -21.759192 24.952603 1.510157 2.630112 0.084449 -0.033916 -549332.000000 0 1 0
-0.216138 11.317967 -22.258992 24.972101 -1.551702 2.671121 0.050703 -0.026239 -666178.000000 0 1 0
-0.836738 10.378967 -21.212892 23.630698 -1.490352 2.685281 0.034398 -0.025264 92956.900000 0 1 0
-1.918538 11.127967 -20.565892 23.462062 -1.400068 2.639463 0.029756 -0.019647 515004.000000 0 1 0
-2.513138 10.371767 -19.554892 22.277415 -1.333072 2.642026 0.028408 -0.014026 388885.000000 0 1 0
-3.499938 9.222767 -19.955792 22.260787 -1.208096 2.682500 0.042166 -0.017569 -181681.000000 0 1 0
-2.798738 8.156767 -20.591192 22.324045 -1.240265 2.744986 0.034870 -0.020666 -236007.000000 0 1 0
-3.687038 7.152667 -20.985292 22.475262 -1.094844 2.775425 0.033930 -0.015301 214223.000000 0 1 0
-2.894338 5.999267 -21.750592 22.747674 -1.121288 2.844418 0.035971 -0.020635 -37959.600000 0 1 0
-2.176538 5.157567 -20.899292 21.636040 -1.171462 2.879879 0.033331 -0.016326 -125157.000000 0 1 0
-2.049038 3.904167 -21.589492 22.035137 -1.087480 2.940134 0.046105 -0.022493 -501165.000000 0 1 0
-1.104638 2.944967 -20.864592 21.100338 -1.211944 2.991970 0.036982 -0.019609 231948.000000 0 1 0
0.274762 3.337867 -20.846592 21.113911 1.488665 2.982297 0.035323 -0.016081 421029.000000 0 1 0
0.958762 2.404567 -20.057292 20.223653 1.191389 3.013239 0.031671 -0.014855 -633233.000000 0 1 0
2.482662 2.431267 -20.018892 20.318236 0.774939 2.969726 0.027836 -0.020356 -661038.000000 0 1 0
3.057662 2.009867 -21.179992 21.493742 0.581505 2.970520 0.041668 -0.019373 233522.000000 0 1 0
4.460062 1.809467 -20.938292 21.484376 0.385414 2.915645 0.057448 -0.025699 785883.000000 0 1 0
5.194062 1.329167 -22.187792 22.826368 0.250525 2.904499 0.056320 -0.013326 -469471.000000 0 1 0
6.571862 1.105367 -22.199292 23.178002 0.166637 2.849955 0.049272 -0.014850 -330412.000000 0 1 0
7.101862 0.733167 -23.486992 24.548173 0.102871 2.846487 0.049781 -0.009328 -1904210.000000 0 1 0
8.561562 0.514067 -23.385792 24.909032 0.059972 2.790065 0.048057 -0.018667 -1861850.000000 0 1 0
9.124162 1.665567 -22.783892 24.599394 0.180557 2.754995 0.052133 -0.040792 82612.700000 0 1 0
10.430662 1.767167 -23.352892 25.637456 0.167827 2.716231 0.050761 -0.029500 78174.500000 0 0 1
14.566762 -20.770205 22.247674 33.742421 -0.959178 0.850858 0.103663 -0.008802 -690514.000000 0 0 1
13.612762 -21.677105 22.762674 34.254102 -1.010058 0.843940 0.096024 -0.008024 437187.000000 0 0 1
12.315862 -21.133305 22.965544 33.551651 -1.043142 0.816902 0.080573 -0.023658 528656.000000 0 0 1
11.431362 -20.926805 21.732474 32.263100 -1.070833 0.831725 0.097035 -0.025974 -859944.000000 0 0 1
11.774462 -19.767405 21.101274 31.219417 -1.033581 0.828608 0.105535 -0.026641 54428.300000 0 0 1
11.038562 -19.733605 19.885674 30.111544 -1.060781 0.849445 0.128564 -0.017898 256734.000000 0 0 1
11.329962 -18.390505 19.150174 28.867073 -1.018639 0.845454 0.132247 -0.027516 10298.500000 0 0 1
10.367862 -17.386705 19.367374 28.015804 -1.033095 0.807507 0.158534 -0.031352 -203988.000000 0 0 1
10.585162 -16.277605 18.543374 26.848888 -0.994217 0.808399 0.153522 -0.031264 -102383.000000 0 0 1
9.582862 -15.151805 18.784974 25.966973 -1.006853 0.762056 0.120771 -0.033041 514799.000000 0 0 1
8.264962 -15.422205 18.308474 25.324972 -1.078833 0.762746 0.090753 -0.035090 573118.000000 0 0 1
7.289762 -14.447305 18.654674 24.695387 -1.103495 0.714546 0.060610 -0.030911 1548190.000000 0 1 0
5.795462 -14.818105 18.280574 24.235161 -1.197980 0.716210 0.015747 -0.021162 876444.000000 0 1 0
5.469162 -14.810705 16.854574 23.094272 -1.217058 0.752743 0.005116 -0.022427 191571.000000 0 1 0
4.099062 -15.133705 16.660074 22.877705 -1.306286 0.755071 -0.008961 -0.014226 -14460.200000 0 1 0
3.693762 -16.611205 16.811174 23.920526 -1.351991 0.791481 -0.007971 -0.009366 -137678.000000 0 1 0
2.362562 -16.685405 16.304674 23.448387 -1.430137 0.801899 0.000464 -0.006761 71233.900000 0 1 0
1.800862 -17.982205 16.495374 24.468350 -1.470982 0.830981 0.011351 -0.016807 611441.000000 0 1 0
0.280462 -17.926505 16.164274 24.139635 -1.555152 0.837105 0.031979 -0.005881 395352.000000 0 1 0
-0.059138 -17.523105 14.823274 22.951953 1.567421 0.868674 0.031203 -0.011290 36834.700000 0 1 0
-1.449938 -17.680705 14.610974 22.982389 1.488973 0.881821 0.036486 -0.007044 -205242.000000 0 1 0
-1.865538 -17.726405 13.138774 22.143465 1.465942 0.935585 0.031194 -0.027099 186314.000000 0 1 0
-3.209138 -18.151005 12.949574 22.526629 1.395803 0.958368 0.035673 -0.030059 276552.000000 0 1 0
-3.286038 -19.527805 12.547574 23.443012 1.404083 1.006008 0.049265 -0.030255 -647901.000000 0 1 0
-4.712338 -20.022105 12.415074 24.025505 1.339646 1.027751 0.050969 -0.030349 -621905.000000 0 1 0
-5.240238 -20.453905 13.610174 25.120891 1.319993 0.998234 0.050509 -0.034101 -430244.000000 0 0 1
-6.603838 -20.758605 13.463074 25.608294 1.262795 1.017222 0.047329 -0.033582 -382881.000000 0 0 1
-7.210538 -21.609005 14.564474 27.038211 1.248732 1.001947 0.052097 -0.029388 -105264.000000 0 0 1
-8.616838 -21.581605 14.483274 27.382125 1.190921 1.013455 0.050412 -0.029267 -155246.000000 0 0 1
-9.226238 -22.397305 15.486174 28.750379 1.180044 1.001971 0.053255 -0.034775 3566.480000 0 0 1
-10.728738 -22.101705 15.589274 29.096677 1.118876 1.005371 0.063843 -0.031430 -137584.000000 0 0 1
-10.848938 -20.778905 16.030174 28.397690 1.089615 0.970983 0.052400 -0.031621 -99072.300000 0 0 1
-12.216138 -20.406505 16.035574 28.684475 1.031378 0.977577 0.060296 -0.031185 129101.000000 0 0 1
-12.525238 -19.227205 16.901074 28.499356 0.993414 0.935975 0.060374 -0.022638 -483920.000000 0 0 1
-12.516838 -19.554105 18.256474 29.535286 1.001403 0.904442 0.049681 -0.023914 -28227.700000 0 0 1
-13.106938 -18.486005 18.987874 29.564566 0.954043 0.873365 0.047203 -0.020179 -7998.780000 0 0 1
-13.529938 -18.993605 20.393474 30.979187 0.951835 0.852244 0.042172 -0.022301 149793.000000 0 0 1
-14.713738 -19.777005 20.303374 31.935106 0.931158 0.881791 0.061669 -0.026074 140625.000000 0 0 1
-14.991838 -20.446005 21.529374 33.261213 0.938108 0.866783 0.056927 -0.015330 -652352.000000 0 0 1
-16.425338 -20.950905 21.454574 34.191094 0.905893 0.892471 0.066599 -0.022926 -1526550.000000 0 0 1
-16.475238 -21.866805 20.391674 34.138116 0.925100 0.930630 0.062799 -0.025539 1451160.000000 0 0 1
-17.808938 -22.065405 19.845874 34.610679 0.891742 0.960143 0.061169 -0.027484 1376010.000000 0 0 1
-18.949238 -22.623405 20.725074 36.061347 0.873549 0.958538 0.065928 -0.029596 -812898.000000 0 0 1
-19.303138 -21.840805 21.805074 36.401829 0.846998 0.928532 0.070639 -0.027960 312532.000000 0 0 1
-20.199438 -22.576305 22.688474 37.848034 0.840907 0.927967 0.073054 -0.027568 229972.000000 0 0 1
-20.871838 -21.627805 23.644264 38.241951 0.803184 0.904243 0.070089 -0.016830 -205152.000000 0 0 1
-21.919338 -20.857305 23.093154 38.062820 0.760576 0.918879 0.077468 -0.011896 265843.000000 0 0 1
-22.379138 -19.815605 23.944874 38.299360 0.724718 0.895405 0.079221 -0.015899 250140.000000 0 0 1
-23.320138 -18.780205 23.248244 37.907859 0.677977 0.910586 0.089325 -0.016650 213180.000000 0 0 1
-22.707838 -18.130905 22.164574 36.546463 0.673791 0.919175 0.094772 -0.012968 -145069.000000 0 0 1
-23.650438 -17.226405 21.658174 36.402867 0.629517 0.933583 0.092240 -0.012855 -61731.700000 0 0 1
-23.210338 -16.404605 20.435074 35.006044 0.615262 0.947446 0.103598 -0.015386 -174223.000000 0 0 1
-22.373138 -15.275205 20.620974 34.045760 0.599053 0.920171 0.115194 -0.018707 12729.400000 0 0 1
-21.714638 -15.056605 19.387074 32.773244 0.606273 0.937814 0.104870 -0.014643 135957.000000 0 0 1
-20.844638 -13.811805 19.119274 31.477159 0.585187 0.918011 0.093143 -0.017603 351055.000000 0 0 1
-20.228538 -13.939905 17.827674 30.353594 0.603387 0.943036 0.097194 -0.020866 233009.000000 0 0 1
-19.614538 -12.722105 17.390074 29.137548 0.575395 0.931256 0.094913 -0.027307 -205455.000000 0 0 1
-19.255638 -12.836405 15.905174 28.080731 0.587978 0.968655 0.086400 -0.025927 -17562.400000 0 0 1
-18.647938 -11.699305 15.339974 26.831588 0.560307 0.962204 0.078866 -0.031492 32048.900000 0 0 1
-17.263738 -11.549205 15.543574 25.942696 0.589607 0.928357 0.087168 -0.035615 -422676.000000 0 0 1
-16.762338 -10.283205 14.836174 24.633967 0.550266 0.924461 0.093130 -0.038527 62638.600000 0 1 0
-17.296038 -9.114105 15.446674 24.916251 0.484973 0.902125 0.098040 -0.034840 367697.000000 0 1 0
-16.835838 -7.981705 14.720474 23.745429 0.442706 0.902144 0.090195 -0.032306 -489407.000000 0 1 0
-17.020838 -6.572205 15.445774 23.905538 0.368490 0.868310 0.091424 -0.031485 237105.000000 0 1 0
-16.215438 -6.382905 16.592974 24.062599 0.375004 0.809894 0.066701 -0.019234 -149241.000000 0 1 0
-14.840838 -6.292805 16.302274 22.926273 0.401040 0.779772 0.061824 -0.018794 -581936.000000 0 1 0
-13.918338 -6.316905 17.551674 23.274120 0.426055 0.716470 0.045124 -0.016919 -18443.200000 0 1 0
-14.044438 -7.446405 18.372074 24.294614 0.487517 0.713280 0.035672 -0.025893 30448.300000 0 1 0
-13.659338 -8.688905 17.690274 23.979583 0.566552 0.741106 0.056991 -0.019380 -428285.000000 0 1 0
-13.807938 -9.940105 18.597774 25.205992 0.623946 0.740944 0.051936 -0.020401 203758.000000 0 0 1
-15.091738 -10.397705 18.974774 26.380199 0.603283 0.768030 0.053470 -0.018766 -63037.300000 0 0 1
-15.669538 -9.550805 19.968874 27.120255 0.547386 0.743198 0.036919 -0.023826 -600156.000000 0 0 1
-17.035238 -10.045705 20.573974 28.537763 0.532813 0.765641 0.044607 -0.023308 1576160.000000 0 0 1
-18.129038 -10.050305 19.615074 28.538076 0.506197 0.812990 0.067142 -0.028362 937604.000000 0 0 1
-18.570738 -8.796905 19.114774 28.064790 0.442385 0.821540 0.070990 -0.033354 -1017440.000000 0 0 1
-19.618638 -8.858605 18.011774 28.067594 0.424134 0.874046 0.112963 -0.037857 82816.000000 0 0 1
-20.930138 -9.081005 18.505674 29.376782 0.409361 0.889318 0.113750 -0.042134 560428.000000 0 0 1
-21.896238 -9.083805 17.423774 29.420208 0.393248 0.936962 0.144224 -0.044752 548091.000000 0 0 1
-23.339038 -9.462705 17.821174 30.852029 0.385192 0.954969 0.137260 -0.036130 120408.000000 0 0 1
-23.955238 -8.372405 18.549274 31.432883 0.336231 0.939585 0.129286 -0.030667 1241080.000000 0 0 1
-25.303568 -8.757405 18.904474 32.777154 0.333191 0.956042 0.120582 -0.021404 834573.000000 0 0 1
-26.108178 -7.608005 19.573174 33.505639 0.283551 0.946932 0.126529 -0.027236 -58194.000000 0 0 1
-25.857938 -7.498805 20.924974 34.098674 0.282258 0.910109 0.137488 -0.032368 133907.000000 0 0 1
-26.742648 -6.588305 21.529774 34.958635 0.241549 0.907314 0.123880 -0.031128 -550755.000000 0 0 1
-26.707538 -6.620405 23.085684 35.917561 0.242987 0.872726 0.113078 -0.026593 285960.000000 0 0 1
-25.588248 -6.242905 23.871724 35.547032 0.239301 0.834493 0.104283 -0.033120 639240.000000 0 0 1
-24.362038 -6.961105 23.694304 34.689853 0.278319 0.818890 0.109936 -0.033194 106296.000000 0 0 1
-23.307138 -6.705305 24.770764 34.666620 0.280128 0.774827 0.099016 -0.025257 -95417.400000 0 0 1
-22.583038 -5.484205 24.643624 33.872973 0.238234 0.756081 0.083720 -0.027152 603050.000000 0 0 1
-21.795838 -5.242905 25.833784 34.204254 0.236061 0.714715 0.090720 -0.026775 472276.000000 0 0 1
-21.248738 -3.770905 25.849064 33.673472 0.175636 0.695648 0.091334 -0.029800 -30165.500000 0 0 1
-20.201938 -3.488905 26.734654 33.690243 0.171015 0.654187 0.081550 -0.022151 -192559.000000 0 0 1
-20.594738 -3.397805 28.133144 35.030874 0.163511 0.638324 0.086247 -0.022044 491599.000000 0 0 1
-21.441238 -2.113705 28.602974 35.809560 0.098264 0.645577 0.092228 -0.024610 869710.000000 0 0 1
-22.712738 -2.173005 27.987384 36.109335 0.095383 0.683965 0.089569 -0.023489 -21078.600000 0 0 1
-23.658338 -1.186605 28.422004 36.999126 0.050114 0.694802 0.094090 -0.027836 222346.000000 0 0 1
-24.937738 -1.207505 27.604714 37.220547 0.048383 0.735266 0.095647 -0.028038 -926950.000000 0 0 1
-24.883938 -0.523205 26.358704 36.252799 0.021023 0.756736 0.103641 -0.028396 1325060.000000 0 0 1
-26.174458 -0.196105 25.758664 36.723963 0.007492 0.793418 0.102226 -0.033310 1176030.000000 0 0 1
-27.078268 -1.363805 25.269134 37.062403 0.050323 0.820576 0.096266 -0.030361 166048.000000 0 0 1
-27.951928 -1.918005 26.282164 38.415377 0.068511 0.817349 0.083961 -0.026285 522232.000000 0 0 1
-28.380438 -3.259905 26.016104 38.638244 0.114363 0.832099 0.074733 -0.018016 339828.000000 0 0 1
-27.256508 -4.362505 26.032804 37.942793 0.158708 0.814672 0.078375 -0.024711 302264.000000 0 0 1
-26.808538 -4.639505 27.325204 38.560206 0.171363 0.783231 0.059243 -0.016667 -366464.000000 0 0 1
-26.044918 -5.823405 27.234534 38.130954 0.219973 0.775263 0.066866 -0.028429 -351576.000000 0 0 1
-25.656578 -6.217005 28.720194 39.009751 0.237734 0.743312 0.045103 -0.019202 -776753.000000 0 0 1
-26.677948 -6.543805 29.599514 40.381500 0.240540 0.748079 0.057964 -0.012138 -407609.000000 0 0 1
-26.251188 -7.117205 30.810274 41.098084 0.264755 0.723223 0.056055 -0.003271 118335.000000 0 0 1
-27.503478 -7.549905 31.632354 42.591645 0.267908 0.733719 0.038282 -0.007394 56051.600000 0 0 1
-28.230718 -8.572905 31.040774 42.825200 0.294823 0.760016 0.032374 -0.009256 -49562.500000 0 0 1
-29.388018 -8.871005 31.823394 44.216272 0.293160 0.767395 0.032363 -0.009263 4833.730000 0 0 1
-30.382848 -9.541305 30.867164 44.350150 0.304283 0.801002 0.026709 -0.012808 -814235.000000 0 0 1
-29.934108 -10.735305 30.393784 43.989541 0.344343 0.808019 0.034691 -0.013719 -437053.000000 0 0 1
-30.909208 -11.410705 29.666984 44.336365 0.353648 0.837753 0.027577 -0.015250 -367500.000000 0 0 1
-30.451548 -12.705405 28.929344 43.882013 0.395274 0.850972 0.037741 -0.012560 -419846.000000 0 0 1
-29.515848 -12.383205 27.948594 42.492975 0.397241 0.853005 0.050920 -0.015542 -705998.000000 0 0 1
-28.804618 -13.510805 27.541034 42.080357 0.438582 0.857293 0.072316 -0.015772 -55340.800000 0 0 1
-27.535858 -13.034505 26.744694 40.538876 0.442113 0.850337 0.070174 -0.014228 108573.000000 0 0 1
-26.516048 -12.373205 27.456284 40.125360 0.436598 0.817204 0.062258 -0.017249 -134733.000000 0 0 1
-26.728208 -11.134105 28.071084 40.328044 0.394707 0.800889 0.063694 -0.025470 -894232.000000 0 0 1
-26.869548 -9.942805 27.084444 39.425868 0.354415 0.813483 0.072168 -0.024218 246741.000000 0 0 1
-25.691628 -9.535705 26.392724 38.046883 0.355400 0.804197 0.070264 -0.019783 209035.000000 0 0 1
-25.236528 -10.304505 25.289084 37.183369 0.387656 0.822873 0.059031 -0.018528 -89439.400000 0 0 1
-26.096338 -10.161505 24.025444 36.898469 0.371322 0.861733 0.083001 -0.018578 535152.000000 0 0 1
-27.427628 -10.682105 24.123404 38.056810 0.371392 0.884238 0.077185 -0.016137 99425.200000 0 0 1
-28.072338 -10.670905 22.876774 37.752764 0.363253 0.919821 0.107500 -0.017806 -110363.000000 0 0 1
-29.356838 -11.540805 22.913974 38.988002 0.374563 0.942560 0.098793 -0.020664 1132920.000000 0 0 1
-30.507898 -10.959005 23.590464 40.091665 0.344864 0.941701 0.090270 -0.020115 657436.000000 0 0 1
-30.337648 -10.900405 25.045104 40.822162 0.344938 0.910289 0.090657 -0.017775 -268754.000000 0 0 1
-31.672718 -10.609005 25.796984 42.204223 0.323211 0.913168 0.044730 -0.016789 279065.000000 0 0 1
-32.222868 -9.284305 25.616774 42.198704 0.280530 0.918452 0.054854 -0.025506 85425.700000 0 0 1
-33.597068 -9.102405 25.908694 43.392133 0.264577 0.930937 0.048730 -0.015313 369397.000000 0 0 1
-34.092232 -9.255205 27.359404 44.681944 0.265087 0.911812 0.034113 -0.011954 -425373.000000 0 0 1
-34.425693 -10.612105 27.703154 45.444580 0.299019 0.915237 0.041539 -0.021211 226689.000000 0 0 1
-35.015888 -10.686305 28.988674 46.697460 0.296206 0.901064 0.050710 -0.021177 -802515.000000 0 0 1
-35.599419 -12.077405 29.474124 47.769303 0.327074 0.905859 0.049287 -0.024851 -256451.000000 0 0 1
-36.821008 -12.528905 29.009114 48.521014 0.327976 0.929959 0.039772 -0.022963 568533.000000 0 0 1
36.081182 -11.656605 29.247744 47.886937 -0.312482 0.913768 0.044016 -0.019203 324457.000000 0 0 1
34.737082 -12.036905 28.601544 46.578969 -0.333566 0.909622 0.042996 -0.019416 97981.600000 0 0 1
34.745542 -11.798305 27.236314 45.697588 -0.327347 0.932271 0.041139 -0.018518 1432790.000000 0 0 1
33.576402 -12.471305 26.621244 44.627333 -0.355638 0.931634 0.044911 -0.007599 1300350.000000 0 0 1
33.365152 -12.047705 25.176944 43.500105 -0.346517 0.953566 0.048919 -0.019342 -8274.130000 0 0 1
33.154192 -10.689805 24.940294 42.842627 -0.311903 0.949441 0.063466 -0.032729 -1210.920000 0 0 1
33.219272 -10.331005 23.601704 42.039150 -0.301513 0.974693 0.056073 -0.030730 -118712.000000 0 0 1
32.932232 -8.862805 23.359454 41.336973 -0.262894 0.970244 0.100486 -0.019372 -525163.000000 0 0 1
31.637862 -8.411005 23.583704 40.347124 -0.259842 0.946508 0.110028 -0.028272 -889573.000000 0 0 1
31.409662 -7.110405 22.994374 39.571025 -0.222624 0.950727 0.126931 -0.019664 -290138.000000 0 0 1
29.998252 -6.596005 22.684274 38.183488 -0.216435 0.934667 0.122951 -0.013029 -176429.000000 0 0 1
29.479342 -7.294505 21.552274 37.238984 -0.242572 0.953594 0.126544 -0.020373 -948832.000000 0 0 1
28.341572 -6.676005 21.113474 35.966548 -0.231338 0.943410 0.133639 -0.035587 -1217450.000000 0 0 1
14.752562 -16.865605 26.360264 34.596969 -0.852129 0.704518 0.078574 -0.018461 381983.000000 0 0 1
14.206262 -18.173705 26.254144 34.948269 -0.907318 0.720875 0.065385 -0.015263 65685.100000 0 0 1
15.308862 -18.999505 26.425684 35.967475 -0.892559 0.745556 0.067926 -0.008228 -938525.000000 0 0 1
14.881062 -20.490305 26.345594 36.542974 -0.942670 0.765627 0.054867 -0.016433 107233.000000 0 0 1
14.098162 -20.973205 27.408774 37.281019 -0.978974 0.744844 0.057808 -0.016555 656270.000000 0 0 1
12.756862 -20.474205 27.438504 36.534944 -1.013586 0.721190 0.061468 -0.015030 -411860.000000 0 0 1
12.016662 -20.961905 28.672324 37.495384 -1.050269 0.700237 0.064118 -0.019651 -283873.000000 0 0 1
12.470962 -20.361005 29.865464 38.236650 -1.021242 0.674420 0.071966 -0.024866 -311890.000000 0 0 1
11.506662 -19.619905 30.538064 38.077780 -1.040378 0.640174 0.076304 -0.028925 -486548.000000 0 0 1
11.403462 -18.160005 30.092534 36.951121 -1.010083 0.619123 0.068535 -0.023633 440192.000000 0 0 1
12.400862 -17.183005 30.434754 37.085190 -0.945659 0.608211 0.064036 -0.012917 143325.000000 0 0 1
12.244962 -16.074905 29.645304 35.877371 -0.919821 0.598298 0.059446 -0.007784 420356.000000 0 0 1
13.253862 -15.031905 30.228414 36.268169 -0.848176 0.585439 0.056225 -0.013596 383945.000000 0 0 1
12.899162 -13.665805 29.830954 35.256608 -0.814249 0.562153 0.069459 -0.010204 200663.000000 0 0 1
13.608162 -12.540305 30.365114 35.559549 -0.744583 0.547319 0.068423 -0.010624 -162728.000000 0 0 1
13.042562 -11.210105 29.800704 34.407221 -0.709985 0.523414 0.067645 -0.012420 13351.500000 0 0 1
13.312662 -10.938005 28.448784 33.259589 -0.687788 0.544559 0.077462 -0.016454 686411.000000 0 0 1
14.692062 -10.791105 28.074644 33.473725 -0.633498 0.575892 0.082948 -0.013635 386246.000000 0 0 1
14.905562 -9.798705 26.928514 32.300701 -0.581550 0.585054 0.079474 -0.011738 97158.900000 0 0 1
15.162562 -8.388305 27.347344 32.375055 -0.505316 0.564784 0.077701 -0.016861 -515531.000000 0 0 1
16.461862 -8.105605 27.741894 33.261185 -0.457539 0.584366 0.085996 -0.028026 -1035560.000000 0 0 1
16.874462 -6.622905 27.944214 33.309000 -0.374008 0.575466 0.080337 -0.029393 -565441.000000 0 0 1
18.263862 -6.531805 27.889204 33.971177 -0.343461 0.607694 0.083852 -0.038122 -659646.000000 0 0 1
18.743562 -5.196805 27.872214 33.988060 -0.270464 0.609282 0.082742 -0.030990 201347.000000 0 0 1
20.287762 -5.153205 27.707504 34.725417 -0.248745 0.646989 0.073087 -0.026294 -813841.000000 0 0 1
20.559862 -5.829105 26.503824 34.046132 -0.276269 0.678575 0.074774 -0.026225 576850.000000 0 0 1
21.871062 -5.668105 25.949044 34.406739 -0.253581 0.716384 0.086624 -0.019724 720104.000000 0 0 1
23.115862 -5.985805 26.793124 35.889336 -0.253382 0.727937 0.088790 -0.025226 -949787.000000 0 0 1
23.448162 -4.941105 27.708444 36.633164 -0.207686 0.713041 0.092652 -0.016621 -527157.000000 0 0 1
24.567762 -5.356505 28.441184 37.962719 -0.214670 0.723962 0.096758 -0.034328 -461367.000000 0 0 1
25.255062 -4.179105 29.120284 38.772078 -0.163990 0.721125 0.100785 -0.030304 -181497.000000 0 0 1
25.965762 -3.315505 28.234854 38.502213 -0.127000 0.747588 0.087678 -0.018495 74120.900000 0 0 1
26.412562 -2.147405 28.841244 39.166978 -0.081124 0.743112 0.074125 -0.021536 -700603.000000 0 0 1
27.387362 -1.308605 28.008714 39.195257 -0.047745 0.774752 0.080882 -0.020049 -79499.100000 0 0 1
28.728362 -1.748405 28.159904 40.266064 -0.060785 0.796314 0.094480 -0.016645 -208186.000000 0 0 1
29.462862 -1.075005 27.149854 40.079053 -0.036471 0.826564 0.096703 -0.006511 -1323560.000000 0 0 1
30.938462 -1.023805 27.358394 41.312448 -0.033080 0.847004 0.088102 -0.009114 -1391640.000000 0 0 1
31.214462 -0.175605 28.448864 42.234007 -0.005626 0.831726 0.077656 0.004458 85123.200000 0 0 1
32.585762 0.007495 28.742584 43.450755 0.000230 0.847982 0.086367 -0.004152 144445.000000 0 0 1
32.768262 1.177495 29.729744 44.260628 0.035919 0.834299 0.088905 -0.010028 -14825.300000 0 0 1
32.772862 2.443095 29.085524 43.886182 0.074409 0.846312 0.088884 -0.007638 156562.000000 0 0 1
32.952962 3.526595 29.998654 44.701833 0.106613 0.835127 0.083287 -0.008190 34700.600000 0 0 1
33.105162 4.843495 29.181204 44.395427 0.145276 0.853563 0.087425 -0.004947 -35122.200000 0 0 1
33.258162 6.042095 29.882744 45.117521 0.179713 0.846870 0.087055 -0.005943 2256740.000000 0 0 1
32.010662 6.421095 30.606664 44.751323 0.197965 0.817664 0.093013 -0.002913 1537100.000000 0 0 1
32.366662 7.373495 31.705234 45.904152 0.223989 0.808363 0.078268 -0.008814 -104875.000000 0 0 1
32.969762 6.658495 32.770493 46.960047 0.199277 0.798422 0.070308 -0.007523 243379.000000 0 0 1
33.261362 7.522895 33.867649 48.061730 0.222433 0.788839 0.057367 -0.013664 -182452.000000 0 0 1
33.960262 6.756195 -32.917822 47.775816 0.196380 2.330913 0.056487 -0.009359 -249040.000000 0 0 1
33.152862 5.933095 -32.126582 46.544937 0.177087 2.332599 0.035087 -0.017923 62517.400000 0 0 1
32.999062 4.615395 -32.637492 46.641675 0.138963 2.345843 0.060635 -0.017089 -263919.000000 0 0 1
32.461362 3.733595 -31.552672 45.423022 0.114513 2.338716 0.056623 -0.018937 -151297.000000 0 0 1
32.650262 2.383295 -31.943642 45.739655 0.072865 2.343927 0.055688 -0.017764 237972.000000 0 0 1
33.150262 1.529495 -30.919842 45.357644 0.046106 2.320866 0.044590 -0.016046 -24873.100000 0 0 1
33.489262 0.101095 -31.391072 45.901420 0.003019 2.323864 0.039054 -0.026255 -791903.000000 0 0 1
34.668762 0.075095 -32.144972 47.278197 0.002166 2.318438 0.046140 -0.021438 -323807.000000 0 0 1
35.415362 -1.102505 -32.117412 47.822501 -0.031121 2.307157 0.037054 -0.016493 428789.000000 0 0 1
36.190662 -1.472105 -30.837422 47.569714 -0.040654 2.276090 0.035098 -0.023200 -619190.000000 0 0 1
35.242462 -1.771105 -29.832722 46.207784 -0.050213 2.272633 0.034151 -0.026744 72394.500000 0 0 1
35.904362 -1.967805 -28.615712 45.954918 -0.054752 2.242973 0.045837 -0.026623 -290384.000000 0 0 1
34.996662 -1.831505 -27.387522 44.476928 -0.052286 2.234158 0.053375 -0.027275 -431716.000000 0 0 1
34.522462 -0.511005 -27.301772 44.016455 -0.014801 2.239874 0.035826 -0.024603 672180.000000 0 0 1
33.532862 -0.356405 -26.264422 42.595771 -0.010628 2.235209 0.034859 -0.019867 193100.000000 0 0 1
33.016362 1.092595 -26.138112 42.124516 0.033080 2.240172 0.015217 -0.012218 139219.000000 0 0 1
32.246662 1.473295 -27.286632 42.267933 0.045657 2.272557 0.030053 -0.022571 311581.000000 0 0 1
31.484362 2.631695 -27.119652 41.637320 0.083394 2.280133 0.033141 -0.013697 -149947.000000 0 0 1
30.531362 2.819395 -28.323532 41.741293 0.092083 2.316582 0.061875 -0.018299 -227400.000000 0 0 1
29.729162 3.964495 -28.115512 41.109881 0.132572 2.323907 0.052970 -0.012184 209081.000000 0 0 1
28.827562 4.256295 -29.177612 41.236846 0.146588 2.356838 0.053465 -0.016516 6060.270000 0 0 1
27.786262 5.313295 -28.702672 40.300755 0.188939 2.363440 0.057474 -0.017481 -563700.000000 0 0 1
26.718562 4.700195 -28.031572 39.009517 0.174133 2.372559 0.075215 -0.014779 -278810.000000 0 0 1
25.870362 5.710295 -27.567782 38.234353 0.217244 2.376071 0.080927 -0.019331 -194684.000000 0 0 1
24.408062 5.272295 -27.312782 37.007279 0.212738 2.400955 0.082996 -0.011635 435565.000000 0 0 1
23.618762 5.027495 -28.503522 37.357361 0.209730 2.438732 0.097189 -0.021374 1272440.000000 0 0 1
22.310162 4.523695 -28.173222 36.220679 0.200052 2.461988 0.085309 -0.018697 468873.000000 0 0 1
21.390462 4.213895 -29.320042 36.537291 0.194508 2.502218 0.077518 -0.019391 -435684.000000 0 0 1
21.655962 2.999495 -29.981532 37.106198 0.137631 2.511533 0.081723 -0.025873 -178821.000000 0 0 1
20.930762 2.780695 -31.155982 37.636741 0.132079 2.545985 0.065576 -0.031186 -239893.000000 0 0 1
21.362862 3.570395 -32.423752 38.992555 0.165600 2.552665 0.061967 -0.022213 642747.000000 0 0 1
22.682562 3.216995 -32.868142 40.064479 0.140887 2.532874 0.073323 -0.026030 621667.000000 0 0 1
22.891162 3.587895 33.748712 40.937194 0.155472 0.601651 0.061456 -0.022331 -335642.000000 0 0 1
24.314462 3.268495 33.280176 41.345450 0.133625 0.635240 0.083415 -0.012133 -130111.000000 0 0 1
24.466362 1.901395 33.076070 41.185490 0.077559 0.638316 0.113394 -0.023579 -925422.000000 0 0 1
25.821962 1.634195 33.025138 41.953595 0.063203 0.664569 0.118723 -0.024387 -1056860.000000 0 0 1
26.158962 0.148995 32.807850 41.960321 0.005696 0.673124 0.097245 -0.017418 -887003.000000 0 0 1
25.870162 -0.367005 31.545514 40.798523 -0.014185 0.686921 0.092332 -0.021857 -218282.000000 0 0 1
24.530262 -0.571005 31.204024 39.695730 -0.023273 0.666355 0.107540 -0.036377 -486611.000000 0 0 1
23.568362 -1.408605 32.065072 39.819853 -0.059696 0.634694 0.106039 -0.047899 -635068.000000 0 0 1
23.700862 -2.770705 31.776064 39.738218 -0.116375 0.644109 0.111900 -0.054396 28571.600000 0 0 1
22.881162 -3.589705 32.583195 39.976220 -0.155616 0.617956 0.125469 -0.049525 -17881.700000 0 0 1
22.840762 -5.004705 32.012494 39.642746 -0.215704 0.630853 0.118225 -0.050519 391658.000000 0 0 1
24.075162 -5.687905 32.194288 40.600959 -0.232002 0.655171 0.106767 -0.040081 349793.000000 0 0 1
23.847462 -7.065205 32.170229 40.663770 -0.288028 0.658146 0.123810 -0.042722 212509.000000 0 0 1
25.158162 -7.869105 31.962774 41.430362 -0.303145 0.689629 0.099730 -0.035968 380545.000000 0 0 1
25.748462 -7.546505 30.699404 40.772374 -0.285101 0.718269 0.104635 -0.042265 676219.000000 0 0 1
26.894262 -8.395505 30.403934 41.450996 -0.302582 0.747352 0.092967 -0.038562 896100.000000 0 0 1
27.377562 -8.158405 28.970254 40.686191 -0.289617 0.778395 0.095245 -0.029638 571375.000000 0 0 1
26.304662 -8.387405 28.048474 39.357347 -0.308665 0.777511 0.081297 -0.025762 405919.000000 0 0 1
26.805962 -8.152505 26.718894 38.715917 -0.295242 0.809132 0.101403 -0.025628 731162.000000 0 0 1
26.026262 -9.056305 25.656794 37.651747 -0.334863 0.821090 0.088518 -0.028195 225054.000000 0 0 1
24.768262 -8.522905 25.314104 36.426784 -0.331414 0.802472 0.096229 -0.028642 -278672.000000 0 0 1
24.090262 -9.542105 24.568104 35.706922 -0.377138 0.812000 0.116574 -0.036154 -209761.000000 0 0 1
22.693662 -9.205305 24.030304 34.310282 -0.385353 0.794864 0.086273 -0.022430 -670126.000000 0 0 1
21.762562 -9.309505 25.074764 34.482166 -0.404220 0.756591 0.074075 -0.016729 -741813.000000 0 0 1
20.519962 -9.023205 24.486814 33.197758 -0.414279 0.741281 0.073382 -0.012521 -130101.000000 0 0 1
19.313262 -8.890005 25.448594 33.161201 -0.431391 0.695988 0.071390 -0.016166 -53304.500000 0 0 1
18.729062 -10.028805 26.042944 33.609368 -0.491617 0.684284 0.085382 -0.019018 252700.000000 0 0 1
19.503062 -10.629005 27.066964 35.013794 -0.498990 0.687181 0.084525 -0.024235 50165.900000 0 0 1
18.638062 -11.638505 27.888444 35.504894 -0.558202 0.667322 0.082844 -0.026525 311780.000000 0 0 1
18.188262 -12.690905 27.048814 34.978712 -0.609216 0.686777 0.091756 -0.023224 100889.000000 0 0 1
17.207562 -13.560105 27.550444 35.199483 -0.667400 0.671813 0.090699 -0.020538 -359491.000000 0 0 1
17.763962 -14.687805 28.384914 36.564919 -0.690889 0.682040 0.092579 -0.014732 -489483.000000 0 0 1
16.807862 -15.630805 28.749124 36.787748 -0.749128 0.673752 0.068982 -0.012689 -300684.000000 0 0 1
17.361062 -16.635705 29.527554 38.079254 -0.764065 0.683411 0.082162 -0.017375 -167127.000000 0 0 1
17.956962 -17.866905 28.802854 38.357310 -0.782884 0.721359 0.081240 -0.011221 -105774.000000 0 0 1
19.015462 -17.578205 27.923244 38.082656 -0.746142 0.747740 0.075627 -0.013847 280444.000000 0 0 1
19.344562 -18.690705 27.107994 38.188976 -0.768209 0.781528 0.063520 -0.005854 256507.000000 0 0 1
20.377962 -18.274205 25.993394 37.747377 -0.731024 0.811220 0.074357 -0.014918 1351120.000000 0 0 1
21.728462 -18.116605 26.485594 38.753376 -0.694998 0.818332 0.093083 -0.017884 1016040.000000 0 0 1
22.557262 -17.496405 25.505494 38.281647 -0.659712 0.841615 0.094587 -0.013314 683693.000000 0 0 1
24.047662 -17.301005 25.919954 39.363166 -0.623658 0.851996 0.096297 -0.014767 295324.000000 0 0 1
24.713162 -18.531205 26.036854 40.398808 -0.643406 0.870433 0.086320 -0.019282 -665289.000000 0 0 1
26.077462 -18.370505 26.232274 41.299415 -0.613712 0.882564 0.087879 -0.017950 -344167.000000 0 0 1
26.922762 -19.669205 26.432714 42.548809 -0.630955 0.900481 0.069818 -0.016678 263440.000000 0 0 1
26.779462 -20.215605 27.782004 43.562025 -0.646625 0.879213 0.076824 -0.008364 -404412.000000 0 0 1
27.562962 -21.339305 27.869654 44.629592 -0.658811 0.896349 0.077504 -0.015448 -341122.000000 0 0 1
27.038662 -22.545205 28.706174 45.424883 -0.695022 0.886732 0.067626 -0.008132 35662.500000 0 0 1
26.962462 -22.306205 30.122074 46.172291 -0.691171 0.860070 0.056924 -0.010879 5592.770000 0 0 1
26.463062 -23.447905 30.802944 46.892636 -0.725061 0.854120 0.055945 -0.003572 -152296.000000 0 0 1
26.322062 -23.379005 32.318898 47.790585 -0.726252 0.828121 0.037534 -0.004469 86275.100000 0 0 1
25.735362 -24.538005 32.912038 48.452294 -0.761586 0.824033 0.034465 -0.007191 184813.000000 0 0 1
25.461762 -24.337605 -33.652392 48.714514 -0.762828 2.333403 0.040449 -0.006375 -601332.000000 0 0 1
25.057762 -25.512965 -32.809722 48.531234 -0.794399 2.313190 0.034210 -0.003653 1465930.000000 0 0 1
23.794162 -26.206105 -33.077792 48.446490 -0.833599 2.322343 0.048484 -0.011521 1087360.000000 0 0 1
23.551162 -26.604195 33.568799 48.880515 -0.846195 0.813785 0.046413 -0.012372 -326302.000000 0 0 1
22.216562 -27.382485 33.412353 48.577376 -0.889178 0.812319 0.069459 -0.019947 186446.000000 0 0 1
22.263762 -28.779135 33.505580 49.462487 -0.912357 0.826582 0.073097 -0.029946 303744.000000 0 0 1
20.977062 -29.363005 33.681503 49.362606 -0.950468 0.819854 0.096492 -0.038674 -18247.100000 0 0 1
21.009562 -30.934245 33.816033 50.416796 -0.974189 0.835604 0.075478 -0.042333 -547414.000000 0 0 1
21.681662 -31.387005 -33.055112 50.476519 -0.966282 2.284795 0.061339 -0.046618 673683.000000 0 0 1
22.989662 -31.888535 -33.370562 51.565469 -0.946156 2.274636 0.045159 -0.040060 393450.000000 0 0 1
23.742662 -32.542495 -32.185452 51.561917 -0.940486 2.244916 0.041858 -0.041814 319569.000000 0 0 1
24.998662 -33.149935 -32.531982 52.746385 -0.924671 2.235419 0.041761 -0.033999 920090.000000 0 0 1
25.707062 -33.729995 -31.462002 52.805522 -0.919569 2.209069 0.039145 -0.018689 363116.000000 0 0 1
26.439862 -32.862095 -30.348232 51.961512 -0.893275 2.194508 0.038852 -0.028771 -334877.000000 0 0 1
26.860862 -33.518305 -29.186602 51.931112 -0.895215 2.167629 0.055707 -0.014754 -191896.000000 0 0 1
27.238162 -32.588325 -28.228032 50.997433 -0.874589 2.157380 0.055101 -0.017240 -805690.000000 0 0 1
27.433762 -33.329515 -26.878562 50.851991 -0.882124 2.127705 0.069491 -0.016713 -96754.200000 0 0 1
28.702162 -33.896015 -26.656472 51.800786 -0.868180 2.111333 0.066283 -0.002823 -360065.000000 0 0 1
29.601062 -32.934265 -26.166762 51.435281 -0.838649 2.104507 0.068995 -0.015034 -399396.000000 0 0 1
-27.447858 -30.900176 9.525508 42.413926 0.844497 1.344280 0.058164 -0.005109 -271875.000000 0 0 1
-27.383578 -32.044376 10.365108 43.406657 0.863666 1.329676 0.066034 -0.005084 439650.000000 0 0 1
-26.061048 -32.142476 10.905708 42.793124 0.889506 1.313107 0.051628 -0.001012 624399.000000 0 0 1
-25.864918 -33.204376 11.973208 43.759368 0.909016 1.293647 0.052704 -0.003172 -619.104000 0 0 1
-25.865528 33.524295 11.540608 43.887237 -0.913648 1.304707 0.057272 0.008569 430952.000000 0 0 1
-27.169558 32.957095 11.413008 44.210991 -0.881358 1.309691 0.045661 -0.015116 518256.000000 0 0 1
-26.955838 31.488295 11.186308 42.933244 -0.862795 1.307203 0.059906 -0.011954 193195.000000 0 0 1
-26.718668 31.294795 9.809408 42.302197 -0.864116 1.336777 0.099020 -0.024479 22404.800000 0 0 1
-26.683818 29.892795 9.550808 41.192515 -0.842057 1.336809 0.120373 -0.020469 19524.700000 0 0 1
-26.041918 29.506295 8.147408 40.189342 -0.847685 1.366656 0.096148 -0.006153 -190047.000000 0 0 1
-24.646938 29.386495 8.245008 39.230317 -0.872890 1.359048 0.069854 -0.002866 -264391.000000 0 0 1
-24.094738 29.165295 6.978908 38.469156 -0.880316 1.388371 0.044450 -0.000637 -157857.000000 0 0 1
-22.855338 28.251395 7.047208 37.015820 -0.890593 1.379243 0.083441 0.000612 -311337.000000 0 0 1
-23.097038 26.898295 7.292308 36.196260 -0.861284 1.367942 0.080005 -0.011783 511099.000000 0 0 1
-23.781838 26.182895 6.220208 35.913936 -0.833416 1.396721 0.069201 -0.013305 16472.500000 0 0 1
-24.026838 24.684495 6.571208 35.068419 -0.798898 1.382300 0.091833 -0.007503 598907.000000 0 0 1
-25.226608 24.514395 7.382008 35.942056 -0.771081 1.363938 0.108227 -0.019265 1225760.000000 0 0 1
-25.558178 23.161895 7.707208 35.342537 -0.736253 1.350958 0.114016 -0.029889 -23137.800000 0 0 1
-26.035808 22.294995 6.520908 34.892010 -0.708152 1.382803 0.105539 -0.038592 -574336.000000 0 0 1
-27.361198 22.611995 6.153608 36.025052 -0.690648 1.399140 0.115525 -0.044824 19950.300000 0 0 1
-27.702498 22.150195 4.877708 35.802955 -0.674481 1.434134 0.104314 -0.041686 -87424.700000 0 0 1
-27.389528 23.123895 3.719508 36.037973 -0.701153 1.467401 0.089693 -0.048940 -599790.000000 0 0 1
-26.000658 23.248795 3.607108 35.064967 -0.729580 1.467745 0.091792 -0.047828 -271426.000000 0 0 1
-25.664408 24.090595 2.513208 35.289302 -0.753777 1.499519 0.068911 -0.043722 -207287.000000 0 0 1
-24.234938 24.623895 2.633608 34.649738 -0.793359 1.494716 0.063845 -0.030697 -283234.000000 0 0 1
-23.806538 25.308995 1.484108 34.777853 -0.815979 1.528109 0.041025 -0.031253 1092710.000000 0 0 1
-22.523338 25.997195 1.621308 34.435208 -0.856872 1.523696 0.048593 -0.027536 725746.000000 0 0 1
-22.136038 26.598895 0.217108 34.605672 -0.876718 1.564523 0.051554 -0.020527 -5801.130000 0 0 1
-21.715638 25.744095 -0.829992 33.690002 -0.870077 1.595435 0.049820 -0.021359 30488.700000 0 0 1
-20.630438 24.891095 -0.582792 32.334521 -0.878723 1.588821 0.049547 -0.029442 -491521.000000 0 0 1
-20.152638 24.015195 -1.780392 31.401086 -0.872628 1.627525 0.055310 -0.034898 56928.100000 0 0 1
-21.123338 23.019495 -2.110892 31.313710 -0.828327 1.638259 0.051060 -0.033141 341182.000000 0 0 1
-20.680138 21.959095 -2.933592 30.306368 -0.815384 1.667746 0.049092 -0.027644 -114516.000000 0 0 1
-21.864138 21.357395 -3.721592 30.790081 -0.773674 1.691962 0.047119 -0.024803 192499.000000 0 0 1
-22.321738 22.135795 -4.810692 31.802456 -0.781216 1.722647 0.038106 -0.015972 -566592.000000 0 0 1
-23.609638 21.817595 -5.229692 32.569497 -0.745970 1.732065 0.036221 -0.010063 -402499.000000 0 0 1
-24.039038 22.417595 -6.610692 33.527976 -0.750510 1.769266 0.045831 -0.001122 -421106.000000 0 0 1
-23.384238 21.899595 -7.731192 32.957339 -0.752625 1.807585 0.046030 -0.015319 -11494.000000 0 0 1
-23.339338 22.860595 -8.752892 33.822251 -0.775036 1.832567 0.048363 -0.017800 -401253.000000 0 0 1
-22.596438 22.413295 -10.000692 33.361185 -0.781329 1.875248 0.048454 -0.021001 -120500.000000 0 0 1
-23.377338 21.723295 -10.935992 33.734217 -0.748740 1.900942 0.028911 -0.016426 499483.000000 0 0 1
-22.467038 21.220795 -11.900192 33.116529 -0.756880 1.938360 0.045308 -0.015816 512836.000000 0 0 1
-23.199738 20.872195 -13.223792 33.893142 -0.732635 1.971603 0.041211 -0.022297 502573.000000 0 0 1
-24.106938 19.763795 -13.160092 33.836963 -0.686721 1.970262 0.047253 -0.016678 631606.000000 0 0 1
-25.261918 19.916695 -13.966592 35.070001 -0.667633 1.980403 0.052804 -0.025391 152749.000000 0 0 1
-26.069248 18.621295 -14.096592 35.001032 -0.620260 1.985313 0.085004 -0.034146 -258386.000000 0 0 1
-25.655498 17.787795 -15.111092 34.683647 -0.606237 2.021594 0.076366 -0.032642 79202.500000 0 0 1
-26.601738 16.755095 -15.297192 34.962691 -0.562079 2.023645 0.088654 -0.030676 90203.000000 0 0 1
-26.241678 15.946795 -16.528692 34.872964 -0.546054 2.064589 0.101594 -0.029961 606959.000000 0 0 1
-25.077238 15.139695 -16.303992 33.524594 -0.543152 2.078680 0.110275 -0.029881 402613.000000 0 0 1
-24.725638 14.635895 -17.589292 33.689016 -0.534466 2.120117 0.104434 -0.033834 -188985.000000 0 0 1
-23.971738 13.318195 -17.497392 32.529637 -0.507116 2.138729 0.100042 -0.030662 652562.000000 0 0 1
-22.569338 13.443395 -17.183792 31.390804 -0.537214 2.150068 0.107854 -0.041133 791692.000000 0 0 1
-21.992738 12.159895 -17.430292 30.583634 -0.505071 2.177208 0.115039 -0.026265 -259969.000000 0 0 1
-20.725338 11.879495 -16.618492 29.100452 -0.520471 2.178609 0.111070 -0.035630 -383437.000000 0 0 1
-19.746538 12.870095 -16.809992 28.950664 -0.577615 2.190314 0.102550 -0.032930 -176790.000000 0 0 1
-18.656138 12.643595 -15.948692 27.609288 -0.595614 2.186651 0.096408 -0.025181 221267.000000 0 0 1
-17.674438 13.859395 -15.771492 27.444645 -0.665001 2.182992 0.101493 -0.031893 324768.000000 0 0 1
-16.872338 14.117095 -16.917192 27.751749 -0.696722 2.226340 0.115412 -0.031552 -68446.900000 0 0 1
-16.149538 15.304895 -16.762492 27.857289 -0.758552 2.216458 0.107974 -0.021401 -147926.000000 0 0 1
-15.156338 15.487095 -17.921192 28.119990 -0.796191 2.261801 0.125258 -0.022045 215221.000000 0 0 1
-14.225138 14.448195 -18.112292 27.187498 -0.793177 2.299897 0.120548 -0.021422 391692.000000 0 0 1
-13.250138 14.604595 -19.177692 27.507167 -0.833986 2.342265 0.129713 -0.020609 838469.000000 0 0 1
-12.194238 13.524195 -19.382692 26.594963 -0.837064 2.387380 0.115140 -0.020838 -18694.400000 0 0 1
-12.679838 12.307195 -19.913892 26.623457 -0.770486 2.415814 0.129830 -0.020620 -166582.000000 0 0 1
-11.719238 11.259595 -19.797892 25.613972 -0.765398 2.454248 0.104375 -0.013867 110408.000000 0 0 1
-11.987838 10.016895 -20.629192 25.876824 -0.696068 2.493451 0.113443 -0.022958 -191834.000000 0 0 1
-11.470238 10.088895 -21.924292 26.721279 -0.721413 2.533048 0.116341 -0.031327 -369379.000000 0 0 1
-11.696038 8.901895 -22.628792 26.983389 -0.650570 2.565540 0.111628 -0.016774 62800.100000 0 0 1
-11.408438 8.778695 -24.172092 28.133752 -0.655859 2.604471 0.101433 -0.021648 125784.000000 0 0 1
-10.031538 8.827295 -24.498492 27.905717 -0.721629 2.642260 0.096456 -0.018686 -189999.000000 0 0 1
-9.774738 8.212695 -25.759502 28.749710 -0.698775 2.681456 0.064208 -0.032622 -210081.000000 0 0 1
-9.831838 9.294395 -26.913992 30.123310 -0.757306 2.675788 0.094469 -0.035968 777044.000000 0 0 1
-8.559538 9.910895 -27.229442 30.214799 -0.858431 2.693316 0.071343 -0.034860 901125.000000 0 0 1
-8.191938 11.013595 -26.389612 29.745903 -0.931274 2.661968 0.062027 -0.024677 -309562.000000 0 0 1
-6.713838 11.367395 -26.587062 29.684426 -1.037301 2.680702 0.055791 -0.026162 -261878.000000 0 0 1
-6.432038 11.882095 -27.880662 30.982037 -1.074640 2.690331 0.065821 -0.036772 354165.000000 0 0 1
-5.114738 12.410995 -27.958272 31.013841 -1.179891 2.693967 0.076396 -0.032306 133629.000000 0 0 1
-4.639538 12.702995 -29.413612 32.373631 -1.220617 2.710637 0.076384 -0.028169 -3359.120000 0 0 1
-3.251238 12.967895 -29.350142 32.251631 -1.325145 2.714167 0.102190 -0.041822 76438.000000 0 0 1
-2.682738 12.880395 -30.636842 33.342432 -1.365451 2.735964 0.107397 -0.040212 -310523.000000 0 0 1
-1.178538 12.622395 -30.665242 33.182388 -1.477697 2.749580 0.136193 -0.055320 -677708.000000 0 0 1
-0.811438 11.305495 -30.226282 32.281586 -1.499145 2.782830 0.119599 -0.034135 2208440.000000 0 0 1
0.624462 10.952195 -30.277172 32.203225 1.513841 2.793986 0.136181 -0.044783 2358500.000000 0 0 1
1.254862 10.667195 -31.665692 33.437700 1.453697 2.814579 0.145224 -0.041861 -269618.000000 0 0 1
1.306462 11.803595 -32.492722 34.594923 1.460562 2.791188 0.149323 -0.051190 30379.100000 0 0 1
1.432362 11.371395 -33.853062 35.740595 1.445494 2.815147 0.161976 -0.049829 119792.000000 0 0 1
2.011362 12.476695 33.166025 35.492235 1.410962 0.364061 0.150706 -0.051894 546312.000000 0 0 1
3.434462 12.562395 33.235152 35.695723 1.303925 0.373467 0.164404 -0.054299 220255.000000 0 0 1
3.890462 13.562295 32.325634 35.270642 1.291439 0.411548 0.150853 -0.044788 -287498.000000 0 0 1
5.376362 13.371895 32.027961 35.121264 1.188512 0.422845 0.152616 -0.045143 -558831.000000 0 0 1
5.719362 12.093395 31.486774 34.210792 1.129036 0.401757 0.172594 -0.052618 -157539.000000 0 0 1
7.118662 11.937395 31.511384 34.440443 1.033078 0.415405 0.156245 -0.036695 141969.000000 0 0 1
7.703962 10.687895 30.779444 33.480686 0.946239 0.404449 0.133451 -0.023145 65445.800000 0 0 1
7.655362 10.804095 29.342854 32.192175 0.954348 0.423904 0.132049 -0.027111 150951.000000 0 0 1
8.480462 9.810895 28.764984 31.553070 0.858006 0.423544 0.112482 -0.020482 158163.000000 0 0 1
7.705662 8.930995 27.783174 30.183517 0.858918 0.401502 0.095881 -0.014276 259793.000000 0 0 1
6.942162 7.882495 28.417054 30.296144 0.848744 0.354051 0.105037 -0.020594 -10097.800000 0 0 1
6.208062 7.242195 27.425184 29.036704 0.862133 0.334725 0.109271 -0.026077 -214786.000000 0 0 1
5.385962 6.044195 27.957274 29.105843 0.842922 0.281866 0.125145 -0.035022 255074.000000 0 0 1
6.180162 4.947095 28.426414 29.508121 0.675033 0.271603 0.103535 -0.027335 -10078.400000 0 0 1
5.446062 4.154995 29.304694 30.094662 0.651729 0.229630 0.098361 -0.031558 -297306.000000 0 0 1
6.232462 2.966795 29.936024 30.721507 0.444283 0.226617 0.106586 -0.022647 99651.500000 0 0 1
6.284962 1.727695 29.197974 29.916674 0.268267 0.219637 0.097493 -0.019294 153385.000000 0 0 1
7.338362 1.538395 28.252284 29.230289 0.206645 0.259410 0.084560 -0.018980 227956.000000 0 0 1
7.409762 0.059395 27.739014 28.711688 0.008016 0.261038 0.071080 -0.015206 8215.650000 0 0 1
7.788262 -0.968805 28.661714 29.716822 -0.123757 0.267273 0.053293 -0.020980 140676.000000 0 0 1
7.920262 -2.193605 28.053694 29.232725 -0.270189 0.284979 0.058225 -0.018185 -275140.000000 0 0 1
8.462762 -3.380405 28.938904 30.339836 -0.380027 0.305072 0.056276 -0.011344 362356.000000 0 0 1
9.798962 -3.231105 29.375434 31.134801 -0.318513 0.337782 0.061607 -0.020473 -82710.300000 0 0 1
10.760862 -3.820305 28.521554 30.722466 -0.341139 0.380816 0.056500 -0.008606 -354842.000000 0 0 1
12.142062 -3.808405 29.217394 31.868319 -0.303936 0.410763 0.047561 -0.014931 156219.000000 0 0 1
13.079662 -4.731005 28.679844 31.874652 -0.347066 0.451555 0.057553 -0.018048 85881.600000 0 0 1
13.103562 -5.964105 29.375794 32.714082 -0.427130 0.455694 0.067354 -0.022327 -154529.000000 0 0 1
12.266562 -7.118105 28.726154 32.036353 -0.525797 0.458599 0.074315 -0.020070 331900.000000 0 0 1
10.870362 -6.954005 28.877104 31.629260 -0.569116 0.420250 0.063284 -0.015758 -374882.000000 0 0 1
10.208462 -8.043405 28.313214 31.153606 -0.667329 0.430335 0.061553 -0.016257 771045.000000 0 0 1
8.660162 -7.858105 28.111034 30.446321 -0.736880 0.394215 0.073357 -0.019949 645771.000000 0 0 1
8.028662 -7.764705 29.346994 31.400575 -0.768687 0.363662 0.089722 -0.017933 791126.000000 0 0 1
6.604062 -7.626505 29.110814 30.809361 -0.857123 0.333602 0.077420 -0.012635 1134190.000000 0 0 1
5.841862 -7.027305 30.300864 31.648898 -0.877254 0.292914 0.080169 -0.019838 -144074.000000 0 0 1
5.796862 -7.721505 31.564734 33.008449 -0.926820 0.296851 0.084808 -0.022915 -165778.000000 0 0 1
5.320762 -7.036205 32.704539 33.873376 -0.923340 0.263463 0.085212 -0.019339 -271124.000000 0 0 1
6.162662 -5.887405 33.265786 34.340246 -0.762559 0.250811 0.089742 -0.019620 -154992.000000 0 0 1
6.222962 -4.727205 32.407197 33.336139 -0.649642 0.236628 0.095269 -0.015194 5602.030000 0 0 1
6.839062 -3.590705 33.014201 33.905802 -0.483470 0.229837 0.075209 -0.007541 5867.500000 0 0 1
6.621962 -2.400805 32.078438 32.842662 -0.347813 0.216148 0.070617 -0.003303 1427590.000000 0 0 1
5.260762 -1.885805 31.912554 32.398194 -0.344197 0.173363 0.092825 -0.006682 1127940.000000 0 0 1
5.153962 -0.705705 31.199534 31.630243 -0.136078 0.165215 0.078139 -0.013035 -627771.000000 0 0 1
3.756862 -0.260805 30.798864 31.028246 -0.069310 0.121670 0.089771 -0.015678 -393973.000000 0 0 1
3.133262 0.340295 31.921134 32.076346 0.108183 0.098415 0.088295 -0.017524 -29557.300000 0 0 1
1.764362 0.664795 31.716804 31.772797 0.360340 0.059377 0.091501 -0.017469 504357.000000 0 0 1
1.023462 0.852695 33.055393 33.082224 0.694629 0.040278 0.082517 -0.019990 -15013.400000 0 0 1
1.515662 1.945195 33.787473 33.877343 0.908879 0.072856 0.083632 -0.014869 -138365.000000 0 0 1
0.591362 2.377995 -33.214792 33.305060 1.327059 3.067951 0.065984 -0.015720 -74689.900000 0 0 1
1.143562 3.526895 -32.353592 32.565344 1.257252 3.027492 0.075096 -0.015224 -72731.000000 0 0 1
2.338862 3.152795 -31.715462 31.957486 0.932540 3.018443 0.061794 0.000476 -229920.000000 0 0 1
2.903562 4.244595 -31.033642 31.456863 0.970848 2.977372 0.063770 -0.005963 -90842.900000 0 0 1
4.123862 3.907395 -30.160982 30.691348 0.758452 2.955417 0.068102 -0.006044 -57296.500000 0 0 1
3.767162 3.251295 -28.949682 29.374250 0.712029 2.971365 0.061755 -0.003311 -626060.000000 0 0 1
4.846462 2.994295 -28.141312 28.712148 0.553428 2.941855 0.056480 -0.007119 -1035530.000000 0 0 1
4.532862 2.236495 -26.786912 27.259630 0.458350 2.955090 0.057057 -0.005130 -119538.000000 0 0 1
4.400562 0.846695 -26.904382 27.275037 0.190083 2.976545 0.054699 -0.004457 431875.000000 0 0 1
3.908362 0.314595 -25.641762 25.939820 0.080320 2.989853 0.071794 -0.008817 42432.800000 0 0 1
4.135062 -1.219105 -25.551152 25.912282 -0.286699 2.974445 0.060091 -0.017233 -141458.000000 0 0 1
5.466562 -1.541605 -25.251992 25.882870 -0.274868 2.920351 0.056622 -0.020528 -405292.000000 0 0 1
5.682762 -2.904005 -25.097932 25.896587 -0.472425 2.892595 0.065815 -0.027397 -663493.000000 0 0 1
7.031662 -3.279205 -24.525992 25.723953 -0.436366 2.835208 0.066336 -0.034131 -65054.100000 0 0 1
8.167162 -2.840205 -25.275702 26.713862 -0.334677 2.811969 0.057853 -0.024273 409357.000000 0 0 1
9.330362 -3.492105 -24.761292 26.690299 -0.358133 2.759071 0.049216 -0.023234 372903.000000 0 0 1
-29.929868 -3.484505 17.766874 34.980003 0.115901 1.038034 0.128323 -0.036823 -87384.700000 0 0 1
-31.321658 -3.382205 17.972474 36.269759 0.107566 1.052360 0.096412 -0.006053 -198671.000000 0 0 1
-31.730648 -4.481605 18.778374 37.142242 0.140311 1.040742 0.089569 -0.014709 837774.000000 0 0 1
-33.265608 -4.538605 19.078574 38.615950 0.135598 1.054044 0.073621 -0.013966 701722.000000 0 0 1
-34.105703 -4.751405 17.953174 38.834151 0.138423 1.090205 0.061928 -0.014221 539395.000000 0 0 1
-35.451920 -4.741205 18.439674 40.241014 0.132947 1.094793 0.069983 -0.005937 225524.000000 0 0 1
-36.493048 -4.870805 17.338674 40.695171 0.132688 1.130661 0.042191 -0.008233 -399646.000000 0 0 1
36.205522 -4.916405 17.718674 40.607417 -0.134966 1.119268 0.068183 -0.010981 101104.000000 0 0 1
35.286442 -4.514305 16.683674 39.291945 -0.127242 1.132267 0.046611 -0.017671 13971.200000 0 0 1
33.884712 -5.068405 16.802974 38.160220 -0.148477 1.114834 0.051695 -0.014796 -598581.000000 0 0 1
33.130762 -4.642105 17.907574 37.945721 -0.139208 1.079322 0.082282 -0.021905 -274768.000000 0 0 1
32.007172 -5.450205 18.113474 37.178781 -0.168663 1.061917 0.136731 -0.030029 -468459.000000 0 0 1
31.300452 -5.093105 19.420874 37.186401 -0.161303 1.021300 0.145100 -0.017964 -306816.000000 0 0 1
30.433182 -3.959605 19.319174 36.264136 -0.129381 1.008967 0.151736 -0.022352 522421.000000 0 0 1
31.031762 -2.648605 19.280574 36.629577 -0.085145 1.016475 0.131963 -0.027606 520376.000000 0 0 1
29.865222 -1.611805 19.560874 35.737337 -0.053917 0.991600 0.144309 -0.015510 873626.000000 0 0 1
30.117812 -0.267705 19.196574 35.716421 -0.008888 1.003360 0.123854 -0.017751 -373718.000000 0 0 1
29.075652 0.535695 19.672674 35.109752 0.018422 0.976025 0.112901 -0.009728 -202576.000000 0 0 1
29.066602 2.005295 19.255374 34.923603 0.068881 0.986806 0.112205 -0.011086 -1578.020000 0 0 1
28.739572 2.240895 17.929574 33.947817 0.077815 1.014375 0.112417 -0.016913 -29537.900000 0 0 1
28.529572 3.611195 17.539074 33.683770 0.125908 1.023128 0.105086 -0.014902 192143.000000 0 0 1
28.450372 3.656895 15.953674 32.822497 0.127835 1.063222 0.106137 -0.017433 11628.400000 0 0 1
28.307672 4.983195 15.430174 32.622796 0.174252 1.078118 0.100772 -0.014035 86684.600000 0 0 1
27.847372 4.870595 14.130874 31.605070 0.173152 1.107267 0.092692 -0.010802 -429331.000000 0 0 1
27.251172 6.178095 13.563974 31.060854 0.222941 1.118880 0.090727 0.002198 47245.100000 0 0 1
26.075072 6.646895 14.214974 30.432813 0.249598 1.084795 0.071754 -0.003603 382168.000000 0 0 1
25.593472 7.829295 13.625774 30.033072 0.296870 1.099892 0.084696 -0.017569 521221.000000 0 0 1
24.192272 8.286295 14.203774 29.251939 0.329994 1.063785 0.083881 -0.024578 1333000.000000 0 0 1
23.021272 7.510395 13.910974 27.926694 0.315350 1.049362 0.093911 -0.020580 854704.000000 0 0 1
22.929072 6.164295 14.338874 27.737055 0.262632 1.027504 0.099379 -0.024685 -832764.000000 0 0 1
21.669972 5.345795 13.974174 26.333302 0.241862 1.011411 0.111088 -0.024426 -264076.000000 0 0 1
21.465672 5.363095 12.587774 25.455647 0.244833 1.053539 0.122920 -0.030298 586888.000000 0 0 1
20.361472 4.523695 12.297674 24.213347 0.218619 1.038065 0.120885 -0.027465 -215187.000000 0 1 0
20.082372 4.470495 10.788374 23.230928 0.219036 1.087843 0.127055 -0.033744 -160679.000000 0 1 0
21.044572 3.691995 10.105574 23.635302 0.173670 1.129001 0.139335 -0.035446 458350.000000 0 1 0
20.802272 3.634695 8.677374 22.830733 0.172980 1.180920 0.152291 -0.035129 -66800.300000 0 1 0
21.911572 2.957895 7.852274 23.463256 0.134181 1.229549 0.148691 -0.026292 -702662.000000 0 1 0
22.066972 1.555695 8.032274 23.534844 0.070382 1.222504 0.154538 -0.041262 478936.000000 0 1 0
22.981472 0.886395 7.199574 24.099121 0.038551 1.267415 0.154125 -0.030589 1687650.000000 0 1 0
24.560872 1.025095 7.467874 25.691563 0.041713 1.275865 0.144743 -0.019467 1737970.000000 0 0 1
25.154472 0.284995 8.543774 26.567363 0.011329 1.243389 0.121224 -0.008059 296758.000000 0 0 1
25.038472 0.928195 9.797574 26.903143 0.037054 1.198045 0.122916 -0.017359 -355311.000000 0 0 1
25.910672 0.261395 10.892774 28.108430 0.010088 1.172849 0.109954 -0.013514 -515601.000000 0 0 1
27.269872 0.525795 10.703274 29.299872 0.019279 1.196840 0.104136 -0.020130 -205878.000000 0 0 1
28.062472 -0.044905 11.735774 30.417639 -0.001600 1.174698 0.116685 -0.017256 -23920.500000 0 0 1
29.580052 0.164795 11.656774 31.794450 0.005571 1.195413 0.117582 -0.016308 48252.600000 0 0 1
30.018002 1.474895 12.067574 32.386450 0.049094 1.188974 0.112173 -0.008327 1144540.000000 0 0 1
31.390042 1.417895 12.523574 33.825805 0.045140 1.191532 0.109362 -0.018193 785365.000000 0 0 1
32.011632 2.738695 12.930774 34.633077 0.085345 1.188163 0.101178 -0.023511 -270580.000000 0 0 1
32.475692 3.495095 11.854474 34.747876 0.107209 1.222649 0.098090 -0.027319 254988.000000 0 0 1
33.151912 4.686895 12.271074 35.659439 0.140446 1.219496 0.088598 -0.026383 412896.000000 0 0 1
34.661242 4.667995 11.948774 36.958965 0.133869 1.241583 0.108394 -0.027199 386171.000000 0 0 1
35.493432 3.622895 12.513874 37.808811 0.101720 1.233457 0.107947 -0.036356 -171429.000000 0 0 1
36.828742 3.838295 12.207974 38.988760 0.103845 1.252325 0.113877 -0.026099 -1113180.000000 0 0 1
-36.312368 2.865195 12.940574 38.655606 -0.078741 1.229440 0.123264 -0.020145 -1023780.000000 0 0 1
-36.347328 1.476395 12.587274 38.493473 -0.040597 1.237672 0.117437 -0.016999 682330.000000 0 0 1
36.562692 0.687895 12.995074 38.809479 0.018812 1.229358 0.097629 -0.023839 548579.000000 0 0 1
36.160072 0.645295 14.507374 38.967052 0.017844 1.189312 0.102769 -0.014632 -378751.000000 0 0 1
-36.978218 -0.173305 15.186774 39.975702 0.004687 1.181108 0.098747 -0.015760 60915.700000 0 0 1
36.770542 -0.299805 16.573774 40.334262 -0.008153 1.147344 0.102030 -0.017232 -538074.000000 0 0 1
-36.196938 -1.054505 17.336374 40.148227 0.029124 1.124299 0.105986 -0.011756 -732856.000000 0 0 1
-34.996319 -0.326305 17.444274 39.104367 0.009324 1.108399 0.122920 -0.019782 636392.000000 0 0 1
-33.926828 -1.059705 18.105474 38.470259 0.031225 1.080785 0.119716 -0.019359 883101.000000 0 0 1
-34.018138 -0.959005 19.644174 39.294363 0.028184 1.047286 0.117048 -0.030558 -649168.000000 0 0 1
-34.922803 -1.885805 20.213674 40.394938 0.053947 1.046734 0.100287 -0.028873 -32333.200000 0 0 1
-35.041612 -1.740805 21.611074 41.206596 0.049637 1.018719 0.098318 -0.032431 196112.000000 0 0 1
-35.701522 -2.945205 22.364774 42.230984 0.082309 1.012688 0.073206 -0.025371 63115.600000 0 0 1
-34.897739 -4.120105 22.329374 41.634462 0.117518 1.004726 0.082211 -0.025983 -86853.700000 0 0 1
-35.259146 -5.179905 23.168344 42.506599 0.145866 0.994344 0.067695 -0.024199 -185892.000000 0 0 1
-35.196261 -4.937505 24.689084 43.274780 0.139375 0.963659 0.075331 -0.028697 802308.000000 0 0 1
-33.868738 -4.605105 25.104764 42.409287 0.135140 0.937303 0.077641 -0.029847 274323.000000 0 0 1
-33.940738 -4.609305 26.517864 43.317623 0.134979 0.911991 0.068527 -0.027667 435219.000000 0 0 1
-32.798088 -3.787205 27.189334 42.770520 0.114961 0.881878 0.069984 -0.022662 270469.000000 0 0 1
-32.904328 -2.422505 26.980374 42.620464 0.073490 0.885325 0.076219 -0.026051 -130122.000000 0 0 1
-32.363388 -2.000105 25.725214 41.390530 0.061723 0.900110 0.086226 -0.032206 -127904.000000 0 0 1
-32.384248 -0.448505 25.676554 41.330692 0.013849 0.900464 0.099417 -0.035511 241108.000000 0 0 1
-33.691558 0.007695 25.408064 42.198233 -0.000228 0.924653 0.103782 -0.034054 118725.000000 0 0 1
-33.574088 1.409095 25.139544 41.966673 -0.041945 0.928500 0.118074 -0.024978 -120418.000000 0 0 1
-34.905284 1.945195 24.615754 42.756263 -0.055670 0.957308 0.122871 -0.024208 -235396.000000 0 0 1
-35.227330 1.531995 23.307484 42.267607 -0.043461 0.986723 0.150870 -0.021840 555859.000000 0 0 1
-36.360308 2.252695 22.735974 42.942650 -0.061876 1.012845 0.140083 -0.012768 1030540.000000 0 0 1
-36.128088 3.718595 22.152874 42.541938 -0.102567 1.023090 0.133832 -0.007250 -193315.000000 0 0 1
-35.543453 3.710395 20.862674 41.380614 -0.104014 1.042381 0.134017 -0.014935 -223407.000000 0 0 1
-36.405858 3.321995 19.811774 41.580386 -0.090997 1.074162 0.140050 -0.023946 9235.810000 0 0 1
-35.683777 2.761595 18.564274 40.318614 -0.077237 1.092306 0.149862 -0.026233 244421.000000 0 0 1
-34.718892 3.621995 17.963674 39.258297 -0.103947 1.095529 0.143304 -0.033184 413915.000000 0 0 1
-34.346656 3.030795 16.730574 38.324804 -0.088013 1.119039 0.158806 -0.021068 246110.000000 0 0 1
-33.428248 3.889395 15.788974 37.173470 -0.115830 1.132124 0.154813 -0.015580 351030.000000 0 0 1
-34.139239 4.937495 15.178574 37.686279 -0.143632 1.156265 0.147606 -0.017027 -404853.000000 0 0 1
-33.299018 5.945395 14.795774 36.920012 -0.176684 1.158459 0.159152 -0.017424 -774535.000000 0 0 1
-33.902578 6.928195 13.735574 37.229702 -0.201580 1.192927 0.160406 -0.028702 901853.000000 0 0 1
-32.881648 7.589095 12.929374 36.138150 -0.226828 1.204911 0.179770 -0.030241 1091310.000000 0 0 1
-33.481768 8.626895 12.146774 36.646913 -0.252175 1.232952 0.154051 -0.032227 151229.000000 0 0 1
-32.446378 9.336195 11.241974 35.585305 -0.280174 1.249374 0.184683 -0.033326 559544.000000 0 0 1
-33.017558 10.553395 10.812774 36.310458 -0.309367 1.268423 0.157792 -0.011276 484093.000000 0 0 1
-31.945398 11.329395 10.324774 35.432536 -0.340810 1.275114 0.163559 -0.036360 202512.000000 0 0 1
-32.381488 12.821095 10.118774 36.267490 -0.377001 1.288040 0.136580 -0.022257 -269652.000000 0 0 1
-31.471618 13.578295 9.371974 35.534022 -0.407318 1.303892 0.148936 -0.029033 -131260.000000 0 0 1
-31.610128 14.979595 9.561574 36.263096 -0.442539 1.303969 0.117343 -0.016888 81656.300000 0 0 1
-30.537658 15.813595 8.781074 35.492613 -0.477817 1.320795 0.112546 -0.010949 193375.000000 0 0 1
-29.230638 15.513295 9.233374 34.356189 -0.487921 1.298697 0.132496 -0.007660 153193.000000 0 0 1
-28.316078 16.262795 8.446574 33.728673 -0.521331 1.317675 0.115664 -0.020853 -14314.600000 0 0 1
-26.836258 16.272095 8.891174 32.619301 -0.545074 1.294729 0.124381 -0.016271 -116909.000000 0 0 1
-26.565108 16.983595 10.114574 33.112718 -0.568830 1.260376 0.116086 -0.017176 175282.000000 0 0 1
-26.943028 18.347095 10.249174 34.169990 -0.597832 1.266160 0.112423 -0.024100 -302437.000000 0 0 1
-26.817268 18.899995 11.740674 34.845647 -0.613920 1.227138 0.113991 -0.013642 213847.000000 0 0 1
-25.517888 18.822195 12.303274 34.011883 -0.635523 1.200669 0.103412 -0.012070 240250.000000 0 0 1
-25.493428 19.343095 13.579774 34.763206 -0.649077 1.169473 0.105155 -0.013264 140573.000000 0 0 1
-25.925348 18.410895 14.790074 35.068947 -0.617506 1.135430 0.095178 -0.012678 414034.000000 0 0 1
-24.986338 17.363195 15.069474 33.954185 -0.607300 1.110942 0.093429 -0.015498 465373.000000 0 0 1
-25.461128 16.550995 16.119974 34.381071 -0.576410 1.082794 0.101701 -0.011975 -382334.000000 0 0 1
-24.475338 15.461595 16.444874 33.294699 -0.563418 1.054206 0.092646 -0.013338 -159815.000000 0 0 1
-23.367338 15.888695 17.210574 33.086054 -0.597145 1.023739 0.085256 -0.006584 572602.000000 0 0 1
-22.355638 14.931095 17.575674 32.118787 -0.588849 0.991771 0.074490 -0.012484 643053.000000 0 0 1
-22.798638 13.804895 18.557274 32.476537 -0.544464 0.962579 0.080599 -0.013658 -423793.000000 0 0 1
-22.986938 14.217495 19.873874 33.548582 -0.553914 0.936773 0.084181 -0.011680 236796.000000 0 0 1
-23.222138 13.090195 20.762574 33.789131 -0.513297 0.909076 0.084191 -0.013850 -318968.000000 0 0 1
-22.743838 13.291595 22.259674 34.488285 -0.528873 0.869214 0.081402 -0.004281 155768.000000 0 0 1
-21.361938 13.539695 22.411174 33.792255 -0.564919 0.845704 0.082069 -0.001706 226065.000000 0 0 1
-20.945438 14.892595 22.231374 33.981389 -0.618083 0.857643 0.062384 0.000354 -786580.000000 0 0 1
-19.430938 15.027295 22.422974 33.259145 -0.658291 0.830929 0.053507 -0.004720 232988.000000 0 0 1
-18.558638 14.448395 21.423174 31.814015 -0.661510 0.832014 0.035858 -0.005594 334481.000000 0 0 1
-18.365238 15.321095 20.334674 31.392944 -0.695276 0.866173 0.046491 -0.010201 -631242.000000 0 0 1
-17.107938 14.824495 19.544374 29.907019 -0.714011 0.858591 0.033190 -0.005142 454932.000000 0 0 1
-15.895838 14.643395 20.221774 29.597751 -0.744410 0.818633 0.026566 -0.002949 -116649.000000 0 0 1
-15.259038 15.838895 20.630874 30.155295 -0.804042 0.817353 0.018502 -0.008227 -1170600.000000 0 0 1
-14.093338 15.524995 21.543474 30.062750 -0.833697 0.771857 0.008180 -0.001383 -466161.000000 0 0 1
-13.027538 14.756595 21.022174 28.799404 -0.847550 0.752545 0.010100 -0.006957 179727.000000 0 0 1
-12.068638 14.565195 22.066674 29.064326 -0.878861 0.708658 0.036489 0.000411 176335.000000 0 0 1
-10.900438 13.641495 21.683974 27.840702 -0.896626 0.677952 0.027779 -0.000685 -655451.000000 0 0 1
-10.316638 13.173395 22.898574 28.360467 -0.906420 0.631044 0.040765 -0.005712 -144340.000000 0 0 1
-9.112638 12.452395 22.790974 27.523278 -0.939047 0.595155 0.056064 0.007741 471115.000000 0 0 1
-7.841738 13.367195 22.761674 27.536677 -1.040258 0.597766 0.048929 0.015766 -179632.000000 0 0 1
-7.659138 13.959495 21.523774 26.773173 -1.068976 0.636921 0.043529 0.009756 -555098.000000 0 0 1
-6.754238 15.016395 21.556774 27.125751 -1.148116 0.652287 0.044475 0.009484 -538544.000000 0 0 1
-7.243438 16.330095 22.172774 28.474047 -1.153308 0.678203 0.037666 0.008674 644888.000000 0 0 1
-8.406438 16.760395 21.431874 28.476381 -1.105897 0.718765 0.010125 0.003721 479633.000000 0 0 1
-8.114838 17.879095 20.638274 28.485979 -1.144726 0.760478 0.024826 0.003646 -810736.000000 0 0 1
-9.276838 17.955795 19.605974 28.157850 -1.093919 0.800583 0.033647 0.006541 1038680.000000 0 0 1
-10.376438 18.766995 19.992874 29.318690 -1.065723 0.820418 0.004950 0.011300 -232237.000000 0 0 1
-11.242938 18.311695 20.989974 30.038323 -1.020164 0.797115 0.006068 0.010263 -455030.000000 0 0 1
-12.581038 19.138095 20.946174 31.036937 -0.989249 0.829996 0.000884 0.004976 367828.000000 0 0 1
-13.319738 18.656895 19.841874 30.318231 -0.950782 0.857337 0.013841 0.007041 184542.000000 0 0 1
-14.574938 19.331595 19.761774 31.251674 -0.924776 0.886223 0.006303 -0.001980 621374.000000 0 0 1
-15.284538 19.278895 18.357674 30.696858 -0.900454 0.929754 0.020093 -0.000342 -26916.300000 0 0 1
-15.961238 18.081295 18.135674 30.176100 -0.847595 0.926051 0.034597 0.000286 -207849.000000 0 0 1
-16.513838 18.150095 16.844974 29.763837 -0.832567 0.969206 0.046257 -0.011807 -939554.000000 0 0 1
-17.468138 16.971395 16.526174 29.432610 -0.770976 0.974609 0.041281 -0.016605 812261.000000 0 0 1
-18.661438 16.826795 17.300074 30.507096 -0.733747 0.967836 0.046089 -0.019718 844090.000000 0 0 1
-19.614038 17.891495 17.237874 31.653758 -0.739503 0.994913 0.062710 -0.019869 -512881.000000 0 0 1
35.268002 -9.395505 11.752108 38.343442 -0.260356 1.259287 0.051869 -0.014614 1166850.000000 0 0 1
33.949542 -9.974005 11.534408 37.216861 -0.285749 1.255683 0.080421 -0.014947 1175010.000000 0 0 1
33.689142 -10.951205 12.493808 37.563046 -0.314292 1.231728 0.061824 -0.012349 -377096.000000 0 0 1
32.259942 -11.510205 12.429708 36.437430 -0.342716 1.222683 0.099330 -0.008668 -308819.000000 0 0 1
31.231642 -10.550305 12.676408 35.318773 -0.325773 1.203692 0.106422 -0.010083 709370.000000 0 0 1
29.888542 -10.987805 12.652408 34.265730 -0.352290 1.192601 0.108194 -0.005788 325153.000000 0 0 1
29.453612 -11.886305 13.797208 34.628925 -0.383572 1.160992 0.106909 -0.005333 -1351180.000000 0 0 1
29.543682 -11.282605 15.067608 35.030831 -0.364802 1.126166 0.127658 -0.014158 -44406.000000 0 0 1
28.646072 -11.741205 16.027608 34.861692 -0.388987 1.093084 0.135763 -0.024721 553618.000000 0 0 1
27.136272 -11.355005 15.892908 33.434981 -0.396304 1.075448 0.139933 -0.031112 395400.000000 0 0 1
26.773472 -10.027705 16.175708 32.848550 -0.358366 1.055913 0.124131 -0.025817 -303100.000000 0 0 1
25.506172 -9.673805 15.670208 31.459541 -0.362512 1.049382 0.159751 -0.028592 118918.000000 0 0 1
25.136972 -8.231905 16.090508 30.960234 -0.316475 1.024279 0.184313 -0.033404 519315.000000 0 0 1
26.021072 -7.270905 15.458708 31.127703 -0.272474 1.051094 0.174369 -0.031029 297092.000000 0 0 1
26.179472 -6.086705 16.218808 31.392077 -0.228441 1.027859 0.170231 -0.037467 -12597.300000 0 0 1
27.572672 -5.430405 16.187208 32.430961 -0.194460 1.048204 0.170251 -0.036060 -37644.300000 0 0 1
27.942872 -4.899505 14.951208 32.067864 -0.173576 1.085765 0.168262 -0.038344 -339779.000000 0 0 1
29.245872 -4.395905 14.922308 33.125825 -0.149192 1.103501 0.160385 -0.028507 -250535.000000 0 0 1
29.577132 -3.736005 13.544208 32.744619 -0.125649 1.144357 0.154520 -0.034619 35551.900000 0 0 1
29.954822 -4.595505 12.475008 32.772486 -0.152228 1.180292 0.137712 -0.042808 114694.000000 0 0 1
30.363382 -3.813005 11.401308 32.656758 -0.124925 1.214159 0.129798 -0.041350 -75224.600000 0 0 1
30.806202 -4.620805 10.133308 32.757562 -0.148886 1.256295 0.146588 -0.042485 -558656.000000 0 0 1
32.088832 -5.144305 10.148708 34.046341 -0.158962 1.268110 0.116306 -0.040062 -607352.000000 0 0 1
32.535092 -5.687505 8.927208 34.213667 -0.173063 1.306816 0.112695 -0.037365 140683.000000 0 0 1
33.908272 -6.394805 9.069008 35.677883 -0.186402 1.313785 0.092730 -0.026549 -30419.900000 0 0 1
34.990902 -5.492705 9.136308 36.578753 -0.155705 1.318353 0.086581 -0.026295 -217024.000000 0 0 1
36.173082 -6.273005 8.983208 37.796038 -0.171709 1.330824 0.083160 -0.028658 559655.000000 0 0 1
-36.601728 -5.437805 8.658608 38.002996 0.147488 1.340937 0.082975 -0.017066 94321.300000 0 0 1
-36.698988 -4.901405 7.378208 37.752847 0.132771 1.374096 0.090456 -0.025106 -843410.000000 0 0 1
-35.616073 -4.136505 7.019808 36.536188 0.115623 1.377461 0.101144 -0.012698 -841014.000000 0 0 1
-35.705249 -3.395505 5.662408 36.310565 0.094813 1.414213 0.110321 -0.028667 -123887.000000 0 0 1
-35.106339 -4.094305 4.589108 35.640963 0.116101 1.441679 0.109143 -0.031361 172998.000000 0 0 1
-35.218431 -3.300505 3.422608 35.537944 0.093442 1.474338 0.121125 -0.022720 349521.000000 0 0 1
-34.401987 -3.873205 2.190508 34.688568 0.112115 1.507606 0.134850 -0.024613 172047.000000 0 0 1
-34.818541 -5.160505 1.721108 35.240939 0.147140 1.521939 0.134995 -0.018858 143069.000000 0 0 1
-35.890552 -5.096805 0.778108 36.258993 0.141066 1.549335 0.126506 -0.016671 -10999.700000 0 0 1
-35.548690 -5.285605 -0.705992 35.946424 0.147605 1.590438 0.158842 -0.027852 -1299510.000000 0 0 1
-35.222064 -6.558705 -1.204992 35.847767 0.184102 1.604417 0.149280 -0.041295 1075780.000000 0 0 1
-34.127465 -6.501405 -2.149792 34.807668 0.188248 1.632598 0.150343 -0.040962 834990.000000 0 0 1
-32.737778 -5.960805 -1.720292 33.320455 0.180104 1.622448 0.134436 -0.044721 -809526.000000 0 0 1
-32.066178 -6.857505 -0.876492 32.802948 0.210681 1.597519 0.131837 -0.040218 942699.000000 0 0 1
-30.740008 -6.367005 -0.540292 31.397114 0.204236 1.588006 0.131829 -0.046601 419264.000000 0 0 1
-30.179128 -7.322005 0.465708 31.058145 0.238019 1.555801 0.129476 -0.039624 -699518.000000 0 0 1
-29.767188 -8.467905 -0.203292 30.948864 0.277150 1.577365 0.143292 -0.036416 326746.000000 0 0 1
-29.084068 -9.384905 0.621208 30.567063 0.312134 1.550472 0.143506 -0.032180 -200032.000000 0 0 1
-28.802798 -10.757405 0.019308 30.746110 0.357442 1.570168 0.129817 -0.029107 -307186.000000 0 0 1
-27.721958 -10.738905 -0.879592 29.742305 0.369579 1.600374 0.147305 -0.031337 75767.800000 0 0 1
-27.303678 -12.010905 -1.403492 29.861722 0.414424 1.617813 0.133420 -0.018468 13145.700000 0 0 1
-28.295858 -12.826505 -2.306292 31.152749 0.425595 1.644896 0.139829 -0.024247 -95502.800000 0 0 1
-29.356898 -13.414905 -1.614192 32.317066 0.428626 1.620766 0.155045 -0.034362 254571.000000 0 0 1
-30.028618 -14.423305 -2.376592 33.397572 0.447779 1.642017 0.130554 -0.036283 66666.400000 0 0 1
-31.028068 -15.314305 -1.587892 34.637990 0.458485 1.616655 0.110910 -0.024393 68537.400000 0 0 1
-30.473478 -16.400005 -0.882892 34.617517 0.493718 1.596303 0.074637 -0.016950 145131.000000 0 0 1
-31.449898 -16.918505 -0.010392 35.711790 0.493546 1.571087 0.080599 -0.007161 -44519.300000 0 0 1
-31.610838 -18.414405 -0.152892 36.583586 0.527478 1.574976 0.081889 -0.008862 -692135.000000 0 0 1
-30.545918 -19.176005 0.313708 36.067585 0.560593 1.562098 0.089133 -0.017529 -243104.000000 0 0 1
-30.650648 -20.557205 0.146008 36.906398 0.590786 1.566840 0.089054 -0.021670 -106196.000000 0 0 1
-31.526498 -21.244005 1.210308 38.035413 0.592956 1.538970 0.093175 -0.022197 60431.900000 0 0 1
-30.784938 -21.627805 2.384308 37.698266 0.612432 1.507507 0.094419 -0.028140 1108830.000000 0 0 1
-31.694988 -21.774805 3.522608 38.615064 0.601955 1.479446 0.087518 -0.031865 624714.000000 0 0 1
-30.937118 -22.051205 4.826808 38.296984 0.619248 1.444424 0.075076 -0.022432 -472241.000000 0 0 1
-30.097128 -20.995605 5.110808 37.050950 0.609110 1.432415 0.071679 -0.023217 -432557.000000 0 0 1
-29.635088 -21.047305 6.456108 36.917595 0.617549 1.395014 0.069020 -0.025007 59515.400000 0 0 1
-28.882198 -19.735105 6.803408 35.636246 0.599427 1.378705 0.074438 -0.021622 239516.000000 0 0 1
-28.208618 -19.868405 8.067708 35.433988 0.613632 1.341099 0.065818 -0.022408 -214382.000000 0 0 1
-27.699598 -18.638405 8.465408 34.443010 0.592289 1.322472 0.076584 -0.023135 324544.000000 0 0 1
-26.609748 -18.692105 9.596208 33.905172 0.612371 1.283844 0.083984 -0.015528 153496.000000 0 0 1
-27.050088 -19.315805 10.831508 34.958963 0.620110 1.255777 0.069704 -0.017353 194884.000000 0 0 1
-26.076468 -19.559305 11.864608 34.688867 0.643549 1.221721 0.070806 -0.015161 141764.000000 0 0 1
-25.750228 -18.373905 12.774908 34.115581 0.619758 1.186982 0.067962 -0.021483 -759692.000000 0 0 1
-25.000838 -17.385805 12.099108 32.767308 0.607638 1.192602 0.070443 -0.013882 -705.397000 0 0 1
-24.704838 -16.208005 12.869108 32.227975 0.580628 1.160027 0.073996 -0.007491 346261.000000 0 0 1
-23.866238 -16.442405 14.176908 32.263519 0.603264 1.115855 0.071873 -0.017500 -151345.000000 0 0 1
-24.591038 -17.181705 15.163708 33.613511 0.609851 1.102777 0.066694 -0.024815 -62521.600000 0 0 1
-23.802138 -17.411405 16.270608 33.681322 0.631559 1.066633 0.080971 -0.025081 -132568.000000 0 0 1
-24.630638 -18.009205 17.449208 35.149319 0.631341 1.051314 0.085016 -0.017112 -65844.100000 0 0 1
-25.535218 -17.051605 17.917808 35.550702 0.588765 1.042564 0.100046 -0.023868 -517594.000000 0 0 1
-26.460888 -17.672205 18.751508 36.933785 0.588829 1.038276 0.077633 -0.010357 -463363.000000 0 0 1
-27.400528 -16.665605 19.461108 37.513544 0.546443 1.025378 0.072819 -0.014937 229772.000000 0 0 1
-26.660198 -15.926805 20.422208 37.168479 0.538506 0.989091 0.090367 -0.016753 436756.000000 0 0 1
-27.515378 -15.089905 21.169108 37.854093 0.501627 0.977341 0.088735 -0.018878 116069.000000 0 0 1
-26.760918 -14.364705 22.290608 37.674430 0.492636 0.937675 0.091810 -0.017012 200625.000000 0 0 1
-25.835958 -13.363005 21.886108 36.401488 0.477333 0.925742 0.097622 -0.017605 617199.000000 0 0 1
-24.609138 -13.507305 22.595808 36.036474 0.501978 0.893067 0.096335 -0.020762 571205.000000 0 0 1
-23.388538 -12.720905 22.037108 34.561239 0.498144 0.879385 0.107498 -0.024449 145195.000000 0 0 1
-23.602538 -11.368505 21.981408 34.198026 0.448872 0.872690 0.116426 -0.021309 165110.000000 0 0 1
-22.576538 -10.727005 21.252708 32.809241 0.443562 0.866148 0.107750 -0.027752 -408916.000000 0 0 1
-22.460138 -9.240505 21.578808 32.488300 0.390311 0.844370 0.106093 -0.027304 36240.400000 0 0 1
-21.910338 -8.977605 22.862008 32.914004 0.388877 0.802935 0.093695 -0.024476 1012930.000000 0 0 1
-20.502438 -9.235705 23.047008 32.199577 0.423244 0.773092 0.065410 -0.009322 707316.000000 0 0 1
-20.158338 -9.386005 24.533708 33.111304 0.435762 0.736318 0.041620 -0.021703 9789.050000 0 0 1
-20.301138 -10.721705 24.981308 33.928703 0.485900 0.743228 0.055789 -0.014509 -200481.000000 0 0 1
-19.675438 -11.008005 26.188608 34.556363 0.510092 0.710782 0.056528 -0.017390 -873746.000000 0 0 1
-19.920138 -12.452005 26.638408 35.517166 0.558669 0.722712 0.060401 -0.024300 49440.300000 0 0 1
-21.093038 -12.761405 27.351308 36.822055 0.544092 0.733558 0.064715 -0.019741 -729557.000000 0 0 1
-22.120738 -13.263805 26.521408 36.995143 0.540132 0.771467 0.061955 -0.013046 -609316.000000 0 0 1
-23.269338 -13.656005 27.436608 38.480073 0.530707 0.777017 0.058691 -0.009487 -742776.000000 0 0 1
-23.254938 -14.796805 28.331008 39.526998 0.566674 0.771665 0.055357 -0.007377 -659677.000000 0 0 1
-22.375638 -14.671405 29.408008 39.758649 0.580362 0.738227 0.047858 -0.006656 -162576.000000 0 0 1
-22.678638 -15.629705 30.642008 41.201225 0.603428 0.732184 0.039814 -0.008496 -468881.000000 0 0 1
-22.324538 -16.978505 30.419308 41.376187 0.650207 0.744851 0.042044 -0.010595 -72157.200000 0 0 1
-22.634538 -17.830305 31.504008 42.693613 0.667225 0.740829 0.048377 -0.008490 256422.000000 0 0 1
-24.080638 -18.033105 32.056808 43.962585 0.642773 0.753668 0.059780 -0.011225 265408.000000 0 0 1
-24.597438 -17.019605 32.886508 44.454733 0.605287 0.738060 0.062910 -0.012368 -390319.000000 0 0 1
-25.844608 -17.419605 33.382608 45.670394 0.593071 0.751089 0.070409 -0.020773 -521504.000000 0 0 1
-26.700728 -16.406305 -33.860859 46.137333 0.550978 2.394864 0.057468 -0.019171 -35581.100000 0 0 1
-26.196168 -16.019905 -32.588659 44.776079 0.548859 2.385925 0.061903 -0.024520 186896.000000 0 0 1
-27.144518 -15.110705 -32.039259 44.628156 0.507954 2.371600 0.057988 -0.008750 -48135.200000 0 0 1
-26.742518 -14.567105 -30.704959 43.245315 0.498778 2.360320 0.054429 -0.003017 -306267.000000 0 0 1
-26.987318 -15.400505 -29.566459 42.891332 0.518564 2.331366 0.063526 -0.000299 188854.000000 0 0 1
-26.435078 -14.766705 -28.447859 41.546956 0.509424 2.325010 0.063886 0.004395 -126727.000000 0 0 1
-26.630218 -15.515205 -27.086859 41.031549 0.527539 2.291811 0.085160 -0.003268 452780.000000 0 0 1
-27.887368 -15.274605 -26.439559 41.352982 0.501095 2.264466 0.083093 -0.005085 524176.000000 0 0 1
-27.960258 -14.305705 -25.388059 40.385427 0.472920 2.250605 0.081157 0.001543 -184308.000000 0 0 1
-26.973468 -14.402405 -24.171859 38.977891 0.490435 2.239721 0.093986 -0.019424 76407.800000 0 0 1
-25.709018 -13.788205 -24.442359 38.059126 0.492278 2.268188 0.089234 -0.021507 1533440.000000 0 0 1
-24.646938 -13.968205 -23.464959 36.785684 0.515598 2.262542 0.087775 -0.022904 951107.000000 0 0 1
-24.073738 -15.441605 -23.579959 37.067539 0.570327 2.260275 0.085109 -0.020389 -948629.000000 0 0 1
-23.254538 -15.574805 -24.717859 37.340603 0.590136 2.294222 0.089055 -0.009963 49218.400000 0 0 1
-22.776038 -16.892205 -24.889759 37.730552 0.638146 2.291178 0.096384 -0.015982 343771.000000 0 0 1
-21.921638 -16.950805 -26.232959 38.158303 0.658213 2.328806 0.080073 -0.007677 573972.000000 0 0 1
-22.680138 -16.945905 -27.458659 39.440211 0.641687 2.340900 0.087993 -0.007040 357099.000000 0 0 1
-23.479738 -18.114305 -27.535459 40.467612 0.657111 2.319148 0.097398 -0.013349 11751.400000 0 0 1
-24.194038 -18.345605 -28.909459 41.924569 0.648773 2.331676 0.092819 -0.014011 400601.000000 0 0 1
-23.304338 -18.828205 -29.932659 42.350413 0.679556 2.355740 0.090354 -0.007736 636221.000000 0 0 1
-23.970538 -18.803905 -31.163659 43.581500 0.665193 2.367515 0.081825 -0.005244 -364524.000000 0 0 1
-23.091438 -19.143105 -32.403459 44.154922 0.692183 2.394781 0.082935 -0.012274 -767400.000000 0 0 1
-22.088538 -18.227705 -32.739359 43.497337 0.689926 2.422912 0.075357 -0.008831 599836.000000 0 0 1
-20.756138 -18.623005 -32.399759 42.747841 0.731282 2.430926 0.071785 -0.014472 567514.000000 0 0 1
-20.091638 -19.829305 -33.137559 43.531288 0.778827 2.436012 0.066444 -0.009634 -767138.000000 0 0 1
-19.805538 -19.614805 33.467408 43.555336 0.780560 0.694477 0.065375 -0.006861 325200.000000 0 0 1
-19.471738 -20.756205 32.693908 43.345821 0.817317 0.716274 0.072629 -0.013955 -237178.000000 0 0 1
-20.713538 -21.313405 31.969108 43.650151 0.799671 0.748965 0.074934 -0.019890 341280.000000 0 0 1
-21.748638 -21.870505 32.801208 45.024898 0.788192 0.754648 0.078148 -0.018676 884043.000000 0 0 1
-22.871638 -22.362505 32.056508 45.285904 0.774143 0.784319 0.084152 -0.017555 466597.000000 0 0 1
-22.579638 -23.624905 31.132308 45.135316 0.808017 0.809646 0.095699 -0.017466 -558336.000000 0 0 1
-22.215438 -24.812305 31.800408 46.048258 0.840562 0.808494 0.107471 -0.014113 74360.500000 0 0 1
-22.054638 -25.870045 30.893408 45.935486 0.864843 0.833162 0.122832 -0.005373 -189848.000000 0 0 1
-21.706638 -27.191885 31.589708 46.994535 0.897107 0.833621 0.114819 -0.017732 -152550.000000 0 0 1
-22.771938 -27.706945 32.364108 48.308088 0.882852 0.836652 0.106703 -0.016796 -35052.200000 0 0 1
-22.421038 -28.690935 33.315808 49.353984 0.907458 0.829780 0.110686 -0.030417 -971392.000000 0 0 1
-23.626538 -29.103155 -33.834259 50.497168 0.888889 2.305036 0.085195 -0.019627 -971695.000000 0 0 1
-24.574138 -29.913105 33.425108 51.146064 0.883072 0.858567 0.074260 -0.019984 1296890.000000 0 0 1
-25.694928 -29.090455 32.955408 50.917018 0.847298 0.866841 0.065159 -0.014794 767000.000000 0 0 1
-26.680268 -28.550945 -33.931159 51.752456 0.819255 2.285831 0.037358 -0.011231 -1117760.000000 0 0 1
-27.841348 -28.000305 33.486908 51.773842 0.788245 0.867426 0.040786 -0.013024 -189942.000000 0 0 1
-28.709808 -27.646065 -33.437059 52.024945 0.766525 2.268829 0.046326 -0.009383 -62301.200000 0 0 1
-29.924828 -26.774485 -33.831759 52.506726 0.729893 2.270946 0.040910 -0.012280 -423241.000000 0 0 1
-30.818858 -27.473155 33.390708 53.099111 0.728065 0.890739 0.026048 -0.010910 -1125070.000000 0 0 1
-32.035638 -26.817215 33.188408 53.356494 0.696960 0.899486 0.034322 -0.017762 -184281.000000 0 0 1
