# x y z rho theta phi s1 s2 stress_xx np intf bulk
-0.690601 -10.778599 -14.424985 18.020414 1.506812 2.498892 0.002417 0.000660 -786724.000000 1 0 0
2.061999 -13.491899 -13.126485 18.936415 -1.419137 2.336698 0.000623 0.003859 -175970.000000 1 0 0
2.195799 -11.179899 -14.708185 18.604902 -1.376859 2.482510 0.004703 0.000557 -206549.000000 1 0 0
-5.573901 -6.408599 -16.478685 18.538759 0.854946 2.665685 0.013909 0.000829 -857316.000000 1 0 0
4.447099 -14.189299 -11.610385 18.865682 -1.267081 2.233720 -0.004977 0.004959 273047.000000 1 0 0
13.993299 -10.745399 -8.000085 19.372078 -0.654857 1.996509 0.024271 -0.007809 393238.000000 1 0 0
7.125399 10.739001 -10.767585 16.793997 0.984985 2.266801 0.015095 -0.011977 -800259.000000 1 0 0
5.782999 -4.212999 -12.635985 14.521039 -0.629608 2.626373 -0.000203 0.001497 3033270.000000 1 0 0
13.594199 0.525401 -10.112785 16.951304 0.038630 2.210027 0.003359 0.005790 227820.000000 1 0 0
14.144499 4.886201 -10.332185 18.185045 0.332615 2.175076 -0.005600 -0.005336 -1331590.000000 1 0 0
4.031499 4.309301 -13.572885 14.800212 0.818692 2.731474 0.007142 0.000723 4086760.000000 1 0 0
10.376699 -4.969999 -13.755385 17.932858 -0.446672 2.445026 0.020883 0.001215 -1141440.000000 1 0 0
2.579999 -7.554199 -12.112285 14.506198 -1.241685 2.558880 -0.002178 0.000180 1357640.000000 1 0 0
-5.661001 -1.999099 -15.131185 16.278701 0.339465 2.763873 0.010378 -0.002781 -563598.000000 1 0 0
10.632999 0.114901 -9.640885 14.353416 0.010806 2.307269 0.010163 0.001703 1395470.000000 1 0 0
-1.633801 -9.570099 -16.902485 19.492309 1.401707 2.620220 0.021195 -0.007174 -489393.000000 1 0 0
8.579999 1.759601 -18.072585 20.083100 0.202277 2.690314 0.013939 0.002472 -336488.000000 1 0 0
16.281499 -6.108099 -8.868085 19.520221 -0.358907 2.042385 0.017480 0.006494 -1290080.000000 1 0 0
10.152499 7.450201 -9.903985 16.020851 0.633071 2.237239 0.002685 -0.005710 912400.000000 1 0 0
13.788199 -2.331399 -10.629585 17.565248 -0.167502 2.220749 0.020706 0.004664 14538.000000 1 0 0
7.305299 -1.786499 -13.645185 15.580438 -0.239841 2.637865 0.013312 -0.000455 571632.000000 1 0 0
-2.819701 6.667301 -13.791085 15.575546 -1.170693 2.658219 0.003865 0.002259 329921.000000 1 0 0
11.224199 1.808101 -13.980085 18.019286 0.159717 2.458842 0.013279 0.000500 707859.000000 1 0 0
-2.322801 10.754601 -12.844885 16.912951 -1.358082 2.433295 0.010079 -0.004257 -1014750.000000 1 0 0
2.827499 -1.073799 -15.268185 15.564873 -0.362946 2.946031 0.009587 -0.006144 822404.000000 1 0 0
-9.175701 0.515901 -15.219985 17.779415 -0.056166 2.598366 0.008645 0.000710 818457.000000 1 0 0
2.280399 -1.862799 -17.993285 18.232623 -0.684946 2.979385 0.017922 -0.013324 1103340.000000 1 0 0
1.036799 7.921601 -13.161385 15.396388 1.440654 2.596031 0.004988 -0.001172 -929862.000000 1 0 0
9.292199 -9.057799 -9.987185 16.374754 -0.772625 2.226748 0.012500 0.001929 1414880.000000 1 0 0
3.908999 7.295301 -13.540885 15.870011 1.078902 2.592958 -0.000477 -0.000089 2036960.000000 1 0 0
-2.661901 9.147701 -15.446485 18.148280 -1.287625 2.588924 0.001146 -0.001419 423035.000000 1 0 0
5.589699 -7.619099 -15.325585 18.004693 -0.937846 2.589063 0.000912 0.000387 203061.000000 1 0 0
4.210699 7.247901 -16.487085 18.495568 1.044499 2.671237 0.005832 -0.002503 -241682.000000 1 0 0
-0.266101 5.154301 -13.525285 14.476566 -1.519215 2.777054 0.007463 -0.005333 1730080.000000 1 0 0
8.778799 4.280801 -16.744285 19.384624 0.453702 2.613544 0.013345 -0.000007 -141222.000000 1 0 0
5.283799 0.253801 -14.311885 15.258211 0.047997 2.787551 0.008093 -0.001159 1307600.000000 1 0 0
6.280099 7.873301 -11.656185 15.404388 0.897493 2.429016 0.001256 -0.004379 -56098.000000 1 0 0
2.821199 -8.423299 -15.068285 17.491837 -1.247611 2.608908 0.002688 0.000341 1355990.000000 1 0 0
4.034099 11.476301 -13.806185 18.400820 1.232772 2.419316 0.004152 -0.008523 -691959.000000 1 0 0
0.594099 -4.504699 -13.793585 14.522681 -1.439669 2.823380 0.006753 -0.002196 1835590.000000 1 0 0
8.462899 0.026001 -11.564985 14.330744 0.003072 2.509860 0.006170 0.000763 -835259.000000 1 0 0
-0.950301 -4.963099 -16.317485 17.082030 1.381613 2.841276 0.012231 -0.010872 468195.000000 1 0 0
4.387799 0.883501 -11.652485 12.482538 0.198697 2.774857 0.004250 -0.001953 -109224.000000 1 0 0
-2.857901 -7.208399 -15.680085 17.492675 1.193338 2.682331 0.006859 -0.005435 2743260.000000 1 0 0
11.388299 -3.745999 -11.409785 16.550198 -0.317786 2.331463 0.019848 0.003019 503718.000000 1 0 0
6.479299 -7.129999 -12.555785 15.826116 -0.833175 2.487103 -0.001097 0.001857 -1424790.000000 1 0 0
3.445999 -4.030699 -14.683985 15.612202 -0.863442 2.795029 0.012501 -0.002610 3455660.000000 1 0 0
-0.617901 -1.536199 -18.339785 18.414381 1.188372 3.051552 0.017785 -0.012560 720676.000000 1 0 0
14.940399 2.812501 -8.434585 17.385854 0.186070 2.077320 -0.002931 0.000404 -1090830.000000 1 0 0
6.893899 4.278401 -14.411685 16.538659 0.555434 2.628833 0.004436 0.001224 3132640.000000 1 0 0
10.078499 -9.647499 -14.134285 19.860222 -0.763552 2.362695 0.020055 -0.003233 284237.000000 1 0 0
8.987199 -3.131099 -15.576485 18.253778 -0.335245 2.593134 0.017624 -0.003770 -382668.000000 1 0 0
-5.393701 -2.021899 -18.101685 18.996081 0.358651 2.833510 0.008501 0.004316 -1660970.000000 1 0 0
4.958799 -9.201099 -11.256885 15.361230 -1.076488 2.393241 -0.007351 0.003392 1446740.000000 1 0 0
-2.558901 4.048701 -17.284185 17.935524 -1.007158 2.871269 0.004527 0.005222 1540350.000000 1 0 0
9.517999 9.289001 -14.394585 19.598008 0.773223 2.395714 0.024778 -0.014672 -158610.000000 1 0 0
9.809499 9.929901 -11.558885 18.122832 0.791498 2.262445 0.012397 -0.013485 5560.730000 1 0 0
11.972399 -6.013999 -9.662585 16.518840 -0.465503 2.195606 0.024389 0.001234 285585.000000 1 0 0
8.192299 6.853801 -13.770585 17.427489 0.696672 2.481874 0.007833 -0.003271 352191.000000 1 0 0
3.998099 -4.191599 -17.493585 18.427692 -0.809021 2.821829 0.024687 -0.012913 737119.000000 1 0 0
9.414899 -7.465299 -12.429885 17.287946 -0.670411 2.373146 0.012558 -0.002078 1974950.000000 1 0 0
11.953299 -8.752599 -8.826585 17.245230 -0.632033 2.108107 0.024537 -0.000804 1431050.000000 1 0 0
-2.990601 -2.402299 -13.858085 14.379195 0.676740 2.871550 0.008680 -0.005370 -1775230.000000 1 0 0
-0.427001 6.199101 -17.539985 18.608123 -1.502024 2.801124 0.008295 -0.001234 867730.000000 1 0 0
1.081499 -8.461799 -17.530485 19.495887 -1.443676 2.688709 0.021865 -0.008515 1986190.000000 1 0 0
0.084699 8.692501 -15.948185 18.163462 1.561053 2.642541 0.002153 -0.000650 -586859.000000 1 0 0
1.700599 3.342901 -15.038585 15.499228 1.100197 2.897180 0.008770 -0.002733 1683850.000000 1 0 0
-2.009801 -0.377999 -15.842185 15.973635 0.185906 3.013214 0.010035 -0.005262 -43832.900000 1 0 0
14.063999 -4.319899 -8.444785 16.963844 -0.298013 2.091869 0.023873 0.002670 463949.000000 1 0 0
0.550399 0.620001 -14.658285 14.681712 0.844796 3.085094 0.005161 -0.006778 844527.000000 1 0 0
8.773499 2.807001 -12.541785 15.561167 0.309649 2.508103 0.005411 -0.000083 1774640.000000 1 0 0
5.866899 0.994001 -17.083285 18.089974 0.167831 2.806412 0.022818 -0.000422 142300.000000 1 0 0
15.255999 1.445201 -12.405185 19.716053 0.094448 2.251310 0.006421 -0.000921 -76690.100000 1 0 0
8.693699 -11.235799 -12.056085 18.632573 -0.912268 2.274497 0.015453 0.000954 1111440.000000 1 0 0
-4.641401 0.793201 -15.147385 15.862378 -0.169262 2.840204 0.010795 -0.003619 1164710.000000 1 0 0
2.324999 5.137101 -17.380185 18.272008 1.145791 2.827872 0.001603 0.001016 1086930.000000 1 0 0
5.890299 -11.784699 -12.536285 18.186072 -1.107288 2.331366 -0.002176 0.006068 -972996.000000 1 0 0
12.827199 7.148301 -8.667885 17.051905 0.508413 2.104033 0.000791 -0.004272 -425270.000000 1 0 0
-5.092301 3.635101 -15.739785 16.937719 -0.619956 2.763239 0.005114 0.001953 1103700.000000 1 0 0
-0.629501 -4.397999 -19.213985 19.720951 1.428628 2.914358 0.020397 -0.012133 -971988.000000 1 0 0
9.786699 4.343001 -10.181885 14.775382 0.417657 2.331059 0.001168 0.000489 157956.000000 1 0 0
13.310699 3.601501 -12.835285 18.838526 0.264245 2.320377 0.000668 -0.007605 -143198.000000 1 0 0
-6.247601 6.006801 -17.145885 19.211860 -0.765751 2.673573 0.001907 0.004583 288404.000000 1 0 0
-10.339801 3.292501 -15.444585 18.875573 -0.308278 2.529124 0.011878 0.001404 1159050.000000 1 0 0
10.825399 13.438601 -8.264985 19.133615 0.892683 2.017463 0.028885 -0.003644 569019.000000 1 0 0
7.428199 13.257801 -12.159685 19.462923 1.060088 2.245622 0.026041 -0.016729 -1344780.000000 1 0 0
5.328399 15.088701 -11.163085 19.510899 1.231328 2.179917 0.017625 -0.014420 36066.300000 1 0 0
14.126199 9.257001 -10.156985 19.708016 0.580097 2.112240 0.017001 -0.006874 -1192700.000000 1 0 0
8.262899 -17.342099 -2.049585 19.319024 -1.126154 1.677088 0.026740 -0.004238 -14106.400000 1 0 0
0.611799 -16.042299 -0.073885 16.054131 -1.532678 1.575399 0.005983 -0.010650 2997950.000000 1 0 0
-9.112101 -11.746699 7.622815 16.706964 0.911039 1.097002 0.001697 -0.001042 -334063.000000 1 0 0
1.980799 -16.012299 -2.638685 16.348699 -1.447717 1.732906 0.004888 -0.006724 2893050.000000 1 0 0
-1.297101 -10.996399 -9.513785 14.598472 1.453382 2.280616 0.000040 0.003742 1636660.000000 1 0 0
-4.736501 -12.625199 -13.037685 18.756634 1.211883 2.339352 0.017240 -0.000328 -25283.100000 1 0 0
-8.234101 -17.782399 -1.871285 19.685422 1.137145 1.666000 -0.001275 -0.000486 -1747540.000000 1 0 0
-11.370801 -6.991399 -8.932085 16.061037 0.551271 2.160523 0.015356 -0.003697 3569360.000000 1 0 0
-13.591201 -11.436599 -4.785985 18.396255 0.699522 1.833985 0.006191 -0.000974 -448224.000000 1 0 0
-5.660601 -13.525699 9.678615 17.568794 1.174438 0.987356 -0.004060 -0.001818 69143.600000 1 0 0
0.086299 -14.077299 -3.659685 14.545484 -1.564666 1.825132 0.003493 -0.002001 1526600.000000 1 0 0
-14.681801 -11.534599 1.988215 18.776455 0.665923 1.464709 -0.003272 0.001621 793278.000000 1 0 0
-3.964901 -16.568399 -7.513185 18.619351 1.335909 1.986151 -0.002131 -0.003131 904509.000000 1 0 0
0.436299 -15.352399 -9.251785 17.929920 -1.542385 2.112967 -0.000845 0.002517 -369428.000000 1 0 0
4.483299 -14.325799 -2.654985 15.243931 -1.267499 1.745856 0.002511 0.000546 681720.000000 1 0 0
-3.648201 -18.137699 -2.561085 18.677384 1.372306 1.708352 -0.016743 -0.004792 546488.000000 1 0 0
-0.989501 -13.508999 0.685115 13.562505 1.497679 1.520259 0.011181 -0.005000 3731490.000000 1 0 0
-8.510401 -11.247999 -10.735785 17.725730 0.923075 2.221393 0.022105 -0.002555 2601680.000000 1 0 0
-3.809201 -14.129199 -0.329685 14.637383 1.307459 1.593322 0.001844 -0.001220 4388680.000000 1 0 0
-1.575301 -14.980299 -7.332885 16.752974 1.466023 2.023843 -0.007055 -0.000119 -390213.000000 1 0 0
-14.145101 -7.905699 -1.877585 16.312856 0.509651 1.686150 -0.001570 0.004124 585132.000000 1 0 0
-10.745401 -7.253499 -11.752185 17.498307 0.593772 2.307187 0.018827 -0.005762 -708549.000000 1 0 0
-9.450801 -14.693199 6.851415 18.765650 0.999210 1.197052 -0.006399 0.001515 -125833.000000 1 0 0
-2.456601 -14.347899 -12.295485 19.054555 1.401224 2.272183 0.013653 0.000690 -119001.000000 1 0 0
2.227199 -17.893799 -4.794585 18.658417 -1.446966 1.830678 0.007498 -0.010517 -86826.700000 1 0 0
-6.597701 -9.614499 -9.390785 14.971810 0.969376 2.248789 0.014368 -0.002191 1262550.000000 1 0 0
-10.962401 -15.379599 0.341015 18.889748 0.951539 1.552742 -0.002671 0.007258 314418.000000 1 0 0
-12.635001 -11.024899 4.181215 17.282193 0.717451 1.326434 0.006060 0.005273 1000820.000000 1 0 0
-16.960701 -8.851399 -1.592785 19.197646 0.480996 1.653860 0.003333 -0.001433 -1031570.000000 1 0 0
-1.473101 -19.317499 -4.144985 19.812034 1.494686 1.781569 -0.012606 -0.003932 -83359.900000 1 0 0
3.154199 -14.309299 -8.870285 17.128543 -1.353836 2.115151 -0.007929 0.001785 307820.000000 1 0 0
-4.272401 -7.937299 -13.141785 15.936143 1.077004 2.540384 0.007966 -0.001915 1923640.000000 1 0 0
5.466599 -16.563699 1.218015 17.484948 -1.252017 1.501079 0.024052 -0.011524 2595610.000000 1 0 0
-2.837001 -13.867699 -3.139685 14.498941 1.369004 1.789071 0.000460 -0.001214 442068.000000 1 0 0
-0.359301 -14.054599 3.628215 14.519807 1.545237 1.318240 0.003556 -0.001265 -2595330.000000 1 0 0
1.208799 -16.102899 7.037815 17.615204 -1.495870 1.159791 -0.000264 -0.007235 2433830.000000 1 0 0
-5.453701 -10.284399 -14.638885 18.703173 1.083212 2.469781 0.020100 -0.001940 176746.000000 1 0 0
-0.343901 -17.341799 -5.983985 18.348415 1.550968 1.903004 0.000656 -0.004888 -905030.000000 1 0 0
-6.550801 -13.386899 -1.320485 14.962144 1.115710 1.659166 0.000228 -0.000703 2790970.000000 1 0 0
-1.821401 -17.798599 -0.331485 17.894623 1.468817 1.589322 -0.008450 -0.007302 1243530.000000 1 0 0
-9.524201 -9.737699 -4.984985 14.504595 0.796482 1.921633 0.012078 -0.002489 2430330.000000 1 0 0
-0.820101 -16.669699 4.869415 17.385702 1.521639 1.286917 0.010804 -0.007771 2607690.000000 1 0 0
-6.857901 -9.868099 -6.482385 13.653992 0.963463 2.065489 0.014303 -0.003776 1756970.000000 1 0 0
-6.077201 -14.550399 -8.590185 17.956552 1.175154 2.069614 0.010906 -0.002307 169014.000000 1 0 0
-5.807801 -12.216899 -10.354985 17.035519 1.127029 2.224142 0.015809 0.000579 443733.000000 1 0 0
-10.768201 -11.966799 -8.950885 18.419467 0.838070 2.078243 0.020720 -0.011242 112345.000000 1 0 0
3.970599 -17.122499 6.637415 18.788319 -1.342930 1.209728 0.010111 -0.008740 -609715.000000 1 0 0
-6.685001 -14.308599 -4.201985 16.342641 1.133730 1.830835 0.001311 -0.007723 -389658.000000 1 0 0
-2.861001 -12.250099 -7.258985 14.523881 1.341360 2.094160 0.002479 -0.000381 2659420.000000 1 0 0
-7.139901 -12.848299 4.343615 15.327230 1.063581 1.283467 -0.002660 0.003259 3257700.000000 1 0 0
2.504299 -16.425799 2.215215 16.762624 -1.419500 1.438257 0.010457 -0.011173 3660160.000000 1 0 0
-6.191301 -12.059099 7.178615 15.339054 1.096476 1.083775 -0.001884 -0.001744 845087.000000 1 0 0
-11.188801 -12.879299 -1.092985 17.095620 0.855521 1.634774 -0.003073 0.008380 18632.800000 1 0 0
-14.256801 -8.719099 4.729815 17.368080 0.548887 1.294985 0.003876 0.003420 324384.000000 1 0 0
-7.994601 -15.633799 4.395115 18.101004 1.098097 1.325534 -0.006072 0.007566 244506.000000 1 0 0
-16.373701 -9.144199 1.228515 18.794247 0.509322 1.505383 -0.007982 0.002118 -1012780.000000 1 0 0
-6.686401 -17.053299 2.267215 18.457065 1.197129 1.447648 -0.012232 0.005979 1255550.000000 1 0 0
-11.580201 -14.803199 -4.898185 19.422358 0.906956 1.825742 0.019572 -0.001692 478070.000000 1 0 0
-10.101201 -9.867799 -12.840585 19.086339 0.773710 2.308733 0.028461 -0.000217 -1762130.000000 1 0 0
-4.383301 -16.069099 -4.573985 17.272829 1.304497 1.838801 -0.007599 -0.004206 567292.000000 1 0 0
-11.751801 -8.226199 -0.053785 14.344967 0.610722 1.574546 -0.009641 0.006474 1961840.000000 1 0 0
-9.709501 -11.173299 3.520815 15.215557 0.855380 1.337284 -0.004548 0.006443 1924470.000000 1 0 0
-14.092501 -12.914399 -0.561985 19.123183 0.741804 1.600188 -0.005648 0.009732 1633480.000000 1 0 0
5.489599 -14.950499 -7.221185 17.487099 -1.218895 1.996480 -0.004759 -0.002768 911113.000000 1 0 0
-7.412701 -10.501599 -1.293085 12.919125 0.956146 1.671055 0.002463 0.003119 1214210.000000 1 0 0
-11.697901 -8.174599 -6.194685 15.557605 0.609926 1.980325 0.010922 -0.003974 -413971.000000 1 0 0
-14.394701 -6.585299 -9.275985 18.347138 0.429058 2.100853 0.014734 -0.008565 667854.000000 1 0 0
-3.964601 -16.513099 1.326815 17.034111 1.335168 1.492826 -0.010495 -0.002957 1000180.000000 1 0 0
-7.995401 -15.610999 0.087915 17.539597 1.097464 1.565784 -0.002142 0.005852 -393114.000000 1 0 0
0.949099 -18.579999 3.640715 18.957109 -1.519759 1.377546 0.004896 -0.013592 2205770.000000 1 0 0
-14.065701 -8.678799 -4.569485 17.147761 0.552839 1.840532 0.003496 -0.001051 -135248.000000 1 0 0
-3.206101 -14.602599 11.034015 18.581294 1.354669 0.934993 -0.014353 0.000347 -280606.000000 1 0 0
-10.871101 -12.034699 -3.880685 16.675567 0.836154 1.805667 0.006040 -0.006225 2672970.000000 1 0 0
-9.956101 -10.674099 0.458815 14.603796 0.820187 1.539374 -0.003823 0.008070 2258270.000000 1 0 0
-0.056901 -13.167999 -11.133385 17.243889 1.566475 2.272660 0.001942 -0.001698 1037860.000000 1 0 0
-5.889101 -12.582199 -6.419085 15.303526 1.133034 2.003637 0.004789 -0.005692 2563030.000000 1 0 0
1.636599 -15.782499 9.936715 18.721753 -1.467469 1.011302 -0.006966 -0.000190 -69832.300000 1 0 0
-9.003801 -15.461399 -5.668085 18.768337 1.043463 1.877589 0.011690 -0.009633 -1127410.000000 1 0 0
-3.382801 -15.494999 5.798515 16.886714 1.355853 1.220286 -0.000116 -0.001482 -425753.000000 1 0 0
-17.375901 -5.405999 -6.441985 19.304039 0.301628 1.911035 0.007071 -0.004420 -642311.000000 1 0 0
18.861399 5.425601 -2.886085 19.837313 0.280094 1.716802 -0.001021 0.005587 -1314040.000000 1 0 0
12.778399 -12.530899 -5.946985 18.859415 -0.775619 1.891603 0.024406 -0.005950 -938005.000000 1 0 0
10.951499 -13.537299 -1.640185 17.489540 -0.890599 1.664715 0.023415 -0.002316 2307170.000000 1 0 0
18.637699 -2.930399 4.501015 19.396139 -0.155953 1.336604 0.023694 -0.011858 -435218.000000 1 0 0
8.661299 -16.812399 4.912815 19.539975 -1.095084 1.316645 0.027779 -0.018367 -1206540.000000 1 0 0
18.122799 -1.080099 6.648615 19.334077 -0.059529 1.219750 0.047057 -0.014651 -1282860.000000 1 0 0
17.907699 -4.269499 -5.098285 19.102534 -0.234048 1.840961 0.020362 -0.001703 401079.000000 1 0 0
5.318499 -11.803099 14.717415 19.601068 -1.147442 0.721452 -0.008448 0.002817 -620605.000000 1 0 0
15.922699 -8.961499 -0.762785 18.287227 -0.512627 1.612520 0.011667 0.004271 282769.000000 1 0 0
13.793099 -12.817699 -1.562285 18.894013 -0.748760 1.653578 0.024751 0.007404 -189584.000000 1 0 0
11.034699 -2.032399 13.937015 17.892334 -0.182141 0.677826 0.015986 -0.002398 -2301650.000000 1 0 0
16.908099 -6.172299 -1.394585 18.053420 -0.350019 1.648121 0.007500 0.000610 -590314.000000 1 0 0
17.757799 3.548001 -0.885885 18.130431 0.197203 1.619678 0.004263 0.001791 424967.000000 1 0 0
9.662599 -11.072399 9.456915 17.475614 -0.853285 0.998993 0.014948 -0.007021 209446.000000 1 0 0
9.070699 -11.097699 4.293015 14.962169 -0.885566 1.279781 0.010095 -0.003721 940920.000000 1 0 0
14.060099 -10.196599 6.938315 18.702867 -0.627449 1.190737 0.021866 -0.005506 444566.000000 1 0 0
16.256399 -0.568799 -4.562585 16.894118 -0.034975 1.844261 0.004834 0.002276 -992038.000000 1 0 0
15.765899 -0.577699 -1.520185 15.849551 -0.036626 1.666857 0.002895 0.001859 299827.000000 1 0 0
12.816199 -5.297999 -0.169685 13.869122 -0.391990 1.583031 0.009152 -0.000930 738467.000000 1 0 0
14.268899 -7.650399 1.100415 16.227785 -0.492155 1.502934 0.012696 0.004720 1700360.000000 1 0 0
15.501799 2.457001 3.715815 16.129163 0.157190 1.338330 0.012595 -0.005739 645962.000000 1 0 0
16.011599 -7.164699 5.085915 18.263919 -0.420747 1.288598 0.027007 -0.005058 -1988430.000000 1 0 0
13.780899 -12.071199 3.335815 18.621350 -0.719360 1.390685 0.026322 -0.002857 652004.000000 1 0 0
13.997499 -0.989099 9.252115 16.808032 -0.070545 0.987884 0.032223 -0.007474 950895.000000 1 0 0
14.127799 -2.926099 -1.442485 14.499570 -0.204229 1.670446 0.002348 0.000218 1566560.000000 1 0 0
15.069099 1.760201 9.070115 17.676058 0.116282 1.031969 0.042939 -0.007561 -1333310.000000 1 0 0
14.356699 -10.234199 -2.984985 17.881940 -0.619299 1.738509 0.018076 0.000309 44727.600000 1 0 0
7.265699 -12.668799 6.054415 15.809643 -1.050082 1.177801 0.001491 -0.003673 294576.000000 1 0 0
12.418799 -4.717699 6.937015 14.986842 -0.363045 1.089562 0.013755 -0.002525 3043920.000000 1 0 0
14.963699 -9.150699 -5.677685 18.435935 -0.548852 1.883853 0.029255 -0.002519 255298.000000 1 0 0
14.358399 -4.637199 4.741915 15.816226 -0.312386 1.266299 0.014209 -0.006412 1552240.000000 1 0 0
17.037599 -4.321099 1.040415 17.607786 -0.248384 1.511674 0.002261 -0.004032 -2516920.000000 1 0 0
10.194999 -14.478799 1.093215 17.741724 -0.957302 1.509139 0.024637 -0.004916 128921.000000 1 0 0
16.466399 -2.500599 8.550615 18.721867 -0.150709 1.096494 0.048106 -0.012516 1329130.000000 1 0 0
15.993199 -2.667999 3.211315 16.529162 -0.165299 1.375271 0.010530 -0.007500 1011430.000000 1 0 0
7.791499 -15.268699 2.608815 17.339162 -1.098949 1.419765 0.017956 -0.008622 3253530.000000 1 0 0
16.574899 -7.017299 7.928315 19.667942 -0.400488 1.155885 0.029989 -0.008457 -404067.000000 1 0 0
10.256099 -8.623899 5.145715 14.354009 -0.699161 1.204150 0.011348 -0.004861 2034850.000000 1 0 0
10.989199 -11.899299 2.159415 16.340713 -0.825140 1.438259 0.021004 -0.001411 841825.000000 1 0 0
12.218199 -7.191499 12.068415 18.618504 -0.531987 0.865585 0.009459 -0.012306 121148.000000 1 0 0
15.259099 -9.902899 4.430715 18.722680 -0.575660 1.331880 0.018629 -0.001893 -249547.000000 1 0 0
7.208699 -10.290399 7.779615 14.777688 -0.959717 1.016385 0.003372 -0.000796 714460.000000 1 0 0
15.195199 -3.322699 -4.296285 16.136681 -0.215279 1.840290 0.008403 0.003693 856500.000000 1 0 0
11.679599 -8.946999 9.811515 17.684107 -0.653686 0.982648 0.009456 -0.011126 -2124510.000000 1 0 0
16.975399 -6.808399 2.410315 18.447983 -0.381432 1.439767 0.018944 -0.001696 2553400.000000 1 0 0
17.508999 3.935901 2.040815 18.061597 0.221117 1.457563 0.010209 -0.000926 163341.000000 1 0 0
14.671299 -4.882399 8.784115 17.783293 -0.321258 1.054166 0.032354 -0.008959 754911.000000 1 0 0
12.814099 -12.652099 6.077115 19.005475 -0.779037 1.245324 0.019346 -0.001347 -2020930.000000 1 0 0
18.226399 0.578001 -0.783885 18.252402 0.031702 1.613756 0.014700 -0.002857 173228.000000 1 0 0
11.716199 -2.148699 11.028415 16.233058 -0.181380 0.823879 0.018931 -0.003591 2678550.000000 1 0 0
5.744799 -12.517399 10.466715 17.298558 -1.140529 0.920952 -0.006194 0.003982 -824311.000000 1 0 0
10.652399 -4.969499 11.080815 16.154070 -0.436502 0.814894 0.007497 -0.002850 1204880.000000 1 0 0
17.837899 1.316501 5.081015 18.594099 0.073670 1.294016 0.027979 -0.005444 -1176390.000000 1 0 0
12.316699 -7.779299 7.170515 16.236836 -0.563335 1.113393 0.017969 -0.009523 -1082080.000000 1 0 0
10.604199 -7.845799 14.390615 19.521665 -0.636991 0.741937 0.013244 -0.007944 -1458260.000000 1 0 0
14.165399 -0.244899 3.777515 14.662473 -0.017287 1.310226 0.007186 -0.004510 1519190.000000 1 0 0
11.705899 -7.741199 2.645915 14.281285 -0.584283 1.384448 0.011319 -0.001069 1365260.000000 1 0 0
9.273499 6.067901 3.539315 11.633742 0.579411 1.261668 0.003065 -0.002434 241247.000000 1 0 0
-4.019301 14.895201 -9.878085 18.319344 -1.307235 2.140302 0.006253 0.001802 1453050.000000 1 0 0
8.814299 -6.364899 9.264215 14.283889 -0.625412 0.865082 0.007720 -0.004862 -552373.000000 1 0 0
5.721199 -10.679999 -8.573985 14.842767 -1.079004 2.186648 -0.006743 0.002643 1842480.000000 1 0 0
5.367399 1.069301 0.520115 5.497535 0.196647 1.476046 0.000604 -0.000702 2876120.000000 1 0 0
-0.581101 10.017501 11.028915 14.910565 -1.512853 0.738215 -0.006496 0.005603 318551.000000 1 0 0
-6.359201 -5.100699 1.089315 8.224547 0.676019 1.437959 0.001803 0.000867 2930790.000000 1 0 0
-1.039401 4.015601 -10.853285 11.618916 -1.317514 2.776540 0.005717 -0.003150 676802.000000 1 0 0
10.921099 5.711001 1.294515 12.392002 0.481825 1.466142 0.000067 0.000093 657824.000000 1 0 0
-10.268501 -1.713199 -13.551785 17.088828 0.165318 2.486547 0.008966 -0.004133 918729.000000 1 0 0
7.466399 10.791401 -5.973985 14.418389 0.965538 1.998004 -0.000714 -0.000923 -606342.000000 1 0 0
-12.415701 -2.817599 -9.634185 15.965776 0.223159 2.218588 0.007666 -0.003678 34799.000000 1 0 0
-3.978401 -8.631299 2.515215 9.831241 1.138893 1.312081 0.005598 0.001176 -486214.000000 1 0 0
8.073299 -6.728199 -5.963185 12.083311 -0.694771 2.086912 -0.000522 -0.001358 2635670.000000 1 0 0
14.397099 3.191201 -4.163185 15.322935 0.218129 1.845952 0.004458 0.002792 2296750.000000 1 0 0
-2.487701 -4.981299 9.777315 11.251572 1.107622 0.517673 0.001471 -0.000615 2770030.000000 1 0 0
3.530799 -1.916399 -4.595085 6.103600 -0.497273 2.423175 -0.001234 0.000637 -2323110.000000 1 0 0
-3.956301 8.518101 -3.477485 10.015152 -1.135984 1.925404 0.002151 -0.001024 -462755.000000 1 0 0
5.781699 0.119501 11.772315 13.116010 0.020666 0.456608 0.001070 -0.003057 445234.000000 1 0 0
7.205299 4.778201 12.402515 15.118529 0.585565 0.608770 0.007220 0.002133 2021300.000000 1 0 0
1.123999 -14.552399 12.482115 19.205179 -1.493711 0.863298 -0.016207 0.010989 -696346.000000 1 0 0
3.056299 8.734301 -9.135385 13.003239 1.234194 2.349766 0.004245 -0.002131 724736.000000 1 0 0
-4.448301 -8.915199 -4.720385 11.024981 1.107983 2.013245 0.008484 -0.000983 1530870.000000 1 0 0
5.693699 -6.605399 -4.079685 9.627738 -0.859390 2.008370 -0.001767 -0.001384 3309750.000000 1 0 0
-3.098601 3.386601 8.665215 9.805934 -0.829778 0.487150 -0.002158 0.000089 959325.000000 1 0 0
-3.776501 3.234001 -11.133385 12.193153 -0.708168 2.721583 0.004810 -0.003813 84473.200000 1 0 0
2.996099 -6.127499 8.472815 10.877107 -1.116020 0.677793 -0.005844 0.001507 702320.000000 1 0 0
-5.162301 -8.665099 10.481615 14.546393 1.033502 0.766180 0.005454 -0.001776 649155.000000 1 0 0
-13.308901 -2.449399 6.519215 15.020871 0.182005 1.121857 0.004804 0.000390 1590510.000000 1 0 0
3.920399 -5.958199 -8.363385 10.991628 -0.988829 2.435475 -0.002902 0.000314 1932750.000000 1 0 0
2.939399 -0.555499 12.421715 12.776840 -0.186781 0.236323 -0.001810 -0.002469 867017.000000 1 0 0
1.474399 -1.539199 -7.531985 7.827758 -0.806897 2.865819 0.000400 -0.001596 652250.000000 1 0 0
3.582699 -3.479799 3.444015 6.066793 -0.770829 0.967108 -0.000316 -0.002233 1863980.000000 1 0 0
1.484299 0.370501 -11.865785 11.963999 0.244615 3.013371 0.003823 -0.004074 375710.000000 1 0 0
3.956299 3.563201 -10.717185 11.966903 0.733169 2.680504 0.002413 -0.000534 1036970.000000 1 0 0
2.860599 3.232201 3.395015 5.491473 0.846313 0.904303 -0.007002 0.000990 -2102110.000000 1 0 0
-5.209501 0.926001 2.623415 5.905818 -0.175915 1.110506 0.000432 -0.002583 1840910.000000 1 0 0
-9.437501 -9.290499 5.745215 14.435626 0.777549 1.161473 0.000419 0.004559 -1874620.000000 1 0 0
-2.995101 3.802301 -0.662285 4.885360 -0.903596 1.706780 -0.002677 -0.003586 190890.000000 1 0 0
-15.880801 -6.482599 5.007815 17.869027 0.387558 1.286741 0.010247 -0.001600 659582.000000 1 0 0
1.031399 6.705901 -8.111985 10.575311 1.418187 2.445055 0.002495 -0.000736 161557.000000 1 0 0
-1.590601 6.484501 -9.401085 11.530792 -1.330253 2.524048 0.003286 0.000224 133176.000000 1 0 0
2.056199 -0.340099 5.246215 5.645033 -0.163918 0.378146 -0.001291 -0.002120 1721990.000000 1 0 0
-3.377301 -0.591699 -6.434585 7.291101 0.173439 2.652003 0.004361 -0.004954 -640869.000000 1 0 0
1.888999 -1.242499 -2.454485 3.337157 -0.581808 2.397203 0.002859 0.001424 -347564.000000 1 0 0
2.471299 -8.658399 -7.671385 11.829004 -1.292767 2.276439 -0.007159 0.002096 2271170.000000 1 0 0
-2.436801 14.012901 -5.484585 15.244017 -1.398621 1.938835 0.007230 -0.001388 3442340.000000 1 0 0
6.837499 -5.111899 -8.234785 11.861475 -0.641981 2.338168 0.000449 -0.000313 4655040.000000 1 0 0
-14.117801 -4.929099 -2.193085 15.113502 0.335909 1.716418 -0.003644 0.000952 496205.000000 1 0 0
-2.678501 6.939701 -6.797985 10.077024 -1.202445 2.311222 0.004109 -0.001623 -687884.000000 1 0 0
-5.622801 -1.144399 -8.138185 9.957690 0.200786 2.527465 0.011154 -0.007566 -342585.000000 1 0 0
-5.790501 -10.634099 3.419815 12.582094 1.072169 1.295533 -0.001020 0.002203 -2148030.000000 1 0 0
8.074399 -7.554299 6.739615 12.949354 -0.752132 1.023407 0.006230 -0.004946 1396220.000000 1 0 0
8.738099 -6.025299 13.184215 16.925783 -0.603674 0.677818 0.006280 -0.003737 -278591.000000 1 0 0
-4.640001 9.545701 -0.734285 10.639041 -1.118344 1.639869 0.000581 0.000015 209289.000000 1 0 0
2.767999 6.636501 12.230715 14.187859 1.175647 0.531486 0.000904 0.000097 1514770.000000 1 0 0
6.028299 -2.807399 10.927615 12.791976 -0.435836 0.546679 -0.001831 -0.003330 -636193.000000 1 0 0
-9.622301 -6.439799 -1.196685 11.640092 0.589794 1.673785 0.000934 0.002423 429805.000000 1 0 0
0.861599 -13.369599 6.195415 14.760478 -1.506441 1.137649 -0.002246 -0.000314 -272148.000000 1 0 0
-0.473201 -3.130899 8.740815 9.296682 1.420793 0.347556 -0.000414 -0.001979 1823990.000000 1 0 0
4.213399 0.773101 3.389315 5.462405 0.181468 0.901441 -0.003790 0.000504 1711540.000000 1 0 0
-10.233901 5.661501 8.338515 14.363709 -0.505305 0.951421 0.005494 -0.010136 544804.000000 1 0 0
9.419599 7.913301 0.005915 12.302407 0.698712 1.570316 -0.001643 -0.000986 1374670.000000 1 0 0
4.354399 2.957501 8.191515 9.736967 0.596628 0.571150 -0.002421 -0.000179 3473620.000000 1 0 0
1.240099 2.633501 -9.794385 10.217786 1.130704 2.852709 0.004943 -0.002215 1985540.000000 1 0 0
-1.372601 -10.133299 2.983215 10.652106 1.436161 1.286941 0.010213 -0.001973 70528.600000 1 0 0
-9.922401 9.549301 9.138015 16.527144 -0.766239 0.984944 0.004224 -0.016812 167371.000000 1 0 0
9.757799 -2.044799 -7.659485 12.572333 -0.206566 2.225890 0.006738 0.001071 1499470.000000 1 0 0
-5.182501 -1.831199 6.669415 8.642494 0.339650 0.689286 0.003332 -0.002096 1731510.000000 1 0 0
3.126699 -7.904999 -4.927685 9.825851 -1.194146 2.096130 -0.006148 0.000419 2481120.000000 1 0 0
-5.123201 4.970101 -13.109885 14.927095 -0.770231 2.643010 0.002741 -0.001778 1488210.000000 1 0 0
-5.615301 9.608701 5.456815 12.394981 -1.041928 1.114926 -0.001362 -0.001802 2142820.000000 1 0 0
-0.489401 -1.873499 -9.399185 9.596572 1.315283 2.938421 0.003027 -0.003873 -12449.500000 1 0 0
-16.783601 0.169401 6.413515 17.968059 -0.010093 1.205807 0.011525 -0.005978 -511523.000000 1 0 0
-6.020201 -2.954099 4.038515 7.828098 0.456178 1.028739 -0.003788 -0.001202 1429730.000000 1 0 0
0.971599 -5.807899 -5.202685 7.857712 -1.405042 2.294430 -0.001657 0.000595 -82032.800000 1 0 0
-7.015201 1.398201 -8.488485 11.100558 -0.196732 2.441356 0.006208 -0.002802 1890430.000000 1 0 0
8.088399 1.965201 4.797215 9.607158 0.238347 1.047962 -0.000598 0.000053 909644.000000 1 0 0
0.538899 -8.178299 -0.566685 8.215602 -1.504998 1.639828 0.004043 0.001551 2300580.000000 1 0 0
5.506299 5.434101 -3.391285 8.446869 0.778799 1.983933 -0.001374 0.001243 -90187.200000 1 0 0
-0.723101 -0.380299 -1.230985 1.477439 0.484174 2.555645 -0.000329 0.000773 754901.000000 1 0 0
9.054099 6.288101 -6.317985 12.705662 0.607027 2.091231 -0.001557 0.000023 2014060.000000 1 0 0
-14.918001 -7.098199 2.513815 16.710788 0.444113 1.419792 -0.006677 0.001138 1469290.000000 1 0 0
-6.332301 6.874501 8.844015 12.867533 -0.826430 0.813014 0.000962 -0.002549 -380764.000000 1 0 0
-9.453201 -3.132999 -9.668685 13.880280 0.320029 2.341412 0.009788 -0.004121 -829112.000000 1 0 0
14.877599 3.464801 -1.213485 15.323849 0.228809 1.650069 0.000673 0.001741 1336490.000000 1 0 0
12.060199 1.607601 -5.680385 13.427567 0.132517 2.007593 0.004840 0.002027 1578410.000000 1 0 0
1.626899 -9.457399 12.678315 15.900593 -1.400440 0.647907 -0.010499 0.002597 -412304.000000 1 0 0
-3.489301 6.383301 7.935415 10.765341 -1.070544 0.741989 -0.003516 0.000769 1572810.000000 1 0 0
-4.089301 13.147301 -12.380985 18.516552 -1.269245 2.303180 0.014964 -0.001882 176972.000000 1 0 0
-10.187701 7.858601 6.532315 14.429761 -0.657045 1.101008 -0.001305 -0.010396 885087.000000 1 0 0
7.932399 -9.328099 -7.257085 14.233822 -0.866084 2.105804 0.002818 0.002602 385022.000000 1 0 0
5.802899 -3.779599 -0.266785 6.930381 -0.577309 1.609301 0.003281 -0.001835 265414.000000 1 0 0
-1.651301 -4.455399 4.172515 6.323548 1.215863 0.850194 0.002871 -0.001352 698856.000000 1 0 0
9.875999 -2.134999 -2.574085 10.426864 -0.212904 1.820246 0.002975 -0.000545 -1407490.000000 1 0 0
13.457399 7.078101 1.439115 15.273250 0.484202 1.476432 0.000473 0.000110 1278540.000000 1 0 0
5.335099 -3.762299 -3.164485 7.254801 -0.614206 2.022159 0.001641 -0.003370 -2796100.000000 1 0 0
-12.212501 -5.908299 1.903915 13.699565 0.450597 1.431369 -0.003132 0.002769 1737700.000000 1 0 0
3.759799 -5.832099 -0.146885 6.940536 -0.998175 1.591961 0.003806 -0.001084 -89982.100000 1 0 0
-5.158201 3.755801 -8.691885 10.782483 -0.629352 2.508348 0.004227 -0.002716 880564.000000 1 0 0
-1.741701 -9.309699 7.206315 11.901050 1.385850 0.920378 0.000835 -0.002520 1389650.000000 1 0 0
-7.440101 -7.377499 2.619715 10.800255 0.781173 1.325792 0.002936 0.001462 -4041370.000000 1 0 0
-5.749001 13.072201 -8.478685 16.607876 -1.156467 2.106588 0.009307 -0.004571 1585260.000000 1 0 0
9.127499 -13.876899 -4.149885 17.120196 -0.988994 1.815632 0.018057 -0.001478 875694.000000 1 0 0
-6.415301 -5.182999 -6.766685 10.668064 0.679547 2.257891 0.010130 -0.005447 241697.000000 1 0 0
3.379899 0.392101 -6.275485 7.138570 0.115493 2.644758 -0.001036 -0.000941 2025590.000000 1 0 0
-3.502001 5.705001 4.996415 8.353155 -1.020257 0.929609 -0.000539 0.002071 315836.000000 1 0 0
-2.717301 -10.852199 -2.936185 11.566120 1.325449 1.827466 0.008713 0.000936 1009220.000000 1 0 0
-12.548901 -0.321299 1.766315 12.676672 0.025598 1.431006 0.000410 -0.002332 191896.000000 1 0 0
8.298499 -11.983999 -6.101485 15.802198 -0.965145 1.967214 0.007269 -0.001686 -306084.000000 1 0 0
6.138899 3.893401 1.052015 7.345161 0.565201 1.427077 -0.002028 -0.000590 -1448020.000000 1 0 0
3.446499 -4.804099 -10.982285 12.472703 -0.948482 2.647724 -0.001088 -0.000407 1489120.000000 1 0 0
-7.653701 4.322701 8.566515 12.273958 -0.514124 0.798276 0.001448 -0.002983 1943950.000000 1 0 0
8.163999 8.727401 4.122615 12.641770 0.818740 1.238610 0.004208 -0.000595 1602250.000000 1 0 0
0.318099 10.545501 -6.347785 12.312723 1.540641 2.112442 0.004518 -0.000018 2198500.000000 1 0 0
5.452799 8.042201 3.260715 10.249013 0.974973 1.247020 -0.000815 -0.001792 2443400.000000 1 0 0
8.123499 6.621901 -3.679485 11.107629 0.683913 1.908432 -0.002123 -0.000657 977984.000000 1 0 0
10.433299 2.516601 -8.118685 13.457342 0.236687 2.218417 0.001478 -0.000268 358346.000000 1 0 0
3.385999 -12.552899 -0.371285 13.006849 -1.307328 1.599346 0.000343 -0.002262 -2090020.000000 1 0 0
0.677899 2.188801 5.331715 5.803239 1.270453 0.405898 -0.003084 0.000346 -632474.000000 1 0 0
-4.894401 13.429201 1.525015 14.374431 -1.221298 1.464504 0.002102 0.001616 1391830.000000 1 0 0
8.119999 4.052101 -8.040785 12.124691 0.462869 2.295848 -0.001667 0.001777 -733358.000000 1 0 0
-13.852801 -0.459099 -3.569985 14.312780 0.033129 1.822884 -0.001688 -0.002301 628304.000000 1 0 0
-8.494001 0.091301 -0.539285 8.511593 -0.010748 1.634198 -0.000460 -0.002553 -123031.000000 1 0 0
1.774999 -3.929599 -1.111485 4.452839 -1.146530 1.823077 0.003170 0.001414 -1782020.000000 1 0 0
8.071799 -5.593899 -0.269785 9.824380 -0.606024 1.598261 0.003526 -0.001079 1992570.000000 1 0 0
-2.308901 -1.224499 7.384415 7.833263 0.487623 0.340165 0.002039 -0.002867 1101350.000000 1 0 0
-5.825401 8.949201 -11.716485 15.852429 -0.993760 2.402525 0.001994 0.001434 -220663.000000 1 0 0
-6.152101 9.229801 -8.821985 14.172685 -0.982876 2.242683 0.000462 -0.000232 -76003.700000 1 0 0
-1.552301 14.023501 -8.325385 16.382315 -1.460552 2.103882 0.013644 -0.001094 942572.000000 1 0 0
-1.441101 7.265601 9.771915 12.261976 -1.374992 0.648603 -0.004040 -0.001837 965218.000000 1 0 0
10.017299 2.223301 -3.899885 10.977179 0.218406 1.934001 0.003622 0.000882 -2762420.000000 1 0 0
-2.980401 -7.513399 -7.057285 10.730295 1.193157 2.288554 0.005977 -0.001319 147327.000000 1 0 0
-5.563501 -4.992499 -1.606285 7.645766 0.731358 1.782461 0.003386 -0.000184 771498.000000 1 0 0
5.768499 7.347101 -8.859485 12.874236 0.905183 2.329741 0.001143 -0.000659 401202.000000 1 0 0
-9.562901 5.369601 -7.458285 13.263020 -0.511632 2.168005 -0.000788 0.001435 -676297.000000 1 0 0
-0.420701 6.191201 -5.337985 8.185477 -1.502949 2.281185 0.002240 0.000767 -141375.000000 1 0 0
-8.212401 2.856601 -6.360985 10.773385 -0.334749 2.202394 0.003891 -0.003513 2332010.000000 1 0 0
3.624999 1.385901 -2.028485 4.379051 0.365171 2.052427 -0.001074 0.000377 2987510.000000 1 0 0
-6.782201 12.542501 -3.378485 14.653557 -1.075092 1.803447 0.001861 -0.000530 562398.000000 1 0 0
-6.539701 3.127201 -2.387385 7.631951 -0.446046 1.888951 0.001097 -0.001037 -1702900.000000 1 0 0
12.105699 3.960401 -0.734585 12.758226 0.316177 1.628406 0.002446 0.000377 -302472.000000 1 0 0
2.230699 12.413601 -5.472085 13.748353 1.392996 1.980151 0.008417 -0.002359 -698081.000000 1 0 0
-9.212201 -1.412799 -4.322385 10.273444 0.152176 2.005050 0.002114 -0.001674 181386.000000 1 0 0
-1.067201 5.637901 3.523915 6.733708 -1.383719 1.020049 -0.004699 0.001383 682607.000000 1 0 0
11.651599 2.644601 12.081215 16.991452 0.223192 0.779853 0.031463 0.003391 -279777.000000 1 0 0
-7.049701 -2.344799 -5.795785 9.422712 0.321099 2.233292 0.008147 -0.005148 895315.000000 1 0 0
7.433499 -7.385699 10.807115 15.053212 -0.782173 0.769976 0.000833 -0.000972 -1884410.000000 1 0 0
-5.521701 -1.836899 -10.980885 12.427519 0.321153 2.654280 0.011823 -0.004942 -1609300.000000 1 0 0
0.739299 -6.163799 4.493815 7.663769 -1.451424 0.944224 -0.000137 -0.000405 634038.000000 1 0 0
-4.854301 -9.387899 7.395415 12.899188 1.093578 0.960239 -0.000066 -0.002619 2368760.000000 1 0 0
-8.710401 9.360301 1.659215 12.893382 -0.821347 1.441751 0.006230 -0.003918 515977.000000 1 0 0
-8.142201 7.297201 -9.034885 14.183572 -0.730723 2.261392 -0.000739 0.002255 665651.000000 1 0 0
-1.295401 -10.663299 -0.171485 10.743064 1.449907 1.586759 0.007657 0.000992 349424.000000 1 0 0
-3.930001 10.326101 7.770715 13.507675 -1.207135 0.957848 -0.000109 -0.000725 3391050.000000 1 0 0
-7.454201 12.044001 2.063915 14.313728 -1.016585 1.426101 0.005932 -0.004188 -118869.000000 1 0 0
-8.165501 -8.230099 -2.914385 11.954229 0.789338 1.817074 0.007297 -0.000336 424904.000000 1 0 0
5.329099 4.521101 -8.178285 10.757509 0.703553 2.434478 0.000467 0.001670 970046.000000 1 0 0
-8.955601 -0.145499 -10.202385 13.576178 0.016245 2.421117 0.005837 -0.003939 -1779480.000000 1 0 0
-15.230801 -2.188899 -1.522385 15.462414 0.142738 1.669413 -0.000934 -0.003283 -299754.000000 1 0 0
-7.190901 -5.784899 8.711115 12.690849 0.677464 0.814257 0.003370 -0.001000 -1967220.000000 1 0 0
8.190899 3.368401 -0.953285 8.907621 0.390156 1.678021 -0.000109 0.000631 685362.000000 1 0 0
11.883599 7.178101 -5.847885 15.064621 0.543381 1.969459 -0.002056 0.000109 1115400.000000 1 0 0
3.782599 13.296801 -9.439585 16.739735 1.293643 2.169901 0.004218 -0.006792 1355150.000000 1 0 0
-9.669201 5.461701 -0.520385 11.117303 -0.514177 1.617622 0.000893 -0.002464 1756920.000000 1 0 0
11.218399 -1.340699 -5.117685 12.403252 -0.118945 1.996112 0.008280 0.000956 -965008.000000 1 0 0
10.609599 1.646201 -1.163685 10.799432 0.153934 1.678760 0.002537 -0.000171 388107.000000 1 0 0
14.654199 5.109601 4.932515 16.284449 0.335497 1.263065 0.007572 -0.002708 2943000.000000 1 0 0
0.913099 -0.746299 10.349715 10.416684 -0.685216 0.113454 -0.002208 -0.001685 831801.000000 1 0 0
-7.923301 1.413501 -12.531085 14.893112 -0.176541 2.570668 0.005013 -0.001718 -1399080.000000 1 0 0
2.965499 -11.607399 -7.877385 14.338030 -1.320663 2.152448 -0.009898 0.003572 522397.000000 1 0 0
2.894099 4.976001 -6.790685 8.902236 1.044008 2.438439 -0.000061 0.002666 -2271410.000000 1 0 0
6.489599 8.036801 0.572615 10.345673 0.891508 1.515420 0.000330 -0.001926 -345964.000000 1 0 0
-9.141701 -5.422999 6.725215 12.578081 0.535416 1.006670 0.000313 0.002830 -2571360.000000 1 0 0
-0.269901 -6.827599 -11.844585 13.674178 1.531286 2.618345 0.002105 0.001014 2772020.000000 1 0 0
6.363499 -13.442299 -4.715285 15.602033 -1.128659 1.877820 0.000846 -0.000986 2399970.000000 1 0 0
-3.248401 -0.369999 10.018515 10.538484 0.113413 0.315440 0.002084 -0.000597 174329.000000 1 0 0
8.659899 8.589501 7.045015 14.085653 0.781317 1.047018 0.002773 0.000166 694474.000000 1 0 0
-7.853201 5.717401 -2.691085 10.079850 -0.629294 1.841051 0.002079 -0.003175 612020.000000 1 0 0
-5.364901 5.860701 -6.433285 10.223362 -0.829536 2.251414 0.002429 -0.001383 -1561460.000000 1 0 0
3.254899 -13.689799 2.495915 14.291066 -1.337370 1.395247 0.005900 -0.007019 -2616760.000000 1 0 0
-11.343601 -7.053699 6.508315 14.859008 0.556311 1.117418 0.004898 0.003760 -471810.000000 1 0 0
-12.897001 -3.617899 -6.820985 15.031556 0.273493 2.041796 0.008892 -0.003279 -1641230.000000 1 0 0
6.058899 0.361801 -7.240185 9.447827 0.059643 2.443911 0.000434 0.001383 1654750.000000 1 0 0
-1.400201 2.155801 -2.531385 3.607763 -0.994770 2.348506 -0.000604 -0.000717 1734020.000000 1 0 0
7.610599 0.798901 -4.902985 9.088384 0.104589 2.140614 0.000922 0.000999 -47117.500000 1 0 0
3.606799 -4.508799 10.752215 12.204442 -0.896088 0.492807 -0.006166 -0.000671 939399.000000 1 0 0
6.008599 -2.492799 2.103215 6.836726 -0.393261 1.258090 0.003667 -0.002943 -954780.000000 1 0 0
-6.260801 7.754201 1.104815 10.027257 -0.891555 1.460391 0.001994 -0.001060 254039.000000 1 0 0
6.022999 -3.409099 7.950415 10.540758 -0.515055 0.716278 0.000184 -0.002589 -613246.000000 1 0 0
6.695499 -2.300699 -7.807785 10.539660 -0.330979 2.405058 0.000900 -0.000438 1308700.000000 1 0 0
12.035999 -8.187199 -5.821885 15.677686 -0.597331 1.951257 0.016419 -0.002349 1259670.000000 1 0 0
5.534699 -9.638499 9.935515 14.907985 -1.049542 0.841351 -0.009684 0.005856 1862600.000000 1 0 0
-6.549801 7.591001 -4.451285 10.969828 -0.858896 1.988623 -0.000113 -0.002181 1116780.000000 1 0 0
-1.337801 -7.564599 9.722815 12.391368 1.395756 0.668674 -0.002780 -0.000128 -889742.000000 1 0 0
10.141399 -9.315699 0.865215 13.797783 -0.742987 1.508048 0.008073 -0.000580 1090030.000000 1 0 0
11.187799 6.171101 9.849615 16.132707 0.504065 0.914058 0.011063 -0.002376 1693740.000000 1 0 0
-15.233101 -4.133399 -4.997385 16.556153 0.264963 1.877423 0.002160 -0.000091 2330210.000000 1 0 0
-4.742701 -4.606399 7.864215 10.274142 0.770820 0.699075 0.003343 -0.002256 -638166.000000 1 0 0
2.955899 10.918401 -11.065485 15.823836 1.306408 2.345203 0.000734 -0.003349 727747.000000 1 0 0
9.895399 -1.421799 1.589415 10.122582 -0.142706 1.413127 0.000610 -0.001845 -820875.000000 1 0 0
-1.645101 -2.595899 0.683415 3.148350 1.005943 1.351984 0.001588 -0.002176 -59711.100000 1 0 0
1.612899 2.938301 0.858715 3.460122 1.068781 1.320001 -0.006571 0.000056 -1836750.000000 1 0 0
-8.949701 -2.391099 4.225815 10.181945 0.261073 1.142820 -0.000863 -0.000374 2698680.000000 1 0 0
10.027199 4.820001 -2.669485 11.441297 0.448083 1.806287 -0.001279 0.001630 1298020.000000 1 0 0
2.576499 8.363701 2.505715 9.103211 1.271964 1.291940 -0.005472 -0.000478 959956.000000 1 0 0
-8.088201 -0.002299 2.484415 8.461165 0.000284 1.272779 -0.003705 -0.001824 2602310.000000 1 0 0
6.871099 2.147501 13.775515 15.543120 0.302922 0.481552 0.002066 -0.000294 477075.000000 1 0 0
6.835699 4.374701 3.863515 8.988411 0.569298 1.126489 -0.003946 0.000638 106395.000000 1 0 0
-0.301501 3.346601 7.799915 8.492898 -1.480947 0.406768 -0.005856 -0.000433 266771.000000 1 0 0
2.661399 -10.281199 9.189115 14.043715 -1.317496 0.857510 -0.006144 -0.000683 2643630.000000 1 0 0
1.356499 -4.543799 6.810515 8.298754 -1.280681 0.608219 -0.002773 -0.000320 -343322.000000 1 0 0
-0.079101 10.758001 -1.906085 10.925841 -1.563444 1.746150 0.004619 -0.000742 2903530.000000 1 0 0
8.838699 5.625401 8.039815 13.206300 0.566792 0.916266 0.005087 -0.002246 -748705.000000 1 0 0
2.730399 11.363301 -2.841885 12.027302 1.334985 1.809338 0.004696 -0.005243 -250258.000000 1 0 0
1.467299 2.450301 -6.763485 7.341776 1.031242 2.742034 -0.000501 0.000682 441198.000000 1 0 0
-13.640301 -2.199199 3.517115 14.257082 0.159852 1.321531 -0.002804 -0.000711 848736.000000 1 0 0
-0.969901 -10.710199 -5.280385 11.980465 1.480484 2.027230 0.001739 0.001195 1334280.000000 1 0 0
-5.634201 2.790701 0.381515 6.299030 -0.459892 1.510192 0.002871 -0.002373 1467790.000000 1 0 0
3.857399 7.222901 -5.062285 9.626866 1.080280 2.124510 0.001082 -0.000501 -1663880.000000 1 0 0
3.095799 9.763201 -6.450385 12.104195 1.263737 2.132826 0.004590 -0.000638 1820790.000000 1 0 0
-12.173301 1.778201 -2.593285 12.572843 -0.145048 1.778548 0.001770 -0.003836 912127.000000 1 0 0
-2.462601 9.722701 -5.762985 11.567511 -1.322730 2.092323 0.001490 -0.001339 858938.000000 1 0 0
-1.305701 3.271701 1.758315 3.937074 -1.191075 1.107830 -0.005844 -0.001163 1243300.000000 1 0 0
12.950399 3.759601 9.652215 16.583506 0.282541 0.949565 0.026443 -0.001103 -179442.000000 1 0 0
-2.606701 -9.592199 11.586615 15.266133 1.305452 0.709059 -0.006386 -0.002345 1058550.000000 1 0 0
-0.478601 -8.966499 -7.488785 11.692265 1.517470 2.265933 0.000263 0.001045 1741710.000000 1 0 0
2.327299 7.540301 -0.433385 7.903182 1.271425 1.625661 -0.001492 0.000427 1052370.000000 1 0 0
-11.857301 -1.179399 -5.583785 13.159226 0.099140 2.009012 0.005574 -0.000280 -735631.000000 1 0 0
-6.176201 -7.121099 -11.056785 14.529556 0.856338 2.435627 0.013090 -0.005157 2125140.000000 1 0 0
-4.743901 -2.269399 -1.439885 5.452342 0.446205 1.838052 0.001198 -0.001680 -867595.000000 1 0 0
-10.378301 3.768801 4.501115 11.923633 -0.348335 1.183706 0.002948 -0.003972 2850950.000000 1 0 0
6.844999 9.252201 -3.475485 12.022322 0.933840 1.864068 0.001521 0.000485 1441450.000000 1 0 0
1.240899 -2.715299 -11.552385 11.931902 -1.142134 2.888702 0.000979 -0.002487 -1136360.000000 1 0 0
1.256799 8.859901 7.551315 11.708960 1.429884 0.869881 -0.006833 0.004101 739670.000000 1 0 0
10.388399 0.445401 10.491415 14.771154 0.042849 0.780924 0.011453 -0.000994 1701870.000000 1 0 0
-5.261901 -0.885799 -4.010085 6.674805 0.166778 2.215272 0.003140 -0.003671 -756479.000000 1 0 0
11.708599 5.728301 5.452615 14.129251 0.455002 1.174603 0.000269 -0.000293 5278490.000000 1 0 0
9.897399 -3.518099 3.722715 11.144242 -0.341528 1.230201 0.009086 -0.006120 -935705.000000 1 0 0
7.294099 -1.807799 -3.397785 8.247240 -0.242949 1.995434 0.001873 0.000240 -2823510.000000 1 0 0
2.284499 9.233001 10.514415 14.178158 1.328240 0.735355 -0.004531 0.003890 2635640.000000 1 0 0
2.379899 -10.959399 6.322415 12.874210 -1.356960 1.057454 -0.004248 -0.000527 1320730.000000 1 0 0
5.903399 -7.563299 -1.252285 9.675838 -0.908039 1.700584 -0.000297 -0.001484 407644.000000 1 0 0
-0.285901 -5.688699 -2.343585 6.159174 1.520581 1.961137 0.003059 0.001496 2089340.000000 1 0 0
7.684499 -5.041999 2.685715 9.575299 -0.580670 1.286498 0.004705 -0.003865 1076350.000000 1 0 0
-2.657301 -12.479899 4.536715 13.542190 1.361003 1.229185 0.003908 -0.002349 -727906.000000 1 0 0
4.952499 -10.318499 -1.261785 11.514807 -1.123306 1.680596 0.002632 -0.002968 1239870.000000 1 0 0
0.978799 0.207101 1.079515 1.471832 0.208511 0.747413 -0.005161 0.000118 -1979940.000000 1 0 0
-1.525301 8.464301 2.537415 8.967129 -1.392506 1.283909 -0.004113 0.001630 313501.000000 1 0 0
-7.474501 0.637701 -3.153385 8.137485 -0.085111 1.968729 0.001523 -0.002244 -192394.000000 1 0 0
4.347899 -6.368199 12.835015 14.973169 -0.971740 0.540987 -0.003691 -0.001245 -2152990.000000 1 0 0
-5.051001 12.989301 8.483315 16.315673 -1.199931 1.024005 0.001073 -0.009459 786447.000000 1 0 0
0.689399 6.109701 8.265015 10.301174 1.458435 0.639596 -0.005585 0.003469 -927610.000000 1 0 0
7.954299 -0.568999 -0.692585 8.004643 -0.071412 1.657428 0.002487 -0.001914 5913080.000000 1 0 0
2.454099 -9.330399 -2.430385 9.949157 -1.313600 1.817574 -0.002764 0.001824 1547150.000000 1 0 0
-7.102601 12.189701 4.899615 14.934590 -1.043215 1.236535 0.002187 -0.007530 400879.000000 1 0 0
-14.917401 0.310801 0.192215 14.921876 -0.020832 1.557915 -0.000365 -0.006684 -644338.000000 1 0 0
6.859999 -0.454399 3.960815 7.934363 -0.066142 1.048124 0.000075 -0.000844 1102370.000000 1 0 0
-4.243701 -5.007199 5.137715 8.335296 0.867744 0.906658 0.002285 -0.001741 -723914.000000 1 0 0
2.941699 5.146201 6.924215 9.114918 1.051502 0.708010 -0.006173 0.001243 -33566.800000 1 0 0
2.028199 -7.266899 1.852015 7.768615 -1.298621 1.330081 0.001123 0.000454 1708620.000000 1 0 0
-2.405701 6.501201 -1.737285 7.146409 -1.216382 1.816356 0.000987 0.000849 2469890.000000 1 0 0
2.714999 -3.893599 -6.570385 8.105634 -0.961886 2.515964 -0.001900 -0.001056 810523.000000 1 0 0
-5.125401 1.028101 -12.282585 13.348731 -0.197962 2.739212 0.008235 -0.002311 16261.700000 1 0 0
-7.508601 6.513701 -11.853785 15.469958 -0.714566 2.443774 0.003395 -0.001310 3547920.000000 1 0 0
-0.996301 11.184301 -8.913185 14.336180 -1.481951 2.241742 0.004745 -0.001201 -206903.000000 1 0 0
4.665199 5.870301 -0.527585 7.516838 0.899288 1.641041 -0.000584 0.001809 267728.000000 1 0 0
-2.621101 13.436801 3.627715 14.162560 -1.378147 1.311761 -0.003145 0.003241 1283480.000000 1 0 0
1.466399 -7.940799 10.193715 13.004555 -1.388187 0.669943 -0.008679 0.003005 -467279.000000 1 0 0
12.972499 -0.304799 -0.939485 13.010045 -0.023491 1.643072 0.004539 -0.000744 -177892.000000 1 0 0
-1.036201 3.165401 -5.427885 6.368313 -1.254438 2.591215 0.002492 -0.002545 112967.000000 1 0 0
6.628499 1.121901 7.325215 9.942557 0.167665 0.742540 -0.001129 0.000713 1760520.000000 1 0 0
5.465899 -6.113999 6.844215 10.681775 -0.841308 0.875338 -0.002239 -0.000931 1293360.000000 1 0 0
12.227399 -4.912899 2.708315 13.452912 -0.382052 1.368093 0.006600 -0.002350 -167230.000000 1 0 0
4.364699 -9.206099 13.799215 17.152877 -1.128075 0.635990 -0.009404 0.003254 556982.000000 1 0 0
-2.763401 -4.300099 -1.373485 5.292797 0.999615 1.833302 0.004378 -0.001052 1650530.000000 1 0 0
-9.296001 -5.210599 -7.565485 13.069145 0.510884 2.188153 0.011087 -0.005972 2485380.000000 1 0 0
-10.602301 -3.136699 7.853615 13.561966 0.287646 0.953183 0.001565 0.003113 -612468.000000 1 0 0
12.000799 -0.554299 1.789915 12.146202 -0.046156 1.422894 0.003514 -0.003844 312116.000000 1 0 0
-7.453301 4.716901 4.333115 9.827346 -0.564232 1.114168 0.003491 -0.003335 2348630.000000 1 0 0
-1.066001 10.644901 6.978215 12.772852 -1.470987 0.992818 -0.005504 0.006156 2684270.000000 1 0 0
7.350199 -10.028399 1.860315 12.571992 -0.938304 1.422278 0.004155 -0.002927 4716160.000000 1 0 0
-4.390801 -1.705699 1.643515 4.988956 0.370528 1.235096 -0.002968 0.000187 2882070.000000 1 0 0
6.689899 -15.064599 -1.046285 16.516404 -1.152876 1.634187 0.017298 -0.007127 -2408040.000000 1 0 0
-10.346001 1.740801 2.301515 10.740907 -0.166697 1.354846 -0.001201 -0.000888 1052000.000000 1 0 0
-2.944701 8.311001 -11.363885 14.383389 -1.230284 2.481720 0.005152 -0.001308 237342.000000 1 0 0
-1.252601 -5.226799 -6.928885 8.769144 1.335583 2.481840 -0.001750 -0.000261 -273842.000000 1 0 0
12.783499 -0.461199 6.504615 14.350630 -0.036062 1.100373 0.015426 -0.006257 2266090.000000 1 0 0
5.883699 -13.316699 3.668115 15.013576 -1.154758 1.323978 0.005991 -0.003525 452320.000000 1 0 0
-5.558901 3.494601 -4.982285 8.242377 -0.561219 2.219899 0.002333 -0.002465 2560020.000000 1 0 0
-4.373201 7.959901 3.364115 9.685152 -1.068411 1.216055 0.000824 0.000260 610669.000000 1 0 0
14.010899 6.163801 -3.963485 15.811608 0.414447 1.824168 0.001773 0.002431 -754985.000000 1 0 0
-6.762801 -8.476799 5.336515 12.085942 0.897398 1.113474 0.003301 -0.000913 503251.000000 1 0 0
1.657199 11.342801 2.715515 11.780469 1.425721 1.338195 -0.003870 -0.001844 788947.000000 1 0 0
-7.374501 7.267201 5.973915 11.953373 -0.778070 1.047465 -0.000600 -0.006795 -1984860.000000 1 0 0
-17.442601 -3.997399 5.177215 18.628663 0.225284 1.289172 0.014325 -0.007816 127191.000000 1 0 0
7.484299 -13.115799 -8.622885 17.389453 -1.052251 2.089631 0.010323 -0.000938 -385168.000000 1 0 0
-2.256801 12.765001 -2.678485 13.236793 -1.395809 1.774555 0.000851 -0.000180 1252200.000000 1 0 0
-5.500901 13.938101 -5.697785 16.031074 -1.194896 1.934161 0.007568 -0.001275 3788660.000000 1 0 0
-5.650401 2.468001 7.414215 9.643062 -0.411809 0.693732 0.002101 -0.001408 1926320.000000 1 0 0
-7.339201 5.064501 1.387215 9.024267 -0.604025 1.416464 0.003928 -0.001717 1464810.000000 1 0 0
10.767599 -5.730199 -5.003985 13.183939 -0.489052 1.960108 0.005556 -0.000100 1413870.000000 1 0 0
-9.509501 -0.760299 6.777415 11.702223 0.079782 0.953103 0.003455 -0.001052 1086070.000000 1 0 0
-11.235701 -4.495199 -2.612885 12.380427 0.380577 1.783445 0.001170 0.000174 247687.000000 1 0 0
6.469799 -4.366699 13.473715 15.571363 -0.593706 0.525072 0.004834 -0.011179 -614083.000000 1 0 0
0.258599 10.289801 -11.572985 15.488088 1.545670 2.414663 0.003391 -0.002023 -2930010.000000 1 0 0
-11.789101 -3.109199 1.413115 12.273830 0.257863 1.455408 -0.003256 -0.000219 3397210.000000 1 0 0
5.286299 5.988601 5.495115 9.695596 0.847607 0.968224 -0.004458 0.001008 -4274300.000000 1 0 0
-7.098501 0.011701 8.166015 10.820012 -0.001648 0.715578 0.001492 -0.000042 579093.000000 1 0 0
1.799199 2.143401 9.688015 10.084092 0.872481 0.281202 -0.001412 -0.002625 3439040.000000 1 0 0
10.457599 -4.947799 -2.001385 11.740853 -0.441921 1.742096 0.003288 0.000790 572027.000000 1 0 0
-9.664401 -2.331699 -1.663085 10.079847 0.236742 1.736545 0.000184 -0.000870 -1759440.000000 1 0 0
-2.055601 -5.258199 -9.934185 11.426381 1.198131 2.624799 0.005812 -0.004138 -143745.000000 1 0 0
7.650999 -1.591399 6.600915 10.229488 -0.205075 0.869403 0.001919 -0.002399 3094270.000000 1 0 0
1.559899 -11.987499 -2.637385 12.372923 -1.441396 1.785602 -0.001054 0.000827 -2748280.000000 1 0 0
-0.747101 -1.511699 4.844815 5.129876 1.111789 0.334936 -0.000294 -0.001510 1420380.000000 1 0 0
7.669599 1.526301 9.963015 12.665465 0.196440 0.665467 0.003522 -0.000634 1307430.000000 1 0 0
-3.800801 10.782001 -7.985685 13.945207 -1.231884 2.180528 0.004705 -0.000069 1703330.000000 1 0 0
-9.515501 12.563801 6.497015 17.047142 -0.922592 1.179788 0.005118 -0.018786 1092410.000000 1 0 0
-2.591901 -2.482299 -11.071285 11.638433 0.763802 2.828123 0.008243 -0.005541 211785.000000 1 0 0
1.154099 -11.972999 11.115115 16.377742 -1.474701 0.824843 -0.015287 0.008273 2322860.000000 1 0 0
1.442599 3.417501 -1.967885 4.199164 1.171367 2.058544 -0.003131 0.001560 4089310.000000 1 0 0
-1.877101 -9.368999 -12.104485 15.421421 1.373062 2.473353 0.000036 0.000478 123831.000000 1 0 0
1.258999 -2.650499 1.554615 3.320701 -1.127344 1.083590 0.004406 -0.001390 3339400.000000 1 0 0
-1.095401 -2.277099 -6.594985 7.062501 1.122422 2.775695 0.000999 -0.004316 -273818.000000 1 0 0
1.881499 5.842801 4.101515 7.382465 1.259262 0.981742 -0.010972 0.003004 -701226.000000 1 0 0
-10.955401 8.655401 3.694615 14.442540 -0.668649 1.312106 -0.002353 -0.009774 2218400.000000 1 0 0
-16.365201 -1.527999 3.971915 16.909485 0.093099 1.333688 0.004084 -0.003631 -776346.000000 1 0 0
-12.179701 0.298801 6.726615 13.916959 -0.024528 1.066331 -0.001882 -0.000455 -444850.000000 1 0 0
-4.986201 3.048601 4.682215 7.488611 -0.548765 0.895351 -0.000983 -0.000082 1990390.000000 1 0 0
5.232999 -6.020999 3.991215 8.920006 -0.855304 1.106890 -0.000951 -0.002294 1437930.000000 1 0 0
9.942999 3.489301 6.306415 12.280445 0.337503 1.031499 -0.000172 0.002127 853823.000000 1 0 0
-12.121301 5.906201 3.220915 13.863024 -0.453402 1.336315 -0.002715 -0.005232 1368410.000000 1 0 0
-4.852101 12.330801 -1.227985 13.307873 -1.195911 1.663203 -0.001120 0.000821 1365170.000000 1 0 0
-1.738201 -12.215799 10.225415 16.025174 1.429454 0.878788 -0.005678 0.000925 2372580.000000 1 0 0
5.221699 6.362301 13.978215 16.221452 0.883545 0.532163 0.005786 0.002449 748480.000000 1 0 0
12.910199 -3.751399 -5.867485 14.668797 -0.282789 1.982311 0.005591 0.000375 1519220.000000 1 0 0
3.539499 -2.452499 6.345915 7.668992 -0.605941 0.596197 -0.003995 -0.000431 1878160.000000 1 0 0
7.281899 -11.887499 -0.727885 13.959531 -1.021187 1.622963 0.008396 0.000194 -841671.000000 1 0 0
-6.023001 -6.557899 -4.118085 9.810260 0.827889 2.003992 0.010130 -0.001923 1048690.000000 1 0 0
0.294099 -8.918699 5.100715 10.278472 -1.537833 1.051520 0.002868 -0.001383 2433850.000000 1 0 0
-10.240601 2.540801 -0.448785 10.560634 -0.243200 1.613305 -0.000600 -0.001318 -1541460.000000 1 0 0
-1.768101 8.948101 -0.277485 9.125332 -1.375714 1.601209 0.003202 0.001774 1982480.000000 1 0 0
-3.518501 2.318101 -6.681585 7.899178 -0.582559 2.578968 0.005352 -0.005620 78465.600000 1 0 0
-12.574501 3.132301 6.369115 14.439356 -0.244131 1.113979 -0.003056 -0.005578 -11666.100000 1 0 0
11.342799 1.663401 7.922215 13.935117 0.145610 0.966106 0.012631 -0.006400 -1520240.000000 1 0 0
6.045599 2.542901 -3.173585 7.286100 0.398155 2.021464 -0.001884 0.000921 1457660.000000 1 0 0
10.495999 -2.454399 6.405415 12.538717 -0.229714 1.034622 0.012316 -0.006543 3172800.000000 1 0 0
-0.942401 10.991101 4.120315 11.775798 -1.485263 1.213335 -0.002082 0.002599 1412730.000000 1 0 0
-1.614901 -12.251099 7.306515 14.355574 1.439735 1.036812 -0.006097 0.001730 -873741.000000 1 0 0
8.121899 8.557701 -7.717085 14.097975 0.811520 2.150038 -0.001911 -0.003268 1499900.000000 1 0 0
-4.706301 -5.979899 -8.785185 11.622734 0.904020 2.427766 0.009799 -0.005362 365893.000000 1 0 0
-8.477501 -5.258099 -11.665785 15.349468 0.555170 2.434128 0.013886 -0.005062 3545310.000000 1 0 0
6.005099 -0.638499 -9.909885 11.604944 -0.105928 2.594300 0.001872 0.003280 890050.000000 1 0 0
-11.205901 -5.418599 -5.387185 13.563008 0.450400 1.979257 0.003605 -0.004019 -1063090.000000 1 0 0
3.911599 8.831201 -2.709585 10.031578 1.153838 1.844299 0.003186 -0.001310 390111.000000 1 0 0
11.616399 -10.489699 -4.037585 16.164053 -0.734474 1.823258 0.012635 -0.002595 719488.000000 1 0 0
3.975799 -11.324099 3.898615 12.619089 -1.233149 1.256712 -0.000428 0.000129 -780981.000000 1 0 0
-0.924801 0.839201 3.251615 3.483176 -0.736910 0.366687 -0.001768 -0.001713 -262192.000000 1 0 0
-10.616601 -5.103899 4.504715 12.611679 0.448127 1.205543 0.003793 0.001233 4117540.000000 1 0 0
4.564099 -8.670999 2.880415 10.213423 -1.086281 1.284895 -0.000737 -0.000247 4908850.000000 1 0 0
-3.704301 -5.724699 2.592415 7.294837 0.996481 1.207479 0.003330 -0.000594 458532.000000 1 0 0
10.109199 5.075301 12.300815 16.711213 0.465284 0.743533 0.016716 0.001841 1361170.000000 1 0 0
1.585299 -12.429199 -5.297585 13.603771 -1.443935 1.970799 -0.002009 0.000190 906997.000000 1 0 0
9.893699 -10.731999 -1.679185 14.692881 -0.826019 1.685332 0.008396 -0.000474 1086520.000000 1 0 0
9.599999 -4.486699 -9.239985 14.059437 -0.437200 2.287906 0.007796 0.000519 1342350.000000 1 0 0
-7.499801 -2.952799 -13.083085 15.366625 0.375078 2.589438 0.008570 -0.003084 2811480.000000 1 0 0
0.528299 6.222401 -2.589685 6.760462 1.486097 1.963907 -0.001057 0.001039 3083370.000000 1 0 0
-5.992801 -9.424299 0.969215 11.210284 1.004406 1.484231 0.003259 0.003896 -620212.000000 1 0 0
-8.958601 -4.023899 0.509315 9.834007 0.422160 1.518982 -0.004234 0.000748 2659040.000000 1 0 0
1.816199 3.833401 12.127715 12.848152 1.128342 0.336468 -0.001043 -0.003987 312.623000 1 0 0
6.720699 4.343401 9.674715 12.555199 0.573750 0.691054 0.001611 0.002478 3113450.000000 1 0 0
-8.258001 9.951801 -3.548585 13.409898 -0.878147 1.838611 -0.000934 -0.001140 1839960.000000 1 0 0
16.461699 2.110401 -5.930285 17.624120 0.127505 1.913980 0.007988 0.005555 713726.000000 1 0 0
-10.908401 2.721501 -5.093085 12.342580 -0.244495 1.996151 0.003124 -0.001358 727557.000000 1 0 0
-13.696001 4.094001 1.544415 14.377987 -0.290465 1.463173 -0.000881 -0.000755 -1462730.000000 1 0 0
-17.364501 10.439801 3.294115 20.527214 -0.541313 1.409624 0.010816 -0.006880 940716.000000 1 0 0
-14.239401 2.945901 -1.081485 14.581100 -0.204006 1.645035 -0.001714 -0.002675 404344.000000 1 0 0
-14.324101 5.142701 5.127815 16.059942 -0.344692 1.245814 -0.002940 -0.004411 1397360.000000 1 0 0
-17.265901 7.484901 3.130215 19.077036 -0.409055 1.405968 -0.004030 0.001107 -3363530.000000 1 0 0
-14.724801 12.701601 -3.281185 19.720969 -0.711763 1.737954 0.021380 -0.005299 -207105.000000 1 0 0
-8.533101 12.555301 -9.571285 17.945999 -0.973865 2.133338 0.007876 -0.008260 406609.000000 1 0 0
-12.375301 8.892601 -9.817985 18.127858 -0.623085 2.143131 0.000434 0.001203 -641018.000000 1 0 0
-13.828701 -3.530799 -12.165085 18.753368 0.249983 2.276656 0.002293 -0.003976 -2421790.000000 1 0 0
-14.773801 5.722001 -7.602885 17.573001 -0.369517 2.018222 0.014891 0.003661 521055.000000 1 0 0
-10.841601 13.576201 -8.263585 19.239033 -0.896926 2.014760 0.007302 -0.010262 44440.500000 1 0 0
-10.793701 13.574501 4.076615 17.815438 -0.899023 1.339926 0.011286 -0.012577 -472430.000000 1 0 0
-15.140501 3.243901 3.063115 15.784180 -0.211062 1.375495 -0.004821 0.000281 416509.000000 1 0 0
-11.146201 9.583001 -12.458185 19.268577 -0.710130 2.273856 0.000316 -0.001867 386721.000000 1 0 0
-13.090701 11.582401 -8.908385 19.618302 -0.724343 2.042142 0.010206 -0.016414 288635.000000 1 0 0
-8.897901 14.593301 -3.452885 17.437301 -1.023257 1.770131 0.006110 -0.007503 2821380.000000 1 0 0
-16.686201 8.278101 -4.264785 19.108758 -0.460526 1.795877 0.024495 0.000995 -541119.000000 1 0 0
-16.834501 6.736301 0.335915 18.135352 -0.380634 1.552273 0.009144 0.005149 -672581.000000 1 0 0
-10.436601 2.939001 -12.441385 16.502982 -0.274497 2.424755 0.000880 -0.004238 -401531.000000 1 0 0
-16.845901 0.937901 2.414715 17.043910 -0.055618 1.428642 -0.001028 -0.005191 -333043.000000 1 0 0
-12.635101 1.359001 -7.008385 14.512413 -0.107146 2.074787 0.005695 -0.001327 1793310.000000 1 0 0
-12.210701 9.010001 -5.428185 16.116654 -0.635697 1.914319 0.006604 0.001149 -248089.000000 1 0 0
-9.601501 13.955701 1.431515 16.999989 -0.968171 1.486490 0.015189 -0.008348 169965.000000 1 0 0
-12.148101 11.175101 2.916415 16.762002 -0.743704 1.395917 0.006387 -0.011012 1063850.000000 1 0 0
-12.470101 6.886201 -3.648485 14.704918 -0.504544 1.821528 -0.000373 0.002533 263435.000000 1 0 0
-15.832101 3.753201 -9.418785 18.800411 -0.232766 2.095537 0.018338 -0.000883 -1207770.000000 1 0 0
-15.019501 5.806701 -4.632685 16.756042 -0.368911 1.850924 0.012855 0.004296 1842790.000000 1 0 0
-17.810001 5.328401 7.578315 20.075329 -0.290705 1.183708 0.001687 -0.000880 -230089.000000 1 0 0
-15.850601 10.171401 -2.160985 18.957025 -0.570521 1.685039 0.029026 0.000323 -786417.000000 1 0 0
-8.701701 10.027601 -8.346085 15.682140 -0.856073 2.131997 -0.001469 -0.000950 218252.000000 1 0 0
-16.943901 4.234701 -1.250985 17.509810 -0.244908 1.642302 0.002136 -0.002380 -286355.000000 1 0 0
-10.143201 5.485901 -4.597585 12.414404 -0.495787 1.950174 0.002938 -0.000824 321426.000000 1 0 0
-18.085201 2.847801 6.140415 19.310338 -0.156183 1.247192 0.013481 -0.010413 -722828.000000 1 0 0
-10.233701 10.172201 -5.702185 15.515064 -0.782384 1.947143 -0.003824 -0.003034 1152850.000000 1 0 0
-15.349601 0.547901 -5.879085 16.446096 -0.035680 1.936360 0.005951 -0.000946 441046.000000 1 0 0
-16.316801 -4.068499 -8.950985 19.050218 0.244361 2.059931 0.011910 -0.007854 -683528.000000 1 0 0
-9.920801 9.711301 -1.009885 13.919466 -0.774727 1.643412 -0.002106 -0.000701 1492760.000000 1 0 0
-17.328901 -2.899099 -3.253885 17.868502 0.165763 1.753920 0.002778 0.000560 -865754.000000 1 0 0
-11.978001 5.193001 -11.564785 17.440872 -0.409086 2.295729 0.007168 0.002453 277829.000000 1 0 0
-16.265901 7.169601 5.869015 18.719723 -0.415156 1.251898 0.001619 -0.002360 499900.000000 1 0 0
-12.120301 6.088301 -8.814585 16.176094 -0.465504 2.147083 0.005856 0.001823 2097700.000000 1 0 0
-14.592901 8.473101 -0.162585 16.875207 -0.526056 1.580431 0.015551 -0.001674 -130800.000000 1 0 0
-14.840201 11.912901 3.928615 19.431489 -0.676413 1.367215 0.001675 -0.014689 969488.000000 1 0 0
-17.246301 4.171701 -4.053585 18.200811 -0.237331 1.795394 0.010639 -0.001309 -687119.000000 1 0 0
-13.980201 13.365801 -0.539885 19.348957 -0.762934 1.598702 0.020250 -0.010557 -267100.000000 1 0 0
-10.126801 6.975501 -13.094585 17.963237 -0.603180 2.387606 0.000083 -0.003709 1620020.000000 1 0 0
-15.805101 -1.037599 -8.363985 17.911842 0.065556 2.056638 0.005871 -0.005356 -57370.500000 1 0 0
-11.436201 11.988001 0.134315 16.568551 -0.808951 1.562690 0.010265 -0.006553 1239420.000000 1 0 0
-11.963301 7.475701 -0.897785 14.135512 -0.558517 1.634352 -0.002564 0.002370 3226720.000000 1 0 0
-11.490901 0.303601 -11.662685 16.375323 -0.026415 2.363439 0.003876 -0.004464 -457032.000000 1 0 0
-19.004601 -1.141499 -4.736185 19.619106 0.059992 1.814612 0.005689 0.001937 -2519650.000000 1 0 0
-17.919101 1.562101 -5.122985 18.702388 -0.086955 1.848264 0.005712 0.002948 -1445700.000000 1 0 0
-13.322701 0.037501 -9.519685 16.374375 -0.002815 2.191216 0.007874 -0.002386 -1666530.000000 1 0 0
-6.201601 11.356201 -13.241585 18.513852 -1.070954 2.367743 0.008262 -0.000625 -383661.000000 1 0 0
16.453499 5.895001 7.110115 18.868556 0.344034 1.184432 0.016854 -0.003065 358776.000000 1 0 0
14.732999 10.007601 -5.702085 18.700992 0.596673 1.880638 0.007087 -0.003036 546579.000000 1 0 0
2.403399 16.890001 4.448215 17.630515 1.429448 1.315738 0.015412 -0.007211 3125930.000000 1 0 0
-3.873101 18.203501 -5.738085 19.475471 -1.361156 1.869866 0.004847 -0.004253 1153120.000000 1 0 0
5.373999 14.502801 5.606715 16.451333 1.215934 1.223022 0.003039 -0.001661 -2555720.000000 1 0 0
9.825099 6.080001 15.025915 18.954606 0.554145 0.655519 0.023050 -0.001905 -791825.000000 1 0 0
4.741699 12.680701 -1.189785 13.590418 1.212964 1.658454 0.002571 -0.007775 761727.000000 1 0 0
3.506099 13.706101 13.055215 19.250677 1.320361 0.825528 0.004965 -0.003287 -128365.000000 1 0 0
-0.731901 12.412001 9.271515 15.509817 -1.511897 0.930063 -0.008856 0.002168 812585.000000 1 0 0
-7.702601 13.850101 8.429815 17.950407 -1.063251 1.081940 0.007679 -0.020396 103762.000000 1 0 0
11.542599 12.790901 -4.143785 17.720319 0.836653 1.806825 0.025312 -0.001394 1077790.000000 1 0 0
-5.824701 16.170301 0.885915 17.210189 -1.225055 1.519297 0.003815 0.002767 715228.000000 1 0 0
3.244199 10.691601 6.717815 13.037031 1.276192 1.029454 -0.006255 0.007256 1449020.000000 1 0 0
-1.192201 15.591101 2.465515 15.829799 -1.494478 1.414408 0.002548 -0.000951 -890060.000000 1 0 0
9.948299 8.889901 9.483215 16.368578 0.729274 0.952859 0.011653 -0.004286 1914810.000000 1 0 0
7.218199 12.301401 6.279515 15.583939 1.040155 1.156061 0.003849 -0.000310 43120.400000 1 0 0
11.841699 14.029001 -1.542885 18.423333 0.869745 1.654641 0.015966 -0.004151 -802956.000000 1 0 0
9.670599 15.893001 -1.264685 18.646914 1.024164 1.638671 0.017599 -0.008452 121842.000000 1 0 0
10.150999 13.713101 2.906615 17.307233 0.933570 1.402054 0.016827 -0.005100 2282580.000000 1 0 0
-5.967001 14.485801 6.274515 16.876405 -1.180056 1.189858 -0.005832 -0.009718 902544.000000 1 0 0
-0.977201 18.262401 -6.171485 19.301747 -1.517338 1.896248 0.023376 -0.000718 -657201.000000 1 0 0
-3.423401 15.766401 5.533415 17.056311 -1.356983 1.240397 -0.008650 -0.002115 1359980.000000 1 0 0
7.019699 12.329101 10.734615 17.790864 1.053211 0.923066 0.003476 0.001234 3146530.000000 1 0 0
1.521399 14.607901 6.317515 15.988008 1.467021 1.164575 0.001689 0.000594 1495370.000000 1 0 0
17.456099 7.597901 -1.378485 19.087790 0.410527 1.643077 0.001824 0.005806 188808.000000 1 0 0
2.186799 16.230801 -3.247785 16.696380 1.436871 1.766565 0.004783 -0.004231 1268110.000000 1 0 0
6.759699 11.161401 0.603215 13.062705 1.026246 1.524601 0.004428 -0.005749 1027710.000000 1 0 0
12.707599 9.336001 3.214215 16.092705 0.633623 1.369713 0.008122 -0.000015 -1975050.000000 1 0 0
6.120999 14.234401 -3.429285 15.869618 1.164686 1.788606 -0.000828 -0.005289 1046480.000000 1 0 0
3.054799 16.381501 1.608215 16.741318 1.386435 1.474585 0.005207 -0.018129 -804411.000000 1 0 0
2.811999 19.004301 -2.531985 19.377351 1.423896 1.701838 0.017437 -0.008186 -1441960.000000 1 0 0
3.884899 11.903401 10.831815 16.556316 1.255327 0.857618 0.003360 -0.001705 2943200.000000 1 0 0
8.096499 11.543301 3.387515 14.500908 0.959130 1.335011 0.002345 -0.001338 1912470.000000 1 0 0
0.886199 12.516901 0.171115 12.549400 1.500114 1.557161 0.003014 -0.004693 -1832900.000000 1 0 0
12.031399 9.817401 -4.547585 16.180743 0.684410 1.855684 0.011545 0.002105 444703.000000 1 0 0
-1.327301 16.510401 10.067315 19.383134 -1.490577 1.024665 0.001921 0.000407 -1158090.000000 1 0 0
8.153099 14.638701 -8.003285 18.569253 1.062629 2.016393 0.014001 -0.004353 1021340.000000 1 0 0
14.488499 7.619801 -1.285585 16.420435 0.484168 1.649168 0.002292 0.002389 383390.000000 1 0 0
12.539499 8.351701 5.968615 16.205379 0.587563 1.193605 0.004295 -0.003102 -75785.200000 1 0 0
-3.015601 14.230101 10.258815 17.799800 -1.361969 0.956548 0.003834 -0.010873 2961120.000000 1 0 0
-4.602101 17.076101 -3.098085 17.954684 -1.307546 1.744214 0.008013 -0.006318 876292.000000 1 0 0
-7.159601 16.474201 -1.731985 18.046023 -1.160827 1.666920 0.010786 -0.001877 -39352.900000 1 0 0
8.464299 11.208001 -1.767085 14.155784 0.923975 1.695954 0.005252 -0.005222 -351185.000000 1 0 0
8.612199 12.857401 -4.196585 16.034153 0.980611 1.835608 0.010505 -0.004100 1348150.000000 1 0 0
2.525199 14.845501 -7.280285 16.726269 1.402310 2.021124 -0.000458 -0.001692 -1520210.000000 1 0 0
11.367299 11.387701 9.749215 18.813357 0.786295 1.026043 0.016906 -0.004967 -211564.000000 1 0 0
8.547499 15.692501 1.362615 17.921245 1.072041 1.494689 0.012415 -0.007923 68638.600000 1 0 0
6.003899 9.973401 7.743015 13.981052 1.028914 0.983849 0.002980 0.006398 2948900.000000 1 0 0
14.438399 11.456801 2.524015 18.603664 0.670762 1.434704 0.020523 0.000352 1573980.000000 1 0 0
12.201499 12.738301 1.074615 17.671890 0.806919 1.509950 0.022534 0.002583 1747610.000000 1 0 0
5.188899 16.014301 8.166715 18.710364 1.257454 1.119113 0.014197 0.001612 -1443410.000000 1 0 0
11.466799 15.021901 5.064215 19.565052 0.918813 1.308975 0.020260 -0.003935 793212.000000 1 0 0
5.955499 16.678801 1.657815 17.787600 1.227837 1.477460 0.001211 -0.020141 517483.000000 1 0 0
-0.597401 16.116401 -4.139785 16.650318 -1.533745 1.822063 0.013637 -0.004152 1602410.000000 1 0 0
16.026199 6.409301 2.585115 17.452822 0.380443 1.422129 -0.001152 -0.003087 285672.000000 1 0 0
7.703399 16.642201 -3.203385 18.616307 1.137280 1.743731 0.005985 -0.009746 505322.000000 1 0 0
14.922899 8.299201 7.456215 18.632359 0.507544 1.159088 0.014865 -0.000335 470420.000000 1 0 0
2.191199 12.961401 8.645515 15.733537 1.403324 0.989036 -0.000343 0.003535 2761360.000000 1 0 0
15.947999 7.278501 -5.938885 18.509068 0.428155 1.897437 -0.005250 0.005473 -361911.000000 1 0 0
-2.970201 17.052601 0.682315 17.322784 -1.398348 1.531398 0.004594 -0.002704 1464330.000000 1 0 0
-2.900001 18.588401 4.563215 19.358760 -1.416033 1.332839 0.001942 -0.003641 252408.000000 1 0 0
-0.818101 19.053001 0.878415 19.090776 -1.527885 1.524768 0.006247 -0.008920 490416.000000 1 0 0
6.993399 16.712801 -6.101985 19.116997 1.174490 1.895673 0.010456 -0.001988 196740.000000 1 0 0
11.047499 10.064201 0.881015 14.970356 0.738856 1.511912 0.009173 0.000244 -1454180.000000 1 0 0
9.106299 8.794001 14.225115 19.042401 0.767953 0.727223 0.022813 -0.006387 753285.000000 1 0 0
6.370099 12.258801 -8.286585 16.109744 1.091565 2.111085 0.013730 -0.007708 1232780.000000 1 0 0
6.312899 9.071201 13.256315 17.258889 0.962809 0.694949 0.010749 -0.006653 712798.000000 1 0 0
16.632799 9.459001 2.759215 19.332252 0.517083 1.427581 0.008392 -0.006280 -2002940.000000 1 0 0
2.619499 14.632101 -0.758585 14.884072 1.393649 1.621785 0.001746 -0.007744 284699.000000 1 0 0
8.998999 12.893501 8.456415 17.853159 0.961449 1.077349 0.005787 -0.001814 2037260.000000 1 0 0
7.250599 9.387401 10.493815 15.837128 0.913128 0.846500 0.006290 -0.002004 1507340.000000 1 0 0
4.367399 15.788401 -5.299685 17.217271 1.300924 1.883689 0.004021 -0.003993 2646080.000000 1 0 0
0.290799 16.404701 -8.104185 18.299634 1.553072 2.029583 0.012958 0.000765 -79216.500000 1 0 0
-2.376001 15.622801 -1.846385 15.909947 -1.419867 1.687111 0.003520 -0.000394 1212730.000000 1 0 0
13.286499 10.555901 7.663915 18.619712 0.671368 1.146585 0.009500 -0.005893 744105.000000 1 0 0
-0.962001 15.975501 7.225715 17.559984 -1.510652 1.146711 0.004994 -0.000353 2549090.000000 1 0 0
13.309399 13.424201 6.698415 20.055374 0.789692 1.230256 0.017787 -0.000615 -272020.000000 1 0 0
5.425599 17.247701 4.450115 18.620522 1.266027 1.329471 0.010544 -0.013730 940902.000000 1 0 0
10.930599 9.483901 -1.800785 14.583045 0.714650 1.694597 0.005162 0.000455 976410.000000 1 0 0
3.208399 12.721501 4.734015 13.947806 1.323745 1.224508 -0.003755 0.000997 696024.000000 1 0 0
-0.160901 18.025301 3.619715 18.385856 -1.561870 1.372627 0.008168 -0.007614 1938480.000000 1 0 0
-7.757001 15.924301 -5.745685 18.621689 -1.117508 1.884463 0.010563 -0.009129 -904989.000000 1 0 0
-12.422101 -9.186499 8.337015 17.555802 0.636766 1.075961 0.007930 -0.001301 358630.000000 1 0 0
-13.214401 -11.865299 6.980315 19.082204 0.731657 1.196302 0.009131 0.009537 -753710.000000 1 0 0
-6.521701 -12.295599 12.147715 18.473801 1.083118 0.853215 0.002208 -0.001866 -1131210.000000 1 0 0
-1.823501 -10.715499 14.369215 18.017253 1.402237 0.647614 -0.004228 0.001247 1638670.000000 1 0 0
-8.795501 2.855301 10.950015 14.332355 -0.313899 0.701296 0.010415 -0.002905 826771.000000 1 0 0
0.613999 10.090401 15.028815 18.112384 1.510021 0.592130 0.002985 -0.009235 -449617.000000 1 0 0
0.966299 -6.730399 16.466715 17.815294 -1.428198 0.391593 -0.004995 -0.015776 1524940.000000 1 0 0
6.030499 2.267201 17.782615 18.913712 0.359608 0.347588 0.009983 -0.002795 1934180.000000 1 0 0
-5.168601 -2.965099 17.627115 18.607026 0.520838 0.325983 0.016198 -0.008203 1713590.000000 1 0 0
-4.321501 8.166201 13.118515 16.045486 -1.084068 0.613596 0.003046 -0.001294 -593296.000000 1 0 0
0.019999 -4.854299 18.530315 19.155605 -1.566676 0.256210 0.001679 -0.021294 -984851.000000 1 0 0
-11.570901 2.007901 11.181815 16.215745 -0.171819 0.809908 0.007449 -0.003759 413235.000000 1 0 0
-3.392701 -6.084699 14.316015 15.921126 1.062153 0.452896 0.010609 -0.007056 1434020.000000 1 0 0
-7.548101 -2.283199 14.606315 16.599134 0.293737 0.495051 0.010529 -0.001323 1298450.000000 1 0 0
-6.133701 -1.124699 10.610515 12.307325 0.181349 0.531338 0.005368 -0.002251 1114430.000000 1 0 0
-3.859701 2.407601 11.182815 12.072663 -0.557721 0.386345 0.000242 0.001325 1136410.000000 1 0 0
-6.433401 6.304201 13.528315 16.252597 -0.775255 0.587410 0.000733 -0.002169 1347440.000000 1 0 0
-8.964501 5.469801 12.532715 16.350839 -0.547858 0.697442 0.001938 -0.006152 -251645.000000 1 0 0
-12.193501 -2.070699 15.864815 20.116203 0.168215 0.662172 -0.004295 0.004196 822757.000000 1 0 0
-3.470801 -7.615299 16.944215 18.898298 1.143157 0.458765 0.016660 -0.011309 -491142.000000 1 0 0
-0.559301 -5.289899 14.312315 15.268864 1.465458 0.355844 0.003847 -0.007091 1738250.000000 1 0 0
-14.204301 -2.146899 13.683015 19.839260 0.150009 0.809730 0.002919 0.001357 -807886.000000 1 0 0
-6.395201 1.513501 12.147915 13.811630 -0.232386 0.495897 0.004527 -0.000347 1746370.000000 1 0 0
2.169999 -2.199599 14.612515 14.935619 -0.792172 0.208382 -0.002997 -0.003090 -1469480.000000 1 0 0
-12.531801 3.976001 9.213115 16.054161 -0.307227 0.959564 -0.001508 -0.004783 -247318.000000 1 0 0
-9.185301 -3.096599 12.571015 15.874164 0.325160 0.656855 0.004024 0.001549 432314.000000 1 0 0
-7.098301 -7.183899 15.278615 18.314758 0.791391 0.584072 0.015747 -0.005458 -1192730.000000 1 0 0
-3.231901 5.911201 19.596815 20.722515 -1.070458 0.331124 0.022553 -0.000426 -211482.000000 1 0 0
0.657899 5.357801 16.177515 17.054350 1.448615 0.322059 0.002708 -0.000775 2272030.000000 1 0 0
3.349599 1.491501 16.735615 17.132577 0.418920 0.215685 -0.005708 -0.005408 2346030.000000 1 0 0
-11.661801 11.400401 7.903715 18.122788 -0.774064 1.119514 0.005484 -0.022448 -731496.000000 1 0 0
0.583599 -9.434799 15.388015 18.059541 -1.509019 0.550867 -0.015395 0.001327 948970.000000 1 0 0
-2.561201 -3.620599 18.873715 19.387769 0.955123 0.230792 0.017742 -0.019248 2445660.000000 1 0 0
-12.923701 2.310201 13.758515 19.017250 -0.176889 0.761973 0.000419 -0.001896 1374090.000000 1 0 0
-5.437001 -0.627099 15.766915 16.689812 0.114832 0.334109 0.009966 0.001072 1066420.000000 1 0 0
-4.485101 -5.994099 11.659415 13.855949 0.928414 0.570791 0.004670 -0.000403 140357.000000 1 0 0
2.365399 1.797701 14.013215 14.324700 0.649870 0.208920 -0.002454 -0.003305 -159819.000000 1 0 0
0.072999 3.277001 14.290815 14.661905 1.548524 0.225465 0.002761 -0.002287 -186123.000000 1 0 0
-13.095201 7.039201 12.147015 19.198557 -0.493227 0.885756 0.008263 -0.013841 394113.000000 1 0 0
0.820599 1.461001 18.284415 18.361038 1.059038 0.091390 0.004094 -0.005223 1139360.000000 1 0 0
-2.028201 6.441601 12.459215 14.171798 -1.265763 0.496709 -0.002500 -0.000314 1150110.000000 1 0 0
-13.511101 -2.633099 10.915215 17.567725 0.192472 0.900368 0.008694 0.001214 -661597.000000 1 0 0
-2.512901 3.615701 13.522915 14.221715 -0.963436 0.314782 0.000152 0.000797 -1744520.000000 1 0 0
3.575999 6.012901 16.431515 17.858819 1.034267 0.402516 0.001429 0.000295 544082.000000 1 0 0
-3.801701 12.356001 12.374915 17.895871 -1.272308 0.807239 0.008252 -0.013908 1518740.000000 1 0 0
3.699899 -1.482799 17.087815 17.546548 -0.381168 0.229166 0.005160 -0.011368 -12461.600000 1 0 0
-15.815001 0.515001 9.176215 18.291594 -0.032553 1.045276 0.009647 -0.001788 479971.000000 1 0 0
-4.662201 4.577401 15.220515 16.563598 -0.776221 0.405479 0.006995 -0.001188 598178.000000 1 0 0
-7.982201 -8.167599 10.505415 15.517376 0.796878 0.827104 0.003238 -0.001376 3180350.000000 1 0 0
-2.706801 -0.506099 14.741315 14.996309 0.184839 0.184674 0.007875 -0.001172 942024.000000 1 0 0
-1.893501 0.955701 17.252915 17.382801 -0.467422 0.122323 0.005650 -0.003208 2653080.000000 1 0 0
-0.718801 -2.434599 14.365815 14.588372 1.283708 0.174898 0.003355 -0.003171 337072.000000 1 0 0
5.012499 -8.288099 16.463315 19.101269 -1.026868 0.531799 -0.007187 -0.007009 483481.000000 1 0 0
-4.516301 9.946801 10.684015 15.280183 -1.144583 0.796508 -0.000232 -0.007644 -665424.000000 1 0 0
-6.232101 2.112701 15.165215 16.531374 -0.326845 0.409401 0.009125 -0.000026 -1122160.000000 1 0 0
-4.846501 6.789501 17.316815 19.221289 -0.950853 0.448915 0.007266 0.004721 359784.000000 1 0 0
-3.918901 9.190001 15.807615 18.700123 -1.167714 0.563630 0.007913 -0.000666 234302.000000 1 0 0
-4.627401 -9.882399 18.440215 21.426996 1.132872 0.534337 0.026550 -0.009835 -675776.000000 1 0 0
-6.913501 -4.116599 11.110015 13.717701 0.537062 0.626809 0.006098 0.001073 1555720.000000 1 0 0
-2.334801 -0.817099 19.641415 19.796568 0.336644 0.125281 0.012839 -0.005811 -336364.000000 1 0 0
-5.718201 -4.500299 15.230415 16.879456 0.666772 0.445710 0.018048 -0.003952 377819.000000 1 0 0
-12.891101 -0.006599 9.682815 16.122575 0.000512 0.926576 0.001294 0.002813 2128260.000000 1 0 0
-14.362001 8.759201 10.268915 19.708914 -0.547658 1.022740 -0.002879 -0.014209 -437632.000000 1 0 0
-8.340501 10.428601 12.914015 18.576637 -0.896195 0.802133 0.003272 -0.014280 -442786.000000 1 0 0
-10.495801 7.137501 10.794815 16.662346 -0.597200 0.866029 0.009797 -0.011023 -1347090.000000 1 0 0
-9.839601 -6.642599 14.777715 18.955810 0.593810 0.676789 0.013712 -0.003509 -474904.000000 1 0 0
-0.741301 -13.442299 14.503215 19.788587 1.515705 0.748210 -0.013523 0.000873 1121160.000000 1 0 0
3.757099 -5.718599 16.874715 18.209178 -0.989518 0.385223 0.002688 -0.019140 1581450.000000 1 0 0
-7.356801 9.309101 10.400215 15.778034 -0.902010 0.851098 0.005898 -0.012869 809403.000000 1 0 0
-10.365501 -6.763499 11.813015 17.109525 0.578131 0.808706 0.008431 -0.002692 877830.000000 1 0 0
-11.018101 -3.983699 10.718115 15.879118 0.346935 0.829856 0.004603 0.004042 -506325.000000 1 0 0
-9.997101 -10.223399 9.811415 17.341389 0.796589 0.969417 0.001864 -0.004937 1427300.000000 1 0 0
-9.924401 -3.667799 15.283515 18.588499 0.354005 0.605526 0.008784 -0.005256 2082950.000000 1 0 0
5.545099 -3.376999 16.005115 17.271825 -0.547015 0.385368 0.007198 -0.015132 32649.400000 1 0 0
-11.222801 0.603801 15.306415 18.989528 -0.053749 0.633357 0.003291 0.000317 -1377890.000000 1 0 0
-3.208001 3.157501 18.761015 19.293438 -0.777465 0.235474 0.010580 -0.003211 -1367180.000000 1 0 0
0.427299 7.249801 14.009415 15.779921 1.511925 0.478253 -0.001016 -0.003034 449871.000000 1 0 0
-13.107101 -7.437899 12.298015 19.451468 0.516158 0.886354 0.000830 0.001406 -74774.700000 1 0 0
-1.434901 -1.033399 12.114215 12.242592 0.624147 0.144945 0.001008 -0.001620 1129920.000000 1 0 0
2.036999 -4.811699 13.039215 14.047168 -1.170330 0.381130 -0.003703 -0.003573 732658.000000 1 0 0
-14.731401 -4.062299 8.597215 17.533641 0.269071 1.058332 0.011898 -0.004789 -838517.000000 1 0 0
8.004699 0.805201 16.104115 18.001835 0.100254 0.463302 0.017121 -0.006332 1253830.000000 1 0 0
-1.309201 11.423101 13.429515 17.679172 -1.456684 0.708062 -0.003250 -0.001002 1202060.000000 1 0 0
2.876599 -12.328899 -13.869285 18.778542 -1.341575 2.401744 0.003705 0.003419 -106509.000000 1 0 0
0.856399 -10.743399 -14.033185 17.694189 -1.491251 2.486671 0.001171 0.002949 -2243930.000000 1 0 0
3.140399 -14.402299 -12.424285 19.278257 -1.356108 2.271128 -0.000647 -0.000109 -1646950.000000 1 0 0
-5.020001 -10.150799 -16.197085 19.763216 1.111524 2.531434 0.017812 -0.008377 -554624.000000 1 0 0
-1.019401 -12.251799 -14.934985 19.344238 1.487783 2.452878 0.012459 -0.005345 -272215.000000 1 0 0
5.685499 -15.159899 -12.000785 20.153568 -1.211995 2.208643 0.000143 0.002752 762113.000000 1 0 0
2.037799 -11.796199 -16.177785 20.125200 -1.399734 2.504548 0.009976 -0.003833 -357163.000000 1 0 0
1.210999 -14.436699 -14.094385 20.212286 -1.487109 2.342445 0.014538 0.004274 -630634.000000 1 0 0
-1.071101 -10.746199 -15.964885 19.274481 1.471452 2.546848 0.012770 -0.004647 -151817.000000 1 0 0
-5.905301 -5.669899 -15.079585 17.158503 0.765064 2.644223 0.015318 -0.002895 -7093.670000 1 0 0
-6.526301 -7.703599 -16.493785 19.338640 0.867944 2.592297 0.016055 -0.001089 588271.000000 1 0 0
4.889099 -12.659399 -11.661285 17.892715 -1.202240 2.280664 -0.007694 0.007763 -266672.000000 1 0 0
-1.666401 -15.508499 -13.055185 20.340312 1.463756 2.267689 0.012364 -0.001874 -405204.000000 1 0 0
15.466999 -7.481299 -8.799885 19.303779 -0.450518 2.044138 0.000384 0.006141 32998.800000 1 0 0
19.287299 -3.774499 -4.448785 20.150396 -0.193256 1.793409 0.024882 -0.006690 49809.500000 1 0 0
14.820399 -11.737199 -8.915785 20.902088 -0.669821 2.011471 0.030353 -0.010792 258753.000000 1 0 0
17.717599 -3.497799 -6.514285 19.198537 -0.194913 1.916981 0.025774 0.004229 620395.000000 1 0 0
9.472299 -9.128899 -15.567785 20.381786 -0.766939 2.439990 0.020995 -0.006509 142005.000000 1 0 0
1.291899 1.858601 -15.321685 15.487977 0.963372 2.994922 0.008157 -0.006849 -314576.000000 1 0 0
4.877299 -4.331599 -13.972185 15.419882 -0.726209 2.704804 0.004611 -0.000307 1045230.000000 1 0 0
13.067099 -5.528499 -8.631085 16.607499 -0.400248 2.117308 0.024320 0.000910 -1644530.000000 1 0 0
2.923699 0.923401 -12.181485 12.561420 0.305918 2.895017 0.004923 -0.002996 -3933570.000000 1 0 0
0.629999 6.384801 -13.033585 14.527110 1.472443 2.684163 0.010379 -0.002083 -348707.000000 1 0 0
3.071499 -1.148199 -16.834685 17.151067 -0.357739 2.949219 0.015800 -0.006835 -688017.000000 1 0 0
13.205499 4.131701 -11.342285 17.891439 0.303229 2.257447 -0.005485 -0.005641 69864.900000 1 0 0
-3.744801 9.582901 -16.550285 19.487623 -1.198264 2.585400 0.004561 0.001672 -351019.000000 1 0 0
-0.204501 -4.877599 -17.738385 18.397910 1.528894 2.873026 0.020060 -0.011970 669526.000000 1 0 0
-0.516501 -8.686299 -17.536985 19.577140 1.511405 2.680999 0.021037 -0.007392 -1292460.000000 1 0 0
5.413199 -10.259699 -12.377085 16.963384 -1.085299 2.388585 -0.005130 0.003686 522667.000000 1 0 0
1.775199 -9.753299 -18.252885 20.771278 -1.390757 2.644046 0.018651 -0.003490 -100744.000000 1 0 0
11.005799 8.666501 -14.477685 20.145452 0.667041 2.372666 0.034361 -0.021032 -49371.700000 1 0 0
11.053699 -3.737699 -12.933185 17.419011 -0.326070 2.407554 0.022036 0.001087 544364.000000 1 0 0
4.932599 7.346901 -12.320985 15.169514 0.979534 2.518744 -0.003697 -0.001145 -516595.000000 1 0 0
9.704499 -5.961299 -12.761085 17.104376 -0.550855 2.412939 0.017281 0.001191 -741066.000000 1 0 0
-3.336801 0.402901 -15.947085 16.297426 -0.120163 2.933871 0.010217 -0.003363 -3356630.000000 1 0 0
-0.753001 10.798001 -12.679285 16.671176 -1.501174 2.434958 0.006028 -0.004761 -1771840.000000 1 0 0
6.645299 -5.538999 -12.411785 15.129208 -0.694849 2.532881 0.001678 0.001642 369840.000000 1 0 0
17.670899 -6.382199 -8.104685 20.461649 -0.346591 1.978053 0.006279 0.001446 88446.500000 1 0 0
13.162599 4.718201 -14.016285 19.798275 0.344187 2.357395 0.006513 -0.013831 220127.000000 1 0 0
14.102699 0.703201 -11.616485 18.284511 0.049822 2.259217 0.003269 0.004461 -270949.000000 1 0 0
15.020299 5.891301 -11.179885 19.629229 0.373784 2.176758 0.001038 -0.012788 -638898.000000 1 0 0
8.176799 1.577401 -11.693085 14.355364 0.190571 2.522740 0.000411 0.001747 647057.000000 1 0 0
9.872899 1.258401 -8.887185 13.343154 0.126777 2.299695 0.001165 0.000532 -60731.500000 1 0 0
-0.222501 -5.758499 -13.102285 14.313619 1.532177 2.727227 0.005717 -0.003013 801997.000000 1 0 0
10.526499 -5.743999 -9.017285 15.003738 -0.499513 2.215551 0.010006 0.000393 -765043.000000 1 0 0
10.261799 8.408701 -11.168285 17.341896 0.686469 2.270520 0.012211 -0.012530 466516.000000 1 0 0
8.437299 8.134701 -14.647185 18.759035 0.767141 2.466753 0.020075 -0.006211 385911.000000 1 0 0
8.672199 10.446201 -10.615185 17.234045 0.877924 2.234378 0.019031 -0.012085 -1935950.000000 1 0 0
7.022399 1.832001 -17.799685 19.222360 0.255192 2.754442 0.021796 -0.003166 -1660070.000000 1 0 0
12.113499 2.576901 -12.930685 17.904745 0.209605 2.377764 0.002777 -0.002265 -1885770.000000 1 0 0
2.615399 -0.960699 -19.302785 19.502840 -0.352024 2.998238 0.022334 -0.015390 -242671.000000 1 0 0
10.278799 -2.172299 -15.538585 18.756871 -0.208273 2.547079 0.019904 0.001213 30703.900000 1 0 0
8.361799 -0.764699 -12.949485 15.433522 -0.091198 2.566330 0.011203 -0.000070 1039170.000000 1 0 0
0.440999 4.315201 -14.697285 15.324021 1.468953 2.854606 0.008267 -0.002969 611682.000000 1 0 0
4.078999 -7.713599 -15.835685 18.080563 -1.084370 2.637970 0.006430 -0.003594 215404.000000 1 0 0
11.502499 -5.703699 -14.593085 19.437022 -0.460335 2.420051 0.024037 0.002017 -1069610.000000 1 0 0
-5.984801 4.523001 -16.739385 18.343456 -0.647170 2.720281 0.008897 0.001863 -131495.000000 1 0 0
11.410699 7.756301 -9.016085 16.481931 0.596998 2.149607 0.002618 -0.007626 -2077330.000000 1 0 0
9.538899 6.057101 -13.442485 17.560737 0.565751 2.442591 0.007858 -0.005111 -939740.000000 1 0 0
12.041099 0.744301 -10.093285 15.729477 0.061735 2.267483 0.005851 0.004195 -1910960.000000 1 0 0
5.531299 -7.304799 -13.791485 16.557790 -0.922694 2.555178 -0.000766 0.001687 -966095.000000 1 0 0
8.543199 -10.176999 -10.855685 17.158189 -0.872452 2.255809 0.012351 0.003082 308346.000000 1 0 0
10.035399 4.980401 -16.077485 19.595896 0.460670 2.532997 0.019603 -0.001823 -686702.000000 1 0 0
9.836899 -0.317599 -10.908885 14.692489 -0.032275 2.407562 0.004864 0.005372 -1961840.000000 1 0 0
-1.773901 5.477001 -13.965285 15.105411 -1.257576 2.750576 0.003320 -0.001851 -313094.000000 1 0 0
1.291099 -0.748799 -14.976885 15.051071 -0.525562 3.042265 0.008437 -0.006352 -561413.000000 1 0 0
11.438999 -10.543899 -14.362685 21.173361 -0.744703 2.316294 0.025124 -0.002190 1188240.000000 1 0 0
9.437099 -7.730599 -10.851385 16.327081 -0.686322 2.297788 0.012086 0.000091 -490750.000000 1 0 0
13.890699 -1.001999 -9.833985 17.048835 -0.072010 2.185618 0.003770 0.004955 823306.000000 1 0 0
4.059699 11.144401 -12.264985 17.061907 1.221456 2.372946 0.005107 -0.007508 311365.000000 1 0 0
-1.494401 2.856601 -17.031785 17.334218 -1.088809 2.954520 0.004723 -0.002950 301067.000000 1 0 0
5.817999 -0.405699 -17.836385 18.765669 -0.069619 2.825572 0.007573 0.005877 -150141.000000 1 0 0
6.379199 -6.478799 -16.035985 18.434257 -0.793144 2.625799 0.011511 -0.003214 -451579.000000 1 0 0
-1.856001 -5.275599 -19.817785 20.591777 1.232511 2.866546 0.026580 -0.017173 265165.000000 1 0 0
0.071299 -4.251299 -15.293085 15.873156 -1.554027 2.870414 0.008932 -0.008893 395139.000000 1 0 0
0.437499 0.668901 -13.030885 13.055374 0.991575 3.080333 0.003370 -0.006174 929434.000000 1 0 0
15.679599 0.562401 -13.679685 20.815857 0.035853 2.287862 0.011846 -0.001211 432152.000000 1 0 0
-0.109001 7.115701 -16.268185 17.756659 -1.555479 2.729223 0.004525 -0.003340 -395534.000000 1 0 0
-4.854601 -0.497999 -18.307085 18.946359 0.102225 2.881083 0.008393 -0.000526 -6226.620000 1 0 0
10.412499 -8.340299 -13.263085 18.811968 -0.675344 2.353268 0.014428 -0.006349 -22015.200000 1 0 0
3.890799 8.556401 -17.340485 19.724166 1.144021 2.644870 0.008518 -0.010474 -442439.000000 1 0 0
9.225899 0.520901 -17.237085 19.557752 0.056401 2.649493 0.017756 0.007971 -137157.000000 1 0 0
3.353299 4.799901 -18.568485 19.469779 0.960998 2.836130 0.011916 0.001552 -473457.000000 1 0 0
1.580399 -8.279299 -16.049185 18.127901 -1.382180 2.658001 0.014291 -0.006941 -158496.000000 1 0 0
4.508499 7.688501 -14.978385 17.429619 1.040441 2.604821 0.002989 -0.000273 674762.000000 1 0 0
-5.730801 -0.420599 -15.193585 16.243892 0.073261 2.780019 0.009011 -0.002821 396139.000000 1 0 0
2.808099 3.329701 -13.909985 14.576008 0.870176 2.838128 0.007520 -0.003653 -512158.000000 1 0 0
-2.370801 -10.157699 -18.169585 20.950737 1.341502 2.620454 0.020194 -0.004604 -574171.000000 1 0 0
6.398499 -8.999499 -15.541885 19.065203 -0.952737 2.523865 0.004639 -0.000882 141334.000000 1 0 0
-1.840301 5.514901 -17.352285 18.300345 -1.248719 2.818300 0.003694 0.000063 -32120.000000 1 0 0
9.903299 -12.253999 -11.752885 19.656199 -0.891094 2.211703 0.026607 -0.001672 81621.300000 1 0 0
10.860099 3.594201 -9.245685 14.708594 0.319608 2.250536 -0.001534 -0.001381 -1014370.000000 1 0 0
4.777299 -0.506399 -10.908085 11.919117 -0.105607 2.726740 0.004220 -0.002687 122526.000000 1 0 0
6.351399 9.472101 -11.358785 16.096054 0.980119 2.354189 0.005206 -0.008416 -199992.000000 1 0 0
10.739799 -9.591299 -9.470585 17.234509 -0.728968 2.152577 0.025717 -0.001561 519046.000000 1 0 0
3.328999 -2.428999 -14.586185 15.157146 -0.630348 2.866244 0.012336 -0.004296 -194137.000000 1 0 0
9.209099 -4.439499 -14.650285 17.864700 -0.449207 2.532328 0.018431 -0.003490 -412866.000000 1 0 0
-4.014301 -6.610399 -16.605285 18.317955 1.025048 2.705723 0.008702 -0.005575 -1035980.000000 1 0 0
5.873899 -7.885999 -11.293985 14.974838 -0.930598 2.425227 -0.002047 0.000885 32185.800000 1 0 0
5.410199 6.309201 -16.950785 18.878702 0.861959 2.685724 0.014734 -0.011934 -1800650.000000 1 0 0
8.747499 1.416501 -19.645085 21.551208 0.160539 2.717843 0.013807 0.001572 504512.000000 1 0 0
13.225099 5.683701 -9.287185 17.130660 0.405901 2.143776 -0.005459 -0.005271 721543.000000 1 0 0
-1.710501 -0.941399 -17.305485 17.415277 0.503123 3.029245 0.010621 -0.007026 659686.000000 1 0 0
-0.607801 -0.444899 -19.547185 19.561692 0.631869 3.103078 0.015132 -0.012681 -144129.000000 1 0 0
2.833599 6.451001 -16.580985 18.015931 1.156918 2.739774 0.003965 -0.000547 -577934.000000 1 0 0
7.733099 3.652901 -15.624785 17.812311 0.441302 2.640775 0.013517 -0.002403 1088450.000000 1 0 0
3.198499 -9.927499 -14.802985 18.108396 -1.259112 2.527793 0.002242 -0.002532 620367.000000 1 0 0
8.943699 -10.484699 -13.417285 19.233882 -0.864549 2.342819 0.015952 -0.002836 -424271.000000 1 0 0
3.789399 0.077001 -14.807185 15.284574 0.020317 2.891004 0.009655 -0.004364 -2401410.000000 1 0 0
-1.172001 -2.905099 -19.087485 19.342835 1.187338 2.978925 0.021425 -0.005691 841711.000000 1 0 0
9.168999 9.960401 -13.025285 18.786649 0.826746 2.336892 0.021886 -0.015648 -92923.100000 1 0 0
4.505499 2.090501 -10.625385 11.728961 0.434426 2.704320 0.000755 0.000929 -90786.400000 1 0 0
-0.643001 7.117401 -18.809685 20.121508 -1.480699 2.778506 0.005217 -0.002590 273203.000000 1 0 0
0.735399 -1.880199 -17.615685 17.730999 -1.197961 3.027482 0.018497 -0.013303 -2408310.000000 1 0 0
-4.536901 -2.344099 -14.118285 15.013469 0.476898 2.794526 0.011603 -0.003733 -3810540.000000 1 0 0
10.200499 5.908101 -10.363285 15.695653 0.524983 2.291967 0.002801 -0.001320 211569.000000 1 0 0
8.003799 5.408201 -17.629185 20.102179 0.594233 2.640335 0.021620 -0.008169 -598180.000000 1 0 0
11.281099 0.248801 -13.616285 17.684126 0.022051 2.449594 0.013573 0.005999 285960.000000 1 0 0
6.792599 11.878201 -11.799185 18.067978 1.051329 2.282393 0.019884 -0.012621 -724979.000000 1 0 0
-0.927901 0.587101 -15.193085 15.232712 -0.564131 3.069446 0.003738 -0.006872 -1299320.000000 1 0 0
-4.497201 -2.899199 -19.038485 19.776099 0.572617 2.867613 0.012229 0.000942 -333576.000000 1 0 0
5.924699 -12.143999 -14.113185 19.538699 -1.116899 2.377947 0.002094 -0.000228 72147.200000 1 0 0
2.165199 -4.758399 -14.062285 15.002610 -1.143770 2.785662 0.006514 -0.003042 -109710.000000 1 0 0
11.733899 2.060601 -15.487985 19.539912 0.173838 2.485912 0.019876 -0.002267 164132.000000 1 0 0
9.710599 2.317401 -13.783885 17.019447 0.234265 2.514761 0.010715 -0.001054 636283.000000 1 0 0
-2.222801 -4.016599 -16.474585 17.102218 1.065344 2.869837 0.006693 -0.009228 -1051430.000000 1 0 0
-2.783301 10.138201 -14.198185 17.666871 -1.302862 2.504219 0.004879 -0.005951 154154.000000 1 0 0
3.387899 5.794201 -13.638085 15.200263 1.041699 2.684245 0.004682 -0.001847 -137079.000000 1 0 0
-5.192601 -2.524999 -16.573585 17.550568 0.452602 2.806358 0.012065 -0.001518 660854.000000 1 0 0
-4.303201 6.141301 -13.750185 15.662079 -0.959602 2.642315 -0.001588 0.004874 -1380020.000000 1 0 0
5.905599 -1.172399 -14.003185 15.242697 -0.195975 2.735526 0.010111 -0.000358 -1688390.000000 1 0 0
6.924399 -3.040299 -12.729285 14.806263 -0.413728 2.605523 0.007782 -0.000570 1820710.000000 1 0 0
2.817199 -3.353299 -18.186485 18.706402 -0.872062 2.905274 0.023963 -0.017710 130276.000000 1 0 0
7.363899 -12.112099 -12.155185 18.672935 -1.024531 2.279634 0.009786 0.002354 -2367120.000000 1 0 0
-6.082701 -5.432299 -17.649785 19.442840 0.728975 2.708753 0.026776 -0.003173 530876.000000 1 0 0
0.531799 8.741401 -11.878485 14.757822 1.510034 2.506293 0.003970 -0.001233 1594.960000 1 0 0
0.410499 8.687101 -14.395785 16.818825 1.523578 2.598149 0.003045 0.000061 -140202.000000 1 0 0
7.776899 -2.252999 -15.075685 17.112348 -0.281984 2.648732 0.014803 -0.004062 -590234.000000 1 0 0
14.389699 1.397501 -9.027885 17.044623 0.096815 2.128998 0.004261 0.004500 520109.000000 1 0 0
2.826099 10.790901 -14.575285 18.354000 1.314653 2.488355 0.000390 -0.002637 -566206.000000 1 0 0
6.130799 0.941601 -15.549485 16.740962 0.152395 2.762035 0.017580 0.000235 908110.000000 1 0 0
16.566899 -5.640899 -10.410885 20.363409 -0.328180 2.107440 0.035751 -0.001870 522444.000000 1 0 0
4.928199 -4.190599 -11.288085 13.010347 -0.704686 2.621199 0.000816 0.000747 197732.000000 1 0 0
8.713099 -3.614399 -17.048885 19.484519 -0.393220 2.636225 0.009522 -0.008816 209814.000000 1 0 0
13.281999 -9.643199 -8.890685 18.666737 -0.627986 2.067221 0.029230 -0.004101 128683.000000 1 0 0
2.340799 -7.702899 -13.680285 15.873380 -1.275779 2.609679 0.001175 0.000142 478377.000000 1 0 0
-6.936101 -2.176999 -18.446285 19.827109 0.304128 2.766181 0.013382 -0.004487 -1062610.000000 1 0 0
-1.464301 -6.381999 -15.850485 17.149693 1.345258 2.749845 0.009720 -0.007698 1078950.000000 1 0 0
1.534499 -7.120299 -18.335385 19.729159 -1.358532 2.763457 0.024511 -0.017002 -128063.000000 1 0 0
5.383099 10.891901 -14.516885 18.930167 1.111776 2.444739 0.011767 -0.014159 209694.000000 1 0 0
5.385199 -3.385299 -17.383385 18.510610 -0.561206 2.790809 0.019620 -0.010418 -355385.000000 1 0 0
4.048799 13.067901 -13.995785 19.571531 1.270348 2.367577 0.002843 -0.009898 -6998.390000 1 0 0
9.217899 10.409801 -15.512085 20.831668 0.846049 2.410791 0.028317 -0.024314 252889.000000 1 0 0
2.320399 3.844701 -16.418785 17.021824 1.027784 2.874615 0.009235 -0.002244 241216.000000 1 0 0
16.556899 1.686301 -11.473085 20.214010 0.101499 2.174361 0.011486 -0.001472 397727.000000 1 0 0
10.043999 -3.666799 -10.554685 15.024271 -0.350040 2.349713 0.012997 0.003199 -407134.000000 1 0 0
14.752199 -2.202499 -11.947585 19.110813 -0.148205 2.246151 0.026541 0.003523 792156.000000 1 0 0
-2.592201 -8.729499 -15.974785 18.387970 1.282143 2.623495 0.011700 -0.003087 -1024750.000000 1 0 0
13.982299 8.157101 -9.055385 18.548396 0.528115 2.080826 0.012859 -0.004061 366856.000000 1 0 0
-8.346501 0.119001 -16.526985 18.515385 -0.014257 2.673894 0.004567 -0.000574 -436430.000000 1 0 0
-3.627101 4.187801 -16.078485 17.006211 -0.857023 2.809763 0.005544 0.004425 -732612.000000 1 0 0
15.139299 3.857901 -9.656185 18.366374 0.249516 2.124397 0.001036 -0.000765 -7352.080000 1 0 0
5.296099 1.113201 -12.951985 14.037158 0.207177 2.745804 0.003304 -0.000087 186461.000000 1 0 0
7.877999 -7.735299 -12.930885 17.003103 -0.776259 2.434881 0.008691 -0.001564 -1050100.000000 1 0 0
3.305499 -6.159299 -11.819185 13.731585 -1.078246 2.607498 -0.001402 -0.000127 -1009320.000000 1 0 0
-3.356701 3.726401 -18.571185 19.236487 -0.837545 2.877825 0.010067 0.004444 -591914.000000 1 0 0
0.812399 5.241401 -17.810785 18.583766 1.417023 2.852159 0.007734 -0.000932 -1230410.000000 1 0 0
6.389899 7.054901 -10.304685 14.028149 0.834820 2.395832 -0.001065 -0.000637 421425.000000 1 0 0
9.745999 3.640001 -11.627585 15.602399 0.357443 2.411696 0.006355 -0.001488 -261933.000000 1 0 0
4.521399 1.832801 -17.318485 17.992558 0.385120 2.867001 0.016527 -0.007537 -601113.000000 1 0 0
2.599699 8.174001 -13.241885 15.777207 1.262868 2.566800 0.000709 -0.002852 -816869.000000 1 0 0
14.351699 -3.587399 -9.858785 17.777411 -0.244944 2.158640 0.026169 0.005095 271967.000000 1 0 0
-1.254601 9.512401 -16.118985 18.758504 -1.439662 2.604675 0.003575 0.000500 -1904940.000000 1 0 0
-5.199801 2.062001 -15.930585 16.884114 -0.377532 2.803910 0.007434 -0.000798 146446.000000 1 0 0
4.489699 4.173601 -12.063385 13.531504 0.748927 2.671450 0.000186 0.000151 208644.000000 1 0 0
9.266799 3.132301 -17.735485 20.254192 0.325957 2.637566 0.019661 0.000752 539906.000000 1 0 0
-4.181101 14.422201 -13.401285 20.126498 -1.288624 2.299433 0.016976 0.001089 -163661.000000 1 0 0
15.446199 -5.017999 -8.070585 18.135593 -0.314114 2.031986 0.020956 0.006012 -122446.000000 1 0 0
1.244499 9.390601 -16.772685 19.262791 1.439038 2.627481 0.001380 -0.002069 -1104780.000000 1 0 0
0.436899 -3.220299 -12.837685 13.242635 -1.435949 2.893656 0.003535 -0.002579 332256.000000 1 0 0
7.523299 3.680701 -13.050885 15.507198 0.455003 2.571038 0.003435 0.001644 630339.000000 1 0 0
-2.898401 7.641901 -15.057585 17.132724 -1.208281 2.644303 0.000678 0.000718 117108.000000 1 0 0
12.094399 -5.151399 -11.011185 17.148108 -0.402660 2.268060 0.027171 0.000002 -1175150.000000 1 0 0
0.637899 -4.406999 -20.193285 20.678427 -1.427048 2.924551 0.029890 -0.012571 -666110.000000 1 0 0
3.428699 -4.655699 -16.093285 17.100449 -0.936022 2.796674 0.016288 -0.008983 539039.000000 1 0 0
-5.624801 4.103701 -14.342185 15.942930 -0.630299 2.689638 0.002609 -0.000574 83408.300000 1 0 0
12.275599 -7.545299 -9.805785 17.429151 -0.551128 2.168334 0.024078 -0.000304 183061.000000 1 0 0
-2.064501 -1.627999 -14.903685 15.133816 0.667731 2.966978 0.009353 -0.005199 683888.000000 1 0 0
7.179399 5.816201 -14.470585 17.168861 0.680883 2.573333 0.008537 0.001616 129846.000000 1 0 0
4.228299 -5.522899 -18.355585 19.629275 -0.917389 2.779373 0.026265 -0.015993 182478.000000 1 0 0
7.581099 7.320801 -12.371785 16.252023 0.767932 2.436029 0.001704 -0.004224 -519791.000000 1 0 0
12.257699 -2.459799 -11.093385 16.714215 -0.198043 2.296564 0.013808 0.005213 -729360.000000 1 0 0
7.444099 -0.708799 -10.616785 12.985882 -0.094930 2.527964 0.002918 0.001802 -724473.000000 1 0 0
5.304899 4.069201 -14.603085 16.060836 0.654333 2.712241 0.003221 -0.000034 1770440.000000 1 0 0
14.681899 2.820701 -12.984785 19.801999 0.189808 2.285947 0.000343 -0.008740 -330715.000000 1 0 0
-6.711801 6.752501 -15.820785 18.464609 -0.788421 2.599860 0.005185 0.004268 473473.000000 1 0 0
-11.657901 3.868701 -16.215485 20.342455 -0.320417 2.493316 0.034899 -0.012700 629571.000000 1 0 0
-4.941801 6.757801 -17.779485 19.651956 -0.939388 2.701514 0.002333 0.007392 486690.000000 1 0 0
-10.097401 1.772701 -15.716485 18.764538 -0.173789 2.563604 0.012218 -0.004050 475788.000000 1 0 0
-7.523701 6.045401 -18.152885 20.559187 -0.676880 2.652921 -0.000398 0.007443 564077.000000 1 0 0
-8.971701 4.023701 -15.903985 18.698084 -0.421596 2.587860 0.008611 0.012596 111582.000000 1 0 0
8.975099 13.289401 -11.883485 19.959404 0.976801 2.208538 0.034698 -0.019837 -2158840.000000 1 0 0
13.617499 8.791001 -11.567485 19.912928 0.573252 2.190634 -0.002150 -0.013322 270580.000000 1 0 0
8.370599 15.809701 -9.050285 20.047973 1.083860 2.039165 0.030387 -0.009689 -128606.000000 1 0 0
7.239999 13.500301 -13.778185 20.603740 1.078544 2.303286 0.024120 -0.011691 -123196.000000 1 0 0
4.768299 15.852301 -12.452385 20.714585 1.278610 2.215724 0.029096 -0.015020 254458.000000 1 0 0
11.035299 10.999701 -11.591385 19.419873 0.783783 2.210406 0.015647 -0.009473 421794.000000 1 0 0
15.718199 9.579001 -10.136385 21.013456 0.547318 2.074161 0.019184 0.000210 957329.000000 1 0 0
13.321899 10.509601 -9.672185 19.531407 0.667934 2.088875 0.037883 -0.008528 -229823.000000 1 0 0
10.539999 11.823201 -8.242385 17.855435 0.842715 2.050614 0.019302 0.001626 385666.000000 1 0 0
5.360399 16.139501 -9.971385 19.714104 1.250130 2.101105 0.018888 -0.011315 29637.700000 1 0 0
6.774199 14.445201 -11.356285 19.583636 1.132289 2.189386 0.021041 -0.012025 -744844.000000 1 0 0
10.958299 13.919601 -9.805985 20.248381 0.903874 2.076342 0.040124 -0.002251 -87732.800000 1 0 0
8.314799 -18.651899 -1.085785 20.450138 -1.151450 1.623916 0.045493 -0.003374 -176560.000000 1 0 0
7.259099 -17.524599 -3.305885 19.254479 -1.178089 1.743346 0.029734 -0.004058 -74702.100000 1 0 0
4.385899 -18.410699 5.765315 19.784560 -1.336930 1.275101 0.012147 0.004001 118644.000000 1 0 0
9.698799 -17.211499 -2.765285 19.948664 -1.057642 1.709864 0.028360 -0.002184 -826076.000000 1 0 0
-9.761501 -12.064399 -10.210185 18.576450 0.890521 2.152718 0.025163 -0.004377 -159252.000000 1 0 0
-5.092901 -6.913499 -12.254485 14.963506 0.935887 2.530389 0.009888 -0.002534 706095.000000 1 0 0
-10.838101 -9.408999 -5.838485 15.494567 0.714932 1.957145 0.008748 -0.004610 -785280.000000 1 0 0
-4.474201 -11.378099 -13.964985 18.560723 1.196140 2.422486 0.019940 -0.005204 395157.000000 1 0 0
-3.264801 -15.527499 7.397415 17.506682 1.363556 1.134541 0.004494 0.002461 369193.000000 1 0 0
-4.790201 -12.089999 -11.549785 17.392862 1.193560 2.297023 0.013007 0.001263 29326.500000 1 0 0
-14.270201 -12.784699 -4.343385 19.645665 0.730546 1.793724 0.008588 -0.004494 -808277.000000 1 0 0
-3.328801 -12.323399 -3.206185 13.161562 1.306972 1.816875 0.006199 -0.002833 986736.000000 1 0 0
-2.575901 -17.373199 -1.691385 17.644379 1.423600 1.666803 -0.013130 -0.007613 -776829.000000 1 0 0
-5.869301 -12.183399 3.602015 13.994943 1.121858 1.310487 -0.002674 0.002109 1126160.000000 1 0 0
-8.892601 -10.659599 -12.210885 18.488135 0.875527 2.292243 0.026011 0.001596 18748.200000 1 0 0
-9.924201 -11.655099 -7.649985 17.112959 0.865438 2.034237 0.017447 -0.007848 -456895.000000 1 0 0
-10.863901 -15.127499 6.229615 19.638576 0.947989 1.248007 0.009379 -0.002111 -596303.000000 1 0 0
-9.453601 -15.819699 0.581015 18.438303 1.032155 1.539280 0.000222 0.011520 -2910390.000000 1 0 0
-14.928601 -7.526599 -8.102885 18.578740 0.466981 2.022098 0.012365 -0.007744 -279456.000000 1 0 0
-2.402701 -16.566099 5.113815 17.503135 1.426763 1.274306 0.001275 -0.002153 199867.000000 1 0 0
4.412099 -15.884499 5.696915 17.442442 -1.299865 1.238079 0.009478 -0.002739 -133590.000000 1 0 0
4.017599 -14.610799 -10.141385 18.233602 -1.302454 2.160593 -0.009926 0.001111 -255610.000000 1 0 0
-7.621501 -14.113399 -0.363885 16.043931 1.075649 1.593479 -0.002369 0.007570 1030060.000000 1 0 0
2.871799 -14.779299 9.711615 17.916204 -1.378876 0.997913 -0.005546 -0.001564 -403826.000000 1 0 0
2.249999 -17.180699 10.246915 20.130529 -1.440577 1.036746 0.005089 -0.002378 -677530.000000 1 0 0
-8.313001 -16.812099 -6.114785 19.726714 1.111586 1.885963 0.013953 -0.012492 -454166.000000 1 0 0
-6.530001 -9.127199 -7.858085 13.700226 0.949780 2.181658 0.016590 -0.003961 317682.000000 1 0 0
-6.084901 -12.979399 -4.865185 15.138060 1.132409 1.897991 0.001127 -0.006471 416936.000000 1 0 0
2.106599 -19.458099 -4.949885 20.188035 -1.462953 1.818511 0.006197 -0.011178 27143.800000 1 0 0
-5.376801 -12.920599 8.255315 16.248141 1.176453 1.037845 -0.003029 0.000980 930935.000000 1 0 0
2.204799 -17.560099 3.315715 18.005893 -1.445893 1.385593 0.008584 -0.011901 1733780.000000 1 0 0
-17.500001 -10.103099 -2.431785 20.352794 0.523576 1.690564 0.018691 -0.007853 529087.000000 1 0 0
-3.530301 -15.506499 2.482915 16.095944 1.346946 1.415921 -0.002821 0.000420 17180.200000 1 0 0
-10.137501 -10.136099 -14.462285 20.363377 0.785329 2.360594 0.028735 -0.002333 114188.000000 1 0 0
5.949299 -14.624899 -5.705585 16.787958 -1.184448 1.917566 -0.005499 -0.004115 604413.000000 1 0 0
-7.316601 -12.345599 -10.837685 17.983378 1.035800 2.217614 0.019175 -0.002696 -756673.000000 1 0 0
-7.231601 -14.345899 3.884015 16.528353 1.103883 1.333587 -0.004146 0.005400 851306.000000 1 0 0
3.174499 -15.080999 -3.183185 15.736793 -1.363329 1.774478 0.002284 -0.005752 -386771.000000 1 0 0
-7.545001 -11.553499 7.776615 15.839385 0.992281 1.057597 -0.004564 -0.002890 -2775390.000000 1 0 0
-12.659801 -12.292999 -1.056985 17.677828 0.770699 1.630624 -0.003586 0.008440 -241533.000000 1 0 0
-1.884501 -13.724499 4.008315 14.421505 1.434340 1.289147 -0.001265 -0.000997 -1914960.000000 1 0 0
-3.113201 -13.941299 5.259015 15.221993 1.351093 1.218038 -0.003571 -0.000274 129969.000000 1 0 0
-14.536201 -10.194899 -4.449385 18.303938 0.611628 1.816340 0.010599 -0.003574 784832.000000 1 0 0
-6.180401 -8.587499 -10.507085 14.911115 0.946973 2.352723 0.013413 -0.002075 170799.000000 1 0 0
0.686299 -19.532399 2.340815 19.684132 -1.535674 1.451595 0.009190 -0.012791 177858.000000 1 0 0
6.393399 -14.224799 -8.328385 17.680002 -1.148396 2.061291 0.002281 0.000457 -1254970.000000 1 0 0
-4.038401 -16.805299 -5.922885 18.270395 1.334963 1.900940 -0.004410 -0.004813 -80812.400000 1 0 0
-3.530201 -13.616199 -13.165085 19.266102 1.317117 2.323109 0.021594 0.000597 -2003830.000000 1 0 0
-8.220001 -14.666399 -4.520785 17.410031 1.059954 1.833472 0.006998 -0.007755 -445966.000000 1 0 0
-4.520301 -14.561099 10.170515 18.327523 1.269792 0.982516 -0.006191 0.008330 -1177060.000000 1 0 0
-0.200701 -12.074699 -9.993985 15.675407 1.554176 2.262121 0.004885 -0.000049 786895.000000 1 0 0
2.429899 -17.153699 6.926615 18.658290 -1.430078 1.190457 -0.000821 -0.009250 -2016500.000000 1 0 0
-2.984101 -19.146099 -3.599785 19.708791 1.416181 1.754476 -0.013018 -0.004042 -75143.200000 1 0 0
0.552999 -15.499199 -3.150785 15.825879 -1.535132 1.771226 -0.001178 -0.002620 -56274.600000 1 0 0
5.763799 -17.927199 0.415215 18.835558 -1.259723 1.548750 0.029686 -0.014903 -404186.000000 1 0 0
-7.067301 -16.806599 3.836615 18.631375 1.172737 1.363390 -0.008683 0.009862 185395.000000 1 0 0
-5.328801 -13.533699 -9.586785 17.420206 1.195695 2.153550 0.011127 -0.000498 81464.100000 1 0 0
5.661499 -15.329899 -2.232885 16.493761 -1.217023 1.706591 0.010575 -0.001319 -434108.000000 1 0 0
-8.786501 -10.172999 -0.530885 13.452671 0.858398 1.610270 -0.001611 0.005919 -438461.000000 1 0 0
-7.465401 -17.839999 -3.276185 19.614565 1.174475 1.738611 -0.002197 -0.013210 126179.000000 1 0 0
7.891899 -16.092099 -1.164985 17.960928 -1.114841 1.635704 0.020795 -0.005939 -674382.000000 1 0 0
-8.119101 -10.056999 -9.750285 16.190463 0.891615 2.217080 0.021515 -0.003086 202959.000000 1 0 0
-9.200001 -14.543399 -6.996185 18.576789 1.006758 1.956929 0.016519 -0.013787 -1154510.000000 1 0 0
-11.467201 -10.429099 -12.272885 19.770850 0.738024 2.240504 0.028916 0.005458 -1120850.000000 1 0 0
6.549699 -16.335299 2.384815 17.760290 -1.189468 1.436112 0.023894 -0.007568 1419450.000000 1 0 0
-2.177901 -11.269799 -6.217085 13.053880 1.379898 2.067197 0.004077 -0.000338 271320.000000 1 0 0
-12.350601 -15.297899 -3.561285 19.981137 0.891596 1.749986 0.006902 -0.002794 329916.000000 1 0 0
-0.558601 -19.689899 -2.917785 19.912751 1.542434 1.717854 -0.006610 -0.013729 -571074.000000 1 0 0
-5.903501 -15.585499 -4.741585 17.327485 1.208714 1.847977 -0.006332 -0.007436 -1543960.000000 1 0 0
1.883999 -16.021599 -1.070985 16.167501 -1.453743 1.637088 0.006799 -0.010647 709954.000000 1 0 0
-13.223901 -11.953199 5.354615 18.612427 0.734970 1.278982 0.012948 0.007189 416502.000000 1 0 0
1.942299 -15.337399 -8.837885 17.807767 -1.444829 2.090121 -0.002903 0.002453 -2435700.000000 1 0 0
-11.801901 -16.685299 0.092615 20.437531 0.955172 1.566265 0.017457 -0.002690 -99462.100000 1 0 0
-7.540901 -16.597899 -1.030185 18.259702 1.144349 1.627245 -0.002096 0.004553 671589.000000 1 0 0
-3.052601 -14.519999 -1.681385 14.932374 1.363580 1.683636 0.000972 -0.005850 155046.000000 1 0 0
-1.718701 -10.473399 -13.291485 17.009104 1.408144 2.467756 0.002865 0.001608 -566419.000000 1 0 0
1.371999 -19.509999 4.867315 20.154732 -1.500589 1.326888 0.005136 -0.011925 -29492.200000 1 0 0
-17.333501 -9.367499 2.497715 19.860485 0.495464 1.444699 0.003015 -0.002122 -425202.000000 1 0 0
-2.671701 -15.779099 -8.080885 17.928153 1.403068 2.038387 -0.005954 -0.001446 -1242020.000000 1 0 0
-10.394401 -12.167199 0.090815 16.002892 0.863813 1.565121 -0.004391 0.009144 278043.000000 1 0 0
-6.957901 -11.406099 -6.742385 14.965669 1.023045 2.038148 0.010545 -0.003455 758341.000000 1 0 0
-2.209301 -13.659399 -6.766585 15.402820 1.410443 2.025625 -0.006362 0.001110 670578.000000 1 0 0
-14.157601 -14.477899 -0.887385 20.269057 0.796583 1.614591 0.007151 0.006768 -211552.000000 1 0 0
-9.626801 -11.242499 -4.511985 15.473432 0.862664 1.866691 0.010592 -0.003912 998648.000000 1 0 0
9.396999 -15.112399 -5.119685 18.517542 -1.014496 1.850923 0.018450 -0.006410 -38130.400000 1 0 0
-5.623901 -10.872499 -9.507985 15.499719 1.093437 2.231192 0.015554 -0.001776 -413289.000000 1 0 0
-10.415601 -15.852199 -5.081385 19.636635 0.989485 1.832546 0.015702 -0.006454 -2060170.000000 1 0 0
2.096499 -17.485999 -3.242185 17.907184 -1.451470 1.752855 0.009204 -0.008841 327563.000000 1 0 0
-0.339001 -14.503099 -8.173585 16.651195 1.547426 2.083885 -0.002082 0.001720 -1266520.000000 1 0 0
-0.702701 -18.340299 -7.201385 19.715991 1.532500 1.944704 -0.003766 -0.003723 -17604.400000 1 0 0
-1.788501 -9.935899 -10.595585 14.635138 1.392700 2.380355 -0.000352 0.000231 322789.000000 1 0 0
-5.146901 -17.370399 1.946715 18.221171 1.282735 1.463754 -0.012575 0.001748 -717697.000000 1 0 0
0.234099 -12.857699 -2.615885 13.123189 -1.552591 1.771474 0.003851 -0.001530 -1418380.000000 1 0 0
2.525399 -14.999099 2.982515 15.499871 -1.403991 1.377167 0.009617 -0.005321 -1938300.000000 1 0 0
-9.315301 -13.106699 6.820115 17.466378 0.952906 1.169653 -0.008372 0.001260 -819576.000000 1 0 0
-0.917101 -17.921999 -4.622585 18.531255 1.519669 1.822907 -0.008174 -0.008161 -1016600.000000 1 0 0
-9.778301 -17.586599 -2.120685 20.233659 1.063352 1.675799 0.013475 -0.007641 -1480400.000000 1 0 0
1.125699 -16.270499 1.372315 16.367028 -1.501720 1.486851 0.009053 -0.013457 723803.000000 1 0 0
-0.487901 -17.975999 4.069115 18.437253 1.543661 1.348263 0.005700 -0.012968 774201.000000 1 0 0
-17.250801 -9.085599 -0.075685 19.497281 0.484761 1.574678 -0.001568 -0.004581 176232.000000 1 0 0
-14.718301 -7.345999 -10.619285 19.579615 0.462933 2.144045 0.020448 -0.011693 533296.000000 1 0 0
2.654599 -12.754299 -8.981385 15.823537 -1.365592 2.174380 -0.011235 0.003023 532385.000000 1 0 0
-11.673901 -14.588999 1.586715 18.751974 0.895942 1.486079 0.002852 0.006526 246860.000000 1 0 0
-2.167901 -15.594899 10.354215 18.844374 1.432668 0.989079 -0.003968 0.003849 -692198.000000 1 0 0
-7.111101 -15.843899 1.377515 17.421092 1.148922 1.491642 -0.005325 0.007085 -1271650.000000 1 0 0
-12.682501 -14.884899 -6.145385 20.498093 0.865120 1.875282 0.019981 -0.003246 1279610.000000 1 0 0
0.849999 -13.839699 -5.099985 14.773951 -1.509456 1.923249 -0.000519 -0.002189 461059.000000 1 0 0
5.651999 -16.550199 -7.430985 19.001940 -1.241708 1.972584 -0.000402 -0.005019 82194.600000 1 0 0
-6.584801 -12.824399 5.859815 15.561563 1.096440 1.184719 0.000414 -0.002728 78583.400000 1 0 0
-2.635901 -13.606499 0.687615 13.876513 1.379443 1.521224 0.008270 -0.005271 2947180.000000 1 0 0
-4.379901 -15.515199 0.157415 16.122336 1.295658 1.561032 -0.005333 -0.003307 -221893.000000 1 0 0
-17.556801 -7.505699 -2.171285 19.216952 0.403994 1.684026 -0.005433 0.002743 187949.000000 1 0 0
1.234899 -12.707299 -11.989985 17.514570 -1.473920 2.324813 0.002605 0.001023 599311.000000 1 0 0
1.206499 -17.189299 -5.793385 18.179410 -1.500722 1.895131 0.006743 -0.003166 -2042000.000000 1 0 0
-12.834201 -6.340499 -9.238485 17.037261 0.458861 2.143911 0.013623 -0.001856 311464.000000 1 0 0
-11.434801 -13.442899 -8.792785 19.717487 0.865942 2.033019 0.014466 -0.005989 257812.000000 1 0 0
-4.362701 -9.886599 3.448415 11.343261 1.155222 1.261902 0.003169 0.001116 -2665710.000000 1 0 0
-6.970101 -14.411999 9.507415 18.619317 1.120329 1.034889 -0.006353 -0.002379 -1829260.000000 1 0 0
-5.289301 -15.856899 -8.066585 18.560381 1.248838 2.020405 0.002716 -0.008885 -331075.000000 1 0 0
-0.177101 -13.616499 2.076415 13.775047 1.557791 1.419482 0.005669 -0.004418 527109.000000 1 0 0
-10.980801 -13.308399 -4.833785 17.918062 0.880935 1.843952 0.015574 -0.001028 -1092210.000000 1 0 0
-9.665201 -10.570699 6.662715 15.797074 0.830115 1.135401 -0.000721 0.003011 -59175.500000 1 0 0
-15.462301 -7.938499 -4.831285 18.040062 0.474318 1.841914 0.012488 -0.003294 -105438.000000 1 0 0
-14.556701 -7.343199 5.500415 17.206821 0.467205 1.245421 0.007881 0.003939 605587.000000 1 0 0
-1.624601 -19.327899 -0.130685 19.396497 1.486939 1.577534 -0.008905 -0.008805 -376449.000000 1 0 0
-15.298501 -12.259599 -1.394185 19.654151 0.675569 1.641792 0.005616 0.008625 451261.000000 1 0 0
-4.425401 -12.146299 -6.927485 14.666520 1.221403 2.062732 0.003928 -0.003120 -284417.000000 1 0 0
-7.592701 -18.305499 1.857315 19.904523 1.177616 1.477349 -0.003180 0.005505 -77316.800000 1 0 0
-2.459501 -11.850899 -8.759185 14.940424 1.366164 2.197248 -0.001287 0.002415 452199.000000 1 0 0
-1.305201 -20.451099 -5.190985 21.139946 1.507062 1.818887 -0.003445 -0.003363 -121556.000000 1 0 0
-5.421201 -8.835299 -13.867985 17.313952 1.020448 2.499713 0.017410 -0.002326 1379810.000000 1 0 0
-7.975901 -19.191699 -1.165785 20.815748 1.176922 1.626831 -0.010219 0.012167 143721.000000 1 0 0
-17.132101 -7.249099 5.605415 19.428819 0.400285 1.278126 0.017789 -0.002844 -1084640.000000 1 0 0
-3.648101 -14.707999 -4.244485 15.736885 1.327668 1.843894 -0.005694 -0.004373 -2918530.000000 1 0 0
-3.075701 -14.932199 -10.956985 18.774611 1.367660 2.193959 0.010287 -0.000533 -166251.000000 1 0 0
-0.010401 -16.768599 6.257415 17.898080 1.570176 1.213638 0.007464 -0.004263 -457224.000000 1 0 0
-11.197801 -11.628699 3.855715 16.597709 0.804273 1.336350 0.000113 0.004967 -1406790.000000 1 0 0
-0.257801 -14.657999 -0.154085 14.661076 1.553210 1.581306 0.001334 -0.003611 1311510.000000 1 0 0
-7.217101 -9.444099 -2.449485 12.135796 0.918274 1.774032 0.006669 0.000166 540571.000000 1 0 0
-11.043801 -14.441599 -0.973985 18.206427 0.917940 1.624319 -0.002380 0.003121 127539.000000 1 0 0
0.362599 -14.617099 -10.626285 18.075094 -1.545995 2.199252 -0.000619 -0.000314 -188383.000000 1 0 0
-1.472301 -14.137299 -3.931185 14.747377 1.467027 1.840627 0.001755 -0.002674 -1966150.000000 1 0 0
-11.433501 -8.001699 -7.725785 15.951172 0.610623 2.076405 0.014105 -0.004754 606593.000000 1 0 0
-0.366501 -17.231199 -0.408785 17.239944 1.549530 1.594510 0.000460 -0.010416 -1703010.000000 1 0 0
-12.824801 -9.485399 4.730015 16.637949 0.636821 1.282530 0.002631 0.004192 -40091.400000 1 0 0
3.882099 -16.619799 1.375515 17.122513 -1.341328 1.490376 0.020343 -0.021033 429479.000000 1 0 0
-3.921001 -18.000599 -8.195785 20.163500 1.356320 1.989380 0.005292 -0.006156 155313.000000 1 0 0
-13.344301 -11.098799 2.770815 17.576437 0.693789 1.412492 -0.003873 0.003771 -173055.000000 1 0 0
-8.657501 -12.304099 4.039315 15.577524 0.957640 1.308495 -0.005194 0.004688 1793680.000000 1 0 0
-8.266101 -9.423899 -5.943085 13.872944 0.850754 2.013511 0.011490 -0.003311 -921817.000000 1 0 0
3.758099 -17.595699 -5.235685 18.738846 -1.360377 1.853968 -0.000815 -0.000712 143916.000000 1 0 0
-2.595701 -13.145099 11.218915 17.475564 1.375839 0.873722 -0.007339 -0.000311 299555.000000 1 0 0
0.001999 -16.865799 -9.462885 19.339115 -1.570678 2.082098 0.001071 -0.000429 -391123.000000 1 0 0
-7.006201 -10.700399 -14.651385 19.448611 0.991082 2.423920 0.020760 0.005767 -381970.000000 1 0 0
-4.674001 -19.013599 -1.716385 19.654751 1.329752 1.658234 -0.010105 0.001101 -616411.000000 1 0 0
-2.602201 -17.296199 0.965815 17.517499 1.421467 1.515634 -0.005696 -0.006671 650311.000000 1 0 0
3.977299 -14.560699 -7.545585 16.875092 -1.304148 2.034365 -0.005318 -0.001358 -958224.000000 1 0 0
-1.029601 -15.934599 -6.179185 17.121737 1.506272 1.940026 -0.003168 -0.002861 -480730.000000 1 0 0
-9.519301 -15.213399 8.389715 19.810399 1.011681 1.133490 0.000639 -0.003604 -611918.000000 1 0 0
-7.297101 -12.046099 -1.768685 14.194521 1.026149 1.695724 -0.001768 0.000051 859915.000000 1 0 0
-7.400901 -15.118599 -9.329385 19.245332 1.115565 2.076886 0.019581 -0.000779 225693.000000 1 0 0
-5.082001 -13.147699 -0.614385 14.109082 1.201954 1.614355 0.003530 -0.000321 2775950.000000 1 0 0
-6.441001 -13.798099 -7.254085 16.867003 1.134057 2.015373 0.009245 -0.006079 -179790.000000 1 0 0
5.757799 -15.386699 0.178615 16.429689 -1.212722 1.559925 0.018200 -0.006574 -290753.000000 1 0 0
-14.299201 -12.706599 0.973115 19.153897 0.726494 1.519969 -0.010414 0.002488 710701.000000 1 0 0
0.700699 -15.363399 11.182615 19.015149 -1.525220 0.942101 -0.008133 0.006629 179401.000000 1 0 0
-9.406701 -10.754299 1.982515 14.424678 0.852141 1.432921 -0.002664 0.006447 471784.000000 1 0 0
-9.456701 -8.785899 -3.673085 13.420610 0.748644 1.848024 0.007023 -0.002160 -195440.000000 1 0 0
-12.220401 -7.219099 -12.381385 18.834869 0.533584 2.288113 0.018071 -0.004465 -488314.000000 1 0 0
-13.251201 -8.215799 -0.619385 15.603760 0.554999 1.610501 -0.006212 0.004017 -737686.000000 1 0 0
-11.212101 -9.653399 0.355815 14.799525 0.710834 1.546752 -0.009927 0.008111 665471.000000 1 0 0
-15.759501 -12.181099 2.991515 20.141753 0.658020 1.421722 0.008089 0.006943 -15171.900000 1 0 0
-10.448901 -12.523199 -2.435885 16.490712 0.875450 1.719051 0.005295 -0.001650 551877.000000 1 0 0
-3.325001 -8.813599 -12.210485 15.421774 1.210048 2.484496 0.004396 0.000317 -1884290.000000 1 0 0
-0.198701 -15.592899 3.895915 16.073461 1.558054 1.325976 0.008509 -0.006666 -1061700.000000 1 0 0
-15.491001 -7.845599 1.255915 17.409821 0.468804 1.498595 -0.016014 0.002183 -492165.000000 1 0 0
-6.022201 -13.439799 -13.570885 20.026583 1.149534 2.315350 0.013385 0.002691 -206364.000000 1 0 0
-15.349701 -10.419899 1.113515 18.585681 0.596379 1.510848 0.002819 0.002338 605302.000000 1 0 0
-9.913001 -8.296099 -12.567585 18.028784 0.696834 2.342119 0.022728 -0.003681 -28229.000000 1 0 0
-13.356801 -11.559899 -6.375085 18.779699 0.713406 1.917146 0.017097 -0.002644 -156894.000000 1 0 0
-12.289501 -11.198299 -3.879685 17.072952 0.738973 1.800041 0.002695 -0.001821 105808.000000 1 0 0
-11.907201 -10.845899 -9.175285 18.536473 0.738788 2.088614 0.023816 -0.007240 452320.000000 1 0 0
-13.218801 -8.408999 -5.884585 16.735481 0.566570 1.930101 0.006657 -0.002150 -2220090.000000 1 0 0
-13.346801 -8.217099 -3.226985 16.002226 0.551855 1.773847 -0.000328 0.000758 297820.000000 1 0 0
-4.501801 -17.081599 -3.331385 17.976245 1.313109 1.757195 -0.007739 -0.005613 -169985.000000 1 0 0
-15.397801 -8.843599 -1.789485 17.846674 0.521339 1.671235 0.005272 0.002412 -3009930.000000 1 0 0
-9.439401 -15.810499 3.698115 18.781646 1.032561 1.372601 -0.002014 0.010917 -459235.000000 1 0 0
4.740699 -17.133199 7.995115 19.492117 -1.300853 1.148154 0.019480 -0.022675 -483960.000000 1 0 0
-8.310601 -15.453899 5.963115 18.532345 1.077393 1.243200 -0.003785 0.004522 469962.000000 1 0 0
0.824999 -15.884199 8.569215 18.067093 -1.518905 1.076628 -0.006424 -0.002396 24453.500000 1 0 0
-10.860501 -7.713399 -10.205685 16.781031 0.617555 2.224547 0.017410 -0.004771 878604.000000 1 0 0
-4.924501 -15.882899 5.555215 17.532188 1.270145 1.248381 -0.002596 -0.004821 -935193.000000 1 0 0
-1.402801 -13.221099 -11.927685 17.861551 1.465089 2.302026 0.003969 -0.002057 -1521460.000000 1 0 0
-6.354201 -14.294099 -2.631285 15.862560 1.152498 1.737447 0.000862 -0.006092 403751.000000 1 0 0
-17.620201 -6.923499 -6.975685 20.175889 0.374396 1.923828 0.017656 -0.014426 123332.000000 1 0 0
-17.422901 -4.107399 -10.134085 20.570073 0.231520 2.085942 0.029300 -0.011890 852036.000000 1 0 0
-15.205001 -5.184599 -9.337385 18.581143 0.328617 2.097307 0.006319 -0.006420 626055.000000 1 0 0
-16.057701 -5.354499 -5.581185 17.823301 0.321859 1.889294 0.006335 -0.000864 -1118200.000000 1 0 0
-15.164601 -4.410999 -12.131485 19.914692 0.283064 2.225813 0.018471 -0.015570 -769422.000000 1 0 0
-18.570301 -5.004699 -5.434385 19.985886 0.263246 1.846175 0.003845 -0.006152 -356737.000000 1 0 0
-17.221101 -4.428399 -7.685385 19.371169 0.251696 1.978763 0.004530 -0.006738 985493.000000 1 0 0
12.132999 -7.802299 8.765615 16.879619 -0.571484 1.024763 0.013980 -0.008250 25556.700000 1 0 0
15.944299 -3.547499 1.871515 16.441046 -0.218927 1.456717 0.008270 -0.007044 -497866.000000 1 0 0
11.906599 -2.144499 12.597315 17.465919 -0.178200 0.765189 0.018898 -0.001768 232708.000000 1 0 0
9.691099 -10.086399 5.317815 14.964358 -0.805383 1.207491 0.008958 -0.003472 273649.000000 1 0 0
16.904199 -1.929799 7.158215 18.458497 -0.113669 1.172552 0.038335 -0.013545 -360266.000000 1 0 0
5.161199 -12.873999 9.004315 16.536491 -1.189513 0.994989 -0.001140 0.001730 -195534.000000 1 0 0
15.100499 -9.130099 -2.137585 17.775068 -0.543811 1.691346 0.009864 0.000527 277507.000000 1 0 0
11.084699 -8.503599 6.515015 15.415160 -0.654385 1.134444 0.017616 -0.009534 -2154610.000000 1 0 0
19.878499 -3.175899 3.510515 20.434402 -0.158427 1.398146 0.024896 -0.014441 266440.000000 1 0 0
13.580199 -8.693299 6.864015 17.524553 -0.569416 1.168340 0.016669 -0.005761 -1435100.000000 1 0 0
8.225799 -11.075099 8.758815 16.341311 -0.931965 1.005114 0.004725 -0.001601 -734964.000000 1 0 0
16.815799 -0.088199 -0.415485 16.821162 -0.005245 1.595499 0.008094 -0.001115 -662461.000000 1 0 0
12.515699 -12.307499 2.396915 17.716164 -0.777011 1.435085 0.024213 -0.004299 -721358.000000 1 0 0
10.384399 -11.666199 3.584615 16.024525 -0.843463 1.345192 0.012731 -0.000407 126266.000000 1 0 0
16.320499 2.942501 2.426715 16.760249 0.178378 1.425496 0.007573 -0.003085 -489095.000000 1 0 0
18.144699 -3.315099 0.533415 18.452765 -0.180710 1.541885 0.001584 -0.006498 -282171.000000 1 0 0
13.518899 -12.008799 -0.220885 18.083713 -0.726312 1.583011 0.026441 0.006715 -518342.000000 1 0 0
16.863699 -7.671199 -0.827985 18.545005 -0.426917 1.615459 0.010899 0.001849 -293877.000000 1 0 0
10.185399 -5.721899 9.772015 15.230718 -0.511838 0.874215 0.011576 -0.006347 -253888.000000 1 0 0
11.388699 -13.259099 5.972715 18.471045 -0.861138 1.241523 0.021963 -0.007244 -2115120.000000 1 0 0
13.139399 -1.822999 10.325515 16.810217 -0.137863 0.909373 0.029194 -0.005146 689233.000000 1 0 0
15.527599 -2.119999 -1.252085 15.721592 -0.135692 1.650522 -0.001807 -0.001101 246179.000000 1 0 0
10.492099 -12.307199 8.914015 18.466482 -0.864843 1.067046 0.018222 -0.016139 122446.000000 1 0 0
14.499599 1.280401 3.392515 14.946135 0.088077 1.341818 0.007768 -0.004671 459420.000000 1 0 0
15.073299 -5.903499 5.386615 17.060811 -0.373290 1.249570 0.020113 -0.004568 -584577.000000 1 0 0
14.233499 -3.368599 -2.991885 14.929546 -0.232391 1.772563 -0.000388 0.001312 1348750.000000 1 0 0
14.123099 0.584601 9.582715 17.077240 0.041370 0.975034 0.037107 -0.005376 326541.000000 1 0 0
15.401899 -3.479399 4.472715 16.411273 -0.222178 1.294765 0.014024 -0.006781 -1115850.000000 1 0 0
18.404899 4.784101 -4.269285 19.489862 0.254308 1.791639 -0.010972 0.001808 425654.000000 1 0 0
18.056299 -5.867499 -5.305985 19.713218 -0.314192 1.843316 0.028259 -0.001015 623519.000000 1 0 0
17.366499 0.084001 5.912415 18.345544 0.004837 1.242659 0.041396 -0.009392 601080.000000 1 0 0
17.086299 -6.829299 3.993815 18.829007 -0.380243 1.357063 0.025355 -0.005905 -256545.000000 1 0 0
9.596199 -6.630499 14.348315 18.491206 -0.604627 0.682571 0.005872 -0.007124 -1184460.000000 1 0 0
8.521799 -12.316499 5.107315 15.824092 -0.965527 1.242157 0.007832 -0.004579 -1052680.000000 1 0 0
16.752199 -10.311099 -0.470685 19.676801 -0.551744 1.594719 0.014543 0.006032 -148125.000000 1 0 0
14.870099 -8.915199 0.430515 17.343182 -0.540080 1.545970 0.019963 0.000427 -359366.000000 1 0 0
10.045199 -12.922399 1.471915 16.433532 -0.910021 1.481108 0.017736 -0.005837 -258374.000000 1 0 0
16.897799 -8.162399 8.995615 20.810609 -0.449992 1.123798 0.027024 -0.004584 585003.000000 1 0 0
18.919499 -0.522199 -1.762885 19.008627 -0.027594 1.663671 0.018536 -0.004936 -1013780.000000 1 0 0
13.406899 -1.260299 7.806315 15.565084 -0.093728 1.045433 0.022091 -0.006015 335363.000000 1 0 0
12.793399 -9.967199 -3.046985 16.501522 -0.661860 1.756511 0.012058 0.002319 -1234350.000000 1 0 0
8.815499 -15.227399 1.398115 17.650536 -1.046018 1.491502 0.022719 -0.002978 -789564.000000 1 0 0
11.298499 -8.157099 11.150015 17.847050 -0.625315 0.895980 0.012167 -0.009466 177710.000000 1 0 0
13.919499 -4.203699 -0.490485 14.548681 -0.293291 1.604516 0.004753 -0.001341 -1268930.000000 1 0 0
7.149699 -13.314999 10.682715 18.507507 -1.078015 0.955489 0.009536 0.002193 617299.000000 1 0 0
15.407299 -6.860699 1.887915 16.971101 -0.418929 1.459323 0.011410 -0.001560 912825.000000 1 0 0
15.806399 -6.154599 -2.575085 17.156702 -0.371313 1.721458 0.009541 0.000902 59807.300000 1 0 0
11.253199 -8.608999 3.875015 14.688945 -0.653049 1.303832 0.016117 -0.005181 558927.000000 1 0 0
10.719199 -14.561999 -0.414185 18.086586 -0.936246 1.593698 0.031918 -0.003181 731888.000000 1 0 0
13.624299 -12.848199 4.713415 19.310982 -0.756089 1.324226 0.026462 -0.000393 302652.000000 1 0 0
12.836099 -11.127499 6.593415 18.222508 -0.714219 1.200568 0.015259 -0.005347 -669999.000000 1 0 0
10.996699 -10.518999 1.416315 15.283412 -0.763199 1.477993 0.014970 0.000803 215862.000000 1 0 0
13.809799 -7.508799 11.864315 19.694024 -0.498016 0.924251 0.018444 -0.018021 723799.000000 1 0 0
15.271899 -1.825699 -4.799685 16.112140 -0.118982 1.873280 0.006985 0.003811 1202.940000 1 0 0
12.873099 -11.483099 -7.129085 18.665533 -0.728390 1.962689 0.027510 -0.007184 324347.000000 1 0 0
17.710399 -5.545899 1.833215 18.648751 -0.303471 1.472335 0.017868 -0.001301 248139.000000 1 0 0
10.476499 -9.766899 9.154815 16.998823 -0.750359 1.002074 0.006978 -0.008064 -1168770.000000 1 0 0
16.479799 1.773601 9.825415 19.268322 0.107210 1.035698 0.049223 -0.007506 91457.500000 1 0 0
18.167799 3.575101 0.622415 18.526675 0.194300 1.537194 0.003728 -0.000432 484644.000000 1 0 0
13.307799 -4.008499 5.796715 15.058801 -0.292570 1.175655 0.017535 -0.007363 -783190.000000 1 0 0
12.157099 -6.286799 6.650815 15.216841 -0.477257 1.118459 0.019321 -0.009893 -167105.000000 1 0 0
16.707799 -10.236199 3.815215 19.962119 -0.549676 1.378490 0.016678 0.000614 304710.000000 1 0 0
16.260499 -8.240399 -5.479085 19.034925 -0.469052 1.862771 0.026140 -0.002125 87231.200000 1 0 0
13.961899 -0.487299 5.398515 14.977184 -0.034888 1.202047 0.014219 -0.005512 947767.000000 1 0 0
18.150399 -4.336999 5.164615 19.362846 -0.234550 1.300800 0.027057 -0.010419 38414.900000 1 0 0
13.597599 -13.568199 7.150115 20.496704 -0.784316 1.214461 0.025679 -0.002695 172500.000000 1 0 0
14.871699 -13.925899 -1.214285 20.410110 -0.752567 1.630326 0.016062 0.012572 49299.100000 1 0 0
17.797099 -5.987799 8.021415 20.418951 -0.324551 1.167077 0.044697 -0.006419 -365684.000000 1 0 0
14.342699 3.205601 9.193215 17.335054 0.219887 1.011812 0.023371 -0.006066 -1155600.000000 1 0 0
18.684699 3.786501 3.120715 19.318241 0.199945 1.408543 0.019386 -0.002097 -214127.000000 1 0 0
14.677299 -10.609699 8.365415 19.949160 -0.625907 1.138082 0.012359 -0.008416 -267296.000000 1 0 0
14.864599 -4.720399 10.340615 18.712744 -0.307488 0.985319 0.037457 -0.015947 157056.000000 1 0 0
17.784999 -8.081799 1.880715 19.625462 -0.426521 1.474819 0.024146 -0.001985 -57867.200000 1 0 0
18.331299 -5.747299 -2.044185 19.319593 -0.303817 1.676804 0.010874 -0.002382 117341.000000 1 0 0
14.229199 -13.109499 -5.638085 20.152347 -0.744464 1.854354 0.029759 -0.009776 -1009660.000000 1 0 0
15.465499 -1.577499 9.407815 18.170777 -0.101650 1.026584 0.048362 -0.010803 -366432.000000 1 0 0
12.731699 -10.049999 10.280315 19.203737 -0.668224 1.005899 -0.000824 -0.014784 -1961640.000000 1 0 0
16.538799 2.144801 4.833215 17.363525 0.128963 1.288716 0.019089 -0.006180 -2301430.000000 1 0 0
15.012899 2.488101 0.085115 15.217918 0.164238 1.565203 0.003140 -0.001267 -1617430.000000 1 0 0
15.061599 -10.031399 -6.985185 19.397772 -0.587558 1.939174 0.030972 -0.004976 1583190.000000 1 0 0
16.156199 -0.171199 -3.020085 16.436940 -0.010596 1.755584 0.001470 0.002361 -391736.000000 1 0 0
12.206499 2.631601 13.566715 18.438538 0.212340 0.743978 0.051337 -0.003227 -76280.000000 1 0 0
17.713699 -2.958799 9.462115 20.299292 -0.165507 1.085885 0.053353 -0.020140 253320.000000 1 0 0
7.847599 -18.078699 4.396515 20.192908 -1.161260 1.351313 0.037579 -0.016495 -414603.000000 1 0 0
6.788899 -11.265099 6.593415 14.712740 -1.028431 1.106109 0.004061 -0.005075 -181509.000000 1 0 0
17.929899 2.019901 -1.474885 18.103496 0.112182 1.652356 0.002637 0.000977 374666.000000 1 0 0
17.461899 -2.266699 3.624115 17.977487 -0.129086 1.367813 0.010649 -0.009005 -1528950.000000 1 0 0
12.476099 -13.500599 -2.181485 18.511567 -0.824817 1.688915 0.026802 0.002672 183492.000000 1 0 0
15.124499 -8.330699 4.538115 17.853445 -0.503464 1.313789 0.018472 -0.001594 -859674.000000 1 0 0
11.558499 -3.076399 15.100315 19.263505 -0.260128 0.669903 0.015307 -0.006000 180344.000000 1 0 0
11.978999 -13.879299 -6.392485 19.416365 -0.858755 1.906286 0.023818 -0.013419 -142198.000000 1 0 0
10.643899 -12.061099 -1.196285 16.130524 -0.847735 1.645027 0.019504 -0.001836 -1149810.000000 1 0 0
13.180799 -8.112599 2.179415 15.630022 -0.551729 1.430903 0.013525 0.001774 -974374.000000 1 0 0
8.698299 -7.815699 9.965515 15.364148 -0.732003 0.865025 0.006994 -0.003098 -2452710.000000 1 0 0
15.642099 -3.801199 8.129915 18.033854 -0.238390 1.103119 0.040880 -0.011410 -37105.600000 1 0 0
10.133199 -17.250799 5.315215 20.700805 -1.039690 1.311124 0.032077 -0.012447 -975133.000000 1 0 0
15.175199 -6.325599 8.368915 18.448268 -0.394937 1.099948 0.030065 -0.005005 456057.000000 1 0 0
16.533399 -5.062999 -0.294285 17.293752 -0.297161 1.587814 0.003246 -0.000300 -1192370.000000 1 0 0
14.093099 -10.531899 3.553615 17.948942 -0.641777 1.371495 0.027235 -0.003856 -69702.300000 1 0 0
14.933199 -10.182799 -4.480085 18.621520 -0.598468 1.813766 0.025047 -0.006032 378180.000000 1 0 0
13.533399 -6.742899 0.009315 15.120174 -0.462240 1.570180 0.011129 -0.000357 261845.000000 1 0 0
17.763899 -1.026699 -4.748185 18.416175 -0.057733 1.831569 0.013772 0.001211 -801770.000000 1 0 0
14.388499 0.158101 -1.388485 14.456203 0.010988 1.666992 0.001350 0.001862 -3304750.000000 1 0 0
4.745599 -12.930299 11.631315 18.027780 -1.219046 0.869526 -0.011975 0.006809 -745158.000000 1 0 0
11.855399 -7.301399 13.630015 19.484307 -0.552008 0.796045 0.011282 -0.012241 -937852.000000 1 0 0
11.961799 -5.729499 11.610315 17.627002 -0.446693 0.851751 0.008621 -0.005856 306728.000000 1 0 0
13.184299 -4.580099 8.338015 16.258092 -0.334348 1.032291 0.021871 -0.009111 -1260400.000000 1 0 0
15.308499 -1.201299 3.096815 15.664722 -0.078312 1.371792 0.008876 -0.004585 1040290.000000 1 0 0
15.261599 -10.485699 5.898315 19.433384 -0.601991 1.262417 0.021225 -0.004413 312149.000000 1 0 0
13.647599 -8.224299 -5.760085 16.943277 -0.542343 1.917674 0.022201 0.000321 -59202.000000 1 0 0
9.520199 -2.256299 13.679515 16.818270 -0.232708 0.620871 0.009195 -0.003758 -2465210.000000 1 0 0
9.955999 -9.141699 13.688115 19.236867 -0.742785 0.779086 0.018442 -0.005231 -10076.700000 1 0 0
20.337599 6.024901 -3.057985 21.430554 0.288008 1.713978 0.026053 -0.002479 -221378.000000 1 0 0
11.031099 -3.506799 10.589815 15.688434 -0.307798 0.829821 0.013615 -0.005908 738549.000000 1 0 0
10.009499 -14.049999 -2.832485 17.481863 -0.951783 1.733538 0.016606 -0.001502 -74669.900000 1 0 0
14.976699 -12.787099 2.573615 19.860386 -0.706696 1.440846 0.017278 0.005267 -299528.000000 1 0 0
11.125199 -0.582399 14.582615 18.351074 -0.052302 0.652371 0.027234 0.000193 286189.000000 1 0 0
19.016199 -1.963999 5.714015 19.953022 -0.102915 1.280357 0.037915 -0.010780 32105.100000 1 0 0
18.929999 -0.437399 7.877715 20.508403 -0.023102 1.176540 0.046131 -0.012804 -407412.000000 1 0 0
19.065799 0.657001 0.576115 19.085813 0.034446 1.540606 0.024750 -0.008504 -291245.000000 1 0 0
18.475599 0.789201 3.706115 18.860167 0.042690 1.373004 0.022053 -0.008039 347963.000000 1 0 0
16.661299 -3.928699 -4.136385 17.610884 -0.231568 1.807888 0.007681 0.000641 4012.090000 1 0 0
10.940799 -8.237299 15.888515 20.976155 -0.645353 0.711389 0.019011 -0.012245 368785.000000 1 0 0
16.629599 -7.639099 6.466515 19.409153 -0.430617 1.231134 0.025013 -0.004651 271631.000000 1 0 0
18.924499 2.213601 5.853615 19.932423 0.116441 1.272729 0.033037 -0.003895 332070.000000 1 0 0
15.395599 1.689401 7.521915 17.217948 0.109295 1.118686 0.034803 -0.007267 -176388.000000 1 0 0
8.681299 -15.620299 3.879715 18.286905 -1.063534 1.357014 0.019605 -0.016293 486498.000000 1 0 0
11.297699 -15.243299 1.955515 19.074072 -0.932978 1.468094 0.025789 0.000048 -140947.000000 1 0 0
7.908499 -16.216499 6.192015 19.075121 -1.117051 1.240195 0.016980 -0.009542 -140913.000000 1 0 0
14.508999 -11.774899 -2.535785 18.857081 -0.681749 1.705679 0.020016 0.003330 647775.000000 1 0 0
13.696099 -4.986299 3.311515 14.946988 -0.349151 1.347392 0.007004 -0.001960 -1269440.000000 1 0 0
-0.986701 10.216201 -5.533985 11.660589 -1.474513 2.065293 0.002451 -0.000050 -2102830.000000 1 0 0
8.216999 -1.781299 -7.955285 11.574915 -0.213479 2.328543 -0.000513 -0.000409 -2011540.000000 1 0 0
2.911399 -10.252399 7.627115 13.105755 -1.294108 0.949651 -0.004675 -0.000240 480396.000000 1 0 0
-6.295001 1.370201 8.339015 10.537725 -0.214322 0.657784 0.000333 -0.000691 -187004.000000 1 0 0
7.288099 -6.245199 -7.239485 12.022023 -0.708488 2.217032 -0.001352 -0.000050 140243.000000 1 0 0
-11.359001 -4.399299 -4.192585 12.882488 0.369507 1.902282 0.001918 -0.001386 -68981.200000 1 0 0
2.097599 -3.178399 2.867715 4.767172 -0.987455 0.925350 0.000916 -0.000979 1263040.000000 1 0 0
-3.599801 -4.306099 8.919415 10.538359 0.874500 0.561653 0.002986 -0.001912 -1776580.000000 1 0 0
-4.814901 -1.108699 -2.523385 5.547969 0.226319 2.042978 0.001029 0.000002 -339746.000000 1 0 0
4.948499 -5.298899 -3.521085 8.060026 -0.819579 2.022899 0.002661 -0.002243 -50967.300000 1 0 0
2.639599 14.161801 -8.751985 16.855899 1.386522 2.116739 0.008871 -0.007475 57779.600000 1 0 0
5.443799 -5.560499 13.608715 15.676454 -0.796003 0.519437 -0.000914 -0.006942 -1532520.000000 1 0 0
-4.718201 -0.970899 9.924715 11.031955 0.202945 0.451867 0.007643 -0.002425 -2467600.000000 1 0 0
-1.000601 11.823001 -2.626285 12.152445 -1.486366 1.788627 0.000627 -0.001433 -932432.000000 1 0 0
3.090099 9.397601 -10.584485 14.487751 1.253115 2.389970 0.003191 -0.000391 -713542.000000 1 0 0
-10.614101 2.690601 1.095915 11.004522 -0.248264 1.471043 -0.001185 -0.000483 6210.780000 1 0 0
5.716099 -9.034999 -0.730885 10.716305 -1.006706 1.639052 0.000653 -0.000980 403627.000000 1 0 0
-6.842101 5.448601 9.363415 12.813084 -0.672502 0.751347 0.004758 -0.003553 621450.000000 1 0 0
-5.586801 -1.889699 5.111015 7.804216 0.326163 0.856740 0.001182 -0.002705 556660.000000 1 0 0
6.610199 -3.819899 -7.381185 10.619240 -0.523996 2.339323 -0.000052 -0.001089 268459.000000 1 0 0
6.198899 4.729501 11.150315 13.606030 0.651743 0.610236 0.004943 0.002509 807012.000000 1 0 0
3.729899 -9.866299 3.446515 11.096597 -1.209359 1.254981 -0.002414 0.000198 859225.000000 1 0 0
-6.587301 6.603501 -5.719185 10.941108 -0.786626 2.120840 0.000270 -0.003036 -393880.000000 1 0 0
-11.020701 8.446701 5.325215 14.871466 -0.653940 1.204583 -0.000664 -0.010740 -193987.000000 1 0 0
-9.161201 -5.543999 5.122115 11.870113 0.544206 1.124626 0.000390 0.001446 161560.000000 1 0 0
3.322899 9.819401 -7.981885 13.083302 1.244491 2.226960 0.003623 -0.003344 764448.000000 1 0 0
-8.129801 -8.522799 6.143815 13.284511 0.808994 1.090007 0.001962 0.000689 -2415930.000000 1 0 0
-7.721901 -5.673699 -7.506385 12.172281 0.633672 2.235313 0.014255 -0.006778 484899.000000 1 0 0
9.243699 -1.589099 6.981515 11.692423 -0.170247 0.930919 0.006505 -0.004595 2345260.000000 1 0 0
-4.095001 -0.508099 -4.995485 6.479357 0.123447 2.451182 0.005440 -0.004318 -1042570.000000 1 0 0
9.043499 1.050201 -4.324585 10.079178 0.115610 2.014250 0.001230 0.001291 -3481310.000000 1 0 0
-2.005501 -10.699399 10.617715 15.206415 1.385506 0.797861 -0.009459 0.000177 386899.000000 1 0 0
-12.915601 0.385501 -2.586285 13.177641 -0.029839 1.768342 -0.000044 -0.003002 -1088660.000000 1 0 0
-9.881801 -5.061499 -6.101785 12.668881 0.473363 2.073317 0.004499 -0.005050 -2145040.000000 1 0 0
-5.578701 8.438401 -0.188485 10.117511 -0.986651 1.589427 0.000419 0.001797 252402.000000 1 0 0
6.260599 9.646401 0.402515 11.506962 0.995118 1.535809 0.004693 -0.004997 472358.000000 1 0 0
-0.612501 -12.093899 -0.010785 12.109404 1.520194 1.571687 0.010315 -0.000858 82464.800000 1 0 0
6.222699 4.673901 2.414615 8.148478 0.644208 1.269952 -0.001607 -0.000840 38846.500000 1 0 0
3.501499 -7.534999 -8.249085 11.708293 -1.135787 2.352586 -0.005588 0.000763 826426.000000 1 0 0
-6.670301 -9.888499 4.521715 12.756223 0.977355 1.208448 0.001086 0.003061 -2863670.000000 1 0 0
-0.029601 6.526601 -9.237085 11.310223 -1.566261 2.526469 0.002688 -0.000039 -2570350.000000 1 0 0
-17.397301 -2.698599 4.250615 18.111219 0.153890 1.333891 0.016083 -0.008858 401967.000000 1 0 0
-8.364901 0.890301 -9.183785 12.454160 -0.106034 2.400020 0.002962 -0.002466 709777.000000 1 0 0
-10.016401 -5.817599 -11.912185 16.615442 0.526188 2.370192 0.014055 -0.002130 1674070.000000 1 0 0
2.160399 9.570801 6.436315 11.734296 1.348789 0.990222 -0.006772 0.005832 -690655.000000 1 0 0
-11.298401 1.690401 -1.241485 11.491414 -0.148513 1.679043 0.002644 -0.004530 -2092550.000000 1 0 0
-6.016901 -5.301599 -3.131185 8.608970 0.722285 1.943046 0.008461 -0.000544 573974.000000 1 0 0
-7.002001 -8.235499 1.352315 10.894045 0.866174 1.446342 0.002596 0.004047 -142828.000000 1 0 0
0.128799 10.877501 -7.872085 13.427819 1.558956 2.197221 0.002919 0.001261 -31852.700000 1 0 0
-2.915601 9.380601 -4.259885 10.707148 -1.269450 1.979973 0.003604 -0.000579 -372459.000000 1 0 0
3.342799 -4.788099 9.247715 10.937112 -0.961315 0.563229 -0.003379 -0.000813 -1145890.000000 1 0 0
-8.936501 1.617301 -0.527985 9.097004 -0.179039 1.628868 -0.001907 -0.001949 -1740110.000000 1 0 0
2.380599 3.600901 -10.463985 11.319396 0.986649 2.750334 0.004907 -0.000991 3451.340000 1 0 0
-13.690901 0.556301 1.117615 13.747702 -0.040611 1.489412 -0.001187 -0.003675 -2024960.000000 1 0 0
9.380299 -12.615099 -5.116685 16.532127 -0.931419 1.885463 0.016247 -0.000479 -1989010.000000 1 0 0
-4.720801 9.510101 -8.188485 13.408179 -1.110034 2.227751 0.001682 -0.000534 -1067440.000000 1 0 0
-2.284701 7.289801 8.416815 11.366786 -1.267082 0.737020 -0.001633 0.001595 -1477620.000000 1 0 0
-10.767601 -1.212599 -4.473485 11.722785 0.112143 1.962329 0.003401 -0.002656 -3111940.000000 1 0 0
2.727299 -7.150499 9.648815 12.315333 -1.206414 0.670550 -0.006831 0.001049 -1136590.000000 1 0 0
-16.134101 -6.576699 3.430015 17.757454 0.387064 1.376415 0.004420 0.000339 -176770.000000 1 0 0
-10.758501 -0.016999 6.116815 12.375825 0.001580 1.053819 0.000775 -0.001110 -1477660.000000 1 0 0
-8.458201 10.014001 9.465715 16.168523 -0.869424 0.945373 0.005717 -0.015332 -1074250.000000 1 0 0
0.182799 -6.135899 -3.836385 7.238821 -1.541013 2.129366 -0.000356 0.002501 553984.000000 1 0 0
4.957099 1.389001 -2.928285 5.922585 0.273198 2.087972 -0.002498 0.002144 389271.000000 1 0 0
0.417899 5.283901 3.860515 6.557272 1.491871 0.941300 -0.005550 0.001895 -2890960.000000 1 0 0
6.129699 -11.325299 -1.667585 12.985240 -1.074704 1.699574 -0.000042 -0.000861 -1642410.000000 1 0 0
6.183199 -13.480999 5.231915 15.727117 -1.140764 1.231665 0.005905 -0.006917 -483479.000000 1 0 0
8.109299 -8.305899 -6.057385 13.093533 -0.797374 2.051749 -0.000556 -0.000422 648476.000000 1 0 0
-13.144801 -1.244599 -4.689385 14.011608 0.094402 1.912060 0.001947 -0.000991 -3428120.000000 1 0 0
-6.724901 -1.528699 -7.131285 9.920506 0.223521 2.372933 0.008884 -0.004561 -1213130.000000 1 0 0
-5.724401 12.845801 -4.513785 14.770160 -1.151587 1.881367 0.005160 -0.000714 402827.000000 1 0 0
-4.276001 6.906801 -6.782385 10.582477 -1.016451 2.266476 0.003766 -0.000628 -1921210.000000 1 0 0
-9.355301 -3.703599 -8.160785 12.955181 0.376952 2.252252 0.007958 -0.002724 762488.000000 1 0 0
-2.209701 -6.382099 9.115015 11.344490 1.237480 0.637687 -0.001220 0.000141 -161334.000000 1 0 0
7.446099 -5.986799 10.013415 13.840326 -0.677186 0.761944 0.002146 -0.001060 -50282.900000 1 0 0
9.557999 -4.993699 12.265415 16.331956 -0.481456 0.721210 0.007973 -0.001920 -610561.000000 1 0 0
-6.467501 2.846101 -9.037385 11.471843 -0.414559 2.478006 0.004356 -0.002884 840205.000000 1 0 0
7.520099 5.558701 8.952915 12.946263 0.636540 0.807171 0.002226 -0.000182 67409.900000 1 0 0
12.756299 3.333201 11.174015 17.282708 0.255584 0.867752 0.033647 0.001939 -420772.000000 1 0 0
-7.438101 -7.308599 -3.955385 11.152849 0.776617 1.933339 0.010938 -0.004208 -472729.000000 1 0 0
2.171999 1.368801 -5.842985 6.382137 0.562332 2.727599 0.000966 0.001982 430834.000000 1 0 0
12.868699 6.925001 -7.071785 16.234814 0.493682 2.021494 0.000781 -0.000603 -413518.000000 1 0 0
0.891199 -7.975699 0.991715 8.086378 -1.459519 1.447847 0.000702 0.000478 381032.000000 1 0 0
-10.059501 -6.138599 -8.598885 14.588241 0.547907 2.201161 0.011514 -0.002491 284649.000000 1 0 0
-6.621501 0.332101 3.120915 7.327665 -0.050113 1.130831 0.000346 -0.002505 714604.000000 1 0 0
10.790999 -7.951699 1.326915 13.469814 -0.635053 1.472126 0.006283 -0.001334 -125004.000000 1 0 0
6.274399 1.059801 10.605715 12.368203 0.167329 0.540409 0.001870 -0.002131 -125855.000000 1 0 0
-12.990401 5.461601 1.990115 14.231660 -0.397996 1.430499 -0.000258 -0.002258 -435747.000000 1 0 0
2.079699 7.420401 3.675715 8.538055 1.297539 1.125739 -0.009795 0.002636 -182347.000000 1 0 0
10.202399 -9.456299 -0.765585 13.931858 -0.747464 1.625776 0.005747 0.000615 680911.000000 1 0 0
6.745599 -11.797399 -9.143785 16.379577 -1.051380 2.163063 -0.002215 0.002285 236565.000000 1 0 0
10.355599 3.531601 11.947715 16.200572 0.328664 0.741454 0.012848 -0.000208 -1323400.000000 1 0 0
-11.005801 -3.076899 -1.938985 11.591144 0.272611 1.738868 -0.002837 -0.000411 -1489860.000000 1 0 0
12.346399 1.035101 6.837215 14.151060 0.083643 1.066537 0.011133 -0.003431 -42491.900000 1 0 0
-9.548401 9.237801 3.045815 13.630331 -0.768866 1.345435 0.000083 -0.007362 1588140.000000 1 0 0
-6.595501 7.706301 -8.788385 13.421007 -0.862911 2.284745 0.000798 -0.000640 -104067.000000 1 0 0
8.587099 5.488901 11.991115 15.736999 0.568748 0.704447 0.011114 0.002287 -933043.000000 1 0 0
1.356199 4.886801 -2.668385 5.730652 1.300086 2.055147 -0.001962 0.000591 192604.000000 1 0 0
1.403199 0.586401 9.578015 9.698000 0.395844 0.157466 -0.000535 -0.002415 626558.000000 1 0 0
2.597599 12.538101 -3.913085 13.388940 1.366510 1.867388 0.005289 -0.005020 718897.000000 1 0 0
2.141899 0.644801 13.003415 13.194404 0.292412 0.170353 -0.002560 -0.004873 -546048.000000 1 0 0
-12.193101 -1.615699 0.821015 12.327054 0.131742 1.504144 -0.004718 -0.002160 46083.500000 1 0 0
3.241799 8.616501 -1.292485 9.296444 1.210946 1.710278 0.002067 -0.001921 299746.000000 1 0 0
3.704899 -2.911999 -5.815785 7.485277 -0.666137 2.460624 -0.000100 -0.000230 -850354.000000 1 0 0
-7.841101 -7.164899 9.281915 14.105764 0.740367 0.852606 0.002627 -0.000529 85613.300000 1 0 0
-7.058001 10.999801 -3.528385 13.537374 -1.000315 1.834482 0.001794 -0.000298 267132.000000 1 0 0
0.484399 0.462901 2.544715 2.631443 0.762708 0.257453 -0.005633 -0.000901 -1242340.000000 1 0 0
-7.094501 4.531001 -2.017685 8.656383 -0.568365 1.806047 0.004471 -0.001938 -1554000.000000 1 0 0
-6.820601 -3.889699 -5.882685 9.811032 0.518285 2.213796 0.006164 -0.003738 441010.000000 1 0 0
2.906499 -6.124999 13.329615 14.954664 -1.127731 0.470515 -0.007238 -0.002061 -2750190.000000 1 0 0
-5.445101 -0.474899 -11.861585 13.060316 0.086996 2.709797 0.008849 -0.003391 -1141300.000000 1 0 0
11.887399 2.411801 -0.618385 12.145346 0.200170 1.621734 -0.001617 0.001576 -1407350.000000 1 0 0
5.978399 -10.959699 10.739515 16.467952 -1.071423 0.860384 -0.005199 0.003023 479839.000000 1 0 0
-8.182001 6.427501 -10.379085 14.696371 -0.665877 2.354962 0.001342 -0.000132 708504.000000 1 0 0
2.823899 7.890501 11.217315 14.002234 1.227114 0.641651 -0.000435 0.002209 707172.000000 1 0 0
-6.161201 -10.117099 -0.408485 11.852551 1.023794 1.605267 0.006759 0.003473 -64699.000000 1 0 0
11.311299 4.311401 6.056315 13.535605 0.364159 1.106900 0.001601 -0.001113 308549.000000 1 0 0
-7.826501 10.639301 1.398215 13.281711 -0.936561 1.465327 0.005383 -0.003232 423229.000000 1 0 0
4.333099 -2.607199 -3.478085 6.137615 -0.541664 2.173271 0.000883 -0.001278 -5987530.000000 1 0 0
6.476799 6.471401 6.352615 11.143773 0.784981 0.964218 0.001018 0.000869 -4944180.000000 1 0 0
-0.436101 10.458401 -10.168685 14.593508 -1.529122 2.341716 0.004312 -0.000129 -255901.000000 1 0 0
14.102699 6.558301 -2.408785 15.738478 0.435289 1.724451 0.005123 0.001989 700954.000000 1 0 0
1.522799 9.463101 -6.231285 11.432327 1.411244 2.147255 0.002916 -0.000918 595526.000000 1 0 0
0.654199 7.400501 7.240515 10.374027 1.482626 0.798270 -0.008477 0.003694 -27550.800000 1 0 0
12.177599 6.307401 2.007715 13.860308 0.477905 1.425431 0.000199 -0.001713 -1825140.000000 1 0 0
-6.739101 6.760301 -3.111285 10.039783 -0.786969 1.885880 -0.000383 -0.003313 171561.000000 1 0 0
1.002999 9.940701 11.207415 15.014316 1.470238 0.728087 -0.004848 0.002372 -593382.000000 1 0 0
-3.710801 13.742101 -10.937285 17.951033 -1.307055 2.225954 0.007024 0.002603 -31139.800000 1 0 0
-9.995601 -5.444799 -2.366885 11.625834 0.498780 1.775818 0.002391 0.001688 -359861.000000 1 0 0
-4.077001 3.991201 -12.494685 13.735675 -0.774764 2.713242 0.004088 -0.003992 -1113030.000000 1 0 0
-3.102701 8.377401 2.507415 9.278724 -1.216095 1.297162 -0.002537 0.002149 -2491030.000000 1 0 0
7.069399 8.955101 7.146415 13.462595 0.902536 1.011211 0.004295 0.003003 789188.000000 1 0 0
-1.368801 -2.340899 -8.158185 8.597058 1.041678 2.820689 0.001818 -0.004314 -1339630.000000 1 0 0
0.826099 -1.294699 4.890615 5.126090 -1.002859 0.304278 0.000067 -0.002585 -1649550.000000 1 0 0
2.726499 -8.865199 -6.095985 11.098945 -1.272427 2.152251 -0.007398 0.001087 235611.000000 1 0 0
5.431499 4.032901 8.735915 11.049058 0.638685 0.658930 0.000248 -0.000539 938976.000000 1 0 0
6.108899 -7.456499 -2.801385 10.038216 -0.884414 1.853624 -0.001730 -0.001583 638110.000000 1 0 0
1.817799 2.194801 -8.327985 8.802095 0.879078 2.811884 0.000322 -0.000757 350672.000000 1 0 0
-5.406101 10.924901 -0.680285 12.208283 -1.111284 1.626548 0.000010 0.000762 690540.000000 1 0 0
-5.358901 3.336901 -3.391085 7.166044 -0.556932 2.063734 0.001986 -0.000860 -396418.000000 1 0 0
2.019899 13.838601 -6.173485 15.287210 1.425859 1.986500 -0.000474 -0.002870 374433.000000 1 0 0
-5.417401 -2.563799 2.572915 6.522361 0.442022 1.165299 -0.006542 -0.001124 308025.000000 1 0 0
10.519099 -3.385099 -1.850885 11.204290 -0.311339 1.736751 -0.000904 -0.000339 -231298.000000 1 0 0
2.345899 -3.291199 7.006115 8.088318 -0.951545 0.523246 -0.003526 -0.001380 -996367.000000 1 0 0
-2.875001 9.883601 -11.620185 15.523527 -1.287722 2.416674 0.005960 -0.002718 -2591110.000000 1 0 0
0.454799 -1.868399 9.281515 9.478622 -1.332023 0.204291 -0.000186 -0.004219 574747.000000 1 0 0
9.472499 2.820401 4.936115 11.047539 0.289388 1.107604 0.001694 -0.003907 -32243.600000 1 0 0
13.490799 2.055201 -4.990585 14.530363 0.151179 1.921394 0.001800 0.002272 574369.000000 1 0 0
-6.535101 3.800401 7.547215 10.682277 -0.526733 0.786231 -0.000119 -0.001384 393350.000000 1 0 0
10.510599 0.016101 1.861115 10.674114 0.001532 1.395543 0.001145 -0.001245 530856.000000 1 0 0
15.355199 6.687401 -4.575285 17.361933 0.410742 1.837470 -0.001132 0.006173 -600611.000000 1 0 0
8.053299 -4.876899 -9.306685 13.238359 -0.544511 2.350416 0.003009 0.000988 678153.000000 1 0 0
4.594199 5.653301 -2.114185 7.585266 0.888385 1.853260 -0.000887 0.000619 -213452.000000 1 0 0
-1.636501 -10.312799 1.370815 10.531434 1.413422 1.440262 0.009253 0.000519 -923979.000000 1 0 0
-2.843901 12.278301 -12.853085 18.001284 -1.343190 2.366004 0.009529 -0.004635 -83543.300000 1 0 0
8.307299 4.282901 -9.622485 13.414421 0.476017 2.370750 0.000141 0.001236 -1342180.000000 1 0 0
4.212199 7.663601 -9.009785 12.555860 1.068232 2.371112 0.002929 -0.001809 -1208840.000000 1 0 0
-1.785701 -5.104799 -2.354085 5.898256 1.234292 1.981348 0.004505 -0.000341 -17014.600000 1 0 0
-3.304801 -9.230799 7.014115 12.055172 1.226996 0.949814 0.001487 -0.002815 -1379960.000000 1 0 0
1.074699 7.249501 -1.396485 7.460590 1.423624 1.759089 -0.000812 0.000288 3580.190000 1 0 0
0.370399 -0.897699 -2.265485 2.464849 -1.179467 2.736630 0.002020 0.003600 -2190520.000000 1 0 0
4.063399 -6.628499 7.371815 10.714097 -1.020859 0.812000 -0.001931 -0.000312 -1018140.000000 1 0 0
-13.876001 3.910501 6.004615 15.617004 -0.274693 1.176139 -0.005783 -0.001618 -1024570.000000 1 0 0
4.209799 6.217801 12.742615 14.790459 0.975636 0.532495 0.006650 0.004578 -1469700.000000 1 0 0
8.361199 9.994901 -7.061485 14.821345 0.874165 2.067398 0.005409 -0.003832 459836.000000 1 0 0
12.483599 5.329901 9.384115 16.501809 0.403523 0.965906 0.014449 0.000252 365185.000000 1 0 0
7.485399 4.006301 0.311415 8.495800 0.491421 1.534133 0.000382 0.001425 -2417780.000000 1 0 0
-10.873801 -7.460899 -1.137685 13.236272 0.601360 1.656855 -0.001208 0.004837 -832767.000000 1 0 0
10.409899 6.689301 0.203215 12.375542 0.571149 1.554375 0.000788 -0.001550 -765029.000000 1 0 0
14.615699 3.609501 4.385515 15.680558 0.242116 1.287337 0.009915 -0.003650 780427.000000 1 0 0
2.152399 5.522201 8.265615 10.170935 1.199138 0.622077 -0.005723 0.002602 -1393000.000000 1 0 0
4.231599 0.036301 11.700915 12.442635 0.008578 0.347024 -0.000900 -0.002897 -2919490.000000 1 0 0
-1.536801 -1.522099 -0.550985 2.232068 0.780592 1.820224 0.003176 -0.002001 -1527520.000000 1 0 0
3.048699 -5.285399 -9.506085 11.295825 -1.047599 2.570956 -0.001900 0.001289 365881.000000 1 0 0
-4.003901 -5.288499 -1.331185 6.765464 0.922769 1.768850 0.003581 -0.000395 -976094.000000 1 0 0
-1.282301 -8.687899 8.580615 12.278063 1.424258 0.796998 -0.004583 -0.000306 -245253.000000 1 0 0
4.072099 8.576301 -5.902685 11.179294 1.127504 2.127042 0.004834 0.000069 469019.000000 1 0 0
-14.284001 -1.727199 -2.673285 14.634287 0.120334 1.754501 -0.003294 -0.002053 -1077800.000000 1 0 0
8.748299 -10.565499 -6.683185 15.258685 -0.879210 2.024160 0.001043 -0.000072 218301.000000 1 0 0
14.747199 6.115701 1.668415 16.051956 0.393116 1.466670 0.000244 -0.000516 54579.500000 1 0 0
-5.741501 0.387301 -8.513585 10.275990 -0.067354 2.547207 0.007666 -0.006641 612151.000000 1 0 0
-7.992201 -4.488799 -12.955485 15.870387 0.511742 2.525826 0.008973 -0.005497 733169.000000 1 0 0
0.813799 -10.675099 11.996015 16.078694 -1.494710 0.728639 -0.012085 0.004770 -340871.000000 1 0 0
0.285399 11.709201 3.419415 12.201608 1.546427 1.286749 -0.001788 -0.000206 -1659910.000000 1 0 0
5.118799 -13.301299 -3.733885 14.733247 -1.203432 1.827023 -0.000355 -0.001514 226896.000000 1 0 0
-7.452001 1.604101 -6.980885 10.336257 -0.212022 2.312274 0.004971 -0.003588 662636.000000 1 0 0
1.518399 2.794801 4.136415 5.217890 1.073116 0.655510 -0.005888 0.000498 -1857940.000000 1 0 0
17.196399 5.491601 2.073315 18.170648 0.309110 1.456445 0.000048 -0.001891 -556640.000000 1 0 0
2.563599 -8.222799 -3.516385 9.303302 -1.268579 1.958401 -0.004049 0.001997 338453.000000 1 0 0
-0.271501 -9.551399 -0.765885 9.585902 1.542379 1.650779 0.009810 0.001825 -1188570.000000 1 0 0
0.789299 11.873401 -5.648685 13.172254 1.504418 2.013996 0.004013 -0.000891 -2005480.000000 1 0 0
5.974499 -4.992999 7.881715 11.079084 -0.696144 0.779301 -0.000883 -0.000927 -1113070.000000 1 0 0
-6.047501 -1.752199 -9.509285 11.404779 0.282017 2.556749 0.009552 -0.006792 -936803.000000 1 0 0
2.068999 -1.274099 11.274015 11.532888 -0.551960 0.212278 -0.004311 -0.003123 -969966.000000 1 0 0
18.086299 2.122901 -5.761985 19.100298 0.116842 1.877240 0.011119 0.007303 666665.000000 1 0 0
-8.932001 4.931801 7.795615 12.840363 -0.504492 0.918368 0.008989 -0.008581 -873988.000000 1 0 0
11.568299 -7.050699 -4.775985 14.364816 -0.547364 1.909726 0.008754 -0.001899 -99809.300000 1 0 0
10.863199 0.571601 8.961215 14.093942 0.052570 0.881725 0.010571 -0.004224 -209717.000000 1 0 0
-8.393101 -7.363799 -1.604585 11.280265 0.720167 1.713528 0.003590 0.000371 -883660.000000 1 0 0
10.262099 -10.556799 -3.200385 15.066491 -0.799553 1.784845 0.009397 -0.001632 -105340.000000 1 0 0
7.579999 -13.976199 -3.782985 16.343240 -1.073845 1.804386 0.009718 -0.003649 -1811350.000000 1 0 0
1.715699 -1.217599 -11.685085 11.872969 -0.617194 2.963456 0.001534 -0.004090 62353.600000 1 0 0
-11.851101 -2.520099 -6.448285 13.725155 0.209526 2.059878 0.006909 -0.001877 -412996.000000 1 0 0
2.609199 -12.282299 -6.484385 14.131880 -1.361472 2.047495 -0.005049 0.003086 3814.460000 1 0 0
-5.348401 1.450201 1.167615 5.663197 -0.264780 1.363131 -0.002182 -0.002934 426493.000000 1 0 0
0.175799 6.912901 -3.985085 7.981228 1.545371 2.093595 0.002733 -0.000185 957249.000000 1 0 0
5.438599 -11.768099 3.569915 13.446591 -1.137886 1.302086 -0.002329 -0.002280 -3390240.000000 1 0 0
-4.438801 -9.212299 1.119515 10.287017 1.121787 1.461752 0.006780 0.002755 -1502680.000000 1 0 0
7.100399 -6.204699 -4.761485 10.563413 -0.718180 2.038405 0.001675 -0.001782 1300690.000000 1 0 0
-7.097601 -5.937399 2.174415 9.505616 0.696625 1.340002 0.000491 0.001957 -133547.000000 1 0 0
-6.151301 -0.665799 7.058015 9.386020 0.107817 0.719749 0.002175 -0.000481 -217792.000000 1 0 0
4.201099 -5.015599 3.275615 7.316770 -0.873541 1.106621 -0.001822 0.001096 -65517.700000 1 0 0
-2.435501 10.562401 -8.757985 13.935504 -1.344175 2.250375 0.005304 -0.001197 -1392430.000000 1 0 0
-2.349701 -4.908399 2.791215 6.115910 1.124325 1.096867 0.002866 -0.000229 -457428.000000 1 0 0
15.143499 5.168901 6.475515 17.261964 0.328928 1.186257 0.012409 -0.006392 830279.000000 1 0 0
6.778299 0.370601 0.126415 6.789600 0.054620 1.552176 0.001045 -0.001369 4009780.000000 1 0 0
-9.653001 9.138101 0.452715 13.300010 -0.758004 1.536751 -0.001340 -0.006525 -1963980.000000 1 0 0
7.302999 10.417201 -2.544185 12.974003 0.959365 1.768174 0.002415 -0.003041 -28739.200000 1 0 0
1.646599 -4.397199 -5.417785 7.169313 -1.212494 2.427505 -0.001491 -0.000001 530306.000000 1 0 0
0.918099 -8.222699 -7.802985 11.372874 -1.459603 2.326918 -0.005368 0.002008 894633.000000 1 0 0
-10.426301 0.336301 -10.464685 14.776010 -0.032244 2.357772 0.005664 -0.002960 -3604480.000000 1 0 0
5.862499 -2.444399 0.538315 6.374462 -0.395037 1.486247 0.001987 -0.002141 -282063.000000 1 0 0
-3.285601 5.285301 -1.229885 6.343674 -1.014610 1.765908 0.000399 -0.001851 624215.000000 1 0 0
-0.359101 4.613801 -5.166685 6.936191 -1.493121 2.411163 0.000855 -0.000623 -530389.000000 1 0 0
3.931899 -9.604899 9.923415 14.359251 -1.182244 0.807812 -0.007206 0.004212 -1949460.000000 1 0 0
7.253499 -13.529599 -0.898885 15.377623 -1.078671 1.629284 0.011983 -0.004740 302503.000000 1 0 0
12.977199 -0.011599 0.646615 12.993304 -0.000894 1.521011 -0.000025 -0.005459 634028.000000 1 0 0
9.304299 2.368001 -0.533485 9.615717 0.249215 1.626305 0.001301 0.000377 -819363.000000 1 0 0
-0.815101 -5.803999 4.466115 7.368648 1.431271 0.919652 0.001387 -0.000025 -858544.000000 1 0 0
11.413899 -3.807199 3.400015 12.503278 -0.321953 1.295398 0.008045 -0.004825 -1868340.000000 1 0 0
1.587299 -8.205199 11.773515 14.438160 -1.379706 0.617300 -0.007719 0.003356 266071.000000 1 0 0
9.531999 -6.106599 -5.911585 12.770920 -0.569769 2.052054 0.000478 -0.000484 -1840850.000000 1 0 0
3.211399 6.302301 -0.116385 7.074293 1.099530 1.587249 -0.004605 0.001628 -1951380.000000 1 0 0
6.346299 -1.390299 11.616615 13.309928 -0.215665 0.509931 0.002031 -0.001434 489836.000000 1 0 0
-4.839001 -7.611199 -3.928685 9.837726 1.004487 1.981603 0.010710 -0.000757 -31460.800000 1 0 0
-3.454001 -8.511199 -5.895185 10.914387 1.185284 2.141388 0.008436 0.000466 -737334.000000 1 0 0
9.716999 5.335901 2.245315 11.310762 0.502175 1.370958 0.000532 -0.002378 -316181.000000 1 0 0
8.855299 -1.518599 0.320115 8.990269 -0.169838 1.535182 0.002518 -0.001526 1457450.000000 1 0 0
-3.937601 9.693501 9.230915 13.952722 -1.184948 0.847866 -0.001489 -0.001452 62526.200000 1 0 0
-14.330101 -3.492499 -6.171085 15.988484 0.239057 1.967056 0.005368 -0.001158 -1060600.000000 1 0 0
10.640099 6.149901 -6.058285 13.701672 0.524081 2.028798 -0.003280 -0.001804 535064.000000 1 0 0
-1.765001 4.427601 2.704015 5.480016 -1.191466 1.054765 -0.004375 -0.000444 447066.000000 1 0 0
6.869299 -3.665499 2.696615 8.239835 -0.490170 1.237388 0.004204 -0.003704 -2178000.000000 1 0 0
8.351699 -11.127699 -1.684685 14.014804 -0.926955 1.691295 0.007044 -0.000375 -1522420.000000 1 0 0
4.443499 0.482601 1.782115 4.811811 0.108184 1.191397 -0.000244 -0.000957 647439.000000 1 0 0
-10.648101 2.444401 3.724815 11.542590 -0.225652 1.242214 -0.000890 -0.001816 204796.000000 1 0 0
-0.951101 -3.009699 4.320915 5.350999 1.264715 0.630900 0.001974 -0.002945 100969.000000 1 0 0
8.396699 -8.744599 -8.680885 14.910746 -0.805691 2.192216 0.007599 0.002488 -135868.000000 1 0 0
12.095399 -4.847099 1.148015 13.080940 -0.381143 1.482921 0.004462 -0.001762 30480.700000 1 0 0
3.010899 4.848201 3.512615 6.701420 1.015054 1.019068 -0.009135 0.000218 18311.600000 1 0 0
6.166699 7.456601 1.990115 9.878746 0.879800 1.367954 -0.000894 -0.001859 -755887.000000 1 0 0
-1.738001 -1.353299 -10.229985 10.464448 0.661588 2.929509 0.005094 -0.003337 1596910.000000 1 0 0
-1.045001 -8.674499 5.945715 10.568372 1.450906 0.973275 -0.001730 -0.001136 -103654.000000 1 0 0
-4.197801 -0.331699 2.452115 4.872825 0.078854 1.043473 -0.002171 -0.003431 978788.000000 1 0 0
-8.413701 6.314201 -7.861785 13.132675 -0.643800 2.212602 -0.001246 0.000797 -1545470.000000 1 0 0
6.474599 11.080401 -9.355085 15.881226 1.041979 2.200698 0.007383 -0.008241 333561.000000 1 0 0
-11.135801 -5.785599 3.113315 12.929499 0.479165 1.327615 -0.002342 0.003529 419754.000000 1 0 0
1.474099 -6.276399 3.043215 7.129328 -1.340113 1.129780 -0.000148 -0.000231 630396.000000 1 0 0
10.105299 2.282901 7.231915 12.634449 0.222182 0.961371 0.006204 -0.000936 -2394950.000000 1 0 0
-4.150501 -2.523899 -10.669185 11.722979 0.546351 2.714343 0.010095 -0.007473 -1719800.000000 1 0 0
-8.206301 11.789501 6.000215 15.567218 -0.962714 1.175113 0.003911 -0.013029 371563.000000 1 0 0
6.938799 5.911401 -2.864385 9.554909 0.705616 1.875260 0.001187 0.000798 -2203360.000000 1 0 0
3.949599 -9.929499 -2.440485 10.961307 -1.192219 1.795324 -0.003989 -0.001714 -698563.000000 1 0 0
8.365699 -12.952299 -7.333885 17.074333 -0.997319 2.014765 0.010000 -0.001691 276397.000000 1 0 0
-1.101701 9.442701 3.721415 10.209176 -1.454649 1.197683 -0.004809 0.002069 -132539.000000 1 0 0
0.515599 -13.201299 4.671615 14.012999 -1.531759 1.230913 0.003994 -0.001664 -1344240.000000 1 0 0
-11.188401 -6.977599 -5.232785 14.186234 0.557625 1.948582 0.004950 -0.001556 153792.000000 1 0 0
3.602899 10.205301 -3.376985 11.337243 1.231414 1.873253 0.004820 -0.003389 -676290.000000 1 0 0
11.573299 -8.117899 -7.368885 15.941832 -0.611687 2.051311 0.024773 -0.001318 370207.000000 1 0 0
11.697299 -4.798899 -5.843085 13.928312 -0.389317 2.003703 0.008045 -0.001351 -314329.000000 1 0 0
1.346499 -10.427399 -2.771285 10.873074 -1.442376 1.828516 -0.004209 0.001864 -953533.000000 1 0 0
2.403799 -12.112899 -3.987285 12.976865 -1.374892 1.883110 -0.003570 0.001395 -1527380.000000 1 0 0
-7.682901 -5.632799 7.225615 11.956793 0.632636 0.921896 0.001486 0.002523 -2504300.000000 1 0 0
-7.296601 -0.837799 9.538915 12.038820 0.114320 0.656151 0.000914 -0.000517 695602.000000 1 0 0
16.163199 2.612301 -7.438785 17.983566 0.160235 1.997249 -0.001413 0.003969 -525397.000000 1 0 0
-2.009701 6.382501 -5.452485 8.631617 -1.265748 2.254525 0.003915 -0.001252 -153652.000000 1 0 0
7.747599 1.126001 8.420215 11.497530 0.144325 0.749030 0.004907 -0.002379 -901418.000000 1 0 0
7.978999 8.174601 -3.707385 12.009714 0.797506 1.884621 0.000666 0.001329 -273248.000000 1 0 0
8.009799 0.608701 3.971115 8.960868 0.075849 1.111674 -0.002335 -0.002299 -423405.000000 1 0 0
-6.913201 5.914801 5.307515 10.533135 -0.707725 1.042703 0.003303 -0.006140 50292.500000 1 0 0
-6.085401 -2.090199 -4.569485 7.891846 0.330852 2.188315 0.003608 -0.003323 -1432030.000000 1 0 0
-15.176301 -2.097099 3.058815 15.622877 0.137313 1.373733 0.006093 -0.003839 -763431.000000 1 0 0
0.955999 1.263701 -10.658485 10.775629 0.923143 2.994006 0.006437 -0.006105 671421.000000 1 0 0
1.395499 -9.297099 9.384115 13.283263 -1.421808 0.786310 -0.005549 -0.000384 -387069.000000 1 0 0
-0.109801 -6.824099 -1.225885 6.934204 1.554708 1.748519 0.005193 0.002408 589641.000000 1 0 0
-0.407201 -10.263099 -8.395585 13.265854 1.531141 2.256053 -0.001677 0.000587 -361639.000000 1 0 0
-4.258601 6.416601 3.744215 8.563153 -0.984861 1.118261 0.000728 0.001362 -5811.510000 1 0 0
10.715699 -1.172399 -8.624185 13.804974 -0.108976 2.245564 0.011351 0.000507 539409.000000 1 0 0
3.094599 -0.927399 6.312115 7.090797 -0.291166 0.473047 -0.003375 -0.001073 521023.000000 1 0 0
1.880099 -12.345299 6.792315 14.215369 -1.419665 1.072631 -0.002959 -0.000051 -795142.000000 1 0 0
2.848799 -5.074199 -1.194885 5.940615 -1.059221 1.773316 0.006388 0.001558 -1724910.000000 1 0 0
-0.873001 9.463601 -1.551785 9.629637 -1.478808 1.732649 0.003638 -0.000794 187883.000000 1 0 0
4.493799 -2.558299 2.564315 5.771901 -0.517537 1.110431 0.001564 -0.001611 -1489130.000000 1 0 0
17.840999 6.566701 -2.560885 19.182829 0.352679 1.704695 0.006612 0.006254 129016.000000 1 0 0
-7.130601 3.558801 -5.415885 9.635473 -0.462918 2.167692 0.001683 -0.003357 361818.000000 1 0 0
-13.780501 -5.978999 2.303115 15.197203 0.409363 1.418662 -0.008172 0.001253 1095960.000000 1 0 0
6.680399 -6.110399 3.278815 9.628880 -0.740864 1.223328 0.002586 -0.004691 68625.700000 1 0 0
-4.500801 1.974801 3.609815 6.098181 -0.413473 0.937321 -0.001632 -0.002097 455605.000000 1 0 0
6.827099 -12.068999 -5.464985 14.904231 -1.056000 1.946227 0.002185 -0.000247 -329307.000000 1 0 0
2.895299 -12.258499 3.159515 12.985996 -1.338860 1.325028 0.001404 -0.002295 -224551.000000 1 0 0
3.334799 11.351001 -6.017685 13.273230 1.285047 2.041339 0.003301 -0.000061 -95430.500000 1 0 0
-5.548601 -8.376099 6.370515 11.896616 0.985731 1.005709 0.003138 0.000408 -383033.000000 1 0 0
-3.818201 6.542401 6.363615 9.893294 -1.042517 0.872093 0.002519 0.000886 434558.000000 1 0 0
4.263599 4.288801 -7.059785 9.295841 0.788345 2.433273 -0.000816 0.001948 -2895230.000000 1 0 0
-0.350601 -2.691399 1.632615 3.167330 1.441259 1.029258 0.002049 -0.001277 -305511.000000 1 0 0
-13.177301 -0.886999 6.530515 14.733487 0.067211 1.111583 -0.001446 -0.000131 -699468.000000 1 0 0
-0.604701 -9.270099 -5.919885 11.015691 1.505657 2.138153 -0.000820 0.002193 137579.000000 1 0 0
2.084699 -1.753999 -3.965985 4.811603 -0.699461 2.539681 -0.000492 0.000917 -1300830.000000 1 0 0
11.364799 -1.950799 1.275215 11.601312 -0.169996 1.460654 0.002571 -0.002794 -134209.000000 1 0 0
0.501599 -4.382099 -1.926085 4.812920 -1.456827 1.982521 0.003332 0.000860 -1544290.000000 1 0 0
1.189199 -7.284299 -11.339085 13.529600 -1.408969 2.564577 -0.001985 0.002256 -107830.000000 1 0 0
-4.457201 4.177701 -10.053385 11.763944 -0.753041 2.595563 0.003570 -0.002813 54180.500000 1 0 0
-0.957901 5.822201 -2.026885 6.238899 -1.407732 1.901680 0.000385 -0.000250 719550.000000 1 0 0
-11.342601 1.762801 -3.931885 12.133498 -0.154181 1.900806 0.003646 -0.003211 -319498.000000 1 0 0
-1.698101 -11.331399 4.029515 12.145828 1.422045 1.232626 0.011869 -0.002745 -836468.000000 1 0 0
-3.606301 -5.365699 -9.741985 11.691981 0.979040 2.555701 0.004939 -0.001820 -2242620.000000 1 0 0
-12.809901 -3.667699 -8.370185 15.735488 0.278857 2.131675 0.010356 -0.002381 210695.000000 1 0 0
11.440999 4.365001 0.645815 12.262413 0.364477 1.518106 0.001156 0.000817 112766.000000 1 0 0
-8.886101 -2.332199 -3.063585 9.684395 0.256666 1.892668 0.002453 -0.002111 -152320.000000 1 0 0
-2.537201 -6.071099 -6.464585 9.224234 1.174942 2.347351 0.003503 -0.002322 7979.630000 1 0 0
-0.047801 2.749701 -1.936685 3.363612 -1.553414 2.184348 -0.001334 0.000288 237508.000000 1 0 0
8.069599 5.936801 -5.122585 11.251885 0.634286 2.043466 0.000825 -0.000654 -526536.000000 1 0 0
-9.686401 -0.945299 -0.923385 9.776124 0.097282 1.665390 -0.001784 -0.002110 187735.000000 1 0 0
6.202799 0.569501 -8.859285 10.829865 0.091557 2.528795 -0.000705 0.001092 608415.000000 1 0 0
-4.143501 2.446301 7.930715 9.276272 -0.533327 0.545349 -0.002478 0.001616 -1072310.000000 1 0 0
-10.154501 -3.244999 1.372415 10.748369 0.309306 1.442761 -0.002893 -0.000742 2707760.000000 1 0 0
-1.763201 -8.103899 -7.870385 11.433504 1.356561 2.330024 0.001390 -0.001588 -1025080.000000 1 0 0
-9.452701 -9.812099 4.252315 14.272807 0.804052 1.268272 -0.002716 0.004903 -910983.000000 1 0 0
-1.108901 -10.778499 7.255615 13.040309 1.468276 0.980751 -0.001068 -0.002413 -138413.000000 1 0 0
9.574599 3.691101 -3.711985 10.912195 0.367953 1.917892 0.000118 0.002180 -905923.000000 1 0 0
12.783799 -0.686299 3.172415 13.189418 -0.053634 1.327887 0.005489 -0.005478 -1017580.000000 1 0 0
6.464399 11.756201 -6.800185 15.041251 1.068052 2.039917 0.008177 -0.002861 586221.000000 1 0 0
-11.815501 0.067301 -6.544685 13.507165 -0.005696 2.076627 0.004575 -0.000297 373049.000000 1 0 0
-7.629701 -6.630999 -11.539785 15.341093 0.715481 2.422212 0.018035 -0.005372 -982419.000000 1 0 0
4.190699 6.062901 6.636415 9.917798 0.965998 0.837743 -0.005646 0.002432 -2207780.000000 1 0 0
-4.167701 -1.445299 -7.522185 8.720200 0.333808 2.611215 0.004783 -0.008266 -539262.000000 1 0 0
9.686599 9.189801 0.873415 13.380788 0.759086 1.505476 0.005615 -0.002109 -824148.000000 1 0 0
-8.827901 4.040401 4.829015 10.843249 -0.429227 1.109234 0.002440 -0.003148 655837.000000 1 0 0
-7.036401 8.006001 -12.027785 16.070924 -0.849767 2.416471 0.002494 -0.001656 -1005030.000000 1 0 0
11.134999 -3.709799 7.175515 13.756410 -0.321600 1.022057 0.011320 -0.001236 740471.000000 1 0 0
11.840299 6.978001 6.451715 15.182549 0.532547 1.131898 -0.000156 -0.001593 -1574.160000 1 0 0
-10.145101 -0.671099 -14.735385 17.902654 0.066054 2.537616 0.010613 0.001626 507540.000000 1 0 0
1.762799 -13.173499 12.044315 17.936389 -1.437773 0.834563 -0.014699 0.010880 147826.000000 1 0 0
2.862099 3.040101 13.031215 13.683800 0.815548 0.310078 -0.003269 -0.000909 -1458090.000000 1 0 0
-2.476001 -1.388899 10.938215 11.300627 0.511207 0.253941 0.004778 -0.002952 -197786.000000 1 0 0
2.431599 -10.149399 -8.300985 13.335267 -1.335648 2.242708 -0.009147 0.003827 -1305330.000000 1 0 0
13.839599 3.486901 -7.507785 16.126370 0.246814 2.055063 -0.002770 0.000626 -2936270.000000 1 0 0
7.338899 -1.518499 5.038715 9.030721 -0.204032 0.978880 0.000166 -0.001992 400092.000000 1 0 0
-1.161301 8.785401 10.181315 13.497817 -1.439373 0.716219 -0.004904 0.000539 1459.130000 1 0 0
-12.198501 -4.593099 0.912915 13.066499 0.360111 1.500873 -0.004053 0.000444 -15246.500000 1 0 0
-4.827801 4.880101 -5.322385 8.686244 -0.790785 2.230316 0.003468 -0.002418 -57885.300000 1 0 0
-11.199001 0.417301 2.008015 11.385249 -0.037245 1.393499 -0.002834 0.000602 -2355990.000000 1 0 0
-1.244401 2.243901 -4.149785 4.878969 -1.064451 2.587818 0.000946 -0.001037 834254.000000 1 0 0
3.100599 -9.858299 13.031615 16.631980 -1.266075 0.670473 -0.008742 0.001071 -2101440.000000 1 0 0
8.976299 4.604001 -1.484085 10.196729 0.473919 1.716860 0.000951 -0.001201 -1176440.000000 1 0 0
3.994999 2.289701 3.844415 5.998523 0.520437 0.875134 -0.005694 0.001846 -1215560.000000 1 0 0
-5.455201 -3.201099 7.475815 9.792551 0.530655 0.702207 0.004232 -0.001606 68845.300000 1 0 0
1.690899 -5.854299 7.617115 9.754609 -1.289618 0.674734 -0.005348 -0.000216 -881772.000000 1 0 0
-5.888601 -6.295699 -9.779185 13.036254 0.818797 2.419090 0.014371 -0.007654 -771944.000000 1 0 0
-11.724501 -5.805099 5.535515 14.205810 0.459740 1.170528 0.004138 0.004070 -2189130.000000 1 0 0
10.527699 6.275301 4.448515 13.038448 0.537529 1.222620 0.000645 -0.001093 -576509.000000 1 0 0
1.320599 -3.723699 0.393315 3.970468 -1.229988 1.471574 0.010589 -0.000402 -669273.000000 1 0 0
8.839699 4.426001 7.017415 12.123278 0.464204 0.953493 0.002225 0.002955 16507.200000 1 0 0
-7.921601 12.018001 3.587615 14.834254 -0.988019 1.326528 0.008209 -0.007803 -564474.000000 1 0 0
-6.141801 13.113501 -6.924485 16.050985 -1.132782 2.016847 0.006569 -0.007455 640009.000000 1 0 0
4.499799 -6.962499 -0.924785 8.341452 -0.997033 1.681891 0.004173 -0.001517 -1836930.000000 1 0 0
-1.964401 -8.185199 11.041115 13.883896 1.335257 0.651383 -0.005070 0.000502 -451038.000000 1 0 0
11.497899 8.736701 -5.595885 15.486948 0.649777 1.940489 0.007046 -0.001840 366092.000000 1 0 0
-3.334501 -2.907899 -1.887585 4.810172 0.717165 1.974052 0.004628 -0.000973 -2017660.000000 1 0 0
-1.922401 5.880701 4.847415 7.859752 -1.254847 0.906203 -0.005504 0.001122 -532034.000000 1 0 0
0.437899 -11.390599 -5.577785 12.690516 -1.532371 2.025865 -0.002575 0.001918 -872261.000000 1 0 0
-8.834701 6.283001 -1.565585 10.953497 -0.618185 1.714218 0.002697 -0.002376 -739163.000000 1 0 0
2.871599 0.027701 3.932315 4.869286 0.009646 0.630767 -0.002864 -0.000263 -75090.000000 1 0 0
-10.016401 3.967501 -1.045685 10.824177 -0.377140 1.667554 0.005356 -0.003203 -220493.000000 1 0 0
6.519099 5.573101 13.586415 16.067009 0.707325 0.563090 0.011655 -0.000214 -1246390.000000 1 0 0
-8.821201 -1.702099 5.672215 10.624723 0.190613 1.007626 -0.000286 -0.000886 -35324.700000 1 0 0
12.892199 -1.905399 -1.163485 13.084076 -0.146733 1.659838 0.003628 -0.001662 -717200.000000 1 0 0
5.311799 -5.406799 5.430815 9.324293 -0.794261 0.949073 -0.001488 -0.002563 195362.000000 1 0 0
-9.020401 -1.147499 3.202915 9.640698 0.126532 1.232131 -0.004181 0.000283 664989.000000 1 0 0
2.025299 5.543601 5.663915 8.180054 1.220521 0.805978 -0.006423 0.001537 -1360710.000000 1 0 0
9.152499 3.042101 -7.349685 12.126025 0.320892 2.221955 0.000823 0.000197 -1180650.000000 1 0 0
2.284999 -2.471499 -1.506685 3.687768 -0.824588 1.991675 0.001802 0.001021 -406927.000000 1 0 0
-6.163501 0.375201 -4.053985 7.386766 -0.060800 2.151745 0.002669 -0.000180 -1540800.000000 1 0 0
-3.872901 4.178601 5.096815 7.644448 -0.823348 0.840978 -0.000914 0.000517 762503.000000 1 0 0
-6.462101 1.875201 -12.382985 14.093028 -0.282427 2.643845 0.004335 -0.001928 -3855250.000000 1 0 0
0.008999 3.267901 6.241015 7.044822 1.568043 0.482364 -0.005261 -0.001103 741543.000000 1 0 0
-8.737801 9.523801 -2.053785 13.087016 -0.828413 1.728381 -0.000168 0.000408 -3597.900000 1 0 0
-1.232901 -3.812299 -6.108285 7.305123 1.258011 2.561049 -0.003318 -0.001021 -138088.000000 1 0 0
-3.150501 7.205401 -2.985385 8.411657 -1.158603 1.933615 0.003616 -0.000637 978629.000000 1 0 0
7.019799 -0.582299 -4.432585 8.322527 -0.082762 2.132467 0.000771 0.001191 -439425.000000 1 0 0
-5.203201 -10.812899 6.868015 13.826124 1.122299 1.050956 -0.000643 -0.003133 790997.000000 1 0 0
9.814199 8.393101 -1.429685 12.992561 0.707505 1.681058 0.000802 0.000154 296242.000000 1 0 0
13.739299 4.623901 -4.245385 15.105366 0.324639 1.855686 -0.001272 0.002055 559356.000000 1 0 0
4.672299 1.108201 -6.883085 8.392577 0.232882 2.532451 -0.002377 0.001067 153455.000000 1 0 0
8.915699 -4.757799 3.600615 10.728037 -0.490198 1.228526 0.005373 -0.005606 -1077240.000000 1 0 0
-8.711401 -3.175599 -0.774985 9.304490 0.349563 1.654184 -0.002079 -0.000090 -94907.600000 1 0 0
-8.542401 -4.186599 -10.471085 14.147221 0.455693 2.404092 0.012364 -0.006080 67389.800000 1 0 0
10.507099 -1.113199 10.713015 15.046828 -0.105554 0.778485 0.014376 -0.001587 1443160.000000 1 0 0
2.253199 -11.661199 9.996215 15.523685 -1.379927 0.871168 -0.011654 0.002132 280505.000000 1 0 0
-6.429501 -10.534499 1.977015 12.498910 1.022817 1.411954 0.005576 0.003969 -718376.000000 1 0 0
-3.627201 -1.464899 6.583915 7.658358 0.383834 0.536108 0.003945 -0.003175 -1952060.000000 1 0 0
4.643599 -7.507299 3.939515 9.666557 -1.016853 1.151037 -0.003012 0.001473 202183.000000 1 0 0
11.471099 -9.553599 -5.262585 15.828840 -0.694448 1.909716 0.013098 -0.003373 357439.000000 1 0 0
11.417499 1.123501 11.548415 16.278434 0.098086 0.782107 0.022786 0.002425 477343.000000 1 0 0
-10.185501 -3.530099 4.256515 11.589821 0.333626 1.194731 0.004414 -0.000341 1533670.000000 1 0 0
2.065399 8.783401 8.976815 12.727812 1.339844 0.787962 -0.005819 0.004524 -37099.400000 1 0 0
6.547399 8.830301 4.121315 11.740012 0.932777 1.212106 0.000998 0.000444 201709.000000 1 0 0
-4.233201 3.580501 0.330615 5.554213 -0.702059 1.511236 0.000576 -0.003002 -283189.000000 1 0 0
4.895899 6.996401 4.297415 9.559667 0.960222 1.104550 -0.002756 0.000215 -1178450.000000 1 0 0
-8.283401 13.087601 1.180715 15.533644 -1.006522 1.494713 0.005341 -0.004447 91080.500000 1 0 0
8.868499 8.002301 -9.074485 15.001112 0.734100 2.220463 -0.001120 -0.005029 -724842.000000 1 0 0
7.141199 1.966801 6.078515 9.581929 0.268753 0.883600 -0.002701 0.000876 -831240.000000 1 0 0
11.536599 -6.263599 3.164315 13.503284 -0.497401 1.334260 0.009178 -0.002457 95274.300000 1 0 0
11.484499 4.618301 -2.068285 12.549909 0.382344 1.736356 0.001839 0.000889 -773374.000000 1 0 0
-3.945801 14.390901 -5.912785 16.050807 -1.303186 1.948061 0.006559 -0.000944 1124410.000000 1 0 0
7.110199 -3.025399 6.931515 10.380456 -0.402295 0.839619 0.002987 -0.003388 -1664600.000000 1 0 0
-7.899601 -0.285399 0.916315 7.957687 0.036113 1.455392 0.000725 -0.000868 176763.000000 1 0 0
-3.259801 1.025801 10.741815 11.272318 -0.304872 0.308014 0.002057 -0.000776 -569894.000000 1 0 0
7.120299 -1.254799 -1.915985 7.479584 -0.174437 1.829846 0.004085 -0.001757 -1801950.000000 1 0 0
-7.740601 5.340501 2.919015 9.846751 -0.603938 1.269829 0.003737 -0.002339 911707.000000 1 0 0
9.418399 -2.235499 2.895715 10.103903 -0.233042 1.280127 0.001654 -0.004154 -1367160.000000 1 0 0
0.288299 3.362101 1.548615 3.712822 1.485256 1.140545 -0.005612 0.001199 -3041920.000000 1 0 0
-7.589701 -3.139299 3.954015 9.115536 0.392198 1.122127 -0.001263 -0.000519 -2058470.000000 1 0 0
-2.231401 8.487501 -6.784985 11.092919 -1.313710 2.228941 0.001359 -0.001068 -654567.000000 1 0 0
4.479499 9.786301 7.281115 12.994315 1.141531 0.976011 -0.001391 0.008865 526424.000000 1 0 0
-11.875701 -3.128999 6.895515 14.084425 0.257624 1.059183 0.003923 -0.000012 21863.500000 1 0 0
-4.756801 2.317101 -5.690685 7.770457 -0.453285 2.392561 0.004229 -0.004929 -656281.000000 1 0 0
-2.714101 2.886801 -2.007785 4.441977 -0.816223 2.039805 -0.001316 0.001001 259502.000000 1 0 0
2.241299 5.265001 11.506815 12.851087 1.168335 0.461476 0.001745 -0.003761 102207.000000 1 0 0
-0.560901 1.666201 4.588915 4.914161 -1.246078 0.365865 -0.003223 -0.001280 -1731360.000000 1 0 0
5.182299 1.686101 7.773715 9.493672 0.314555 0.611424 -0.001011 0.001948 377587.000000 1 0 0
3.332499 -8.202199 1.989115 9.074040 -1.184876 1.349792 0.000904 0.000016 1266010.000000 1 0 0
5.175499 6.429401 -4.657985 9.477331 0.893030 2.084593 0.001835 -0.000272 -2441750.000000 1 0 0
-4.048401 2.861901 -8.041085 9.446644 -0.615356 2.589084 0.005174 -0.005388 -531495.000000 1 0 0
-8.860001 -2.088899 -12.916085 15.801531 0.231539 2.527670 0.009490 -0.002176 -4480.650000 1 0 0
-7.728101 8.173301 1.376415 11.332295 -0.813388 1.449036 0.002604 -0.001677 -2791860.000000 1 0 0
7.432299 0.824501 -6.509485 9.914246 0.110483 2.287070 -0.000241 0.001028 1183480.000000 1 0 0
8.939499 8.954101 5.493815 13.793932 0.786214 1.161158 0.004076 0.000533 347380.000000 1 0 0
9.396399 -1.147499 -1.395085 9.568455 -0.121519 1.717118 0.002752 -0.002030 1659810.000000 1 0 0
5.403499 0.192001 4.276415 6.893649 0.035518 0.901619 -0.005058 0.000360 -532340.000000 1 0 0
-4.164301 -7.278999 -8.052585 11.626236 1.051146 2.335914 0.012979 -0.007012 -1214160.000000 1 0 0
-2.260001 7.438901 -0.484385 7.789703 -1.275849 1.633019 -0.000401 0.000361 144919.000000 1 0 0
13.313099 -3.362899 -7.382585 15.590069 -0.247425 2.064107 0.014771 0.001967 1215970.000000 1 0 0
-4.812101 -5.086799 1.647915 7.193571 0.813141 1.339662 0.002874 -0.000740 1214450.000000 1 0 0
-8.786401 1.420701 2.503815 9.245989 -0.160306 1.296572 -0.001430 -0.001162 -635294.000000 1 0 0
-1.173601 11.264301 10.181715 15.229220 -1.466983 0.838520 -0.008704 -0.000831 180218.000000 1 0 0
-8.464601 0.258101 7.429315 11.265470 -0.030482 0.850674 0.001987 -0.000933 -1173320.000000 1 0 0
-6.063001 13.006901 -2.038485 14.494650 -1.134604 1.711901 -0.000168 0.000347 651963.000000 1 0 0
-13.105401 -0.732599 3.249415 13.522091 0.055842 1.328117 -0.000252 -0.002920 578909.000000 1 0 0
-6.605701 12.688101 8.720915 16.753434 -1.090788 1.023307 0.001373 -0.015407 143139.000000 1 0 0
-8.144801 0.981001 -14.043385 16.263973 -0.119868 2.612897 0.003483 -0.001183 593043.000000 1 0 0
7.330399 2.846101 3.804415 8.735480 0.370345 1.120188 -0.003368 0.001088 -788562.000000 1 0 0
-1.632701 0.659401 -2.059385 2.709537 -0.383839 2.434187 -0.000276 -0.000363 875057.000000 1 0 0
-6.172801 9.721601 -10.355185 15.486861 -1.005069 2.303179 0.002473 0.001579 -137773.000000 1 0 0
-9.986501 13.697601 5.446615 17.805058 -0.940826 1.259910 0.004186 -0.017343 228346.000000 1 0 0
-5.581501 8.247201 2.394515 10.242225 -0.975828 1.334824 0.001389 -0.000883 -1711080.000000 1 0 0
-2.444701 -10.684499 -1.325185 11.040435 1.345860 1.691117 0.008526 0.003126 338664.000000 1 0 0
-2.286001 -12.395099 8.737215 15.336336 1.388418 0.964647 -0.006156 0.004178 302590.000000 1 0 0
-14.624601 -6.391599 -1.795485 16.060986 0.412028 1.682822 0.001894 0.003358 237564.000000 1 0 0
-2.790601 -9.422399 3.280015 10.359901 1.282860 1.248646 0.006192 -0.000874 727052.000000 1 0 0
4.694599 -2.649099 7.461715 9.205117 -0.513746 0.625612 -0.003997 0.001207 -1124740.000000 1 0 0
-15.016301 -1.249599 -0.271985 15.070659 0.083025 1.588845 -0.000479 -0.005553 95815.700000 1 0 0
5.490899 8.689501 -2.783985 10.649318 1.007250 1.835293 0.001453 0.000343 -703156.000000 1 0 0
-5.677501 -5.682099 8.505315 11.698746 0.785803 0.756813 0.003096 -0.000570 -4670180.000000 1 0 0
3.500299 3.624601 6.981815 8.610201 0.802842 0.625147 -0.006205 0.000663 540370.000000 1 0 0
3.370599 2.445501 9.360315 10.244848 0.627661 0.418596 -0.000095 -0.003416 1355820.000000 1 0 0
9.825699 -3.176999 5.204915 11.564118 -0.312726 1.103928 0.009462 -0.003818 -870110.000000 1 0 0
6.628099 9.914501 -4.929785 12.904720 0.981508 1.962771 0.005676 -0.001544 265611.000000 1 0 0
-4.510401 12.059401 -8.535585 15.447624 -1.212889 2.156217 0.006226 -0.000582 -399813.000000 1 0 0
-3.393601 -7.215399 2.143315 8.256653 1.131167 1.308202 0.006195 -0.001329 775448.000000 1 0 0
-7.436201 -3.920599 1.043715 8.470981 0.485195 1.447272 -0.000711 0.000418 1283910.000000 1 0 0
-2.053301 -3.995699 -10.945985 11.832001 1.096108 2.752140 0.007138 -0.004356 -944007.000000 1 0 0
-5.123301 8.280801 -4.459785 10.710255 -1.016743 2.000282 0.002639 -0.002159 -2166530.000000 1 0 0
-10.940301 -3.193199 -10.134285 15.250916 0.283986 2.297625 0.010455 -0.003440 -1909340.000000 1 0 0
4.548399 -11.441499 -7.757085 14.552258 -1.192417 2.132998 -0.008747 0.000560 -693850.000000 1 0 0
-9.462701 -3.968199 7.214315 12.543351 0.397077 0.958008 0.001202 0.001703 -1255980.000000 1 0 0
-5.769801 -9.677299 -5.305485 12.453469 1.033161 2.010891 0.010596 -0.005237 923058.000000 1 0 0
4.667999 4.464101 -9.628785 11.594478 0.763074 2.550735 0.000240 0.002573 141248.000000 1 0 0
-3.396401 -7.099999 -14.195885 16.231718 1.124605 2.635359 0.005257 -0.000904 1349.750000 1 0 0
0.687899 -0.981999 -8.843285 8.924193 -0.959729 3.006835 0.002098 -0.004923 264757.000000 1 0 0
-7.682601 2.182801 -2.971385 8.521508 -0.276828 1.926972 0.002057 -0.002165 -501197.000000 1 0 0
-2.296201 7.534901 -12.540285 14.808984 -1.274995 2.580741 0.002135 -0.000175 -352679.000000 1 0 0
-9.798901 8.970301 7.624115 15.317045 -0.741280 1.049790 0.002474 -0.014399 -499239.000000 1 0 0
-10.947401 -3.064199 -14.175985 18.171226 0.272918 2.465676 0.011264 -0.001245 212971.000000 1 0 0
-3.142701 4.815301 7.936215 9.800367 -0.992561 0.627006 -0.001411 0.000062 -876025.000000 1 0 0
8.694099 -2.513299 -3.555685 9.723525 -0.281410 1.945158 0.001810 0.001863 -4091720.000000 1 0 0
2.012999 -8.544999 -1.146685 8.853478 -1.339438 1.700679 -0.000012 0.002596 266945.000000 1 0 0
-13.592801 -2.852099 5.010915 14.765093 0.206824 1.224543 0.003904 -0.002543 206214.000000 1 0 0
7.147499 2.612201 -1.986085 7.864787 0.350390 1.826089 -0.000842 -0.000661 1331920.000000 1 0 0
-11.049101 4.435801 8.929015 14.882415 -0.381767 0.927332 0.006395 -0.007125 -2532460.000000 1 0 0
-1.735001 -2.550999 7.968315 8.544698 0.973534 0.369398 0.001928 -0.002942 -949132.000000 1 0 0
3.114199 11.950301 -9.827085 15.782254 1.315870 2.242943 0.005231 -0.007896 616476.000000 1 0 0
3.724499 -5.055899 -7.093585 9.473804 -0.935885 2.416982 -0.003540 -0.000800 424633.000000 1 0 0
8.408699 -13.789799 -9.714885 18.847912 -1.023219 2.112312 0.014087 0.004570 -170519.000000 1 0 0
-6.386901 -5.718499 -0.406185 8.582466 0.730239 1.618141 0.002740 0.000406 -625179.000000 1 0 0
-1.108201 -4.078299 9.857515 10.725261 1.305472 0.405023 -0.001259 -0.001843 2153400.000000 1 0 0
2.762299 3.295001 1.854115 4.682421 0.873116 1.163669 -0.007669 0.001383 -966361.000000 1 0 0
-9.029101 13.283501 7.832015 17.869430 -0.973809 1.117100 0.005072 -0.025510 -1116940.000000 1 0 0
4.173199 -11.152499 -0.135285 11.908490 -1.212732 1.582157 -0.002508 -0.002118 -480734.000000 1 0 0
-12.546101 -1.309099 -9.173685 15.597272 0.103967 2.199578 0.007292 -0.000879 -155133.000000 1 0 0
-4.267101 1.090401 -13.617085 14.311608 -0.250183 2.828779 0.007922 -0.003116 389407.000000 1 0 0
3.961999 -2.968399 4.904315 6.968582 -0.643000 0.790099 -0.002291 -0.000449 -126407.000000 1 0 0
1.756099 -1.212799 1.026115 2.368054 -0.604404 1.122628 -0.000811 0.000180 599596.000000 1 0 0
8.057699 -8.996299 7.392915 14.160336 -0.840380 1.021501 0.011164 -0.003471 -689309.000000 1 0 0
-0.064701 2.386001 -6.416485 6.846055 -1.543686 2.785462 0.001173 -0.002786 -1723190.000000 1 0 0
-3.801501 -9.803799 -3.548685 11.097705 1.200888 1.896280 0.010339 0.000703 595248.000000 1 0 0
-9.455601 2.279001 -5.511785 11.179535 -0.236510 2.086359 0.001249 -0.002796 -887759.000000 1 0 0
8.953199 -7.691999 5.382815 12.973100 -0.709773 1.142940 0.007170 -0.003160 1470700.000000 1 0 0
-5.580901 -4.300799 4.712215 8.476338 0.656573 0.981320 0.000455 -0.000867 -1155880.000000 1 0 0
-0.144001 -12.488099 10.308815 16.193981 1.559266 0.880737 -0.008455 0.005801 288605.000000 1 0 0
-14.160901 -8.314899 3.186215 16.727840 0.530935 1.379152 -0.008146 0.001499 -1251700.000000 1 0 0
10.873199 -1.335199 -3.568485 11.521428 -0.122186 1.885701 0.008007 0.001130 -36622.800000 1 0 0
-13.566401 3.064501 2.770815 14.181531 -0.222160 1.374149 -0.002507 -0.001196 -1010690.000000 1 0 0
-6.228301 6.168001 0.977015 8.819894 -0.780534 1.459795 0.003327 -0.001365 812564.000000 1 0 0
7.069699 -6.819799 -0.455485 9.833503 -0.767408 1.617133 -0.000612 -0.001195 -557576.000000 1 0 0
-7.002901 7.813701 9.967715 14.472383 -0.840066 0.811046 0.004697 -0.007947 500352.000000 1 0 0
-12.556801 -5.043099 -1.946885 13.671008 0.381905 1.713692 -0.005333 0.000827 -2471180.000000 1 0 0
-9.383401 -5.542899 0.125515 10.898977 0.533563 1.559280 -0.000521 0.001917 -1337270.000000 1 0 0
-1.723201 1.799001 2.258215 3.362344 -0.806915 0.834404 -0.002521 -0.000086 -284714.000000 1 0 0
-6.920101 7.401201 7.491115 12.600888 -0.818979 0.934164 0.000066 -0.006816 -215701.000000 1 0 0
5.615699 7.165201 -0.380785 9.111596 0.906045 1.612600 0.000179 -0.000363 -1806780.000000 1 0 0
0.036099 -3.998099 7.457615 8.461804 -1.561768 0.492133 0.000460 -0.001468 -1557690.000000 1 0 0
6.391099 0.727501 13.128015 14.619172 0.113342 0.455594 0.003223 -0.002352 710237.000000 1 0 0
5.768099 6.037301 -7.922185 11.510038 0.808197 2.329918 -0.002319 0.000531 -1105390.000000 1 0 0
10.016199 5.423301 9.078015 14.565260 0.496258 0.897886 0.008449 -0.002139 -2194310.000000 1 0 0
-1.235401 -5.069799 -8.574785 10.037730 1.331776 2.594913 0.004306 -0.003044 599249.000000 1 0 0
9.947699 -3.573199 -8.007485 13.260629 -0.344846 2.219124 0.007004 -0.002020 532383.000000 1 0 0
8.365099 -5.491699 1.276015 10.087708 -0.580932 1.443965 0.005536 -0.002317 1266490.000000 1 0 0
15.839299 3.161201 -4.896085 16.877448 0.196991 1.865124 0.005392 0.004546 111262.000000 1 0 0
-6.869501 3.584301 1.013615 7.814389 -0.480912 1.440718 0.003436 -0.003553 309940.000000 1 0 0
-1.763001 3.691901 0.323715 4.104034 -1.125284 1.491837 -0.003660 -0.003020 -1031370.000000 1 0 0
-2.575701 10.066501 6.952715 12.502356 -1.320302 0.981096 -0.003952 0.002994 254694.000000 1 0 0
5.449299 -5.791599 -8.771685 11.839761 -0.815840 2.405156 -0.001706 0.000625 -401826.000000 1 0 0
-1.217501 -0.930599 6.260115 6.444948 0.652623 0.240071 0.000192 -0.003595 -30079.900000 1 0 0
-5.640301 4.989401 -7.770185 10.820485 -0.724240 2.371864 0.001819 -0.002231 161097.000000 1 0 0
6.691599 -1.182899 2.580015 7.268647 -0.174966 1.207934 -0.001163 -0.000827 -1287490.000000 1 0 0
8.755799 7.516201 3.195215 11.973583 0.709365 1.300668 0.003074 -0.001232 -447316.000000 1 0 0
-5.206001 -4.855499 -7.731885 10.510013 0.750576 2.397449 0.010044 -0.006664 191971.000000 1 0 0
-2.289701 7.806701 -9.982485 12.877784 -1.285498 2.457782 0.002352 0.000166 609119.000000 1 0 0
-2.853601 -2.240499 1.671115 3.994434 0.665619 1.139156 -0.002634 0.001906 1036440.000000 1 0 0
5.962199 -2.078799 -9.208385 11.165285 -0.335483 2.540527 -0.000984 0.002277 925035.000000 1 0 0
1.076299 -7.535799 5.225015 9.232956 -1.428931 0.969261 -0.002340 0.000632 276886.000000 1 0 0
1.866299 11.997501 1.270715 12.208104 1.416476 1.466520 0.000557 -0.006073 -327376.000000 1 0 0
-0.979901 6.927101 2.606615 7.465880 -1.430270 1.214146 -0.003699 0.001836 551560.000000 1 0 0
8.638899 7.796301 -6.451185 13.305287 0.734175 2.076998 -0.000233 -0.003343 -316.851000 1 0 0
3.674299 -11.275299 5.432415 13.043925 -1.255776 1.141236 0.002064 -0.000951 396113.000000 1 0 0
7.826099 -7.061999 12.346315 16.234259 -0.734120 0.706698 0.000029 -0.001124 281909.000000 1 0 0
-8.621101 0.022201 -4.023485 9.513796 -0.002575 2.007451 0.004219 -0.003323 -1439870.000000 1 0 0
-3.322601 -5.026899 11.139015 12.664401 0.986752 0.495874 0.003403 -0.001470 413538.000000 1 0 0
-8.145301 0.178301 -11.512085 14.103398 -0.021887 2.525709 0.005629 -0.002946 -1817020.000000 1 0 0
1.354699 -4.943999 5.261615 7.345946 -1.303352 0.772367 -0.002018 -0.001067 -1080970.000000 1 0 0
6.627499 3.658101 -7.832785 10.893024 0.504345 2.373251 -0.001287 0.002879 -1651760.000000 1 0 0
16.308499 4.142101 -1.282485 16.875097 0.248725 1.646868 0.000361 0.004863 -786372.000000 1 0 0
7.884799 7.481001 0.102015 10.869491 0.759125 1.561411 0.001884 -0.003132 -1802720.000000 1 0 0
5.373499 -10.427299 13.845215 18.146433 -1.094960 0.702899 -0.008978 0.000570 -255758.000000 1 0 0
-5.170701 -9.301699 8.963015 13.913784 1.063444 0.870842 -0.000501 -0.004592 379089.000000 1 0 0
-12.604901 -3.099599 2.806815 13.280409 0.241120 1.357840 -0.001113 -0.000765 -666845.000000 1 0 0
-2.124901 -1.350099 -5.933985 6.445941 0.566022 2.740352 0.001781 -0.004461 -2817450.000000 1 0 0
-2.519101 12.984601 -4.238785 13.889313 -1.379170 1.880927 0.006844 -0.000736 539014.000000 1 0 0
3.856899 -0.403599 -4.970585 6.304386 -0.104264 2.479054 0.002206 0.001219 -335409.000000 1 0 0
-8.906101 3.913601 -7.375785 12.208076 -0.414029 2.219523 -0.000072 -0.002079 784318.000000 1 0 0
-4.528501 8.039201 -11.316085 14.601022 -1.057798 2.457543 0.004666 -0.000773 -160803.000000 1 0 0
-10.211901 -6.388399 7.442415 14.159241 0.559019 1.017350 0.001075 0.004895 -702478.000000 1 0 0
8.133999 5.260901 4.212115 10.563187 0.574108 1.160638 -0.002049 -0.000547 -2081380.000000 1 0 0
-6.710201 -7.471399 4.049115 10.827924 0.839022 1.187531 0.004223 0.000641 -991045.000000 1 0 0
-4.017001 11.876601 8.101715 14.927415 -1.244647 0.997100 -0.003257 -0.002340 -641139.000000 1 0 0
-7.159001 10.085001 -7.928985 14.691063 -0.953479 2.140895 0.000712 -0.002016 -1609640.000000 1 0 0
13.133999 5.560301 4.645515 14.999989 0.400474 1.255918 -0.001418 -0.002520 1568940.000000 1 0 0
5.383899 3.904201 -3.668385 7.595143 0.627415 2.074864 -0.001038 0.001950 484584.000000 1 0 0
-2.898501 -4.205599 5.124115 7.234979 0.967355 0.783792 0.003174 -0.000975 -1752130.000000 1 0 0
12.351499 -2.417699 -5.227885 13.628484 -0.193297 1.964488 0.006150 0.000316 -1974670.000000 1 0 0
-5.265601 9.738901 6.990215 13.093351 -1.075139 1.007619 -0.000988 -0.001632 1148110.000000 1 0 0
1.787499 3.741801 -0.429985 4.169066 1.125138 1.674117 -0.005729 0.000399 350040.000000 1 0 0
-0.089201 9.649301 7.773015 12.390994 -1.561552 0.892700 -0.005560 0.003712 -748748.000000 1 0 0
-5.509401 2.142801 5.927115 8.371128 -0.370932 0.784074 -0.000203 -0.002051 775698.000000 1 0 0
8.882799 0.896001 10.774115 13.992444 0.100529 0.691963 0.011926 0.000745 -1064910.000000 1 0 0
0.361699 -2.933499 -10.248385 10.666098 -1.448116 2.860805 0.002076 -0.002872 -2055220.000000 1 0 0
1.319799 10.712001 -2.711085 11.128289 1.448207 1.816894 0.003556 -0.002065 -1408330.000000 1 0 0
2.270399 -4.253099 11.590615 12.553323 -1.080458 0.394183 -0.004919 -0.002972 -328499.000000 1 0 0
6.531899 -2.967799 9.417215 11.838812 -0.426469 0.651042 -0.001555 -0.002084 315972.000000 1 0 0
-10.619101 -8.194999 5.648315 14.554270 0.657259 1.172242 -0.001284 0.006811 -886376.000000 1 0 0
-2.955301 0.859701 -6.911885 7.566178 -0.283089 2.722661 0.005953 -0.005646 503774.000000 1 0 0
11.032599 2.541901 -4.973385 12.365843 0.226447 1.984701 0.002655 0.000831 -3105220.000000 1 0 0
-2.090901 -4.040399 0.098515 4.550428 1.093248 1.549145 -0.000691 0.000046 1261550.000000 1 0 0
-1.348801 -6.434199 -10.706185 12.563462 1.364159 2.590912 0.001906 -0.001833 1000820.000000 1 0 0
0.353499 6.780801 -6.626485 9.487599 1.518711 2.344007 0.002713 0.001137 -2956160.000000 1 0 0
2.081999 3.770101 -6.157485 7.514187 1.066235 2.531244 -0.001334 0.001538 -1583350.000000 1 0 0
1.624999 -14.729399 6.397615 16.140796 -1.460917 1.163244 -0.001455 -0.003399 -248534.000000 1 0 0
-1.672001 5.409101 -10.540385 11.964685 -1.271004 2.648679 0.003794 -0.001359 -685072.000000 1 0 0
13.653899 4.355001 -0.708085 14.349090 0.308756 1.620163 0.000637 0.000446 -510786.000000 1 0 0
-2.415001 3.324501 -6.140185 7.388262 -0.942555 2.551831 0.002323 -0.003054 -2008430.000000 1 0 0
5.672599 7.880601 14.122815 17.138732 0.946893 0.602310 0.010009 -0.001537 913022.000000 1 0 0
15.901299 0.584101 -5.612585 16.872866 0.036716 1.909898 0.002715 0.001482 247641.000000 1 0 0
6.142799 -8.224899 10.435115 14.638120 -0.929312 0.777210 -0.007715 0.002233 -178759.000000 1 0 0
0.053799 -5.989599 -6.463885 8.812491 -1.561814 2.394241 -0.002366 0.000167 -1325460.000000 1 0 0
8.506699 5.479001 -7.517685 12.605513 0.572203 2.209781 0.000874 0.000824 -921124.000000 1 0 0
-16.040401 -0.805399 5.380715 16.937982 0.050169 1.247524 0.008249 -0.005743 -301314.000000 1 0 0
-0.260101 4.142501 -12.290185 12.972148 -1.508090 2.815898 0.005049 -0.004780 893871.000000 1 0 0
-11.222101 3.822501 5.862515 13.225587 -0.328296 1.111552 0.003941 -0.004805 -369940.000000 1 0 0
5.096699 -9.764899 -9.774985 14.726844 -1.089751 2.296622 -0.010836 0.003045 451427.000000 1 0 0
1.504299 11.162701 -11.657385 16.209979 1.436842 2.373373 0.002440 -0.000610 -3473160.000000 1 0 0
5.935599 2.342801 1.257415 6.503933 0.375932 1.376240 -0.001039 -0.000613 -178325.000000 1 0 0
5.845799 4.613001 5.051415 8.998330 0.668068 0.974753 -0.004647 0.001003 -824987.000000 1 0 0
0.355999 -1.607199 -6.350185 6.560082 -1.352813 2.887947 0.000258 -0.001889 359928.000000 1 0 0
12.664299 6.733001 -4.531685 15.041740 0.488647 1.876825 -0.001105 0.000963 -483673.000000 1 0 0
7.473099 3.223701 12.771415 15.144256 0.407257 0.567370 0.007628 0.001245 -250037.000000 1 0 0
-2.490901 -0.190799 8.612515 8.967519 0.076449 0.282318 0.000273 -0.002468 611675.000000 1 0 0
2.121499 -15.444699 13.321815 20.506346 -1.434290 0.863681 -0.018058 0.014678 -509544.000000 1 0 0
18.845699 4.393801 -1.679585 19.423874 0.229054 1.657375 0.002557 0.006088 472687.000000 1 0 0
-0.417701 -13.249799 7.097715 15.036928 1.539282 1.079217 -0.007169 0.001516 -2405280.000000 1 0 0
4.334399 1.682801 -0.568285 4.684206 0.370330 1.692415 0.000270 -0.001380 738749.000000 1 0 0
2.767499 -0.603399 -7.360785 7.886970 -0.214671 2.774248 -0.001667 -0.000307 395715.000000 1 0 0
7.120499 -11.305899 0.790615 13.384690 -1.008750 1.511693 0.002637 -0.000911 44864.200000 1 0 0
-11.754101 -7.257999 1.192215 13.865743 0.553178 1.484707 -0.004156 0.004515 372671.000000 1 0 0
0.130799 -7.068599 10.041215 12.280399 -1.552294 0.613458 -0.004895 0.000546 -1363790.000000 1 0 0
-4.688401 -7.153299 10.609015 13.627252 0.990622 0.678501 0.004037 0.000255 -1162540.000000 1 0 0
11.853499 0.681801 -1.589685 11.979040 0.057456 1.703895 0.000536 0.000732 728771.000000 1 0 0
6.400799 -9.709999 -7.459285 13.816485 -0.987983 2.141094 -0.006820 0.001474 -682427.000000 1 0 0
-10.923301 4.882201 3.471715 12.458218 -0.420317 1.288389 -0.002478 -0.005082 212376.000000 1 0 0
5.971799 -9.144899 2.110915 11.124187 -0.992301 1.379880 0.000598 -0.002569 4059140.000000 1 0 0
11.571899 -1.352899 5.961315 13.087263 -0.116384 1.097857 0.012671 -0.006800 -644305.000000 1 0 0
-6.288701 3.685601 4.041215 8.334436 -0.530112 1.064569 0.001486 -0.001287 -1247450.000000 1 0 0
9.581899 6.277701 -3.131085 11.875437 0.579996 1.837611 -0.001304 -0.000128 11555.200000 1 0 0
-2.314101 6.538101 10.888415 12.909663 -1.230615 0.567158 -0.004344 -0.001154 90915.900000 1 0 0
1.913399 9.749401 2.857315 10.338093 1.377001 1.290764 -0.006123 0.000375 -5.020660 1 0 0
2.937399 6.098301 -5.666985 8.827928 1.121916 2.267820 -0.001765 0.002462 -1765280.000000 1 0 0
11.897599 -0.001599 -5.645685 13.169154 -0.000134 2.013855 0.006854 0.001602 394998.000000 1 0 0
-2.694501 -12.458999 6.134315 14.146265 1.357807 1.122274 0.000760 -0.000039 308430.000000 1 0 0
10.823799 1.687801 -2.694285 11.281067 0.154688 1.811960 0.003919 0.000763 -211072.000000 1 0 0
-8.761901 5.328201 0.759515 10.282874 -0.546362 1.496867 0.001983 -0.002608 -1078050.000000 1 0 0
1.180099 -10.197899 5.577015 11.683017 -1.455589 1.073148 -0.002682 -0.000524 -93601.400000 1 0 0
9.376399 -5.735599 -1.150885 11.051629 -0.548982 1.675123 0.004107 -0.000811 -1074780.000000 1 0 0
-7.706701 8.695101 -4.391185 12.420971 -0.845587 1.932138 -0.004081 -0.001984 -29461.800000 1 0 0
-7.397901 0.081301 -1.673685 7.585300 -0.010989 1.793276 -0.000465 -0.002335 -1709380.000000 1 0 0
4.152399 8.753901 2.634915 10.040716 1.127880 1.305264 -0.001876 -0.003677 643931.000000 1 0 0
-1.386001 -10.599399 -3.745185 11.326724 1.440772 1.907789 0.006159 0.001646 -1443390.000000 1 0 0
3.275899 7.722901 -3.653485 9.150009 1.169621 1.981536 0.002962 -0.001636 -527990.000000 1 0 0
-4.286101 1.731501 -11.142185 12.063045 -0.383933 2.748328 0.006387 -0.004413 -329790.000000 1 0 0
1.293999 2.793601 11.049515 11.470415 1.137019 0.271739 -0.000205 -0.002394 125025.000000 1 0 0
2.128199 5.561101 -8.053585 10.015753 1.205297 2.504943 -0.000488 0.001892 -552007.000000 1 0 0
15.651999 6.084001 4.093715 17.284636 0.370731 1.331683 0.009622 -0.004188 510702.000000 1 0 0
-4.442601 8.955701 4.593415 11.001852 -1.110302 1.140090 0.001012 0.002020 -121439.000000 1 0 0
-0.803701 -8.224399 -12.480385 14.968189 1.473384 2.556741 0.002608 -0.000392 469859.000000 1 0 0
14.282199 -4.188699 -5.193085 15.763710 -0.285281 1.906499 0.010021 0.001655 -247088.000000 1 0 0
-5.936801 -6.180099 -5.650385 10.264798 0.805475 2.153714 0.009825 -0.003815 363934.000000 1 0 0
-8.930901 2.613701 -12.165485 15.316379 -0.284708 2.488617 0.001810 -0.004115 -1444570.000000 1 0 0
10.599299 5.473801 13.765915 18.215599 0.476705 0.714042 0.024906 0.000998 771031.000000 1 0 0
-0.360501 10.934601 5.583015 12.282732 -1.537839 1.098939 -0.004625 0.005846 612342.000000 1 0 0
0.489199 11.223501 -0.503585 11.245438 1.527237 1.615593 0.003701 -0.002036 58113.900000 1 0 0
-1.524601 -0.549799 3.774815 4.108030 0.346103 0.405547 -0.000229 -0.001250 555214.000000 1 0 0
-4.771701 6.759901 8.858315 12.121680 -0.956133 0.751328 -0.001185 -0.002002 -1552460.000000 1 0 0
3.414099 -8.760299 -11.416285 14.789540 -1.199180 2.452646 -0.007916 0.002953 762790.000000 1 0 0
6.684999 -3.838699 11.991115 14.255233 -0.521252 0.571348 0.003525 -0.004298 -292830.000000 1 0 0
-2.542701 -1.835699 -12.488985 12.876718 0.625305 2.895570 0.006098 -0.007128 698283.000000 1 0 0
-16.040401 -4.871899 5.235315 17.562414 0.294872 1.268097 0.005581 -0.004840 1784480.000000 1 0 0
-8.898701 7.255401 5.840215 12.881608 -0.684020 1.100247 -0.003014 -0.007346 -4755120.000000 1 0 0
-12.708101 1.605001 5.985915 14.138707 -0.125632 1.133634 -0.005758 -0.004597 281392.000000 1 0 0
-3.380301 3.601501 10.214415 11.345991 -0.817070 0.450415 -0.001710 -0.000516 418514.000000 1 0 0
2.072099 -12.339899 -1.163385 12.566629 -1.404430 1.663506 0.000197 0.000117 -3125680.000000 1 0 0
10.281599 -5.133099 -3.595885 12.041195 -0.463048 1.874055 0.007052 0.000981 325938.000000 1 0 0
3.231299 -13.514399 0.891215 13.923884 -1.336102 1.506746 0.005430 -0.002462 384381.000000 1 0 0
10.038099 -1.811899 -6.089985 11.879997 -0.178579 2.109036 0.007593 0.001364 -236008.000000 1 0 0
11.851299 -5.448999 -1.454985 13.124857 -0.430958 1.681882 0.009168 0.000722 -1235020.000000 1 0 0
1.477299 0.952901 5.942915 6.197473 0.572873 0.287607 -0.003388 -0.002705 24581.500000 1 0 0
-10.688301 11.542401 6.697715 17.097549 -0.823799 1.168279 0.004635 -0.022524 -1632910.000000 1 0 0
4.678899 -14.116099 2.998315 15.170572 -1.250734 1.371846 0.005830 -0.005874 -3398190.000000 1 0 0
5.079999 -3.439399 -1.636785 6.349403 -0.595155 1.831526 0.004676 -0.001649 -1273490.000000 1 0 0
1.983499 -3.060799 -7.718885 8.537210 -0.995805 2.700173 -0.000822 -0.000488 -199323.000000 1 0 0
-2.879701 14.837001 -8.756885 17.467464 -1.379091 2.095926 0.013225 -0.001122 -888177.000000 1 0 0
-2.259901 6.042401 -8.055885 10.320613 -1.212896 2.466362 0.004923 -0.002152 -524329.000000 1 0 0
2.566099 -3.540999 -11.392485 12.202961 -0.943696 2.775083 0.000680 -0.000725 -1757890.000000 1 0 0
14.495699 2.764701 -2.610785 14.986162 0.188462 1.745903 0.001204 0.004417 420301.000000 1 0 0
-3.570501 13.197601 2.369815 13.875920 -1.306580 1.399169 -0.001697 0.002181 -783211.000000 1 0 0
7.817299 -5.030899 14.002715 16.807621 -0.571834 0.586077 0.004579 -0.010230 -1160610.000000 1 0 0
-11.479401 7.357301 2.878015 13.935189 -0.569961 1.362771 -0.004347 -0.007170 966523.000000 1 0 0
-2.236201 11.946901 4.087515 12.823292 -1.385759 1.246378 -0.003769 0.003703 304810.000000 1 0 0
1.835499 1.395601 0.691715 2.407328 0.650085 1.279351 -0.006344 0.000774 -2284830.000000 1 0 0
-6.871301 8.592001 5.266015 12.197056 -0.896219 1.124370 -0.000681 -0.005322 -117360.000000 1 0 0
-1.035101 9.113701 1.117015 9.240059 -1.457705 1.449612 -0.001698 0.001739 314217.000000 1 0 0
5.072399 13.125601 -8.494785 16.436910 1.202025 2.113919 0.007901 -0.008215 -1199050.000000 1 0 0
9.019999 7.024401 7.224515 13.523912 0.661654 1.007232 0.003392 -0.000859 -1542060.000000 1 0 0
7.193199 -13.765899 2.922315 15.804494 -1.089282 1.384822 0.014927 -0.007380 -594849.000000 1 0 0
4.214299 -13.474599 -1.327285 14.180509 -1.267676 1.664533 0.000020 0.003395 -3517230.000000 1 0 0
12.077799 -11.914099 -4.669385 17.596083 -0.778575 1.839379 0.015192 -0.000654 -775437.000000 1 0 0
2.854699 -0.047699 -1.983585 3.476520 -0.016707 2.177992 0.001242 0.000644 1138310.000000 1 0 0
-13.527501 -3.033199 -10.741485 17.537762 0.220576 2.229987 0.005530 -0.004946 -145652.000000 1 0 0
-6.548601 13.713001 5.011915 16.001558 -1.125272 1.252221 0.004425 -0.007629 422440.000000 1 0 0
7.303599 -4.236899 -0.657685 8.469145 -0.525667 1.648531 0.000345 -0.000288 -5586.140000 1 0 0
11.635999 2.089501 -7.161785 13.822216 0.177678 2.115466 0.007360 -0.000166 -1039180.000000 1 0 0
-7.568401 -4.598399 9.694915 13.130778 0.545973 0.740198 0.006476 0.000029 605561.000000 1 0 0
0.994899 2.815301 8.488815 8.998651 1.231105 0.338231 -0.002168 -0.000792 -1711540.000000 1 0 0
1.686099 8.033901 -8.709785 11.968578 1.363926 2.385790 0.003780 -0.001842 -338258.000000 1 0 0
-8.628101 -2.101299 -5.618485 10.508423 0.238891 2.134907 0.006223 -0.004191 66213.000000 1 0 0
6.590099 -0.452299 7.160615 9.742093 -0.068526 0.745103 -0.001502 -0.000427 1234080.000000 1 0 0
-10.926401 6.553701 7.204615 14.637066 -0.540275 1.056161 0.006147 -0.009265 656925.000000 1 0 0
-5.915901 11.108401 4.841115 13.484467 -1.081440 1.203585 -0.002730 -0.001828 201852.000000 1 0 0
6.016899 -1.207899 -6.844485 9.192882 -0.198118 2.410645 -0.000298 0.000425 -1054440.000000 1 0 0
4.466599 -5.737999 11.343215 13.473814 -0.909350 0.570055 -0.004916 -0.000708 -1318470.000000 1 0 0
-8.992601 -7.372199 2.828015 11.967199 0.686702 1.332226 0.000065 0.002428 -3168120.000000 1 0 0
-1.158001 12.754901 -9.233585 15.788843 -1.480256 2.195451 0.012847 -0.002466 844347.000000 1 0 0
-4.652801 9.284701 -2.309785 10.639047 -1.106249 1.789644 0.001270 -0.001437 450530.000000 1 0 0
-3.147301 9.787101 -0.214285 10.282935 -1.259664 1.591637 0.002025 0.000186 -160416.000000 1 0 0
-3.389201 10.860101 -6.437985 13.071959 -1.268296 2.085760 0.003619 -0.001501 707317.000000 1 0 0
4.877599 -4.870599 0.367115 6.902788 -0.784680 1.517588 0.001939 -0.001142 -1713440.000000 1 0 0
-2.212101 3.005701 -11.033285 11.647361 -0.936336 2.815426 0.004494 -0.003008 -2042280.000000 1 0 0
-3.603501 12.042101 -2.189585 12.758985 -1.280035 1.743261 0.000994 0.000845 -450409.000000 1 0 0
-0.211601 0.372001 0.050115 0.430896 -1.053620 1.454229 -0.005271 0.000851 -1677330.000000 1 0 0
-4.784401 -1.634899 0.069515 5.056503 0.329275 1.557048 -0.001381 -0.000714 157520.000000 1 0 0
2.612299 2.470701 -2.596585 4.435169 0.757548 2.196236 -0.007337 0.002997 1032770.000000 1 0 0
5.887099 -9.774499 8.420115 14.180871 -1.028694 0.935066 -0.005469 0.003694 -1419300.000000 1 0 0
-4.244601 -5.451099 6.632115 9.576851 0.909198 0.805827 0.004913 -0.001637 213113.000000 1 0 0
-6.257901 5.497101 -12.080285 14.673538 -0.720767 2.537944 0.001443 -0.001034 966786.000000 1 0 0
-12.858901 3.091901 7.937115 15.424298 -0.235969 1.030273 -0.002180 -0.006270 711547.000000 1 0 0
4.693999 -7.495499 -5.007285 10.163122 -1.011304 2.085977 -0.004661 -0.000736 1113240.000000 1 0 0
-5.932101 2.427901 -1.119885 6.506817 -0.388482 1.743767 0.002555 -0.002924 -853607.000000 1 0 0
-6.973401 -2.655799 -14.578185 16.376968 0.363887 2.668501 0.009758 -0.001385 -862202.000000 1 0 0
2.736399 -6.150899 1.007915 6.807153 -1.152210 1.422183 0.002093 0.000488 149885.000000 1 0 0
4.777699 -7.920199 12.960615 15.922735 -1.028005 0.619844 -0.007584 0.001414 -29396.000000 1 0 0
-10.037101 -1.684899 7.982815 12.934744 0.166316 0.905667 0.007801 0.000906 -341340.000000 1 0 0
-4.446701 13.291301 -0.010585 14.015418 -1.247945 1.571552 0.000607 0.001726 456842.000000 1 0 0
6.828499 2.115401 -4.474985 8.433790 0.300414 2.130107 -0.000623 0.002106 -1267060.000000 1 0 0
5.006099 4.494801 0.130715 6.729142 0.731634 1.551370 -0.003685 0.001379 -953951.000000 1 0 0
-5.920701 12.270101 1.924915 13.759192 -1.121222 1.430436 0.001238 0.000480 -2261680.000000 1 0 0
6.508999 -7.295199 6.568715 11.778583 -0.842290 0.979205 -0.000160 -0.001481 -775034.000000 1 0 0
-0.281201 4.953601 7.839415 9.277589 -1.514090 0.564261 -0.005559 0.000356 -1403170.000000 1 0 0
-5.813601 -3.459999 -1.516785 6.933267 0.536850 1.791349 0.001670 -0.001105 -863491.000000 1 0 0
2.294599 -6.607799 -5.227985 8.732699 -1.236568 2.212633 -0.003956 0.001253 -1638220.000000 1 0 0
-14.326701 -4.750899 -3.800585 15.565020 0.320200 1.817465 -0.001553 -0.000029 -247667.000000 1 0 0
-12.385601 -5.040099 -6.398185 14.823714 0.386468 2.017082 0.008654 -0.006329 -1034130.000000 1 0 0
-14.805001 -3.727299 -1.279985 15.320547 0.246634 1.654441 -0.002913 -0.001864 781602.000000 1 0 0
11.988499 2.967501 8.677815 15.094192 0.242652 0.958301 0.015467 -0.004304 -1207330.000000 1 0 0
8.748299 -6.445399 7.691415 13.312917 -0.634974 0.954838 0.009493 -0.004522 231685.000000 1 0 0
-8.865001 -1.691399 -9.732085 13.272624 0.188529 2.393878 0.006239 -0.004296 -536570.000000 1 0 0
-8.743201 5.213001 -3.893385 10.898504 -0.537646 1.936108 0.002419 -0.002423 -1647310.000000 1 0 0
-4.181701 -6.182099 4.088015 8.509808 0.976071 1.069699 0.003471 -0.000639 -1248000.000000 1 0 0
-0.239601 -9.195799 3.600415 9.878417 1.544747 1.197730 0.004555 -0.001915 272422.000000 1 0 0
7.940699 -10.493699 3.286215 13.563614 -0.923014 1.326079 0.005406 -0.001518 631363.000000 1 0 0
0.004299 6.531701 9.654115 11.656117 1.570138 0.594829 -0.005096 -0.001310 743774.000000 1 0 0
-0.106801 3.448201 -9.692685 10.288325 -1.539833 2.799651 0.005208 -0.002501 -889204.000000 1 0 0
4.503099 -3.165899 11.004415 12.304388 -0.612769 0.463823 -0.002046 -0.002747 -2034580.000000 1 0 0
8.594599 -9.145699 1.237715 12.611221 -0.816453 1.472494 0.003437 -0.000950 1040000.000000 1 0 0
-0.212401 -0.286399 11.379415 11.385000 0.932677 0.031324 0.002310 -0.002473 -1588540.000000 1 0 0
10.996899 6.038301 11.394915 16.948066 0.502145 0.833427 0.012521 0.000263 -41486.400000 1 0 0
-6.371701 -2.764699 -11.925185 13.800441 0.409387 2.614188 0.010181 -0.005251 -192876.000000 1 0 0
-1.691201 2.769901 8.379615 8.986126 -1.022646 0.369506 -0.002703 -0.000265 -1177100.000000 1 0 0
-1.686301 13.493601 -6.814885 15.210639 -1.446470 2.035362 0.010160 -0.002293 701469.000000 1 0 0
7.758699 3.117101 9.812615 12.891902 0.382019 0.705719 0.003935 0.000893 661784.000000 1 0 0
6.548299 8.462201 -8.000085 13.360031 0.912218 2.212808 0.006343 -0.003407 -222836.000000 1 0 0
6.572699 -3.171299 -3.831285 8.242345 -0.449546 2.054238 0.002133 -0.000344 -3553950.000000 1 0 0
1.987199 8.062001 1.065915 8.371439 1.329124 1.443122 -0.001688 -0.000038 508839.000000 1 0 0
-17.598201 6.493201 6.516315 19.857510 -0.353473 1.236448 0.005260 0.001220 918915.000000 1 0 0
-14.746201 3.024101 -10.308985 18.244747 -0.202272 2.171276 0.020325 0.000399 -1067440.000000 1 0 0
-18.312701 0.228001 -4.350785 18.823823 -0.012450 1.804037 0.015355 0.002925 113982.000000 1 0 0
-13.136801 7.985901 0.074915 15.373866 -0.546210 1.565923 0.000868 -0.000755 -1847330.000000 1 0 0
-12.823001 -4.605399 -12.685485 18.616138 0.344804 2.320503 0.018250 0.000795 -1337770.000000 1 0 0
-17.330501 -0.521699 -8.565985 19.338938 0.030094 2.029671 0.011433 -0.009205 610359.000000 1 0 0
-16.719601 -2.035799 -2.083185 16.971423 0.121165 1.693853 0.003529 -0.003184 -112704.000000 1 0 0
-15.261201 4.097301 1.727915 15.895843 -0.262293 1.461879 -0.002489 0.000624 -2279680.000000 1 0 0
-13.097401 6.000901 4.491315 15.090548 -0.429631 1.268593 -0.001422 -0.005446 656381.000000 1 0 0
-9.904001 14.233001 2.927315 17.585128 -0.962863 1.403552 0.017251 -0.010085 232460.000000 1 0 0
-11.888601 2.591001 -6.357985 13.728660 -0.214584 2.052306 0.005003 -0.000487 164623.000000 1 0 0
-15.827801 10.646401 3.832115 19.456367 -0.592126 1.372541 0.003339 -0.009639 1457020.000000 1 0 0
-12.879301 1.298101 -8.604585 15.543498 -0.100450 2.157454 0.008021 -0.000355 435138.000000 1 0 0
-12.256401 14.237101 4.258415 19.262619 -0.860021 1.347883 0.014897 -0.018129 397695.000000 1 0 0
-10.358701 11.280901 -0.879885 15.340652 -0.827989 1.628184 0.000524 -0.000809 1124850.000000 1 0 0
-16.850201 5.655801 8.818615 19.841505 -0.323836 1.110233 -0.005795 -0.004783 317285.000000 1 0 0
-11.743501 12.447101 -9.029485 19.348688 -0.814476 2.056320 0.005764 -0.013774 -332458.000000 1 0 0
-17.123701 -0.499999 3.076015 17.404971 0.029191 1.393131 0.002137 -0.006630 313734.000000 1 0 0
-13.356201 14.858901 -0.292985 19.981513 -0.838607 1.585460 0.031740 -0.012443 452807.000000 1 0 0
-16.474001 4.924801 -10.388585 20.089029 -0.290488 2.114288 0.022886 -0.003204 780402.000000 1 0 0
-11.794601 7.631301 -9.013785 16.691246 -0.574275 2.141270 -0.000591 0.001539 -224264.000000 1 0 0
-14.890201 13.392901 -1.839885 20.111515 -0.732508 1.662409 0.030359 -0.014666 736949.000000 1 0 0
-11.793501 10.564801 -5.488385 16.757806 -0.730498 1.904466 0.008539 -0.002723 1140150.000000 1 0 0
-17.558201 2.799201 -0.916885 17.803556 -0.158094 1.622319 -0.000114 -0.001462 -646286.000000 1 0 0
-9.355601 15.387501 0.737415 18.023491 -1.024515 1.529871 0.016152 -0.009003 113071.000000 1 0 0
-8.194301 13.188201 -3.611085 15.940989 -1.014836 1.799308 0.002283 -0.004173 -1172210.000000 1 0 0
-17.777201 11.471401 2.095115 21.260560 -0.573055 1.472091 0.034565 0.000281 155724.000000 1 0 0
-8.152501 15.651101 -7.250185 19.078402 -1.090577 1.960615 0.021609 -0.016254 -88452.200000 1 0 0
-6.358301 15.260501 -5.398585 17.391251 -1.176019 1.886431 0.001027 -0.003354 -747151.000000 1 0 0
-17.362801 5.256101 -0.078485 18.141103 -0.293952 1.575123 0.011252 0.002303 769264.000000 1 0 0
-5.451001 12.361601 -12.307285 18.275444 -1.155483 2.309639 0.006003 -0.002724 -1443380.000000 1 0 0
-10.968101 3.982801 -11.411785 16.321482 -0.348320 2.345057 -0.002910 -0.001941 -188940.000000 1 0 0
-11.701001 11.043301 1.417715 16.151713 -0.756489 1.482908 0.003646 -0.005910 283408.000000 1 0 0
-12.943701 0.342001 -11.031285 17.010162 -0.026416 2.276424 0.004258 -0.003504 -122730.000000 1 0 0
-14.048801 -2.298599 -13.128685 19.365297 0.162178 2.315765 0.005276 0.001015 171301.000000 1 0 0
-18.703601 -2.251399 -3.672185 19.193187 0.119796 1.763311 0.007053 0.000667 54780.500000 1 0 0
-18.235701 4.851801 -5.121885 19.552863 -0.260036 1.835839 0.020375 -0.000219 207096.000000 1 0 0
-8.304901 15.437001 -2.178285 17.664011 -1.077223 1.694429 0.012274 -0.005238 390218.000000 1 0 0
-16.092601 9.238801 -5.428785 19.333881 -0.521159 1.855415 0.024640 0.005800 -66740.500000 1 0 0
-18.244201 1.674301 2.359515 18.472181 -0.091515 1.442713 0.012851 -0.009387 -1141640.000000 1 0 0
-15.686701 -2.571399 -8.813885 18.176063 0.162477 2.077065 0.006533 -0.002704 83320.800000 1 0 0
-9.571501 10.579101 -7.082385 15.927686 -0.835360 2.031590 -0.001134 -0.005922 312163.000000 1 0 0
-13.832001 12.063601 -7.563085 19.850818 -0.717214 1.961670 0.013677 -0.011296 -93082.800000 1 0 0
-10.910801 6.597901 -3.762685 13.294197 -0.543878 1.857750 0.002344 -0.001000 -1361430.000000 1 0 0
-13.084801 4.905501 -12.698685 18.882070 -0.358684 2.308413 0.010975 -0.003752 52131.800000 1 0 0
-17.588001 8.981301 2.708515 19.933329 -0.472131 1.434496 0.011737 -0.002089 920843.000000 1 0 0
-13.324801 8.642401 -6.544585 17.177689 -0.575387 1.961667 0.002597 0.001436 261153.000000 1 0 0
-15.708501 7.046901 -3.928785 17.659308 -0.421693 1.795150 0.010066 0.004103 -678928.000000 1 0 0
-14.865601 -0.183899 -9.326185 17.549862 0.012370 2.131061 0.009955 -0.006002 -1447590.000000 1 0 0
-10.039501 5.932501 -6.072485 13.147670 -0.533713 2.050896 -0.000036 -0.000202 194725.000000 1 0 0
-12.829501 12.250601 -0.544785 17.747397 -0.762320 1.601498 0.015817 -0.009092 -702669.000000 1 0 0
-10.471601 3.580201 -13.893285 17.762197 -0.329437 2.468958 -0.007437 -0.005384 202972.000000 1 0 0
-11.108701 6.467301 -11.972885 17.566422 -0.527216 2.320713 0.003658 0.001188 -460989.000000 1 0 0
-5.895301 11.796901 -14.758685 19.792429 -1.107362 2.412341 0.012374 -0.004026 -423368.000000 1 0 0
-15.586101 13.271201 3.538615 20.774338 -0.705351 1.399626 0.005548 -0.014845 212323.000000 1 0 0
-15.178901 11.170701 -3.196585 19.115484 -0.634439 1.738811 0.035303 -0.000040 729369.000000 1 0 0
-18.107501 7.736601 -4.794585 20.266342 -0.403783 1.809639 0.025342 0.000997 -30866.100000 1 0 0
-4.072601 16.437901 -10.477385 19.913971 -1.327930 2.124842 0.016869 0.002681 -300200.000000 1 0 0
-15.683901 4.405401 -4.288385 16.845847 -0.273831 1.828196 0.013034 0.002109 -217218.000000 1 0 0
-18.563601 -1.711099 -6.170285 19.636893 0.091915 1.890430 0.007597 -0.002171 526334.000000 1 0 0
-10.693901 8.628001 -5.781685 14.907374 -0.678883 1.969084 -0.002857 0.001663 237998.000000 1 0 0
-11.193501 13.653501 -6.726585 18.893372 -0.884082 1.934811 0.008790 -0.005637 4870.210000 1 0 0
-9.467501 10.587401 -4.354285 14.855518 -0.841182 1.868273 -0.004949 -0.002126 -1016080.000000 1 0 0
-10.966801 6.392501 -0.211885 12.695656 -0.527748 1.587487 0.001094 -0.002497 652479.000000 1 0 0
-14.635901 9.447001 -1.433385 17.478845 -0.573182 1.652895 0.020320 -0.000214 171582.000000 1 0 0
-18.567601 3.597001 4.787415 19.509320 -0.191354 1.322873 0.009967 -0.004006 428896.000000 1 0 0
-15.018101 13.045001 0.625315 19.902422 -0.715204 1.539372 0.021376 -0.012370 11575.500000 1 0 0
-16.998101 2.663101 -9.129685 19.477646 -0.155407 2.058645 0.024525 -0.003673 633706.000000 1 0 0
-9.117301 8.571001 -8.894885 15.352727 -0.754523 2.188750 -0.000073 0.005490 -2215000.000000 1 0 0
-17.585701 4.723701 -2.604385 18.394375 -0.262416 1.712860 0.007254 0.002117 816992.000000 1 0 0
-13.425401 5.852501 -4.370585 15.283821 -0.411090 1.860806 0.004541 0.005350 -90147.800000 1 0 0
-12.099601 9.730501 3.586015 15.935573 -0.677297 1.343820 -0.000145 -0.008248 172792.000000 1 0 0
-17.575001 2.610701 -3.986585 18.209593 -0.147468 1.791512 0.017003 -0.001121 1027410.000000 1 0 0
-11.317901 1.599501 -12.509385 16.945147 -0.140395 2.401236 0.005869 -0.003467 62031.000000 1 0 0
-11.038501 12.065901 3.686015 16.763686 -0.829837 1.349104 0.009212 -0.012386 557925.000000 1 0 0
-15.652601 13.428801 -4.376585 21.082958 -0.709079 1.779906 0.001506 0.001798 550445.000000 1 0 0
-10.951301 4.117901 -4.477285 12.527337 -0.359664 1.936280 0.003183 -0.001089 -198913.000000 1 0 0
-11.138501 15.030601 -8.827785 20.686105 -0.933045 2.011692 0.019303 -0.017488 185201.000000 1 0 0
-15.444401 7.109001 -0.312185 17.004848 -0.431383 1.589156 0.012281 0.001617 -1053360.000000 1 0 0
-12.734801 8.425901 -4.030885 15.793005 -0.584517 1.828884 0.003668 0.001572 918469.000000 1 0 0
-19.157601 2.108501 -5.981285 20.180070 -0.109620 1.871713 0.014983 -0.002153 253657.000000 1 0 0
-12.699201 10.059901 -8.784685 18.429379 -0.669947 2.067656 0.004648 -0.007900 699379.000000 1 0 0
-16.691801 10.944301 -1.035985 19.986676 -0.580350 1.622653 0.025306 -0.003696 131836.000000 1 0 0
-10.753701 6.635901 -14.519485 19.248187 -0.552884 2.425429 0.004806 -0.007844 -207150.000000 1 0 0
-13.211201 12.787801 -3.862885 18.787910 -0.769114 1.777878 0.008010 -0.015024 502963.000000 1 0 0
-17.954801 7.803201 -0.118385 19.577508 -0.409976 1.576843 0.021503 0.003531 40864.500000 1 0 0
-12.730901 6.701701 -2.102085 14.539855 -0.484553 1.715879 -0.001868 0.002085 917307.000000 1 0 0
-13.756901 8.525101 -10.603585 19.348532 -0.554776 2.150804 0.003242 -0.004004 308540.000000 1 0 0
-14.843101 1.438201 -0.940985 14.942273 -0.096592 1.633813 -0.003066 -0.003636 -1230620.000000 1 0 0
-13.277901 2.930701 -2.339385 13.797260 -0.217237 1.741174 0.000945 0.000047 149473.000000 1 0 0
-11.347801 9.473601 -10.857585 18.341452 -0.695627 2.204297 0.003890 -0.000846 -768064.000000 1 0 0
-15.218501 4.283501 -8.004285 17.720602 -0.274368 2.039459 0.007769 0.000811 737308.000000 1 0 0
-18.316101 10.555001 4.583515 21.630908 -0.522787 1.357281 0.019090 -0.005445 335757.000000 1 0 0
-15.331001 6.024401 -6.157485 17.585438 -0.374419 1.928524 0.017537 0.003200 635628.000000 1 0 0
-7.772101 11.469001 -12.897685 18.928651 -0.975220 2.320449 0.002274 0.000428 -458493.000000 1 0 0
-16.804901 9.125501 -2.919085 19.344263 -0.497473 1.722277 0.019215 0.003641 816534.000000 1 0 0
-20.559701 -0.867199 -4.698385 21.107538 0.042155 1.795269 0.009141 -0.000765 -757156.000000 1 0 0
-15.389401 4.359301 4.193815 16.535575 -0.276035 1.314372 -0.001027 -0.002588 521203.000000 1 0 0
-6.971201 12.778101 -9.457785 17.358779 -1.071370 2.146997 0.005428 -0.001628 -1277320.000000 1 0 0
-17.099501 1.620301 5.809215 18.131886 -0.094475 1.244659 0.009030 -0.011242 212581.000000 1 0 0
-10.496301 14.331101 -3.132285 18.037849 -0.938645 1.745332 0.019420 -0.012054 1861580.000000 1 0 0
-9.996901 8.551301 -12.951385 18.460800 -0.707618 2.348383 -0.003800 -0.000945 459715.000000 1 0 0
-13.645601 11.768201 2.919415 18.254204 -0.711659 1.410175 0.004502 -0.012833 -468288.000000 1 0 0
-16.615401 6.787501 1.906615 18.049291 -0.387818 1.464965 -0.001451 0.003133 354599.000000 1 0 0
-9.292101 13.288001 -8.401085 18.261773 -0.960550 2.048833 0.012100 -0.011799 -1317880.000000 1 0 0
-5.685801 9.871201 -12.995885 17.281839 -1.048212 2.421882 0.007598 0.002740 -35037.500000 1 0 0
-15.834901 1.825701 3.270515 16.271863 -0.114789 1.368426 -0.005629 -0.000739 -348149.000000 1 0 0
-18.620201 -4.848999 4.531015 19.767518 0.254758 1.339525 0.021193 -0.007150 -405041.000000 1 0 0
-5.282501 14.506701 -8.956485 17.848468 -1.221579 2.096483 0.007858 -0.006302 -207334.000000 1 0 0
-15.381301 -0.717899 -6.827985 16.844025 0.046640 1.988175 0.007942 -0.002443 784712.000000 1 0 0
-8.892001 11.007501 -9.547385 17.070012 -0.891310 2.164346 0.000591 -0.005517 294833.000000 1 0 0
-16.680801 1.464801 -6.082985 17.815652 -0.087589 1.919245 0.007012 -0.000892 -10255.000000 1 0 0
-11.169601 8.802301 -1.432985 14.293143 -0.667417 1.671222 -0.003797 -0.000743 -197127.000000 1 0 0
-10.757201 11.092201 -12.890885 20.122853 -0.800729 2.266088 0.000931 0.001399 -311668.000000 1 0 0
-14.009801 11.884401 -10.214985 21.020453 -0.703502 2.078251 0.013461 -0.008067 185654.000000 1 0 0
-13.161801 5.810501 -7.627785 16.284288 -0.415735 2.058291 0.007482 0.004931 358256.000000 1 0 0
-8.932601 15.495801 -4.773885 18.512190 -1.047871 1.831622 0.011848 -0.008804 197157.000000 1 0 0
-8.643201 6.326401 -13.004585 16.847774 -0.631849 2.452601 -0.000151 -0.001469 1131330.000000 1 0 0
-16.313401 7.437501 4.328215 18.443885 -0.427761 1.333918 0.003806 0.000146 -966441.000000 1 0 0
-12.707001 5.503801 -10.147985 17.168031 -0.408738 2.203215 0.008300 0.002178 556733.000000 1 0 0
-12.453701 9.187401 -13.292085 20.400552 -0.635598 2.280429 0.008789 -0.007668 -1304940.000000 1 0 0
-10.764301 5.282201 -8.456685 14.672673 -0.456192 2.185059 0.000487 0.001895 -829634.000000 1 0 0
-17.638501 -4.401799 -2.687485 18.377027 0.244561 1.717564 -0.002151 -0.001690 274456.000000 1 0 0
-9.050701 13.157601 -10.976385 19.378304 -0.968259 2.172960 0.024386 -0.012190 -16300.800000 1 0 0
-15.050701 6.182901 6.076115 17.368680 -0.389786 1.213405 -0.001462 -0.007412 -1000650.000000 1 0 0
-16.246901 -2.978699 -4.444885 17.105305 0.181326 1.833668 -0.002590 0.001872 48737.100000 1 0 0
-11.255001 -1.031499 -12.477485 16.835281 0.091393 2.405580 0.006103 -0.001133 406004.000000 1 0 0
-15.439301 6.903401 -8.466085 18.913052 -0.420466 2.034912 0.016141 0.002517 370430.000000 1 0 0
-14.997101 9.360201 1.142115 17.715271 -0.557976 1.506281 0.013005 -0.003459 -244504.000000 1 0 0
-19.337101 5.287101 8.086315 21.616322 -0.266894 1.187388 0.024422 -0.011062 -424729.000000 1 0 0
-16.189601 0.767001 0.991415 16.238053 -0.047341 1.509703 -0.002054 -0.007628 -865604.000000 1 0 0
-17.362601 3.891101 7.053515 19.140341 -0.220465 1.193385 0.000721 -0.004152 238102.000000 1 0 0
-15.357701 4.083301 -1.324685 15.946382 -0.259868 1.653963 0.003194 -0.002370 -841003.000000 1 0 0
-10.870301 13.356901 0.698015 17.235355 -0.887677 1.530286 0.010800 -0.010209 -981038.000000 1 0 0
-13.350301 3.408501 0.148115 13.779345 -0.249973 1.560047 -0.000425 -0.001280 -789444.000000 1 0 0
-15.113901 0.238501 -4.303685 15.716507 -0.015779 1.848172 0.002382 -0.000220 426432.000000 1 0 0
-18.680401 6.808501 3.385015 20.168574 -0.349510 1.402162 0.002369 0.004614 -123869.000000 1 0 0
-14.066401 1.368301 -6.260585 15.457387 -0.096969 1.987799 0.007649 -0.001838 -775528.000000 1 0 0
-14.204001 11.966301 5.395915 19.340680 -0.700100 1.288051 0.000341 -0.019428 169740.000000 1 0 0
17.768499 5.509901 6.278315 19.634047 0.300691 1.245313 0.018353 -0.006089 -140827.000000 1 0 0
18.539799 7.327801 -0.214685 19.936572 0.376402 1.581565 0.003279 0.003297 367829.000000 1 0 0
16.666199 5.309201 8.593115 19.488238 0.308397 1.114152 0.023684 0.000818 370582.000000 1 0 0
11.705499 12.363901 11.002515 20.271657 0.812746 0.997084 0.017917 -0.003376 457892.000000 1 0 0
-2.250301 16.243601 -0.466185 16.405357 -1.433138 1.599217 0.003159 -0.002379 -346829.000000 1 0 0
15.050099 12.742401 3.355815 20.003394 0.702555 1.402237 0.026025 -0.004157 315606.000000 1 0 0
13.504299 11.845701 6.752815 19.190811 0.720063 1.211220 0.013802 -0.000078 665127.000000 1 0 0
-0.563101 16.027201 8.770715 18.278777 -1.535677 1.070335 -0.002342 0.007683 86151.500000 1 0 0
0.782299 12.826901 9.474015 15.965536 1.509883 0.935515 -0.005927 0.003460 -218944.000000 1 0 0
0.875499 15.529901 -3.872685 16.029411 1.514481 1.814809 0.006324 -0.002690 215215.000000 1 0 0
5.296499 10.251401 13.635415 17.862493 1.093909 0.702306 0.013229 -0.007092 411220.000000 1 0 0
-1.262801 16.367601 -2.738985 16.643169 -1.493796 1.736120 0.005407 -0.003319 -140017.000000 1 0 0
8.547399 10.038201 3.317315 13.595149 0.865440 1.324300 0.004079 -0.001278 233453.000000 1 0 0
12.733399 13.642901 -4.764185 19.260469 0.819866 1.820746 0.035446 -0.009031 -211173.000000 1 0 0
2.517199 11.651801 7.789815 14.240153 1.358031 0.991982 0.000181 0.003327 471009.000000 1 0 0
-0.349801 15.028201 -8.602985 17.319946 -1.547524 2.090600 0.013217 0.001247 -1127980.000000 1 0 0
2.373899 15.757001 0.313515 15.937903 1.421264 1.551124 0.004984 -0.012953 -1108700.000000 1 0 0
1.879299 13.390401 5.318415 14.529974 1.431360 1.196056 -0.000081 0.002869 145528.000000 1 0 0
17.630999 9.098101 -1.903185 19.931123 0.476388 1.666430 -0.002667 0.002721 601086.000000 1 0 0
-7.149501 14.867001 7.315115 18.045885 -1.122547 1.153422 0.005696 -0.015838 -532223.000000 1 0 0
8.479999 15.900301 -0.215485 18.021553 1.080847 1.582754 0.009454 -0.009708 -635984.000000 1 0 0
15.616199 10.431001 2.058615 18.892044 0.588898 1.461612 0.010444 -0.001960 -479854.000000 1 0 0
14.204699 7.519301 8.641415 18.247943 0.486853 1.077473 0.015002 -0.004348 -1443510.000000 1 0 0
4.248499 18.529801 -2.051685 19.121001 1.345413 1.678303 0.018382 -0.013197 -1544870.000000 1 0 0
-0.437601 17.535001 -4.814285 18.189148 -1.545846 1.838667 0.016727 -0.005484 907161.000000 1 0 0
1.367599 13.651301 -0.865585 13.746912 1.470949 1.633804 0.002518 -0.005953 -377181.000000 1 0 0
10.215599 14.696501 4.129015 18.368298 0.963364 1.344069 0.014950 -0.008525 234337.000000 1 0 0
-1.540401 15.306701 -5.152685 16.223997 -1.470498 1.893990 0.015222 -0.003530 535643.000000 1 0 0
15.120699 8.592101 -6.386385 18.526890 0.516735 1.922725 0.004714 -0.000465 582347.000000 1 0 0
-2.303001 18.484101 0.829315 18.645470 -1.446841 1.526304 0.004442 -0.005053 -870683.000000 1 0 0
-3.644701 19.333401 3.382715 19.962640 -1.384465 1.400522 0.003390 -0.010209 -68825.300000 1 0 0
1.930199 17.688801 -2.655985 17.990931 1.462107 1.718967 0.009454 -0.005551 -403958.000000 1 0 0
2.908199 12.123501 3.319915 12.901888 1.335364 1.310548 -0.002121 -0.001302 271183.000000 1 0 0
-2.574401 16.127001 1.926415 16.444414 -1.412499 1.453380 0.005820 -0.003604 -1462730.000000 1 0 0
11.869799 12.792201 -2.588985 17.641864 0.822782 1.718081 0.013283 0.001590 406941.000000 1 0 0
7.345699 11.652501 4.833415 14.598012 1.008326 1.233326 -0.002245 -0.001385 212950.000000 1 0 0
7.060399 15.527501 1.812015 17.153306 1.144038 1.464962 0.003192 -0.013661 -1913370.000000 1 0 0
5.437999 12.166301 10.432515 16.924186 1.150463 0.906600 0.002482 0.003308 879810.000000 1 0 0
-1.287101 14.147201 3.148315 14.550320 -1.480067 1.352697 -0.000357 0.000310 -541525.000000 1 0 0
4.580399 15.888601 1.599315 16.612811 1.290124 1.474377 0.002110 -0.018869 -1499500.000000 1 0 0
7.268399 13.238201 12.031115 19.308737 1.068685 0.898107 0.009703 0.001261 126960.000000 1 0 0
0.818899 17.167001 -9.379985 19.579597 1.523131 2.070391 0.015118 -0.002072 96738.600000 1 0 0
9.812599 9.555201 15.438615 20.638309 0.772109 0.725668 0.027869 -0.010645 -233834.000000 1 0 0
13.443199 7.435401 -0.095985 15.362747 0.505218 1.577044 -0.002408 0.002715 97906.100000 1 0 0
12.467999 13.646201 -0.167285 18.485069 0.830485 1.579846 0.020200 -0.000343 381541.000000 1 0 0
9.492599 12.341801 3.365115 15.929642 0.915156 1.357944 0.009232 0.000778 502913.000000 1 0 0
-0.540301 12.875201 0.809215 12.911915 -1.528856 1.508083 0.004571 -0.003397 -403292.000000 1 0 0
15.994899 7.298701 -0.871585 17.603053 0.428092 1.620330 -0.001745 0.005106 -1584240.000000 1 0 0
-4.243501 18.413601 -2.274785 19.032673 -1.344296 1.690603 0.010924 -0.004838 223934.000000 1 0 0
11.762299 9.147601 -3.120085 15.223837 0.660998 1.777206 0.012345 -0.000146 5310.840000 1 0 0
14.732399 9.861101 7.733515 19.341462 0.589857 1.159453 0.013667 -0.007585 -205798.000000 1 0 0
4.433899 13.704501 4.614315 15.124970 1.257889 1.260775 0.002982 0.000944 -1108780.000000 1 0 0
2.200899 15.970401 5.718615 17.105561 1.433848 1.229920 0.008815 0.002100 433696.000000 1 0 0
6.246899 18.211901 5.401815 19.996917 1.240360 1.297266 0.018367 -0.017216 -433089.000000 1 0 0
10.680899 17.063201 -0.912485 20.151106 1.011506 1.616094 0.022397 -0.010966 -1224440.000000 1 0 0
10.075499 13.452501 -4.401385 17.374051 0.927956 1.826918 0.024697 -0.008169 665986.000000 1 0 0
16.513599 7.920701 2.280515 18.456359 0.447233 1.446917 -0.004390 -0.002977 -15770.600000 1 0 0
4.035199 13.953201 -0.482385 14.532974 1.289281 1.603995 0.001280 -0.007856 430712.000000 1 0 0
5.651299 13.045701 -2.414085 14.420655 1.162007 1.738993 0.003136 -0.009160 -617884.000000 1 0 0
-6.150301 16.727601 -2.903485 18.057382 -1.218464 1.732290 0.009228 -0.008756 -1083620.000000 1 0 0
18.103299 10.007601 2.405515 20.824697 0.504994 1.455025 0.007750 -0.008564 42796.300000 1 0 0
7.808999 13.031901 9.541015 17.939952 1.030949 1.010036 0.007918 0.002464 445733.000000 1 0 0
-2.506801 15.831901 6.849415 17.431225 -1.413761 1.166970 -0.004988 -0.000708 -488387.000000 1 0 0
10.854299 15.957701 6.278115 20.294796 0.973488 1.256291 0.012465 -0.004802 664697.000000 1 0 0
13.605999 12.038501 1.278915 18.212203 0.724350 1.500516 0.025469 0.001556 -707212.000000 1 0 0
17.526099 7.634001 -5.793485 19.975149 0.410797 1.865059 0.002734 0.009728 878589.000000 1 0 0
9.546399 9.386301 8.042215 15.617733 0.776942 1.029857 0.007011 -0.001454 -1023250.000000 1 0 0
-2.051301 14.060601 -1.828085 14.326557 -1.425928 1.698746 0.002273 0.001058 295492.000000 1 0 0
11.052599 11.644601 0.698715 16.069999 0.811475 1.527303 0.010285 0.002035 450884.000000 1 0 0
11.831699 9.713601 -0.456085 15.315063 0.687404 1.600581 0.005852 0.000491 -1364320.000000 1 0 0
-0.445201 16.045401 11.321015 19.642262 -1.543057 0.956529 0.010627 -0.004642 -728354.000000 1 0 0
2.292399 19.974501 -1.368685 20.152148 1.456530 1.638766 0.028751 -0.019219 -760408.000000 1 0 0
9.340399 14.341501 1.671815 17.196414 0.993519 1.473424 0.014415 -0.003505 -258580.000000 1 0 0
8.479099 11.599701 -5.172285 15.270911 0.939582 1.916333 0.005859 -0.002827 -1272200.000000 1 0 0
10.655199 10.070301 10.308215 17.922152 0.757184 0.957989 0.013054 -0.005042 503003.000000 1 0 0
-4.957701 15.734701 5.962615 17.541733 -1.265562 1.223975 -0.014320 -0.004964 335159.000000 1 0 0
14.402899 9.114501 -1.875585 17.147462 0.564206 1.680395 0.009448 0.005593 -616504.000000 1 0 0
12.204799 9.647601 6.923715 17.028539 0.668907 1.152073 0.006876 -0.003419 -1372730.000000 1 0 0
3.221299 12.979001 9.848515 16.607964 1.327519 0.936017 0.000960 0.000278 -891043.000000 1 0 0
8.548999 12.492301 -2.615685 15.361796 0.970657 1.741902 0.004498 -0.005534 -651225.000000 1 0 0
9.336399 16.914801 2.042315 19.428069 1.066445 1.465480 0.012356 -0.009533 86496.300000 1 0 0
9.605699 14.180401 -7.560385 18.721983 0.975405 1.986489 0.025865 -0.009344 -904172.000000 1 0 0
6.334499 11.511101 7.335315 15.047862 1.067727 1.061612 0.002831 0.002694 -1197090.000000 1 0 0
5.488799 16.917701 -5.589685 18.643500 1.257070 1.875300 0.009526 -0.002328 -831945.000000 1 0 0
-3.992801 17.147101 -4.562385 18.187382 -1.342017 1.824359 0.004102 -0.006952 157660.000000 1 0 0
-0.063401 18.507401 -0.435385 18.512630 -1.567371 1.594317 0.007741 -0.007360 -497802.000000 1 0 0
6.543799 15.589401 -2.753285 17.129837 1.173373 1.732227 0.004415 -0.006067 664142.000000 1 0 0
-0.857101 20.652101 0.917515 20.690232 -1.529318 1.526436 0.012778 -0.009026 85573.100000 1 0 0
-1.317201 18.820001 4.421215 19.377167 -1.500921 1.340603 0.014026 -0.007941 -120359.000000 1 0 0
7.344999 13.771601 -4.333285 16.198252 1.080831 1.841610 0.008274 -0.002029 -1270720.000000 1 0 0
-0.888401 12.015501 7.751815 14.326624 -1.496993 0.999078 -0.003655 0.007222 478457.000000 1 0 0
7.704599 10.889101 10.890415 17.220177 0.955020 0.886121 0.008687 -0.002458 376652.000000 1 0 0
1.506499 16.033701 -7.164085 17.625925 1.477113 1.989363 0.009112 -0.004234 -1150610.000000 1 0 0
8.868499 7.264301 14.534315 18.511257 0.686287 0.667840 0.021084 -0.009496 -2725.730000 1 0 0
11.487999 11.311101 -4.735685 16.803031 0.777639 1.856503 0.017113 0.001129 -43636.300000 1 0 0
-3.292401 17.027801 4.594715 17.941497 -1.379799 1.311817 -0.002913 -0.001270 -560495.000000 1 0 0
3.895699 15.410001 -6.775085 17.278495 1.323181 1.973721 0.010695 -0.003654 -1475550.000000 1 0 0
-4.425601 14.067601 9.439515 17.509648 -1.266004 1.001424 0.004336 -0.011570 652748.000000 1 0 0
6.075399 17.600001 0.349515 18.622370 1.238410 1.552027 0.003145 -0.021870 -378921.000000 1 0 0
9.937299 10.681301 -1.998785 14.725327 0.821467 1.706955 0.005082 -0.000457 -1151110.000000 1 0 0
7.425899 18.084901 -2.545685 19.715175 1.181174 1.700281 0.013018 -0.003945 27074.400000 1 0 0
3.447499 10.363601 10.532415 15.173043 1.249657 0.803554 0.000311 0.003361 706431.000000 1 0 0
0.008599 18.509601 2.154615 18.634585 1.570332 1.454913 0.010307 -0.013480 247872.000000 1 0 0
-0.804201 17.307201 -7.392785 18.837176 -1.524363 1.974098 0.020484 0.002753 -84534.800000 1 0 0
10.109899 8.899201 12.962215 18.692909 0.721794 0.804558 0.017921 -0.003631 -11091.800000 1 0 0
3.709199 11.415001 5.409915 13.165393 1.256618 1.147334 -0.004050 0.000555 413466.000000 1 0 0
13.010099 14.007501 8.185715 20.796122 0.822298 1.166233 0.014607 -0.003016 -119721.000000 1 0 0
-0.399901 17.408401 6.817815 18.700132 -1.547829 1.197608 0.008412 -0.005003 -466841.000000 1 0 0
12.084199 13.693201 5.686815 19.127767 0.847736 1.268926 0.014211 -0.002797 -108656.000000 1 0 0
4.973299 14.491601 -4.529185 15.976662 1.240206 1.858225 0.004058 -0.003478 -29280.700000 1 0 0
3.862499 17.603101 4.680715 18.619805 1.354798 1.316687 0.014444 -0.008683 1498780.000000 1 0 0
7.056799 11.700501 2.131115 13.829020 1.028086 1.416075 0.001314 -0.001776 1078030.000000 1 0 0
6.399799 8.787901 11.693615 15.966379 0.941360 0.748971 0.005909 -0.002117 715755.000000 1 0 0
-5.403801 14.951401 1.793515 15.998817 -1.223980 1.458457 0.003350 0.003986 66527.600000 1 0 0
6.666699 13.724901 5.959915 16.381037 1.118624 1.198420 0.006979 0.000040 -1420550.000000 1 0 0
5.867699 15.723001 4.787315 17.451677 1.213612 1.292916 0.002879 -0.010637 826027.000000 1 0 0
1.233799 18.010501 4.404515 18.582254 1.502399 1.331491 0.019377 -0.008567 155587.000000 1 0 0
7.373199 18.043501 -6.901885 20.677718 1.182869 1.911111 0.013010 -0.001558 334236.000000 1 0 0
-2.404901 18.809001 -5.931785 19.868269 -1.443627 1.873975 0.019317 -0.000658 -2696820.000000 1 0 0
13.625499 9.876401 -4.586685 17.442339 0.627208 1.836888 0.012102 0.001304 -1436280.000000 1 0 0
-1.529401 18.108001 10.095015 20.788172 -1.486536 1.063732 0.014819 -0.003076 -275382.000000 1 0 0
3.538299 11.713901 -1.495885 12.327721 1.277451 1.692439 0.004914 -0.006777 -588872.000000 1 0 0
4.302499 13.913401 -10.812585 18.138529 1.270889 2.209446 0.006445 -0.015751 186564.000000 1 0 0
11.634499 13.471601 2.361515 17.956123 0.858442 1.438898 0.025259 -0.002215 -357670.000000 1 0 0
15.812499 6.195401 -7.130085 18.418910 0.373421 1.968288 -0.014952 -0.001104 18037.600000 1 0 0
2.403399 16.094401 3.048115 16.555877 1.422560 1.385629 0.004872 -0.007121 -225758.000000 1 0 0
13.464099 10.698001 3.494715 17.548282 0.671414 1.370307 0.012644 0.001113 -1083310.000000 1 0 0
-4.942801 19.396001 -5.552285 20.771711 -1.321271 1.841387 0.001643 -0.008263 224774.000000 1 0 0
5.602199 12.078401 0.038115 13.314423 1.136510 1.567934 0.002320 -0.006758 -177389.000000 1 0 0
4.916499 15.340301 9.604415 18.754775 1.260644 1.033163 0.012511 -0.001890 9602.410000 1 0 0
7.741299 9.475001 13.801215 18.443885 0.885761 0.725329 0.017212 -0.011998 -1740790.000000 1 0 0
-4.997701 13.494201 6.986715 15.996395 -1.216101 1.118794 -0.004960 -0.004818 -1759210.000000 1 0 0
-4.551001 17.057601 0.513415 17.661737 -1.310068 1.541723 0.009269 -0.005256 -1332510.000000 1 0 0
-0.653001 16.539801 3.656115 16.951655 -1.531336 1.353409 0.006568 -0.005974 -1873250.000000 1 0 0
7.848299 16.813101 -4.778585 19.160142 1.134062 1.822859 0.007817 -0.005932 178484.000000 1 0 0
3.166199 16.503901 -4.474085 17.390256 1.381254 1.830998 0.006813 -0.003574 329906.000000 1 0 0
9.363399 14.452001 8.402615 19.160833 0.995901 1.116833 0.005639 -0.000841 261582.000000 1 0 0
12.748199 11.010401 9.091615 19.141655 0.712384 1.075872 0.009577 -0.009478 -655134.000000 1 0 0
3.549699 12.241001 12.350015 17.747263 1.288553 0.801148 0.004502 0.001841 266874.000000 1 0 0
-3.391301 19.307601 5.916115 20.476445 -1.396924 1.277695 0.014364 -0.008811 130083.000000 1 0 0
-2.686201 15.765101 10.323915 19.035159 -1.402028 0.997552 0.007078 -0.007217 -1259490.000000 1 0 0
2.179099 14.271801 7.729415 16.376099 1.419281 1.079246 0.005165 0.002114 -537713.000000 1 0 0
4.398499 17.397401 7.979815 19.639088 1.323161 1.152370 0.018353 -0.006599 102711.000000 1 0 0
-1.832001 13.527301 9.458915 16.607684 -1.436185 0.964837 -0.002593 0.000134 -836864.000000 1 0 0
5.869899 17.608301 2.989915 18.800201 1.249022 1.411082 -0.000035 -0.020084 553544.000000 1 0 0
7.300699 15.352801 -6.838185 18.324014 1.126917 1.953232 0.011186 -0.002963 -216682.000000 1 0 0
11.065499 7.697101 9.468415 16.472447 0.607763 0.958433 0.010802 -0.002342 976770.000000 1 0 0
9.139199 16.114601 -2.735485 18.726671 1.054891 1.717395 0.017087 -0.018143 -279195.000000 1 0 0
14.203899 11.136101 -6.764985 19.275075 0.664919 1.929404 0.000403 -0.000334 514688.000000 1 0 0
10.910299 6.625101 16.095215 20.542213 0.545721 0.670487 0.031634 -0.008771 222094.000000 1 0 0
8.569299 8.547001 10.215215 15.837763 0.784095 0.869785 0.010503 -0.001711 -598266.000000 1 0 0
16.415099 9.529201 4.351515 19.472977 0.525969 1.345429 0.014876 -0.008587 32410.600000 1 0 0
-3.262301 14.336801 4.780115 15.460788 -1.347059 1.256469 -0.009855 0.002061 -1252680.000000 1 0 0
4.543099 14.732001 12.374715 19.768793 1.271667 0.894419 0.006734 -0.007136 -203351.000000 1 0 0
16.025399 10.589901 -4.905885 19.824912 0.583944 1.820855 0.007748 0.001956 702064.000000 1 0 0
14.620299 14.167601 6.161815 21.270684 0.769674 1.276898 0.016604 0.002065 -793458.000000 1 0 0
6.154899 9.511801 9.285415 14.648415 0.996476 0.884230 0.001763 0.001426 1634880.000000 1 0 0
10.411599 12.184401 8.778715 18.273666 0.863694 1.069683 0.012201 -0.003372 538431.000000 1 0 0
8.069899 11.460601 -0.264385 14.019220 0.957295 1.589656 0.006812 -0.005240 -334229.000000 1 0 0
7.546699 13.312501 -8.626685 17.566873 1.055080 2.084122 0.014391 -0.007184 -885782.000000 1 0 0
2.879499 15.310201 -2.167585 15.728706 1.384891 1.709047 0.003060 -0.005132 514354.000000 1 0 0
12.269199 13.660301 -7.577585 19.863455 0.838996 1.962197 0.029189 -0.012847 588951.000000 1 0 0
-8.013101 14.580501 9.785915 19.301941 -1.068278 1.039106 0.010721 -0.022373 198234.000000 1 0 0
11.471599 9.707301 2.360315 15.211849 0.702286 1.415004 0.012147 0.000733 -2414020.000000 1 0 0
12.126299 8.746201 4.539815 15.625398 0.624852 1.276004 0.004707 -0.000352 227402.000000 1 0 0
14.117699 8.042501 6.064415 17.342675 0.517823 1.213565 0.005960 -0.003643 -924059.000000 1 0 0
16.314699 7.524901 7.299415 19.392653 0.432157 1.184888 0.017103 -0.002920 -367136.000000 1 0 0
13.614099 8.375001 2.331415 16.153013 0.551500 1.425957 0.003057 -0.000839 -2127200.000000 1 0 0
-4.249501 17.503201 -7.082785 19.354228 -1.332620 1.945456 0.004839 -0.003547 80021.800000 1 0 0
2.979799 19.705501 -3.982385 20.323517 1.420717 1.768022 0.012749 -0.004462 514315.000000 1 0 0
-0.091201 14.805501 6.467615 16.156770 -1.564636 1.158948 0.004496 0.002112 1545710.000000 1 0 0
6.750499 16.338001 8.152415 19.466930 1.178982 1.138692 0.016264 0.005320 -1036720.000000 1 0 0
12.751199 15.215801 -2.122385 19.965425 0.873296 1.677301 0.024086 -0.008856 -395637.000000 1 0 0
12.532299 15.892501 4.194315 20.669358 0.903066 1.366453 0.018008 -0.002801 155503.000000 1 0 0
3.016799 17.960401 1.355915 18.262409 1.404380 1.496482 0.018074 -0.019402 -528428.000000 1 0 0
10.343199 14.468201 -1.290985 17.831916 0.950146 1.643257 0.012430 -0.001018 -1589450.000000 1 0 0
-6.466301 15.779201 -0.511685 17.060423 -1.181871 1.600793 0.007465 -0.000791 -650024.000000 1 0 0
-3.845801 15.846301 -2.455685 16.490173 -1.332706 1.720270 0.006731 -0.001909 -308126.000000 1 0 0
-6.767601 17.137401 1.746915 18.507907 -1.194692 1.476268 0.007088 0.000052 -15977.500000 1 0 0
0.080899 19.423801 -6.261785 20.408345 1.566631 1.882651 0.026877 -0.009698 -201653.000000 1 0 0
4.788199 14.960601 7.015315 17.203519 1.261044 1.150771 0.011191 0.003078 -1186840.000000 1 0 0
8.624499 12.349401 7.017415 16.617274 0.961163 1.134819 0.007793 -0.000447 -794702.000000 1 0 0
-7.475601 17.513601 -5.640585 19.860187 -1.167364 1.858775 0.006498 -0.008670 422987.000000 1 0 0
-7.766401 17.848301 -1.226785 19.503431 -1.160374 1.633739 0.020193 -0.003765 -53181.800000 1 0 0
-13.636501 -9.291699 9.388915 18.985298 0.598123 1.053495 0.013674 -0.001027 -112208.000000 1 0 0
-12.474701 -13.123499 7.632915 19.649575 0.810738 1.171845 0.008983 0.005401 -152843.000000 1 0 0
-3.472401 -15.170799 12.513815 19.970135 1.345785 0.893580 -0.019052 0.005572 127292.000000 1 0 0
-2.134301 -13.978099 15.104515 20.690309 1.419278 0.752433 0.000114 0.002696 -698874.000000 1 0 0
-7.358501 -13.611799 12.521715 19.905325 1.075201 0.890448 0.009513 -0.008514 51758.400000 1 0 0
-9.764201 -11.641599 9.071115 17.696089 0.872879 1.032580 0.001784 -0.002190 442367.000000 1 0 0
-10.494701 -10.659799 11.305115 18.750352 0.793202 0.923630 0.010468 -0.006773 64286.200000 1 0 0
-5.879901 -12.311199 10.694015 17.334959 1.125224 0.905993 0.000165 0.000766 580317.000000 1 0 0
-12.495401 -10.497699 7.376415 17.909445 0.698733 1.146288 0.006471 0.003656 -29271.900000 1 0 0
-7.560501 -11.102599 12.289515 18.206072 0.972959 0.829801 0.001841 -0.009882 -867155.000000 1 0 0
-14.774901 -11.730499 7.407515 20.267550 0.671040 1.196641 0.016044 0.010176 726989.000000 1 0 0
-11.038601 -9.179399 9.175415 17.038202 0.693698 1.002116 0.001472 -0.003424 228387.000000 1 0 0
-5.345301 -12.101699 13.198215 18.687328 1.154867 0.786587 0.005369 0.001111 -664192.000000 1 0 0
3.845099 -12.402499 14.643815 19.571614 -1.270167 0.725426 -0.016396 -0.000876 -981162.000000 1 0 0
6.357099 -12.849899 14.095015 20.104777 -1.111382 0.793888 -0.000393 0.001271 -188750.000000 1 0 0
6.559799 -8.472699 16.061515 19.307767 -0.911969 0.588331 -0.006625 -0.005184 -318605.000000 1 0 0
0.685999 -1.706199 14.507415 14.623501 -1.188513 0.126086 -0.000389 -0.003546 -2515290.000000 1 0 0
-0.212001 -6.303499 15.491115 16.725839 1.537177 0.386647 0.000154 -0.007156 -350365.000000 1 0 0
-1.528801 -4.749899 18.393815 19.058625 1.259407 0.264904 0.009192 -0.019796 -2571550.000000 1 0 0
-5.303601 12.624401 12.980715 18.868032 -1.173077 0.812103 0.009447 -0.015741 987712.000000 1 0 0
-4.055701 8.809201 11.709615 15.204138 -1.139333 0.691705 -0.002169 -0.001096 -73812.600000 1 0 0
-0.597701 -3.875799 15.036515 15.539493 1.417788 0.255123 0.003078 -0.005902 -231726.000000 1 0 0
-4.387401 9.232201 14.283215 17.563970 -1.127162 0.621148 0.006611 -0.004131 379118.000000 1 0 0
-13.402101 -2.233299 16.939715 21.715383 0.165121 0.676004 -0.006873 0.009294 -124861.000000 1 0 0
-0.277201 0.794301 17.308515 17.328948 -1.235024 0.048567 0.005381 -0.001945 615910.000000 1 0 0
-3.268401 -7.267199 15.398115 17.337721 1.148153 0.477541 0.013612 -0.010534 95322.900000 1 0 0
-7.385601 5.590701 12.501215 15.559030 -0.647949 0.637695 0.004957 -0.003604 -1488960.000000 1 0 0
-9.839301 9.960301 13.351115 19.346103 -0.791509 0.809143 0.002729 -0.009998 719131.000000 1 0 0
-5.468001 2.279901 11.125915 12.604879 -0.395035 0.489289 0.002121 0.000817 -747246.000000 1 0 0
-7.177801 -7.384999 16.911615 19.800549 0.799625 0.546982 0.014631 -0.009018 137705.000000 1 0 0
-4.756301 2.853001 18.640015 19.447678 -0.540299 0.289208 0.005696 0.001093 -1272360.000000 1 0 0
0.960199 -8.344199 16.487115 18.503313 -1.456226 0.471174 -0.006460 -0.007295 647814.000000 1 0 0
-15.107501 -3.431999 14.133715 20.970863 0.223381 0.831228 0.015755 -0.004801 713016.000000 1 0 0
-14.319701 2.007101 13.020115 19.457792 -0.139256 0.837737 -0.005974 0.002215 -111773.000000 1 0 0
-5.554401 0.938401 15.969315 16.933723 -0.167367 0.339119 0.008666 -0.001211 435899.000000 1 0 0
4.643599 5.770901 15.314715 17.011960 0.893222 0.450494 0.003515 0.005725 -502112.000000 1 0 0
-1.002301 -12.001999 13.860215 18.361867 1.487478 0.715391 -0.012211 0.000304 -237069.000000 1 0 0
-5.894201 -4.094399 16.769315 18.240494 0.607125 0.404383 0.019722 -0.007327 -51403.800000 1 0 0
-12.950001 -1.564199 9.892415 16.370984 0.120205 0.921953 0.002956 0.005923 -808137.000000 1 0 0
-14.332501 10.344101 10.102415 20.358777 -0.625157 1.051558 -0.005354 -0.010584 565992.000000 1 0 0
-3.593101 -3.364399 17.700715 18.372394 0.752539 0.271235 0.018462 -0.012303 -76573.100000 1 0 0
-7.935801 9.265801 11.879415 17.027992 -0.862563 0.798698 0.006331 -0.014903 -171803.000000 1 0 0
-4.123801 10.696201 16.328115 19.950483 -1.202818 0.612119 0.009045 -0.004523 265960.000000 1 0 0
-12.414701 12.768401 8.348715 19.668703 -0.799442 1.132423 0.000397 -0.019374 341428.000000 1 0 0
-12.590101 3.106801 10.540115 16.710981 -0.241932 0.888303 0.001703 -0.002260 847308.000000 1 0 0
-10.185001 -3.520199 13.712815 17.440394 0.332773 0.666052 0.007484 0.001214 -1441300.000000 1 0 0
-4.229501 -6.444299 17.714615 19.319039 0.989993 0.410425 0.025690 -0.012872 -484536.000000 1 0 0
0.819499 -3.672599 17.828515 18.221293 -1.351254 0.208009 0.002685 -0.020766 -834780.000000 1 0 0
-5.850701 1.835101 13.645515 14.959892 -0.303937 0.422321 0.005651 0.000823 -833905.000000 1 0 0
-10.533801 8.658801 10.293915 17.085095 -0.688013 0.924156 0.006293 -0.019015 -500317.000000 1 0 0
4.569199 2.455901 17.125715 17.894109 0.493188 0.294116 0.001886 -0.003327 -185891.000000 1 0 0
0.551899 -5.350999 13.141715 14.200086 -1.468020 0.388529 -0.000171 -0.003636 -905813.000000 1 0 0
-4.166401 5.543301 20.860115 21.982526 -0.926266 0.320935 0.030721 -0.000876 -18392.800000 1 0 0
-10.828701 10.863101 9.147215 17.858871 -0.786984 1.033058 0.008377 -0.020695 32555.100000 1 0 0
0.629599 4.205901 13.113915 13.786253 1.422205 0.313593 0.002308 -0.002475 -2992120.000000 1 0 0
-3.144001 7.122201 13.368615 15.470305 -1.155086 0.527344 0.001262 0.002099 -763033.000000 1 0 0
0.549099 8.821101 14.065715 16.611973 1.508628 0.561004 -0.004234 -0.002975 10587.400000 1 0 0
-4.144701 -6.680299 13.037115 15.224037 1.015485 0.542636 0.009807 -0.003742 -55792.800000 1 0 0
-4.943201 8.222801 16.585115 19.160264 -1.029526 0.524450 0.010539 0.005183 470399.000000 1 0 0
1.502099 -10.718899 15.739115 19.101593 -1.431567 0.602417 -0.017911 0.002440 -175236.000000 1 0 0
-15.011901 -0.894899 14.297415 20.750279 0.059542 0.810657 -0.003712 0.008392 496065.000000 1 0 0
-13.671701 -5.223899 8.320715 16.835641 0.364977 1.053845 0.010860 -0.000861 -610703.000000 1 0 0
-14.201801 -1.857399 12.105115 18.752997 0.130048 0.869115 0.006518 0.000744 222154.000000 1 0 0
9.376199 0.972201 16.900715 19.351807 0.103319 0.508778 0.033585 -0.006927 -909033.000000 1 0 0
4.956899 -6.738399 16.650015 18.633300 -0.936562 0.465578 -0.002651 -0.021862 318851.000000 1 0 0
-6.204401 -2.669799 11.016415 12.922222 0.406357 0.550014 0.004766 -0.000178 507636.000000 1 0 0
0.559899 -6.234999 17.945315 19.005868 -1.481237 0.335643 0.002422 -0.020457 -173074.000000 1 0 0
-8.389301 11.842801 12.166115 18.937968 -0.954463 0.873145 0.001493 -0.014399 25419.500000 1 0 0
-6.621401 -5.736599 14.748415 17.154220 0.713923 0.536008 0.018132 -0.003361 -499995.000000 1 0 0
-4.306801 -8.971999 17.184115 19.857973 1.123254 0.524946 0.022661 -0.009715 88191.800000 1 0 0
2.432799 -6.198199 16.126715 17.447267 -1.196771 0.391568 -0.005444 -0.014089 -902632.000000 1 0 0
2.262099 5.157101 16.094215 17.050998 1.157431 0.336588 0.000462 -0.001535 -235958.000000 1 0 0
0.914899 -8.836199 13.968815 16.554252 -1.467624 0.566433 -0.009488 -0.000425 -383849.000000 1 0 0
-10.085001 -2.811399 11.293115 15.399534 0.271868 0.747573 -0.002731 0.001075 -38425.600000 1 0 0
-1.278701 10.176201 12.448115 16.129033 -1.445795 0.689156 -0.003766 -0.000235 -817020.000000 1 0 0
-12.501501 -3.781999 11.278415 17.256700 0.293770 0.858508 0.010567 -0.000000 -1401540.000000 1 0 0
-1.841901 6.454801 20.155715 21.244055 -1.292830 0.321477 0.017866 -0.001895 -580829.000000 1 0 0
0.268699 -13.323199 15.736515 20.620808 -1.550631 0.702642 -0.020845 -0.000466 -853767.000000 1 0 0
4.016699 -8.770199 15.304415 18.090754 -1.141314 0.562396 -0.007032 -0.001990 -348362.000000 1 0 0
4.336899 -4.432099 16.175415 17.323286 -0.796254 0.366079 0.002354 -0.010402 -245834.000000 1 0 0
8.014999 1.775601 14.843515 16.962397 0.218014 0.505188 0.011490 0.001722 685361.000000 1 0 0
-6.281501 -0.055199 11.824115 13.389174 0.008787 0.488346 0.005660 0.000854 398685.000000 1 0 0
-3.565201 -11.042999 18.519015 21.854345 1.258513 0.559758 0.031100 -0.006478 -995671.000000 1 0 0
3.179199 -1.473699 13.669915 14.111898 -0.434060 0.250937 -0.000579 -0.004745 -288686.000000 1 0 0
-2.403601 8.645201 15.962115 18.311360 -1.299618 0.512124 0.008687 -0.003594 -548105.000000 1 0 0
-3.247201 3.966701 14.872415 15.731108 -0.884807 0.331933 0.005385 0.000568 -987248.000000 1 0 0
-4.480801 -9.081899 19.833715 22.269592 1.112461 0.472092 0.028007 -0.014015 95683.200000 1 0 0
-5.832201 -2.875399 19.085115 20.162443 0.458049 0.328375 0.017785 -0.012926 -675154.000000 1 0 0
-6.595901 -8.601299 11.163615 15.560031 0.916599 0.770655 0.008942 -0.003926 -1843950.000000 1 0 0
-11.662501 2.384001 12.713715 17.416542 -0.201638 0.752505 0.004177 -0.003617 969466.000000 1 0 0
-11.663701 -7.650399 11.626015 18.158600 0.580522 0.875975 0.004951 -0.000775 -544963.000000 1 0 0
-11.002001 -7.517999 15.467815 20.416112 0.599450 0.711125 0.022131 -0.014563 206271.000000 1 0 0
0.363499 5.597601 17.735715 18.601636 1.505949 0.306322 0.005984 0.000228 -205636.000000 1 0 0
-2.283601 -0.189199 13.202115 13.399495 0.082662 0.171853 0.003431 -0.000422 106281.000000 1 0 0
-6.067101 -10.646399 18.420115 22.123656 1.052823 0.587014 0.021818 -0.001905 673011.000000 1 0 0
0.224099 2.624001 19.177615 19.357596 1.485599 0.136471 0.009648 -0.006860 -1058940.000000 1 0 0
-0.644101 11.055801 14.816915 18.498285 -1.512603 0.641852 0.004611 -0.000972 -305186.000000 1 0 0
-12.784001 -2.150099 14.361415 19.346934 0.166627 0.734286 0.004815 0.000351 -1385170.000000 1 0 0
-13.728901 8.412201 11.698015 19.902045 -0.549732 0.942485 0.008009 -0.011108 606653.000000 1 0 0
-18.100801 -0.542799 7.025915 19.424137 0.029979 1.200694 0.027095 -0.014720 -58453.900000 1 0 0
-2.084001 -7.855599 17.731715 19.505569 1.311481 0.429776 0.008146 -0.012607 -1345170.000000 1 0 0
5.589899 2.839201 14.444215 15.746218 0.469961 0.409517 0.004352 -0.000503 -1469180.000000 1 0 0
-14.300001 -7.238699 11.251015 19.582495 0.468597 0.958749 0.030562 0.000862 167233.000000 1 0 0
3.312199 7.573001 16.460515 18.419271 1.158495 0.465366 0.003954 -0.005537 -93221.500000 1 0 0
0.924099 2.003101 14.576815 14.742792 1.138557 0.150196 0.000005 -0.003158 -3085110.000000 1 0 0
-14.339001 0.690501 9.693615 17.321949 -0.048118 0.976876 0.001728 0.001383 -1695240.000000 1 0 0
-9.700201 -5.229099 15.557415 19.064903 0.494414 0.616298 0.013013 0.000085 31044.000000 1 0 0
-2.601101 -0.150699 18.193815 18.379427 0.057872 0.142239 0.009491 -0.004617 303600.000000 1 0 0
6.836699 3.618301 17.443115 19.081269 0.486770 0.417394 0.020529 -0.006489 -530228.000000 1 0 0
-4.242101 -0.870899 14.712115 15.336238 0.202486 0.286269 0.011921 0.000194 -1151380.000000 1 0 0
4.638699 -8.970599 17.855415 20.513533 -1.093562 0.514739 -0.005244 -0.003374 -289723.000000 1 0 0
1.913599 6.957201 13.565915 15.365499 1.302381 0.488833 0.002244 0.001809 -1386290.000000 1 0 0
-3.736601 -0.826499 20.420315 20.775816 0.217685 0.185258 0.016300 -0.005682 -870143.000000 1 0 0
-10.525201 1.602301 16.331715 19.495439 -0.151075 0.577702 -0.001311 0.002961 -72490.700000 1 0 0
-3.971501 6.967601 18.661715 20.312062 -1.052731 0.405893 0.020946 0.006872 -10387.000000 1 0 0
-12.601701 1.152201 14.808315 19.478620 -0.091179 0.707123 -0.000200 0.003312 -935493.000000 1 0 0
-16.133101 -4.810999 8.456715 18.839816 0.289811 1.105291 0.019173 -0.005033 -1239640.000000 1 0 0
-2.377901 0.682401 15.713115 15.906667 -0.279466 0.156159 0.007221 -0.000894 22581.300000 1 0 0
-13.401501 -8.725599 13.241615 20.762386 0.577142 0.879198 -0.005468 -0.006227 460546.000000 1 0 0
5.945599 -3.238999 14.452315 15.959658 -0.498821 0.438115 0.002422 -0.013028 568785.000000 1 0 0
-15.731101 0.406101 7.573715 17.464066 -0.025809 1.122230 0.008950 -0.005974 247521.000000 1 0 0
-14.328801 5.995101 12.126115 19.705289 -0.396263 0.907936 0.016140 -0.017702 469716.000000 1 0 0
0.440099 9.679001 16.586315 19.208919 1.525358 0.528688 0.005016 -0.006887 -393896.000000 1 0 0
-10.506401 -5.521299 10.890815 16.108354 0.483853 0.828343 0.008773 0.000941 336124.000000 1 0 0
-3.226101 -11.102699 15.064715 18.990084 1.288014 0.654596 0.006475 0.002404 -363153.000000 1 0 0
-3.428301 2.682701 12.680115 13.406545 -0.663989 0.330700 0.000253 0.000871 -2108810.000000 1 0 0
-12.411701 -7.835399 7.460615 16.465254 0.563111 1.100542 0.009175 0.001098 476451.000000 1 0 0
-8.286901 -1.933699 13.204315 15.708783 0.229242 0.572464 0.007625 -0.000107 162528.000000 1 0 0
-9.755001 6.435801 9.582415 15.112983 -0.583194 0.884015 0.006494 -0.011698 -900461.000000 1 0 0
-17.978301 -3.473799 6.580215 19.457282 0.190870 1.225806 0.017223 -0.013508 317343.000000 1 0 0
-1.310301 -0.088899 20.618615 20.660399 0.067743 0.063610 0.013113 -0.008020 -1000800.000000 1 0 0
-2.723401 2.523201 20.154415 20.493509 -0.747259 0.182166 0.013574 -0.007937 -636844.000000 1 0 0
-3.843601 11.259601 11.221815 16.354847 -1.241837 0.814618 0.000683 -0.010867 -891259.000000 1 0 0
-4.219701 -4.802199 14.853615 16.170865 0.849874 0.406420 0.014517 -0.006872 -765270.000000 1 0 0
-0.181201 -14.415299 13.376715 19.666474 1.558227 0.822790 -0.013836 0.003889 -870073.000000 1 0 0
-12.074601 0.347001 8.319615 14.667392 -0.028730 0.967672 0.003747 -0.000646 -417305.000000 1 0 0
-7.797801 2.312301 15.274615 17.305094 -0.288272 0.489292 0.008782 -0.000721 -1378340.000000 1 0 0
3.375699 -2.294199 18.439115 18.885435 -0.596918 0.217838 0.007140 -0.014994 -406895.000000 1 0 0
-2.139701 4.910901 12.689015 13.773393 -1.159894 0.399463 -0.003722 0.000634 -544768.000000 1 0 0
-10.230101 -6.226399 13.303715 17.900051 0.546745 0.732923 -0.000763 -0.003002 -606915.000000 1 0 0
2.332499 -3.761899 14.234615 14.906935 -1.015777 0.301477 -0.004515 -0.005442 -681125.000000 1 0 0
6.750099 1.034001 17.116215 18.428180 0.152001 0.379617 0.009957 -0.001211 -55882.400000 1 0 0
-1.962401 -5.657499 13.749815 14.997191 1.236915 0.410739 0.003915 -0.006030 -2542520.000000 1 0 0
-13.105201 3.684101 14.549015 19.924676 -0.274045 0.752181 0.005951 0.000836 256466.000000 1 0 0
-13.092501 -6.158799 13.315915 19.663621 0.439694 0.826866 -0.011789 -0.011243 -1101260.000000 1 0 0
-9.664201 6.828301 12.113615 16.934053 -0.615113 0.773685 0.010418 -0.007383 -530137.000000 1 0 0
-0.983701 -2.397099 12.820115 13.079339 1.181381 0.199425 0.001377 -0.000362 276619.000000 1 0 0
0.096799 6.601601 15.407415 16.762426 1.556134 0.404844 0.001978 -0.001534 89841.000000 1 0 0
-16.433901 -0.816699 9.787815 19.145271 0.049655 1.034170 0.015378 0.000667 85332.900000 1 0 0
-1.322401 2.688101 13.859715 14.179786 -1.113612 0.212874 -0.000304 -0.000254 -3374850.000000 1 0 0
-11.270801 -3.301599 16.114815 19.940380 0.284962 0.629792 0.005863 -0.006704 -11189.100000 1 0 0
-5.252401 -1.436099 17.143015 17.987025 0.266895 0.307554 0.020243 -0.000227 325211.000000 1 0 0
-11.922601 6.629401 11.181415 17.638634 -0.507466 0.884190 0.007946 -0.008314 -2852920.000000 1 0 0
-2.790601 4.638601 18.722015 19.488918 -1.029198 0.281466 0.015943 0.000684 282723.000000 1 0 0
5.103199 -1.919399 16.492015 17.369896 -0.359749 0.319287 0.004881 -0.010364 -804389.000000 1 0 0
-8.090001 -4.172599 12.182615 15.207722 0.476186 0.641698 0.008881 -0.000568 -1398820.000000 1 0 0
-11.402701 -0.719299 16.132115 19.768260 0.062998 0.616233 -0.001900 0.002347 241444.000000 1 0 0
2.028499 2.068201 17.441615 17.680560 0.795089 0.164591 0.000056 -0.002090 -837341.000000 1 0 0
-8.977801 -7.545599 11.637915 16.522047 0.698937 0.789237 0.007175 -0.000837 776925.000000 1 0 0
-7.190301 6.877901 14.837815 17.865237 -0.763196 0.590718 0.000598 0.000827 -332010.000000 1 0 0
-5.616301 3.446401 15.751615 17.074363 -0.550390 0.396210 0.005879 0.001015 -340926.000000 1 0 0
-9.290401 4.249101 11.513215 15.392223 -0.428961 0.725769 0.005346 -0.007446 50537.400000 1 0 0
-10.189901 0.340201 14.117615 17.414272 -0.033374 0.625463 0.008306 -0.001806 -241213.000000 1 0 0
7.934799 -0.732199 15.592915 17.511029 -0.092016 0.472436 0.009355 -0.009687 -173407.000000 1 0 0
-8.525701 -7.506999 14.742515 18.611404 0.721944 0.656517 0.019748 -0.003494 -3315350.000000 1 0 0
-0.065501 4.044201 15.681415 16.194648 -1.554601 0.252430 0.000291 -0.003779 -231327.000000 1 0 0
-8.068701 3.199601 9.571415 12.921043 -0.377524 0.736593 0.001079 -0.000674 -575033.000000 1 0 0
-2.168301 -9.729199 13.168615 16.515788 1.351515 0.647930 -0.007559 0.002919 585125.000000 1 0 0
-6.079301 10.229601 10.546815 15.900878 -1.034589 0.845596 0.007831 -0.014750 -1974670.000000 1 0 0
-8.637901 -2.787299 15.697515 18.132687 0.312134 0.524244 0.011033 -0.004278 524644.000000 1 0 0
4.158899 5.553101 17.855315 19.155825 0.927979 0.370604 0.002818 -0.004629 156643.000000 1 0 0
-6.852901 -0.971399 15.178815 16.682395 0.140812 0.427825 0.010366 0.000684 -714242.000000 1 0 0
-0.975601 -9.833499 15.422515 18.316754 1.471908 0.569836 -0.012638 -0.001107 -169887.000000 1 0 0
-4.220701 5.684601 16.286115 17.758562 -0.932126 0.410089 0.007769 0.001430 676646.000000 1 0 0
3.590099 0.068001 17.440815 17.806613 0.018939 0.203045 -0.002059 -0.008324 -797857.000000 1 0 0
1.342799 0.358601 19.305315 19.355281 0.260965 0.071870 0.002256 -0.006866 -525648.000000 1 0 0
-6.314201 6.342201 17.825815 19.946236 -0.787610 0.465286 0.007057 0.006535 -309394.000000 1 0 0
-12.102401 0.519801 10.960615 16.336260 -0.042924 0.835323 0.008472 0.001643 -183302.000000 1 0 0
-5.342801 5.221801 13.952715 15.826907 -0.773945 0.491593 0.004307 0.000834 -906143.000000 1 0 0
-8.578401 -9.522699 9.986915 16.248361 0.837519 0.908865 0.004996 -0.001265 -744494.000000 1 0 0
6.781699 -3.730599 16.952715 18.636077 -0.502918 0.428303 0.007183 -0.014170 -779297.000000 1 0 0
-16.719301 1.753201 9.760215 19.438892 -0.104479 1.044774 0.015123 -0.001363 345115.000000 1 0 0
-4.193801 -9.514999 11.430915 15.452799 1.155656 0.738126 0.001101 -0.002072 -426562.000000 1 0 0
-11.097801 -3.868299 9.141515 14.889332 0.335395 0.909723 0.000698 0.004597 -30466.500000 1 0 0
3.514099 -5.446199 18.463815 19.568404 -0.997775 0.337600 -0.003928 -0.020011 -309815.000000 1 0 0
2.529999 -1.891399 16.084115 16.391371 -0.641956 0.193927 0.000545 -0.008233 -452205.000000 1 0 0
-3.270501 -4.306499 20.155715 20.868516 0.921285 0.262118 0.019326 -0.023633 -806036.000000 1 0 0
-6.357401 -3.309699 14.347015 16.037690 0.479996 0.463303 0.015053 -0.000623 119778.000000 1 0 0
-9.629501 5.007001 13.917615 17.649287 -0.479492 0.662324 0.006391 -0.000358 632848.000000 1 0 0
-5.823601 -5.119499 11.753115 14.080458 0.721145 0.583188 0.008667 -0.000077 89418.200000 1 0 0
5.969199 2.048101 19.430515 20.429659 0.330525 0.314040 0.016296 -0.006732 -211607.000000 1 0 0
-2.868001 11.794501 13.549615 18.191419 -1.332262 0.730508 0.010996 -0.018655 -295471.000000 1 0 0
3.378999 1.375501 15.179115 15.611379 0.386589 0.235872 0.000255 -0.002842 -500024.000000 1 0 0
-5.722601 7.565701 12.836915 15.961653 -0.923220 0.636410 -0.000837 -0.004059 -2000320.000000 1 0 0
-1.934401 -1.802499 15.177515 15.406098 0.750116 0.172476 0.006385 -0.002650 -248386.000000 1 0 0
-7.357901 10.461601 14.174015 19.091529 -0.957843 0.734114 0.017164 -0.011096 -141175.000000 1 0 0
-10.124301 2.073601 10.597815 14.802532 -0.202020 0.772818 0.005364 -0.003000 -2383560.000000 1 0 0
-13.600201 5.161601 9.186015 17.204373 -0.362731 1.007549 -0.007616 -0.005606 -324045.000000 1 0 0
0.492399 -4.832499 20.064815 20.644425 -1.469254 0.237522 0.010919 -0.028256 -144891.000000 1 0 0
-14.474101 -2.923599 7.512115 16.567405 0.199307 1.100189 0.007274 -0.002954 485465.000000 1 0 0
-2.381701 2.442901 17.619615 17.946896 -0.798082 0.191268 0.004175 -0.002058 -213513.000000 1 0 0
-6.158101 -8.388099 14.734515 18.038524 0.937518 0.614892 0.009767 -0.000409 -32994.900000 1 0 0
-7.929701 1.972901 11.924215 14.455428 -0.243848 0.600779 0.003923 -0.000827 275202.000000 1 0 0
-14.609601 -3.431099 10.041515 18.056713 0.230672 0.981099 0.007818 -0.004525 235761.000000 1 0 0
-0.570401 6.967301 12.851715 14.629942 -1.489110 0.498182 -0.000769 -0.001763 -1416250.000000 1 0 0
-1.823801 -2.292299 19.409815 19.629615 0.898731 0.149789 0.011056 -0.011116 -74802.700000 1 0 0
-12.801701 10.402601 7.348415 18.058152 -0.682374 1.151705 0.004537 -0.024710 242288.000000 1 0 0
-19.387001 2.282301 6.904515 20.705966 -0.117184 1.230830 0.027161 -0.017112 563360.000000 1 0 0
-15.903101 8.513501 6.686115 19.237787 -0.491515 1.215838 -0.003696 -0.005790 485178.000000 1 0 0
-12.566301 7.317601 13.632315 19.932366 -0.527318 0.817662 0.021064 -0.002326 206762.000000 1 0 0
-15.914501 8.274001 10.235615 20.651834 -0.479443 1.052239 -0.001574 -0.004348 280272.000000 1 0 0
1.910299 10.918201 14.672815 18.388797 1.397585 0.646957 0.006889 -0.019205 -1469120.000000 1 0 0
2.061399 14.386601 12.864615 19.409327 1.428479 0.846237 -0.003795 -0.000590 -865729.000000 1 0 0
-3.215501 13.680401 11.765215 18.327932 -1.339942 0.873786 0.001636 -0.012336 -175000.000000 1 0 0
8.943599 4.950401 15.692315 18.728139 0.505537 0.577371 0.025846 -0.000851 -384387.000000 1 0 0
-0.498201 12.664401 12.854215 18.051761 -1.531478 0.778347 -0.005103 -0.006819 -742424.000000 1 0 0
3.816699 13.585301 14.633115 20.328690 1.296913 0.767245 0.007245 0.003060 2421.670000 1 0 0
-2.749401 -3.981399 -13.768685 14.594089 0.966433 2.803662 0.004698 -0.008360 -538776.000000 1 0 0
5.690199 -11.578499 16.259715 20.756164 -1.114016 0.670730 -0.013194 0.002554 -8008.830000 1 0 0
7.801899 -13.574999 7.271115 17.263237 -1.049168 1.136039 -0.003219 -0.005385 -271110.000000 1 0 0
-0.119401 15.658301 1.261315 15.709473 -1.563171 1.490420 -0.000498 -0.002951 -3080130.000000 1 0 0
-13.599901 8.062401 9.012115 18.198292 -0.535129 1.052711 -0.002005 -0.011688 652860.000000 1 0 0
-15.481101 -9.734099 4.988615 18.955301 0.561308 1.304482 0.007005 0.004937 -670990.000000 1 0 0
9.460399 -11.258199 11.016615 18.374221 -0.871954 0.927834 0.015734 -0.009147 65912.800000 1 0 0
-5.658501 -10.319799 -16.879885 20.577838 1.069248 2.532722 0.024302 -0.003385 -6636.950000 1 0 0
-1.848801 -12.661799 -14.719385 19.503834 1.425807 2.425981 0.011660 -0.001921 -310862.000000 1 0 0
5.613599 -15.375199 -12.923285 20.854749 -1.220727 2.239132 0.009332 -0.010146 330417.000000 1 0 0
2.890799 -11.901199 -16.582485 20.614899 -1.332511 2.505450 0.013706 -0.009141 238545.000000 1 0 0
0.496999 -13.968399 -14.510885 20.147679 -1.535231 2.374925 0.024505 0.001793 -61056.500000 1 0 0
-6.349401 -6.290499 -14.513785 17.045094 0.780738 2.589623 0.009749 -0.003890 -109994.000000 1 0 0
-6.423401 -8.161199 -17.319985 20.195226 0.903992 2.601435 0.019182 -0.000589 49155.700000 1 0 0
-2.240701 -16.220599 -13.311385 21.102643 1.433526 2.253370 0.013179 -0.002542 249987.000000 1 0 0
15.968799 -8.287899 -8.803285 20.029719 -0.478736 2.025851 0.007799 0.000257 -19447.500000 1 0 0
19.160099 -3.449499 -3.565185 19.791892 -0.178127 1.751919 0.024955 -0.010250 268150.000000 1 0 0
15.625499 -12.100599 -8.566085 21.539697 -0.658944 1.979792 0.024092 0.004849 38832.300000 1 0 0
18.539399 -3.074699 -6.733485 19.962538 -0.164351 1.914850 0.129049 0.005493 -216011.000000 1 0 0
9.011799 -9.908699 -15.854785 20.754977 -0.832766 2.440136 0.030234 0.000593 126354.000000 1 0 0
-4.605401 9.736601 -16.178585 19.435991 -1.128982 2.554227 0.006506 -0.004541 562535.000000 1 0 0
2.485899 -9.481999 -18.821985 21.221572 -1.314396 2.661446 0.019761 0.003649 114329.000000 1 0 0
11.172899 8.074001 -15.201285 20.520776 0.625761 2.405020 0.034238 -0.035107 307239.000000 1 0 0
18.371799 -6.068599 -8.664085 21.199464 -0.319037 1.991819 0.013529 0.004048 162608.000000 1 0 0
12.465699 5.328701 -13.806185 19.349404 0.403960 2.365306 0.007544 -0.014724 170917.000000 1 0 0
15.921999 5.640701 -11.016685 20.166678 0.340475 2.148715 -0.002004 -0.014030 -24635.000000 1 0 0
3.499399 -0.615999 -19.350285 19.673810 -0.174245 2.959990 0.028936 -0.007317 289887.000000 1 0 0
10.214199 -1.628799 -14.762085 18.025038 -0.158133 2.530422 0.014336 0.000882 85440.900000 1 0 0
12.277399 -5.808999 -14.053685 19.544438 -0.441934 2.373250 0.027378 0.003502 118895.000000 1 0 0
10.107299 6.539501 -12.853685 17.610786 0.574269 2.388936 0.013084 -0.010745 417556.000000 1 0 0
10.564399 5.487801 -16.681785 20.494010 0.479095 2.521773 0.021138 -0.003158 378641.000000 1 0 0
11.986499 -10.092799 -14.994485 21.688138 -0.699839 2.334177 0.036406 -0.011416 263612.000000 1 0 0
-1.404201 2.277701 -17.779585 17.979804 -1.018333 2.992217 0.003324 -0.002278 273831.000000 1 0 0
5.296299 -1.032499 -17.348985 18.168768 -0.192533 2.840050 0.003234 0.009613 -693005.000000 1 0 0
7.313399 -6.628999 -15.951185 18.758191 -0.736350 2.587462 0.012605 0.003539 200675.000000 1 0 0
-2.490801 -4.730099 -20.267085 20.960264 1.086107 2.883697 0.034218 -0.023637 254512.000000 1 0 0
16.075999 -0.291299 -13.551685 21.027857 -0.018118 2.271118 0.013335 0.006283 136794.000000 1 0 0
-3.919101 -0.447199 -18.464485 18.881116 0.113616 2.931128 0.004345 -0.006626 110259.000000 1 0 0
4.043299 8.464401 -18.273685 20.540738 1.125161 2.667334 0.013905 -0.007741 248992.000000 1 0 0
10.169899 0.442501 -17.309185 20.080601 0.043483 2.609970 0.033138 -0.003328 -163639.000000 1 0 0
4.115799 4.338601 -18.239485 19.194845 0.811745 2.824764 0.014544 -0.008614 491699.000000 1 0 0
-2.927201 -10.899399 -17.962785 21.213841 1.308422 2.580639 0.029527 -0.019561 236778.000000 1 0 0
6.606399 -9.217299 -16.442885 19.974273 -0.948924 2.537826 0.020043 -0.001452 323835.000000 1 0 0
9.990199 -12.272099 -10.807085 19.162505 -0.887542 2.169982 0.010039 0.001278 204752.000000 1 0 0
6.156199 6.865001 -17.143485 19.466024 0.839779 2.648108 0.024880 -0.010228 61277.600000 1 0 0
7.952599 1.171401 -20.103885 21.651379 0.146246 2.761221 0.009063 -0.003109 142979.000000 1 0 0
-1.085801 -0.721699 -20.320185 20.361968 0.586619 3.077519 0.023944 -0.008192 155052.000000 1 0 0
-1.155001 6.793001 -19.541185 20.720444 -1.402379 2.802591 0.000491 -0.004838 -5198.130000 1 0 0
8.293699 6.312001 -17.669885 20.514669 0.650542 2.608677 0.025047 -0.019873 110608.000000 1 0 0
11.921899 0.092601 -12.932485 17.589469 0.007767 2.396817 -0.000901 0.000833 -39481.200000 1 0 0
-4.154001 -2.415499 -19.780585 20.355881 0.526696 2.903282 -0.003092 -0.006305 407916.000000 1 0 0
5.764699 -11.409399 -14.693985 19.476122 -1.102951 2.425630 -0.009035 -0.002599 134508.000000 1 0 0
11.466399 2.848001 -15.947285 19.847048 0.243451 2.503963 0.027410 0.001802 -107554.000000 1 0 0
-2.846201 -4.212299 -17.164085 17.901121 0.976574 2.853640 0.006102 -0.009654 374775.000000 1 0 0
-6.668701 -4.750399 -17.343085 19.178646 0.618962 2.700513 0.016473 -0.012071 86863.400000 1 0 0
3.150999 10.246901 -15.283185 18.668249 1.272466 2.529892 -0.003744 -0.012943 144418.000000 1 0 0
16.867399 -6.396599 -10.901885 21.077873 -0.362473 2.114395 0.027874 -0.002323 -9230.270000 1 0 0
9.504799 -3.770299 -17.550185 20.311705 -0.377635 2.614042 0.004744 -0.011607 91301.500000 1 0 0
-7.344201 -1.354899 -18.691385 20.128113 0.182434 2.761475 0.005574 0.000295 611133.000000 1 0 0
1.626599 -7.199099 -19.277685 20.642238 -1.348583 2.775953 0.031802 -0.020407 146957.000000 1 0 0
6.057999 10.592001 -13.919485 18.510589 1.051264 2.421848 0.016597 -0.009355 522197.000000 1 0 0
6.077399 -3.999699 -17.169485 18.647348 -0.582067 2.740786 0.023438 -0.029504 345137.000000 1 0 0
4.740399 13.356601 -14.579485 20.333016 1.229754 2.370336 0.008308 -0.011414 110379.000000 1 0 0
9.011599 11.302701 -15.261585 21.020845 0.897706 2.383315 0.028726 -0.026460 208216.000000 1 0 0
16.846499 0.858801 -11.107285 20.196877 0.050934 2.153101 0.014913 -0.001422 95286.300000 1 0 0
15.160799 -3.019199 -12.209385 19.698591 -0.196573 2.239297 0.027172 0.001524 120749.000000 1 0 0
-8.786001 0.300901 -17.349285 19.449474 -0.034234 2.672587 0.013990 -0.004373 431445.000000 1 0 0
-3.395201 4.514701 -19.100085 19.917911 -0.925996 2.854038 0.012385 0.004352 35222.400000 1 0 0
4.371099 2.337301 -16.527585 17.254870 0.491034 2.850220 0.017690 -0.015530 399777.000000 1 0 0
-5.071201 14.582001 -13.692385 20.635727 -1.236108 2.296321 0.022101 -0.005337 324496.000000 1 0 0
0.914399 9.658401 -17.622185 20.116218 1.476404 2.638341 0.002123 -0.006737 511022.000000 1 0 0
1.277299 -4.977299 -19.782785 20.439266 -1.319592 2.887459 0.029722 -0.008320 345443.000000 1 0 0
3.708099 -6.188699 -17.921285 19.318966 -1.030985 2.758873 0.022744 -0.023081 -18165.700000 1 0 0
-6.854501 7.675401 -15.995185 19.019514 -0.841835 2.569903 -0.000595 0.003381 74488.100000 1 0 0
-12.100601 3.380701 -16.899885 21.058485 -0.272436 2.502306 0.035239 -0.011507 413977.000000 1 0 0
-4.245301 6.880201 -17.145085 18.955571 -1.017948 2.700974 -0.000217 0.005414 426216.000000 1 0 0
-8.070801 5.285001 -17.995085 20.417937 -0.579763 2.649481 0.001950 0.006396 189653.000000 1 0 0
-8.892901 4.802401 -15.365585 18.391518 -0.495154 2.559786 0.000420 -0.000843 512330.000000 1 0 0
9.511499 13.378701 -12.662485 20.731541 0.952763 2.227846 0.031368 -0.025669 429384.000000 1 0 0
14.044699 9.270601 -12.267485 20.825196 0.583428 2.200703 0.023680 -0.015169 78317.500000 1 0 0
8.825699 15.460101 -9.807485 20.324725 1.052072 2.074348 0.021165 -0.012207 111725.000000 1 0 0
7.694699 14.237101 -14.168985 21.509616 1.075301 2.289923 0.038296 -0.013811 167563.000000 1 0 0
4.029699 15.355001 -12.783385 20.382087 1.314148 2.248733 0.022234 -0.021083 80790.300000 1 0 0
10.942899 11.720801 -10.979885 19.434045 0.819708 2.171208 0.016941 -0.018427 180938.000000 1 0 0
15.936899 10.466001 -10.397085 21.716844 0.581081 2.070034 0.025724 -0.007949 271823.000000 1 0 0
13.215299 11.206201 -10.309285 20.161955 0.703315 2.107521 0.034392 -0.011609 -3482.770000 1 0 0
10.545399 11.343901 -7.422185 17.174934 0.821861 2.017674 0.005965 -0.004749 18027.100000 1 0 0
5.467399 17.032401 -10.277385 20.630554 1.260187 2.092276 0.041760 -0.000224 12611.600000 1 0 0
11.775099 13.623301 -10.190285 20.690316 0.858039 2.085773 0.052597 -0.024202 271646.000000 1 0 0
8.335499 -19.445799 -1.607085 21.217973 -1.165836 1.646611 0.047754 -0.009695 287230.000000 1 0 0
7.532999 -16.961599 -4.020285 18.989592 -1.152842 1.784121 0.023762 -0.010924 291236.000000 1 0 0
3.709199 -19.067899 5.652715 20.231068 -1.378670 1.287619 0.021688 -0.003923 90257.100000 1 0 0
10.344899 -17.847999 -2.482685 20.778155 -1.045504 1.690568 0.033029 -0.007607 625312.000000 1 0 0
-3.197801 -14.651199 7.758115 16.884073 1.355904 1.093372 0.009038 -0.029674 -19244.100000 1 0 0
-15.208201 -12.648999 -4.278685 20.238421 0.693787 1.783818 0.009078 -0.005429 44811.300000 1 0 0
-9.232001 -12.294299 -7.528085 17.118753 0.926708 2.026124 0.013341 -0.004150 3648.960000 1 0 0
-11.408001 -15.627199 6.826915 20.517276 0.940212 1.231589 0.007811 0.003880 113106.000000 1 0 0
-15.684701 -8.060399 -8.316985 19.497490 0.474707 2.011490 0.079365 -0.005486 3182.510000 1 0 0
4.424799 -16.177799 4.793415 17.443534 -1.303815 1.292419 0.003963 -0.006255 221342.000000 1 0 0
2.623499 -14.065399 9.136015 16.976012 -1.386394 1.002530 -0.009267 0.000523 437492.000000 1 0 0
3.197599 -17.190299 10.179815 20.232638 -1.386886 1.043570 0.001917 -0.005287 201154.000000 1 0 0
-7.517101 -17.034499 -5.646285 19.456657 1.155212 1.865230 -0.030927 -0.006493 -87270.100000 1 0 0
1.746199 -19.853799 -4.164985 20.360984 -1.483069 1.776808 0.014462 -0.013538 -396.404000 1 0 0
-16.883101 -10.820199 -2.518885 20.210408 0.569944 1.695754 -0.080389 -0.005580 -318411.000000 1 0 0
-4.193801 -15.016999 2.954915 15.869145 1.298464 1.383498 -0.001764 0.003232 22603.000000 1 0 0
-10.900301 -9.722999 -14.849585 20.829389 0.728374 2.364443 0.029725 -0.001139 128480.000000 1 0 0
0.007299 -20.173499 2.515415 20.329718 -1.570435 1.446748 0.002087 -0.016922 243256.000000 1 0 0
5.103299 -18.609399 0.442815 19.301541 -1.303144 1.547852 0.012496 -0.003321 60151.900000 1 0 0
-7.607401 -18.713899 -3.620485 20.522926 1.184690 1.748136 -0.008206 -0.010414 73985.300000 1 0 0
-9.447201 -15.022599 -7.778385 19.376051 1.009422 1.983888 0.023972 -0.015593 -26261.000000 1 0 0
-11.991501 -10.923299 -12.892085 20.720049 0.738816 2.242350 0.039083 0.005557 328360.000000 1 0 0
-13.167901 -14.870799 -3.333185 20.140616 0.846058 1.737057 0.006983 -0.010036 110996.000000 1 0 0
-0.827801 -20.466199 -2.440885 20.627857 1.530371 1.689404 -0.009842 -0.012369 364810.000000 1 0 0
-12.301001 -16.712499 -0.715285 20.763764 0.936292 1.605252 0.021754 -0.002514 153047.000000 1 0 0
0.901699 -20.335299 4.854815 20.926220 -1.526484 1.336666 0.008458 -0.010161 118049.000000 1 0 0
-18.228601 -9.186399 2.236115 20.534654 0.466807 1.461685 0.021311 0.005922 -177291.000000 1 0 0
-14.930201 -14.802099 -1.335185 21.066461 0.781090 1.634218 0.019841 0.005444 -129314.000000 1 0 0
10.014699 -15.731299 -4.748385 19.243574 -1.003892 1.820123 0.024434 -0.005154 -112449.000000 1 0 0
-0.277401 -19.189599 -7.217085 20.503755 1.556342 1.930491 -0.002252 -0.001268 161779.000000 1 0 0
-10.002701 -16.803999 -2.610185 19.729204 1.033872 1.703486 0.005857 -0.003956 645857.000000 1 0 0
-14.460601 -6.764199 -11.324685 19.573244 0.437531 2.187783 0.013714 -0.013729 13074.800000 1 0 0
-12.563301 -14.918399 1.641715 19.572695 0.870886 1.486820 0.018256 -0.003994 294018.000000 1 0 0
-2.580901 -16.300299 9.870215 19.229715 1.413765 1.031795 -0.001343 -0.005393 336344.000000 1 0 0
-12.381901 -14.335899 -6.860085 20.146718 0.858403 1.918252 0.010248 0.002648 212056.000000 1 0 0
4.856599 -17.069699 -7.429185 19.239386 -1.293605 1.967245 -0.002267 -0.006169 4046.170000 1 0 0
-17.438701 -7.544999 -3.113085 19.254262 0.408339 1.733192 -0.013087 0.002560 -21308.600000 1 0 0
-12.040901 -13.632999 -9.499185 20.520148 0.847331 2.052083 0.021924 -0.012409 113350.000000 1 0 0
-7.767401 -13.929899 9.692915 18.663526 1.062132 1.024705 0.009266 -0.006096 504016.000000 1 0 0
-15.469001 -7.720199 -5.755885 18.221462 0.462908 1.892186 0.006561 -0.005156 -60491.500000 1 0 0
-0.717101 -19.595499 -0.215485 19.609800 1.534217 1.581785 -0.002680 -0.011717 159452.000000 1 0 0
-14.953001 -11.413899 -1.654685 18.884049 0.651970 1.658532 0.001955 0.002656 174282.000000 1 0 0
-7.286601 -18.899499 1.182215 20.289979 1.202813 1.512497 -0.003415 -0.000789 156443.000000 1 0 0
-1.733701 -21.270799 -4.973985 21.913310 1.489470 1.799777 -0.011082 0.005267 130853.000000 1 0 0
-8.791001 -19.678199 -1.129985 21.582171 1.150658 1.623178 -0.008381 0.009663 291098.000000 1 0 0
-17.816001 -7.299399 4.947915 19.878958 0.388849 1.319250 0.018596 -0.003465 47402.800000 1 0 0
-3.122701 -15.878899 -11.019685 19.578666 1.376617 2.168616 0.012650 0.006208 126345.000000 1 0 0
-3.076001 -18.340599 -8.465585 20.432951 1.404627 1.997981 0.004443 0.001084 182218.000000 1 0 0
4.262699 -18.372099 -5.447985 19.631230 -1.342810 1.852004 0.008504 0.023274 576405.000000 1 0 0
0.632099 -17.458299 -9.070085 19.683958 -1.534606 2.049677 0.001956 -0.002769 26795.500000 1 0 0
-7.636901 -10.071999 -14.982885 19.602405 0.922048 2.440812 0.018886 0.002518 450025.000000 1 0 0
-5.537901 -19.151199 -2.086785 20.044736 1.289307 1.675092 -0.007233 -0.007910 101152.000000 1 0 0
-9.528701 -16.163299 8.389615 20.553200 1.038113 1.150326 -0.008717 0.000838 186012.000000 1 0 0
-7.160901 -15.645199 -10.082785 19.942751 1.141553 2.100858 0.010850 0.011516 257168.000000 1 0 0
-12.442701 -7.991599 -12.887685 19.615782 0.570923 2.287637 0.015551 0.000456 116460.000000 1 0 0
-15.594501 -13.074299 3.269615 20.611068 0.697716 1.411489 0.009792 0.004913 149204.000000 1 0 0
-6.060401 -14.338999 -13.266585 20.453304 1.170916 2.276577 -0.004776 0.009530 419930.000000 1 0 0
-14.137701 -11.787199 -6.865885 19.645687 0.694980 1.927818 0.022417 -0.002133 195927.000000 1 0 0
-11.999501 -10.216199 -8.470085 17.891369 0.705298 2.063963 0.031112 -0.003119 366734.000000 1 0 0
-9.965201 -15.019299 3.691115 18.398612 0.984994 1.368806 -0.003679 0.012674 579734.000000 1 0 0
5.387899 -17.828399 8.013515 20.275544 -1.277314 1.164477 0.032026 -0.028872 220068.000000 1 0 0
-5.096801 -16.799799 5.375815 18.360556 1.276237 1.273651 -0.000505 0.014522 430933.000000 1 0 0
-18.495601 -7.259299 -6.822785 21.007976 0.374014 1.901566 0.020117 -0.016302 137036.000000 1 0 0
-17.117801 -3.609299 -10.883285 20.603205 0.207807 2.127314 0.035337 -0.009563 -167735.000000 1 0 0
-15.678801 -4.476999 -12.927485 20.808368 0.278143 2.241151 0.017834 -0.013836 214702.000000 1 0 0
-19.410701 -5.283199 -5.778885 20.930433 0.265742 1.850530 0.032228 0.000393 -75695.900000 1 0 0
5.145699 -13.818599 8.903915 17.225319 -1.214329 1.027561 0.003118 0.001351 277285.000000 1 0 0
19.883299 -2.562699 2.784915 20.240276 -0.128180 1.432766 0.023697 -0.011391 97124.800000 1 0 0
17.712199 -2.633899 0.032115 17.906995 -0.147624 1.569003 -0.001563 -0.008829 275097.000000 1 0 0
14.347399 -11.889899 0.228415 18.635175 -0.692006 1.558539 0.029815 0.011915 155878.000000 1 0 0
11.375399 -13.932799 5.303015 18.752188 -0.886107 1.284090 0.034606 0.002953 584138.000000 1 0 0
9.845799 -12.999499 8.839915 18.549146 -0.922577 1.074050 0.013329 -0.014037 344633.000000 1 0 0
18.469599 5.361301 -5.021085 19.876643 0.282513 1.826176 0.026280 0.017406 -33204.500000 1 0 0
18.847899 -6.276399 -4.976485 20.479304 -0.321453 1.816254 0.027137 -0.003695 -32579.800000 1 0 0
17.634499 -10.172099 -0.146885 20.358505 -0.523208 1.578011 0.025740 0.006436 409766.000000 1 0 0
17.019999 -9.043899 8.663115 21.131068 -0.488427 1.148375 0.025443 -0.010012 -33871.400000 1 0 0
19.588799 -0.291299 -2.396285 19.736973 -0.014870 1.692508 0.020499 -0.002414 149200.000000 1 0 0
7.444599 -13.361199 11.584615 19.187157 -1.062457 0.922575 0.009999 0.001629 321920.000000 1 0 0
16.061699 -6.645199 -3.347485 17.701483 -0.392286 1.761050 0.013795 -0.000680 367841.000000 1 0 0
14.241599 -7.390099 12.702115 20.464126 -0.478660 0.901159 0.026077 -0.011480 151756.000000 1 0 0
16.588099 0.911601 10.209715 19.499598 0.054900 1.019742 0.071845 -0.020620 307538.000000 1 0 0
16.585299 -10.365499 2.882115 19.769226 -0.558586 1.424487 0.003942 0.000572 342253.000000 1 0 0
16.159699 -7.443599 -5.986585 18.771847 -0.431656 1.895379 0.024021 0.003556 329964.000000 1 0 0
18.669399 -4.618299 5.908915 20.119404 -0.242504 1.272709 0.123239 -0.012223 -59623.400000 1 0 0
13.289599 -13.304899 8.009415 20.439778 -0.785973 1.168150 0.026608 -0.015551 313500.000000 1 0 0
14.991499 -14.482899 -1.974585 20.937966 -0.768144 1.665243 0.017840 0.010325 247299.000000 1 0 0
18.614199 -6.432899 7.829915 21.193824 -0.332742 1.192387 0.045920 -0.016086 256037.000000 1 0 0
19.374599 3.229801 2.779315 19.837623 0.165184 1.430231 0.013217 -0.003221 154688.000000 1 0 0
15.613399 -10.771399 8.376215 20.735531 -0.603903 1.154960 0.034563 -0.021878 378465.000000 1 0 0
14.169199 -5.083999 10.876015 18.571509 -0.344499 0.945140 0.034494 -0.008784 -388044.000000 1 0 0
18.702499 -7.943699 1.676815 20.388662 -0.401650 1.488461 0.027391 -0.006719 125643.000000 1 0 0
18.754799 -5.183599 -1.407385 19.508791 -0.269656 1.643000 0.005067 -0.004231 35125.000000 1 0 0
14.680299 -13.606999 -6.309985 20.987556 -0.747474 1.876174 0.037194 -0.015940 441135.000000 1 0 0
13.570699 -9.655699 10.488015 19.682349 -0.618410 1.008815 0.006372 -0.011287 377964.000000 1 0 0
14.238499 2.544801 0.632415 14.477942 0.176859 1.527101 -0.003189 -0.002385 -230001.000000 1 0 0
13.145299 2.765601 13.622515 19.131658 0.207363 0.778396 0.055777 -0.008956 280744.000000 1 0 0
18.230699 -3.721499 9.230615 20.770465 -0.201367 1.110280 0.043647 -0.012844 275252.000000 1 0 0
6.904099 -18.018799 4.489515 19.811599 -1.204890 1.342200 0.017715 -0.023721 343466.000000 1 0 0
12.485299 -2.924899 15.244015 19.920284 -0.230118 0.699365 0.024752 0.005684 228899.000000 1 0 0
11.270899 -13.687499 -6.996085 19.061113 -0.881922 1.946615 0.015032 -0.011417 224847.000000 1 0 0
10.659199 -17.662999 4.639915 21.145422 -1.027825 1.349567 0.030347 -0.005516 602537.000000 1 0 0
18.184199 -0.692399 -5.531885 19.019628 -0.038059 1.865913 0.018187 0.000651 249301.000000 1 0 0
4.275499 -13.748599 11.522115 18.440797 -1.269299 0.895900 -0.010122 0.004394 219321.000000 1 0 0
9.119999 -2.637399 14.452215 17.291523 -0.281509 0.581212 0.012659 -0.007439 352543.000000 1 0 0
9.021099 -9.280899 13.783415 18.907613 -0.799592 0.753955 0.010795 -0.016702 355594.000000 1 0 0
21.039699 5.424401 -2.836985 21.912132 0.252323 1.700632 0.037867 -0.002505 597485.000000 1 0 0
14.679699 -13.571899 2.128215 20.105206 -0.746206 1.464744 0.016455 0.007138 240978.000000 1 0 0
10.792699 0.143501 14.067715 17.731428 0.013295 0.654459 0.020717 -0.027847 150457.000000 1 0 0
19.874399 -0.374099 7.796815 21.352330 -0.018821 1.197002 0.095871 -0.019164 -38643.000000 1 0 0
19.933999 0.998501 0.397315 19.962945 0.050049 1.550892 0.036535 -0.009430 91469.400000 1 0 0
17.789399 0.583201 3.082215 18.063856 0.032772 1.399328 0.013916 -0.007990 18480.400000 1 0 0
10.164299 -8.528299 16.352015 21.057855 -0.698099 0.681660 0.019599 -0.007236 147846.000000 1 0 0
19.220499 2.936901 5.313515 20.156548 0.151628 1.304031 0.036152 -0.001583 150119.000000 1 0 0
16.032299 2.268901 7.120215 17.688414 0.140587 1.156511 0.043448 -0.007961 -49298.900000 1 0 0
11.381899 -16.176099 1.796215 19.860519 -0.957642 1.480231 0.012907 0.005841 282350.000000 1 0 0
8.080099 -16.583499 7.051315 19.748962 -1.117411 1.205691 0.007622 0.004750 387214.000000 1 0 0
6.237799 6.756901 7.226615 11.695717 0.825324 0.904746 0.001791 0.001124 -872744.000000 1 0 0
18.381999 2.867801 -6.271985 19.633134 0.154764 1.895955 0.000126 0.007574 287358.000000 1 0 0
14.037499 4.370001 -7.218785 16.378619 0.301800 2.027224 -0.001583 -0.001481 217208.000000 1 0 0
-10.785201 -3.803099 -13.601285 17.770174 0.339009 2.442458 0.011639 -0.009397 -299597.000000 1 0 0
7.909899 -14.050099 -10.480285 19.230397 -1.058044 2.147168 0.007457 0.005078 218639.000000 1 0 0
1.723499 -16.300899 13.426615 21.188765 -1.465457 0.884513 -0.022869 0.002784 425478.000000 1 0 0
-9.536501 -8.030099 2.411215 12.698083 0.699854 1.379748 -0.001493 0.005773 531881.000000 1 0 0
-13.911701 3.089001 -9.859685 17.328899 -0.218498 2.176053 0.015743 -0.000283 81939.900000 1 0 0
-13.187801 -5.095299 -13.413185 19.488297 0.368697 2.329896 0.024889 0.001213 37641.300000 1 0 0
-17.974401 -1.207499 -8.698285 20.004932 0.067078 2.020620 0.045672 -0.020492 452489.000000 1 0 0
-12.340701 15.134101 4.559615 20.053029 -0.886721 1.341412 0.016341 -0.023437 409492.000000 1 0 0
-17.252901 6.326601 9.357415 20.621583 -0.351472 1.099807 0.002786 -0.004576 262102.000000 1 0 0
-13.789701 15.420001 0.339315 20.689307 -0.841154 1.554395 0.026041 -0.027729 34123.800000 1 0 0
-15.895501 5.328601 -11.024785 20.065065 -0.323454 2.152504 0.016459 0.007163 -106158.000000 1 0 0
-18.295701 2.949701 -0.337285 18.535025 -0.159848 1.588995 0.029325 -0.000887 -56598.000000 1 0 0
-9.886801 15.447301 -0.047885 18.340399 -1.001459 1.573407 0.016232 -0.011170 100277.000000 1 0 0
-18.394501 12.158301 2.317815 22.171022 -0.584052 1.466062 0.040528 -0.012039 -240823.000000 1 0 0
-8.564501 16.337601 -7.761485 20.012709 -1.087961 1.969070 0.029983 -0.020448 155075.000000 1 0 0
-14.948701 -2.067199 -13.326685 20.132996 0.137415 2.294190 0.009113 -0.003574 120229.000000 1 0 0
-18.964101 5.275501 -4.683185 20.233642 -0.271324 1.804370 0.031003 -0.000597 -68587.000000 1 0 0
-16.722301 9.900001 -5.691085 20.249292 -0.534534 1.855685 0.026745 0.018839 -411762.000000 1 0 0
-18.900201 1.143101 2.795215 19.139945 -0.060407 1.424231 0.011155 -0.016233 25774.000000 1 0 0
-13.282701 12.573901 -6.979685 19.576750 -0.757992 1.935347 0.007833 0.011024 -528719.000000 1 0 0
-12.813601 5.192701 -13.562685 19.367471 -0.385023 2.346588 0.010071 -0.010641 -57409.100000 1 0 0
-14.129101 9.118201 -6.715685 18.107278 -0.573099 1.950756 0.013322 -0.005076 170114.000000 1 0 0
-6.465701 12.484201 -15.082385 20.618897 -1.092923 2.391292 0.015058 0.003622 -455589.000000 1 0 0
-15.044901 13.830101 2.993415 20.653844 -0.743352 1.425351 0.013280 -0.021769 29179.400000 1 0 0
-18.586301 8.460101 -5.181585 21.068287 -0.427153 1.819288 0.027791 -0.000023 168794.000000 1 0 0
-3.619001 17.121901 -9.998885 20.155256 -1.362495 2.089890 0.013165 0.004340 102670.000000 1 0 0
-19.211001 -2.234299 -6.628085 20.444710 0.115783 1.900958 0.009551 -0.002808 -202060.000000 1 0 0
-10.520201 13.934001 -6.117985 18.500290 -0.924102 1.907838 0.006206 -0.012957 -151355.000000 1 0 0
-19.044301 3.053101 4.171315 19.733390 -0.158963 1.357806 0.012653 -0.008102 -2154.710000 1 0 0
-15.455301 12.207701 0.523415 19.701986 -0.668534 1.544227 0.021911 -0.011451 47928.600000 1 0 0
-17.502701 2.786201 -8.334185 19.584844 -0.157862 2.010358 0.010938 -0.007640 236620.000000 1 0 0
-15.781701 14.342701 -4.151485 21.725791 -0.737666 1.763064 -0.017725 0.046532 -57325.200000 1 0 0
-11.363001 15.746601 -8.244985 21.096279 -0.945710 1.972326 0.046629 -0.019880 142548.000000 1 0 0
-19.190301 1.644101 -6.809385 20.428863 -0.085465 1.910621 0.029223 -0.015441 150251.000000 1 0 0
-17.009801 10.492801 -0.262985 19.987530 -0.552730 1.583954 0.016226 0.002130 -37243.100000 1 0 0
-11.574201 7.072001 -14.716785 20.013972 -0.548479 2.396943 0.004865 -0.006349 366341.000000 1 0 0
-13.140601 12.353701 -4.704885 18.639347 -0.754542 1.825973 0.023602 -0.013670 412106.000000 1 0 0
-18.816901 7.410701 -0.046285 20.223659 -0.375178 1.573085 0.020292 0.002769 80298.500000 1 0 0
-14.483201 9.126601 -10.488885 20.076719 -0.562295 2.120507 0.007391 0.002654 582551.000000 1 0 0
-18.665801 11.435401 4.655615 22.379796 -0.549661 1.361238 0.019320 -0.008045 166407.000000 1 0 0
-8.120501 12.216601 -13.368985 19.847358 -0.984149 2.309852 -0.001583 0.002457 378898.000000 1 0 0
-20.988601 -0.917899 -5.544485 21.727982 0.043705 1.828827 0.005630 0.002807 105731.000000 1 0 0
-10.543101 13.519401 -2.640885 17.346626 -0.908463 1.723633 0.012155 -0.006391 481340.000000 1 0 0
-18.880201 -4.711299 3.627715 19.794409 0.244542 1.386485 0.031020 -0.009406 1756.620000 1 0 0
-11.353601 11.420701 -13.553285 21.048235 -0.788344 2.270401 0.010713 -0.003168 235584.000000 1 0 0
-14.934201 11.691401 -10.111085 21.493098 -0.664203 2.060579 0.012767 -0.001922 151965.000000 1 0 0
-12.604901 9.621701 -14.123385 21.235128 -0.651978 2.298418 0.015555 -0.008459 309017.000000 1 0 0
-18.487601 -4.547199 -2.286885 19.175460 0.241172 1.690342 0.005798 -0.000343 -298325.000000 1 0 0
-9.859901 12.768201 -11.286285 19.688190 -0.913223 2.181265 0.035902 -0.012745 166392.000000 1 0 0
-15.804101 7.671301 -8.042085 19.320807 -0.451899 2.000102 0.016781 0.004577 40687.700000 1 0 0
-14.421301 9.165401 1.872215 17.189639 -0.566147 1.461665 0.011503 -0.006763 -50870.200000 1 0 0
-19.879001 6.008501 7.788715 22.179739 -0.293523 1.211983 0.035263 -0.009923 357265.000000 1 0 0
-18.551701 5.958601 3.789515 19.850213 -0.310781 1.378712 -0.006364 0.005193 258100.000000 1 0 0
-14.572101 12.685301 5.896015 20.199653 -0.716287 1.274597 0.008831 -0.022072 121720.000000 1 0 0
17.831799 6.058201 5.505115 19.620936 0.327507 1.286405 0.001685 -0.008512 130468.000000 1 0 0
18.388499 7.845501 0.567215 20.000263 0.403270 1.542432 0.013557 0.004238 -52401.700000 1 0 0
16.431399 4.398501 8.726915 19.117969 0.261556 1.096765 0.011763 -0.000257 -74499.400000 1 0 0
12.532699 12.811401 10.868715 20.960188 0.796394 1.025653 0.039572 -0.008216 212093.000000 1 0 0
15.534599 12.476801 4.128615 20.347968 0.676666 1.366477 0.028879 -0.006470 252471.000000 1 0 0
5.337599 10.561401 14.532515 18.741055 1.102848 0.683389 0.011577 -0.001451 176486.000000 1 0 0
13.367999 13.080201 -5.191985 19.410094 0.774517 1.841582 0.033489 -0.007086 223106.000000 1 0 0
18.453099 9.278801 -2.343685 20.787156 0.465910 1.683783 0.042122 -0.003796 -198944.000000 1 0 0
14.510799 7.769301 9.505315 19.007271 0.491577 1.047096 0.013450 -0.001850 180022.000000 1 0 0
4.772399 19.319001 -1.980185 19.998018 1.328614 1.669978 0.012873 -0.004471 424375.000000 1 0 0
-4.108101 20.132801 3.603615 20.861261 -1.369509 1.397184 -0.007795 0.032688 287416.000000 1 0 0
6.985299 14.142601 11.965315 19.798392 1.112025 0.921837 0.022297 0.019289 -44358.800000 1 0 0
0.533099 16.706001 -10.159885 19.560110 1.538897 2.116967 0.013859 -0.000852 -77961.300000 1 0 0
10.761599 9.510701 15.448215 21.092956 0.723771 0.748975 0.041100 -0.012265 131499.000000 1 0 0
-0.929801 12.161001 1.299715 12.265550 -1.494487 1.464632 0.002192 -0.001601 294329.000000 1 0 0
-4.946401 19.016301 -2.487585 19.805925 -1.316322 1.696727 0.009564 0.001064 95347.100000 1 0 0
7.131899 17.882301 5.504815 20.023577 1.191304 1.292293 0.025096 -0.026617 -88260.200000 1 0 0
10.872199 17.619001 -1.658785 20.769821 1.017918 1.650747 0.013814 -0.004959 371273.000000 1 0 0
18.346699 10.722801 2.981515 21.458547 0.528910 1.431402 0.004276 -0.005476 263362.000000 1 0 0
11.360599 15.872201 7.077415 20.762461 0.949575 1.222948 0.020282 0.000445 -61357.600000 1 0 0
17.956799 7.926701 -6.588085 20.704639 0.415706 1.894620 -0.001145 0.014094 358246.000000 1 0 0
0.075699 15.277301 11.118115 18.894817 1.565841 0.941691 0.000929 -0.002783 321348.000000 1 0 0
1.611899 20.565301 -1.669185 20.695796 1.492577 1.651537 0.026971 0.001893 216127.000000 1 0 0
14.658899 9.805901 -1.276385 17.682425 0.589574 1.643043 0.010492 -0.000103 34568.800000 1 0 0
9.917099 17.466701 1.531715 20.143998 1.054411 1.494685 0.025837 -0.010796 247652.000000 1 0 0
0.382999 17.678901 -0.306185 17.685700 1.549136 1.588110 0.001396 -0.003156 133910.000000 1 0 0
-0.259401 20.935301 1.599515 20.997918 -1.558406 1.494548 0.021511 -0.006598 292213.000000 1 0 0
5.705099 17.209901 -0.433485 18.136062 1.250696 1.594700 0.005889 -0.026035 -17110.400000 1 0 0
6.749899 18.529801 -3.043285 19.954354 1.221463 1.723906 -0.005943 -0.010273 42352.700000 1 0 0
10.393399 9.772201 12.717015 19.111282 0.754603 0.842741 0.022975 -0.005939 124230.000000 1 0 0
13.023499 14.957201 8.206715 21.463447 0.854397 1.178450 0.017937 0.001249 110653.000000 1 0 0
0.544899 17.505401 6.838515 18.801629 1.539679 1.198539 0.008856 -0.012281 130011.000000 1 0 0
7.654899 17.921501 -7.800985 20.991261 1.167119 1.951561 0.025422 -0.007085 11231.700000 1 0 0
-1.297601 18.595901 9.313515 20.838255 -1.501130 1.107451 0.044098 -0.017034 125083.000000 1 0 0
15.934499 6.696401 -7.927985 19.015862 0.397837 2.000844 0.007115 0.001422 -378758.000000 1 0 0
-5.283701 19.666501 -6.396685 21.344937 -1.308329 1.875155 0.001902 -0.007144 242040.000000 1 0 0
4.405499 15.934101 10.141815 19.394855 1.301052 1.020532 0.010642 0.001362 213222.000000 1 0 0
8.920399 15.025501 7.788315 19.131049 1.035034 1.151516 0.011111 0.006012 -27470.800000 1 0 0
-2.677201 19.744301 6.365415 20.917058 -1.436025 1.261575 0.014628 -0.008099 117205.000000 1 0 0
4.918799 18.082201 7.576015 20.212782 1.305199 1.186601 0.023680 -0.018350 183210.000000 1 0 0
13.489099 11.012301 -7.378385 18.912090 0.684652 1.971581 -0.073832 -0.028155 88333.400000 1 0 0
11.816199 6.845701 15.913015 20.969268 0.525096 0.709215 0.049849 -0.007933 359599.000000 1 0 0
17.206299 9.361701 4.849815 20.179665 0.498291 1.328089 0.017810 -0.008996 247560.000000 1 0 0
4.118099 15.580101 12.323915 20.287364 1.312388 0.917928 -0.015066 0.018048 330010.000000 1 0 0
15.981699 10.338801 -3.990685 19.448164 0.574203 1.777460 0.018007 -0.004417 169247.000000 1 0 0
15.325299 14.008101 6.778315 21.841182 0.740524 1.255240 0.021707 0.010107 287369.000000 1 0 0
12.712899 14.446901 -7.872285 20.791912 0.849156 1.959104 0.048036 -0.012460 339670.000000 1 0 0
-7.979201 15.529501 9.757415 20.001005 -1.096162 1.061176 0.005747 -0.010933 93898.200000 1 0 0
-3.924001 16.613001 -7.019185 18.456937 -1.338847 1.960918 -0.003809 -0.005873 175519.000000 1 0 0
2.262499 19.453101 -4.551885 20.106260 1.455011 1.799168 0.013030 -0.018031 106270.000000 1 0 0
7.011699 16.913601 8.861615 20.341141 1.177802 1.120036 0.012372 0.007918 542565.000000 1 0 0
13.340199 15.548401 -1.455385 20.538545 0.861688 1.641717 0.035899 -0.011578 172635.000000 1 0 0
12.346299 16.805601 4.009815 21.235299 0.937189 1.380828 0.020851 -0.008532 225687.000000 1 0 0
3.042899 18.237401 0.447515 18.494926 1.405470 1.546597 0.024462 -0.021175 131206.000000 1 0 0
-6.668901 18.033701 1.447715 19.281714 -1.216590 1.495643 -0.022727 0.020016 192052.000000 1 0 0
0.056099 19.961601 -5.478985 20.699950 1.567986 1.838675 0.029210 -0.000092 307057.000000 1 0 0
-7.525801 18.022901 -6.440985 20.565722 -1.175237 1.889347 0.017584 -0.011643 88666.800000 1 0 0
-7.565201 18.652001 -1.691585 20.198784 -1.185474 1.654641 0.018774 -0.002937 -57755.000000 1 0 0
-14.403101 -9.672899 8.977115 19.534659 0.591400 1.093310 0.015405 0.008725 211446.000000 1 0 0
-12.954601 -13.938899 7.717715 20.534793 0.821982 1.185498 0.005279 0.008964 -40990.600000 1 0 0
-3.201201 -16.080399 12.553615 20.649944 1.374291 0.917352 -0.016058 0.009966 159091.000000 1 0 0
-2.058701 -13.923899 16.050015 21.347510 1.424006 0.719941 -0.002849 0.003036 371021.000000 1 0 0
-7.717801 -13.636199 13.400915 20.617830 1.055768 0.863255 -0.005064 0.000168 391054.000000 1 0 0
-9.788701 -10.948599 11.871415 18.884411 0.841273 0.890999 0.012332 -0.003627 -625975.000000 1 0 0
-7.323501 -10.477599 12.964615 18.207004 0.960764 0.778358 0.008450 -0.004770 337530.000000 1 0 0
-15.121401 -12.583499 7.641615 21.104395 0.694048 1.200291 0.010036 0.016204 285308.000000 1 0 0
-4.494301 -12.328599 12.842115 18.360638 1.221225 0.796186 0.001582 -0.008687 283206.000000 1 0 0
3.702299 -13.042099 13.956015 19.456971 -1.294200 0.770912 -0.015263 0.017170 399374.000000 1 0 0
6.452999 -13.585999 14.687815 21.022666 -1.127369 0.797266 0.005227 0.004347 287670.000000 1 0 0
7.151399 -8.571799 16.798215 20.169241 -0.875491 0.586536 0.003074 -0.005655 591708.000000 1 0 0
-5.358601 13.183201 13.747115 19.786221 -1.184723 0.802679 0.007564 -0.010806 538522.000000 1 0 0
-13.840501 -1.407599 17.108815 22.051130 0.101353 0.682703 0.010130 -0.009450 -91699.100000 1 0 0
-10.433201 9.958101 12.609615 19.157710 -0.762103 0.852370 0.007950 -0.000926 409013.000000 1 0 0
-7.503301 -8.200199 17.274815 20.541714 0.829748 0.571736 0.010702 -0.004958 84337.700000 1 0 0
-4.961401 1.993601 18.290915 19.056430 -0.382076 0.284404 0.009617 -0.001397 613855.000000 1 0 0
-15.289601 -3.575099 15.055015 21.753315 0.229699 0.806431 0.007266 0.000002 133376.000000 1 0 0
-14.773201 2.671901 12.515415 19.545386 -0.178927 0.875874 0.004639 0.002755 401034.000000 1 0 0
-14.468401 10.647601 9.212515 20.188523 -0.634430 1.096936 -0.027009 -0.009678 -162021.000000 1 0 0
-4.571201 11.341601 15.793415 19.973976 -1.187666 0.658845 0.025760 -0.003842 207905.000000 1 0 0
-13.356701 12.723201 8.233615 20.200834 -0.761112 1.150985 0.010752 -0.035006 110045.000000 1 0 0
-3.933001 -6.580399 18.606815 20.124207 1.032081 0.390816 0.024833 -0.012006 276296.000000 1 0 0
0.348699 -2.910199 17.512815 17.756394 -1.451545 0.165827 -0.000362 -0.027048 59253.000000 1 0 0
-4.552201 6.316101 21.255615 22.636626 -0.946293 0.351108 0.025984 0.004991 130643.000000 1 0 0
2.129899 -10.600899 16.442415 19.679140 -1.372519 0.581709 -0.014594 -0.002954 311541.000000 1 0 0
-15.058201 -0.084499 13.803915 20.428035 0.005611 0.828837 -0.009641 0.008556 -25666.200000 1 0 0
-14.063601 -5.799599 7.674615 17.038777 0.391136 1.103560 0.011111 0.001400 152387.000000 1 0 0
10.115799 0.498701 16.538315 19.393142 0.049259 0.549488 0.040146 0.006517 583926.000000 1 0 0
-7.518101 12.098301 11.886415 18.552024 -1.014777 0.875377 0.006186 -0.020357 77894.500000 1 0 0
-1.653701 7.384201 20.098415 21.475740 -1.350480 0.360088 0.029349 -0.009294 549089.000000 1 0 0
0.593599 -14.163299 16.038315 21.405115 -1.528910 0.723830 -0.027978 0.025419 482635.000000 1 0 0
-3.452901 -11.676099 17.819715 21.582309 1.283267 0.599420 0.017659 -0.008612 423487.000000 1 0 0
-1.949901 8.751701 16.789915 19.034065 -1.351574 0.490498 0.012514 -0.011697 550894.000000 1 0 0
-4.177701 -9.681099 20.505715 23.057780 1.163406 0.474943 0.020859 -0.017365 236838.000000 1 0 0
-6.707101 -3.242599 19.132215 20.531471 0.450326 0.371323 0.015645 -0.011976 167780.000000 1 0 0
-10.757501 -7.731999 16.360515 21.051700 0.623202 0.680658 0.041915 -0.015232 207011.000000 1 0 0
-0.329501 6.241501 17.823115 18.887253 -1.518053 0.337280 0.011997 -0.008750 196813.000000 1 0 0
-6.148901 -11.197399 19.189615 23.052810 1.068616 0.587336 0.028884 -0.003765 345132.000000 1 0 0
0.315099 3.467201 18.749715 19.070201 1.480165 0.183591 0.007137 -0.005693 231155.000000 1 0 0
-17.891201 -1.140999 7.733615 19.524491 0.063688 1.163533 -0.006211 -0.004479 277826.000000 1 0 0
-1.678401 -8.714599 17.723415 19.821219 1.380530 0.464236 0.005175 -0.006558 390991.000000 1 0 0
5.968099 3.566901 14.923615 16.463756 0.538698 0.435989 0.004600 -0.001902 611283.000000 1 0 0
-13.956901 -6.920399 10.424215 18.744366 0.460315 0.981080 0.021356 0.002163 242376.000000 1 0 0
3.957999 8.136601 16.870015 19.143339 1.118052 0.492302 0.008740 -0.004404 137638.000000 1 0 0
6.362599 4.384901 17.743215 19.352821 0.603419 0.410733 0.016168 -0.016963 343329.000000 1 0 0
5.381699 -9.136499 18.423815 21.257358 -1.038480 0.522242 0.003673 0.009438 363054.000000 1 0 0
-4.492901 -0.440699 19.994115 20.497439 0.097775 0.222066 0.011511 -0.004012 863722.000000 1 0 0
-11.084601 1.799601 17.073815 20.435804 -0.160947 0.581781 0.016162 0.001996 218303.000000 1 0 0
-16.894701 -4.268499 8.624715 19.443166 0.247474 1.111200 0.025085 -0.013635 442912.000000 1 0 0
-12.674701 -8.960299 13.806615 20.773965 0.615371 0.843823 -0.004661 -0.015606 77918.400000 1 0 0
-15.127101 6.385201 12.462215 20.613267 -0.399415 0.921567 0.021991 -0.020490 194609.000000 1 0 0
1.304099 9.590401 16.971215 19.537108 1.435646 0.518294 0.012247 -0.009914 155328.000000 1 0 0
-3.852301 -10.422399 15.282815 18.895265 1.216753 0.628658 0.012798 -0.000163 715296.000000 1 0 0
-18.919401 -3.512299 6.703815 20.376975 0.183556 1.235563 0.100604 -0.011808 -221005.000000 1 0 0
-1.066201 -0.543199 21.416415 21.449818 0.471196 0.055815 0.012120 -0.007463 349803.000000 1 0 0
-1.827201 2.707501 20.409815 20.669537 -0.977139 0.158694 0.010219 -0.006275 38228.800000 1 0 0
-8.148501 2.239201 16.154515 18.231304 -0.268179 0.481963 0.006275 0.010553 439529.000000 1 0 0
2.507599 -2.360099 18.819415 19.131871 -0.755106 0.180977 -0.003565 -0.010864 -136292.000000 1 0 0
-12.541101 4.383701 14.241015 19.475691 -0.336271 0.750688 -0.002365 -0.003236 192461.000000 1 0 0
-13.760201 -5.527999 13.073315 19.769003 0.382004 0.848241 0.032103 -0.004308 53450.100000 1 0 0
-16.203701 -1.095499 10.666315 19.430139 0.067505 0.989680 -0.029152 0.008498 -180263.000000 1 0 0
-7.340101 7.813501 14.769015 18.249703 -0.816628 0.627881 0.005674 -0.001129 -7754.550000 1 0 0
-9.655701 1.084801 13.867315 16.932565 -0.111879 0.611177 0.016108 -0.006752 142295.000000 1 0 0
7.238499 -0.918599 14.974015 16.657155 -0.126230 0.453421 0.006678 -0.010400 136601.000000 1 0 0
3.965599 6.241601 18.480615 19.905192 1.004789 0.380627 0.003727 -0.002506 130222.000000 1 0 0
1.353499 0.646701 20.210515 20.266107 0.445730 0.074086 -0.000416 -0.001351 261500.000000 1 0 0
-7.009901 6.849201 17.424115 19.991249 -0.773803 0.512366 0.005470 -0.000968 592965.000000 1 0 0
7.627299 -3.470199 16.606815 18.601190 -0.426980 0.467312 0.009869 -0.009086 416394.000000 1 0 0
-17.556501 1.887201 9.331715 19.971809 -0.107082 1.084625 0.051117 -0.003197 468220.000000 1 0 0
4.103599 -4.790199 18.817015 19.846047 -0.862445 0.323435 0.016075 -0.033356 170804.000000 1 0 0
-3.667501 -3.661699 20.729415 21.367434 0.784607 0.244987 0.013893 -0.013810 500931.000000 1 0 0
-9.818101 5.754501 14.472815 18.411186 -0.530145 0.666342 0.004774 0.001776 -55550.100000 1 0 0
6.090799 2.868401 19.893915 21.002224 0.440131 0.326318 0.023941 -0.012234 93917.900000 1 0 0
-7.412801 11.311501 14.595015 19.897591 -0.990681 0.747329 0.015596 -0.012299 241378.000000 1 0 0
-14.483001 4.852701 9.353015 17.910469 -0.323305 1.021357 -0.002129 -0.007614 251569.000000 1 0 0
1.006099 -5.625499 20.163715 20.957907 -1.393821 0.276175 0.012902 -0.028939 304960.000000 1 0 0
-6.228501 -8.413499 13.787515 17.311174 0.933533 0.649392 0.014540 0.001625 381694.000000 1 0 0
-12.706401 10.001101 6.492615 17.424944 -0.666820 1.188982 -0.013064 -0.030717 -220086.000000 1 0 0
-19.107401 1.653201 7.559215 20.614742 -0.086307 1.195348 -0.001902 -0.013721 -120505.000000 1 0 0
-15.509401 9.216501 6.182715 19.071218 -0.536183 1.240640 -0.016568 -0.008135 121772.000000 1 0 0
-13.174301 7.925701 14.036115 20.818056 -0.541597 0.830878 0.014522 0.001103 241218.000000 1 0 0
-16.485001 8.872001 10.704015 21.564869 -0.493728 1.051392 0.001946 -0.006623 409835.000000 1 0 0
2.498999 10.517401 14.044115 17.722807 1.337516 0.656011 0.007414 -0.058578 600442.000000 1 0 0
1.717599 14.674001 13.702215 20.150115 1.454276 0.823024 -0.001707 -0.007705 630504.000000 1 0 0
8.465399 5.232901 16.463115 19.237473 0.553660 0.543733 0.015136 -0.009685 190798.000000 1 0 0
-0.360001 13.303801 13.543015 18.987732 -1.543743 0.776671 -0.004451 0.006859 233803.000000 1 0 0
3.585399 12.751501 15.025215 20.030301 1.296699 0.722546 0.005278 0.003728 152646.000000 1 0 0
-3.468801 -4.579599 -13.933485 15.071407 0.922547 2.750513 0.002265 -0.007698 34925.200000 1 0 0
5.015899 -11.783299 16.896715 21.201518 -1.168351 0.648554 -0.051833 0.020137 250053.000000 1 0 0
8.736099 -13.741799 7.228015 17.815742 -1.004517 1.153041 0.005813 -0.007529 382043.000000 1 0 0
-0.385201 15.081901 0.554515 15.097006 -1.545261 1.534058 0.000476 -0.002734 -188553.000000 1 0 0
-14.109501 7.328401 8.689615 18.118854 -0.479043 1.070609 0.003691 -0.013136 81455.700000 1 0 0
-15.925501 -9.856899 5.819215 19.612325 0.554228 1.269548 0.005214 0.002453 264807.000000 1 0 0
8.959099 -10.525999 11.355815 17.889009 -0.865641 0.883056 0.004170 0.001311 105130.000000 1 0 0
-25.704011 5.969501 31.556232 41.135470 -0.228195 0.696442 0.011037 -0.006359 -541719.000000 0 0 1
-24.515201 5.318301 31.259162 40.080102 -0.213629 0.676263 0.012453 -0.006945 -41469.800000 0 0 1
-23.420401 5.754101 32.086822 40.139619 -0.240916 0.644533 0.011467 -0.002036 1435020.000000 0 0 1
-22.081101 5.009501 31.673892 38.934632 -0.223092 0.620626 0.016302 -0.002724 626956.000000 0 0 1
-21.959201 3.711001 32.117412 39.083324 -0.167413 0.606290 0.022398 -0.004033 131223.000000 0 0 1
-20.646801 3.262501 31.834742 38.083922 -0.156719 0.581007 0.030812 -0.000878 341932.000000 0 0 1
-20.187301 1.943701 32.570662 38.368648 -0.095987 0.556919 0.024088 -0.003637 -61192.200000 0 0 1
-20.913401 0.815401 32.205392 38.408625 -0.038970 0.576283 0.024983 -0.002950 -101693.000000 0 0 1
-20.976801 -0.066399 33.253086 39.316642 0.003165 0.562778 0.025611 0.000844 -164409.000000 0 0 1
-21.516501 -1.465099 32.898783 39.337466 0.067987 0.580257 0.031132 -0.008920 -334159.000000 0 0 1
-20.669701 -2.314099 32.139412 38.282286 0.111492 0.574365 0.039617 -0.000588 41690.500000 0 0 1
-20.874101 -3.678799 32.469112 38.775055 0.174446 0.578340 0.040813 -0.007135 981076.000000 0 0 1
-22.290201 -4.310899 32.064672 39.288422 0.191040 0.616105 0.033205 0.000550 2009240.000000 0 0 1
-23.418301 -3.951399 32.892967 40.570650 0.167157 0.625351 0.034588 0.002581 836102.000000 0 0 1
-23.474401 -4.716799 34.096743 41.663936 0.198293 0.612218 0.031664 0.004105 13933.400000 0 0 1
-24.655701 -4.220399 -33.791445 42.042563 0.169530 2.504357 0.042154 0.003743 444501.000000 0 0 1
-24.515501 -4.824999 -32.526445 41.015363 0.194330 2.486564 0.041569 0.002916 721836.000000 0 0 1
-25.492561 -4.372299 -31.555715 40.801358 0.169860 2.454981 0.036819 0.001666 326169.000000 0 0 1
-25.410111 -5.081699 -30.179185 39.777891 0.197383 2.432100 0.022419 -0.005791 -336390.000000 0 0 1
-25.704061 -6.464599 -30.255345 40.222826 0.246391 2.422181 0.031719 -0.001380 509426.000000 0 0 1
-25.457841 -7.163899 -29.042435 39.279590 0.274309 2.402941 0.017393 -0.005715 -106755.000000 0 0 1
-25.784251 -8.652399 -29.170225 39.882247 0.323761 2.391182 0.019256 -0.003152 178374.000000 0 0 1
-27.186731 -8.887799 -29.098065 40.802067 0.315965 2.364780 0.026788 -0.005871 350291.000000 0 0 1
-27.448211 -10.270299 -29.251805 41.407142 0.358043 2.355257 0.022555 -0.001312 869951.000000 0 0 1
-28.810811 -10.761099 -28.628185 42.017104 0.357463 2.320396 0.039075 -0.003663 998126.000000 0 0 1
-28.745691 -11.317999 -27.344295 41.256785 0.375088 2.295326 0.046733 -0.006547 -137507.000000 0 0 1
-30.054951 -11.280599 -26.811955 41.826223 0.359062 2.266639 0.041826 -0.005868 -41279.300000 0 0 1
-30.160961 -12.034399 -25.493125 41.284498 0.379649 2.236355 0.035634 0.000868 -320160.000000 0 0 1
-29.445491 -11.350899 -24.508285 39.956675 0.367934 2.231119 0.046242 0.000438 98325.100000 0 0 1
-29.415151 -12.123499 -23.325585 39.450136 0.390938 2.203426 0.052032 -0.003573 -186652.000000 0 0 1
-29.017421 -11.324799 -22.052185 38.164914 0.372096 2.186843 0.060614 -0.005510 20023.700000 0 0 1
-29.045831 -11.956999 -20.767785 37.655425 0.390517 2.154984 0.065186 -0.004073 283435.000000 0 0 1
-28.106501 -13.011399 -20.641085 37.219972 0.433556 2.158643 0.053003 -0.007650 -91302.000000 0 0 1
-27.630421 -13.409499 -19.204785 36.222626 0.451832 2.129618 0.053328 -0.011585 185683.000000 0 0 1
-26.816901 -12.453899 -18.550085 34.904891 0.434768 2.131104 0.040895 -0.014608 155589.000000 0 0 1
-26.564661 -12.789299 -17.198085 34.132412 0.448690 2.098862 0.057610 -0.018613 -158411.000000 0 0 1
-26.543831 -11.555799 -16.340485 33.243389 0.410603 2.084655 0.046582 -0.018639 -43599.800000 0 0 1
-25.398041 -10.716299 -16.429885 32.091131 0.399271 2.108280 0.027486 -0.009888 322819.000000 0 0 1
-25.413591 -9.505999 -15.737485 31.366910 0.357939 2.096385 0.022035 -0.013768 -737739.000000 0 0 1
-24.085301 -8.745999 -15.717485 30.060498 0.348320 2.121001 0.027853 -0.008001 -236331.000000 0 0 1
-23.142801 -9.298899 -14.829485 29.016761 0.382062 2.107221 0.021033 -0.011360 -369624.000000 0 0 1
-21.925401 -8.629199 -14.914285 27.885878 0.374952 2.135106 0.039766 -0.037288 -29279.900000 0 0 1
-20.853301 -8.981199 -13.822685 26.581737 0.406676 2.117655 0.033245 -0.024931 304475.000000 0 0 1
-20.144701 -10.156599 -14.182985 26.648125 0.466988 2.132031 0.034859 -0.013432 988433.000000 0 0 1
-19.014801 -10.543699 -13.369685 25.524121 0.506291 2.122109 0.041514 -0.017114 1063930.000000 0 0 1
-18.320001 -11.819899 -14.008685 25.914778 0.572987 2.141908 0.041085 -0.011989 -218440.000000 0 0 1
-17.547401 -11.626999 -15.187785 25.957026 0.585186 2.195815 0.047433 -0.012827 255755.000000 0 0 1
-18.263401 -11.490499 -16.390685 27.096825 0.561581 2.220428 0.039784 -0.015252 -381705.000000 0 0 1
-17.368101 -11.150199 -17.593585 27.120327 0.570726 2.276702 0.039141 -0.015258 -183395.000000 0 0 1
-18.124001 -11.036699 -18.777285 28.335042 0.546978 2.295198 0.022085 0.003656 403766.000000 0 0 1
-17.342501 -10.624199 -19.853885 28.422046 0.549640 2.344149 0.030482 -0.003591 -190951.000000 0 0 1
-18.132601 -10.936199 -21.130485 29.914697 0.542713 2.355136 0.049456 -0.002212 383945.000000 0 0 1
-19.263501 -10.099499 -21.357085 30.482904 0.482884 2.347069 0.035602 -0.011452 702954.000000 0 0 1
-20.195301 -10.794499 -22.206185 31.898057 0.490869 2.340832 0.040720 -0.004148 766717.000000 0 0 1
-21.272801 -9.851899 -22.831285 32.723991 0.433712 2.342968 0.022293 -0.006784 144225.000000 0 0 1
-20.796901 -9.150899 -23.912185 32.985491 0.414517 2.381730 0.024956 -0.012049 -2812.930000 0 0 1
-21.851301 -8.704699 -24.727785 34.127914 0.379092 2.381195 0.024651 -0.011117 -274877.000000 0 0 1
-21.403701 -7.794699 -25.873735 34.472104 0.349247 2.419721 0.015892 -0.016975 -173712.000000 0 0 1
-20.361901 -8.429199 -26.569435 34.519463 0.392490 2.449159 0.021101 -0.022474 2998.490000 0 0 1
-19.870001 -7.714199 -27.663835 34.922966 0.370322 2.485102 0.010550 -0.028633 -1100310.000000 0 0 1
-18.649501 -8.296199 -28.285305 34.881074 0.418562 2.516497 0.025618 -0.031752 -1090580.000000 0 0 1
-18.915001 -9.467499 -29.060325 35.943195 0.464070 2.512407 0.024571 -0.025749 416898.000000 0 0 1
-17.643201 -9.931299 -29.435435 35.726154 0.512691 2.539087 0.008799 -0.013439 -79299.100000 0 0 1
-17.786301 -11.108699 -30.458635 36.979510 0.558286 2.538636 0.005292 -0.011921 -236427.000000 0 0 1
-18.242801 -10.751599 -31.757645 38.169945 0.532560 2.553511 0.001732 -0.005281 426300.000000 0 0 1
-18.265701 -11.906799 -32.570215 39.194727 0.577686 2.551672 0.008370 0.002041 54223.800000 0 0 1
-19.121101 -11.798299 -33.891025 40.662242 0.552848 2.556166 0.010199 -0.001112 422326.000000 0 0 1
-18.493701 -11.016599 33.895895 40.153632 0.537248 0.565809 0.011435 -0.000297 342376.000000 0 0 1
-19.157901 -11.209599 32.638852 39.471191 0.529404 0.597218 0.023664 -0.002225 -170167.000000 0 0 1
-18.735101 -12.404299 31.771002 38.913586 0.584827 0.615560 0.027101 -0.008616 -118137.000000 0 0 1
-17.409401 -12.281799 31.278282 37.845221 0.614387 0.597972 0.027589 -0.007235 445260.000000 0 0 1
-16.908401 -13.311899 30.422422 37.264252 0.666946 0.615652 0.026034 -0.015800 -5822.200000 0 0 1
-16.962601 -14.814899 31.019332 38.332884 0.717915 0.627991 0.024541 -0.001867 -840819.000000 0 0 1
-18.147401 -15.562899 30.836602 39.018304 0.708880 0.659480 0.014645 -0.004393 -248136.000000 0 0 1
-18.148701 -16.872599 31.412452 40.010025 0.748976 0.667915 0.027946 -0.006108 -426813.000000 0 0 1
-18.264101 -16.906599 32.920553 41.269520 0.746820 0.647330 0.007870 -0.012970 -596382.000000 0 0 1
-17.200601 -16.410899 33.659305 41.208338 0.761908 0.614940 0.013913 -0.005147 -381786.000000 0 0 1
-17.630901 -16.188599 -33.809315 41.424500 0.742777 2.525543 0.010727 -0.003194 257167.000000 0 0 1
-16.478901 -15.558699 -32.981205 40.017336 0.756684 2.539537 0.009474 -0.006748 132009.000000 0 0 1
-16.059501 -14.318499 -33.530705 39.840120 0.728150 2.571094 0.010332 -0.006017 877761.000000 0 0 1
-14.851401 -13.727799 -32.971465 38.679893 0.746103 2.591390 0.018321 -0.009809 773957.000000 0 0 1
-14.890601 -13.214499 -31.490655 37.256065 0.725832 2.577827 0.029591 -0.007671 -582258.000000 0 0 1
-15.029801 -14.281899 -30.619795 36.978905 0.759888 2.546389 0.013666 -0.014068 -88544.800000 0 0 1
-15.659001 -13.961499 -29.398015 36.116078 0.728152 2.521779 0.017381 -0.018858 -275101.000000 0 0 1
-15.775301 -15.241299 -28.519805 35.979669 0.768183 2.485963 0.031452 -0.015992 69659.200000 0 0 1
-14.609501 -15.894099 -28.068225 35.410241 0.827486 2.485953 0.038033 -0.030401 313877.000000 0 0 1
-13.802001 -16.611599 -29.036585 36.187895 0.877516 2.502075 0.035836 -0.030394 685866.000000 0 0 1
-12.403501 -17.169599 -28.663455 35.640365 0.945187 2.505194 0.036677 -0.021319 915524.000000 0 0 1
-11.350901 -16.204899 -28.591685 34.769616 0.959761 2.536269 0.032899 -0.020573 -8674.030000 0 0 1
-10.117701 -16.743899 -28.188265 34.311869 1.027249 2.534887 0.036548 -0.025987 488055.000000 0 0 1
-8.976401 -15.687599 -28.165905 33.466323 1.051071 2.571071 0.020193 -0.024172 16982.300000 0 0 1
-8.914401 -14.863799 -27.032555 32.111651 1.030569 2.571461 0.039072 -0.020999 -578344.000000 0 0 1
-7.685201 -14.204599 -26.947825 31.416846 1.074861 2.601675 0.026744 -0.021739 -505607.000000 0 0 1
-7.729401 -12.709699 -27.174125 30.979238 1.024406 2.640737 0.019932 -0.021645 -393509.000000 0 0 1
-7.908301 -12.388399 -28.554505 32.115003 1.002645 2.666243 0.035746 -0.019094 239589.000000 0 0 1
-7.843901 -11.037799 -28.853665 31.873089 0.952965 2.702805 0.029438 -0.016284 231935.000000 0 0 1
-6.793801 -10.782299 -29.973825 32.570599 1.008546 2.739573 0.017945 -0.008232 972934.000000 0 0 1
-5.397201 -11.000899 -29.673825 32.104290 1.114685 2.749980 0.023838 -0.009824 1302830.000000 0 0 1
-4.453201 -10.700899 -30.670735 32.787715 1.176444 2.780280 0.019097 -0.012447 171534.000000 0 0 1
-4.311001 -9.243199 -31.090345 32.720499 1.134391 2.824607 0.005206 -0.012932 -534563.000000 0 0 1
-3.178801 -8.998299 -31.943095 33.338199 1.231214 2.851275 0.007774 -0.012788 547963.000000 0 0 1
-3.138401 -7.652699 -32.438425 33.476332 1.181610 2.891930 0.004477 -0.012809 -93922.700000 0 0 1
-1.803801 -7.170399 -33.058685 33.875433 1.324348 2.921557 0.016398 -0.013311 24361.800000 0 0 1
-1.536501 -7.692999 -34.341478 35.226129 1.373663 2.917007 0.016347 -0.014338 -68585.600000 0 0 1
-0.378501 -7.052099 33.960039 34.686591 1.517176 0.205035 0.025567 0.000445 -284922.000000 0 0 1
0.018799 -7.350699 32.536372 33.356388 -1.568239 0.222193 0.016278 -0.000944 -409806.000000 0 0 1
-0.548901 -6.719999 31.411032 32.126510 1.489296 0.211442 0.025397 -0.001331 -150269.000000 0 0 1
0.012999 -7.248999 30.244272 31.100871 -1.569003 0.235244 0.021639 -0.000188 -147751.000000 0 0 1
-0.439401 -6.696299 28.882332 29.651688 1.505272 0.228296 0.017384 0.006430 -164077.000000 0 0 1
0.048999 -5.418199 28.602522 29.111227 -1.561753 0.187220 0.030026 -0.004001 -129690.000000 0 0 1
-0.054601 -5.061199 27.227202 27.693668 1.560009 0.183800 0.034929 0.006458 1028510.000000 0 0 1
-1.411001 -4.334899 26.850692 27.234940 1.256114 0.168178 0.029340 0.014285 1395230.000000 0 0 1
-2.605201 -5.098299 27.006512 27.606728 1.098392 0.208906 0.026363 0.008699 198584.000000 0 0 1
-3.714901 -4.225999 26.814612 27.398594 0.849672 0.206836 0.014643 -0.006120 195771.000000 0 0 1
-5.061801 -4.760799 27.322982 28.192772 0.754764 0.249044 -0.001295 -0.003232 128872.000000 0 0 1
-5.591101 -5.865999 26.623122 27.829139 0.809387 0.295476 -0.003561 0.005354 -190266.000000 0 0 1
-6.915601 -6.212999 26.967472 28.524927 0.731932 0.331976 -0.015349 0.001452 249281.000000 0 0 1
-7.091001 -7.700899 26.864222 28.831798 0.826607 0.371575 -0.010718 -0.000970 264384.000000 0 0 1
-6.277401 -8.461499 27.781122 29.711841 0.932514 0.362485 -0.009423 -0.002194 255947.000000 0 0 1
-6.259501 -9.858999 27.569402 29.940827 1.005108 0.400679 -0.006169 -0.004129 59723.400000 0 0 1
-5.345101 -10.421899 28.702272 31.000105 1.096904 0.387447 -0.001833 -0.007344 88708.900000 0 0 1
-5.122501 -11.801299 28.598282 31.358769 1.161275 0.422734 0.013237 -0.012751 264919.000000 0 0 1
-4.467001 -12.348999 29.742942 32.512989 1.223710 0.415779 0.021337 -0.012774 -269470.000000 0 0 1
-4.443101 -13.861699 29.847372 33.207732 1.260612 0.453754 0.037124 -0.022015 89868.400000 0 0 1
-5.755401 -14.382599 29.949072 33.718403 1.190148 0.477359 0.059544 -0.025588 49104.000000 0 0 1
-5.774301 -15.801899 30.065972 34.452942 1.220453 0.510157 0.044263 -0.027330 93852.000000 0 0 1
-5.864601 -16.326699 31.522232 35.980630 1.225946 0.503107 0.065441 -0.021061 561698.000000 0 0 1
-7.171701 -16.233099 32.092912 36.672903 1.154787 0.505128 0.059651 -0.018989 364993.000000 0 0 1
-7.149101 -16.626399 33.434212 38.018329 1.164711 0.496147 0.056100 -0.018693 16717.100000 0 0 1
-8.586701 -16.808299 34.023022 38.907793 1.098498 0.506490 0.054403 -0.008949 1013680.000000 0 0 1
-9.282601 -18.034599 33.618238 39.263207 1.095450 0.542874 0.050927 -0.009810 626535.000000 0 0 1
-9.721701 -18.096699 32.250372 38.237266 1.077827 0.567164 0.056019 -0.011402 -523972.000000 0 0 1
-10.521201 -19.390699 31.996112 38.864458 1.073660 0.603641 0.055466 -0.013727 112296.000000 0 0 1
-11.704501 -19.780699 32.666582 39.942170 1.036492 0.613137 0.053369 -0.013270 386292.000000 0 0 1
-12.114301 -21.117799 32.425252 40.547684 1.049975 0.644031 0.034739 -0.009192 -447071.000000 0 0 1
-11.568601 -22.131299 33.378589 41.686414 1.089134 0.642322 0.029858 -0.004939 -889552.000000 0 0 1
-10.200501 -22.322999 33.143735 41.241650 1.142178 0.637398 0.021698 -0.007433 -474543.000000 0 0 1
-9.599601 -23.183999 34.086606 42.326669 1.178227 0.634578 0.020123 -0.015603 119763.000000 0 0 1
-9.984901 -24.708499 34.057033 43.244534 1.186754 0.663981 0.025826 -0.007788 -374799.000000 0 0 1
-9.222001 -25.457499 33.144587 42.798285 1.223250 0.684971 0.020145 -0.001131 -51083.300000 0 0 1
-9.443301 -26.828799 33.282179 43.779720 1.232355 0.707146 0.020771 -0.002628 -760055.000000 0 0 1
-8.556201 -27.666639 32.368412 43.432311 1.270865 0.729870 0.016551 0.004377 175660.000000 0 0 1
-7.152801 -27.473089 32.356512 43.045059 1.316094 0.720176 0.027114 -0.008300 18457.500000 0 0 1
-6.500301 -28.128969 33.396013 44.145062 1.343694 0.712842 0.036503 -0.006223 -119332.000000 0 0 1
-5.061701 -27.603569 33.727847 43.876480 1.389440 0.693990 0.049370 -0.014887 502592.000000 0 0 1
-4.928601 -26.481589 -34.233513 43.560293 1.386787 2.474927 0.043826 -0.007365 -128536.000000 0 0 1
-5.160401 -25.283049 33.806813 42.529554 1.369457 0.651951 0.034838 -0.013444 -183921.000000 0 0 1
-4.787401 -24.072999 -34.122129 42.032704 1.374487 2.518024 0.042330 -0.010924 -265241.000000 0 0 1
-3.390501 -23.949499 -34.080775 41.792024 1.430162 2.524363 0.031720 -0.011999 -246720.000000 0 0 1
-2.980001 -22.698599 -33.507655 40.581643 1.440257 2.542212 0.028318 -0.024686 -184575.000000 0 0 1
33.926234 -15.074899 2.133215 37.185919 -0.418140 1.513399 0.063563 -0.023720 89866.100000 0 0 1
34.680644 -15.880699 3.039015 38.264596 -0.429414 1.491292 0.046375 -0.027240 569192.000000 0 0 1
33.888514 -16.385699 4.101715 37.864847 -0.450375 1.462258 0.053475 -0.029255 -238814.000000 0 0 1
34.669524 -16.319099 5.391215 38.695660 -0.439938 1.431018 0.038991 -0.012019 -841745.000000 0 0 1
-35.591155 -17.312199 5.425515 39.948451 0.452724 1.434562 0.046048 -0.011186 -558173.000000 0 0 1
-34.889229 -17.321999 6.682415 39.521698 0.460832 1.400898 0.035503 -0.003081 243267.000000 0 0 1
-33.689131 -18.299199 6.688615 38.917294 0.497591 1.398071 0.027419 -0.016872 -145318.000000 0 0 1
-33.872671 -19.704399 6.600615 39.739015 0.526870 1.403924 0.031933 -0.018130 -296696.000000 0 0 1
-32.626411 -20.321399 6.818415 39.037581 0.557053 1.395233 0.028027 -0.017060 -33711.100000 0 0 1
-32.650051 -21.827099 6.993815 39.891873 0.589282 1.394566 0.037560 -0.017359 -184092.000000 0 0 1
-32.928591 -22.518099 5.776315 40.307849 0.599802 1.426996 0.049637 -0.022508 231989.000000 0 0 1
-33.007601 -23.899299 6.108315 41.206671 0.626688 1.422012 0.055052 -0.020517 -310084.000000 0 0 1
-32.272651 -24.893599 5.192615 41.087450 0.657027 1.444078 0.064969 -0.017706 -187280.000000 0 0 1
-32.827251 -24.963399 3.880615 41.422927 0.650154 1.476976 0.075455 -0.017848 726706.000000 0 0 1
-32.040691 -25.820619 3.006915 41.259566 0.678310 1.497854 0.063953 -0.014391 232131.000000 0 0 1
-32.427231 -25.628549 1.507415 41.359644 0.668823 1.534342 0.079132 -0.016490 988673.000000 0 0 1
-33.771411 -26.011309 1.146415 42.642827 0.656315 1.543909 0.065761 -0.019244 937962.000000 0 0 1
-34.295949 -25.610269 -0.103285 42.803139 0.641414 1.573209 0.057987 -0.013780 9924.670000 0 0 1
-35.342164 -24.488599 -0.086485 42.997297 0.605945 1.572808 0.067125 -0.018743 -544140.000000 0 0 1
34.519164 -24.810199 0.198015 42.510680 -0.623191 1.566138 0.059365 -0.014672 -237500.000000 0 0 1
33.792594 -23.610899 0.344615 41.225390 -0.609853 1.562437 0.062078 -0.016937 618456.000000 0 0 1
32.242544 -23.695199 0.172215 40.013420 -0.633770 1.566492 0.036717 -0.011252 647871.000000 0 0 1
31.788244 -23.585499 -1.142485 39.598908 -0.638333 1.599652 0.039849 -0.022156 -825957.000000 0 0 1
30.406354 -23.640699 -1.190085 38.533691 -0.660865 1.601686 0.031249 -0.017938 -642586.000000 0 0 1
29.849754 -23.505799 -2.614785 38.083691 -0.667054 1.639509 0.029464 -0.012098 58044.700000 0 0 1
30.163954 -22.262099 -3.200385 37.625891 -0.635800 1.655957 0.041070 -0.026740 52816.400000 0 0 1
29.633354 -22.204599 -4.491585 37.300861 -0.643060 1.691504 0.038692 -0.037911 23846.300000 0 0 1
29.699244 -20.810199 -5.020085 36.610255 -0.611194 1.708352 0.025140 -0.036213 -83530.100000 0 0 1
28.870794 -19.997299 -4.232385 35.374112 -0.605775 1.690730 0.028892 -0.033362 -320766.000000 0 0 1
28.974684 -18.589199 -4.482885 34.715802 -0.570424 1.700289 0.027716 -0.033877 515568.000000 0 0 1
28.093984 -17.849899 -3.353785 33.453531 -0.566017 1.671217 0.036412 -0.028378 762930.000000 0 0 1
28.785554 -17.565299 -2.122885 33.788378 -0.547895 1.633667 0.037373 -0.024689 779568.000000 0 0 1
29.529904 -18.574199 -1.364785 34.912444 -0.561468 1.609898 0.039368 -0.011532 84317.800000 0 0 1
28.728574 -19.834899 -0.994785 34.924831 -0.604270 1.599284 0.033922 -0.012757 -393727.000000 0 0 1
27.615784 -19.469699 -0.221985 33.789792 -0.614088 1.577366 0.020986 0.002923 -164341.000000 0 0 1
26.908744 -20.686499 0.016715 33.941303 -0.655403 1.570304 0.013187 0.002713 -429158.000000 0 0 1
25.837224 -20.631599 1.130315 33.083269 -0.673839 1.536624 0.000033 0.002036 -1144760.000000 0 0 1
25.123624 -21.833599 1.314915 33.311133 -0.715448 1.531312 -0.013063 0.010640 -276705.000000 0 0 1
24.232924 -21.801199 2.407615 32.685219 -0.732623 1.497069 -0.008589 0.006045 668384.000000 0 0 1
22.840124 -21.156299 2.025515 31.198766 -0.747145 1.505828 -0.012355 0.007233 -205279.000000 0 0 1
22.811624 -19.792099 1.713115 30.249499 -0.714642 1.514133 0.004525 -0.005829 31008.200000 0 0 1
22.975024 -18.997399 2.878415 29.950596 -0.690913 1.474542 0.011274 -0.006590 -451901.000000 0 0 1
22.823724 -17.548199 2.483815 28.896903 -0.655461 1.484736 0.017175 -0.006408 -22239.800000 0 0 1
21.495424 -17.183799 2.208415 27.608211 -0.674385 1.490720 0.021877 -0.002029 -271217.000000 0 0 1
21.566924 -15.845099 1.754515 26.819353 -0.633633 1.505330 0.028975 -0.015509 86104.300000 0 0 1
20.244524 -15.343999 1.109015 25.426541 -0.648559 1.527166 0.026089 -0.001265 -249256.000000 0 0 1
19.246524 -15.252199 2.071915 24.644495 -0.670130 1.486625 0.022318 0.000692 -845157.000000 0 1 0
18.412924 -14.137599 1.992715 23.299751 -0.654801 1.485167 0.030099 -0.002167 -479996.000000 0 1 0
18.901824 -12.727399 2.428815 22.916474 -0.592610 1.464611 0.036162 -0.006429 -425925.000000 0 1 0
19.893824 -12.126199 1.619215 23.354460 -0.547409 1.501409 0.038355 -0.009066 246353.000000 0 1 0
20.231124 -10.906699 2.175415 23.086509 -0.494440 1.476427 0.040828 -0.008180 24111.400000 0 1 0
21.008424 -9.995999 1.181915 23.295296 -0.444108 1.520038 0.049885 -0.012870 -116095.000000 0 1 0
20.234324 -9.497499 0.104315 22.352657 -0.438849 1.566130 0.042135 -0.011928 126180.000000 0 1 0
20.991424 -8.843999 -0.850385 22.794284 -0.398745 1.608112 0.045955 -0.000282 -669085.000000 0 1 0
20.227624 -8.601199 -2.144785 22.084780 -0.402057 1.668066 0.047305 0.002249 -283871.000000 0 1 0
20.942524 -7.982099 -3.212385 22.641172 -0.364146 1.713159 0.048360 -0.007182 1023270.000000 0 1 0
22.046024 -8.722199 -3.811485 24.013150 -0.376739 1.730195 0.050348 -0.010257 631478.000000 0 1 0
21.671724 -9.940599 -4.765285 24.314339 -0.430057 1.768060 0.038602 -0.010846 -116833.000000 0 1 0
21.080424 -9.574499 -6.018185 23.922247 -0.426332 1.825101 0.033271 -0.011640 265084.000000 0 1 0
19.690424 -9.352699 -6.089485 22.633330 -0.443438 1.843202 0.027499 -0.003530 -432676.000000 0 1 0
19.119424 -9.308199 -7.486685 22.544299 -0.453068 1.909312 0.031497 0.001600 -407496.000000 0 1 0
19.002724 -10.506399 -8.155585 23.194860 -0.505059 1.930089 0.026052 0.000908 73666.000000 0 1 0
20.176624 -10.922899 -8.782785 24.567116 -0.496189 1.936388 0.027539 0.000873 -580454.000000 0 1 0
19.981824 -12.341299 -9.385885 25.291813 -0.553279 1.950994 0.015862 -0.006186 -757612.000000 0 0 1
19.086024 -12.316799 -10.423585 24.992619 -0.573086 2.001012 0.037407 -0.012795 -399056.000000 0 1 0
18.968224 -13.627699 -10.945485 25.793630 -0.623001 2.009038 0.043561 -0.007588 -529916.000000 0 0 1
17.730624 -13.915799 -11.790185 25.436843 -0.665432 2.052747 0.043496 -0.010476 -422907.000000 0 0 1
17.548824 -15.331899 -11.941385 26.184443 -0.718077 2.044347 0.046902 -0.018001 218813.000000 0 0 1
16.713724 -15.578699 -13.064585 26.319723 -0.750264 2.090220 0.046891 -0.013963 -276393.000000 0 0 1
16.529224 -17.076099 -13.445185 27.305337 -0.801670 2.085643 0.036182 -0.021851 -4351.380000 0 0 1
15.780024 -17.794199 -12.441385 26.840841 -0.845318 2.052765 0.037049 -0.019111 484234.000000 0 0 1
15.812624 -19.182999 -12.744485 27.936507 -0.881411 2.044511 0.032021 -0.017719 -625917.000000 0 0 1
14.729624 -19.871399 -11.953385 27.472127 -0.932920 2.020956 0.019563 -0.017503 -563374.000000 0 0 1
13.423024 -19.714299 -12.445985 26.902300 -0.973020 2.051763 0.012084 -0.013550 -134634.000000 0 0 1
12.512024 -20.533099 -11.723385 26.750639 -1.023524 2.024444 0.012821 -0.005592 -448098.000000 0 0 1
11.066324 -20.389999 -12.156985 26.191752 -1.073550 2.053475 0.008176 -0.009440 -1100820.000000 0 0 1
10.252624 -21.242799 -11.456585 26.222627 -1.121133 2.022942 0.014039 -0.006700 -1147880.000000 0 0 1
8.919024 -20.835899 -11.626385 25.472662 -1.166336 2.044771 0.002055 -0.007684 -77282.100000 0 0 1
8.061124 -21.399599 -10.438285 25.137271 -1.210540 1.999015 -0.000483 -0.007238 -200706.000000 0 0 1
7.847624 -22.790299 -10.599285 26.331118 -1.239172 1.985084 0.006334 -0.005104 -88482.600000 0 0 1
7.108624 -23.328599 -9.526885 26.182391 -1.275018 1.943212 0.008809 -0.015115 92286.700000 0 0 1
7.100424 -24.898499 -9.556685 27.598578 -1.292996 1.924393 0.009154 -0.013770 376024.000000 0 0 1
8.305524 -25.497029 -9.116085 28.322840 -1.255891 1.898493 0.020905 -0.006313 -216787.000000 0 0 1
8.489024 -26.765949 -9.718085 29.713982 -1.263674 1.903981 0.015584 -0.009166 -278318.000000 0 0 1
9.905324 -27.239279 -9.413085 30.474579 -1.222021 1.884815 0.020615 0.000546 -220937.000000 0 0 1
10.219424 -27.337739 -7.985185 30.258087 -1.213060 1.837862 0.022729 -0.010224 -540648.000000 0 0 1
11.549224 -27.752989 -7.852185 31.068792 -1.176451 1.826303 0.044140 -0.003990 -412725.000000 0 0 1
11.858824 -27.955809 -6.339285 31.021694 -1.169604 1.776596 0.043049 -0.016891 361.616000 0 0 1
11.510524 -29.121639 -5.634785 31.816864 -1.194386 1.748836 0.036543 -0.017303 75766.200000 0 0 1
10.111124 -29.272569 -5.451385 31.445759 -1.238214 1.745035 0.032633 -0.021625 142720.000000 0 0 1
9.740424 -30.436509 -4.480485 32.269672 -1.261071 1.710091 0.042268 -0.024185 -16406.100000 0 0 1
9.869624 -31.769349 -4.937585 33.631544 -1.269584 1.718143 0.047523 -0.019470 141029.000000 0 0 1
9.061024 -32.118089 -6.084585 33.921910 -1.295827 1.751143 0.048051 -0.015141 323166.000000 0 0 1
9.246324 -33.566399 -6.496985 35.417630 -1.301999 1.755280 0.048899 -0.012697 -442245.000000 0 0 1
8.756424 -34.417922 -5.514085 35.939859 -1.321667 1.724830 0.041689 -0.009254 -74470.500000 0 0 1
9.209224 33.138274 -5.656085 34.856080 1.299733 1.733787 0.048581 -0.007230 -32275.200000 0 0 1
8.658324 32.277271 -4.465785 33.715457 1.308718 1.703642 0.023596 -0.003705 -889615.000000 0 0 1
7.359724 31.901521 -4.635985 33.066069 1.344062 1.711463 0.018152 -0.004881 -1565660.000000 0 0 1
6.891624 30.973871 -3.662985 31.942020 1.351865 1.685725 0.003717 -0.001714 214990.000000 0 0 1
5.530324 30.342501 -4.042485 31.106165 1.390512 1.701123 0.011674 -0.003981 -65675.500000 0 0 1
5.456024 29.534941 -5.203985 30.482165 1.388125 1.742359 0.015737 -0.005071 -15239.100000 0 0 1
5.060624 30.292861 -6.324585 31.357100 1.405268 1.773885 0.000465 -0.001733 -474193.000000 0 0 1
5.353024 29.536631 -7.643785 30.975714 1.391509 1.820139 0.021991 -0.013284 93555.400000 0 0 1
4.583624 28.343451 -7.978885 29.799722 1.410467 1.841854 0.023877 -0.020389 306596.000000 0 0 1
5.031524 27.212291 -7.259085 28.609777 1.387962 1.827328 0.023804 -0.012933 -52097.500000 0 0 1
4.060024 25.979441 -7.381185 27.311116 1.415772 1.844463 0.019994 -0.019258 452750.000000 0 0 1
2.738224 26.210861 -6.862185 27.232273 1.466705 1.825530 0.024907 -0.016715 92956.900000 0 0 1
1.796724 26.660861 -7.783985 27.831999 1.503506 1.854255 0.029095 -0.019865 -403150.000000 0 0 1
1.450324 25.849041 -9.015285 27.414444 1.514748 1.905884 0.035875 -0.023356 -877536.000000 0 0 1
2.461624 25.773561 -10.018585 27.761630 1.475575 1.940006 0.026638 -0.024479 -38125.500000 0 0 1
2.059224 25.087891 -11.194185 27.549092 1.488900 1.989237 0.042786 -0.024743 -473850.000000 0 0 1
1.882624 23.552771 -11.077785 26.095873 1.491034 2.009210 0.047274 -0.016730 305181.000000 0 0 1
0.817124 23.141971 -10.218585 25.310828 1.535502 1.986380 0.048810 -0.016170 82807.800000 0 0 1
0.710624 21.779971 -10.189685 24.056222 1.538180 2.008188 0.031616 -0.008106 -496192.000000 0 1 0
-0.417776 21.178271 -9.369085 23.161896 -1.551072 1.987233 0.026428 -0.003849 542985.000000 0 1 0
-1.756676 21.364171 -9.854985 23.593101 -1.488756 2.001716 0.036161 -0.004251 1144760.000000 0 1 0
-2.677676 20.475771 -9.134785 22.580333 -1.440761 1.987279 0.028134 -0.006252 1538920.000000 0 1 0
-4.183576 20.897771 -9.354685 23.275078 -1.373216 1.984407 0.047166 -0.004092 766894.000000 0 1 0
-5.100476 19.929971 -8.952085 22.435651 -1.320254 1.981235 0.028398 -0.015130 -165654.000000 0 1 0
-5.763176 19.327571 -10.031785 22.525672 -1.281006 2.032360 0.025389 -0.012156 -1116050.000000 0 1 0
-6.618776 18.166171 -9.542185 21.560873 -1.221399 2.029258 0.025675 -0.013958 -487162.000000 0 1 0
-7.697276 18.501571 -8.685385 21.840149 -1.176545 1.979783 0.033794 -0.017059 -611726.000000 0 1 0
-8.868376 18.692771 -9.420385 22.733487 -1.127815 1.998062 0.041827 -0.023181 -1489030.000000 0 1 0
-9.960876 19.047471 -8.444485 23.094036 -1.088958 1.945134 0.049312 -0.027559 -635180.000000 0 1 0
-10.315976 17.888971 -7.646685 22.020591 -1.047710 1.925435 0.045679 -0.029844 -287869.000000 0 1 0
-11.078076 18.270271 -6.532685 22.342841 -1.025725 1.867515 0.046512 -0.022755 -365314.000000 0 1 0
-11.714476 17.116171 -5.720785 21.515567 -0.970610 1.839924 0.030474 -0.026046 -10832.800000 0 1 0
-12.582176 17.475371 -4.649685 22.029964 -0.946777 1.783457 0.040257 -0.023489 267225.000000 0 1 0
-13.095076 16.282171 -4.078585 21.289081 -0.893464 1.763569 0.039231 -0.019199 -317200.000000 0 1 0
-14.272876 16.604071 -3.149785 22.120834 -0.860755 1.713672 0.024850 -0.019314 -66220.900000 0 1 0
-15.520276 16.810171 -3.786785 23.190527 -0.825274 1.734821 0.050840 -0.024723 -783145.000000 0 1 0
-16.469276 17.208871 -2.913885 23.997354 -0.807355 1.692522 0.048890 -0.022549 -1344360.000000 0 1 0
-17.794676 17.393271 -3.661285 25.151170 -0.773991 1.716887 0.053454 -0.030200 -796395.000000 0 0 1
-17.812276 18.351071 -4.673685 25.997736 -0.800296 1.751552 0.048556 -0.033246 63485.300000 0 0 1
-19.086476 18.548571 -5.256085 27.128757 -0.771106 1.765775 0.036342 -0.030786 -169728.000000 0 0 1
-19.094176 19.392971 -6.522585 27.986050 -0.793162 1.806025 0.029846 -0.018163 -316020.000000 0 0 1
-18.745276 20.725371 -6.260285 28.637694 -0.835522 1.791179 0.038893 -0.018878 95549.300000 0 0 1
-18.878376 21.522871 -7.413685 29.573464 -0.850761 1.824186 0.031872 -0.008915 -61942.300000 0 0 1
-18.589576 23.006371 -7.203585 30.442685 -0.891185 1.809690 0.049523 -0.008611 33830.000000 0 0 1
-17.329076 23.281571 -6.629485 29.770430 -0.930937 1.795366 0.054248 -0.017341 155795.000000 0 0 1
-17.418176 24.394011 -5.828385 30.535728 -0.950713 1.762846 0.057656 -0.016212 307771.000000 0 0 1
-15.996276 24.647551 -5.275385 29.853179 -0.995124 1.748440 0.048486 -0.019059 73203.100000 0 0 1
-16.067176 25.763181 -4.360285 30.674219 -1.013169 1.713428 0.042806 -0.022067 150193.000000 0 0 1
-14.804976 26.172391 -3.881785 30.319129 -1.056001 1.699180 0.055370 -0.025992 166502.000000 0 0 1
-14.092876 27.296941 -4.677685 31.074312 -1.094209 1.721903 0.053077 -0.020205 -36956.000000 0 0 1
-14.766876 28.533751 -4.480785 32.439374 -1.093229 1.709367 0.057094 -0.013214 280962.000000 0 0 1
-14.216676 29.625411 -5.227785 33.273241 -1.123373 1.728567 0.046079 -0.015906 -1902.430000 0 0 1
-14.904976 30.921361 -4.725885 34.650005 -1.121629 1.707612 0.033528 -0.009135 1072880.000000 0 0 1
-16.291676 30.980761 -5.110285 35.374302 -1.086672 1.715767 0.056655 -0.012439 798460.000000 0 0 1
-16.966976 31.892901 -4.246885 36.374049 -1.081879 1.687819 0.051993 -0.007645 -89456.800000 0 0 1
12.303199 -8.433499 18.901162 24.077926 -0.600909 0.668101 0.033747 -0.013865 -96012.500000 0 1 0
12.539599 -9.732599 19.325062 25.008460 -0.660028 0.687648 0.040333 -0.012109 -390539.000000 0 0 1
13.339799 -10.463999 18.466962 25.069388 -0.665168 0.742717 0.046893 -0.011904 -333803.000000 0 0 1
13.571799 -11.865599 19.049162 26.227023 -0.718424 0.757846 0.061665 -0.014090 -251250.000000 0 0 1
14.608499 -11.924999 20.012762 27.497718 -0.684605 0.755692 0.051194 -0.012629 217367.000000 0 0 1
14.857399 -13.225699 20.581962 28.623043 -0.727361 0.768334 0.053121 -0.008053 -188160.000000 0 0 1
15.653099 -14.236799 19.711662 28.918084 -0.738050 0.820798 0.051854 0.004791 -337310.000000 0 0 1
15.100799 -14.563099 18.432362 27.926152 -0.767274 0.849925 0.059486 -0.010566 119829.000000 0 0 1
15.762199 -15.652999 17.886362 28.519910 -0.781922 0.892903 0.067800 -0.009755 -507150.000000 0 0 1
15.314399 -15.880299 16.433962 27.509813 -0.803537 0.930559 0.062347 -0.014259 -529517.000000 0 0 1
13.961299 -16.173999 16.282762 26.863441 -0.858692 0.919609 0.098566 -0.017501 -650448.000000 0 0 1
13.486999 -16.015399 14.973162 25.740780 -0.870891 0.949991 0.106136 -0.030642 -206852.000000 0 0 1
12.650799 -17.124599 14.372562 25.687841 -0.934534 0.977004 0.066466 -0.017008 -707237.000000 0 0 1
13.418999 -18.245499 14.052962 26.654334 -0.936660 1.015459 0.064658 -0.017298 -222932.000000 0 0 1
12.771699 -19.372499 13.456062 26.823043 -0.987932 1.045279 0.065176 -0.020324 -567515.000000 0 0 1
13.726299 -20.431399 12.909862 27.794206 -0.979232 1.087749 0.065226 -0.019870 -264941.000000 0 0 1
14.581099 -21.001599 13.885262 29.094263 -0.963916 1.073273 0.051116 -0.016658 -22932.100000 0 0 1
14.950399 -22.287799 13.541862 30.060646 -0.979946 1.103488 0.029384 -0.011147 -402837.000000 0 0 1
15.783599 -22.960899 14.669962 31.488612 -0.968569 1.086166 0.023137 -0.010922 596028.000000 0 0 1
17.177999 -22.684399 14.567062 31.966622 -0.922665 1.097642 -0.014460 -0.009051 41566.100000 0 0 1
17.908799 -23.307699 15.579862 33.267191 -0.915645 1.083402 -0.011084 -0.009279 314807.000000 0 0 1
19.261999 -22.606699 15.884162 33.680767 -0.865114 1.079681 -0.021136 -0.009123 31500.800000 0 0 1
20.227799 -22.855499 14.928662 33.976501 -0.846314 1.115886 -0.011130 -0.015648 -1079500.000000 0 0 1
21.496499 -22.404699 15.339262 34.631820 -0.806083 1.111939 -0.015104 -0.011225 -388434.000000 0 0 1
22.555799 -23.255599 14.635662 35.549818 -0.800673 1.146484 -0.015258 -0.018457 -506631.000000 0 0 1
22.724599 -24.464499 15.408962 36.774383 -0.822252 1.138438 -0.010650 -0.014057 -85757.000000 0 0 1
23.915099 -25.045219 14.945862 37.717022 -0.808476 1.163353 -0.007630 -0.015013 -501499.000000 0 0 1
24.429299 -26.215829 15.799462 39.162270 -0.820659 1.155528 -0.004875 -0.012205 -431537.000000 0 0 1
24.836899 -25.962799 17.105762 39.793788 -0.807558 1.126458 -0.005737 -0.004507 -156793.000000 0 0 1
25.361599 -27.058789 17.743662 41.112362 -0.817763 1.124542 0.009505 0.003001 -31695.700000 0 0 1
25.653799 -26.756479 19.220962 41.754904 -0.806434 1.092431 -0.003495 0.013832 493462.000000 0 0 1
24.427299 -26.471649 19.903162 41.153092 -0.825541 1.065991 -0.001279 0.025879 323906.000000 0 0 1
24.563499 -25.887889 21.186862 41.502186 -0.811643 1.035030 -0.000674 0.030012 -216798.000000 0 0 1
23.290899 -25.772569 22.056362 41.148201 -0.835936 1.005078 -0.000365 0.024114 14356.600000 0 0 1
22.828099 -27.090809 22.422262 41.926029 -0.870584 1.006519 -0.000221 0.030242 -591580.000000 0 0 1
21.795399 -27.016839 23.337962 41.828334 -0.891963 0.978887 0.007737 0.026048 -534122.000000 0 0 1
21.265799 -28.459269 23.540462 42.618277 -0.929066 0.985608 0.021302 0.017082 -563567.000000 0 0 1
22.244699 -29.269019 24.098432 43.957213 -0.920921 0.990556 0.027066 0.018543 121315.000000 0 0 1
22.027199 -30.621429 23.652362 44.523069 -0.947209 1.010735 0.037143 0.010568 719219.000000 0 0 1
23.239099 -31.567789 24.048742 45.988292 -0.936209 1.020509 0.016260 0.023764 843585.000000 0 0 1
23.114799 -31.797829 25.423602 46.816188 -0.942224 0.996729 0.022926 0.016536 -26129.100000 0 0 1
24.335499 -32.212609 25.959402 47.997492 -0.923807 0.999350 0.038293 0.012310 -603851.000000 0 0 1
24.112199 -32.455439 27.501412 48.898684 -0.931834 0.973491 0.039133 -0.000662 305607.000000 0 0 1
23.483099 -33.657189 27.893782 49.621824 -0.961606 0.973841 0.035303 -0.004169 107605.000000 0 0 1
22.143299 -33.888419 27.529012 48.955052 -0.992022 0.973593 0.036154 -0.002544 -171611.000000 0 0 1
21.477999 33.618070 27.895022 48.678654 1.002276 0.960581 0.072234 -0.021852 334064.000000 0 0 1
20.841499 33.681695 29.185652 49.199867 1.016684 0.935761 0.068529 -0.013664 203793.000000 0 0 1
20.262799 32.433871 29.513572 48.307224 1.012383 0.913529 0.068053 -0.016872 129703.000000 0 0 1
19.899699 32.452981 30.982562 49.082717 1.020738 0.887656 0.059689 -0.022085 -742637.000000 0 0 1
21.025299 32.723401 31.720192 50.190186 0.999700 0.886665 0.050715 -0.012053 -690694.000000 0 0 1
20.720099 33.017937 33.049952 51.105831 1.010372 0.867551 0.038110 -0.010374 -428062.000000 0 0 1
21.881399 32.977056 34.042334 52.203087 0.984966 0.860428 0.020224 -0.000418 -357688.000000 0 0 1
22.310699 31.625771 34.240288 51.675468 0.956416 0.846508 0.021539 -0.004750 -92497.500000 0 0 1
23.430399 31.743341 -33.696455 51.885204 0.934942 2.277647 0.015392 -0.002060 -157577.000000 0 0 1
23.868799 30.293641 -33.354545 50.989704 0.903468 2.283845 0.027302 0.003951 143215.000000 0 0 1
24.397599 29.506701 34.326123 51.421503 0.879897 0.839891 0.032700 -0.002569 208718.000000 0 0 1
23.645199 28.356121 34.161116 50.300565 0.875744 0.824206 0.045888 -0.013834 -298317.000000 0 0 1
23.875299 27.648921 32.821099 49.109238 0.858507 0.838837 0.069895 -0.023708 -242156.000000 0 0 1
25.080699 26.935861 32.808369 49.304879 0.821048 0.842742 0.059383 -0.019912 -83660.700000 0 0 1
25.266399 26.305861 31.531532 48.214383 0.805551 0.857955 0.072571 -0.026587 -394519.000000 0 0 1
26.596999 25.527361 31.455002 48.460950 0.764880 0.864423 0.053952 -0.017895 -92363.700000 0 0 1
26.702299 24.478801 32.387132 48.591674 0.741982 0.841271 0.079235 -0.020114 256692.000000 0 0 1
27.399199 24.854401 33.573779 49.956541 0.736736 0.833809 0.068478 -0.020845 -813261.000000 0 0 1
27.384199 23.775971 -34.077746 49.764284 0.714987 2.325103 0.060998 -0.021928 -141925.000000 0 0 1
26.453199 23.993301 -33.010655 48.632845 0.736674 2.316887 0.059649 -0.012947 1090260.000000 0 0 1
25.066199 23.885111 -33.360825 48.080740 0.761275 2.337618 0.075544 -0.009822 257177.000000 0 0 1
24.486499 22.475171 -33.506755 47.195599 0.742595 2.360231 0.066042 -0.018672 -816450.000000 0 0 1
24.272099 21.885171 -32.206795 45.884345 0.733731 2.348875 0.040954 -0.023231 275880.000000 0 0 1
24.123399 20.510671 -32.333925 45.256035 0.704633 2.366658 0.041851 -0.016395 -107663.000000 0 0 1
24.006599 19.727271 -30.922425 43.836952 0.687859 2.353778 0.040750 -0.024331 665807.000000 0 0 1
22.762499 20.033171 -30.250935 42.831978 0.721709 2.355012 0.036839 -0.022025 938166.000000 0 0 1
22.709399 19.374071 -28.962765 41.592225 0.706308 2.341096 0.040096 -0.020611 -173844.000000 0 0 1
21.412699 19.562871 -28.152805 40.420169 0.740284 2.341310 0.051289 -0.026640 -163610.000000 0 0 1
21.215699 18.971271 -26.886615 39.152332 0.729606 2.327761 0.046190 -0.022757 -207728.000000 0 0 1
22.006199 19.513371 -25.864775 39.166708 0.725430 2.292116 0.046469 -0.020217 -215962.000000 0 0 1
22.004799 18.677071 -24.543285 37.886898 0.703781 2.275495 0.053685 -0.020375 -87628.000000 0 0 1
22.792699 17.529671 -24.643785 37.869680 0.655608 2.279371 0.051733 -0.029317 12028.000000 0 0 1
22.842999 16.790171 -23.449985 36.791497 0.633848 2.261883 0.058174 -0.025141 -197183.000000 0 0 1
23.852999 15.632371 -23.598085 37.016297 0.580136 2.262052 0.060672 -0.027214 525759.000000 0 0 1
25.230799 16.040771 -23.472385 38.011214 0.566301 2.236372 0.068541 -0.028009 1114790.000000 0 0 1
26.216499 15.021771 -23.490385 38.272139 0.520322 2.231626 0.066736 -0.027704 315940.000000 0 0 1
26.174799 13.961871 -22.372785 37.156365 0.490016 2.216957 0.064609 -0.024918 -1156880.000000 0 0 1
25.009699 13.202671 -22.386685 36.068813 0.485719 2.240388 0.057531 -0.024975 -516337.000000 0 0 1
24.843799 12.313271 -21.275985 34.949943 0.460144 2.225288 0.041628 -0.014648 -642082.000000 0 0 1
23.410799 11.788971 -21.297185 33.772999 0.466499 2.253120 0.035876 -0.019394 -749772.000000 0 0 1
22.595699 12.783771 -20.765185 33.244298 0.514863 2.245446 0.056950 -0.018391 -179834.000000 0 0 1
21.227599 12.517171 -21.089685 32.435557 0.532786 2.278647 0.045981 -0.021807 273890.000000 0 0 1
20.322199 13.712671 -20.835485 32.173694 0.593587 2.275219 0.046566 -0.020557 -791480.000000 0 0 1
20.566599 14.836971 -21.576385 33.296563 0.624952 2.275760 0.048708 -0.021282 260707.000000 0 0 1
19.684399 15.933071 -21.277385 33.076660 0.680462 2.269564 0.043719 -0.022138 -119961.000000 0 0 1
18.426199 15.952371 -22.182585 32.955577 0.713564 2.309197 0.036950 -0.017453 73108.200000 0 0 1
17.420399 15.040271 -21.757785 31.671458 0.712206 2.328127 0.017072 -0.017795 192724.000000 0 0 1
16.279599 15.164271 -22.583885 31.701929 0.749943 2.363683 0.012271 -0.021278 -550948.000000 0 0 1
15.125999 14.259771 -22.250785 30.450523 0.755929 2.390171 -0.002052 -0.012672 -638626.000000 0 0 1
14.005099 14.531771 -23.056185 30.641521 0.803852 2.422569 0.009648 -0.012283 -380097.000000 0 0 1
12.884799 13.822571 -22.577585 29.441958 0.820497 2.444716 0.022860 -0.014897 -804920.000000 0 0 1
11.619499 14.042371 -23.370185 29.637248 0.879534 2.479229 0.024383 -0.007580 -791687.000000 0 0 1
11.179599 15.358371 -23.141785 29.940027 0.941580 2.454255 -0.000149 -0.007765 -105777.000000 0 0 1
10.606899 15.875871 -24.322685 30.921556 0.981792 2.476068 0.010438 -0.006940 -845715.000000 0 0 1
10.558399 17.438171 -24.411285 31.803780 1.026360 2.445821 0.004793 -0.003972 1324360.000000 0 0 1
11.854699 18.135471 -24.396285 32.628330 0.991842 2.415392 0.004054 -0.010701 1365690.000000 0 0 1
12.814599 17.785271 -25.395395 33.547815 0.946433 2.429492 0.009383 -0.013214 -360216.000000 0 0 1
12.475099 17.648371 -26.879835 34.490848 0.955475 2.464396 0.020885 -0.021255 -858595.000000 0 0 1
13.592799 17.415471 -27.704795 35.434707 0.908058 2.468432 0.010068 -0.022173 -153349.000000 0 0 1
13.169999 17.383971 -29.034575 36.313329 0.922452 2.497354 0.012723 -0.022377 -165048.000000 0 0 1
14.314699 17.696171 -30.026735 37.678507 0.890643 2.492975 0.013647 -0.010702 398720.000000 0 0 1
15.352899 16.692071 -30.056865 37.653046 0.827164 2.495195 0.006409 -0.005942 278848.000000 0 0 1
16.271099 17.130171 -31.048495 39.015388 0.811112 2.491126 0.006933 0.000202 -649063.000000 0 0 1
17.558399 16.343371 -31.124905 39.295838 0.749574 2.484983 0.017203 -0.001096 -958625.000000 0 0 1
18.553499 16.754671 -30.215295 39.216264 0.734496 2.450388 0.018869 -0.006331 585539.000000 0 0 1
19.758299 15.980671 -30.365645 39.596018 0.680089 2.444772 0.030121 -0.003704 1162390.000000 0 0 1
20.909999 16.746271 -31.121515 41.063540 0.675274 2.430864 0.034699 -0.009817 126632.000000 0 0 1
20.735299 16.893671 -32.522915 42.108060 0.683658 2.453357 0.041623 -0.006941 307675.000000 0 0 1
21.928299 17.490171 -32.976725 43.292272 0.673280 2.436765 0.048764 -0.004957 145005.000000 0 0 1
21.762699 17.743471 34.303000 44.329918 0.684010 0.685960 0.030407 0.012227 88463.200000 0 0 1
22.784599 18.621471 33.889568 44.882067 0.685191 0.715020 0.035447 0.004098 133456.000000 0 0 1
22.720199 18.901571 32.518872 43.942620 0.693908 0.737681 0.038220 0.004137 -529105.000000 0 0 1
23.574499 20.089671 32.146802 44.640439 0.705757 0.766810 0.050880 0.004529 -500573.000000 0 0 1
24.950099 19.841771 32.121332 45.254649 0.671843 0.781595 0.036262 0.000799 -543241.000000 0 0 1
25.680199 21.007371 31.824492 45.973694 0.685643 0.806218 0.047464 -0.005425 654529.000000 0 0 1
27.215799 20.744471 31.667742 46.624872 0.651277 0.824120 0.045433 -0.007386 501221.000000 0 0 1
27.883999 20.562471 32.881891 47.765588 0.635407 0.811514 0.032426 -0.010410 -1093270.000000 0 0 1
29.251899 20.646471 32.649392 48.455476 0.614619 0.831454 0.014219 0.000039 -662043.000000 0 0 1
30.017799 20.230971 33.950092 49.628310 0.593039 0.817445 0.006270 0.006071 -253778.000000 0 0 1
29.798199 21.049871 -33.730035 49.686467 0.615018 2.317002 0.000738 0.003191 -23909.300000 0 0 1
28.824599 20.493171 -32.874265 48.286073 0.618045 2.319682 0.006051 -0.007497 -198126.000000 0 0 1
29.158199 20.654071 -31.377855 47.553770 0.616305 2.291401 0.019376 -0.006989 -360316.000000 0 0 1
30.335399 19.985271 -31.034925 47.778804 0.582544 2.277794 0.012753 -0.011662 -545599.000000 0 0 1
30.727699 20.411171 -29.786545 47.413560 0.586334 2.250070 0.014193 -0.004216 -986252.000000 0 0 1
32.150999 20.009071 -29.514305 48.011914 0.556689 2.232838 0.010999 0.006629 -878761.000000 0 0 1
33.135199 20.554671 -30.357835 49.416941 0.555232 2.232321 -0.000284 0.001522 -312727.000000 0 0 1
34.382799 20.626071 -29.696435 49.894789 0.540342 2.208287 -0.003428 0.010483 -22487.100000 0 0 1
35.430099 21.345471 -30.557095 51.426230 0.542232 2.207058 -0.020366 -0.000093 -515127.000000 0 0 1
-35.149926 20.606171 -31.527535 51.518124 -0.530238 2.229345 -0.018381 0.004453 -266618.000000 0 0 1
-34.024526 21.370171 -31.921015 51.315727 -0.560812 2.242156 -0.012718 -0.001627 -188632.000000 0 0 1
-33.255426 20.784571 -33.111335 51.325260 -0.558598 2.271986 -0.021030 0.002427 -717298.000000 0 0 1
-32.631526 19.618271 -32.777695 50.240127 -0.541306 2.281570 0.006872 0.001535 -224593.000000 0 0 1
-32.008626 18.996671 -33.899975 50.345148 -0.535616 2.309529 0.013416 0.003035 -402412.000000 0 0 1
-31.146626 17.786671 -33.465895 49.055521 -0.518870 2.321570 0.001716 0.009571 -72353.100000 0 0 1
-31.908326 16.685071 -32.994305 48.838070 -0.481804 2.312555 0.001583 0.013782 137686.000000 0 0 1
-31.382326 15.488971 -33.518795 48.458934 -0.458480 2.334630 -0.004804 0.014871 -281119.000000 0 0 1
-32.375426 14.321671 -33.524535 48.756260 -0.416484 2.328967 0.004608 0.012173 -375756.000000 0 0 1
-31.818526 13.103871 -33.875765 48.287654 -0.390664 2.348354 0.015233 0.006586 326795.000000 0 0 1
-32.859926 12.133871 -33.920875 48.760961 -0.353729 2.340130 0.020858 0.002519 163359.000000 0 0 1
-32.334526 10.667171 -33.834715 48.001022 -0.318658 2.353043 0.023789 0.001565 -66111.900000 0 0 1
-31.608526 10.223671 33.811438 47.400799 -0.312826 0.776587 0.012257 0.002471 260002.000000 0 0 1
-32.032426 8.964871 33.376631 47.121595 -0.272887 0.783697 0.020547 -0.007218 -208665.000000 0 0 1
-31.089026 8.350171 32.335702 45.627300 -0.262396 0.783154 0.023352 -0.001126 -534043.000000 0 0 1
-29.899226 7.868871 32.858353 45.117117 -0.257344 0.754973 0.008870 0.013126 -886617.000000 0 0 1
-28.968626 7.676071 31.838612 43.724142 -0.259026 0.755148 0.016549 -0.002619 -334090.000000 0 0 1
20.470699 -4.267899 -32.100555 38.310705 -0.205544 2.564221 0.014103 -0.020601 1263630.000000 0 0 1
21.911099 -4.369399 -32.311975 39.284242 -0.196833 2.536620 0.010419 -0.019684 1782310.000000 0 0 1
22.746399 -3.271999 -31.917215 39.329547 -0.142867 2.517567 0.017297 -0.015942 416880.000000 0 0 1
22.394999 -1.899599 -32.535475 39.543667 -0.084620 2.537070 0.024108 -0.017272 -1035880.000000 0 0 1
23.165099 -0.909899 -31.957115 39.480463 -0.039259 2.513996 0.027907 -0.016375 -77265.700000 0 0 1
22.976099 0.353501 -32.504875 39.806947 0.015384 2.526228 0.030847 -0.019291 -7251.590000 0 0 1
24.004099 1.379201 -31.981585 40.011508 0.057394 2.496942 0.033869 -0.011903 1278340.000000 0 0 1
25.377099 1.357501 -32.443575 41.211959 0.053442 2.477112 0.039838 -0.018472 877261.000000 0 0 1
26.218299 2.072101 -31.588505 41.103850 0.078869 2.447297 0.029840 -0.009793 568369.000000 0 0 1
27.759399 2.005001 -31.846135 42.293978 0.072103 2.423362 0.034757 -0.011512 765631.000000 0 0 1
28.218699 2.557701 -33.057435 43.538843 0.090392 2.432976 0.048241 -0.012942 -57615.900000 0 0 1
28.443899 1.549801 -34.038305 44.385397 0.054432 2.444763 0.043286 -0.015173 -159618.000000 0 0 1
28.948299 2.099701 33.382738 44.235958 0.072406 0.715673 0.044861 -0.029140 49040.000000 0 0 1
28.143199 3.087901 32.731590 43.277382 0.109284 0.713125 0.041325 -0.022788 311694.000000 0 0 1
28.446099 4.449801 33.094307 43.865869 0.155172 0.715991 0.045619 -0.018886 -370003.000000 0 0 1
27.556399 5.391701 32.287982 42.789477 0.193220 0.715786 0.046293 -0.011705 -96205.300000 0 0 1
27.808599 6.731701 32.600942 43.375747 0.237504 0.720321 0.048839 -0.014932 376366.000000 0 0 1
26.910999 7.627101 31.913222 42.436167 0.276177 0.719662 0.041674 -0.016419 -283430.000000 0 0 1
27.251899 9.132601 32.002472 43.014284 0.323356 0.731765 0.036942 -0.009816 698741.000000 0 0 1
28.555699 9.344001 31.436242 43.485349 0.316239 0.762783 0.032627 -0.009018 527661.000000 0 0 1
28.872599 10.697101 31.560522 44.092193 0.354814 0.773049 0.028207 -0.005328 -550910.000000 0 0 1
30.151099 11.097101 30.855242 44.545262 0.352663 0.805610 0.028713 -0.000154 -505289.000000 0 0 1
31.347199 10.640201 31.505202 45.699437 0.327228 0.810136 0.037286 -0.009488 160072.000000 0 0 1
32.516899 11.152501 30.950052 46.256164 0.330403 0.837798 0.039250 -0.012048 -451226.000000 0 0 1
32.887799 12.614301 31.229852 47.074744 0.366250 0.845430 0.039459 -0.006543 -1004760.000000 0 0 1
33.198799 12.949301 32.542492 48.258247 0.371902 0.830725 0.041551 -0.004567 416963.000000 0 0 1
33.648999 14.301301 32.636892 49.009683 0.401883 0.842060 0.042653 0.003744 170833.000000 0 0 1
32.454899 15.291701 32.666622 48.520766 0.440317 0.832200 0.024189 0.005547 -16945.000000 0 0 1
31.901799 15.641401 31.394712 47.413143 0.455856 0.847109 0.024895 -0.003252 -186322.000000 0 0 1
30.747399 16.415001 31.436412 46.937222 0.490372 0.836918 0.016573 0.000868 -154797.000000 0 0 1
29.422299 15.623901 31.497262 45.845997 0.488156 0.813412 0.024159 0.005385 -384842.000000 0 0 1
28.913899 15.176701 30.268912 44.525867 0.483363 0.823299 0.013863 0.009410 -132173.000000 0 0 1
27.677199 14.553801 30.479382 43.667301 0.484106 0.798208 0.004493 0.009303 -230896.000000 0 0 1
26.989799 13.869701 29.291502 42.175940 0.474695 0.803061 0.011579 0.015629 106294.000000 0 0 1
27.466199 12.595001 28.961692 41.854578 0.429953 0.806596 0.026927 0.011128 -21183.500000 0 0 1
26.658899 12.140301 27.914812 40.463818 0.427330 0.809486 0.022712 0.000668 -174074.000000 0 0 1
26.595399 10.612401 27.808452 39.915515 0.379671 0.800033 0.027026 0.016608 -221733.000000 0 0 1
27.791299 10.026501 27.369932 40.274064 0.346245 0.823590 0.034135 0.004830 -39343.100000 0 0 1
27.622799 8.618601 27.396402 39.847988 0.302439 0.812724 0.055075 -0.001887 154323.000000 0 0 1
28.925099 7.864301 27.059202 40.382038 0.265468 0.836480 0.032506 -0.007577 -53206.400000 0 0 1
29.247899 7.849201 25.691642 39.712845 0.262190 0.867238 0.039249 -0.007809 228796.000000 0 0 1
30.332399 7.026601 25.291302 40.113308 0.227638 0.888604 0.051658 -0.000456 235282.000000 0 0 1
30.939699 7.323201 23.914972 39.784672 0.232415 0.925907 0.048035 -0.002796 -48035.700000 0 0 1
31.449899 8.658101 23.552562 40.234090 0.268643 0.945438 0.033725 -0.008216 620093.000000 0 0 1
30.475999 9.600601 23.103662 39.430157 0.305181 0.944758 0.041531 -0.007009 36642.600000 0 0 1
29.986299 9.479501 21.620362 38.163846 0.306186 0.968527 0.035171 -0.000675 1166670.000000 0 0 1
31.036199 9.816901 20.649362 38.548844 0.306347 1.005498 0.026891 0.002660 1128960.000000 0 0 1
30.493399 9.772001 19.359562 37.418338 0.310123 1.027008 0.029486 -0.004060 -519558.000000 0 0 1
31.406999 10.479901 18.345362 37.852083 0.322063 1.064823 0.042293 -0.021775 1033950.000000 0 0 1
32.686699 9.848701 18.163562 38.669525 0.292655 1.081831 0.047654 -0.016918 598428.000000 0 0 1
33.722699 10.123601 19.099362 40.056128 0.291642 1.073769 0.044024 -0.007810 -33254.000000 0 0 1
34.992799 9.508201 18.405762 40.665390 0.265313 1.101101 0.037908 -0.012440 -100958.000000 0 0 1
35.016699 8.098601 18.428462 40.390157 0.227282 1.097007 0.033615 -0.017595 528420.000000 0 0 1
-35.070526 7.624501 17.665262 40.001704 -0.214074 1.113401 0.036568 -0.015266 65075.700000 0 0 1
-35.263426 6.101701 17.473062 39.825217 -0.171335 1.116596 0.031372 -0.016717 -436729.000000 0 0 1
34.766199 5.779301 16.758662 39.024885 0.164727 1.126929 0.015319 -0.010251 -103423.000000 0 0 1
34.884099 4.549701 16.054862 38.669869 0.129691 1.142658 0.020482 -0.014687 -128097.000000 0 0 1
33.583599 3.714001 16.106662 37.430956 0.110142 1.125968 0.019104 -0.016896 -31110.400000 0 0 1
33.472599 3.050501 17.335962 37.818726 0.090883 1.094606 0.029804 -0.018846 398827.000000 0 0 1
32.175299 2.559801 17.641162 36.783326 0.079391 1.070601 0.018849 -0.018843 126140.000000 0 0 1
32.308599 1.571101 18.787062 37.406786 0.048590 1.044613 0.017314 -0.023630 -9516.580000 0 0 1
32.866199 0.300201 18.513662 37.723108 0.009134 1.057814 0.019880 -0.022136 -638.463000 0 0 1
32.841599 -0.466199 19.741462 38.321186 -0.014194 1.029604 0.024057 -0.020371 193786.000000 0 0 1
33.183899 -1.969399 19.633462 38.607286 -0.059279 1.037305 0.028549 -0.009348 53385.700000 0 0 1
33.063399 -2.646799 20.895162 39.202062 -0.079882 1.008640 0.039680 -0.009632 -24433.800000 0 0 1
33.609299 -3.933899 20.871062 39.757537 -0.116518 1.018130 0.021814 -0.009222 -258760.000000 0 0 1
33.189599 -4.692799 22.141962 40.172607 -0.140463 0.987030 0.023559 -0.001243 115110.000000 0 0 1
33.779399 -4.147899 23.331862 41.262921 -0.122182 0.969825 0.032413 -0.005592 593083.000000 0 0 1
33.043899 -4.625499 24.479422 41.382806 -0.139077 0.937834 0.027742 -0.008245 336081.000000 0 0 1
33.367899 -3.892699 25.789422 42.351672 -0.116135 0.916079 0.018083 -0.006687 -200062.000000 0 0 1
32.436199 -4.031199 26.829092 42.286614 -0.123647 0.883489 0.022617 -0.008348 -347102.000000 0 0 1
32.741799 -3.379999 28.064662 43.255925 -0.102868 0.864783 0.026275 -0.009230 -539162.000000 0 0 1
31.843699 -3.711099 29.226372 43.381727 -0.116018 0.831589 0.025161 -0.018084 -376959.000000 0 0 1
32.056699 -5.043299 29.658562 43.962451 -0.156045 0.830328 0.023419 -0.018294 112615.000000 0 0 1
31.070399 -5.412999 30.595202 43.940148 -0.172486 0.800577 0.025789 -0.027417 -154936.000000 0 0 1
31.124899 -6.955399 30.920952 44.421191 -0.219855 0.800865 0.025759 -0.025440 660664.000000 0 0 1
32.194599 -7.391199 31.792162 45.846086 -0.225668 0.804524 0.025270 -0.025356 514257.000000 0 0 1
32.755599 -8.632699 31.462852 46.231632 -0.257689 0.822286 0.018937 -0.015112 -531031.000000 0 0 1
34.007499 -8.968699 32.252212 47.719522 -0.257856 0.828651 0.009411 -0.007474 -463378.000000 0 0 1
33.857299 -9.392399 33.575033 48.598526 -0.270607 0.808111 0.015851 -0.017917 -216163.000000 0 0 1
35.138099 -9.522899 34.150819 49.916431 -0.264656 0.817345 0.005613 -0.013947 -76848.100000 0 0 1
35.075799 -9.823699 -33.096825 49.216020 -0.273074 2.308352 0.017964 -0.021889 -601212.000000 0 0 1
34.491099 -8.916299 -32.217295 48.032181 -0.252972 2.306008 0.015039 -0.019402 410444.000000 0 0 1
35.157399 -7.641999 -32.151225 48.250846 -0.214036 2.300079 0.005857 -0.012864 252407.000000 0 0 1
34.382699 -6.665899 -31.204325 46.907506 -0.191498 2.298599 0.017463 -0.007972 166327.000000 0 0 1
34.590999 -6.928799 -29.834765 46.202367 -0.197690 2.272790 0.018839 -0.007925 129128.000000 0 0 1
33.915499 -5.948399 -29.084355 45.072655 -0.173623 2.272182 0.021024 -0.007732 -323742.000000 0 0 1
34.440599 -5.916099 -27.634265 44.551181 -0.170117 2.239898 0.021454 -0.011014 386898.000000 0 0 1
-35.422226 -5.395399 -27.697105 45.287681 0.151155 2.228854 0.031600 -0.011045 205163.000000 0 0 1
-34.847626 -5.335899 -26.435625 44.064398 0.151941 2.214212 0.032915 -0.005312 -1084510.000000 0 0 1
-33.461026 -4.786399 -26.351005 42.859367 0.142080 2.232960 0.050391 -0.006522 -1663260.000000 0 0 1
-33.071826 -4.390899 -25.053485 41.721731 0.131997 2.214910 0.051636 -0.015334 1415670.000000 0 0 1
-31.653926 -4.331399 -24.748585 40.413173 0.135992 2.229875 0.065150 -0.016131 1569360.000000 0 0 1
-30.711126 -3.396199 -25.552045 40.095068 0.110138 2.261768 0.054183 -0.010657 -321266.000000 0 0 1
-30.403826 -3.820499 -26.881125 40.762529 0.125003 2.290892 0.055613 -0.007505 797281.000000 0 0 1
-29.323226 -3.060799 -27.480225 40.303633 0.104005 2.321058 0.042130 0.003087 762437.000000 0 0 1
-28.857626 -3.671899 -28.766825 40.911803 0.126562 2.350604 0.037372 -0.000663 -142408.000000 0 0 1
-29.880026 -3.602299 -29.748295 42.317297 0.119980 2.350378 0.049762 -0.003748 -79855.100000 0 0 1
-29.674126 -4.489499 -30.824615 43.021695 0.150155 2.369554 0.039104 -0.000266 -541169.000000 0 0 1
-30.965326 -4.773199 -31.639575 44.527492 0.152943 2.361094 0.025026 -0.005622 20514.300000 0 0 1
-32.049526 -5.459399 -31.047975 44.955021 0.168723 2.333177 0.035931 -0.007006 352391.000000 0 0 1
-32.698426 -4.837999 -29.951345 44.605789 0.146892 2.306984 0.039350 -0.009994 -708034.000000 0 0 1
-33.736426 -3.720999 -30.287735 45.489990 0.109852 2.299377 0.032885 -0.009055 -460524.000000 0 0 1
-33.272626 -2.597099 -30.973765 45.532260 0.077897 2.318913 0.032652 -0.000352 64481.100000 0 0 1
-32.467526 -1.688199 -30.203745 44.376306 0.051950 2.319415 0.028006 0.004894 -30501.300000 0 0 1
-32.106826 -0.414699 -31.037965 44.658432 0.012916 2.339227 0.030034 0.003423 -251029.000000 0 0 1
-33.118026 0.490701 -31.454225 45.677267 -0.014816 2.330379 0.019801 0.007243 -290348.000000 0 0 1
-32.726626 1.576301 -32.270315 45.987933 -0.048129 2.348595 0.009519 0.007505 -292817.000000 0 0 1
-33.904626 2.426201 -32.753925 47.204128 -0.071438 2.337657 0.011144 0.005796 -75270.800000 0 0 1
-34.625126 1.864101 -33.831875 48.445537 -0.053785 2.343884 0.015965 0.005807 119262.000000 0 0 1
35.366199 2.576501 -34.046545 49.158658 0.072724 2.335863 0.012617 0.002118 377759.000000 0 0 1
34.429499 2.069101 33.572273 48.132828 0.060025 0.798904 0.020698 -0.000965 329718.000000 0 0 1
34.841299 2.432001 32.277632 47.557084 0.069689 0.824787 0.019476 -0.002958 799438.000000 0 0 1
-35.366926 1.554801 31.676252 47.503914 -0.043934 0.840872 0.012454 0.000770 314137.000000 0 0 1
-35.217026 1.636601 30.129162 46.375465 -0.046438 0.863634 0.018901 -0.006045 -195268.000000 0 0 1
-34.749426 2.915401 29.706842 45.809591 -0.083702 0.865204 0.022455 -0.003907 259539.000000 0 0 1
-34.290326 2.971701 28.363042 44.599547 -0.086447 0.881559 0.018416 -0.004281 179010.000000 0 0 1
-33.983526 4.379101 27.868332 44.166735 -0.128153 0.887980 0.021694 -0.008072 -175413.000000 0 0 1
-33.468126 4.516801 26.592392 42.984559 -0.134148 0.903773 0.020604 -0.004414 144274.000000 0 0 1
-32.800126 5.768501 26.559462 42.597287 -0.174088 0.897583 0.031133 -0.003860 -269203.000000 0 0 1
-32.053126 6.048201 25.239132 41.243150 -0.186500 0.912261 0.035042 -0.004298 534372.000000 0 0 1
-30.854726 5.228401 25.150102 40.148200 -0.167858 0.893829 0.031764 -0.000682 1091100.000000 0 0 1
-30.032526 5.551801 24.052882 38.875651 -0.182796 0.903693 0.029265 -0.007725 -146854.000000 0 0 1
-30.584026 5.175501 22.692162 38.433094 -0.167634 0.939201 0.038280 -0.021292 -508618.000000 0 0 1
-30.639926 3.802801 22.550262 38.233241 -0.123481 0.939976 0.040832 -0.020121 115271.000000 0 0 1
-31.277226 3.335701 21.350962 38.016514 -0.106248 0.974450 0.053555 -0.024662 -569255.000000 0 0 1
-31.048926 1.835401 21.026862 37.543754 -0.059044 0.976335 0.054274 -0.019652 525693.000000 0 0 1
-29.759026 1.470201 20.511062 36.172708 -0.049363 0.967899 0.047219 -0.012609 735716.000000 0 0 1
-29.447426 1.926701 19.184362 35.198051 -0.065335 0.994359 0.042981 -0.010800 -139911.000000 0 0 1
-28.222926 1.225101 18.567562 33.805159 -0.043381 0.989327 0.049553 -0.002558 -63561.800000 0 0 1
-28.509626 -0.153099 18.333062 33.895772 0.005370 0.999330 0.053146 -0.007770 480539.000000 0 0 1
-27.511826 -0.822899 17.557962 32.647508 0.029902 1.002966 0.056591 -0.003598 60613.200000 0 0 1
-27.392826 -0.416899 16.038662 31.745542 0.015218 1.041153 0.049692 0.006369 47182.500000 0 0 1
-26.858426 0.881001 15.832962 31.190285 -0.032790 1.038371 0.048691 0.006771 466729.000000 0 0 1
-27.388126 1.334701 14.588562 31.059894 -0.048694 1.081855 0.057670 0.006097 1486.820000 0 0 1
-26.824326 2.690401 14.198062 30.469127 -0.099963 1.086052 0.058349 0.003342 -619660.000000 0 0 1
-25.446426 2.633701 13.987262 29.156483 -0.103133 1.070448 0.052917 -0.003552 -473321.000000 0 0 1
-25.015526 3.845201 13.377562 28.627282 -0.152519 1.084561 0.059549 -0.012622 1025080.000000 0 0 1
-23.444026 3.915501 13.251862 27.213330 -0.165487 1.062188 0.059801 -0.014244 865041.000000 0 0 1
-22.763826 4.245601 14.431062 27.285023 -0.184388 1.013492 0.055319 -0.008878 1258930.000000 0 0 1
-21.332626 4.382501 14.227362 26.013556 -0.202617 0.992114 0.044509 -0.003666 1040750.000000 0 0 1
-20.626626 4.784501 15.522962 26.254742 -0.227927 0.938196 0.027276 -0.007514 -622091.000000 0 0 1
-20.891726 6.174701 15.823162 26.925148 -0.287376 0.942617 0.036221 -0.000826 255130.000000 0 0 1
-20.211826 6.741501 16.904662 27.198039 -0.321939 0.900090 0.025437 0.003011 -268602.000000 0 0 1
-20.471226 8.299301 17.035262 27.895334 -0.385164 0.913871 0.035485 -0.009241 216512.000000 0 0 1
-19.645226 9.096501 16.122662 26.992989 -0.433644 0.930678 0.020811 -0.008879 924442.000000 0 0 1
-19.920526 10.500501 16.254962 27.772498 -0.485107 0.945559 0.031609 -0.005682 -310703.000000 0 0 1
-19.309126 11.283101 17.417362 28.346344 -0.528825 0.909110 0.035735 -0.003896 -193227.000000 0 0 1
-19.940726 11.017101 18.685662 29.464606 -0.504755 0.883858 0.038222 -0.007296 447085.000000 0 0 1
-19.177026 11.421301 19.796762 29.834816 -0.537157 0.845248 0.040925 -0.005055 -615952.000000 0 0 1
-12.328801 -33.819269 -20.692485 41.520131 1.221219 2.092517 0.070607 -0.020523 -260761.000000 0 0 1
-13.277501 -34.081069 -19.680785 41.534860 1.199300 2.064440 0.103564 -0.015142 -162017.000000 0 0 1
-14.294501 -33.083869 -19.745485 41.094517 1.162954 2.072009 0.084572 -0.039207 -594428.000000 0 0 1
-15.587701 -33.662869 -19.215485 41.777985 1.137140 2.048727 0.070595 -0.027104 -1870650.000000 0 0 1
-16.043001 34.146201 -20.014785 42.707523 -1.131572 2.058556 0.075145 -0.035054 74623.700000 0 0 1
-16.938601 33.204701 -19.456185 42.047729 -1.099080 2.051854 0.076048 -0.020589 -141296.000000 0 0 1
-18.271601 33.676301 -18.888585 42.716780 -1.073679 2.028826 0.067707 -0.016954 -1521240.000000 0 0 1
-18.139401 -34.424469 -17.687485 42.742591 1.085835 1.997436 0.059329 -0.025815 596196.000000 0 0 1
-19.424101 -34.287369 -17.058085 42.940630 1.055367 1.979313 0.026342 -0.023178 487758.000000 0 0 1
-19.535101 33.904701 -15.654385 42.145091 -1.048078 1.951356 0.038040 -0.021756 -531156.000000 0 0 1
-19.542301 32.495001 -15.650785 41.021624 -1.029352 1.962242 0.045398 -0.020730 53940.200000 0 0 1
-19.873301 32.131101 -14.324185 40.404678 -1.016880 1.933195 0.037637 -0.020917 -105387.000000 0 0 1
-19.750001 30.586001 -14.124685 39.052179 -0.997436 1.940874 0.038652 -0.026375 -409344.000000 0 0 1
-18.502801 30.098801 -13.746885 37.911322 -1.019612 1.941859 0.047410 -0.033879 -401991.000000 0 0 1
-18.601101 28.703801 -13.546685 36.788882 -0.995803 1.947898 0.044386 -0.038385 1155600.000000 0 0 1
-17.194301 28.100101 -13.094185 35.450209 -1.021677 1.949126 0.063444 -0.029826 1321480.000000 0 0 1
-16.145501 28.318101 -14.031885 35.489235 -1.052616 1.977282 0.055088 -0.033365 -95542.900000 0 0 1
-15.052301 27.506501 -13.630885 34.190355 -1.070085 1.980869 0.062251 -0.035686 682199.000000 0 0 1
-13.727801 27.878301 -14.392485 34.246106 -1.113232 2.004535 0.064492 -0.035955 149087.000000 0 0 1
-13.886601 27.787401 -15.790685 34.847139 -1.107353 2.041083 0.047370 -0.038989 -106096.000000 0 0 1
-12.706101 28.233901 -16.441585 35.056011 -1.147917 2.058965 0.061078 -0.030577 -231222.000000 0 0 1
-12.736901 28.569701 -17.937785 36.058572 -1.151425 2.091467 0.076183 -0.045118 -428576.000000 0 0 1
-12.793801 27.371001 -18.661485 35.512027 -1.133549 2.124096 0.044746 -0.041070 179256.000000 0 0 1
-13.074301 27.506801 -20.044685 36.460264 -1.127094 2.152883 0.028556 -0.041601 -362788.000000 0 0 1
-12.471201 26.375601 -20.887785 35.881788 -1.129119 2.192139 0.006892 -0.024381 -1236900.000000 0 0 1
-11.181001 26.740501 -21.250885 35.939801 -1.174759 2.203455 0.006026 -0.031521 -728929.000000 0 0 1
-10.536001 25.564001 -21.718885 35.160140 -1.179867 2.236628 0.013627 -0.022989 856573.000000 0 0 1
-9.273501 25.838601 -22.634985 35.580524 -1.226214 2.260310 0.040167 -0.031750 727623.000000 0 0 1
-9.614701 26.235201 -23.896885 36.766688 -1.219515 2.278328 0.033931 -0.032167 530075.000000 0 0 1
-8.487401 26.162701 -24.768085 37.013253 -1.257100 2.303885 0.033754 -0.031127 164028.000000 0 0 1
-8.947301 26.845001 -26.109485 38.502123 -1.249080 2.316013 0.026414 -0.024695 -233133.000000 0 0 1
-9.933801 26.188301 -26.825265 38.782758 -1.208242 2.334609 0.016945 -0.016700 -880504.000000 0 0 1
-10.393501 27.032201 -27.800275 40.144988 -1.203735 2.335741 0.019897 -0.010509 3593.640000 0 0 1
-11.692901 26.463901 -28.456645 40.581309 -1.154746 2.347911 0.016031 -0.008509 332584.000000 0 0 1
-11.969601 27.241701 -29.630885 41.992511 -1.156805 2.354098 0.016050 -0.005764 -152741.000000 0 0 1
-13.155101 26.772001 -30.221305 42.463207 -1.114072 2.362720 0.005958 -0.000296 -232818.000000 0 0 1
-13.263701 27.161401 -31.702375 43.803060 -1.116529 2.380015 0.004665 -0.000377 -112818.000000 0 0 1
-12.458601 26.462301 -32.673865 43.852612 -1.130776 2.411457 0.015076 -0.004259 260284.000000 0 0 1
-12.545501 25.021601 -32.827235 43.140439 -1.106040 2.435555 0.012002 -0.004059 123054.000000 0 0 1
-11.620901 24.513201 -33.977125 43.478585 -1.128109 2.467812 0.018132 -0.006493 283742.000000 0 0 1
-12.165501 24.857201 33.583015 43.516649 -1.115652 0.689243 0.023850 -0.007852 27686.800000 0 0 1
-11.521001 24.060401 32.596282 42.120707 -1.124222 0.685855 0.027611 -0.010540 -138976.000000 0 0 1
-12.115201 24.082501 31.126782 41.177925 -1.104695 0.713754 0.040254 -0.009935 953539.000000 0 0 1
-13.447101 23.498301 31.176522 41.291285 -1.051025 0.715083 0.045793 -0.015681 802502.000000 0 0 1
-14.005901 23.451001 29.867772 40.474665 -1.032408 0.740787 0.055476 -0.014698 -328974.000000 0 0 1
-15.329701 22.706601 29.974912 40.608925 -0.976964 0.740493 0.042791 -0.013402 -454080.000000 0 0 1
-15.209401 21.302401 30.310362 40.047924 -0.950752 0.712313 0.053975 -0.025627 -97041.400000 0 0 1
-16.457401 20.669801 30.460442 40.322763 -0.898374 0.714508 0.047370 -0.023556 -48265.100000 0 0 1
-16.136501 19.185001 30.709612 39.642543 -0.871492 0.684614 0.057583 -0.031648 116844.000000 0 0 1
-15.735801 18.520001 29.539742 38.251826 -0.866497 0.688431 0.061097 -0.026970 29513.100000 0 0 1
-15.230101 17.254301 29.786632 37.641869 -0.847631 0.657837 0.049565 -0.039793 -152510.000000 0 0 1
-14.985801 16.533801 28.461222 36.166033 -0.834471 0.664930 0.048664 -0.025532 -142173.000000 0 0 1
-13.913701 17.095701 27.755482 35.443206 -0.887654 0.671165 0.068660 -0.032052 -302383.000000 0 0 1
-13.416201 16.104401 26.862822 34.072825 -0.876210 0.662602 0.039483 -0.018846 -101256.000000 0 0 1
-12.330701 16.637801 25.911372 33.170194 -0.932999 0.674268 0.038277 -0.018522 -214687.000000 0 0 1
-12.661001 17.533901 24.865312 32.954853 -0.945400 0.715864 0.035922 -0.017007 -92562.800000 0 0 1
-13.243301 18.816101 25.212812 34.133804 -0.957506 0.739736 0.039553 -0.017484 592148.000000 0 0 1
-12.217301 19.994101 25.517252 34.643277 -1.022295 0.742809 0.049996 -0.020011 554652.000000 0 0 1
-11.637501 20.073701 26.820442 35.464362 -1.045408 0.713211 0.055390 -0.025680 60287.600000 0 0 1
-12.539501 20.396201 27.854962 36.730682 -1.019568 0.710008 0.074476 -0.029254 -403152.000000 0 0 1
-12.128601 19.831501 29.236042 37.351540 -1.021904 0.671762 0.077449 -0.027655 -40476.100000 0 0 1
-10.941201 20.400501 29.729612 37.679439 -1.078516 0.661594 0.056858 -0.030478 -150804.000000 0 0 1
-10.855001 20.029101 31.114292 38.562872 -1.074146 0.632003 0.043218 -0.026812 -518869.000000 0 0 1
-9.783901 20.805201 31.841632 39.274300 -1.131221 0.625364 0.037743 -0.022237 -127736.000000 0 0 1
-8.518201 20.177301 31.929722 38.719380 -1.171327 0.601223 0.041429 -0.022801 -380071.000000 0 0 1
-7.578801 20.968901 32.553382 39.457011 -1.223975 0.600534 0.039994 -0.013724 -850265.000000 0 0 1
-6.339401 20.227001 33.001136 39.222373 -1.267080 0.570955 0.032717 -0.011614 -1033360.000000 0 0 1
-6.427801 19.472101 34.207487 39.882722 -1.251956 0.540013 0.036220 -0.018652 902937.000000 0 0 1
-5.172101 18.950601 -34.082938 39.338563 -1.304360 2.618744 0.030368 -0.015604 1276320.000000 0 0 1
-4.344401 17.941901 33.862370 38.567418 -1.333232 0.499119 0.022125 -0.016246 -45603.600000 0 0 1
-5.065201 16.741401 33.786508 38.045484 -1.276997 0.477698 0.022307 -0.016239 260888.000000 0 0 1
-4.354801 15.753501 33.028310 36.851138 -1.301098 0.459526 0.018643 -0.009853 43477.400000 0 0 1
-5.163201 14.463001 32.763244 36.183797 -1.227905 0.438317 0.026850 -0.017905 -193034.000000 0 0 1
-4.907201 13.491201 33.755651 36.681564 -1.221940 0.402116 0.025083 -0.008692 52855.800000 0 0 1
-5.479701 12.240201 33.445691 36.034204 -1.149873 0.381344 0.033423 -0.002245 14595.100000 0 0 1
-4.507101 11.091901 33.770422 35.829955 -1.184835 0.340705 0.031856 -0.008648 -161648.000000 0 0 1
-4.386301 10.946501 -33.623925 35.631922 -1.189684 2.804276 0.047664 -0.006020 -94635.900000 0 0 1
-3.434601 9.969001 -33.243985 34.876066 -1.239005 2.834457 0.049695 -0.009938 153441.000000 0 0 1
-3.511301 9.629901 -31.775045 33.387389 -1.221153 2.829549 0.052293 -0.009745 466594.000000 0 0 1
-4.684701 8.904801 -31.390065 32.963284 -1.086497 2.831396 0.063330 -0.007545 506890.000000 0 0 1
-4.536701 8.367701 -30.103415 31.572388 -1.073986 2.835349 0.066206 0.003053 93338.900000 0 0 1
-5.818301 7.653201 -29.649845 31.169495 -0.920771 2.828046 0.064891 -0.004790 152292.000000 0 0 1
-5.534701 6.915101 -28.493895 29.838793 -0.895824 2.840213 0.054464 0.000485 919881.000000 0 0 1
-6.764801 6.281501 -28.114785 29.591569 -0.748370 2.824335 0.065994 -0.014107 332448.000000 0 0 1
-6.710201 5.709901 -26.666685 28.084548 -0.705033 2.822481 0.052906 -0.013406 -189673.000000 0 0 1
-6.886301 6.521701 -25.494715 27.201732 -0.758212 2.785442 0.033739 -0.003335 73115.200000 0 0 1
-5.821301 7.417001 -25.256375 26.958930 -0.905356 2.784298 0.031038 0.000442 -99163.500000 0 0 1
-6.122501 8.356301 -24.034685 26.172101 -0.938472 2.734643 0.011564 0.006040 246921.000000 0 0 1
-6.368801 7.598301 -22.845285 24.903872 -0.873200 2.732140 0.006223 0.007764 269844.000000 0 1 0
-7.664201 7.843101 -22.306185 24.855987 -0.796934 2.684676 0.017762 0.005415 349919.000000 0 1 0
-7.561401 8.170101 -20.835585 23.623017 -0.824072 2.650893 0.011346 0.003018 -247274.000000 0 1 0
-6.906001 9.356601 -20.509185 23.576800 -0.934962 2.625772 -0.001887 0.007053 -161328.000000 0 1 0
-6.754801 9.464501 -19.125285 22.382597 -0.950936 2.595328 0.004196 0.007024 137075.000000 0 1 0
-8.049901 9.745901 -18.297085 22.238858 -0.880415 2.537034 -0.001233 0.011465 -29799.500000 0 1 0
-7.733001 9.709701 -16.919385 20.984356 -0.898242 2.508642 -0.005824 0.005958 454135.000000 0 1 0
-8.824601 10.095101 -16.083185 20.939281 -0.852450 2.446644 -0.000111 -0.000018 394187.000000 0 1 0
-9.401701 11.508201 -16.213885 21.993652 -0.885801 2.399724 0.000254 -0.001427 31996.000000 0 1 0
-8.535901 12.532501 -15.681885 21.813911 -0.972867 2.373006 -0.005274 -0.000218 -185940.000000 0 1 0
-8.951801 13.782901 -16.090885 23.000428 -0.994783 2.345621 0.018844 -0.004413 160617.000000 0 1 0
-7.904701 14.906801 -15.804085 23.118523 -1.083223 2.323496 0.033183 0.000265 468082.000000 0 1 0
-7.392101 15.048801 -14.440785 22.127942 -1.114207 2.281813 0.031685 -0.000767 578297.000000 0 1 0
-8.315601 15.675801 -13.573185 22.340799 -1.083068 2.223771 0.026895 -0.006323 -359488.000000 0 1 0
-7.528001 16.516501 -12.543585 22.063706 -1.143141 2.175498 0.025009 -0.007606 339280.000000 0 1 0
-7.131501 17.839601 -12.931285 23.158752 -1.190500 2.163223 0.036795 -0.001554 309700.000000 0 1 0
-6.107701 17.875101 -13.936485 23.474430 -1.241546 2.206430 0.049316 -0.001359 87033.200000 0 1 0
-5.843601 19.329101 -14.422485 24.814711 -1.277211 2.191008 0.054815 0.005162 -249982.000000 0 1 0
-5.262801 20.126301 -13.444785 24.769483 -1.315034 2.144559 0.048949 -0.000547 -265383.000000 0 1 0
-5.226101 21.522701 -13.758585 26.073693 -1.332588 2.126664 0.038697 -0.003244 -231892.000000 0 0 1
-4.543001 22.495301 -12.769785 26.262993 -1.371523 2.078563 0.044961 -0.001564 -595683.000000 0 0 1
-4.708801 23.877601 -13.095485 27.637011 -1.376089 2.064441 0.031067 -0.009434 566734.000000 0 0 1
-6.005201 24.493401 -13.117585 28.426399 -1.330363 2.050434 0.038353 -0.008589 932561.000000 0 0 1
-6.898401 24.479601 -11.833585 28.051248 -1.296117 2.006288 0.022500 -0.015263 84568.000000 0 0 1
-7.350901 23.184801 -11.461685 26.887561 -1.263765 2.011175 0.031167 -0.011955 99230.200000 0 0 1
-8.036101 23.142101 -10.197985 26.535536 -1.236573 1.965261 0.035162 -0.012937 -112842.000000 0 0 1
-7.161901 23.346001 -8.967985 26.014483 -1.273138 1.922748 0.022218 -0.011466 -431582.000000 0 0 1
-6.781501 24.698601 -8.922685 27.122388 -1.302830 1.906018 0.024198 -0.010239 -266309.000000 0 0 1
-6.372101 25.049501 -7.625185 26.948555 -1.321699 1.857668 0.016342 -0.012126 -279926.000000 0 0 1
-6.619901 26.592801 -7.419885 28.391105 -1.326819 1.835212 0.014056 -0.016776 204058.000000 0 0 1
-5.814201 27.565801 -8.116085 29.318069 -1.362922 1.851289 0.013979 -0.020395 40201.300000 0 0 1
-6.056301 27.684701 -9.486185 29.884932 -1.355429 1.893808 0.018352 -0.023025 24851.000000 0 0 1
-5.481401 28.983601 -10.136285 31.190369 -1.383883 1.901788 0.015998 -0.024597 77290.900000 0 0 1
-6.343101 30.091501 -10.128785 32.377857 -1.363044 1.888968 0.016699 -0.016404 -540469.000000 0 0 1
-7.114201 30.165101 -11.298385 32.987856 -1.339186 1.920374 0.021614 -0.015378 -131251.000000 0 0 1
-8.275201 31.163801 -11.086285 34.096439 -1.311247 1.901961 0.022765 -0.009863 658580.000000 0 0 1
-9.346601 30.770301 -10.191085 33.734679 -1.275899 1.877686 0.025531 -0.007646 -16541.400000 0 0 1
-10.351501 31.711401 -10.205585 34.884387 -1.255273 1.867693 0.026231 -0.011431 -464799.000000 0 0 1
-11.459401 31.330801 -9.206585 34.607776 -1.220155 1.840065 0.035695 -0.012100 211630.000000 0 0 1
-12.108801 30.091901 -9.510385 33.802263 -1.188228 1.856001 0.044632 -0.018196 74781.100000 0 0 1
-13.386601 29.998701 -8.890985 34.031937 -1.151074 1.835118 0.058057 -0.013643 635979.000000 0 0 1
-14.180001 28.820801 -9.513385 33.499485 -1.113565 1.858745 0.071378 -0.017421 -8962.240000 0 0 1
-13.750301 27.569901 -9.059185 32.112911 -1.108155 1.856783 0.056945 -0.017903 -223649.000000 0 0 1
-14.719001 26.607001 -9.355885 31.813740 -1.065499 1.869292 0.074358 -0.016660 -308327.000000 0 0 1
-14.579601 25.228901 -8.585785 30.377260 -1.046791 1.857340 0.065244 -0.018926 6342.430000 0 0 1
-13.616101 24.320701 -9.132985 29.330975 -1.060417 1.887438 0.063326 -0.017056 262202.000000 0 0 1
-13.852901 22.987001 -8.777785 28.237468 -1.028437 1.886890 0.064050 -0.021870 -382944.000000 0 0 1
-12.991201 21.856801 -9.352685 27.091766 -1.034521 1.923272 0.066455 -0.021169 -250779.000000 0 0 1
-13.361101 21.489201 -10.661185 27.458435 -1.014531 1.969546 0.070048 -0.017498 534137.000000 0 0 1
-12.522101 20.411401 -11.083385 26.386923 -1.020520 2.004278 0.064345 -0.015044 194605.000000 0 0 1
-13.082201 19.812301 -12.406585 26.787956 -0.987210 2.052332 0.054842 -0.009999 745874.000000 0 0 1
-14.378101 19.236901 -12.200485 26.937705 -0.928947 2.040828 0.054393 -0.007830 332222.000000 0 0 1
-14.764501 18.419601 -13.280585 27.085903 -0.895102 2.083246 0.051593 -0.009140 662208.000000 0 0 1
-16.221201 18.767601 -13.743385 28.358964 -0.858048 2.076728 0.048322 0.008340 513339.000000 0 0 1
-16.443401 20.061201 -14.388185 29.662385 -0.884181 2.077234 0.027853 0.010317 -471761.000000 0 0 1
-17.710801 20.126001 -14.960085 30.700693 -0.849144 2.079778 0.015177 0.013171 -586571.000000 0 0 1
-18.002001 21.415901 -15.785185 32.122965 -0.871790 2.084491 0.017953 0.010868 -91835.200000 0 0 1
-18.308701 22.516601 -14.966485 32.652741 -0.888106 2.046938 0.026760 -0.013500 333695.000000 0 0 1
-18.783001 23.600701 -15.729685 34.017895 -0.898581 2.051490 0.035352 -0.013570 -64815.300000 0 0 1
-19.422801 24.784501 -14.962485 34.862482 -0.906094 2.014388 0.033354 -0.000591 170634.000000 0 0 1
-20.713501 24.510101 -14.446185 35.192136 -0.869154 1.993793 0.044521 -0.004231 469573.000000 0 0 1
-21.317701 25.676801 -13.842385 36.129684 -0.877891 1.963979 0.051393 -0.019044 91250.000000 0 0 1
-25.474151 -1.001699 3.893715 25.789470 0.039302 1.419236 0.067293 -0.028638 -67527.700000 0 0 1
-25.898011 -0.412799 5.111415 26.400832 0.015938 1.375958 0.074268 -0.021943 -579191.000000 0 0 1
-27.220591 -0.725799 5.372715 27.755241 0.026657 1.375992 0.069117 -0.024419 -898735.000000 0 0 1
-27.808391 0.107101 6.527315 28.564382 -0.003851 1.340247 0.068029 -0.020939 -408713.000000 0 0 1
-28.315591 1.451801 6.250015 29.033482 -0.051227 1.353829 0.087999 -0.024941 602991.000000 0 0 1
-28.828701 2.169401 7.380415 29.837406 -0.075110 1.320847 0.094137 -0.016778 246496.000000 0 0 1
-27.743861 2.890901 8.251915 29.089057 -0.103825 1.283169 0.108466 -0.022555 114025.000000 0 0 1
-27.011781 2.023801 9.071715 28.566205 -0.074783 1.247633 0.086314 -0.022617 -695398.000000 0 0 1
-25.862471 2.683101 9.471015 27.672487 -0.103375 1.221482 0.091946 -0.025292 -301654.000000 0 0 1
-24.812701 1.676501 10.100615 26.842191 -0.067464 1.185001 0.070900 -0.020666 -38038.200000 0 0 1
-24.075801 0.913801 9.150215 25.772188 -0.037937 1.207837 0.079658 -0.022304 358881.000000 0 0 1
-24.745301 -0.174999 8.603415 26.198841 0.007072 1.236199 0.083835 -0.016128 -455853.000000 0 0 1
-23.709101 -1.158399 7.980415 25.042971 0.048820 1.246472 0.079841 -0.021736 476731.000000 0 0 1
-22.919901 -1.852099 8.946815 24.673825 0.080632 1.199736 0.066759 -0.030375 578080.000000 0 1 0
-21.954501 -2.738999 8.376515 23.657308 0.124117 1.208869 0.068650 -0.023644 -173178.000000 0 1 0
-20.690201 -2.920399 9.212215 22.835894 0.140223 1.155556 0.064597 -0.010144 -347162.000000 0 1 0
-20.015201 -1.685799 9.366415 22.162579 0.084028 1.134459 0.050583 -0.015755 331120.000000 0 1 0
-20.351201 -1.119599 10.602215 22.974591 0.054959 1.091138 0.044801 -0.009580 -544091.000000 0 1 0
-19.673801 0.254801 10.873715 22.480237 -0.012951 1.065918 0.021235 -0.008819 -270008.000000 0 1 0
-19.934601 1.374501 10.034615 22.360033 -0.068842 1.105403 0.022198 -0.009745 265584.000000 0 1 0
-21.100801 2.064601 10.438915 23.632125 -0.097534 1.113275 0.047496 -0.007647 -347619.000000 0 1 0
-21.352001 3.331001 9.647215 23.665846 -0.154757 1.150925 0.040950 -0.020378 -792797.000000 0 1 0
-22.115001 4.290301 10.295415 24.768438 -0.191619 1.142121 0.069345 -0.023447 267814.000000 0 1 0
-22.102501 5.598001 9.756815 24.800274 -0.248058 1.166452 0.042901 -0.015740 -492597.000000 0 1 0
-22.210601 6.658601 10.888415 25.616505 -0.291268 1.131774 0.045962 -0.026036 260475.000000 0 0 1
-23.478601 6.601701 11.518715 26.972355 -0.274102 1.129562 0.064960 -0.020444 521115.000000 0 0 1
-23.474001 7.554701 12.548915 27.669071 -0.311365 1.100068 0.059730 -0.016917 109937.000000 0 0 1
-24.382601 7.263701 13.809415 28.947755 -0.289534 1.073506 0.062222 -0.018239 702113.000000 0 0 1
-25.734711 7.252401 13.358215 29.888368 -0.274690 1.107458 0.072571 -0.012564 389651.000000 0 0 1
-26.677031 7.233601 14.420215 31.175817 -0.264788 1.089933 0.071056 -0.010760 527793.000000 0 0 1
-28.128251 6.973501 13.913015 32.146542 -0.243018 1.123200 0.055997 0.004780 290876.000000 0 0 1
-28.346011 5.655101 13.415415 31.866124 -0.196917 1.136257 0.062948 0.006655 17619.000000 0 0 1
-29.150001 5.659201 12.261115 32.126065 -0.191755 1.179209 0.055314 -0.011750 -214295.000000 0 0 1
-29.450401 4.276801 11.627215 31.950106 -0.144212 1.198326 0.070656 -0.011979 -30336.900000 0 0 1
-30.285591 3.387601 12.333715 32.875726 -0.111392 1.186225 0.040836 -0.007751 205339.000000 0 0 1
-30.356101 2.135101 11.677015 32.594542 -0.070220 1.204403 0.044711 -0.006292 124979.000000 0 0 1
-31.307131 1.092001 12.341215 33.669489 -0.034866 1.195509 0.035982 0.007081 142567.000000 0 0 1
-30.703951 0.193401 13.256615 33.444100 -0.006299 1.163224 0.026194 0.010459 258552.000000 0 0 1
-31.721791 -0.401099 14.082015 34.709308 0.012644 1.153038 0.024436 0.008692 405471.000000 0 0 1
-31.364611 -1.612799 14.966115 34.789719 0.051376 1.126095 0.034421 0.001304 -355788.000000 0 0 1
-31.334641 -2.859899 14.314215 34.567839 0.091017 1.143853 0.029555 -0.002296 124557.000000 0 0 1
-31.320801 -3.924899 15.199515 35.034592 0.124663 1.122043 0.025923 -0.001205 -385030.000000 0 0 1
-31.277131 -5.279099 14.463415 34.861414 0.167209 1.142982 0.029597 -0.003312 -558139.000000 0 0 1
-32.420771 -5.561199 13.724815 35.642725 0.169879 1.175517 0.017821 -0.015577 -213613.000000 0 0 1
-32.495651 -6.927199 13.487015 35.858792 0.210029 1.185197 0.016266 -0.015793 -154406.000000 0 0 1
-33.567261 -7.316999 12.366415 36.513391 0.214623 1.225281 0.013597 -0.012042 462513.000000 0 0 1
-34.936115 -7.286299 12.642015 37.860835 0.205613 1.230350 -0.004709 -0.003362 -204484.000000 0 0 1
-35.454494 -6.016399 12.992515 38.236418 0.168092 1.224098 0.008812 -0.008892 -291155.000000 0 0 1
34.227094 -5.765899 12.701615 36.960392 -0.166893 1.219990 0.022517 -0.011157 1294850.000000 0 0 1
33.309704 -6.431199 13.629015 36.560180 -0.190726 1.188790 0.012144 -0.005289 492409.000000 0 0 1
31.972094 -6.259399 13.219415 35.158894 -0.193332 1.185331 0.024106 -0.005072 -141879.000000 0 0 1
31.085164 -7.467399 13.527415 34.713692 -0.235757 1.170506 0.020715 -0.001208 -394102.000000 0 0 1
30.696644 -7.499399 14.879115 34.927253 -0.239613 1.130726 0.028053 -0.004982 266963.000000 0 0 1
29.813534 -8.625999 15.016615 34.478304 -0.281641 1.120160 0.029725 -0.000402 80780.300000 0 0 1
29.307454 -8.791799 16.469415 34.748586 -0.291443 1.077015 0.021175 -0.005155 -288426.000000 0 0 1
30.267734 -9.110799 17.449015 36.105547 -0.292380 1.066401 0.008615 -0.007088 -468663.000000 0 0 1
29.770144 -9.058699 18.807515 36.359925 -0.295386 1.027151 0.006581 -0.005096 -418583.000000 0 0 1
30.707874 -9.401899 19.990015 37.828163 -0.297110 1.014031 0.015521 -0.001201 522440.000000 0 0 1
31.744444 -8.471699 20.333215 38.638311 -0.260794 1.016618 0.018521 -0.002023 -89063.800000 0 0 1
32.941384 -8.752999 19.668815 39.352409 -0.259713 1.047414 -0.003477 -0.003152 -294102.000000 0 0 1
34.178904 -7.993099 20.242015 40.519456 -0.229732 1.047702 -0.004565 -0.000690 317983.000000 0 0 1
34.388384 -8.447999 21.551215 41.453402 -0.240894 1.024074 -0.004203 -0.001142 70901.200000 0 0 1
-35.584747 -7.996399 22.107415 42.649202 0.221042 1.025870 -0.012006 0.003845 23644.200000 0 0 1
-35.290231 -8.638299 23.410715 43.221316 0.240059 0.998401 -0.004758 0.004226 -544645.000000 0 0 1
35.262099 -7.972499 24.413415 43.623288 -0.222354 0.976843 -0.001420 0.002266 -97452.500000 0 0 1
35.087314 -8.838199 25.484615 44.257191 -0.246758 0.957177 0.002206 -0.003739 -187862.000000 0 0 1
34.485374 -8.207499 26.773415 44.423190 -0.233653 0.923928 0.015821 -0.003198 465721.000000 0 0 1
35.434599 -7.369299 27.459715 45.430753 -0.205046 0.921746 -0.004636 -0.007828 598236.000000 0 0 1
34.845084 -6.824299 28.677715 45.641673 -0.193399 0.891401 -0.003523 -0.015151 569709.000000 0 0 1
-35.359649 -6.374799 29.812615 46.687630 0.178369 0.878177 0.002403 -0.009412 679188.000000 0 0 1
-34.671268 -7.398199 30.527115 46.783917 0.210228 0.859900 0.005704 -0.004333 756071.000000 0 0 1
-33.265121 -7.154099 30.659115 45.800990 0.211836 0.837397 -0.001298 -0.009363 828570.000000 0 0 1
-32.617361 -7.655599 31.994415 46.326483 0.230536 0.808438 -0.004360 -0.006457 -113137.000000 0 0 1
-32.495891 -9.032599 32.029515 46.513015 0.271117 0.811220 -0.002173 -0.009706 393579.000000 0 0 1
-32.006771 -9.541599 33.253315 47.130229 0.289724 0.787580 -0.000012 -0.010100 -300886.000000 0 0 1
-32.204971 -11.079799 33.386815 47.692783 0.331355 0.795344 0.009787 -0.012434 -471959.000000 0 0 1
-33.544131 -11.464399 33.582415 48.830521 0.329325 0.812433 0.006883 -0.018743 -52969.800000 0 0 1
-33.728891 -12.823799 33.217215 49.045604 0.363324 0.826748 0.015445 -0.016023 965267.000000 0 0 1
-35.242284 -13.218299 33.423715 50.337727 0.358831 0.844655 0.019701 -0.018274 960143.000000 0 0 1
-35.537251 -14.596299 33.546815 51.003303 0.389724 0.852984 0.021144 -0.022674 -206003.000000 0 0 1
34.379624 -14.786599 34.101215 50.630968 -0.406181 0.831829 0.007004 -0.021251 -169898.000000 0 0 1
33.819504 -16.206699 34.261315 50.796197 -0.446879 0.830528 0.003637 -0.000666 60864.900000 0 0 1
34.506954 -16.930399 -33.494832 50.983057 -0.456129 2.287602 0.004070 -0.014305 426662.000000 0 0 1
34.125414 -18.288899 -33.544932 51.227827 -0.491978 2.284739 0.011998 -0.018128 -226435.000000 0 0 1
34.683414 -19.115699 -32.377232 51.153048 -0.503724 2.256152 0.005237 -0.009481 189576.000000 0 0 1
33.826344 -18.949699 -31.274232 49.813555 -0.510645 2.249553 0.011999 -0.009975 -32715.800000 0 0 1
34.331514 -19.737499 -30.193332 49.798183 -0.521766 2.222213 0.001926 -0.003991 -1132990.000000 0 0 1
33.373754 -19.837099 -28.991832 48.454559 -0.536286 2.212212 0.013253 -0.007478 1265170.000000 0 0 1
32.107554 -20.489499 -29.293932 48.050485 -0.568001 2.226414 0.008032 0.001192 931039.000000 0 0 1
31.230394 -19.695899 -30.019632 47.586178 -0.562662 2.253442 -0.000900 0.003957 -2375400.000000 0 0 1
29.958744 -20.346699 -30.483732 47.336798 -0.596600 2.270480 -0.003446 0.010391 -518437.000000 0 0 1
29.150704 -19.539399 -31.345032 47.053828 -0.590506 2.299835 -0.006701 0.010042 844944.000000 0 0 1
27.909354 -20.239799 -31.561432 46.740834 -0.627438 2.312091 -0.001272 0.003421 868592.000000 0 0 1
26.965504 -19.642899 -32.629732 46.665633 -0.629563 2.345108 0.003196 0.008922 250908.000000 0 0 1
27.514654 -19.721799 -33.903632 47.910978 -0.621895 2.356946 -0.012134 0.005828 58344.600000 0 0 1
26.500384 -19.573599 33.909015 47.278086 -0.636175 0.770985 0.034617 -0.007342 135346.000000 0 0 1
27.029994 -19.834199 32.471915 46.673775 -0.633042 0.801373 0.034241 -0.000607 -410745.000000 0 0 1
27.779924 -18.746699 32.033315 46.360502 -0.593632 0.807978 -0.008155 -0.001503 -179713.000000 0 0 1
27.863414 -18.641399 30.624515 45.406305 -0.589635 0.830570 0.002394 -0.007349 -233391.000000 0 0 1
26.726214 -17.824899 29.983015 43.943131 -0.588195 0.819873 0.004717 -0.005341 -109994.000000 0 0 1
26.865934 -16.435799 30.182515 43.622221 -0.549030 0.806669 0.008064 -0.010041 741253.000000 0 0 1
25.806024 -15.657299 29.583115 42.264200 -0.545354 0.795459 0.019816 -0.009202 548393.000000 0 0 1
25.716624 -14.275099 30.228515 42.176846 -0.506744 0.771725 0.035891 -0.010380 -300152.000000 0 0 1
26.813964 -13.426699 30.047815 42.451574 -0.464236 0.784398 0.025907 0.000670 -196895.000000 0 0 1
26.599024 -12.207999 30.713115 42.424507 -0.430283 0.761289 0.036743 -0.004180 -658838.000000 0 0 1
27.868544 -11.423299 30.958615 43.192399 -0.389011 0.771651 0.025807 -0.008671 -676510.000000 0 0 1
28.368564 -10.964299 29.717415 42.521948 -0.368810 0.796977 0.021421 -0.016626 52229.200000 0 0 1
29.740054 -10.636999 29.850615 43.458898 -0.343488 0.813623 0.016298 -0.013601 95617.600000 0 0 1
30.375924 -9.979899 28.607615 42.903273 -0.317436 0.840899 0.037985 -0.020051 -221804.000000 0 0 1
29.953804 -8.688399 28.410115 42.188308 -0.282313 0.831982 0.024271 -0.017283 -42586.200000 0 0 1
30.586714 -8.196799 27.265415 41.786810 -0.261833 0.859933 0.032074 -0.012914 -26742.700000 0 0 1
30.366254 -6.688899 27.172115 41.293760 -0.216812 0.852610 0.040651 -0.017352 1190560.000000 0 0 1
29.015204 -6.324099 26.791015 39.995435 -0.214602 0.836787 0.041104 -0.013980 852844.000000 0 0 1
28.899704 -4.919299 26.752215 39.687195 -0.168604 0.831082 0.052610 -0.013519 -445325.000000 0 0 1
27.501244 -4.340899 26.621315 38.520855 -0.156552 0.807803 0.054961 -0.010405 -531180.000000 0 0 1
26.988504 -4.556599 25.290415 37.265897 -0.167257 0.824876 0.057077 -0.008511 1881060.000000 0 0 1
25.516924 -4.474599 25.301315 36.211766 -0.173593 0.797212 0.055859 -0.006843 1620130.000000 0 0 1
25.017624 -4.631699 23.872015 34.888497 -0.183065 0.817239 0.052241 -0.001334 -385621.000000 0 0 1
25.298524 -3.625099 22.906915 34.320306 -0.142324 0.840024 0.061431 0.005008 48568.200000 0 0 1
24.954424 -4.073899 21.630215 33.274407 -0.161826 0.863139 0.058709 0.001536 61188.800000 0 0 1
25.161024 -3.081799 20.480015 32.588428 -0.121876 0.891245 0.064468 0.000933 -3497.450000 0 0 1
24.211824 -2.045899 20.512615 31.798829 -0.084300 0.869675 0.056650 0.001291 -6050.670000 0 0 1
24.603024 -1.023199 19.623815 31.487297 -0.041564 0.897931 0.058137 -0.005821 -259217.000000 0 0 1
23.369024 -0.284599 19.074115 30.166441 -0.012178 0.886283 0.014965 -0.003805 -240132.000000 0 0 1
22.617924 -1.159699 18.285015 29.107682 -0.051229 0.891578 0.039862 -0.008564 -579935.000000 0 0 1
21.490824 -0.466999 17.784815 27.899342 -0.021727 0.879595 0.044626 -0.006829 -233441.000000 0 0 1
20.556924 -1.499099 17.146715 26.811271 -0.072795 0.876905 0.037344 -0.004597 -432828.000000 0 0 1
20.879724 -1.936499 15.884015 26.306175 -0.092481 0.922520 0.054551 -0.015804 1017090.000000 0 0 1
19.757724 -2.753399 15.446715 25.229940 -0.138466 0.911909 0.065294 -0.018787 853681.000000 0 0 1
19.996024 -3.284599 14.042615 24.654099 -0.162809 0.964795 0.063036 -0.028340 -125639.000000 0 1 0
18.941124 -4.112999 13.629115 23.694635 -0.213827 0.957950 0.060839 -0.025301 493169.000000 0 1 0
19.272424 -4.725799 12.351015 23.373213 -0.240466 1.014051 0.062132 -0.027892 291689.000000 0 1 0
18.197324 -5.733699 11.831615 22.450056 -0.305238 1.015707 0.041660 -0.027283 36191.900000 0 1 0
18.296124 -6.979599 12.447915 23.203740 -0.364439 1.004558 0.070546 -0.036664 682719.000000 0 1 0
17.091224 -7.714999 12.558115 22.568505 -0.424019 0.980696 0.036132 -0.011209 -564818.000000 0 1 0
17.279824 -9.280099 12.689715 23.361109 -0.492845 0.996555 0.053569 -0.033272 -501997.000000 0 1 0
18.060324 -9.838799 11.679715 23.651491 -0.498822 1.054312 0.038650 -0.039353 315922.000000 0 1 0
17.807824 -11.202899 11.590215 24.019922 -0.561542 1.067261 0.050911 -0.035154 -135026.000000 0 1 0
18.689824 -11.765299 10.481915 24.445906 -0.561831 1.127654 0.061534 -0.038769 -26369.200000 0 1 0
18.195024 -11.340699 9.235715 23.344567 -0.557366 1.164047 0.055830 -0.037173 456007.000000 0 1 0
18.922724 -11.892499 8.169115 23.795703 -0.561096 1.220366 0.061383 -0.041834 -105341.000000 0 1 0
18.534224 -11.230699 6.852615 22.728933 -0.544779 1.264538 0.043770 -0.025260 -193073.000000 0 1 0
18.858224 -9.830399 6.863615 22.346780 -0.480526 1.258609 0.036410 -0.019389 747183.000000 0 1 0
19.609924 -9.600299 5.670515 22.558139 -0.455263 1.316697 0.037011 -0.018449 -420241.000000 0 1 0
20.021624 -8.160699 5.415615 22.288816 -0.387036 1.325365 0.052094 -0.013596 -485371.000000 0 1 0
20.483924 -7.975699 4.106515 22.362164 -0.371304 1.386111 0.036900 -0.017760 457646.000000 0 1 0
20.585924 -6.577899 3.878815 21.956645 -0.309280 1.393206 0.029169 -0.016262 -753681.000000 0 1 0
21.269024 -6.196599 2.523215 22.296543 -0.283497 1.457387 0.043431 -0.018605 -26982.300000 0 1 0
20.494524 -6.294799 1.327615 21.480516 -0.297999 1.508951 0.019801 -0.020844 141751.000000 0 1 0
21.097424 -5.604699 0.294215 21.831183 -0.259660 1.557319 0.037901 -0.014727 -120321.000000 0 1 0
-25.756961 -15.997799 0.155715 30.321195 0.555794 1.565661 0.041659 0.001190 -212465.000000 0 0 1
-24.822301 -15.175499 -0.522385 29.098373 0.548735 1.588750 0.037997 0.004322 -117898.000000 0 0 1
-23.502201 -15.652999 -0.519485 28.242516 0.587557 1.589191 0.040589 -0.001122 466422.000000 0 0 1
-22.661701 -15.158199 0.743715 27.274105 0.589541 1.543525 0.041402 -0.003151 -141205.000000 0 0 1
-23.018701 -15.794399 1.947015 27.984183 0.601374 1.501165 0.038716 0.005306 264154.000000 0 0 1
-22.230001 -15.294399 3.049015 27.154891 0.602632 1.458277 0.049378 0.011530 408136.000000 0 0 1
-22.560901 -15.937399 4.383915 27.968083 0.615020 1.413400 0.048398 0.010318 -493494.000000 0 0 1
-22.184801 -17.298199 4.405315 28.474548 0.662260 1.415462 0.053820 0.000282 207046.000000 0 0 1
-22.568001 -17.922299 5.583515 29.354712 0.671162 1.379422 0.056982 -0.009876 -160658.000000 0 0 1
-22.410801 -19.439499 5.505015 30.173553 0.714519 1.387324 0.052517 -0.011430 -189296.000000 0 0 1
-23.190701 -20.040999 6.480715 31.328101 0.712670 1.362426 0.049707 -0.014584 -149881.000000 0 0 1
-23.198401 -21.434899 6.335915 32.214353 0.745908 1.372826 0.051190 -0.016950 -235308.000000 0 0 1
-24.037701 -22.156399 7.375215 33.512847 0.744695 1.348909 0.056268 -0.014171 -275780.000000 0 0 1
-23.365701 -22.545899 8.529915 33.571312 0.767544 1.313896 0.054903 -0.007645 -151063.000000 0 0 1
-24.264601 -23.171199 9.432615 34.851823 0.762352 1.296729 0.062170 -0.001652 571827.000000 0 0 1
-23.465201 -23.673799 10.683815 35.002976 0.789823 1.260621 0.032997 -0.002862 640978.000000 0 0 1
-22.983001 -22.551599 11.485615 34.186435 0.775924 1.228161 0.049538 0.000298 188307.000000 0 0 1
-22.156101 -22.984999 12.549815 34.303073 0.803758 1.196249 0.054212 0.003243 69451.600000 0 0 1
-22.386401 -22.098399 13.797415 34.349074 0.778924 1.157443 0.039230 0.008086 -302571.000000 0 0 1
-23.684101 -22.323999 14.290615 35.546016 0.755845 1.157062 0.031366 0.009444 -118043.000000 0 0 1
-23.893001 -21.510899 15.435815 35.663127 0.732982 1.123175 0.036703 0.017388 -616487.000000 0 0 1
-25.027501 -22.019999 16.300815 37.107583 0.721560 1.115993 0.015167 0.018041 330394.000000 0 0 1
-26.342021 -22.110199 15.724315 37.815566 0.698279 1.141957 0.010238 0.015039 1034820.000000 0 0 1
-26.693301 -23.007699 14.629715 38.156455 0.711378 1.177306 0.011860 0.008838 -116667.000000 0 0 1
-27.926471 -23.895999 14.987215 39.692860 0.707780 1.183615 0.018162 0.011380 132061.000000 0 0 1
-27.606131 -25.019969 15.858015 40.491653 0.736295 1.168387 0.017662 0.017819 -673747.000000 0 0 1
-28.602801 -25.886389 16.251615 41.860965 0.735587 1.172088 0.004122 0.015240 -951952.000000 0 0 1
-28.583971 -27.246229 15.486915 42.417507 0.761442 1.197049 0.012470 0.013733 33192.300000 0 0 1
-29.141141 -27.268319 14.176915 42.352712 0.752210 1.229473 0.017765 0.003448 404171.000000 0 0 1
-30.550281 -27.460019 14.160115 43.449755 0.732178 1.238837 0.017005 -0.003842 227982.000000 0 0 1
-31.071321 -27.796339 12.760215 43.599158 0.729823 1.273777 0.019551 -0.012102 -212767.000000 0 0 1
-30.609521 -29.047099 12.340715 43.965555 0.759214 1.286283 0.043275 -0.019934 194692.000000 0 0 1
-31.186291 -29.492989 11.111915 44.338424 0.757500 1.317480 0.032657 -0.015540 137673.000000 0 0 1
-30.366471 -30.644819 10.471215 44.394525 0.789960 1.332685 0.048712 -0.027092 -96717.700000 0 0 1
-30.476471 -31.851829 11.178015 45.478592 0.807461 1.322466 0.036072 -0.021244 86491.400000 0 0 1
-29.861921 -32.945969 10.505515 45.689573 0.834462 1.338788 0.052985 -0.024947 -271890.000000 0 0 1
-30.053411 -34.365956 11.216015 47.010908 0.852243 1.329890 0.039119 -0.020546 486257.000000 0 0 1
-31.411451 34.087466 11.199115 47.687050 -0.826231 1.333736 0.026084 -0.017407 295325.000000 0 0 1
-31.524611 32.827441 11.795715 47.016815 -0.805641 1.317204 0.030701 -0.017696 226880.000000 0 0 1
-32.869281 32.533321 12.568315 47.924619 -0.780261 1.305441 0.048387 -0.015578 1137390.000000 0 0 1
-34.055711 32.271331 11.827615 48.385150 -0.758502 1.323847 0.021377 -0.015177 339712.000000 0 0 1
-34.606663 33.341719 11.132015 49.327610 -0.766784 1.343160 0.022131 -0.013906 -1082990.000000 0 0 1
35.227703 33.073073 10.492715 49.446095 0.753862 1.356965 0.006581 0.004217 -389039.000000 0 0 1
35.227893 32.333881 9.284115 48.710154 0.742589 1.379024 -0.013964 0.008455 346683.000000 0 0 1
33.941044 32.316291 8.671315 47.660559 0.760881 1.387838 -0.005930 0.007860 264963.000000 0 0 1
33.951534 31.779411 7.223215 47.061794 0.752365 1.416704 -0.016467 0.007714 25252.800000 0 0 1
34.287104 30.386191 7.066815 46.355863 0.725154 1.417753 -0.006194 0.007118 23708.400000 0 0 1
34.102234 29.994681 5.747115 45.778517 0.721402 1.444922 0.007927 0.002616 -61315.600000 0 0 1
34.397944 28.509891 5.497815 45.013980 0.692072 1.448355 0.011162 0.005348 11039.800000 0 0 1
33.455684 27.660001 6.163215 43.844540 0.690850 1.429759 0.024652 -0.000680 301099.000000 0 0 1
33.904514 27.203631 7.387315 44.092245 0.676178 1.402460 0.008730 -0.002873 270654.000000 0 0 1
32.938944 26.095201 7.953915 42.769128 0.669985 1.383734 0.015718 0.000196 476643.000000 0 0 1
32.842884 24.980121 7.064715 41.863728 0.650247 1.401230 0.031270 -0.006655 -268580.000000 0 0 1
31.811834 24.144411 7.483815 40.631919 0.649221 1.385553 0.017986 0.002179 -890384.000000 0 0 1
31.743454 22.786371 6.654215 39.637661 0.622592 1.402122 0.019534 0.005240 39581.000000 0 0 1
32.655174 21.763571 6.968215 39.856862 0.587864 1.395062 0.032560 0.002199 958951.000000 0 0 1
34.068354 22.029771 7.016015 41.172661 0.574006 1.399556 0.053068 -0.008879 1074790.000000 0 0 1
35.020114 20.782771 7.078815 41.333299 0.535591 1.398686 0.040560 -0.010108 240224.000000 0 0 1
34.932634 19.952471 5.948415 40.666616 0.518951 1.423997 0.051919 -0.019590 -7692.130000 0 0 1
35.431795 18.655071 6.126915 40.508800 0.484627 1.418965 0.068210 -0.024564 -629219.000000 0 0 1
34.998964 17.672271 5.122115 39.540773 0.467589 1.440891 0.057846 -0.020786 -571261.000000 0 0 1
35.565678 17.742671 3.851015 39.931819 0.462744 1.474206 0.062612 -0.017537 48514.800000 0 0 1
35.057614 16.686371 3.056715 38.946307 0.444239 1.492230 0.043485 -0.011402 -789334.000000 0 0 1
-35.157688 16.184971 1.965615 38.754096 -0.431431 1.520054 0.055258 0.003883 -505195.000000 0 0 1
-34.181044 15.319571 2.416315 37.534938 -0.421347 1.506377 0.063483 -0.012963 170902.000000 0 0 1
-32.927841 15.996571 2.574215 36.698223 -0.452229 1.500593 0.076291 -0.018954 474855.000000 0 0 1
-31.657431 15.095471 2.625215 35.170413 -0.444947 1.496084 0.076063 -0.020644 161634.000000 0 0 1
-31.502961 14.472671 3.873815 34.884111 -0.430649 1.459519 0.087438 -0.024575 1164240.000000 0 0 1
-30.155701 13.949971 3.934915 33.458206 -0.433281 1.452917 0.077293 -0.024635 898662.000000 0 0 1
-29.740791 13.282871 5.261715 32.994468 -0.420041 1.410640 0.084892 -0.023147 -129963.000000 0 0 1
-30.230181 11.960071 5.490315 32.970452 -0.376736 1.403495 0.087404 -0.030694 239165.000000 0 0 1
-29.906181 11.547971 6.747415 32.760691 -0.368501 1.363351 0.069683 -0.019034 -222325.000000 0 0 1
-29.990561 10.036571 7.050515 32.401794 -0.322942 1.351445 0.074656 -0.026203 554156.000000 0 0 1
-31.301631 9.490471 7.203715 33.492606 -0.294385 1.354019 0.064166 -0.029085 508967.000000 0 0 1
-31.272351 8.058971 7.172115 33.080903 -0.252215 1.352256 0.062706 -0.026046 -317737.000000 0 0 1
-32.650161 7.433671 6.991715 34.207843 -0.223860 1.364957 0.051050 -0.020566 366412.000000 0 0 1
-33.567721 7.470471 8.139615 35.339116 -0.218981 1.338381 0.040869 -0.018959 809487.000000 0 0 1
-34.786231 6.827171 7.811615 36.300323 -0.193798 1.353906 0.034725 -0.016172 312061.000000 0 0 1
-35.491195 6.124371 8.997315 37.122561 -0.170877 1.325991 0.013508 -0.008786 31243.200000 0 0 1
35.098764 6.909871 10.021115 37.149594 0.194384 1.297663 0.023152 -0.006674 520975.000000 0 0 1
-35.145393 7.558171 10.876315 37.558205 -0.211828 1.277002 0.028786 -0.015052 -120488.000000 0 0 1
35.396599 8.558871 11.843215 38.294063 0.237246 1.256371 0.031925 -0.013496 -360210.000000 0 0 1
34.783474 7.905971 12.978715 37.958418 0.223494 1.221838 0.014087 -0.015744 675909.000000 0 0 1
34.153464 8.780671 13.889215 37.900786 0.251645 1.195592 0.033428 -0.015697 -285881.000000 0 0 1
33.470694 8.165471 15.117215 37.623031 0.239285 1.157307 0.028748 -0.024522 165828.000000 0 0 1
32.109444 7.791971 14.907015 36.248453 0.238067 1.146976 0.011557 -0.017305 552303.000000 0 0 1
31.517584 7.358971 16.114415 36.155040 0.229378 1.108837 0.018922 -0.016555 233376.000000 0 0 1
30.023484 6.982571 16.047915 34.752000 0.228508 1.090791 -0.001701 -0.015511 -224806.000000 0 0 1
29.113904 8.095371 16.072015 34.226658 0.271208 1.081986 -0.001645 -0.016659 953930.000000 0 0 1
27.720024 7.780271 16.066215 32.970527 0.273633 1.061812 0.006916 -0.017418 678094.000000 0 0 1
27.214364 7.186771 17.375915 33.078599 0.258186 1.017738 0.001128 -0.019800 -980966.000000 0 0 1
27.072194 8.193771 18.376115 33.730152 0.293899 0.994648 0.011672 -0.020742 -36876.300000 0 0 1
26.515794 7.694671 19.584515 33.850384 0.282434 0.953833 0.011739 -0.017582 -10881.600000 0 0 1
27.241054 6.613571 20.485515 34.719889 0.238171 0.939710 0.011940 -0.012040 48931.300000 0 0 1
26.742404 6.626871 21.809215 35.138490 0.242911 0.901206 0.020197 -0.010604 -132875.000000 0 0 1
27.311454 5.576271 22.562015 35.861607 0.201405 0.890348 0.030981 -0.012617 -846466.000000 0 0 1
26.711204 5.483071 24.002115 36.327043 0.202460 0.849015 0.039823 -0.006245 337183.000000 0 0 1
25.333624 5.217471 24.165215 35.397346 0.203111 0.819366 0.033071 -0.002656 -84615.200000 0 0 1
24.511124 6.317871 23.808515 34.749908 0.252264 0.816002 0.029091 0.001121 -26143.100000 0 0 1
22.973524 6.101171 24.019915 33.792949 0.259582 0.780166 0.019790 0.000492 861145.000000 0 0 1
22.487224 5.203071 23.043915 32.615475 0.227378 0.786209 0.005822 0.014675 -1040110.000000 0 0 1
21.103824 5.187171 22.982315 31.630127 0.241015 0.757442 0.018597 -0.000123 -1879800.000000 0 0 1
20.571124 4.516771 21.670415 30.218856 0.216139 0.771141 0.022220 -0.001114 -309519.000000 0 0 1
19.200924 4.575771 21.410315 29.120693 0.233946 0.744795 0.036246 -0.006237 -353856.000000 0 0 1
18.390624 3.942571 22.363315 29.221170 0.211183 0.699270 0.055083 -0.010564 -595178.000000 0 0 1
16.880124 3.866071 21.978115 27.980755 0.225148 0.667337 0.079976 -0.012001 149793.000000 0 0 1
16.653324 3.057471 20.858815 26.865805 0.181573 0.681851 0.064080 -0.012443 -789202.000000 0 0 1
15.365324 3.015671 20.367515 25.690915 0.193801 0.655422 0.082756 -0.022504 -321022.000000 0 0 1
14.248424 2.200071 21.079515 25.538282 0.153198 0.599871 0.086989 -0.025260 -126179.000000 0 0 1
14.489824 0.771771 20.893415 25.437874 0.053213 0.607021 0.058216 -0.017156 154629.000000 0 0 1
13.698224 -0.034929 21.738015 25.694043 -0.002550 0.562296 0.055305 -0.021255 -177562.000000 0 0 1
14.055624 -1.540229 21.794415 25.979403 -0.109146 0.575517 0.029318 -0.017268 -60740.500000 0 0 1
13.551724 -2.338129 20.727915 24.874938 -0.170852 0.585773 0.038611 -0.008656 54137.600000 0 1 0
14.040024 -3.637129 20.789415 25.348585 -0.253482 0.609139 0.044315 0.000349 -103061.000000 0 0 1
13.666024 -4.429829 19.479015 24.203628 -0.313462 0.635462 0.039354 -0.007309 -199519.000000 0 1 0
12.284524 -4.489229 19.270015 23.289401 -0.350361 0.596306 0.034075 -0.006656 -627873.000000 0 1 0
11.964624 -4.877229 17.946515 22.113729 -0.387073 0.623987 0.036563 -0.012660 933105.000000 0 1 0
10.409624 -4.853729 17.711215 21.109384 -0.436304 0.575315 0.030404 -0.010250 893272.000000 0 1 0
9.839124 -5.913729 18.444115 21.724777 -0.541185 0.556726 0.028223 -0.008185 448818.000000 0 1 0
8.429024 -6.045529 18.195715 20.944711 -0.622195 0.518124 0.017787 -0.018609 757494.000000 0 1 0
7.641224 -6.873429 19.198615 21.776573 -0.732549 0.491517 0.006660 -0.020027 -423120.000000 0 1 0
7.677324 -8.237529 18.955715 22.048068 -0.820584 0.536026 -0.003054 -0.014463 -405283.000000 0 1 0
8.555424 -8.956229 19.747315 23.310207 -0.808282 0.560192 0.010471 -0.008132 -317311.000000 0 1 0
8.770124 -10.321129 19.076215 23.395358 -0.866462 0.617403 0.027709 -0.016324 156925.000000 0 1 0
9.217424 -10.272929 17.732415 22.470704 -0.839501 0.661397 0.032222 -0.008331 -109580.000000 0 1 0
9.551524 -11.532729 17.316915 22.893471 -0.879089 0.712985 0.030363 -0.008190 94784.000000 0 1 0
9.497724 -11.672429 15.735815 21.773108 -0.887764 0.763070 0.030215 -0.018793 188741.000000 0 1 0
9.960824 -12.902229 15.225315 22.304613 -0.913349 0.819470 0.015369 -0.015528 -208766.000000 0 1 0
9.772724 -13.027329 13.878915 21.397236 -0.927186 0.865012 0.019881 -0.012635 -205527.000000 0 1 0
10.471724 -14.238729 13.194015 22.056302 -0.936679 0.929547 0.034946 -0.019096 1294580.000000 0 1 0
11.873524 -14.125629 12.861715 22.493059 -0.871805 0.962088 0.022823 -0.022000 996153.000000 0 1 0
11.999024 -13.523729 11.536615 21.446709 -0.845066 1.002828 -0.004154 -0.014823 -1250820.000000 0 1 0
13.421324 -13.221229 11.136215 21.884884 -0.777888 1.036943 0.013127 -0.022602 -952678.000000 0 1 0
14.047324 -14.345929 10.586315 22.698085 -0.795915 1.085583 0.023636 -0.022832 354395.000000 0 1 0
15.429024 -14.016629 10.375815 23.284721 -0.737469 1.108945 0.030133 -0.030473 798975.000000 0 1 0
16.164724 -15.252729 9.722615 24.258469 -0.756378 1.158415 0.031862 -0.034899 111982.000000 0 1 0
16.581324 -16.312129 10.616715 25.568350 -0.777214 1.142602 0.029875 -0.021609 156927.000000 0 0 1
15.551624 -17.144429 11.086915 25.665232 -0.834075 1.124107 0.054446 -0.017587 156890.000000 0 0 1
16.148924 -17.814729 12.341315 27.027031 -0.834406 1.096594 0.046089 -0.017090 268477.000000 0 0 1
17.210124 -18.741929 12.158015 28.200454 -0.827979 1.125053 0.058444 -0.022340 -10191.000000 0 0 1
17.553824 -19.428029 13.344315 29.388021 -0.836034 1.099465 0.025994 -0.018809 187208.000000 0 0 1
18.931424 -20.151629 13.191115 30.634825 -0.816609 1.125648 -0.005609 -0.021460 947105.000000 0 0 1
19.920424 -19.142729 12.882815 30.483345 -0.765492 1.134464 0.009139 -0.025009 -843438.000000 0 0 1
21.177924 -19.722829 12.773315 31.633085 -0.749837 1.155134 -0.002043 -0.029207 55113.300000 0 0 1
22.156524 -18.904129 11.865215 31.449340 -0.706354 1.183939 0.011808 -0.025723 -102016.000000 0 0 1
22.024624 -19.185329 10.449615 31.021853 -0.716609 1.227230 0.004656 -0.018546 1041620.000000 0 0 1
20.787324 -18.763829 9.789715 29.665344 -0.734281 1.234487 0.024193 -0.023006 1332620.000000 0 0 1
20.404224 -17.268529 9.764215 28.458292 -0.702354 1.220575 0.066284 -0.029781 5744.430000 0 0 1
21.428924 -16.522029 9.159615 28.567023 -0.656816 1.244396 0.057607 -0.019532 165390.000000 0 0 1
20.906024 -15.229929 8.904415 27.355095 -0.629595 1.239243 0.068622 -0.038074 230875.000000 0 0 1
-33.808951 25.251801 8.195315 42.986763 -0.641512 1.378975 0.045429 -0.000607 -502775.000000 0 0 1
-33.068521 24.386701 8.932515 42.047926 -0.635427 1.356729 0.056124 -0.006812 -659365.000000 0 0 1
-31.977661 25.018301 9.522815 41.703359 -0.663897 1.340417 0.049403 0.001212 -457174.000000 0 0 1
-31.011941 23.979101 10.174715 40.500155 -0.658198 1.316849 0.058653 -0.023292 -79497.500000 0 0 1
-30.163011 23.361201 9.244315 39.255704 -0.658997 1.333074 0.058072 -0.017689 194282.000000 0 0 1
-29.352601 22.339901 9.822515 38.172348 -0.650559 1.310548 0.070078 -0.016684 386911.000000 0 0 1
-28.639661 21.422701 8.821015 36.837109 -0.642225 1.328987 0.055948 -0.022285 397576.000000 0 0 1
-29.614691 20.647301 8.101115 36.999581 -0.608843 1.350057 0.065172 -0.026661 991263.000000 0 0 1
-28.979911 19.910401 7.031215 35.856621 -0.601976 1.373425 0.056870 -0.027458 -226341.000000 0 0 1
-30.008231 19.292501 6.095615 36.191864 -0.571373 1.401565 0.066065 -0.026429 -973454.000000 0 0 1
-30.462561 18.068801 6.588815 36.025847 -0.535366 1.386870 0.068984 -0.030002 -326201.000000 0 0 1
-31.499411 17.737801 5.739415 36.603051 -0.512857 1.413345 0.060732 -0.031988 -985315.000000 0 0 1
-32.430871 16.613001 6.138115 36.951720 -0.473407 1.403911 0.076916 -0.023422 -395399.000000 0 0 1
-33.311471 16.847301 7.217315 38.020722 -0.468238 1.379812 0.063386 -0.022832 70775.900000 0 0 1
-33.942571 15.705801 7.647715 38.174047 -0.433379 1.369093 0.070151 -0.026852 -534067.000000 0 0 1
-34.820967 15.903301 8.873615 39.295747 -0.428425 1.343016 0.071450 -0.029995 15520.700000 0 0 1
35.257433 16.745201 8.705415 39.990906 0.443400 1.351355 0.076786 -0.026263 282524.000000 0 0 1
34.454884 16.952801 9.857315 39.644712 0.457250 1.319519 0.080123 -0.027451 420673.000000 0 0 1
33.591174 18.251201 9.871615 39.483188 0.497710 1.318095 0.057164 -0.021639 1196450.000000 0 0 1
32.439464 18.233901 8.970815 38.278839 0.512078 1.334242 0.038238 -0.020092 1174990.000000 0 0 1
31.707754 19.469001 9.101715 38.304894 0.550660 1.330889 0.024872 -0.006163 -383805.000000 0 0 1
30.463614 19.466501 8.242815 37.079920 0.568609 1.346625 -0.002937 -0.006402 -1050540.000000 0 0 1
29.633194 20.610801 8.461315 37.074589 0.607720 1.340543 -0.013958 0.004290 261353.000000 0 0 1
28.424274 20.636101 7.727315 35.965253 0.627965 1.354253 -0.018722 0.000601 -8154.820000 0 0 1
28.461854 20.297501 6.164115 35.497352 0.619495 1.396262 -0.038702 0.013330 -1154130.000000 0 0 1
28.635624 18.893501 5.860415 34.803848 0.583227 1.401606 -0.033753 0.004694 60684.600000 0 0 1
28.522724 18.486901 4.456415 34.280766 0.575071 1.440430 -0.033442 0.001665 13292.200000 0 0 1
27.158304 18.876601 3.781315 33.289606 0.607402 1.456962 -0.004784 0.010635 605072.000000 0 0 1
26.103124 18.097301 4.385815 32.064322 0.606215 1.433584 -0.019873 0.002768 887606.000000 0 0 1
24.750824 18.326201 4.032515 31.059847 0.637347 1.440598 0.010919 -0.009464 725116.000000 0 0 1
24.054324 19.698101 4.420515 31.403290 0.686160 1.429561 0.018990 -0.014026 -207126.000000 0 0 1
24.708124 20.842601 3.890315 32.558255 0.700739 1.451022 0.020760 -0.010882 235522.000000 0 0 1
24.023624 22.003901 4.284915 32.858282 0.741546 1.440018 0.024817 -0.004194 -88567.800000 0 0 1
24.765324 23.357701 3.929515 34.268711 0.756156 1.455876 0.008863 0.008141 -265381.000000 0 0 1
26.016224 23.274701 4.539915 35.201796 0.729836 1.441468 0.004069 0.000016 -433343.000000 0 0 1
26.734254 24.488201 4.645215 36.550928 0.741577 1.443363 0.016725 0.003100 -536826.000000 0 0 1
28.052034 24.322701 5.450615 37.526252 0.714313 1.425033 0.007489 0.004251 764751.000000 0 0 1
29.007314 23.362201 4.920215 37.568940 0.678019 1.439454 -0.001509 0.003385 616049.000000 0 0 1
29.415454 23.486701 3.541815 37.807916 0.673794 1.476980 -0.002377 -0.003375 -327161.000000 0 0 1
30.651174 24.405101 3.260915 39.315862 0.672432 1.487759 0.024391 -0.010657 30901.300000 0 0 1
30.376404 25.781601 3.547515 40.000022 0.703761 1.481992 0.034486 -0.005421 155933.000000 0 0 1
31.141934 26.679001 2.741315 41.098710 0.708365 1.504046 0.041368 -0.006980 -296524.000000 0 0 1
30.678974 28.143901 2.973515 41.738716 0.742328 1.499495 0.041330 -0.005968 776353.000000 0 0 1
29.463864 28.624601 2.373515 41.147547 0.770951 1.513081 0.036417 -0.014793 -108098.000000 0 0 1
28.303284 28.277101 3.035915 40.123399 0.784935 1.495059 0.018926 -0.001668 -571854.000000 0 0 1
27.006924 28.703201 2.287715 39.477605 0.815837 1.512814 0.021143 0.007521 363118.000000 0 0 1
26.663864 30.043201 2.589315 40.252455 0.844921 1.506425 0.008242 -0.002941 -557437.000000 0 0 1
25.326724 30.311201 2.308915 39.566943 0.874747 1.512409 0.009640 0.001871 -311358.000000 0 0 1
24.898624 31.769901 2.720215 40.455749 0.906063 1.503506 0.015701 -0.013044 -306445.000000 0 0 1
24.800424 32.188601 4.077915 40.838664 0.914321 1.470775 0.012603 -0.025128 -194536.000000 0 0 1
25.982024 32.142401 4.851915 41.614187 0.890990 1.453938 0.010174 -0.025612 -243102.000000 0 0 1
25.740224 32.054201 6.407415 41.606320 0.894215 1.416180 0.021849 -0.034331 -30050.900000 0 0 1
25.139024 30.830701 6.819815 40.361027 0.886742 1.401011 0.022213 -0.030154 422047.000000 0 0 1
25.827324 29.557401 6.465815 39.780616 0.852645 1.407535 0.023660 -0.026249 218503.000000 0 0 1
25.224324 28.306701 7.077815 38.569824 0.842916 1.386244 0.031505 -0.015498 -644465.000000 0 0 1
24.024424 27.902301 6.513915 37.391743 0.859940 1.395696 0.015432 -0.026133 -612706.000000 0 0 1
23.684424 26.549101 6.851915 36.231967 0.842364 1.380538 0.022617 -0.017974 45001.700000 0 0 1
22.265424 26.156201 6.345115 34.930738 0.865578 1.388134 0.030257 -0.011649 144699.000000 0 0 1
22.047524 26.075901 4.919715 34.499993 0.868913 1.427708 0.031558 -0.014746 172225.000000 0 0 1
22.400424 27.185501 4.141015 35.467992 0.881601 1.453776 0.033230 -0.014684 -578790.000000 0 0 1
22.502124 26.856801 2.659215 35.138366 0.873395 1.495046 0.029240 -0.006490 289012.000000 0 0 1
23.682324 26.091201 2.391615 35.317461 0.833757 1.503027 0.020500 0.017253 478033.000000 0 0 1
23.737324 25.926401 0.967815 35.164975 0.829448 1.543271 0.026437 0.018629 33441.300000 0 0 1
25.020424 25.345401 0.294415 35.615975 0.791850 1.562530 0.032949 0.014786 -472802.000000 0 0 1
26.123744 26.283801 0.393815 37.059996 0.788452 1.560170 0.031518 0.018404 606838.000000 0 0 1
27.115734 26.029501 -0.571685 37.591552 0.764962 1.586005 0.027250 0.025564 -204357.000000 0 0 1
28.044954 24.835201 -0.413185 37.463014 0.724774 1.581826 0.031935 0.012273 -1256940.000000 0 0 1
27.309894 23.638201 -0.258885 36.120104 0.713455 1.577964 0.032734 0.003043 -64969.200000 0 0 1
28.003234 22.500001 0.223315 35.923266 0.676858 1.564580 0.035116 -0.006227 295044.000000 0 0 1
26.890964 21.588801 0.842615 34.495076 0.676463 1.546367 0.027082 -0.004479 557676.000000 0 0 1
26.369644 20.652101 -0.097685 33.494432 0.664399 1.573713 0.035458 -0.024527 196451.000000 0 0 1
25.422024 19.901201 0.613915 32.291082 0.664185 1.551783 0.035121 -0.011080 -784656.000000 0 0 1
24.807324 18.770001 -0.154185 31.108520 0.647732 1.575753 0.027115 -0.017017 -611330.000000 0 0 1
23.584324 18.312101 0.371415 29.861201 0.660217 1.558358 0.031826 -0.018104 212890.000000 0 0 1
22.919224 17.524501 -0.616185 28.857905 0.652793 1.592150 0.034606 -0.026358 229199.000000 0 0 1
21.456724 17.152901 -0.265585 27.471504 0.674386 1.580464 0.028263 -0.014958 -340182.000000 0 0 1
20.890924 16.183701 -1.172685 26.452185 0.659108 1.615143 0.026190 -0.016968 -204304.000000 0 0 1
19.629424 15.739201 -0.771485 25.172047 0.675848 1.601450 0.043240 -0.018288 -114345.000000 0 0 1
18.444124 16.653501 -1.210685 24.879521 0.734424 1.619477 0.038884 -0.022229 -415884.000000 0 1 0
18.332324 17.854301 -0.491485 25.594760 0.772189 1.590000 0.033117 -0.018734 -456964.000000 0 0 1
17.200324 18.513101 -0.953285 25.288235 0.822140 1.608502 0.009035 -0.022695 -382358.000000 0 0 1
17.296724 20.050601 -0.723985 26.490138 0.859002 1.598130 0.015125 -0.015022 -69978.200000 0 0 1
16.998224 20.347101 0.613615 26.520193 0.874832 1.547657 0.020344 -0.015059 -136676.000000 0 0 1
17.159324 21.683701 0.994515 27.669737 0.901354 1.534846 0.021639 -0.015634 -164486.000000 0 0 1
16.244524 22.835001 0.491015 28.027895 0.952469 1.553277 0.018380 -0.018127 654295.000000 0 0 1
14.915124 22.703001 1.016515 27.183092 0.989539 1.533392 0.018934 -0.014418 165515.000000 0 0 1
14.060024 23.705501 0.576415 27.567504 1.035457 1.549886 0.012659 -0.011469 -104054.000000 0 0 1
12.773224 23.601201 1.457715 26.875581 1.074726 1.516530 0.014656 -0.014453 -35170.100000 0 0 1
12.727824 23.999901 2.803815 27.310330 1.083182 1.467950 0.019538 -0.002911 -582703.000000 0 0 1
11.464724 23.898901 3.380215 26.721213 1.123506 1.443957 0.006241 -0.002409 -456311.000000 0 0 1
11.457524 24.326701 4.880315 27.329118 1.130629 1.391258 0.010144 -0.006712 -14774.000000 0 0 1
12.089224 23.296801 5.664615 26.851036 1.092126 1.358235 0.013218 -0.011778 573410.000000 0 0 1
11.232024 22.813701 6.717015 26.300981 1.113298 1.312545 0.015894 -0.004160 -254301.000000 0 0 1
11.862324 21.651101 7.529315 25.810376 1.069578 1.274775 0.024162 -0.006724 -163901.000000 0 0 1
12.950224 21.903001 8.389315 26.792356 1.036833 1.252316 0.032546 -0.001749 260854.000000 0 0 1
14.158924 21.972001 7.646915 27.234523 0.998363 1.286189 0.028780 -0.001356 -1585560.000000 0 0 1
15.437024 22.058101 8.385615 28.198937 0.960181 1.268856 0.043859 -0.006761 -1322140.000000 0 0 1
15.828524 20.860401 9.035115 27.700755 0.921698 1.238549 0.053959 -0.010191 544537.000000 0 0 1
17.119424 20.891701 9.641015 28.679034 0.884316 1.227950 0.053214 -0.016390 295350.000000 0 0 1
17.323924 21.783901 10.924115 29.899715 0.898951 1.196778 0.031278 -0.006774 -868447.000000 0 0 1
16.700324 21.212901 12.031515 29.557492 0.903865 1.151569 0.050436 -0.009112 -68904.400000 0 0 1
16.763224 21.996501 13.205615 30.647023 0.919605 1.125313 0.047348 -0.007771 240498.000000 0 0 1
17.863924 21.577501 14.250515 31.429055 0.879276 1.100199 0.021089 0.004539 1606180.000000 0 0 1
19.203524 21.820201 13.769715 32.163668 0.849096 1.128392 0.018531 0.004091 453048.000000 0 0 1
20.214224 21.169601 14.503215 32.666651 0.808480 1.110765 0.010878 0.005815 -118466.000000 0 0 1
21.601424 21.632901 14.067015 33.652412 0.786126 1.139544 0.012137 0.001429 -457726.000000 0 0 1
22.091324 21.045701 12.871115 33.115159 0.761163 1.171601 0.016486 0.011677 229281.000000 0 0 1
23.468124 21.374801 12.708315 34.192634 0.738751 1.189991 0.004864 0.010734 221242.000000 0 0 1
23.990324 20.807001 11.397215 33.739642 0.714457 1.226219 0.010535 0.011144 -239725.000000 0 0 1
23.487224 21.519701 10.328615 33.487722 0.741710 1.257254 0.015336 0.003078 366452.000000 0 0 1
24.269224 21.195601 9.176715 33.503147 0.717896 1.293344 0.021616 -0.002082 -256012.000000 0 0 1
24.223424 22.336501 8.079515 33.925980 0.744894 1.330334 0.012295 -0.005436 88916.400000 0 0 1
24.726924 23.634401 8.431315 35.229146 0.762811 1.329123 0.019514 0.001198 1023300.000000 0 0 1
26.135684 23.794101 8.639915 36.385180 0.738535 1.331049 0.004849 -0.000911 395652.000000 0 0 1
26.391204 25.154801 9.310715 37.629099 0.761416 1.320765 0.010462 0.003953 -130977.000000 0 0 1
27.637144 25.736301 8.986615 38.819173 0.749799 1.337178 0.004501 0.007538 145825.000000 0 0 1
27.859684 26.857801 9.774815 39.913036 0.767090 1.323377 0.011632 0.004411 64845.300000 0 0 1
29.116644 27.657901 9.395715 41.243398 0.759710 1.340967 -0.000384 0.009427 -3018.620000 0 0 1
28.927844 28.428401 8.232315 41.385567 0.776691 1.370543 0.008644 0.001097 -332046.000000 0 0 1
29.996614 28.342201 7.341515 41.916286 0.757047 1.394741 0.001218 0.003352 -427129.000000 0 0 1
29.917514 29.290701 6.113715 42.312886 0.774812 1.425801 0.019970 0.002250 -51563.200000 0 0 1
30.076294 30.676501 6.418415 43.437625 0.795277 1.422492 0.010821 -0.002144 144567.000000 0 0 1
29.700934 31.497301 5.335415 43.619859 0.814743 1.448173 0.023146 -0.016262 -135042.000000 0 0 1
29.935974 33.021801 5.628215 44.925257 0.834373 1.445187 -0.000714 -0.011581 -161959.000000 0 0 1
28.983654 33.531901 6.507415 44.797177 0.858024 1.425017 -0.012312 -0.017738 -184278.000000 0 0 1
29.029844 -33.907869 6.415615 45.095849 -0.862749 1.428046 -0.001459 -0.019563 212564.000000 0 0 1
27.717864 -33.390169 7.074115 43.968472 -0.877957 1.409203 0.030695 -0.022271 323528.000000 0 0 1
26.622754 -33.648469 6.242715 43.358529 -0.901443 1.426315 0.020917 -0.026127 -168750.000000 0 0 1
25.382924 -33.131069 6.744215 42.278186 -0.917048 1.410592 0.005379 -0.026638 601807.000000 0 0 1
24.277924 -33.121869 5.677815 41.457369 -0.938272 1.433409 0.024303 -0.014571 -373669.000000 0 0 1
24.567124 -32.480269 4.477115 40.970185 -0.923230 1.461300 0.007599 0.001698 -790671.000000 0 0 1
23.523624 -32.542369 3.536715 40.309739 -0.944891 1.482945 0.019283 -0.009782 -140743.000000 0 0 1
23.951624 -31.863269 2.157715 39.919970 -0.926208 1.516719 0.020113 0.007152 -242115.000000 0 0 1
24.001724 -30.439469 2.232215 38.828171 -0.903103 1.513275 0.022890 0.008017 5524.540000 0 0 1
24.624524 -29.969069 1.062515 38.802593 -0.882984 1.543410 0.012628 0.014734 -396586.000000 0 0 1
24.889924 -28.476469 1.078315 37.836231 -0.852503 1.542293 0.017694 0.002354 36024.600000 0 0 1
23.726824 -27.673069 1.062415 36.467653 -0.862023 1.541659 0.003864 0.005404 6977.600000 0 0 1
23.059824 -27.569669 -0.191385 35.942715 -0.874239 1.576121 0.017451 0.004888 -359061.000000 0 0 1
21.768724 -26.758069 -0.213185 34.495175 -0.887854 1.576977 0.008915 0.002452 -620865.000000 0 0 1
21.976024 -25.358069 0.053815 33.555629 -0.856727 1.569193 0.003446 -0.002466 -217700.000000 0 0 1
22.231324 -24.926669 1.400715 33.429517 -0.842492 1.528884 -0.005964 -0.000101 713721.000000 0 0 1
20.953724 -24.720869 2.290415 32.487320 -0.867690 1.500236 -0.002573 -0.003660 560830.000000 0 0 1
21.344224 -23.937769 3.396715 32.251052 -0.842611 1.465280 -0.009148 -0.008978 -593398.000000 0 0 1
20.305524 -23.738369 4.275715 31.529450 -0.863182 1.434767 -0.006634 -0.008250 -588738.000000 0 0 1
20.683524 -22.672769 5.373615 31.156675 -0.831247 1.397459 -0.002382 -0.008859 80202.000000 0 0 1
20.827224 -21.288669 4.959415 30.192325 -0.796354 1.405788 0.018973 -0.007085 585954.000000 0 0 1
19.593524 -20.586469 4.691015 28.804766 -0.810106 1.407212 0.015209 -0.005257 502491.000000 0 0 1
19.645824 -19.078969 5.130915 27.862013 -0.770761 1.385585 0.018558 -0.002434 -17256.500000 0 0 1
19.514324 -18.860569 6.547615 27.917758 -0.768364 1.334059 0.046287 -0.011028 -549083.000000 0 0 1
18.170424 -18.795169 6.923815 27.043704 -0.802297 1.311890 0.037794 -0.003725 -221665.000000 0 0 1
18.649299 -26.243489 -12.115485 34.399158 -0.952975 1.930720 0.034409 -0.016131 129522.000000 0 0 1
18.646299 -24.873099 -12.331085 33.442655 -0.927515 1.948431 0.047799 -0.018193 765453.000000 0 0 1
17.397099 -24.489299 -12.963685 32.717609 -0.953127 1.978203 0.033354 -0.011447 1109780.000000 0 0 1
17.304599 -22.907699 -13.199885 31.598241 -0.923845 2.001754 0.035157 -0.018692 -23545.700000 0 0 1
17.312099 -22.038499 -12.089685 30.521545 -0.904936 1.978065 0.043706 -0.024096 -308545.000000 0 0 1
18.505799 -21.931099 -11.341985 30.855767 -0.869904 1.947203 0.051548 -0.034250 -554881.000000 0 0 1
18.541499 -22.699299 -9.964185 30.956911 -0.885876 1.898503 0.056572 -0.019878 -88254.500000 0 0 1
17.813599 -22.159799 -8.865485 29.782173 -0.893700 1.873055 0.054495 -0.023958 1330420.000000 0 0 1
16.385399 -22.360599 -9.044185 29.159475 -0.938407 1.886161 0.045122 -0.004465 822920.000000 0 0 1
15.480099 -21.511699 -8.160085 27.730374 -0.947028 1.869483 0.040948 -0.020560 -784222.000000 0 0 1
15.176999 -20.154599 -8.610185 26.658666 -0.925359 1.899672 0.028297 -0.027474 405183.000000 0 0 1
14.315499 -19.459599 -7.717185 25.360687 -0.936541 1.879997 0.023512 -0.030692 -710913.000000 0 0 1
12.836299 -19.676799 -7.915285 24.791102 -0.992766 1.895765 0.019149 -0.013978 -1161370.000000 0 1 0
12.481199 -21.018799 -7.717085 25.634423 -1.034940 1.876583 0.021292 -0.012797 826176.000000 0 0 1
11.085999 -21.256499 -8.033485 25.283889 -1.090070 1.894132 0.019765 -0.011250 1167790.000000 0 0 1
10.583799 -22.695899 -7.728685 26.207885 -1.134445 1.870146 0.021988 -0.007228 -77750.300000 0 0 1
10.828299 -23.106199 -6.418085 26.312361 -1.132557 1.817201 0.024936 -0.007344 452692.000000 0 0 1
10.183599 -24.364799 -6.123585 27.108069 -1.174901 1.798658 0.017666 -0.004053 77429.600000 0 0 1
10.646299 -24.905699 -4.830585 27.513126 -1.166840 1.747285 0.038629 -0.010738 -307161.000000 0 0 1
9.844599 -25.910129 -4.251785 28.041551 -1.207691 1.723008 0.048652 -0.016131 -387605.000000 0 0 1
10.354299 -26.480839 -3.036385 28.594860 -1.198063 1.677183 0.042863 -0.019794 -323271.000000 0 0 1
9.356399 -27.182489 -2.120285 28.825779 -1.239292 1.644418 0.039737 -0.017268 -326582.000000 0 0 1
8.349699 -26.371699 -1.605285 27.708499 -1.264166 1.628764 0.041971 -0.015018 -464012.000000 0 0 1
7.737799 -26.974399 -0.479285 28.066376 -1.291440 1.587874 0.044536 -0.016541 90177.900000 0 0 1
6.870799 -26.051069 0.382915 26.944623 -1.312925 1.556585 0.050942 -0.016589 293614.000000 0 0 1
5.495999 -25.882099 0.055215 26.459254 -1.361557 1.568710 0.060127 -0.019908 -281034.000000 0 0 1
4.947099 -25.274399 1.159515 25.780099 -1.377505 1.525804 0.062769 -0.020100 205387.000000 0 0 1
3.450599 -24.929799 0.896015 25.183415 -1.433258 1.535209 0.022539 -0.022512 475027.000000 0 0 1
2.665199 -26.032749 0.489315 26.173398 -1.468773 1.552100 0.012675 -0.023207 163304.000000 0 0 1
1.287799 -25.669969 0.465115 25.706460 -1.520671 1.552702 -0.000293 -0.015149 888447.000000 0 0 1
0.312599 -26.774339 -0.073085 26.776264 -1.559122 1.573526 0.003198 -0.010683 349452.000000 0 0 1
-0.003301 -27.835189 0.840415 27.847874 1.570678 1.540613 0.000914 -0.006189 -10253.100000 0 0 1
0.872599 -28.948959 0.686215 28.970236 -1.540663 1.547107 -0.010150 -0.006006 31117.400000 0 0 1
0.437999 -30.130639 1.603515 30.176456 -1.556261 1.517633 0.002490 -0.005444 115063.000000 0 0 1
0.802399 -29.877769 2.932515 30.032059 -1.543947 1.472994 -0.011646 -0.004824 99800.100000 0 0 1
0.265499 -30.916989 3.713415 31.140330 -1.562209 1.451264 -0.002052 -0.005575 -57956.900000 0 0 1
0.331299 -30.557379 5.181515 30.995343 -1.559955 1.402837 -0.006387 -0.004388 9692.320000 0 0 1
1.593899 -30.866729 5.745215 31.437287 -1.519204 1.387012 -0.010317 0.006716 -85659.500000 0 0 1
1.666499 -30.591999 7.128815 31.455805 -1.516375 1.342181 -0.003572 0.005130 47580.200000 0 0 1
3.048699 -30.960689 7.693615 32.047629 -1.472643 1.328360 0.003451 0.002408 223104.000000 0 0 1
3.273899 -32.380399 7.510915 33.400936 -1.470031 1.343985 -0.004723 0.004209 581795.000000 0 0 1
4.668499 -32.692159 7.688215 33.906943 -1.428954 1.342062 0.004528 -0.000672 932400.000000 0 0 1
5.037299 -34.186090 7.731415 35.409574 -1.424500 1.350681 0.001884 0.010942 -244042.000000 0 0 1
4.903899 34.163844 6.406115 35.103486 1.428230 1.387276 -0.005784 0.011419 -135907.000000 0 0 1
4.868799 32.756691 6.334615 33.716959 1.423241 1.381797 -0.009379 0.004496 -253642.000000 0 0 1
5.090899 32.036411 5.003915 32.822066 1.413204 1.417744 -0.003327 -0.002177 -867255.000000 0 0 1
6.334599 32.154101 4.427515 33.069869 1.376280 1.436509 0.003225 0.005259 -1085780.000000 0 0 1
7.059799 30.949851 4.464815 32.057271 1.346529 1.431066 0.003043 0.005448 -442884.000000 0 0 1
8.406599 31.011051 3.746015 32.347934 1.306074 1.454732 -0.003107 0.004049 -338793.000000 0 0 1
9.428499 31.542021 4.579915 33.238100 1.280332 1.432565 0.004509 -0.008313 -648738.000000 0 0 1
10.606499 31.682591 3.825015 33.629082 1.247750 1.456808 0.011849 -0.015851 -359137.000000 0 0 1
11.756299 32.042761 4.781015 34.464579 1.219151 1.431625 0.029250 -0.026044 -314453.000000 0 0 1
12.116799 30.973521 5.641315 33.734259 1.197900 1.402779 0.028500 -0.027176 28760.300000 0 0 1
13.122499 31.402031 6.559215 34.659931 1.174966 1.380403 0.047670 -0.026083 369637.000000 0 0 1
13.795099 30.226541 7.333215 34.025352 1.142641 1.353570 0.038951 -0.021913 -29508.100000 0 0 1
13.520699 30.154431 8.719215 34.177825 1.149289 1.312832 0.031489 -0.012401 -83138.900000 0 0 1
14.244699 29.130171 9.308115 33.736024 1.115986 1.291260 0.035867 -0.019356 -92012.600000 0 0 1
14.090299 29.089851 10.902015 34.111726 1.119729 1.245492 0.031770 -0.011371 -28885.200000 0 0 1
14.730399 30.167001 11.512215 35.490332 1.116556 1.240444 0.028072 -0.007004 143081.000000 0 0 1
14.197899 30.344771 12.812915 35.868597 1.133168 1.205508 0.028538 -0.005070 -76526.000000 0 0 1
15.024999 31.348281 13.645115 37.345073 1.123851 1.196756 0.025676 -0.002134 -248750.000000 0 0 1
16.317399 30.904581 13.934115 37.623267 1.085006 1.191401 0.004507 -0.001729 -299299.000000 0 0 1
16.982999 31.945011 14.676015 39.042174 1.082164 1.185427 0.008677 0.004285 -170539.000000 0 0 1
18.156599 31.444091 15.503115 39.480875 1.047142 1.167259 0.016177 0.003722 -819231.000000 0 0 1
19.254799 30.920681 14.839715 39.332594 1.013841 1.183930 0.004188 0.005538 -409785.000000 0 0 1
19.392899 29.532051 14.819815 38.312576 0.989744 1.173623 0.001441 0.006443 -156452.000000 0 0 1
20.797599 29.142891 14.293515 38.550652 0.950973 1.190956 0.012385 0.005051 967016.000000 0 0 1
21.828899 29.267001 15.308415 39.590475 0.929954 1.173779 0.007615 0.006684 693875.000000 0 0 1
23.132099 29.101761 14.773215 40.003179 0.899192 1.192540 0.013419 0.003329 -200019.000000 0 0 1
24.198899 29.200991 15.835115 41.097876 0.878798 1.175261 0.029566 -0.005043 -661257.000000 0 0 1
24.326399 28.033231 16.621815 40.668421 0.856076 1.149750 0.019033 0.000946 -367918.000000 0 0 1
25.364599 28.225571 17.525815 41.799521 0.838734 1.138141 0.034092 -0.003915 -808134.000000 0 0 1
26.215199 26.943621 17.802815 41.594899 0.799100 1.128512 0.013828 -0.001012 -63822.600000 0 0 1
25.621999 25.651221 18.263315 40.595820 0.785968 1.104164 0.004067 -0.001885 -53938.200000 0 0 1
25.225699 25.784541 19.601615 41.053645 0.796353 1.073031 0.011386 -0.001905 -563047.000000 0 0 1
24.546099 24.517461 20.016115 40.053236 0.784814 1.047500 0.016297 -0.003688 -526758.000000 0 0 1
25.501099 23.525671 20.225415 40.160063 0.745127 1.043012 0.007938 -0.001271 -579786.000000 0 0 1
24.922099 22.223671 20.193215 39.022666 0.728225 1.026900 0.015778 -0.005514 492469.000000 0 0 1
25.864499 20.919771 20.316715 38.979200 0.680097 1.022517 0.006095 -0.004180 501935.000000 0 0 1
25.154299 19.686371 20.467615 37.936990 0.664056 1.000934 0.008079 0.006272 86997.600000 0 0 1
26.036899 18.578071 20.560015 38.023401 0.619748 0.999503 0.009734 0.005936 308797.000000 0 0 1
26.714799 18.501671 21.973915 39.228118 0.605717 0.976221 0.039693 0.014189 -362567.000000 0 0 1
25.905499 17.812871 22.846515 38.863305 0.602362 0.942375 0.028146 0.014938 -159195.000000 0 0 1
26.479499 17.652271 24.092115 39.914866 0.587984 0.922803 0.047868 0.015082 -124053.000000 0 0 1
25.444799 17.015671 25.050615 39.553813 0.589429 0.884948 0.025307 0.018266 118610.000000 0 0 1
24.996299 15.762571 24.656015 38.486266 0.562613 0.875459 0.022523 0.013405 -120542.000000 0 0 1
24.079799 15.218171 25.558415 38.270903 0.563609 0.839508 0.012364 0.011270 -312492.000000 0 0 1
23.457899 14.005871 24.830415 36.918653 0.538258 0.833119 0.017715 0.009630 -940083.000000 0 0 1
22.252699 13.615371 25.364915 36.385984 0.549089 0.799442 0.014169 -0.000042 -805250.000000 0 0 1
21.750799 12.552371 24.622415 35.169910 0.523411 0.795260 0.017551 0.000165 459081.000000 0 0 1
20.510099 11.795971 25.239915 34.595699 0.521932 0.753106 0.017937 -0.006711 1115920.000000 0 0 1
19.334399 12.593671 25.206515 34.172912 0.577331 0.741262 0.012886 -0.008819 389119.000000 0 0 1
18.085399 11.938871 25.306315 33.317081 0.583470 0.708160 0.012680 -0.005181 436852.000000 0 0 1
16.856899 12.868971 25.367215 33.064498 0.652038 0.696326 0.009792 -0.010099 -59055.100000 0 0 1
16.669599 13.523571 26.571515 34.158570 0.681576 0.679500 0.016234 -0.005182 397526.000000 0 0 1
15.336599 13.998071 26.701515 33.824963 0.739800 0.660961 0.020749 -0.005191 108066.000000 0 0 1
15.082399 14.392171 28.168415 35.043872 0.761985 0.637134 0.020798 0.006430 -275160.000000 0 0 1
14.600099 13.254671 28.910915 34.995574 0.737134 0.598591 0.019922 0.009789 107169.000000 0 0 1
15.104799 13.148271 30.247315 36.275778 0.716258 0.584812 0.017368 0.005696 818168.000000 0 0 1
16.655099 12.950871 30.435215 37.032684 0.660927 0.606150 0.019654 0.021167 886733.000000 0 0 1
17.472299 14.124071 30.481715 37.866945 0.679823 0.635173 0.021412 0.005580 -73368.800000 0 0 1
18.831599 13.809971 30.400115 38.334207 0.632753 0.655032 0.019450 0.008805 -220196.000000 0 0 1
19.693299 15.093871 30.043815 38.965135 0.653944 0.690318 0.025157 0.005836 -192167.000000 0 0 1
19.416099 15.726371 28.810915 38.136235 0.680788 0.714420 0.023581 -0.000487 115890.000000 0 0 1
19.498499 14.955071 27.665115 37.002759 0.654284 0.726280 0.024470 -0.003608 -578164.000000 0 0 1
19.227499 15.646771 26.345315 36.174491 0.683081 0.754981 0.004580 -0.002017 -533993.000000 0 0 1
20.169499 16.623371 25.978915 36.851719 0.689314 0.788432 -0.001020 0.006033 -58852.300000 0 0 1
20.101099 16.995271 24.610415 36.035620 0.701870 0.819007 -0.005962 -0.000713 -882715.000000 0 0 1
21.338099 17.720471 24.138515 36.769518 0.693041 0.854651 -0.007744 0.006567 -974057.000000 0 0 1
21.312499 18.024571 22.746815 36.007296 0.702009 0.887016 -0.013306 0.006378 760309.000000 0 0 1
22.514499 18.705671 22.300815 36.798521 0.693258 0.919743 -0.009615 0.008234 773625.000000 0 0 1
22.918499 20.040871 22.901915 38.097136 0.718513 0.925863 -0.004316 0.000948 -959676.000000 0 0 1
22.074999 21.058471 22.503415 37.910005 0.761835 0.935270 -0.007125 0.007584 -209179.000000 0 0 1
22.204799 22.209271 23.227815 39.061953 0.785499 0.933978 0.003193 0.004309 297062.000000 0 0 1
21.113899 23.279171 22.806315 38.830974 0.834135 0.943049 -0.000167 0.000977 414283.000000 0 0 1
21.297099 23.903511 21.599315 38.619615 0.842998 0.977275 0.015908 0.002225 -209771.000000 0 0 1
20.574399 25.094331 21.510315 38.932313 0.884049 0.985429 0.012901 0.001125 -509436.000000 0 0 1
21.076999 26.184331 20.530015 39.387061 0.893046 1.022496 0.011799 -0.000752 -264401.000000 0 0 1
21.063199 25.738861 19.178815 38.392372 0.884971 1.047720 0.006382 -0.005640 216744.000000 0 0 1
21.374899 26.784411 18.232615 38.816481 0.897255 1.081830 0.008742 -0.002803 -208536.000000 0 0 1
21.275499 26.355341 16.807115 37.811770 0.891647 1.110187 0.003712 0.004876 -435175.000000 0 0 1
20.071399 25.891231 16.282415 36.583247 0.911349 1.109534 0.013711 0.003890 -515370.000000 0 0 1
20.326999 25.613581 14.914215 35.939897 0.899969 1.142879 0.017527 0.005379 -156356.000000 0 0 1
19.040099 25.279511 14.132115 34.659713 0.925261 1.150820 0.023291 -0.000799 518483.000000 0 0 1
18.181699 26.421241 13.886215 34.949723 0.968070 1.162202 0.026121 -0.003910 237476.000000 0 0 1
17.178899 26.718131 14.823115 35.052786 0.999381 1.134175 0.027119 0.003696 -778710.000000 0 0 1
15.802199 26.185261 14.436015 33.819756 1.027824 1.129788 0.032638 -0.015872 -1098230.000000 0 0 1
15.526199 24.792421 14.529615 32.662466 1.011300 1.109799 0.029845 -0.009545 -33081.400000 0 0 1
15.199599 24.201491 15.807215 32.658965 1.010011 1.065567 0.036570 -0.001890 176657.000000 0 0 1
13.978799 24.810921 16.537915 32.931615 1.057713 1.044667 0.055567 -0.023115 -105624.000000 0 0 1
14.323599 26.097801 17.095415 34.329490 1.068842 1.049528 0.043272 -0.026164 406068.000000 0 0 1
13.379099 26.483401 18.103015 34.757589 1.103007 1.022966 0.041625 -0.017726 250676.000000 0 0 1
13.808099 27.776801 18.836315 36.290784 1.109464 1.025071 0.041447 -0.024073 -213947.000000 0 0 1
13.643799 28.899661 17.947915 36.653394 1.129709 1.059090 0.039562 -0.025564 455386.000000 0 0 1
14.516999 29.944651 18.437915 38.044475 1.119387 1.064844 0.033731 -0.016001 327587.000000 0 0 1
14.387499 31.241201 17.598915 38.635923 1.139221 1.097855 0.035144 -0.018259 -294493.000000 0 0 1
13.080599 31.734261 17.655615 38.599043 1.179824 1.095715 0.042673 -0.008437 -320718.000000 0 0 1
13.048599 32.971278 16.995915 39.322159 1.193953 1.123841 0.043171 -0.002833 -428748.000000 0 0 1
11.880099 33.860996 17.381515 39.872558 1.233365 1.119729 0.039893 -0.005739 -621539.000000 0 0 1
11.670599 -33.846379 16.629115 39.475407 -1.238752 1.135970 0.046885 0.000715 443536.000000 0 0 1
12.417499 -32.651429 17.076915 38.883559 -1.207383 1.116110 0.051142 -0.006220 389052.000000 0 0 1
12.253599 -32.246969 18.602215 39.192603 -1.207656 1.076246 0.046857 -0.013577 -40290.100000 0 0 1
12.950199 -33.169089 19.428415 40.563030 -1.198567 1.071317 0.055238 -0.013437 215728.000000 0 0 1
12.718999 -32.957949 20.804215 40.997740 -1.202490 1.038576 0.051981 -0.011517 -803052.000000 0 0 1
13.834199 -33.543199 21.613815 42.233734 -1.179621 1.033557 0.055840 -0.013733 -301238.000000 0 0 1
15.008899 -32.722849 21.597215 41.982039 -1.140758 1.030443 0.061399 -0.012450 55620.400000 0 0 1
16.014199 -33.351219 22.388515 43.243543 -1.123140 1.026600 0.066086 -0.013699 -918542.000000 0 0 1
17.291499 -32.599209 22.200215 43.064532 -1.083104 1.029193 0.061810 -0.014208 -1174860.000000 0 0 1
17.266399 -31.291969 22.659715 42.317592 -1.066585 1.005735 0.068899 -0.010459 499411.000000 0 0 1
18.327399 -30.488779 22.103615 41.881129 -1.029554 1.014823 0.054505 -0.006920 403909.000000 0 0 1
-4.822901 13.076001 18.730362 23.346705 -1.217441 0.639708 0.027489 0.007404 -332042.000000 0 1 0
-4.623501 14.247101 17.926662 23.360690 -1.256997 0.696042 0.029371 -0.007915 589103.000000 0 1 0
-5.822101 14.973601 17.594962 23.826210 -1.199961 0.739997 0.012944 -0.003614 395026.000000 0 1 0
-5.557101 16.427101 17.275862 24.478285 -1.244593 0.787297 0.018554 -0.015117 -177796.000000 0 1 0
-5.062901 17.038801 18.463362 25.629074 -1.281966 0.766407 0.036292 -0.003558 276864.000000 0 0 1
-4.879501 18.456001 18.279362 26.430448 -1.312325 0.807091 0.038032 0.003968 -548703.000000 0 0 1
-4.125301 19.150301 19.405662 27.574115 -1.358622 0.790115 0.030857 0.003652 -200854.000000 0 0 1
-4.898301 19.270001 20.586062 28.620137 -1.321875 0.768022 0.019466 0.002240 575695.000000 0 0 1
-4.167701 20.084601 21.519662 29.729729 -1.366193 0.761440 0.016382 0.010625 405937.000000 0 0 1
-4.971501 20.244301 22.831162 30.916169 -1.329986 0.739974 0.018246 0.010968 140425.000000 0 0 1
-5.211001 19.093401 23.554862 30.765955 -1.304363 0.698800 0.017027 0.002047 -16402.100000 0 0 1
-5.969701 19.308301 24.753892 31.956267 -1.270941 0.684686 0.013053 -0.001790 95391.500000 0 0 1
-5.279501 20.020501 25.943802 33.192988 -1.312961 0.673562 0.009795 -0.002866 -1035040.000000 0 0 1
-5.065001 21.425001 25.655032 33.806295 -1.338652 0.709200 0.021299 -0.004724 358753.000000 0 0 1
-4.041201 22.053501 26.441252 34.667391 -1.389562 0.703299 0.016965 0.007057 1030380.000000 0 0 1
-2.597601 21.495801 26.230312 34.012443 -1.450537 0.690076 0.015044 0.004451 -546728.000000 0 0 1
-2.232501 20.316201 26.917882 33.797995 -1.461348 0.649421 0.024897 0.002482 -402505.000000 0 0 1
-0.912601 20.049701 26.507212 33.248393 -1.525311 0.648074 0.020154 0.004501 -173618.000000 0 0 1
-0.402901 18.707001 27.021532 32.867574 -1.549262 0.605648 0.022504 0.010350 -413382.000000 0 0 1
-0.856101 17.556401 26.318302 31.648272 -1.522072 0.588837 0.033403 0.009111 -170929.000000 0 0 1
-0.281301 16.330401 26.773272 31.361907 -1.553572 0.547771 0.031420 0.001429 1087300.000000 0 0 1
1.281999 16.166601 26.502622 31.070749 1.491663 0.549134 0.042717 -0.000535 789690.000000 0 0 1
1.574899 15.857401 25.164022 29.785323 1.471805 0.564518 0.040365 0.001693 -229516.000000 0 0 1
1.247399 14.521401 24.819832 28.782827 1.485106 0.530975 0.057901 -0.005636 -303250.000000 0 0 1
1.442999 14.352401 23.267262 27.375886 1.470592 0.554966 0.067417 -0.011240 -4878.020000 0 0 1
2.774599 14.471201 22.843062 27.183074 1.381363 0.572884 0.051232 -0.010115 -438528.000000 0 0 1
3.017999 13.684701 21.669962 25.806329 1.353733 0.574038 0.046084 -0.010970 -118464.000000 0 0 1
4.464399 13.682901 21.161162 25.591940 1.255411 0.597280 0.040901 -0.009461 -247844.000000 0 0 1
4.709499 14.809201 20.337962 25.595400 1.262898 0.652457 0.026547 -0.005659 692398.000000 0 0 1
6.114899 14.866501 20.036562 25.687909 1.180569 0.676131 0.021060 -0.005620 936313.000000 0 0 1
6.648999 15.930401 19.041162 25.701220 1.175399 0.736437 0.029389 -0.008138 165193.000000 0 0 1
6.265099 15.595801 17.688462 24.400044 1.188811 0.759855 0.029287 -0.020732 151185.000000 0 1 0
6.610599 16.689001 16.831762 24.607539 1.193652 0.817553 0.025677 -0.012407 -17722.400000 0 1 0
6.527699 16.344201 15.305762 23.324024 1.190817 0.854994 0.021477 -0.005733 162644.000000 0 1 0
7.475399 15.386001 14.844362 22.648746 1.118527 0.856062 0.020146 -0.009640 200174.000000 0 1 0
7.578699 14.075801 15.477462 22.251217 1.076887 0.801572 0.024185 -0.014601 314471.000000 0 1 0
8.709099 13.235401 14.778162 21.666064 0.988807 0.820182 0.023787 -0.016262 1211290.000000 0 1 0
10.056899 13.679401 14.966062 22.632946 0.936844 0.848311 0.027690 -0.014924 412243.000000 0 1 0
10.957199 13.050301 14.086362 22.108735 0.872364 0.880014 0.031008 -0.012696 -228219.000000 0 1 0
12.380599 13.588501 14.236862 23.251125 0.831878 0.911819 0.027823 -0.003394 -934507.000000 0 1 0
13.082299 13.103001 15.382062 24.071622 0.786189 0.877583 0.016471 -0.006662 -691025.000000 0 1 0
14.390399 13.557801 15.422662 25.075008 0.755616 0.908333 0.017078 -0.003536 -656049.000000 0 0 1
15.362299 12.702001 14.560762 24.685154 0.690888 0.939912 0.015044 -0.007975 -836973.000000 0 1 0
16.684099 13.188201 14.753062 25.883212 0.668900 0.964308 0.019418 -0.008752 -99255.200000 0 0 1
17.475199 12.792301 13.680062 25.615808 0.631898 1.007415 0.021873 -0.014747 -615201.000000 0 0 1
18.867799 13.433301 13.799262 26.960472 0.618714 1.033479 0.021784 -0.009140 -71316.300000 0 0 1
19.639599 12.952201 14.896762 27.845769 0.583021 1.006319 0.005303 -0.012798 771693.000000 0 0 1
20.991899 13.404301 14.771062 28.957199 0.568281 1.035495 0.008691 -0.013751 427224.000000 0 0 1
21.956699 13.144101 15.923862 30.140229 0.539417 1.014169 0.004704 -0.009301 -341425.000000 0 0 1
22.343899 11.795301 16.077762 29.947844 0.485716 1.004087 0.017063 -0.016628 117853.000000 0 0 1
23.316599 11.718201 17.080962 31.188769 0.465701 0.991227 0.012557 -0.010343 -432627.000000 0 0 1
23.667699 10.245201 17.471462 31.150860 0.408524 0.975365 0.021199 -0.003674 -281083.000000 0 0 1
22.623699 9.610301 18.174662 30.569723 0.401692 0.934114 -0.006056 -0.005351 286522.000000 0 0 1
22.652199 8.247601 17.899162 30.025407 0.349178 0.932119 0.001044 0.002080 -24433.200000 0 0 1
21.389399 7.592301 18.483862 29.271190 0.341083 0.887350 0.026093 -0.002858 -52772.300000 0 0 1
21.186299 6.325901 17.966662 28.489950 0.290158 0.888430 0.034426 -0.003307 155572.000000 0 0 1
19.959999 5.766101 18.404062 27.755341 0.281227 0.845868 0.032615 -0.004008 83305.000000 0 0 1
19.815899 4.277501 17.962462 27.085363 0.212600 0.845737 0.058853 -0.000714 -677887.000000 0 0 1
19.551699 4.236001 16.581762 25.983985 0.213359 0.878699 0.077344 -0.009649 273366.000000 0 0 1
19.556799 2.998101 15.908962 25.388030 0.152118 0.893572 0.070113 -0.018061 354277.000000 0 0 1
18.433299 2.024501 16.426662 24.773380 0.109390 0.845874 0.081110 -0.012365 263752.000000 0 1 0
18.674799 1.435901 17.659262 25.742173 0.076739 0.814812 0.064258 -0.013866 149704.000000 0 0 1
17.492399 0.731001 17.985862 25.099992 0.041765 0.771926 0.069617 -0.015048 -68605.400000 0 0 1
17.613099 0.163401 19.440262 26.233028 0.009277 0.736148 0.044769 -0.013835 -367005.000000 0 0 1
18.324999 -1.038699 19.558062 26.821675 -0.056622 0.753661 0.044729 -0.009426 -281953.000000 0 0 1
17.665299 -2.078099 20.244562 26.948536 -0.117099 0.720872 0.029699 -0.011575 -250280.000000 0 0 1
17.903599 -3.412199 19.527462 26.711491 -0.188329 0.750935 0.027476 -0.006981 -67621.600000 0 0 1
17.324099 -3.433499 18.266062 25.407919 -0.195657 0.768560 0.037130 -0.008053 92443.100000 0 0 1
17.261699 -4.746199 17.755762 25.214277 -0.268325 0.789508 0.048561 -0.006378 -101310.000000 0 0 1
16.668999 -4.676399 16.337862 23.804411 -0.273514 0.814355 0.046800 -0.011536 770098.000000 0 1 0
15.246699 -4.503399 16.152462 22.663726 -0.287203 0.777455 0.024755 -0.000357 1048430.000000 0 1 0
14.899599 -4.567699 14.736062 21.447924 -0.297469 0.813358 0.029929 -0.010630 54034.000000 0 1 0
15.394999 -3.562699 13.698962 20.913163 -0.227416 0.856561 0.037862 -0.008811 -186971.000000 0 1 0
14.901599 -2.233599 13.951062 20.534818 -0.148782 0.823871 0.046051 -0.004250 312931.000000 0 1 0
15.433999 -1.261399 13.064762 20.260490 -0.081547 0.869983 0.049165 -0.011854 -5031.280000 0 1 0
14.706399 0.129401 13.126462 19.712913 0.008799 0.842122 0.054916 -0.005613 -189984.000000 0 1 0
15.288899 1.224201 12.473462 19.769582 0.079901 0.888029 0.063123 -0.008131 -598434.000000 0 1 0
16.237199 1.813001 13.273362 21.050315 0.111197 0.888529 0.078746 -0.018478 -551662.000000 0 1 0
16.459899 3.269101 12.812962 21.113675 0.196059 0.918697 0.076781 -0.018078 -81395.600000 0 1 0
15.437199 4.160401 13.217862 20.744347 0.263250 0.879964 0.082630 -0.010648 261470.000000 0 1 0
15.441599 5.383401 12.580062 20.632061 0.335454 0.915072 0.069940 -0.012141 -190765.000000 0 1 0
14.332599 6.407201 12.871362 20.301418 0.420387 0.884065 0.061906 -0.013706 -269884.000000 0 1 0
14.234699 7.460601 11.955662 20.030603 0.482752 0.931202 0.026792 -0.024728 227640.000000 0 1 0
13.298199 8.496201 12.267762 19.988134 0.568531 0.909992 0.014614 -0.016253 -354726.000000 0 1 0
13.536399 9.415901 13.483262 21.300039 0.607766 0.885354 0.026335 -0.019187 -276603.000000 0 1 0
13.349299 8.700301 14.694062 21.675204 0.577599 0.825866 0.045950 -0.021184 441159.000000 0 1 0
13.789099 9.518401 15.775262 23.012998 0.604176 0.815515 0.053726 -0.025426 -239101.000000 0 1 0
13.371999 9.046801 17.207862 23.595878 0.594812 0.753536 0.060034 -0.028858 386759.000000 0 1 0
11.989499 9.210901 17.512362 23.135937 0.655077 0.712189 0.045705 -0.031605 444497.000000 0 1 0
11.410699 8.579801 18.698462 23.525508 0.644721 0.652091 0.055290 -0.025312 241553.000000 0 1 0
12.011899 8.850501 20.113862 25.043652 0.635007 0.638229 0.066699 -0.024132 -9576.440000 0 0 1
13.327799 8.362101 20.299362 25.683050 0.560336 0.659368 0.062419 -0.021500 98835.700000 0 0 1
13.860299 8.691601 21.589662 27.088103 0.560098 0.648457 0.057094 -0.016980 232904.000000 0 0 1
15.396899 8.529501 21.653262 27.904850 0.505890 0.682549 0.052992 -0.015327 -57201.900000 0 0 1
16.031499 9.438301 20.814862 27.916822 0.532095 0.729357 0.055418 -0.012047 -300432.000000 0 0 1
17.163199 8.880201 20.192062 27.949110 0.477469 0.763445 0.053417 -0.016742 41705.600000 0 0 1
18.036999 9.832701 19.345362 28.218050 0.499105 0.815414 0.052502 -0.013795 65492.800000 0 0 1
18.813999 10.790001 20.034362 29.525689 0.520713 0.825023 0.027000 -0.012163 195763.000000 0 0 1
19.648399 11.508901 19.137062 29.744605 0.529870 0.871892 0.018376 -0.005054 -130616.000000 0 0 1
20.514099 12.497401 19.922162 31.207464 0.547164 0.878407 0.004210 0.000531 -1183740.000000 0 0 1
19.855599 13.539101 20.523862 31.603496 0.598460 0.863978 0.006637 -0.002872 -256315.000000 0 0 1
20.557899 14.227101 21.566962 33.017745 0.605371 0.859003 -0.005704 0.004306 -40703.800000 0 0 1
21.810699 15.085001 21.206362 33.955465 0.605088 0.896261 -0.005445 0.002783 -434959.000000 0 0 1
22.819299 14.212001 20.883762 34.041635 0.557020 0.910340 -0.013086 0.004396 -978779.000000 0 0 1
24.088899 14.846101 20.978462 35.224674 0.552322 0.932832 0.009952 0.005709 958651.000000 0 0 1
25.297799 13.831901 20.914562 35.619082 0.500355 0.943234 0.011146 0.006236 526129.000000 0 0 1
25.534699 13.221801 19.670962 34.839397 0.477784 0.970826 0.007021 0.004179 302165.000000 0 0 1
26.686999 12.386901 19.636362 35.372559 0.434563 0.982277 0.018890 -0.000023 302928.000000 0 0 1
26.978299 11.667701 18.308462 34.628942 0.408193 1.013723 0.023482 -0.000814 -412680.000000 0 0 1
27.535399 12.542401 17.339162 34.873436 0.427419 1.050425 0.025768 -0.007674 73130.800000 0 0 1
27.863299 11.799001 16.183462 34.314491 0.400566 1.079667 0.030339 -0.014059 -7154.370000 0 0 1
26.726499 11.385101 15.206662 32.789767 0.402705 1.088559 0.023263 -0.027527 -69356.100000 0 0 1
26.256899 12.426001 14.369562 32.408557 0.442017 1.111421 0.030299 -0.031268 1049450.000000 0 0 1
24.961299 12.064301 13.813562 30.974640 0.450215 1.108546 0.032404 -0.030249 1211320.000000 0 0 1
24.413999 13.144101 12.833662 30.553455 0.493881 1.137307 0.022558 -0.026551 27366.500000 0 0 1
23.847399 14.370701 13.297662 30.855199 0.542337 1.125229 0.006514 -0.019899 432154.000000 0 0 1
23.480999 15.124501 12.130362 30.450838 0.572228 1.161069 -0.012113 -0.011952 -432037.000000 0 0 1
22.817999 16.472801 12.334462 30.727076 0.625287 1.157730 -0.007637 0.000917 -1076540.000000 0 0 1
21.533599 16.318101 12.849962 29.918186 0.648473 1.126854 0.007250 -0.009297 -373785.000000 0 0 1
20.801599 17.507101 13.076862 30.169677 0.699611 1.122486 0.004061 -0.000777 -679663.000000 0 0 1
20.277499 18.228201 11.786562 29.704668 0.732228 1.162778 0.012654 0.001794 -603920.000000 0 0 1
19.064199 17.746501 11.278462 28.382841 0.749617 1.162148 0.026420 -0.003434 95255.000000 0 0 1
17.887799 17.929401 12.069662 28.055543 0.786560 1.126075 0.024895 0.001218 -445286.000000 0 0 1
16.706399 17.390201 11.242362 26.606645 0.805450 1.134551 0.038737 -0.000834 -451482.000000 0 0 1
16.588899 15.954601 11.432562 25.699111 0.765910 1.109776 0.032958 0.001430 129594.000000 0 0 1
15.452799 15.482601 10.756062 24.376070 0.786362 1.113800 0.033856 -0.002709 -132933.000000 0 1 0
15.648999 14.111301 10.103662 23.368867 0.733775 1.123693 0.036178 -0.011178 -377012.000000 0 1 0
15.817699 12.999801 10.902162 23.195938 0.687924 1.081502 0.035671 -0.009763 358204.000000 0 1 0
16.014099 11.849001 10.178762 22.370905 0.637013 1.098424 0.020704 -0.008661 -336160.000000 0 1 0
16.458499 10.620701 10.972262 22.451548 0.573065 1.060188 0.023862 -0.010428 -900354.000000 0 1 0
16.935899 9.596601 10.167462 21.961255 0.515531 1.089450 0.013685 -0.014344 265272.000000 0 1 0
17.413799 8.472401 10.878062 22.211578 0.452817 1.058996 0.010557 -0.010776 54703.900000 0 1 0
18.697299 8.600901 11.725962 23.686762 0.431145 1.052912 0.021831 -0.016442 -603139.000000 0 1 0
18.548899 9.342701 12.899962 24.449064 0.466587 1.014993 0.027901 -0.019748 452575.000000 0 1 0
19.707099 9.299001 13.739062 25.760493 0.440884 1.008254 0.035011 -0.024191 -393665.000000 0 0 1
19.320899 9.386601 15.255962 26.346723 0.452244 0.953238 0.027401 -0.007008 -116078.000000 0 0 1
18.669599 8.262201 15.764162 25.793927 0.416640 0.913274 0.035549 -0.017605 -135977.000000 0 0 1
17.319799 8.180701 15.394262 24.574023 0.441269 0.893813 0.046735 -0.020109 -905939.000000 0 1 0
16.564399 6.953501 15.993662 24.052603 0.397446 0.843376 0.050354 -0.017301 -714933.000000 0 1 0
16.358499 7.091401 17.356762 24.882637 0.409048 0.798831 0.081210 -0.012290 160030.000000 0 1 0
15.727099 5.925901 17.925862 24.572230 0.360344 0.753181 0.093784 0.005680 548752.000000 0 1 0
14.213199 5.751001 17.606862 23.347176 0.384486 0.716464 0.076509 -0.013691 -106022.000000 0 1 0
13.675899 4.447801 17.921362 22.977997 0.314439 0.676233 0.080747 -0.010187 269719.000000 0 1 0
13.358699 3.825001 16.665862 21.698766 0.278869 0.694997 0.078904 -0.013764 151642.000000 0 1 0
12.989199 2.309301 16.800762 21.361596 0.175948 0.665685 0.062818 -0.012241 619232.000000 0 1 0
14.187399 1.571601 17.069362 22.251187 0.110325 0.696455 0.064050 -0.008271 546870.000000 0 1 0
14.152999 0.192901 16.782562 21.954475 0.013629 0.700646 0.061853 -0.006478 -292977.000000 0 1 0
13.384299 -0.709599 17.797362 22.279791 -0.052968 0.645479 0.062877 -0.008737 1110320.000000 0 1 0
11.960799 -0.506299 17.749662 21.409520 -0.042305 0.593381 0.054549 -0.002661 406052.000000 0 1 0
11.313299 -1.347599 18.637062 21.843691 -0.118558 0.548704 0.046593 -0.009783 -301780.000000 0 1 0
-25.322101 14.273401 28.498052 40.707220 -0.513281 0.795296 -0.015195 0.004779 -379272.000000 0 0 1
-24.715001 14.213501 29.753442 41.208278 -0.521907 0.764070 -0.010600 0.006495 381987.000000 0 0 1
-23.885201 13.055601 29.904732 40.438157 -0.500227 0.738443 -0.002145 0.001066 66345.000000 0 0 1
-22.703801 13.165301 30.876862 40.523676 -0.525488 0.704483 -0.001972 -0.000937 -81005.900000 0 0 1
-23.168101 13.401001 32.218762 41.885515 -0.524404 0.693192 -0.006841 -0.008499 -218920.000000 0 0 1
-22.107301 13.388801 33.121794 42.012450 -0.544547 0.662624 -0.010351 0.000028 -607598.000000 0 0 1
-22.473001 13.507201 -34.158275 43.061212 -0.541185 2.486923 -0.001166 0.005454 -133246.000000 0 0 1
-23.105101 12.392001 -33.585755 42.607632 -0.492289 2.478767 -0.011290 0.006567 -305965.000000 0 0 1
-23.881001 12.736401 -32.523255 42.311703 -0.489953 2.447538 -0.012094 0.010353 -473140.000000 0 0 1
-24.635201 11.593301 -31.812085 41.872503 -0.439851 2.433705 -0.016457 -0.000536 91846.800000 0 0 1
-23.795601 10.708801 -31.062605 40.568393 -0.422881 2.442902 -0.001789 -0.004965 395565.000000 0 0 1
-23.501501 9.509101 -31.713595 40.601671 -0.384480 2.467207 0.007041 -0.009277 -67986.400000 0 0 1
-22.700901 8.483701 -30.867475 39.244173 -0.357645 2.475997 0.016569 -0.002127 -335765.000000 0 0 1
-23.417101 7.760301 -29.900735 38.763860 -0.320005 2.451765 0.016774 -0.000352 -244211.000000 0 0 1
-22.598701 6.997901 -29.089675 37.495081 -0.300295 2.458820 0.017960 0.004046 -317630.000000 0 0 1
-23.368401 6.126601 -28.039685 37.011368 -0.256404 2.430419 0.024031 -0.000605 242166.000000 0 0 1
-24.255201 5.145201 -28.549735 37.813691 -0.209029 2.426467 0.028227 -0.008646 148394.000000 0 0 1
-24.787601 4.399801 -27.530015 37.305296 -0.175670 2.400847 0.034442 -0.006323 -476326.000000 0 0 1
-25.408351 3.023101 -28.083275 37.992023 -0.118424 2.402661 0.026117 -0.002398 1735310.000000 0 0 1
-26.787501 2.992001 -28.544825 39.259767 -0.111233 2.384849 0.006029 0.002083 1378550.000000 0 0 1
-27.096441 3.917801 -29.591065 40.313737 -0.143592 2.395018 0.006500 0.007597 -503780.000000 0 0 1
-28.519681 3.764701 -30.199075 41.707665 -0.131245 2.380475 0.002438 -0.002168 279237.000000 0 0 1
-29.479661 4.325301 -29.294265 41.784119 -0.145682 2.347716 0.006964 0.002519 240799.000000 0 0 1
-30.750221 4.622501 -29.842725 43.099093 -0.149207 2.335636 0.008039 -0.002177 219205.000000 0 0 1
-30.901211 5.861001 -30.702455 43.953122 -0.187442 2.344134 0.006892 -0.016070 -1326000.000000 0 0 1
-29.993851 6.002101 -31.788185 44.115134 -0.197502 2.375425 0.010357 -0.008260 205141.000000 0 0 1
-30.131281 7.224801 -32.561305 44.948086 -0.235335 2.380989 0.015298 -0.006466 -583416.000000 0 0 1
-29.570081 8.448201 -31.778275 44.222399 -0.278287 2.372585 0.004130 -0.012563 -148651.000000 0 0 1
-28.178471 8.472801 -31.504255 43.108383 -0.292084 2.390312 0.004415 -0.021736 409339.000000 0 0 1
-27.737861 7.641501 -30.442735 41.887248 -0.268822 2.384416 0.002406 -0.016019 -869875.000000 0 0 1
-27.679391 8.316101 -29.058575 40.984229 -0.291864 2.358902 -0.002461 -0.010675 353745.000000 0 0 1
-28.979681 8.619001 -28.545105 41.580429 -0.289084 2.327466 0.005240 -0.018009 574770.000000 0 0 1
-29.410131 7.629601 -27.677185 41.099795 -0.253825 2.309614 -0.000557 -0.010944 -834509.000000 0 0 1
-30.699231 8.090901 -27.009815 41.682557 -0.257694 2.275737 -0.014094 -0.008771 -473980.000000 0 0 1
-30.525841 9.049901 -25.937285 41.066658 -0.288212 2.254398 -0.018296 -0.010261 46496.100000 0 0 1
-30.603291 8.369801 -24.636485 40.169284 -0.266965 2.231049 -0.016723 -0.007210 -46732.400000 0 0 1
-30.132061 9.216701 -23.417185 39.258798 -0.296840 2.209908 -0.009094 -0.004558 -326548.000000 0 0 1
-30.963031 10.319801 -23.156585 40.017934 -0.321715 2.187875 -0.005254 0.002227 -83163.200000 0 0 1
-30.287481 11.265601 -22.406285 39.322854 -0.356099 2.177063 0.000261 0.004920 -338514.000000 0 0 1
-31.163111 12.182901 -21.514085 39.779623 -0.372672 2.142222 -0.002655 0.005094 -17063.400000 0 0 1
-31.619291 11.505001 -20.286285 39.289667 -0.348969 2.113352 -0.005053 0.003918 368163.000000 0 0 1
-32.332411 12.345001 -19.410685 39.680707 -0.364732 2.081936 -0.004650 0.002940 -505296.000000 0 0 1
-31.452541 13.263101 -18.542085 38.845606 -0.399060 2.068407 0.005271 -0.003053 -45167.000000 0 0 1
-30.711561 12.751901 -17.413785 37.537326 -0.393554 2.053195 0.023055 -0.005018 613245.000000 0 0 1
-31.434041 12.243401 -16.268685 37.452235 -0.371418 2.020152 0.010504 -0.000227 -81845.800000 0 0 1
-32.007221 13.311601 -15.279885 37.883186 -0.394132 1.985963 0.007009 0.006003 68671.900000 0 0 1
-32.811301 14.279501 -15.941985 39.174386 -0.410479 1.989908 0.002173 0.005109 987415.000000 0 0 1
-33.771011 14.839201 -15.002385 39.821535 -0.414010 1.957071 -0.001955 0.009948 793695.000000 0 0 1
-34.634441 16.051701 -15.471085 41.189271 -0.433991 1.955851 -0.001955 0.012656 421757.000000 0 0 1
-35.480803 15.778701 -16.583885 42.224164 -0.418447 1.974425 -0.004892 0.007985 505375.000000 0 0 1
34.962764 16.899201 -17.014285 42.396507 0.450238 1.983747 -0.007714 0.001880 -450204.000000 0 0 1
34.651714 16.767101 -18.516485 42.716943 0.450665 2.019135 -0.020778 0.002365 204275.000000 0 0 1
33.665694 15.825301 -18.929285 41.738914 0.439420 2.041503 0.003820 0.000564 -772641.000000 0 0 1
32.398224 16.335501 -18.937785 40.928392 0.467010 2.051841 0.034520 -0.008291 -2054120.000000 0 0 1
31.369164 15.275401 -19.241085 39.844469 0.453158 2.074765 0.044867 -0.012467 -716431.000000 0 0 1
31.214574 14.844001 -20.578985 40.226715 0.443895 2.107813 0.039118 -0.014002 681320.000000 0 0 1
30.315914 13.722301 -20.708985 39.194620 0.425050 2.127468 0.020756 -0.009344 560604.000000 0 0 1
31.002594 12.363201 -20.328785 39.080290 0.379454 2.117858 0.015573 0.009396 104465.000000 0 0 1
31.025074 12.142701 -18.939185 38.323533 0.373056 2.087702 0.025552 0.007009 -107549.000000 0 0 1
31.833774 11.072001 -18.580085 38.486335 0.334720 2.074612 0.013030 0.010301 -500579.000000 0 0 1
31.897804 10.896001 -17.050485 37.774486 0.329164 2.039103 0.006814 0.015032 -147514.000000 0 0 1
30.685024 10.383501 -16.514085 36.360732 0.326294 2.042241 0.018606 0.010369 362914.000000 0 0 1
30.752814 10.141401 -15.128085 35.741328 0.318541 2.007843 0.015720 0.007817 -163286.000000 0 0 1
30.313224 11.384201 -14.240485 35.373479 0.359255 1.985125 0.038465 0.001161 -925537.000000 0 0 1
28.932164 11.414301 -14.197685 34.189628 0.375773 1.999028 0.041868 0.007478 -817792.000000 0 0 1
28.369064 12.467601 -13.435885 33.775256 0.414070 1.979917 0.048470 0.006077 -220381.000000 0 0 1
26.839684 12.329101 -13.473685 32.464066 0.430611 1.998776 0.063043 0.010641 -574582.000000 0 0 1
26.371664 11.221501 -12.751185 31.368447 0.402306 1.989413 0.056602 -0.000361 362385.000000 0 0 1
25.037424 10.863101 -13.097185 30.272361 0.409363 2.018221 0.056464 0.012386 -331986.000000 0 0 1
24.972024 9.919401 -14.385085 30.478307 0.378108 2.062329 0.047876 0.004644 -700251.000000 0 0 1
25.434224 8.629901 -14.043285 30.308230 0.327113 2.052567 0.039072 0.002642 467572.000000 0 0 1
26.805724 8.522601 -14.357085 31.580175 0.307833 2.042746 0.036626 -0.002381 -284076.000000 0 0 1
27.660034 7.351301 -13.757285 31.755031 0.259768 2.018872 0.046955 -0.005858 -374702.000000 0 0 1
27.247824 6.002301 -13.873585 31.160037 0.216823 2.032235 0.027774 -0.012352 -177843.000000 0 0 1
26.295814 5.670001 -12.915185 29.839919 0.212372 2.018410 0.039457 -0.013326 -523439.000000 0 0 1
25.803524 4.231401 -12.974985 29.190356 0.162539 2.031407 0.053064 -0.017249 -114161.000000 0 0 1
25.049024 3.834501 -11.828385 27.965474 0.151901 2.007510 0.060618 -0.020248 582603.000000 0 0 1
24.471024 2.532401 -12.028785 27.384955 0.103119 2.025558 0.055187 -0.021900 4955.010000 0 0 1
23.543824 2.158301 -10.874985 26.023744 0.091416 2.001915 0.055238 -0.015745 -303877.000000 0 0 1
24.321324 1.781901 -9.769285 26.270533 0.073134 1.951822 0.057785 -0.011883 622334.000000 0 0 1
23.578824 1.748701 -8.549585 25.141884 0.074029 1.917770 0.061799 -0.002257 -722606.000000 0 0 1
24.390224 1.434301 -7.295985 25.498464 0.058739 1.860986 0.071536 -0.000581 -311469.000000 0 0 1
24.599124 0.092001 -6.875585 25.542104 0.003740 1.843344 0.057999 -0.009649 629879.000000 0 0 1
25.295024 -0.744499 -7.803485 26.481822 -0.029424 1.869910 0.054770 -0.009144 -510390.000000 0 0 1
25.387424 -2.198599 -7.228385 26.487822 -0.086386 1.847197 0.062399 -0.022007 -99093.200000 0 0 1
26.356074 -2.292899 -6.172785 27.166216 -0.086779 1.800021 0.073748 -0.028835 706948.000000 0 0 1
26.438354 -3.670199 -5.746485 27.303462 -0.137939 1.782849 0.080568 -0.033560 -674089.000000 0 0 1
27.703344 -4.037499 -4.968185 28.433423 -0.144722 1.746428 0.069697 -0.032564 -250050.000000 0 0 1
28.814344 -4.087899 -5.851685 29.685343 -0.140930 1.769220 0.061029 -0.021078 588533.000000 0 0 1
30.027854 -4.452699 -5.198585 30.798114 -0.147213 1.740404 0.062674 -0.031699 48609.700000 0 0 1
31.144734 -4.717099 -6.234385 32.110949 -0.150315 1.766189 0.043856 -0.027091 -390033.000000 0 0 1
31.077724 -5.969999 -6.969485 32.404314 -0.189787 1.787569 0.024451 -0.026137 233680.000000 0 0 1
31.743174 -5.770399 -8.193185 33.287459 -0.179820 1.819486 0.025744 -0.029892 -893186.000000 0 0 1
31.322264 -6.905699 -9.232185 33.376731 -0.217001 1.851056 0.020369 -0.023754 1434840.000000 0 0 1
29.979134 -6.635799 -9.727385 32.208762 -0.217835 1.877597 0.026071 -0.013973 1440910.000000 0 0 1
28.933694 -7.060599 -8.855585 31.071404 -0.239349 1.859811 0.031787 -0.004661 -387999.000000 0 0 1
27.738544 -6.070599 -8.965485 29.776819 -0.215454 1.876631 0.031694 -0.005853 -387141.000000 0 0 1
27.147274 -6.076799 -10.240385 29.644013 -0.220215 1.923510 0.024295 -0.001510 824865.000000 0 0 1
25.899524 -5.385699 -10.300185 28.388113 -0.205024 1.942104 0.041822 -0.002975 1346300.000000 0 0 1
24.541324 -6.086099 -9.964785 27.177457 -0.243090 1.946209 0.055666 0.001735 3113.260000 0 0 1
24.491124 -6.372399 -8.565685 26.716916 -0.254548 1.897169 0.048381 -0.006334 876763.000000 0 0 1
23.286924 -7.114299 -8.327785 25.734143 -0.296501 1.900337 0.044197 -0.001936 278052.000000 0 0 1
22.151024 -6.285299 -7.714285 24.283391 -0.276480 1.894075 0.046021 0.000735 -451798.000000 0 1 0
21.709424 -5.278099 -8.595885 23.938393 -0.238497 1.938082 0.044779 0.000179 354709.000000 0 1 0
21.761124 -3.967999 -8.026885 23.531308 -0.180362 1.918899 0.056129 -0.001367 -217610.000000 0 1 0
21.650424 -2.913199 -9.155985 23.686698 -0.133753 1.967679 0.058082 0.007677 -1009020.000000 0 1 0
22.704824 -2.859099 -10.027685 24.984755 -0.125265 1.983789 0.037670 0.004367 -395214.000000 0 1 0
22.468724 -2.121099 -11.203885 25.196620 -0.094123 2.031589 0.037666 0.003653 54131.000000 0 0 1
23.757624 -1.897899 -12.048985 26.705894 -0.079717 2.038876 0.037804 0.001498 345860.000000 0 0 1
24.718924 -1.027299 -11.474685 27.271761 -0.041535 2.005072 0.041720 -0.007118 530890.000000 0 0 1
25.985624 -1.253199 -12.059185 28.674852 -0.048189 2.004847 0.042571 -0.008096 74763.500000 0 0 1
27.103574 -0.336699 -11.500685 29.444573 -0.012422 1.972066 0.033402 -0.005204 -260268.000000 0 0 1
28.399434 -0.697499 -11.938285 30.814559 -0.024555 1.968632 0.034921 -0.008655 914746.000000 0 0 1
29.451554 0.266701 -11.706785 31.694069 0.009055 1.949126 0.037099 -0.010767 650583.000000 0 0 1
29.348974 1.582501 -12.556585 31.961452 0.053868 1.974543 0.033686 -0.014102 -721739.000000 0 0 1
29.610044 1.242101 -13.894785 32.731676 0.041924 2.009212 0.034616 -0.016893 388443.000000 0 0 1
29.604494 2.404401 -14.670185 33.127354 0.081040 2.029562 0.021353 -0.016012 -277102.000000 0 0 1
29.861354 2.170701 -16.179685 34.032259 0.072565 2.066240 0.010973 -0.012953 233702.000000 0 0 1
28.809564 1.494801 -16.910185 33.439195 0.051839 2.100989 0.023915 -0.017482 386027.000000 0 0 1
28.914294 1.603001 -18.359985 34.288410 0.055383 2.135846 0.006591 -0.010683 -1197710.000000 0 0 1
27.975904 0.913601 -19.253185 33.973093 0.032645 2.173314 0.017582 -0.006385 -1079690.000000 0 0 1
27.898074 -0.519299 -19.193285 33.866715 -0.018612 2.173328 0.015174 0.000352 -23155.300000 0 0 1
27.511754 -1.106199 -20.401285 34.268539 -0.040187 2.208480 0.007865 -0.002186 -38466.800000 0 0 1
27.193344 -2.644899 -20.309185 34.043156 -0.096958 2.210019 0.012132 -0.004018 528617.000000 0 0 1
25.977424 -2.951299 -19.613085 32.683480 -0.113125 2.214412 0.025858 -0.004925 505564.000000 0 0 1
25.654524 -4.292499 -19.585185 32.560093 -0.165784 2.216185 0.028496 -0.009667 82347.400000 0 0 1
26.478734 -5.199199 -18.579885 32.762283 -0.193887 2.173792 0.019248 -0.002120 978314.000000 0 0 1
27.893174 -5.143399 -18.815785 34.037002 -0.182348 2.156522 0.002233 -0.002245 299639.000000 0 0 1
28.594424 -5.392699 -17.640885 34.028270 -0.186403 2.115797 0.007388 -0.005689 236985.000000 0 0 1
30.121004 -5.230899 -17.934485 35.444082 -0.171948 2.101330 0.007315 -0.004354 353589.000000 0 0 1
30.611074 -6.288199 -18.734285 36.435597 -0.202604 2.110842 -0.007263 -0.002327 518980.000000 0 0 1
31.859104 -5.999699 -19.377185 37.768694 -0.186140 2.109529 0.009254 -0.004936 37379.600000 0 0 1
32.494324 -7.176599 -20.019385 38.835042 -0.217368 2.112385 0.008143 0.003559 -490391.000000 0 0 1
33.054484 -7.947899 -18.967485 38.929854 -0.235969 2.079702 0.016706 -0.002059 128193.000000 0 0 1
33.509074 -9.232299 -19.420085 39.814986 -0.268846 2.080316 0.018421 0.002416 131658.000000 0 0 1
34.311764 -10.072599 -18.393485 40.212868 -0.285539 2.045869 0.031136 -0.004783 -82010.800000 0 0 1
33.443224 -10.665699 -17.418585 39.186905 -0.308723 2.031413 0.019337 -0.001657 561566.000000 0 0 1
34.073404 -11.470199 -16.430585 39.528806 -0.324716 1.999466 0.018864 -0.000677 -537554.000000 0 0 1
35.055344 -10.780099 -15.420785 39.785529 -0.298338 1.968821 0.045410 -0.007241 -19480.100000 0 0 1
35.500432 -11.716399 -14.430485 40.072355 -0.318779 1.939183 0.043386 -0.006184 578710.000000 0 0 1
-35.018022 -12.950399 -14.728985 40.136240 0.354222 1.946551 0.041895 -0.004609 -174248.000000 0 0 1
-33.594271 -12.857199 -15.330685 39.101311 0.365522 1.973684 0.067574 -0.008081 -216420.000000 0 0 1
-33.398771 -12.367999 -16.621685 39.302999 0.354655 2.007452 0.068656 -0.007627 307836.000000 0 0 1
-32.013051 -12.443799 -16.958285 38.304921 0.370736 2.029424 0.082241 -0.009903 310806.000000 0 0 1
-31.619161 -11.572999 -18.168985 38.259870 0.350868 2.065628 0.092488 -0.012202 55557.000000 0 0 1
-31.796871 -10.204699 -17.948085 37.911880 0.310550 2.063961 0.087095 -0.013591 305510.000000 0 0 1
-32.958981 -9.713199 -18.594985 39.069350 0.286593 2.066838 0.082162 -0.016850 117447.000000 0 0 1
-33.407441 -8.256699 -18.301685 38.976684 0.242296 2.059583 0.077370 -0.014852 -411488.000000 0 0 1
-34.458174 -7.709499 -19.023485 40.108542 0.220110 2.064965 0.065995 -0.013708 -378545.000000 0 0 1
-34.843206 -6.427099 -18.460585 39.951844 0.182407 2.051125 0.049183 -0.013618 -186903.000000 0 0 1
23.925999 27.545601 -27.126985 45.465227 0.855605 2.210121 0.014848 0.016267 -122942.000000 0 0 1
24.432299 26.695801 -26.157035 44.651915 0.829640 2.196662 0.014237 0.002257 -634748.000000 0 0 1
25.650199 26.178801 -26.583285 45.276190 0.795597 2.198313 0.006930 0.002552 -619263.000000 0 0 1
26.403599 25.353701 -25.522605 44.624697 0.765116 2.179664 0.012757 -0.006352 -352869.000000 0 0 1
26.743499 26.122401 -24.359585 44.620443 0.773650 2.148294 0.017141 0.002310 254313.000000 0 0 1
27.417799 25.265801 -23.451685 44.046316 0.744573 2.132268 0.020813 -0.000762 -44825.400000 0 0 1
28.029399 26.040801 -22.276985 44.272278 0.748637 2.098073 0.014760 -0.002437 -11324.800000 0 0 1
27.036599 26.686901 -21.480385 43.641440 0.778889 2.085413 0.033108 -0.010179 -46469.100000 0 0 1
27.428799 27.772401 -20.706785 44.186154 0.791623 2.058531 0.013538 -0.011081 22100.100000 0 0 1
26.259299 28.435901 -19.902385 43.523053 0.825172 2.045735 0.021384 0.002330 287280.000000 0 0 1
25.736799 27.823801 -18.748485 42.285369 0.824344 2.030162 0.035689 -0.007261 387709.000000 0 0 1
24.899599 28.799701 -18.068285 42.141141 0.857899 2.013912 0.034144 -0.010201 903630.000000 0 0 1
23.762099 28.170201 -17.183985 40.663090 0.870077 2.007102 0.027853 -0.013274 490536.000000 0 0 1
22.778599 27.414301 -17.842285 39.859197 0.877495 2.034913 0.042985 -0.005997 689741.000000 0 0 1
21.522499 27.381001 -17.131585 38.812735 0.904627 2.027944 0.025298 -0.003812 769994.000000 0 0 1
20.659299 26.285301 -17.776785 37.864730 0.904673 2.059500 0.025701 -0.007615 -289977.000000 0 0 1
20.242999 26.560601 -19.103085 38.473009 0.919568 2.090395 0.027059 -0.005422 -212942.000000 0 0 1
19.291899 25.612701 -19.527585 37.543500 0.925240 2.117802 0.026559 -0.003038 78789.500000 0 0 1
18.582299 26.011101 -20.819885 38.149008 0.950472 2.148082 0.014118 0.004832 583962.000000 0 0 1
17.642599 27.085001 -20.632985 38.348124 0.993452 2.138911 0.004372 0.011305 439876.000000 0 0 1
16.633899 27.172901 -21.660085 38.525478 1.021491 2.167873 0.006272 -0.001329 382109.000000 0 0 1
15.549899 28.205701 -21.234085 38.577808 1.066953 2.153666 0.018150 0.004909 -279279.000000 0 0 1
14.948199 27.771201 -20.039585 37.366739 1.077009 2.136837 0.018365 0.005171 -570100.000000 0 0 1
14.144799 28.769701 -19.500585 37.523910 1.113846 2.117278 0.006117 0.001214 -180869.000000 0 0 1
13.772699 28.472301 -18.009285 36.396339 1.120255 2.088413 0.005105 -0.000100 -429720.000000 0 0 1
12.644899 27.679401 -17.848185 35.278895 1.142274 2.101241 -0.001610 0.008889 -458965.000000 0 0 1
12.191799 27.651801 -16.466785 34.415361 1.155532 2.069710 0.014046 0.005233 327703.000000 0 0 1
11.320299 26.393601 -16.182885 32.964482 1.165624 2.083940 0.030346 -0.002835 319888.000000 0 0 1
12.156999 25.214601 -16.119285 32.301704 1.121538 2.093267 0.012114 -0.003329 264580.000000 0 0 1
11.400899 24.009601 -16.058085 31.053237 1.127472 2.114273 0.035780 -0.004589 -34142.700000 0 0 1
12.280299 22.772501 -16.249385 30.552169 1.076236 2.131588 0.011539 -0.004696 23253.500000 0 0 1
12.926799 22.662501 -17.512385 31.422519 1.052422 2.161950 0.017981 0.000664 -659584.000000 0 0 1
13.677299 21.477101 -17.679285 30.998250 1.003734 2.177706 0.013711 0.002652 -596100.000000 0 0 1
13.028499 20.124101 -18.009085 29.984135 0.996246 2.215073 0.023735 -0.001367 -227736.000000 0 0 1
12.198799 19.724801 -16.916185 28.706023 1.016921 2.200977 0.019288 -0.001954 63176.200000 0 0 1
11.529499 18.491801 -17.057485 27.673703 1.013282 2.234932 0.024046 -0.006666 -159387.000000 0 0 1
12.453299 17.283801 -17.103985 27.319603 0.946432 2.247299 0.003153 -0.005308 -105910.000000 0 0 1
13.274299 17.068101 -15.952185 26.870044 0.909786 2.206420 0.017267 -0.008571 429303.000000 0 0 1
14.331699 16.172701 -16.292785 27.063050 0.845677 2.216838 0.013041 -0.007148 -685955.000000 0 0 1
14.769499 15.278201 -15.080985 26.057583 0.802326 2.187999 0.026796 0.005440 -624060.000000 0 0 1
15.678299 15.880101 -14.198385 26.449590 0.791793 2.137447 0.016231 0.014785 2125660.000000 0 0 1
17.031099 16.240401 -14.681285 27.737143 0.761638 2.128572 0.010161 0.013379 1065800.000000 0 0 1
17.983899 15.087101 -15.009085 27.862410 0.698028 2.139673 0.007112 0.005351 -824760.000000 0 0 1
18.387699 14.161201 -13.992685 27.100596 0.656270 2.113349 0.015387 0.006304 657597.000000 0 0 1
19.282299 14.773901 -13.054385 27.577023 0.653782 2.063919 0.009556 0.006536 -746878.000000 0 0 1
19.810799 13.752101 -12.091085 26.977442 0.606804 2.035539 0.018389 -0.000607 -667734.000000 0 0 1
18.886699 13.051201 -11.274885 25.576635 0.604678 2.027317 0.032770 -0.006765 56099.200000 0 0 1
19.478399 12.100201 -10.434785 25.193405 0.555870 1.997846 0.041777 -0.006961 -62715.900000 0 0 1
20.095399 10.793601 -11.073885 25.356613 0.492899 2.022752 0.048001 -0.015640 -440107.000000 0 0 1
21.273199 10.978001 -11.821385 26.698514 0.476404 2.029485 0.051558 -0.008381 228387.000000 0 0 1
21.532499 9.974601 -12.796885 26.961110 0.433805 2.065354 0.040910 -0.007757 -321638.000000 0 0 1
22.163499 8.649901 -12.228785 26.750414 0.372096 2.045577 0.048915 0.000180 -266013.000000 0 0 1
21.282999 8.012101 -11.298585 25.393264 0.360046 2.031908 0.047764 -0.015574 691345.000000 0 0 1
21.836299 6.855301 -10.715885 25.271512 0.304197 2.008687 0.047508 -0.007993 -654291.000000 0 0 1
21.856499 5.589401 -11.678185 25.403306 0.250366 2.048466 0.051510 -0.009395 -567824.000000 0 0 1
20.672099 4.891301 -11.830785 24.315180 0.232341 2.078944 0.031332 -0.015821 -53396.300000 0 1 0
19.654899 5.485301 -12.641385 24.004337 0.272156 2.125427 -0.006766 -0.021531 503639.000000 0 1 0
18.626099 4.384401 -13.080385 23.178676 0.231182 2.170416 -0.009301 -0.029236 475610.000000 0 1 0
19.333899 3.506201 -14.002985 24.128338 0.179400 2.189960 0.006914 -0.020937 555734.000000 0 1 0
18.800599 2.210201 -14.165285 23.643240 0.117023 2.213206 0.016651 -0.013622 -854332.000000 0 1 0
19.728499 1.218701 -14.817985 24.703676 0.061695 2.214084 0.035800 -0.012337 -366785.000000 0 1 0
20.767699 0.702601 -14.001185 25.056420 0.033819 2.163718 0.046713 -0.008466 25689.000000 0 0 1
21.889499 0.337501 -14.769385 26.408310 0.015417 2.164302 0.040626 -0.015658 -162408.000000 0 0 1
22.109099 -1.095199 -15.308185 26.913793 -0.049496 2.175825 0.037943 -0.008618 -595224.000000 0 0 1
21.385899 -1.376899 -16.505985 27.049955 -0.064295 2.227114 0.030902 -0.005391 5639.860000 0 0 1
21.805799 -2.475699 -17.234485 27.904291 -0.113050 2.236520 0.025865 -0.013346 -675775.000000 0 0 1
20.732499 -3.010699 -18.174585 27.734750 -0.144208 2.285376 0.019621 -0.010661 -203917.000000 0 0 1
19.860099 -3.923099 -17.487285 26.751063 -0.195026 2.283265 0.023996 -0.003369 140711.000000 0 0 1
19.030899 -4.519799 -18.464485 26.898716 -0.233178 2.327385 0.021229 0.000068 -41894.100000 0 0 1
18.082599 -5.597399 -17.833885 26.006898 -0.300192 2.326412 0.025841 0.002665 532380.000000 0 0 1
18.888699 -6.568399 -17.104985 26.315534 -0.334662 2.278375 0.024243 0.006424 1056990.000000 0 0 1
18.097699 -7.626499 -16.593985 25.710903 -0.398824 2.272352 0.029593 0.009078 -221665.000000 0 0 1
18.934099 -8.560099 -15.744385 26.070310 -0.424599 2.219207 0.024058 0.005781 -64361.500000 0 0 1
19.800799 -9.430499 -16.441385 27.410310 -0.444483 2.214079 0.032297 0.002328 337808.000000 0 0 1
20.409899 -10.392199 -15.621985 27.723784 -0.470960 2.169397 0.031878 0.004106 -366090.000000 0 0 1
21.055699 -11.419599 -16.580185 29.131637 -0.496952 2.176264 0.021259 0.004480 -111249.000000 0 0 1
22.122199 -10.849999 -17.327085 30.122119 -0.455985 2.183679 0.019088 0.004214 296414.000000 0 0 1
22.745999 -11.714799 -18.276985 31.443047 -0.475597 2.191088 0.021671 0.009718 -77996.900000 0 0 1
22.008699 -11.938999 -19.659785 31.834410 -0.497042 2.236438 0.023842 0.020656 186542.000000 0 0 1
20.702299 -12.453499 -19.555085 31.081766 -0.541560 2.251255 0.029962 0.010885 -22775.600000 0 0 1
20.649099 -13.888799 -19.651485 31.709067 -0.592106 2.239212 0.021723 0.015454 -239908.000000 0 0 1
19.192499 -14.411799 -19.678385 31.036927 -0.644082 2.257552 0.026150 0.008122 325098.000000 0 0 1
18.505899 -13.919399 -20.845085 31.156629 -0.644882 2.303715 0.021535 0.019782 -1703.740000 0 0 1
17.108199 -14.118699 -20.662985 30.314800 -0.689954 2.320762 0.035422 0.015293 353398.000000 0 0 1
16.363799 -13.444699 -21.858785 30.435840 -0.687781 2.371997 0.026954 0.009982 -236888.000000 0 0 1
16.528999 -14.091999 -23.139085 31.736564 -0.705980 2.387800 0.014510 0.012092 153312.000000 0 0 1
15.970999 -13.401999 -24.226985 31.962997 -0.698159 2.430991 0.016783 0.007653 -154856.000000 0 0 1
15.893199 -14.104699 -25.606175 33.274803 -0.725848 2.448911 0.018355 0.003165 -197920.000000 0 0 1
14.961099 -15.166099 -25.700555 33.382085 -0.792203 2.449466 0.024449 0.001207 -90474.000000 0 0 1
15.038299 -15.899499 -26.901615 34.679121 -0.813227 2.458667 0.027478 -0.000089 -189852.000000 0 0 1
15.911099 -17.191599 -27.097125 35.818548 -0.824062 2.428758 0.026018 -0.001808 -302230.000000 0 0 1
17.269799 -16.884599 -27.241535 36.406550 -0.774120 2.416230 0.022282 0.001665 -479288.000000 0 0 1
18.051999 -18.065499 -27.117385 37.250363 -0.785772 2.386162 0.033462 0.000799 1104280.000000 0 0 1
19.587999 -17.720599 -27.026525 37.790771 -0.735387 2.367652 0.023434 0.005791 827506.000000 0 0 1
19.977699 -17.109199 -25.771215 36.823752 -0.708206 2.345988 0.019302 0.011813 -564514.000000 0 0 1
21.361199 -16.985699 -25.662295 37.461556 -0.671786 2.325441 0.016222 0.015410 -656211.000000 0 0 1
21.807899 -16.524299 -24.236885 36.552203 -0.648424 2.295717 0.010417 0.021322 -400889.000000 0 0 1
21.591799 -15.141099 -23.918385 35.602638 -0.611560 2.307453 0.006055 0.023797 455650.000000 0 0 1
20.217599 -14.726999 -23.870385 34.575007 -0.629549 2.332830 0.026893 0.018090 735162.000000 0 0 1
20.109199 -13.275899 -23.363385 33.563033 -0.583506 2.340754 0.028273 0.021626 -152705.000000 0 0 1
20.384499 -12.371999 -24.381785 34.103748 -0.545501 2.367320 0.025174 0.017909 88720.600000 0 0 1
20.188399 -11.119699 -23.822785 33.147312 -0.503455 2.372719 0.025582 0.017812 -129062.000000 0 0 1
20.346799 -9.971499 -24.802285 33.594291 -0.455678 2.401326 0.030522 0.007823 -304206.000000 0 0 1
20.063699 -8.770399 -24.147285 32.596983 -0.412098 2.405031 0.034034 0.007947 134970.000000 0 0 1
19.820099 -7.718399 -25.067385 32.875277 -0.371355 2.437964 0.022003 0.004983 -373882.000000 0 0 1
19.339899 -6.416499 -24.444385 31.823437 -0.320348 2.446704 0.024513 -0.003580 -855908.000000 0 0 1
18.034899 -6.493799 -23.976085 30.696574 -0.345616 2.467169 0.019509 -0.004290 -763612.000000 0 0 1
17.676399 -5.543699 -22.949985 29.493889 -0.303906 2.462474 0.014153 -0.007112 -77001.000000 0 0 1
18.197099 -5.739099 -21.521385 28.761810 -0.305511 2.416236 0.023390 -0.002821 -378409.000000 0 0 1
17.687599 -6.815099 -20.726785 28.087299 -0.367773 2.400811 0.030899 -0.002904 218189.000000 0 0 1
17.945099 -8.126899 -21.204985 28.943470 -0.425243 2.392981 0.037833 -0.002086 -165415.000000 0 0 1
17.568399 -9.195299 -20.154585 28.273830 -0.482192 2.364329 0.029207 0.002832 1067410.000000 0 0 1
16.171699 -9.292399 -19.805185 27.205108 -0.521540 2.386189 0.027883 0.003965 700950.000000 0 0 1
15.933999 -10.511099 -19.109385 27.010075 -0.583140 2.356738 0.038725 0.009319 439577.000000 0 0 1
14.454599 -10.641599 -18.610785 25.856148 -0.634616 2.374284 0.034129 0.001445 528159.000000 0 0 1
13.932399 -9.743299 -17.645285 24.503055 -0.610274 2.374780 0.038193 -0.002965 190298.000000 0 1 0
14.032499 -8.362299 -17.835785 24.185829 -0.537417 2.400080 0.032136 -0.013619 -232657.000000 0 1 0
12.808499 -7.608599 -17.202785 22.757070 -0.536016 2.427872 0.028851 -0.003546 757786.000000 0 1 0
11.648999 -7.728199 -18.023385 22.809355 -0.585753 2.481891 0.016660 -0.011082 521746.000000 0 1 0
10.618399 -6.821499 -17.619985 21.673651 -0.571030 2.520027 0.003742 -0.006853 98165.400000 0 1 0
9.301099 -6.918099 -18.388285 21.737055 -0.639517 2.579125 0.009037 0.000798 -163715.000000 0 1 0
9.286799 -6.403199 -19.675285 22.679560 -0.603641 2.621019 0.021776 -0.006297 -366977.000000 0 1 0
7.960299 -6.094199 -20.000185 22.372149 -0.653394 2.676939 0.027161 -0.006422 -124329.000000 0 1 0
7.715399 -5.940299 -21.533985 23.633177 -0.656133 2.716926 0.036879 -0.011810 -48303.100000 0 1 0
7.602399 -7.117099 -22.285185 24.598355 -0.752440 2.704444 0.031637 -0.013415 191629.000000 0 1 0
6.931899 -6.740099 -23.499485 25.410745 -0.771370 2.751267 0.047793 -0.015856 249092.000000 0 0 1
6.748799 -7.887199 -24.499285 26.607690 -0.863023 2.740819 0.037650 -0.012212 278674.000000 0 0 1
5.865999 -8.913999 -24.030785 26.293497 -0.988772 2.723695 0.039695 -0.019347 271019.000000 0 0 1
5.809999 -9.990199 -24.948185 27.494947 -1.044039 2.707789 0.042982 -0.004960 -23730.800000 0 0 1
5.097599 -11.296699 -24.580885 27.528546 -1.146906 2.674594 0.043494 -0.010789 289650.000000 0 0 1
5.820799 -12.042999 -23.643085 27.164517 -1.120570 2.626742 0.037709 -0.014305 173899.000000 0 0 1
5.001199 -13.188899 -23.377485 27.303221 -1.208351 2.598699 0.045117 -0.015262 -4957.860000 0 0 1
5.648199 -14.440999 -22.671185 27.466839 -1.197966 2.541710 0.048487 -0.017087 352451.000000 0 0 1
6.814199 -15.000599 -23.347585 28.575532 -1.144404 2.527069 0.031220 -0.012284 1397800.000000 0 0 1
8.076699 -14.348299 -23.380285 28.596232 -1.058101 2.528027 0.049501 -0.015009 636326.000000 0 0 1
8.682299 -13.787799 -22.032685 27.403010 -1.008818 2.504829 0.039708 -0.006795 -594256.000000 0 0 1
9.159299 -14.718999 -21.062085 27.279170 -1.014157 2.452926 0.038594 -0.000633 -53418.600000 0 0 1
8.143799 -15.456099 -20.444785 26.892410 -1.085862 2.434484 0.033179 -0.004417 -457683.000000 0 0 1
8.382299 -15.702799 -18.953685 26.001597 -1.080469 2.387573 0.036428 -0.006751 235281.000000 0 0 1
9.527899 -16.508099 -18.746985 26.734765 -1.047336 2.347905 0.045449 -0.006903 -140221.000000 0 0 1
9.891499 -16.821499 -17.419585 26.158107 -1.039227 2.299542 0.049993 -0.015071 -260548.000000 0 0 1
8.989899 -17.874299 -16.670085 26.042285 -1.104791 2.265446 0.026729 -0.016830 -341812.000000 0 0 1
8.973699 -19.234599 -17.157985 27.292738 -1.134274 2.250632 0.021815 -0.016714 162777.000000 0 0 1
8.138499 -19.457799 -18.289685 27.916907 -1.174645 2.285174 0.036775 -0.011716 1729000.000000 0 0 1
6.552599 -19.385899 -18.106385 27.323814 -1.244844 2.295161 0.028034 -0.012625 1247400.000000 0 0 1
6.063999 -18.085099 -17.866685 26.135442 -1.247274 2.323506 0.030483 -0.014454 -679882.000000 0 0 1
4.676799 -18.023899 -17.685385 25.680854 -1.316918 2.330436 0.028467 -0.015140 -248961.000000 0 0 1
4.229899 -16.592399 -17.469885 24.462147 -1.321183 2.366220 0.017906 -0.005853 -16109.000000 0 1 0
4.465999 -16.165799 -16.072085 23.229080 -1.301257 2.334907 0.001852 -0.006721 159158.000000 0 1 0
4.477899 -14.778799 -15.769185 22.071060 -1.276594 2.366667 0.003245 -0.001882 -95043.500000 0 1 0
10.412199 30.225101 -17.918685 36.647645 1.239040 2.081676 0.022779 -0.007443 -663718.000000 0 0 1
9.435499 29.765101 -18.784885 36.439838 1.263818 2.112392 0.048152 -0.007852 -898887.000000 0 0 1
8.495599 29.009201 -18.113285 35.239183 1.285904 2.110649 0.037179 -0.008519 732868.000000 0 0 1
7.408999 28.323101 -19.107885 34.960014 1.314941 2.149052 0.033806 -0.010461 1550540.000000 0 0 1
6.550199 29.295001 -19.763385 35.940139 1.350820 2.153038 0.037808 -0.017579 387167.000000 0 0 1
5.743899 28.747201 -20.805085 35.947816 1.373586 2.188001 0.029933 -0.019870 52820.900000 0 0 1
4.903799 29.847501 -21.481485 37.099525 1.407956 2.188326 0.027902 -0.015342 -24048.500000 0 0 1
3.857799 30.175101 -20.573885 36.724707 1.443639 2.165447 0.021440 -0.015704 -712500.000000 0 0 1
2.984399 31.081101 -21.144385 37.709766 1.475070 2.166044 0.008204 -0.018988 -249243.000000 0 0 1
1.574199 30.956701 -20.416185 37.116250 1.519988 2.153233 0.023796 -0.023219 1008620.000000 0 0 1
0.913099 29.718401 -20.599285 36.171088 1.540081 2.176689 0.025876 -0.028930 186790.000000 0 0 1
0.467499 29.480501 -21.938585 36.750782 1.554940 2.210497 0.036581 -0.033634 -922631.000000 0 0 1
0.039399 28.068201 -22.265085 35.826798 1.569393 2.241407 0.037856 -0.031345 34136.100000 0 0 1
-1.183501 27.718201 -21.657485 35.195823 -1.528125 2.233617 0.041477 -0.032595 61981.800000 0 0 1
-1.793901 26.582401 -22.228785 34.698141 -1.503414 2.266119 0.045179 -0.031603 -132657.000000 0 0 1
-2.912001 25.998401 -21.360885 33.774014 -1.459254 2.255528 0.027919 -0.026940 -222276.000000 0 0 1
-4.006401 26.871301 -21.150785 34.430710 -1.422791 2.232295 0.026153 -0.028473 -487833.000000 0 0 1
-4.955601 26.181601 -20.417585 33.569510 -1.383731 2.224610 0.030910 -0.028230 -574109.000000 0 0 1
-6.155901 27.107801 -20.111085 34.310111 -1.347494 2.197103 0.034282 -0.043534 442054.000000 0 0 1
-7.170301 26.507501 -19.285285 33.555671 -1.306618 2.183064 0.040462 -0.034514 -609161.000000 0 0 1
-8.172701 27.394001 -18.979985 34.314198 -1.280864 2.156905 0.037929 -0.040598 -474582.000000 0 0 1
-9.388601 26.678201 -18.353485 33.715318 -1.232412 2.146430 0.035860 -0.033804 -225978.000000 0 0 1
-9.172101 26.002001 -17.125185 32.457718 -1.231677 2.126587 0.037981 -0.034419 131594.000000 0 0 1
-10.382501 25.334001 -16.740385 32.091251 -1.181849 2.119580 0.020085 -0.026243 537511.000000 0 0 1
-10.311501 24.521601 -15.411585 30.743339 -1.172738 2.095895 0.030031 -0.016638 -272800.000000 0 0 1
-9.595101 23.331901 -15.409785 29.561885 -1.180635 2.119137 0.040531 -0.014064 -423598.000000 0 0 1
-9.581001 22.690301 -14.160885 28.410843 -1.171256 2.092586 0.059903 -0.011572 163856.000000 0 0 1
-8.916001 21.274401 -14.202685 27.088955 -1.173938 2.122687 0.069264 -0.006315 268261.000000 0 0 1
-9.772701 20.196601 -14.659685 26.801394 -1.120129 2.149542 0.051543 -0.000092 43175.700000 0 0 1
-10.168801 20.254301 -16.057985 27.775891 -1.105505 2.187227 0.054625 0.004474 1111460.000000 0 0 1
-9.000501 20.167001 -17.158685 27.966720 -1.151025 2.231331 0.052411 0.005502 635861.000000 0 0 1
-8.342101 18.962901 -17.283485 26.979643 -1.156359 2.266091 0.048639 0.003231 -203249.000000 0 0 1
-7.687701 18.946101 -18.577785 27.625886 -1.185328 2.308347 0.042315 -0.002697 312119.000000 0 0 1
-6.950301 17.560701 -18.888985 26.711021 -1.193927 2.356271 0.038295 -0.005377 365104.000000 0 0 1
-7.832301 16.460101 -18.945685 26.291041 -1.126666 2.375483 0.029785 -0.010349 -212769.000000 0 0 1
-7.455401 15.511601 -19.875985 26.291587 -1.122761 2.427950 0.035176 -0.013418 272548.000000 0 0 1
-6.284201 14.545601 -19.516785 25.139025 -1.162983 2.459657 0.028719 -0.016922 35732.800000 0 0 1
-6.535401 13.530301 -18.571885 23.889232 -1.120825 2.461344 0.019734 -0.013382 973696.000000 0 1 0
-5.390001 12.646901 -18.349585 22.928225 -1.167917 2.498601 0.016787 -0.012476 1721980.000000 0 1 0
-4.293501 13.157701 -17.328785 22.177602 -1.255379 2.467645 0.018622 -0.010607 383914.000000 0 1 0
-3.655501 14.363901 -17.622685 23.027014 -1.321594 2.442311 0.021879 -0.009910 -427875.000000 0 1 0
-3.265901 14.871501 -16.337685 22.332658 -1.354620 2.391404 0.025651 -0.000978 -196052.000000 0 1 0
-2.482201 16.181301 -16.282085 23.089004 -1.418584 2.353484 0.038310 -0.001161 172067.000000 0 1 0
-3.222501 17.320301 -16.675985 24.258314 -1.386846 2.328746 0.031890 0.002797 -168868.000000 0 1 0
-2.389601 18.463901 -16.634685 24.966749 -1.442092 2.299997 0.040347 0.001415 212693.000000 0 1 0
-3.041901 19.748501 -17.191885 26.359388 -1.417965 2.281294 0.040799 -0.006736 151587.000000 0 0 1
-3.087901 19.651301 -18.644585 27.264066 -1.414936 2.323825 0.048070 -0.010748 -258841.000000 0 0 1
-3.812301 20.714401 -19.209785 28.506769 -1.388792 2.310227 0.050054 -0.004303 -177543.000000 0 0 1
-3.084801 22.063001 -19.398685 29.539820 -1.431879 2.287226 0.030997 -0.008185 -992829.000000 0 0 1
-2.126501 22.002401 -20.448785 30.112796 -1.474447 2.317295 0.040661 -0.004560 -115019.000000 0 0 1
-1.053901 22.875401 -20.252685 30.570671 -1.524758 2.294931 0.036615 -0.007044 489043.000000 0 0 1
-0.021101 22.523101 -19.086885 29.522867 -1.569859 2.273800 0.046601 -0.003463 -579083.000000 0 0 1
-0.521401 22.542201 -17.767385 28.707188 -1.547670 2.238160 0.041603 -0.005849 -272162.000000 0 0 1
0.471199 22.080201 -16.848085 27.777964 1.549459 2.222481 0.051289 -0.005799 311628.000000 0 0 1
0.087799 22.256901 -15.344485 27.033878 1.566852 2.174387 0.046131 -0.012619 -58437.100000 0 0 1
-0.929001 21.403901 -14.869485 26.078566 -1.527420 2.177522 0.045526 0.001053 -81969.200000 0 0 1
-0.951301 21.306901 -13.504985 25.244279 -1.526178 2.135271 0.062697 -0.005129 38956.000000 0 0 1
-1.729901 20.050801 -13.012585 23.965695 -1.484734 2.144763 0.038201 -0.002274 91321.000000 0 1 0
-1.086401 18.806401 -13.178185 22.989683 -1.513093 2.181229 0.037452 0.002875 -98867.200000 0 1 0
-1.861001 17.807301 -12.547885 21.863502 -1.466667 2.182080 0.029828 -0.000017 286183.000000 0 1 0
-1.325901 16.344801 -12.792285 20.797911 -1.489853 2.233278 0.018190 0.003513 94121.800000 0 1 0
-0.330501 15.864901 -11.872185 19.817999 -1.549967 2.213124 0.016767 -0.002764 530995.000000 0 1 0
0.021499 14.436401 -12.053485 18.806824 1.569307 2.266480 0.016948 -0.002135 425033.000000 0 1 0
0.901799 14.111901 -13.269085 19.391431 1.506980 2.324406 0.009899 0.001520 -13859.400000 0 1 0
0.075199 14.183101 -14.438385 20.239391 1.565494 2.365107 0.011301 -0.000911 493357.000000 0 1 0
0.320299 13.015001 -15.187385 20.003737 1.546191 2.432921 0.015300 -0.011706 1221.600000 0 1 0
-0.270601 12.896301 -16.611485 21.031625 -1.549817 2.481334 0.013394 -0.010136 -454149.000000 0 1 0
0.401299 13.691001 -17.523185 22.241101 1.541494 2.478145 0.021607 -0.016197 -247340.000000 0 1 0
-0.044401 13.588201 -18.880185 23.261611 -1.567529 2.517760 0.021043 -0.019060 -632351.000000 0 1 0
-0.881701 14.785901 -19.347885 24.366799 -1.511236 2.488201 0.032230 -0.013322 41975.000000 0 1 0
-0.162701 16.006401 -19.244685 25.031765 -1.560632 2.447775 0.030769 -0.016061 -200646.000000 0 0 1
-0.946801 17.036101 -19.755285 26.103572 -1.515277 2.429206 0.043490 -0.014501 -261435.000000 0 0 1
-0.165901 18.319501 -20.037485 27.150183 -1.561741 2.400934 0.046162 -0.014540 -27666.800000 0 0 1
0.593799 18.237001 -21.216285 27.983416 1.538248 2.431304 0.048657 -0.019023 -163796.000000 0 0 1
1.322399 19.390101 -21.496485 28.979711 1.502702 2.406513 0.049719 -0.013203 71191.300000 0 0 1
1.880299 19.362801 -22.939985 30.078173 1.473991 2.438241 0.051158 -0.021836 220378.000000 0 0 1
2.950499 18.510101 -23.307185 29.909098 1.412727 2.464292 0.042674 -0.022576 210469.000000 0 0 1
3.293699 18.491301 -24.700385 31.030399 1.394523 2.491464 0.041240 -0.032576 519120.000000 0 0 1
4.350099 17.406501 -25.096875 30.850653 1.325900 2.520934 0.029962 -0.016092 -211411.000000 0 0 1
5.554599 17.461101 -24.360785 30.482642 1.262806 2.496708 0.019020 -0.011318 473714.000000 0 0 1
6.503299 16.404201 -24.646085 30.312047 1.193362 2.520218 0.019765 -0.007650 743296.000000 0 0 1
7.045199 16.249201 -26.087965 31.531782 1.161688 2.545178 0.010727 -0.007003 -1333560.000000 0 0 1
7.879599 17.302701 -26.506995 32.620428 1.143463 2.519377 0.004640 -0.003079 219365.000000 0 0 1
8.268799 17.297701 -27.907165 33.858431 1.124880 2.539639 0.007540 -0.006675 136669.000000 0 0 1
8.996299 16.058701 -28.539515 33.960553 1.060146 2.568766 0.018419 -0.008467 -57015.900000 0 0 1
10.235499 15.760901 -27.922055 33.657282 0.994826 2.549186 0.016973 -0.003114 -78775.000000 0 0 1
10.674699 14.427501 -28.280895 33.494940 0.933800 2.576116 0.017384 0.006195 -12882.200000 0 0 1
10.402199 13.289401 -27.276375 32.075139 0.906666 2.587522 0.020623 0.004397 -196848.000000 0 0 1
9.014499 13.039901 -27.258515 31.532949 0.965932 2.614843 0.028187 0.005784 -375646.000000 0 0 1
8.622799 12.275001 -26.191725 30.183353 0.958416 2.621462 0.028693 0.005740 40825.300000 0 0 1
7.118399 11.920901 -26.287755 29.729204 1.032485 2.655661 0.025722 -0.001890 297552.000000 0 0 1
6.271699 13.060301 -26.301895 30.028243 1.123105 2.638105 0.025583 0.001157 -819445.000000 0 0 1
4.960099 12.646301 -26.088525 29.413307 1.197017 2.661524 0.028385 -0.007531 -203214.000000 0 0 1
3.860899 13.684201 -26.454565 30.033447 1.295802 2.648423 0.040175 -0.004109 -682080.000000 0 0 1
3.548299 13.776801 -27.847485 31.270962 1.318719 2.669288 0.031599 -0.004032 92916.700000 0 0 1
4.274699 14.753801 -28.545245 32.415717 1.288783 2.647921 0.036432 -0.002486 -119876.000000 0 0 1
4.103699 14.701301 -30.063985 33.716640 1.298587 2.671809 0.035177 -0.006205 -341271.000000 0 0 1
4.817399 13.640201 -30.628935 33.873206 1.231294 2.700353 0.038140 -0.006368 -202982.000000 0 0 1
4.593799 13.297801 -32.000425 34.956569 1.238176 2.727381 0.042074 -0.008196 -1011220.000000 0 0 1
5.559499 12.216001 -32.494915 35.157620 1.143710 2.749899 0.049056 0.002830 64447.600000 0 0 1
6.954199 12.445401 -32.456095 35.449217 1.061240 2.727709 0.050915 0.008717 187638.000000 0 0 1
7.604399 12.550401 -31.211995 34.489536 1.026043 2.702106 0.048036 0.005687 -910426.000000 0 0 1
7.615299 11.287201 -30.292115 33.211533 0.977263 2.719165 0.053614 0.007297 1911.140000 0 0 1
8.531599 10.269601 -30.721455 33.497174 0.877577 2.731630 0.049178 0.007075 234819.000000 0 0 1
8.501999 9.260701 -29.715745 32.265618 0.828085 2.741365 0.046313 -0.002944 281556.000000 0 0 1
9.461799 8.058201 -29.940875 32.417838 0.705455 2.748144 0.042977 -0.005114 575806.000000 0 0 1
10.839999 8.285101 -29.697105 32.681287 0.652596 2.710928 0.040855 -0.004629 84616.900000 0 0 1
11.539499 7.091801 -29.545195 32.501880 0.551062 2.711748 0.019737 0.003002 7539.870000 0 0 1
12.917999 7.210001 -28.836125 32.409581 0.509068 2.667573 0.018357 0.011095 436351.000000 0 0 1
13.606599 6.026001 -28.511875 32.161767 0.416912 2.660553 0.018476 0.004957 539048.000000 0 0 1
14.577299 5.680201 -29.530205 33.418488 0.371562 2.654396 0.008068 0.009600 64993.300000 0 0 1
15.460299 4.463901 -29.146925 33.294001 0.281088 2.637143 0.018821 0.002994 3422.760000 0 0 1
16.416499 4.878901 -28.205485 32.997796 0.288881 2.595901 0.014609 -0.002048 251139.000000 0 0 1
17.129599 3.824801 -27.528825 32.647948 0.219682 2.574009 0.017535 0.002748 295865.000000 0 0 1
17.778999 4.251901 -26.200785 31.947654 0.234744 2.532410 0.023943 0.000082 -58306.800000 0 0 1
18.741299 5.278101 -26.330955 32.747730 0.274519 2.504880 0.023361 -0.006101 266359.000000 0 0 1
19.306599 5.680601 -25.083545 32.158953 0.286156 2.465440 0.030459 -0.011009 -222979.000000 0 0 1
20.390799 6.724301 -25.189155 33.098254 0.318541 2.435714 0.028958 -0.017294 -421067.000000 0 0 1
19.813499 7.986901 -25.456945 33.232836 0.383179 2.443420 0.029361 -0.014055 396616.000000 0 0 1
20.706099 8.747201 -26.229645 34.543456 0.399705 2.433069 0.035875 -0.021323 -585937.000000 0 0 1
20.756299 8.295501 -27.709905 35.601659 0.380215 2.462801 0.035197 -0.017693 -81106.300000 0 0 1
19.743799 8.676501 -28.634895 35.847685 0.414050 2.496083 0.027019 -0.007680 -60258.600000 0 0 1
18.521999 8.011701 -28.479715 34.904813 0.408249 2.525124 0.025112 -0.005579 -152080.000000 0 0 1
17.314299 8.677201 -29.213095 35.049732 0.464574 2.556164 0.004195 0.001174 152401.000000 0 0 1
17.171299 8.376301 -30.530715 36.015837 0.453847 2.582435 0.005857 0.008064 417301.000000 0 0 1
16.107699 9.173401 -31.048415 36.160937 0.517694 2.603363 0.006094 0.009284 30988.600000 0 0 1
15.742599 8.729601 -32.475795 37.131020 0.506308 2.635462 -0.000930 0.016026 291368.000000 0 0 1
14.995699 7.500601 -32.670745 36.722031 0.463794 2.667433 0.002316 0.015810 1613860.000000 0 0 1
13.577899 7.707601 -32.913045 36.428492 0.516299 2.698657 0.001058 0.018320 1298970.000000 0 0 1
12.841699 6.397201 -33.204965 36.171855 0.462173 2.733748 -0.001765 0.013849 -30994.200000 0 0 1
12.795699 5.414701 -32.154885 35.028353 0.400316 2.733722 0.010642 0.010394 97808.800000 0 0 1
12.074599 4.269901 -32.594125 35.020066 0.339902 2.767192 0.021891 -0.000401 291200.000000 0 0 1
11.676799 3.278201 -31.507875 33.761523 0.273699 2.774147 0.030696 -0.002130 50717.700000 0 0 1
12.781699 2.433601 -31.260175 33.859900 0.188145 2.747177 0.028543 -0.007970 254543.000000 0 0 1
12.516399 1.344101 -30.430485 32.931463 0.106977 2.749352 0.041432 -0.010106 171422.000000 0 0 1
11.746599 0.091901 -31.020855 33.170536 0.007823 2.779600 0.046371 -0.010292 449102.000000 0 0 1
12.549799 -0.784499 -31.810815 34.205860 -0.062430 2.765159 0.037379 -0.009118 763099.000000 0 0 1
13.509699 -1.514799 -31.004265 33.853671 -0.111660 2.728371 0.039908 -0.015263 597118.000000 0 0 1
14.189799 -2.720599 -31.658715 34.799803 -0.189430 2.713450 0.046301 -0.016612 1246670.000000 0 0 1
13.224399 -3.848199 -31.922935 34.767329 -0.283173 2.734278 0.048131 -0.014448 1461660.000000 0 0 1
13.771199 -4.901599 -32.669385 35.790506 -0.341949 2.720872 0.055851 -0.015738 -76161.800000 0 0 1
12.904599 -6.179499 -32.529585 35.537147 -0.446593 2.727219 0.063737 -0.019509 104684.000000 0 0 1
13.139399 -6.802199 -31.315055 34.634468 -0.477703 2.700203 0.054751 -0.014305 207105.000000 0 0 1
12.762699 -8.178199 -31.358405 34.829858 -0.569873 2.691326 0.055487 -0.018664 -3377.460000 0 0 1
12.978599 -8.845299 -29.986645 33.850882 -0.598222 2.659109 0.037063 -0.016899 2176010.000000 0 0 1
14.407599 -8.830399 -29.564945 34.053500 -0.549850 2.622342 0.051317 -0.011352 2378970.000000 0 0 1
14.689099 -9.530399 -28.350935 33.322270 -0.575537 2.588322 0.051331 -0.015011 -16254.800000 0 0 1
14.489599 -11.068699 -28.326845 33.687902 -0.652342 2.569668 0.038174 -0.011199 277153.000000 0 0 1
13.118499 -11.451799 -28.352275 33.272965 -0.717668 2.590803 0.040109 -0.018415 423277.000000 0 0 1
13.039699 -12.881099 -28.509595 33.893266 -0.779280 2.570217 0.040750 -0.024931 113084.000000 0 0 1
-10.175801 -2.667399 -17.781185 20.659925 0.256364 2.607362 0.009774 0.001995 224090.000000 0 1 0
-11.092301 -2.302199 -18.810285 21.958281 0.204644 2.599513 0.015047 -0.001584 445197.000000 0 1 0
-11.886801 -3.387999 -19.287885 22.908450 0.277659 2.571693 0.004442 0.004176 -551259.000000 0 1 0
-12.664001 -3.002099 -20.511485 24.292191 0.232761 2.576176 0.001703 -0.006774 -147125.000000 0 1 0
-13.731501 -2.086199 -20.219985 24.530678 0.150775 2.539714 -0.003213 -0.005006 100561.000000 0 1 0
-14.361801 -1.794699 -21.423585 25.854444 0.124319 2.547440 0.003781 -0.007796 239980.000000 0 0 1
-15.221901 -0.499699 -21.275385 26.164823 0.032816 2.520305 0.004146 -0.003953 915848.000000 0 0 1
-14.353901 0.650601 -21.265685 25.664901 -0.045295 2.547381 0.001534 -0.003033 484916.000000 0 0 1
-15.152601 1.722601 -20.854985 25.836003 -0.113198 2.510200 0.002330 0.005429 48331.900000 0 0 1
-14.669201 3.009201 -21.480685 26.185121 -0.202330 2.532800 0.017963 -0.005184 175579.000000 0 0 1
-13.446401 3.540501 -21.006585 25.191615 -0.257461 2.556883 0.023766 -0.011350 243369.000000 0 0 1
-13.160901 4.790201 -21.642885 25.779252 -0.349067 2.567245 0.031387 -0.010622 -240401.000000 0 0 1
-11.925901 5.460601 -21.038585 24.792486 -0.429385 2.584105 0.017507 -0.008867 -390527.000000 0 1 0
-12.116801 5.922301 -19.690785 23.866661 -0.454621 2.541057 0.023250 -0.017135 475431.000000 0 1 0
-10.924801 6.402101 -19.086985 22.905265 -0.530073 2.555849 0.012401 -0.011904 94860.100000 0 1 0
-11.250501 7.004101 -17.718585 22.126443 -0.556842 2.499406 0.020793 -0.011008 155195.000000 0 1 0
-11.734501 8.339801 -17.699485 22.814964 -0.617876 2.458753 0.013439 -0.015916 245949.000000 0 1 0
-13.003301 8.357501 -17.067985 23.027153 -0.571241 2.405669 0.025275 -0.009638 -15866.500000 0 1 0
-13.622801 9.830201 -17.067885 23.948408 -0.625075 2.364127 0.026771 -0.008021 -115313.000000 0 1 0
-12.828001 10.724001 -16.330385 23.371848 -0.696300 2.344403 0.007113 -0.000082 412473.000000 0 1 0
-13.518701 11.955901 -16.318185 24.330680 -0.724128 2.305926 0.010949 -0.007720 -569214.000000 0 1 0
-12.895801 13.089201 -15.583885 24.093284 -0.792841 2.274196 0.013573 -0.004507 -898065.000000 0 1 0
-13.226101 13.106801 -14.189085 23.410427 -0.780868 2.221946 0.019480 -0.006385 591002.000000 0 1 0
-12.607101 14.237501 -13.517985 23.331981 -0.846058 2.188759 0.023942 -0.010730 -806453.000000 0 1 0
-12.975401 14.362101 -12.027585 22.788018 -0.836080 2.126808 0.024587 -0.022155 253450.000000 0 1 0
-14.191001 14.929801 -11.532785 23.606961 -0.810763 2.081204 0.018108 -0.018861 574842.000000 0 1 0
-15.289301 14.145701 -11.998985 24.038286 -0.746566 2.093427 0.007610 -0.006579 -1123170.000000 0 1 0
-16.666901 14.684801 -11.611185 25.064887 -0.722261 2.052450 -0.010076 -0.000867 -222037.000000 0 0 1
-17.721401 13.822401 -11.975185 25.465896 -0.662416 2.060364 -0.005432 -0.000847 -257644.000000 0 0 1
-18.964801 14.377501 -11.683485 26.511885 -0.648675 2.027162 0.034317 -0.011573 -17108.400000 0 0 1
-20.196401 13.867601 -12.500485 27.503947 -0.601701 2.042605 0.025567 -0.022761 178964.000000 0 0 1
-20.395701 12.528801 -12.365385 26.941756 -0.550858 2.047629 0.030265 -0.022025 40170.900000 0 0 1
-21.499701 12.051501 -13.079685 27.902580 -0.510901 2.058686 0.055661 -0.023526 -622653.000000 0 0 1
-21.995801 10.712601 -12.513785 27.480355 -0.453217 2.043586 0.041951 -0.021469 201072.000000 0 0 1
-21.088401 9.620701 -12.674285 26.418101 -0.428005 2.071175 0.037189 -0.018763 934919.000000 0 0 1
-21.708101 8.542301 -11.982185 26.225661 -0.374897 2.045290 0.034685 -0.019200 -520881.000000 0 0 1
-20.717401 7.466501 -11.661385 24.918813 -0.345907 2.057794 0.042278 -0.012396 -580323.000000 0 1 0
-20.482701 6.680801 -12.779185 25.049585 -0.315288 2.106162 0.049626 -0.019244 167900.000000 0 0 1
-19.435101 5.767201 -12.599485 23.869034 -0.288465 2.126874 0.051535 -0.018872 -280736.000000 0 1 0
-19.416201 4.594001 -13.605785 24.149764 -0.232334 2.169282 0.055231 -0.024629 -9210.800000 0 1 0
-20.320601 3.568401 -13.221785 24.504610 -0.173833 2.140715 0.055492 -0.028011 360446.000000 0 1 0
-20.169201 2.441801 -13.992385 24.668723 -0.120479 2.173912 0.056189 -0.031496 -196405.000000 0 1 0
-21.057301 1.230601 -13.572885 25.082813 -0.058374 2.142568 0.061309 -0.029003 217931.000000 0 0 1
-22.291401 1.269401 -14.271285 26.498821 -0.056884 2.139527 0.038803 -0.019330 197308.000000 0 0 1
-22.695801 -0.012099 -14.681285 27.030347 0.000533 2.144970 0.035417 -0.018698 82109.400000 0 0 1
-23.998801 0.027701 -15.526085 28.583256 -0.001154 2.145026 0.046446 -0.026391 681023.000000 0 0 1
-25.174831 0.281601 -14.794185 29.201358 -0.011185 2.102064 0.054828 -0.026304 318363.000000 0 0 1
-26.454001 0.122701 -15.361085 30.590720 -0.004638 2.096878 0.041060 -0.018899 754578.000000 0 0 1
-27.618141 0.384301 -14.356885 31.129239 -0.013914 2.050146 0.050150 -0.011452 60278.500000 0 0 1
-27.785191 -0.617299 -13.397785 30.852853 0.022213 2.019999 0.047837 -0.013759 490037.000000 0 0 1
-28.909391 -0.272199 -12.573485 31.526489 0.009415 1.981029 0.061397 -0.012273 552839.000000 0 0 1
-28.929211 -0.991099 -11.190485 31.033989 0.034246 1.939695 0.051376 -0.019402 -667593.000000 0 0 1
-29.319371 -2.329099 -11.199685 31.471942 0.079272 1.934633 0.043273 -0.004911 153143.000000 0 0 1
-28.504421 -3.325999 -11.778485 31.020912 0.116158 1.960263 0.048534 -0.007936 -502490.000000 0 0 1
-28.775661 -4.748799 -11.296085 31.276050 0.163554 1.940323 0.037291 -0.013033 360986.000000 0 0 1
-30.088021 -5.241799 -11.625385 32.678969 0.172484 1.934508 0.035363 -0.009821 909112.000000 0 0 1
-30.335811 -6.548199 -11.141285 32.973756 0.212595 1.915463 0.057656 -0.015767 -507870.000000 0 0 1
-29.708821 -7.721899 -11.823285 32.894252 0.254293 1.938457 0.057562 -0.022606 706748.000000 0 0 1
-28.283911 -7.730399 -11.594485 31.530474 0.266798 1.947356 0.029588 -0.013639 520417.000000 0 0 1
-27.595111 -8.574099 -12.436085 31.458886 0.301254 1.977204 0.032288 -0.013617 -256166.000000 0 0 1
-26.154731 -8.788999 -11.905885 30.051066 0.324183 1.978158 0.031093 -0.018810 -165836.000000 0 0 1
-25.334841 -7.652299 -12.072885 29.088940 0.293333 1.998776 0.032090 -0.020204 1268120.000000 0 0 1
-24.009901 -7.830699 -11.497485 27.748646 0.315267 1.998018 0.038634 -0.024270 1069940.000000 0 0 1
-23.861701 -7.481599 -9.965085 26.919473 0.303832 1.950000 0.038591 -0.025279 -443244.000000 0 0 1
-24.029101 -6.086099 -9.611485 26.586067 0.248064 1.940698 0.030866 -0.017004 1070950.000000 0 0 1
-25.389501 -5.628099 -9.569085 27.710461 0.218143 1.923380 0.031578 -0.018544 299674.000000 0 0 1
-25.542471 -4.213199 -8.908785 27.377643 0.163477 1.902235 0.031743 -0.016347 -372556.000000 0 0 1
-25.281961 -4.257199 -7.497685 26.711731 0.166824 1.855308 0.024035 -0.014203 474877.000000 0 0 1
-25.398551 -3.020899 -6.898885 26.491637 0.118384 1.834251 0.054388 -0.008620 -138505.000000 0 0 1
-25.338661 -2.966199 -5.380485 26.072892 0.116532 1.778653 0.048689 -0.006761 797840.000000 0 0 1
-24.063401 -3.436999 -4.899485 24.796475 0.141871 1.769693 0.025630 -0.001439 819632.000000 0 1 0
-23.959001 -3.184399 -3.544385 24.428197 0.132136 1.716404 0.010936 -0.000310 -1159630.000000 0 1 0
-22.648301 -3.636399 -3.001785 23.133950 0.159201 1.700920 0.005207 0.004878 -1083790.000000 0 1 0
-22.557801 -5.033899 -3.038585 23.311532 0.219558 1.701515 0.019159 0.002789 -596524.000000 0 1 0
-21.319501 -5.478399 -2.645985 22.170593 0.251525 1.690428 0.017407 -0.003783 -1021600.000000 0 1 0
-21.239501 -7.030799 -2.734585 22.539443 0.319671 1.692420 0.029133 -0.008111 31548.600000 0 1 0
-21.969001 -7.568399 -1.654885 23.294985 0.331770 1.641897 0.033784 0.001342 490045.000000 0 1 0
-22.603101 -8.796199 -1.945485 24.332246 0.371126 1.650837 0.039040 -0.008145 304439.000000 0 1 0
-23.184101 -9.576799 -0.714585 25.094387 0.391728 1.599276 0.037412 -0.013238 287760.000000 0 0 1
-22.105501 -9.981899 0.111315 24.254976 0.424148 1.566207 0.026353 -0.005183 407444.000000 0 1 0
-22.426601 -10.979299 1.088215 24.993632 0.455266 1.527243 0.020955 0.001765 68501.400000 0 1 0
-21.118501 -11.340699 1.823815 24.040151 0.492810 1.494858 0.021116 0.000978 620014.000000 0 1 0
-20.278501 -12.234099 1.056515 23.706687 0.542845 1.526215 0.024209 0.003037 228571.000000 0 1 0
-19.127601 -12.574199 1.786415 22.960115 0.581549 1.492912 0.003035 0.000816 -446844.000000 0 1 0
-18.393201 -13.673599 1.057815 22.943324 0.639267 1.524674 0.011194 0.001350 -695013.000000 0 1 0
-19.215901 -14.794199 0.837715 24.265633 0.656112 1.536267 0.023691 -0.002736 203935.000000 0 1 0
-18.649101 -15.918099 0.142115 24.519279 0.706556 1.565000 0.017035 -0.008861 13576.400000 0 1 0
-17.473701 -16.724899 0.766115 24.199988 0.763506 1.539133 0.026169 -0.002949 -590734.000000 0 1 0
-16.264301 -16.041199 0.622715 22.852469 0.778492 1.543544 0.029546 0.001737 -240911.000000 0 1 0
-15.180101 -16.683299 1.295415 22.593053 0.832540 1.513428 0.036851 -0.004047 321884.000000 0 1 0
-15.070301 -16.578099 2.869315 22.587171 0.833004 1.443419 0.037181 -0.001660 -373701.000000 0 1 0
-14.678801 -15.291799 3.306115 21.453128 0.805849 1.416071 0.016265 -0.005839 72650.700000 0 1 0
-14.024701 -15.213699 4.594315 21.195674 0.826041 1.352305 0.007650 -0.001120 99850.700000 0 1 0
-14.596401 -15.803799 5.925615 22.314298 0.825094 1.302020 0.023357 0.000773 -493738.000000 0 1 0
-15.488201 -14.976499 6.674315 22.554963 0.768603 1.270385 0.021389 0.004141 523759.000000 0 1 0
-15.721001 -15.272599 8.060315 23.353176 0.770932 1.218399 0.024694 -0.000647 -37348.900000 0 1 0
-16.546201 -16.559899 8.403815 24.872296 0.785812 1.226134 0.020218 -0.004960 -396804.000000 0 1 0
-15.893601 -17.769199 8.289015 25.240023 0.841058 1.236179 0.021397 0.002388 -261390.000000 0 0 1
-16.603201 -18.837199 8.903315 26.641610 0.848350 1.230052 0.028172 -0.002885 -22368.200000 0 0 1
-16.280301 -18.979099 10.363615 27.067673 0.861790 1.177887 0.039986 -0.002394 -188502.000000 0 0 1
-14.968001 -19.456499 10.480015 26.691331 0.915053 1.167299 0.031168 -0.003643 -396958.000000 0 0 1
-14.580501 -19.665499 11.812315 27.181863 0.932806 1.121240 0.037953 -0.009092 -1129940.000000 0 0 1
-13.302401 -20.418599 11.958515 27.145518 0.993378 1.114603 0.033080 -0.004303 -1246140.000000 0 0 1
-12.127201 -19.689999 11.837215 25.978544 1.018763 1.097690 0.017362 -0.001987 -935334.000000 0 0 1
-11.018801 -20.452699 12.254015 26.265715 1.076635 1.085421 0.010443 -0.001504 -8147.370000 0 0 1
-9.786401 -19.578499 12.528515 25.220130 1.107265 1.050927 0.017187 0.001105 53228.700000 0 0 1
-9.185101 -18.976299 11.376915 23.956214 1.120006 1.075941 0.007969 0.001714 -198531.000000 0 1 0
-8.073301 -18.254399 11.862515 23.218969 1.154393 1.034568 0.003184 0.005336 147927.000000 0 1 0
-7.237001 -17.478699 10.766115 21.766680 1.178240 1.053405 -0.002970 0.001762 569844.000000 0 1 0
-6.359301 -18.279999 9.993515 21.782319 1.236009 1.094163 -0.002115 0.001919 94808.800000 0 1 0
-5.611401 -17.639199 8.976615 20.572039 1.262799 1.119258 -0.002898 0.004720 440477.000000 0 1 0
-4.443401 -18.477299 8.374915 20.767609 1.334799 1.155711 -0.000193 0.004693 593096.000000 0 1 0
-3.246201 -18.495399 9.137515 20.883290 1.397052 1.117922 -0.003386 0.006886 -372755.000000 0 1 0
-2.284301 -19.266099 8.495015 21.179374 1.452781 1.158081 0.005061 0.005043 -789122.000000 0 1 0
-0.885101 -19.239499 9.073215 21.290020 1.524824 1.130539 0.004141 -0.001852 -173085.000000 0 1 0
-0.006601 -20.054899 8.289915 21.700731 1.570467 1.178825 0.007764 0.008569 -1015130.000000 0 1 0
1.246099 -20.176199 8.839915 22.062998 -1.509114 1.158552 0.014408 -0.004609 -878230.000000 0 1 0
2.310099 -20.731299 7.877215 22.297395 -1.459824 1.209722 0.019421 -0.010038 -549042.000000 0 1 0
2.253799 -22.096999 7.436215 23.423370 -1.469152 1.247736 0.021634 -0.002339 -347782.000000 0 1 0
2.430699 -23.014599 8.492815 24.651734 -1.465571 1.219078 0.029392 -0.004277 -201208.000000 0 1 0
2.030899 -24.460399 8.224015 25.885712 -1.487958 1.247488 0.026614 -0.008302 -218086.000000 0 0 1
2.118399 -25.322899 9.337815 27.072710 -1.487335 1.218647 0.020077 -0.013065 -157771.000000 0 0 1
1.771799 -26.641579 8.878215 28.137799 -1.504389 1.249785 0.023863 -0.008401 -645677.000000 0 0 1
1.780399 -27.712819 10.048015 29.531894 -1.506640 1.223621 0.018287 -0.013414 211343.000000 0 0 1
0.856199 -27.547819 11.117915 29.719076 -1.539726 1.187370 0.012747 -0.016167 -512372.000000 0 0 1
-0.442801 -27.968439 10.837615 29.998059 1.554965 1.201159 -0.001307 -0.011142 -824700.000000 0 0 1
-1.247501 -28.215879 12.095915 30.724636 1.526612 1.166156 -0.001531 -0.016284 -404043.000000 0 0 1
-0.807101 -29.266689 12.913415 31.999169 1.543226 1.155398 -0.013322 -0.013614 -192639.000000 0 0 1
-1.010401 -29.016029 14.289515 32.359560 1.535988 1.113431 -0.016813 -0.010789 -113190.000000 0 0 1
-0.604101 -30.210599 15.147715 33.800866 1.550803 1.106106 -0.033843 0.004435 149238.000000 0 0 1
-0.523001 -29.806849 16.516715 34.081134 1.553252 1.064857 -0.031180 0.010288 -207091.000000 0 0 1
-0.228001 -30.906419 17.319215 35.428999 1.563419 1.060033 -0.037945 0.013838 -182484.000000 0 0 1
-0.580301 -30.664289 18.781215 35.963446 1.551874 1.021332 -0.038618 0.013459 398020.000000 0 0 1
-1.964801 -30.586089 19.094815 36.110681 1.506646 1.013627 -0.039519 0.016523 220775.000000 0 0 1
-2.137301 -30.117549 20.410515 36.444807 1.499950 0.976363 -0.016337 0.008998 -563098.000000 0 0 1
-3.576001 -30.072819 20.911215 36.802733 1.452441 0.966483 0.029372 -0.003886 -792189.000000 0 0 1
-4.291201 -29.076819 20.229115 35.680428 1.424272 0.967994 0.026290 -0.009051 573115.000000 0 0 1
-5.609001 -28.770829 20.711715 35.891456 1.378257 0.955666 0.040920 -0.015303 882522.000000 0 0 1
-5.640801 -27.845949 21.986215 35.925049 1.370929 0.912206 0.043198 -0.020622 -351637.000000 0 0 1
-5.026501 -28.405489 23.149915 36.987242 1.395654 0.894525 0.037881 -0.019552 133578.000000 0 0 1
-4.586201 -27.434789 24.087015 36.795179 1.405161 0.857111 0.031660 -0.020625 -56173.200000 0 0 1
-3.474501 -27.972519 25.029615 37.696361 1.447218 0.844668 0.037805 -0.020647 -102483.000000 0 0 1
-3.780101 -29.073909 25.848915 39.086414 1.441505 0.848209 0.036583 -0.017592 -105702.000000 0 0 1
-3.221501 -30.272239 25.386415 39.639079 1.464778 0.875727 0.024250 -0.014095 201113.000000 0 0 1
-3.699601 -31.502289 26.267015 41.182974 1.453893 0.879142 0.034922 -0.011790 153352.000000 0 0 1
-3.082301 -31.463199 27.525315 41.917496 1.473143 0.854422 0.027821 -0.016115 117838.000000 0 0 1
-3.620801 -32.433029 28.425215 43.278221 1.459617 0.854227 0.024265 -0.019841 -31002.300000 0 0 1
-2.987201 -32.257129 29.824315 44.033345 1.478454 0.826694 0.046110 -0.018832 -598576.000000 0 0 1
-1.595001 -32.343259 29.828715 44.027068 1.521521 0.826426 0.051295 -0.016838 -618926.000000 0 0 1
-1.214201 -32.144909 31.130515 44.764701 1.533042 0.801784 0.054724 -0.020724 -474775.000000 0 0 1
-27.957351 3.380801 -10.566785 30.078235 -0.120343 1.929766 0.050482 -0.025220 -832276.000000 0 0 1
-28.787021 2.981601 -11.557085 31.163259 -0.103206 1.950727 0.047075 -0.034818 -513088.000000 0 0 1
-29.458281 4.084501 -12.170985 32.134193 -0.137775 1.959247 0.038981 -0.028539 -135027.000000 0 0 1
-30.348761 3.626701 -13.340685 33.349275 -0.118937 1.982345 0.047506 -0.022285 -137817.000000 0 0 1
-31.427371 2.831001 -12.867785 34.077472 -0.089838 1.958004 0.050089 -0.024244 -38125.100000 0 0 1
-32.310991 2.615001 -13.934685 35.284753 -0.080756 1.976778 0.051888 -0.018300 -336638.000000 0 0 1
-33.387211 1.624401 -13.455185 36.033131 -0.048615 1.953480 0.034061 -0.020089 -284428.000000 0 0 1
-32.844541 0.357801 -13.346185 35.454373 -0.010893 1.956739 0.038956 -0.014080 -151975.000000 0 0 1
-33.656181 -0.498299 -12.620385 35.948031 0.014804 1.929513 0.035931 -0.006385 -152287.000000 0 0 1
-32.965351 -1.884799 -12.520285 35.313232 0.057113 1.933228 0.021926 -0.006637 121808.000000 0 0 1
-33.236511 -2.743799 -13.575885 36.006926 0.082367 1.957390 0.032621 -0.006563 141896.000000 0 0 1
-32.922681 -4.096399 -13.191385 35.702886 0.123789 1.949242 0.040453 -0.008165 -72181.400000 0 0 1
-33.135291 -5.138099 -14.320485 36.461265 0.153839 1.974426 0.049107 -0.015512 86047.300000 0 0 1
-32.955721 -6.464499 -13.854785 36.329387 0.193698 1.962070 0.051295 -0.021697 122627.000000 0 0 1
-33.202921 -7.480899 -14.789285 37.109578 0.221608 1.980710 0.053881 -0.011737 -606802.000000 0 0 1
-33.144771 -8.902899 -14.203085 37.142497 0.262413 1.963183 0.048965 -0.006641 -168344.000000 0 0 1
-31.956131 -9.473299 -13.706485 36.038943 0.288194 1.960943 0.057277 -0.010211 123177.000000 0 0 1
-30.943941 -9.699599 -14.667885 35.591524 0.303757 1.995573 0.072352 -0.017115 -667670.000000 0 0 1
-29.956481 -10.745699 -14.193285 34.846953 0.344413 1.990296 0.073446 -0.021644 -650930.000000 0 0 1
-30.432191 -12.037499 -14.313685 35.719759 0.376666 1.983101 0.071418 -0.018924 281930.000000 0 0 1
-29.462511 -12.970799 -13.881585 35.056805 0.414714 1.977925 0.059014 -0.018699 55539.500000 0 0 1
-29.897971 -14.346999 -14.352185 36.134613 0.447411 1.979246 0.064739 -0.022182 -143457.000000 0 0 1
-29.728491 -14.334999 -15.745885 36.567859 0.449304 2.015947 0.063586 -0.024888 481.704000 0 0 1
-29.865171 -15.573399 -16.421485 37.471648 0.480665 2.024433 0.068438 -0.029126 260021.000000 0 0 1
-28.790511 -16.680299 -16.082685 36.956443 0.525111 2.021034 0.060618 -0.028067 2355110.000000 0 0 1
-27.427451 -16.224499 -16.456585 35.865285 0.534177 2.047490 0.056567 -0.034713 1440770.000000 0 0 1
-26.613221 -17.368299 -16.575685 35.842359 0.578214 2.051565 0.063436 -0.041487 324311.000000 0 0 1
-25.144561 -17.061999 -16.970385 34.804522 0.596189 2.080125 0.062553 -0.049941 340049.000000 0 0 1
-25.147581 -16.377599 -18.220585 35.108636 0.577260 2.116450 0.049108 -0.037561 647623.000000 0 0 1
-23.816601 -16.170199 -18.711585 34.334083 0.596456 2.147168 0.030244 -0.021210 218073.000000 0 0 1
-23.919401 -15.551899 -20.050985 34.871784 0.576501 2.183390 0.027664 -0.015351 -30444.600000 0 0 1
-24.444401 -16.378699 -21.048585 36.177803 0.590334 2.191748 0.021954 -0.025644 869008.000000 0 0 1
-25.865161 -16.571199 -21.076385 37.253526 0.569793 2.172145 0.030750 -0.029559 525123.000000 0 0 1
-26.443611 -17.754799 -21.993285 38.706615 0.591287 2.175119 0.034330 -0.026694 110112.000000 0 0 1
-25.927811 -17.743999 -23.353385 39.146922 0.600153 2.210001 0.024170 -0.013174 78430.000000 0 0 1
-26.450551 -18.757799 -24.193485 40.457526 0.616850 2.211796 0.021761 -0.011334 -735745.000000 0 0 1
-25.604721 -19.038499 -25.471585 40.827293 0.639363 2.244502 0.020105 -0.006984 759394.000000 0 0 1
-24.310201 -19.602399 -25.220865 40.141400 0.678598 2.250163 0.018867 -0.009490 373063.000000 0 0 1
-24.190201 -20.977499 -24.928485 40.578944 0.714389 2.232321 0.022373 -0.005914 8397.630000 0 0 1
-22.688501 -21.392199 -24.886385 39.896446 0.755999 2.244359 0.020822 0.007066 574142.000000 0 0 1
-22.157701 -21.385199 -26.188845 40.424573 0.767659 2.275548 0.029781 0.002122 -153032.000000 0 0 1
-20.797701 -21.752699 -26.269725 39.947750 0.807838 2.288428 0.027571 0.001043 -70968.700000 0 0 1
-20.278401 -21.572299 -27.701455 40.545632 0.816305 2.322955 0.029607 -0.000043 -417074.000000 0 0 1
-20.671101 -22.501399 -28.667775 41.898075 0.827768 2.324339 0.066051 -0.000284 -118646.000000 0 0 1
-20.714101 -21.919999 -29.953395 42.506073 0.813675 2.352776 0.055922 -0.008855 145273.000000 0 0 1
-19.522601 -22.379799 -30.830655 42.807904 0.853480 2.374900 0.056834 -0.014936 439314.000000 0 0 1
-19.907901 -23.537499 -31.567575 44.123125 0.868749 2.368054 0.063031 -0.017696 -215005.000000 0 0 1
-18.874301 -23.915499 -32.437765 44.501674 0.902671 2.387526 0.062842 -0.023260 -356419.000000 0 0 1
-19.211401 -24.565899 -33.818215 46.002533 0.907106 2.396667 0.066783 -0.013820 798536.000000 0 0 1
-18.005101 -24.855199 34.225906 45.971483 0.943882 0.731006 0.065161 -0.017727 791414.000000 0 0 1
-18.364001 -25.213189 32.902271 45.337632 0.941296 0.758721 0.086894 -0.023105 58844.500000 0 0 1
-17.426501 -24.864699 31.656842 43.864471 0.959498 0.764546 0.088521 -0.018379 151398.000000 0 0 1
-17.071301 -23.510099 31.536842 42.880374 0.942750 0.744450 0.059993 -0.008833 50999.300000 0 0 1
-16.187201 -23.338099 30.448182 41.638734 0.964382 0.750649 0.071926 -0.010323 145197.000000 0 0 1
-15.478001 -21.935399 30.397702 40.555524 0.956310 0.723440 0.038194 -0.003873 131861.000000 0 0 1
-16.321001 -20.841499 30.021342 40.025294 0.906445 0.722645 0.039895 -0.000922 -23485.800000 0 0 1
-15.683601 -19.621999 29.927572 39.072468 0.896491 0.698278 0.035879 -0.002256 -268321.000000 0 0 1
-15.174001 -18.974099 31.264172 39.594383 0.896225 0.660621 0.032696 -0.002853 -61822.900000 0 0 1
-14.744201 -17.663999 31.037132 38.635630 0.875250 0.637932 0.029424 0.002763 -95548.600000 0 0 1
-14.028401 -17.174599 32.162732 39.066664 0.885889 0.603634 0.039632 -0.005650 143106.000000 0 0 1
-13.345001 -15.798999 31.994872 38.096841 0.869403 0.573826 0.041403 -0.009723 350728.000000 0 0 1
-12.455901 -15.790199 30.845432 36.822826 0.902899 0.577790 0.050867 -0.018157 375868.000000 0 0 1
-12.137401 -14.505599 30.388712 35.793892 0.874052 0.556722 0.051598 -0.017784 1038360.000000 0 0 1
-10.623601 -14.227599 30.747222 35.506016 0.929417 0.523705 0.059583 -0.026570 873892.000000 0 0 1
-10.193301 -12.957099 30.393512 34.576804 0.904220 0.497005 0.056279 -0.020619 -214516.000000 0 0 1
-8.843501 -12.732799 30.734422 34.422905 0.963741 0.467166 0.045751 -0.019315 90005.600000 0 0 1
-8.380501 -11.281799 30.756102 33.814932 0.931897 0.428615 0.027446 -0.016873 -418557.000000 0 0 1
-9.052001 -10.488399 31.706362 34.601136 0.858775 0.411958 0.030037 -0.014154 -27290.000000 0 0 1
-8.725501 -9.095799 31.644742 34.062555 0.806174 0.379045 0.016381 -0.010649 -351817.000000 0 0 1
-9.640101 -8.313999 32.598922 34.996340 0.711671 0.372294 -0.001256 -0.009622 13063.200000 0 0 1
-11.005601 -8.306199 32.201632 35.029435 0.646518 0.404565 0.003159 -0.011021 206837.000000 0 0 1
-11.865201 -7.769099 33.181781 36.085627 0.579728 0.403916 0.006688 -0.016003 -199920.000000 0 0 1
-11.782701 -6.298499 33.671589 36.225392 0.490908 0.377735 0.003855 -0.019775 -756562.000000 0 0 1
-11.968901 -5.380599 32.657082 35.195034 0.422478 0.382086 0.002338 -0.013532 218589.000000 0 0 1
-12.193301 -4.035599 33.055100 35.462689 0.319621 0.370603 0.008340 -0.015511 -499872.000000 0 0 1
-11.731301 -2.952799 32.081032 34.286077 0.246580 0.360596 0.008083 -0.004773 -183248.000000 0 0 1
-10.328401 -2.830099 32.137752 33.875071 0.267447 0.321654 0.010618 -0.016341 -195154.000000 0 0 1
-9.936501 -1.743299 31.347002 32.930346 0.173676 0.311358 0.006906 -0.012036 -227399.000000 0 0 1
-8.436201 -1.421399 31.450442 32.593253 0.166920 0.265592 0.013731 -0.014249 -153071.000000 0 0 1
-8.035901 -1.090899 32.771538 33.760028 0.134928 0.242586 0.026271 -0.027149 -1434760.000000 0 0 1
-6.760901 -0.616799 32.800193 33.495416 0.090978 0.204098 0.041644 -0.035724 -1366770.000000 0 0 1
-6.419801 -0.116399 34.245170 34.841915 0.018129 0.185345 0.055886 -0.046294 -36428.100000 0 0 1
-7.018001 1.145201 -34.162822 34.895017 -0.161755 2.936378 0.050656 -0.026104 299846.000000 0 0 1
-6.489201 2.285901 33.935294 34.625702 -0.338689 0.200029 0.051268 -0.015253 -32977.200000 0 0 1
-7.379401 3.519501 34.134027 35.099491 -0.445027 0.235089 0.055739 -0.010557 -734766.000000 0 0 1
-8.616201 3.501901 33.528994 34.795052 -0.386039 0.270588 0.030456 -0.007375 -711784.000000 0 0 1
-9.392801 4.659601 33.713187 35.306028 -0.460508 0.301525 0.012664 0.016750 862402.000000 0 0 1
-10.785601 4.653101 32.959825 34.990436 -0.407294 0.342355 -0.003211 0.014909 685574.000000 0 0 1
-11.342001 5.928301 33.067154 35.457332 -0.481631 0.369273 0.000143 0.020553 -309275.000000 0 0 1
-12.290801 6.210401 32.069862 34.901417 -0.467869 0.405590 -0.012678 0.023667 -149669.000000 0 0 1
-12.866301 7.636101 32.218242 35.522765 -0.535624 0.434752 0.009947 0.015818 469445.000000 0 0 1
-13.931401 7.683001 33.185055 36.801635 -0.503985 0.447047 0.006421 0.016937 608520.000000 0 0 1
-14.438401 9.002201 33.270025 37.368457 -0.557513 0.472741 0.014777 0.012427 96664.100000 0 0 1
-15.400401 9.366401 -34.379867 38.818515 -0.546421 2.658702 0.018988 0.009906 413757.000000 0 0 1
-14.658201 9.334901 -33.182075 37.457354 -0.567067 2.659147 0.027512 -0.000570 785781.000000 0 0 1
-15.528601 9.892001 -32.144435 37.043945 -0.567195 2.621429 0.039010 -0.000718 -60699.200000 0 0 1
-14.875501 10.282101 -30.777375 35.696624 -0.604803 2.610379 0.062941 -0.009497 243543.000000 0 0 1
-14.086901 11.464401 -30.786395 35.744585 -0.683120 2.608596 0.062502 -0.010290 100428.000000 0 0 1
-12.839601 11.348401 -31.437785 35.804691 -0.723826 2.642538 0.063545 -0.012207 17405.100000 0 0 1
-11.885601 12.612501 -31.347825 35.819392 -0.815061 2.636570 0.062617 -0.010777 467831.000000 0 0 1
-12.189801 13.660701 -32.278785 37.109648 -0.842237 2.625638 0.063516 -0.013451 485027.000000 0 0 1
-11.288601 14.800301 -32.245075 37.232060 -0.919199 2.618056 0.054626 -0.017877 318599.000000 0 0 1
-11.566001 15.846601 -31.147625 36.811163 -0.940302 2.579508 0.069940 -0.016667 244921.000000 0 0 1
-12.830501 16.436901 -31.425495 37.714125 -0.908003 2.555766 0.067374 -0.017468 409424.000000 0 0 1
-13.169801 17.379801 -30.384055 37.399090 -0.922344 2.519100 0.052986 -0.013457 -346900.000000 0 0 1
-14.590601 17.939701 -30.514925 38.286801 -0.887990 2.493123 0.041088 -0.014861 -533859.000000 0 0 1
-14.755901 18.747501 -31.659785 39.642747 -0.903979 2.495807 0.041762 -0.017624 1152340.000000 0 0 1
-16.057501 19.350201 -31.930275 40.642540 -0.878125 2.474521 0.036688 -0.012894 1283560.000000 0 0 1
-16.458701 20.467601 -30.996455 40.627475 -0.893540 2.438650 0.005969 -0.013823 -480034.000000 0 0 1
-15.771101 21.670901 -31.279295 41.191624 -0.941685 2.433126 0.009540 -0.008854 -61810.500000 0 0 1
-16.210001 22.851801 -30.642705 41.520408 -0.953821 2.400921 -0.003771 -0.008332 -155599.000000 0 0 1
-17.512801 23.516701 -31.179965 42.800977 -0.930698 2.386907 -0.010745 -0.005573 70743.100000 0 0 1
-18.593101 22.818301 -30.625505 42.477050 -0.887076 2.376025 -0.001579 -0.007790 42306.400000 0 0 1
-19.770401 22.866501 -31.420425 43.600329 -0.857886 2.375531 0.023949 -0.011880 -478091.000000 0 0 1
-20.985801 22.015601 -31.080045 43.486317 -0.809342 2.367004 0.024535 -0.020142 -180724.000000 0 0 1
-21.988901 22.663301 -30.247505 43.726977 -0.800500 2.334686 0.063100 -0.021147 903364.000000 0 0 1
-22.897301 23.537601 -30.875285 45.073144 -0.799186 2.325406 0.060347 -0.020651 -629599.000000 0 0 1
-24.024901 22.846501 -31.650125 45.835454 -0.760262 2.332999 0.063496 -0.034830 -984339.000000 0 0 1
-23.592901 22.005501 -32.674725 45.918457 -0.750600 2.362543 0.058545 -0.031654 177462.000000 0 0 1
-24.771801 21.698801 -33.404435 46.907743 -0.719366 2.363325 0.069892 -0.032486 377653.000000 0 0 1
-24.553601 20.789701 34.159101 46.924782 -0.702579 0.755463 0.060958 -0.020312 -83566.700000 0 0 1
-24.416201 19.430001 -34.226923 46.315851 -0.672164 2.402365 0.061841 -0.015658 184201.000000 0 0 1
-24.203401 18.592601 33.415708 45.255927 -0.655036 0.740143 0.053870 -0.019579 -269828.000000 0 0 1
-24.099001 17.086701 33.678315 44.798952 -0.616755 0.720061 0.016069 -0.003622 -500915.000000 0 0 1
-25.254051 16.327401 33.925483 45.335301 -0.573929 0.725265 0.008593 0.002993 -35738.400000 0 0 1
-25.479881 15.456301 32.855432 44.357648 -0.545264 0.736694 0.017233 0.000560 -216982.000000 0 0 1
-26.406591 14.236901 33.115171 44.683464 -0.494469 0.736081 -0.006789 0.006141 -160703.000000 0 0 1
-27.667161 14.562001 33.628133 45.917044 -0.484487 0.749004 -0.003972 0.006502 3076.530000 0 0 1
-28.711391 13.577401 33.604571 46.238047 -0.441727 0.757184 0.004636 0.001654 225947.000000 0 0 1
-28.515261 12.190301 34.329600 46.262782 -0.403987 0.734663 0.004969 0.003595 -1381450.000000 0 0 1
-27.462861 11.440101 33.901741 45.104464 -0.394706 0.720271 0.007042 -0.003594 -974401.000000 0 0 1
-27.685911 10.079701 34.236487 45.169094 -0.349157 0.710612 0.006400 0.003441 -618368.000000 0 0 1
-26.369541 9.382301 -34.195732 44.189686 -0.341833 2.455677 0.007362 -0.004016 458735.000000 0 0 1
-25.336211 9.030501 33.649609 43.078645 -0.342389 0.674338 0.007446 -0.003776 832763.000000 0 0 1
-24.735001 10.166901 33.046868 42.512135 -0.389981 0.680352 0.009200 -0.010501 -1407210.000000 0 0 1
-23.371901 9.841601 32.461382 41.192769 -0.398552 0.663184 0.005111 -0.005860 -693373.000000 0 0 1
-23.420301 9.311101 31.143682 40.064149 -0.378406 0.680361 -0.001305 -0.006150 -57357.700000 0 0 1
-22.115501 9.298001 30.608632 38.890057 -0.397993 0.664775 0.003298 -0.008997 131614.000000 0 0 1
-22.059501 9.149901 29.079952 37.629588 -0.393185 0.687563 0.014235 -0.010081 142166.000000 0 0 1
-22.648801 10.318101 28.447762 37.798235 -0.427476 0.718762 -0.006012 -0.000496 371962.000000 0 0 1
-22.582401 10.157901 27.028942 36.656670 -0.422700 0.741651 -0.001924 0.002054 -436667.000000 0 0 1
-23.022101 11.460801 26.248932 36.747429 -0.461900 0.775163 -0.008729 0.003174 856448.000000 0 0 1
-24.369401 11.882501 26.453042 37.879083 -0.453678 0.797700 -0.021553 0.003748 401826.000000 0 0 1
-25.381701 11.273501 25.659862 37.812049 -0.417986 0.824920 -0.010647 0.009088 68657.900000 0 0 1
-26.683301 12.079101 25.847182 39.063794 -0.425084 0.847758 -0.005643 0.002791 -453551.000000 0 0 1
-26.678931 13.389001 25.330212 39.149078 -0.465132 0.867128 -0.005977 0.005078 739879.000000 0 0 1
-27.917621 14.101501 25.596822 40.415878 -0.467728 0.884940 -0.008937 -0.002255 856373.000000 0 0 1
-27.985501 15.372301 24.741642 40.393623 -0.502302 0.911560 -0.004945 -0.006995 -412092.000000 0 0 1
-27.126281 16.402901 25.134062 40.455053 -0.543858 0.900417 -0.000541 -0.004480 -321797.000000 0 0 1
-27.220731 17.603501 24.427482 40.590064 -0.574048 0.925032 -0.001660 -0.007527 -688095.000000 0 0 1
-22.234501 -9.513299 31.894432 40.026625 0.404292 0.648765 0.030543 0.004879 -323553.000000 0 0 1
-21.308301 -9.177899 30.906842 38.645962 0.406705 0.643929 0.028940 0.000482 -426035.000000 0 0 1
-21.843401 -9.401799 29.644312 38.004121 0.406451 0.676084 0.034674 0.002607 -352368.000000 0 0 1
-20.934101 -9.227899 28.402212 36.470212 0.415183 0.678080 0.029785 -0.006709 -830379.000000 0 0 1
-20.583801 -7.895599 28.070222 35.692726 0.366274 0.665771 0.031907 -0.011161 -105511.000000 0 0 1
-19.484101 -7.333099 28.759152 35.503427 0.359965 0.626578 0.030215 -0.017561 -395072.000000 0 0 1
-18.124701 -7.696799 28.128042 34.335583 0.401581 0.610765 0.035566 -0.011571 -876871.000000 0 0 1
-17.528401 -8.956999 28.151812 34.351087 0.472408 0.610203 0.034653 -0.009135 -31128.900000 0 0 1
-17.268101 -9.530799 29.404522 35.406911 0.504324 0.590838 0.035228 -0.005979 -659103.000000 0 0 1
-15.992701 -9.027099 30.140472 35.294519 0.513870 0.547228 0.042002 -0.009789 -10722.300000 0 0 1
-14.831801 -9.630799 29.602822 34.482774 0.575907 0.538495 0.034588 -0.013570 -1689590.000000 0 0 1
-13.699701 -9.161599 30.168552 34.376711 0.589440 0.499991 0.015816 -0.011191 -20556.300000 0 0 1
-12.367201 -9.905899 29.738532 33.696510 0.675339 0.489559 0.021505 -0.015022 952818.000000 0 0 1
-11.946801 -9.632799 28.406352 32.286804 0.678575 0.495328 0.045700 -0.016609 227784.000000 0 0 1
-10.836501 -10.474199 28.073722 31.863341 0.768399 0.492684 0.037921 -0.017035 583452.000000 0 0 1
-10.175401 -10.266299 26.663352 30.329359 0.789845 0.496769 0.030140 -0.022976 194021.000000 0 0 1
-11.138101 -10.522099 25.682362 29.905778 0.756966 0.537921 0.036189 -0.023908 85104.900000 0 0 1
-10.568101 -10.174799 24.409342 28.478541 0.766440 0.541156 0.015755 -0.016326 -140872.000000 0 0 1
-11.379101 -10.551199 23.197062 27.909056 0.747665 0.589595 0.014213 -0.018654 -785718.000000 0 0 1
-11.472401 -11.939599 22.990662 28.332676 0.805351 0.624161 0.029808 -0.018731 704178.000000 0 0 1
-12.701601 -12.397299 22.412262 28.589040 0.773275 0.669800 0.027291 -0.013713 1307860.000000 0 0 1
-13.975301 -12.416299 23.325862 29.892631 0.726395 0.675617 0.032809 -0.012347 -317169.000000 0 0 1
-15.135801 -13.001099 22.828362 30.319221 0.709675 0.718288 0.026860 -0.002725 -1010240.000000 0 0 1
-16.115801 -12.728099 23.762042 31.406340 0.668484 0.712698 0.017876 0.001892 290726.000000 0 0 1
-17.497801 -13.459899 23.462962 32.215718 0.655698 0.754947 0.026328 -0.002215 592297.000000 0 0 1
-17.453201 -14.884499 23.459962 32.810553 0.706131 0.774154 0.030662 -0.002482 -820248.000000 0 0 1
-18.650601 -15.569599 23.311862 33.670465 0.695606 0.806051 0.032980 0.001028 -646760.000000 0 0 1
-19.380601 -15.718099 24.713962 35.120453 0.681426 0.790217 0.027440 -0.002525 -44586.700000 0 0 1
-18.862801 -16.706499 25.598332 35.919173 0.724850 0.777507 0.033927 0.001688 288270.000000 0 0 1
-19.745901 -16.877299 26.715442 37.262027 0.707230 0.771362 0.027658 -0.000981 82078.000000 0 0 1
-19.250301 -17.923999 27.671242 38.177761 0.749735 0.760052 0.033811 -0.003354 -126087.000000 0 0 1
-19.421101 -19.234199 27.236662 38.587165 0.780563 0.787177 0.043730 -0.000108 103394.000000 0 0 1
-19.065501 -20.150399 28.285122 39.617926 0.813056 0.775676 0.049381 -0.003338 -199100.000000 0 0 1
-19.285501 -21.654299 28.030402 40.330419 0.843194 0.802350 0.060264 -0.001149 916695.000000 0 0 1
-20.686801 -21.963999 27.912512 41.103155 0.815335 0.824282 0.068444 -0.005336 768205.000000 0 0 1
-20.866901 -23.243499 27.287152 41.476216 0.839225 0.852771 0.083411 0.003063 354931.000000 0 0 1
-22.320601 -23.771199 27.088032 42.391516 0.816860 0.877603 0.083375 -0.003395 17248.100000 0 0 1
-22.917001 -24.151599 28.275492 43.680569 0.811622 0.866728 0.079433 -0.001308 124244.000000 0 0 1
-24.162801 -24.764299 27.950242 44.478394 0.797691 0.891301 0.060628 -0.003941 154375.000000 0 0 1
-24.950601 -25.376339 29.109382 45.976594 0.793857 0.885200 0.025602 -0.014535 14528.200000 0 0 1
-25.688191 -24.582599 30.058622 46.558652 0.763409 0.868978 0.006752 0.000033 560719.000000 0 0 1
-26.237461 -25.372489 31.132902 47.973171 0.768640 0.864573 0.001134 0.003051 -471403.000000 0 0 1
-27.568241 -24.830999 31.586942 48.727008 0.733207 0.865522 -0.014739 0.004030 -1481680.000000 0 0 1
-28.601721 -24.747499 30.684302 48.703424 0.713278 0.889213 0.000699 0.002952 -862055.000000 0 0 1
-29.476281 -23.770099 31.133812 49.022270 0.678640 0.882664 0.000489 -0.004458 -738512.000000 0 0 1
-30.800151 -23.792499 30.339992 49.348226 0.657734 0.908646 0.005354 -0.007095 -612782.000000 0 0 1
-31.625291 -24.881899 30.583492 50.543228 0.666623 0.920910 0.014223 -0.011637 -876709.000000 0 0 1
-32.623161 -24.855899 29.630772 50.597124 0.651080 0.945150 0.019832 -0.015317 -1007820.000000 0 0 1
-33.725991 -25.853909 29.962182 51.996148 0.654033 0.956678 0.019453 -0.016484 -366985.000000 0 0 1
-33.413301 -27.245579 29.749612 52.381387 0.684068 0.966793 0.017946 -0.011901 -188741.000000 0 0 1
-34.383240 -28.017939 30.365352 53.751900 0.683744 0.970464 0.014049 -0.012089 -150475.000000 0 0 1
-33.754831 -29.415309 30.603112 54.232827 0.716810 0.971222 0.011199 -0.012517 78836.800000 0 0 1
-33.001591 -29.452119 31.805782 54.480640 0.728626 0.947395 0.014524 -0.012818 -266964.000000 0 0 1
-32.340311 -30.668849 31.934632 54.829689 0.758877 0.949077 0.010218 -0.023945 147286.000000 0 0 1
-31.392471 -30.723599 33.185172 55.051634 0.774630 0.923790 0.003021 -0.018019 26525.300000 0 0 1
-32.094561 -30.611049 -34.387705 56.121399 0.761744 2.230317 -0.001930 -0.005351 -155996.000000 0 0 1
-31.199101 -30.614049 -33.291715 54.944902 0.775934 2.221707 0.004880 -0.016437 -38479.900000 0 0 1
-31.758701 -30.175749 -31.911045 54.198761 0.759845 2.200343 0.002760 -0.016043 -171725.000000 0 0 1
-31.942571 -28.799889 -31.582685 53.359418 0.733706 2.204193 -0.007430 -0.008221 859988.000000 0 0 1
-30.705471 -28.062159 -31.391325 52.112628 0.740449 2.217269 0.004074 -0.005809 438646.000000 0 0 1
-30.916201 -26.529939 -31.302825 51.376220 0.709192 2.225956 -0.001734 0.006154 190858.000000 0 0 1
-31.705741 -26.059559 -30.175515 50.940321 0.687964 2.204794 -0.013376 0.000306 341234.000000 0 0 1
-31.703131 -24.623799 -29.992355 50.109494 0.660371 2.212469 0.008470 -0.000841 -87649.100000 0 0 1
-30.415821 -24.100299 -29.317405 48.635962 0.670065 2.217793 0.016461 -0.005599 -74900.500000 0 0 1
-30.428001 -22.712199 -29.112165 47.845850 0.641209 2.224912 0.016275 -0.003032 -7439.370000 0 0 1
-29.180641 -22.341699 -28.560295 46.544084 0.653432 2.231431 0.030700 -0.004794 -5390.340000 0 0 1
-28.860241 -20.823999 -28.591995 45.651447 0.625041 2.247608 0.034013 -0.012767 -179134.000000 0 0 1
-28.551281 -20.572699 -29.911945 46.185886 0.624387 2.275283 0.044367 -0.008191 79759.900000 0 0 1
-27.837881 -19.385299 -30.012595 45.293414 0.608282 2.295116 0.028405 -0.015677 -374797.000000 0 0 1
-27.464401 -19.105199 -31.515925 45.962544 0.607790 2.326344 0.043129 -0.009011 368680.000000 0 0 1
-28.549761 -18.825499 -32.396855 47.106735 0.582950 2.329158 0.043420 -0.020443 569639.000000 0 0 1
-29.192131 -17.574199 -32.247895 46.914387 0.541902 2.328668 0.041725 -0.019598 -645641.000000 0 0 1
-29.700621 -16.862599 -33.516215 47.851968 0.516370 2.346774 0.044221 -0.021565 644394.000000 0 0 1
-30.855501 -17.300899 -34.237676 49.230088 0.511026 2.339860 0.044752 -0.024875 -172028.000000 0 0 1
-32.079391 -17.128699 -33.628815 49.531574 0.490435 2.317110 0.045780 -0.019876 -1252020.000000 0 0 1
-33.169711 -17.554599 34.154419 50.743650 0.486762 0.832434 0.044332 -0.025546 -387910.000000 0 0 1
-33.342621 -18.913199 34.042017 51.266933 0.515981 0.844620 0.027888 -0.019389 -36509.600000 0 0 1
-34.226456 -19.245899 32.993482 51.287667 0.512246 0.871992 0.029208 -0.012383 -85344.300000 0 0 1
-34.754319 -20.691799 33.177738 52.314200 0.537011 0.883821 0.015151 -0.016613 -47331.900000 0 0 1
-33.718201 -21.619799 33.006068 51.901188 0.570157 0.881570 0.022156 -0.012855 -264589.000000 0 0 1
-34.225415 -22.843799 33.384840 52.988355 0.588546 0.889190 0.016391 -0.007503 -1430120.000000 0 0 1
-33.246121 -23.997299 33.661487 53.049700 0.625212 0.883399 0.016309 -0.006622 -592828.000000 0 0 1
-32.276851 -23.831299 -34.147378 52.685571 0.635997 2.275930 0.002667 -0.014630 -190138.000000 0 0 1
-31.356261 -22.791699 -34.360612 51.800853 0.628528 2.296045 0.016477 -0.017943 -1540460.000000 0 0 1
-30.065081 -22.870299 -33.521735 50.504123 0.650310 2.296608 0.016144 -0.014967 267926.000000 0 0 1
-29.191911 -23.965899 -33.887865 50.743664 0.687402 2.302079 0.011428 -0.013535 2098580.000000 0 0 1
-27.811171 -23.935399 -33.408095 49.623234 0.710639 2.309371 0.026954 -0.015425 1812050.000000 0 0 1
-27.555871 -24.134099 -31.879125 48.559854 0.719297 2.286954 0.034985 -0.005872 -447443.000000 0 0 1
-27.808771 -25.477509 -31.604955 49.206752 0.741676 2.268277 0.029795 -0.009534 228500.000000 0 0 1
-27.175581 -25.764279 -30.332695 48.191106 0.758746 2.251610 0.033144 -0.014384 142992.000000 0 0 1
-26.773071 -27.241729 -30.255615 48.726906 0.794074 2.240715 0.034850 -0.012223 -364762.000000 0 0 1
-27.858331 -28.104129 -30.204665 49.782030 0.789790 2.222747 0.023562 -0.001385 -414332.000000 0 0 1
-27.423511 -29.345089 -29.634905 49.914034 0.819235 2.206469 0.029605 -0.004903 80800.300000 0 0 1
-28.199261 -30.571979 -30.128455 51.357259 0.825748 2.197706 0.021044 0.006041 -329445.000000 0 0 1
-27.872441 -30.917899 -31.478295 52.188816 0.837154 2.218255 0.029178 -0.012949 426157.000000 0 0 1
-28.174051 -32.301369 -31.669685 53.292819 0.853540 2.207139 0.036173 -0.002172 -434722.000000 0 0 1
-27.842971 -32.776449 -33.089435 54.262670 0.866604 2.226606 0.021967 -0.018062 172586.000000 0 0 1
-26.447091 -32.812239 -33.352575 53.744636 0.892400 2.240272 0.021654 -0.019140 98961.900000 0 0 1
-26.154361 -33.479719 34.253234 54.573127 0.907624 0.892256 0.023846 -0.021672 267405.000000 0 0 1
-24.616601 -33.557159 34.003383 53.742814 0.937892 0.885754 0.033228 -0.027549 485864.000000 0 0 1
-24.359501 -34.224105 32.806951 53.300757 0.952218 0.907768 0.032382 -0.015244 -835678.000000 0 0 1
-23.290401 33.788956 32.836505 52.558276 -0.967294 0.895967 0.026809 -0.009262 -1069610.000000 0 0 1
-23.234401 32.851641 31.619532 51.174823 -0.955220 0.904762 0.036632 -0.011514 -532262.000000 0 0 1
-24.336301 31.997551 31.528532 51.089599 -0.920566 0.905716 0.033996 -0.028934 -273355.000000 0 0 1
-24.222401 31.168811 30.422492 49.837210 -0.910153 0.914184 0.030655 -0.018039 16810.900000 0 0 1
-25.645041 30.720421 30.008462 50.019198 -0.875200 0.927372 0.032084 -0.016431 -7559.860000 0 0 1
-26.140811 29.709571 30.860352 50.183283 -0.849210 0.908470 0.042780 -0.020305 -14885.000000 0 0 1
-27.331161 29.130501 30.386032 50.188538 -0.817256 0.920481 0.038482 -0.025009 -268699.000000 0 0 1
-27.739941 27.986191 31.296642 50.321079 -0.789817 0.899580 0.038096 -0.039650 -92763.900000 0 0 1
-26.810941 26.886701 31.393712 49.267498 -0.786809 0.879924 0.039747 -0.034615 146931.000000 0 0 1
-27.240831 25.725561 32.040152 49.299480 -0.756798 0.863332 0.030787 -0.024829 -89366.500000 0 0 1
-28.451311 25.075621 31.345642 49.201759 -0.722416 0.880087 0.028323 -0.020127 35822.400000 0 0 1
-28.102391 24.620241 30.053862 47.949299 -0.719447 0.893377 0.022024 -0.012184 -56605.800000 0 0 1
-29.156881 23.896591 29.454462 47.840737 -0.686570 0.907551 0.014878 0.004399 241729.000000 0 0 1
-28.714231 23.641571 27.960002 46.531631 -0.688811 0.926193 0.013624 -0.015775 115026.000000 0 0 1
-27.443161 23.039371 27.883952 45.403243 -0.698384 0.909500 0.003543 -0.011952 -272478.000000 0 0 1
-26.973031 23.016171 26.567202 44.306938 -0.706409 0.927774 -0.000798 -0.009958 -426089.000000 0 0 1
-25.647461 22.290071 26.378782 43.017202 -0.715476 0.910672 0.008022 -0.009183 -323373.000000 0 0 1
-25.824291 21.024071 26.930812 42.827260 -0.683292 0.890756 0.003756 -0.012047 -234872.000000 0 0 1
-24.600401 20.421771 27.181572 41.965061 -0.692851 0.866209 0.008226 -0.005493 -588371.000000 0 0 1
-24.802101 19.247371 28.121762 42.147823 -0.659958 0.840330 0.008441 -0.002909 -822578.000000 0 0 1
-23.682101 18.487271 28.367362 41.319830 -0.662826 0.814088 0.007630 0.008446 -551877.000000 0 0 1
-23.888501 17.571571 29.394422 41.754672 -0.634199 0.789811 -0.001210 0.008735 726960.000000 0 0 1
-22.633301 16.650871 29.666272 40.860806 -0.634273 0.758262 -0.003202 0.003451 952087.000000 0 0 1
-21.491201 17.209471 30.309232 40.947370 -0.675209 0.737429 0.022154 -0.000980 596624.000000 0 0 1
-20.415601 16.270671 30.288872 39.986839 -0.672892 0.711366 0.020793 0.001009 -6647.420000 0 0 1
-19.220401 16.777971 31.094332 40.221656 -0.717654 0.687123 0.025491 -0.008353 -599971.000000 0 0 1
-19.405701 16.755271 32.503462 41.398012 -0.712234 0.667865 0.027519 -0.015123 330817.000000 0 0 1
-18.274201 17.155371 33.259530 41.646723 -0.753830 0.645813 0.034624 -0.016660 -521617.000000 0 0 1
-18.386701 16.877071 -34.030145 42.201387 -0.742615 2.508793 0.029740 -0.013636 -219731.000000 0 0 1
-19.370701 17.579371 -33.336315 42.374146 -0.736956 2.476263 0.028401 -0.011540 388159.000000 0 0 1
-20.687601 17.013171 -33.418365 42.827701 -0.688242 2.465938 0.030152 -0.003643 532853.000000 0 0 1
-21.665201 17.922071 -32.556865 43.017799 -0.691125 2.429235 0.041922 -0.008190 126285.000000 0 0 1
-21.711401 17.505971 -31.157475 41.816650 -0.678573 2.411477 0.029459 -0.006624 268203.000000 0 0 1
-22.610901 18.302971 -30.402485 42.078055 -0.680492 2.378245 0.021119 -0.008564 -199842.000000 0 0 1
-22.791301 18.030771 -28.876965 40.968661 -0.669306 2.353015 0.024559 -0.012526 272126.000000 0 0 1
-23.356301 16.832771 -28.372745 40.421178 -0.624481 2.348897 0.000620 -0.009482 322992.000000 0 0 1
-24.626701 16.414371 -28.869285 41.344185 -0.587906 2.343770 0.016190 -0.012628 273511.000000 0 0 1
-25.270101 15.300371 -28.035845 40.726993 -0.544434 2.330056 0.022610 -0.008129 -292924.000000 0 0 1
-24.758101 13.998771 -28.230955 40.073881 -0.514606 2.352476 -0.004355 -0.000822 -52386.200000 0 0 1
-25.669491 13.081771 -27.667955 39.944602 -0.471317 2.335964 -0.017607 -0.001160 -105418.000000 0 0 1
-25.218861 11.600471 -27.846075 39.318771 -0.431132 2.357761 -0.003180 -0.002879 566275.000000 0 0 1
-24.181701 11.280471 -26.909355 37.896135 -0.436480 2.360411 -0.003131 -0.004347 538437.000000 0 0 1
-23.233701 10.353171 -27.442505 37.417698 -0.419197 2.394121 -0.005034 0.001407 423557.000000 0 0 1
-22.278801 9.745971 -26.377535 35.876222 -0.412373 2.396813 0.024260 -0.003328 -105639.000000 0 0 1
-22.875201 8.816271 -25.533855 35.397446 -0.367864 2.376542 0.029046 -0.004760 470238.000000 0 0 1
-21.924701 8.219671 -24.591885 33.956094 -0.358687 2.380708 0.056442 0.004273 721589.000000 0 0 1
-22.526201 7.062071 -23.676285 33.434549 -0.303800 2.357654 0.056069 0.000024 256471.000000 0 0 1
-22.984301 5.926971 -24.404285 34.043740 -0.252372 2.370071 0.049047 -0.009212 239227.000000 0 0 1
-23.357001 4.863771 -23.578385 33.543196 -0.205302 2.350299 0.051739 -0.009706 -194517.000000 0 0 1
34.010794 25.450901 -10.426285 43.740026 0.642424 1.811483 0.002320 0.000065 -294393.000000 0 0 1
34.692084 24.604001 -9.553385 43.590879 0.616881 1.791750 0.006042 -0.001806 147960.000000 0 0 1
-35.528153 23.833801 -10.272185 43.997926 -0.590888 1.806441 0.001016 -0.003484 713979.000000 0 0 1
-34.393089 23.257201 -9.343685 42.556861 -0.594585 1.792157 0.013537 -0.004274 263384.000000 0 0 1
-34.838127 22.318001 -8.400185 42.217903 -0.569753 1.771105 0.004861 -0.004383 113006.000000 0 0 1
-33.738801 21.856601 -7.614985 40.914615 -0.574840 1.758007 0.019755 0.002689 -3882.200000 0 0 1
-34.161692 20.724701 -6.600785 40.498207 -0.545306 1.734516 0.019471 0.012793 -39357.500000 0 0 1
-34.592322 19.526401 -7.174285 40.365572 -0.513886 1.749478 0.020075 0.001060 241626.000000 0 0 1
-34.812888 18.517501 -6.150585 39.908203 -0.488853 1.725531 0.015041 -0.013605 -242744.000000 0 0 1
-35.576284 17.365301 -6.803585 40.168575 -0.454094 1.740993 0.020570 0.003784 -668245.000000 0 0 1
34.305574 17.653801 -7.163785 39.240909 0.475263 1.754385 0.026650 -0.007459 -494443.000000 0 0 1
33.612674 16.542601 -7.709485 38.247950 0.457351 1.773753 0.043746 -0.000459 -89024.600000 0 0 1
32.361244 16.908101 -8.498285 37.488063 0.481469 1.799477 0.025971 -0.007277 -306277.000000 0 0 1
31.925214 15.864901 -9.364385 36.859274 0.461196 1.827670 0.042673 -0.012364 48448.700000 0 0 1
31.222434 16.264901 -10.534085 36.747168 0.480256 1.861539 0.052988 -0.010087 -242887.000000 0 0 1
30.639734 14.963201 -11.190385 35.887538 0.454292 1.887902 0.048166 -0.008187 439948.000000 0 0 1
29.461164 14.377301 -10.617185 34.458549 0.454009 1.884007 0.043263 -0.000240 794723.000000 0 0 1
29.589234 13.788101 -9.324385 33.949649 0.436066 1.849026 0.034685 -0.002279 -848969.000000 0 0 1
28.468204 12.768901 -9.044985 32.485308 0.421632 1.852959 0.034592 0.005242 -52245.800000 0 0 1
28.575424 11.626101 -9.939085 32.411518 0.386403 1.882471 0.046024 0.001781 200385.000000 0 0 1
27.636144 10.638001 -9.646785 31.144566 0.367448 1.885718 0.050479 -0.003702 -682791.000000 0 0 1
28.040514 9.301401 -10.250085 31.270605 0.320291 1.904756 0.055628 -0.004233 -817188.000000 0 0 1
29.170904 8.805901 -9.620985 31.953856 0.293174 1.876632 0.046997 -0.001266 -271733.000000 0 0 1
29.306414 7.436701 -9.841285 31.796562 0.248511 1.885472 0.042901 -0.006748 452863.000000 0 0 1
30.455894 6.703901 -9.013785 32.461548 0.216663 1.852170 0.048197 -0.011334 -155892.000000 0 0 1
31.732284 7.082601 -9.374785 33.837667 0.219599 1.851521 0.040766 -0.006028 -366644.000000 0 0 1
32.679074 6.566201 -8.418385 34.378861 0.198289 1.818183 0.045350 -0.006502 709446.000000 0 0 1
34.162494 6.894801 -8.753585 35.933822 0.199148 1.816875 0.047507 -0.001561 382812.000000 0 0 1
34.637034 6.101201 -9.828085 36.517668 0.174358 1.843288 0.045728 -0.005710 66466.900000 0 0 1
-35.195869 6.300701 -10.126585 37.161751 -0.177142 1.846787 0.049328 -0.011489 -996370.000000 0 0 1
-34.613023 5.364801 -11.223485 36.780553 -0.153770 1.880889 0.046336 -0.014637 25813.400000 0 0 1
-33.226221 5.322501 -11.495585 35.559236 -0.158840 1.899990 0.058061 -0.019524 555012.000000 0 0 1
-32.670511 6.487901 -12.053985 35.422503 -0.196035 1.918023 0.038726 -0.011934 -695201.000000 0 0 1
-31.902261 7.385401 -11.075085 34.568134 -0.227493 1.896931 0.037114 -0.005979 -983641.000000 0 0 1
-32.778721 8.194601 -10.348785 35.336856 -0.244976 1.868014 0.046375 -0.005183 39260.300000 0 0 1
-33.099121 9.365801 -11.012085 36.118362 -0.275753 1.880618 0.051054 -0.000890 -563771.000000 0 0 1
-34.084482 10.194801 -10.218185 37.014824 -0.290634 1.850485 0.067667 -0.001163 -388581.000000 0 0 1
-33.534521 10.940101 -9.165885 36.445347 -0.315348 1.825023 0.034066 0.007348 -143150.000000 0 0 1
-34.488159 11.768601 -8.548085 37.429972 -0.328846 1.801205 0.043281 0.004768 -200127.000000 0 0 1
-33.862481 12.670301 -7.451485 36.915156 -0.358042 1.774047 0.044167 0.006561 255118.000000 0 0 1
-33.056471 13.687601 -8.030085 36.668283 -0.392574 1.791578 0.035675 0.004724 50960.500000 0 0 1
-32.491601 14.580901 -7.065085 36.307330 -0.421821 1.766637 0.037784 0.009025 383708.000000 0 0 1
-31.581041 15.689101 -7.709585 36.096367 -0.461075 1.786038 0.026570 0.005874 63963.500000 0 0 1
-32.285921 16.591101 -8.511285 37.283874 -0.474690 1.801110 0.014279 0.003746 -428302.000000 0 0 1
-31.510801 17.716201 -8.875185 37.223155 -0.512182 1.811547 0.022440 0.003345 -23746.500000 0 0 1
-32.128421 18.825701 -9.733085 38.488640 -0.530026 1.826454 0.004037 -0.000522 -74671.000000 0 0 1
-31.925071 18.474701 -11.066585 38.509661 -0.524603 1.862278 -0.002100 -0.000461 229381.000000 0 0 1
-32.924181 19.015601 -11.931585 39.849184 -0.523754 1.874880 -0.000458 -0.012642 -72550.400000 0 0 1
-32.560131 18.906901 -13.415885 39.970226 -0.526090 1.913088 -0.005430 0.002842 -301449.000000 0 0 1
-31.559331 19.830501 -13.711985 39.714716 -0.561009 1.923314 -0.008192 -0.000729 -113081.000000 0 0 1
-31.303231 19.982301 -15.122585 40.098344 -0.568139 1.957500 -0.015726 0.001641 -181863.000000 0 0 1
-30.550491 21.330101 -15.411885 40.321606 -0.609511 1.962998 -0.012810 0.005251 262681.000000 0 0 1
-29.153161 21.265401 -15.190485 39.151946 -0.630211 1.969244 -0.020588 0.005130 318195.000000 0 0 1
-28.494471 22.479301 -14.901485 39.234017 -0.667936 1.960388 -0.016015 0.002485 290464.000000 0 0 1
-27.816291 23.183601 -16.126485 39.639487 -0.694810 1.989776 -0.014984 0.003368 -470318.000000 0 0 1
-28.767441 23.761401 -16.990785 40.998251 -0.690384 1.998110 -0.010256 0.016161 111963.000000 0 0 1
-28.203111 24.602101 -17.970285 41.516382 -0.717309 2.018446 -0.010882 0.014705 -240644.000000 0 0 1
-27.402281 25.871001 -17.659185 41.617791 -0.756662 2.009005 -0.000433 0.012306 -37080.000000 0 0 1
-28.182231 26.967801 -17.293585 42.668120 -0.763381 1.988108 0.009873 0.009713 22917.600000 0 0 1
-27.424551 28.174201 -17.400985 42.996347 -0.798881 1.987456 0.008961 0.003485 382588.000000 0 0 1
-28.256821 29.427901 -16.990285 44.194107 -0.805697 1.965405 0.007442 0.001784 -187378.000000 0 0 1
-28.368041 29.817101 -15.622385 44.021179 -0.810297 1.933586 0.008487 -0.002008 752496.000000 0 0 1
-27.191341 29.849601 -14.775085 42.996172 -0.831967 1.921584 0.004163 0.003694 535953.000000 0 0 1
-27.456811 30.638401 -13.500485 43.299552 -0.840109 1.887876 0.007615 0.000738 -187386.000000 0 0 1
-27.329651 32.031701 -13.650885 44.263827 -0.864444 1.884305 0.022167 -0.003890 275245.000000 0 0 1
-27.879311 32.827401 -12.589185 44.870723 -0.866726 1.855180 0.013155 -0.008865 -9934.880000 0 0 1
-27.205581 34.194501 -12.557385 45.465321 -0.898736 1.850631 -0.001474 -0.007469 -37966.700000 0 0 1
-27.482491 -33.899069 -13.711385 45.743156 0.889556 1.875224 -0.000909 -0.021225 -237412.000000 0 0 1
-26.564691 -32.868669 -13.851185 44.473448 0.891071 1.887513 0.003171 -0.021912 -263994.000000 0 0 1
-26.909021 -32.096769 -15.142385 44.537510 0.873092 1.917704 0.004738 -0.022256 206234.000000 0 0 1
-26.434951 -32.868469 -16.222285 45.191874 0.893460 1.937955 -0.003279 -0.019779 62178.200000 0 0 1
-26.939041 -32.310969 -17.416485 45.530700 0.875816 1.963320 0.007010 -0.010857 284687.000000 0 0 1
-26.044501 -32.621769 -18.712785 45.745647 0.897045 1.992222 -0.002054 -0.007684 -100957.000000 0 0 1
-26.111411 -33.955269 -19.132085 46.912714 0.915249 1.990865 0.001241 0.002352 165140.000000 0 0 1
-25.481401 33.928001 -18.304285 46.211015 -0.926628 1.978064 -0.018168 -0.006957 -892628.000000 0 0 1
-25.546061 32.536101 -18.960785 45.505060 -0.905170 2.000580 -0.008981 -0.020186 171031.000000 0 0 1
-26.864441 32.052301 -19.198685 46.017797 -0.873226 2.001160 0.002555 -0.007549 315246.000000 0 0 1
-27.445601 32.495001 -20.456885 47.198202 -0.869440 2.019086 0.005666 0.001656 -876556.000000 0 0 1
-28.938471 32.317001 -20.619985 48.031317 -0.840497 2.014517 0.012742 0.001216 -742359.000000 0 0 1
-29.306851 30.942101 -20.458485 47.274250 -0.812533 2.018350 0.003186 -0.002973 281896.000000 0 0 1
-30.707631 30.843301 -20.654785 48.175595 -0.787602 2.013894 0.011370 0.001211 -127344.000000 0 0 1
-31.121201 29.390301 -20.832485 47.605791 -0.756801 2.023729 0.010854 -0.000055 -323123.000000 0 0 1
-32.425991 29.038301 -21.230085 48.429168 -0.730337 2.024585 0.015404 -0.001395 64997.900000 0 0 1
-32.356411 27.914401 -22.085585 48.103266 -0.711830 2.047810 0.011734 -0.000574 -795644.000000 0 0 1
-33.660111 27.233601 -22.405585 48.751229 -0.680251 2.048330 0.039388 -0.008064 -603135.000000 0 0 1
-34.680975 27.928001 -23.065085 50.147197 -0.677954 2.048733 0.025147 -0.000806 256303.000000 0 0 1
35.365221 27.122501 -23.329985 50.305240 0.654246 2.053040 0.035584 -0.003977 615160.000000 0 0 1
34.426504 27.726201 -24.402585 50.491708 0.678009 2.075215 0.042490 -0.011228 -508607.000000 0 0 1
34.962654 27.762301 -25.672165 51.499443 0.671106 2.092657 0.039182 -0.010400 -99557.000000 0 0 1
34.038094 28.111801 -26.714565 51.599740 0.690331 2.114988 0.042257 -0.016369 47634.800000 0 0 1
34.747054 28.442301 -28.043045 52.940860 0.685952 2.129049 0.025006 -0.015572 74213.300000 0 0 1
35.368322 27.312601 -28.609185 53.060172 0.657579 2.140264 0.017021 -0.006078 96029.300000 0 0 1
-34.991464 27.673901 -29.697585 53.592853 -0.669153 2.158118 0.001033 -0.005012 -840172.000000 0 0 1
-34.710150 26.460501 -30.630815 53.321660 -0.651344 2.182733 -0.012835 -0.004211 558807.000000 0 0 1
-33.729561 25.515601 -30.159995 51.945688 -0.647633 2.190270 -0.004933 -0.005151 1877770.000000 0 0 1
-32.353811 26.017201 -30.083355 51.270577 -0.677264 2.197844 -0.009044 0.003850 1409520.000000 0 0 1
-31.489481 25.082201 -29.157115 49.707560 -0.672619 2.197617 -0.014382 0.002864 -90008.600000 0 0 1
-31.262171 23.777701 -29.560865 49.158388 -0.650244 2.215972 0.002443 -0.006351 245961.000000 0 0 1
-31.740491 22.843001 -28.593315 48.444186 -0.623812 2.202143 -0.004006 -0.006791 17870.800000 0 0 1
-31.550891 21.424201 -29.141615 47.996759 -0.596517 2.223275 -0.015111 -0.006009 316302.000000 0 0 1
-30.200741 21.015401 -29.364225 47.074298 -0.607940 2.244372 0.023988 -0.006064 417405.000000 0 0 1
-30.115551 19.744301 -29.964975 46.847450 -0.580315 2.264812 0.013871 -0.007417 -83195.600000 0 0 1
-28.659921 19.270301 -30.134945 45.835035 -0.591946 2.288246 0.036943 -0.013111 -434057.000000 0 0 1
-27.893831 19.951801 -31.099965 46.296306 -0.620905 2.307377 0.043793 -0.015123 -163407.000000 0 0 1
-26.744611 19.221901 -31.476575 45.557990 -0.623180 2.333547 0.049925 -0.017767 -136872.000000 0 0 1
-26.881371 17.838501 -32.182075 45.568697 -0.585877 2.354958 0.036565 -0.012109 -625531.000000 0 0 1
-27.054811 16.720601 -31.325065 44.640800 -0.553569 2.348596 0.011688 -0.005559 65344.400000 0 0 1
-26.952691 15.455601 -32.013845 44.611763 -0.520657 2.371161 -0.007273 0.002228 7494.400000 0 0 1
-27.555511 14.270301 -31.212345 44.013159 -0.477845 2.359102 -0.006632 0.005728 1439030.000000 0 0 1
-29.001721 14.307601 -30.974655 44.779867 -0.458302 2.334650 -0.002406 0.002143 1743070.000000 0 0 1
-29.515331 12.987301 -30.810775 44.599648 -0.414523 2.333433 -0.001424 0.005513 -31939.200000 0 0 1
-29.176641 12.283401 -29.470455 43.251197 -0.398479 2.320441 -0.009418 -0.011185 -330773.000000 0 0 1
-29.714711 12.918601 -28.294785 43.016847 -0.410104 2.288638 -0.010239 -0.009874 343179.000000 0 0 1
-29.675121 12.014101 -27.258825 42.047532 -0.384684 2.276127 -0.004948 -0.002641 -55639.800000 0 0 1
-29.431261 12.739901 -25.905905 41.226449 -0.408517 2.250266 -0.012117 -0.010967 -16269.800000 0 0 1
-28.059191 12.952701 -25.673395 40.177281 -0.432475 2.263998 -0.017522 -0.014630 -383678.000000 0 0 1
-27.839361 13.528601 -24.373585 39.397014 -0.452346 2.237840 -0.012912 -0.011583 -174134.000000 0 0 1
-26.396201 13.885101 -23.994385 38.279054 -0.484251 2.248272 0.009474 -0.007464 -621285.000000 0 0 1
-25.743021 14.818001 -24.809885 38.701507 -0.522294 2.266671 0.018020 -0.007490 398860.000000 0 0 1
-24.356501 14.981301 -24.537085 37.679531 -0.551437 2.279967 0.019761 -0.017775 141172.000000 0 0 1
-23.930001 15.729901 -23.270685 36.899858 -0.581511 2.253179 0.025162 -0.013283 -1348200.000000 0 0 1
-24.461501 17.020701 -23.023785 37.658518 -0.607912 2.228604 0.038554 -0.010187 116909.000000 0 0 1
-24.585201 17.123101 -21.614885 36.943686 -0.608360 2.195771 0.040101 -0.002053 32992.500000 0 0 1
-26.023931 17.487201 -21.151285 37.820947 -0.591663 2.164275 0.029641 -0.003446 334937.000000 0 0 1
-26.928361 16.438301 -21.422285 38.134875 -0.548065 2.167297 0.032303 -0.005797 -297157.000000 0 0 1
-28.108161 16.480101 -20.684085 38.593961 -0.530293 2.136418 0.032209 -0.001834 -909579.000000 0 0 1
-28.960171 15.134601 -20.874985 38.775155 -0.481564 2.139286 0.011161 -0.006199 557766.000000 0 0 1
-29.699211 14.954201 -22.086985 39.918745 -0.466461 2.157115 -0.002455 -0.005989 517207.000000 0 0 1
-30.564591 16.030201 -22.410185 41.150674 -0.483031 2.146695 -0.002212 0.003671 -847048.000000 0 0 1
-31.066331 16.034101 -23.849185 42.320124 -0.476464 2.169464 -0.010065 -0.005158 144003.000000 0 0 1
-32.042711 15.039301 -24.173285 42.863313 -0.438830 2.169972 -0.003225 -0.007103 443073.000000 0 0 1
-32.580801 15.240301 -25.469755 44.073618 -0.437532 2.186939 0.006947 -0.010842 414752.000000 0 0 1
-33.829561 14.336501 -25.781445 44.884935 -0.400842 2.182655 0.002906 -0.008642 347818.000000 0 0 1
-33.695771 12.930501 -26.073605 44.524552 -0.366413 2.196417 0.003371 -0.006535 -68417.100000 0 0 1
-33.590921 12.194401 -24.875885 43.541509 -0.348232 2.178903 -0.002502 -0.009213 -154025.000000 0 0 1
-33.545751 10.739001 -25.304075 43.369802 -0.309821 2.193766 -0.005459 -0.013133 39518.400000 0 0 1
-34.843527 10.244801 -25.574445 44.419360 -0.285964 2.184317 -0.002955 -0.003846 51520.000000 0 0 1
-34.839469 9.055301 -26.317365 44.591376 -0.254288 2.202090 -0.004117 0.005003 831566.000000 0 0 1
34.951634 8.363001 -26.550925 44.682302 0.234858 2.207086 0.001042 0.000729 766106.000000 0 0 1
34.418204 7.640801 -25.463065 43.489796 0.218456 2.196287 -0.004379 0.004092 -178332.000000 0 0 1
33.386304 6.802501 -25.944165 42.825449 0.201000 2.221582 0.009424 0.006485 50462.800000 0 0 1
32.665624 5.906901 -24.890285 41.490490 0.178896 2.214177 0.005268 0.000162 70820.400000 0 0 1
33.516914 4.933901 -24.338585 41.714430 0.146157 2.193775 -0.001454 -0.003731 549946.000000 0 0 1
32.784944 4.084701 -23.421985 40.498478 0.123952 2.187492 0.002736 -0.009006 1034120.000000 0 0 1
33.835304 3.083901 -22.805485 40.919780 0.090893 2.161953 -0.009024 -0.012036 621005.000000 0 0 1
34.187094 2.041501 -23.641685 41.615555 0.059645 2.174988 -0.005548 -0.013268 -845508.000000 0 0 1
35.380408 1.506601 -23.197185 42.333823 0.042557 2.150718 0.010472 -0.005443 -693495.000000 0 0 1
-35.393151 0.306801 -24.072485 42.804834 -0.008668 2.168055 0.024523 -0.005299 -250607.000000 0 0 1
34.945944 -0.789799 -24.017285 42.410763 -0.022597 2.172808 0.015607 -0.015222 -256845.000000 0 0 1
35.447382 -1.866399 -24.796685 43.299838 -0.052604 2.180560 0.020610 -0.007319 167570.000000 0 0 1
-22.759401 29.825501 27.453702 46.489317 -0.918973 0.939071 0.018008 -0.003280 -143122.000000 0 0 1
-23.928201 30.003601 26.648482 46.721691 -0.897575 0.963844 0.003792 -0.003563 708315.000000 0 0 1
-23.919801 29.143101 25.559062 45.549345 -0.883518 0.975047 0.000850 0.006213 -554015.000000 0 0 1
-24.166501 27.643801 25.754582 44.849727 -0.852414 0.959119 0.005238 -0.003446 306904.000000 0 0 1
-25.490001 27.274801 26.178192 45.595533 -0.819211 0.959244 -0.002296 -0.005950 799752.000000 0 0 1
-25.674111 27.181901 27.591602 46.468400 -0.813917 0.935059 0.004914 -0.009143 -975887.000000 0 0 1
-25.137011 25.852701 28.327822 45.855174 -0.799433 0.904896 0.006479 -0.007812 -899161.000000 0 0 1
-23.779701 25.840301 28.513262 45.234958 -0.826902 0.888809 0.014721 -0.004604 -1416740.000000 0 0 1
-23.390701 26.452401 29.737052 46.164344 -0.846748 0.870877 0.011083 -0.014289 492861.000000 0 0 1
-21.917301 26.295301 30.232192 45.670520 -0.875956 0.847362 0.021919 -0.010711 737318.000000 0 0 1
-20.916601 26.884001 29.373052 44.978104 -0.909595 0.859188 0.027734 -0.014201 1659950.000000 0 0 1
-19.552701 26.704501 29.828822 44.555551 -0.938793 0.837295 0.027424 -0.023499 1473120.000000 0 0 1
-18.899701 25.267701 29.914812 43.480471 -0.928590 0.812059 0.037629 -0.015176 -497180.000000 0 0 1
-18.458401 24.827501 28.640122 42.158913 -0.931490 0.823937 0.043979 -0.014853 86775.700000 0 0 1
-19.438501 24.222901 27.787992 41.674653 -0.894542 0.840911 0.052341 -0.010830 203053.000000 0 0 1
-19.619901 22.688601 28.063922 41.076719 -0.857803 0.818650 0.056251 -0.005549 238804.000000 0 0 1
-20.251301 22.386301 29.306262 42.072778 -0.835430 0.800203 0.028520 -0.009239 111725.000000 0 0 1
-20.181901 20.974101 29.502212 41.443969 -0.804644 0.778656 0.022968 -0.004965 56954.300000 0 0 1
-20.617401 20.559701 30.912212 42.465791 -0.783997 0.755495 0.025981 -0.004099 -196846.000000 0 0 1
-19.635201 20.913301 31.834892 42.852860 -0.816908 0.733421 0.026600 -0.024756 123532.000000 0 0 1
-20.127901 20.521801 33.124141 43.857558 -0.795088 0.714736 0.031156 -0.019506 20087.400000 0 0 1
-19.122601 20.943301 34.214778 44.440373 -0.830810 0.692107 0.042159 -0.015875 -263117.000000 0 0 1
-19.086301 22.352301 -34.353030 45.211093 -0.864051 2.433858 0.025221 -0.011801 227953.000000 0 0 1
-18.279801 23.178601 33.583924 44.713293 -0.903015 0.721077 0.026868 -0.004456 785064.000000 0 0 1
-16.717501 23.095501 33.773325 44.198580 -0.944247 0.701110 0.018130 -0.006601 1198280.000000 0 0 1
-16.074801 21.831401 33.450409 43.057394 -0.936111 0.681102 0.036651 -0.023299 -430314.000000 0 0 1
-14.713201 21.883601 33.743686 42.825304 -0.978877 0.663343 0.027557 -0.020846 -841080.000000 0 0 1
-13.906601 20.595001 33.410588 41.639104 -0.976881 0.639516 0.042518 -0.034289 39866.900000 0 0 1
-12.564401 20.557801 33.853984 41.552131 -1.022201 0.618524 0.030325 -0.025520 164868.000000 0 0 1
-12.465501 20.324601 -33.521075 41.135636 -1.020640 2.523338 0.034233 -0.015690 -1273620.000000 0 0 1
-11.016201 20.284301 -33.119295 40.369509 -1.073274 2.532913 0.026393 -0.014223 -595613.000000 0 0 1
-10.272501 21.492001 -33.189195 40.852822 -1.124929 2.519068 0.016706 -0.012546 -444281.000000 0 0 1
-8.961101 21.322001 -32.749385 40.093033 -1.172935 2.526699 0.024798 -0.011314 -584554.000000 0 0 1
-8.084501 22.582301 -32.810935 40.643289 -1.227011 2.510343 0.025123 -0.010138 -62390.300000 0 0 1
-8.188201 23.485001 -31.719435 40.307747 -1.235319 2.476616 0.020206 -0.006635 -173534.000000 0 0 1
-7.575801 23.077901 -30.549735 39.029074 -1.253609 2.469858 0.021851 -0.007259 -317262.000000 0 0 1
-7.443001 24.222101 -29.508005 38.895126 -1.272673 2.432043 0.019006 -0.011722 235977.000000 0 0 1
-6.530301 25.188701 -30.016705 39.725534 -1.317126 2.427369 0.020261 -0.012171 94890.100000 0 0 1
-6.249401 26.203201 -29.086055 39.644184 -1.336672 2.394515 0.026631 -0.013954 -146464.000000 0 0 1
-5.067001 27.081301 -29.563255 40.411105 -1.385832 2.391408 0.044637 -0.021443 -97187.200000 0 0 1
-3.845101 26.424901 -29.289915 39.635329 -1.426300 2.402359 0.052439 -0.020056 663844.000000 0 0 1
-2.702001 26.878701 -30.049785 40.407363 -1.470607 2.409341 0.051248 -0.020200 1122280.000000 0 0 1
-1.906701 28.111401 -29.517825 40.806720 -1.503073 2.379448 0.064535 -0.025671 -276938.000000 0 0 1
-1.172401 27.986701 -28.346725 39.851810 -1.528929 2.362147 0.071633 -0.031801 121699.000000 0 0 1
-0.421701 29.112901 -27.978395 40.379814 -1.556312 2.336273 0.076884 -0.031954 -609832.000000 0 0 1
0.046999 29.179601 -26.500125 39.417102 1.569186 2.308108 0.070148 -0.035270 815263.000000 0 0 1
1.120999 28.310801 -26.065575 38.498991 1.531221 2.314537 0.074796 -0.035425 938743.000000 0 0 1
2.397999 28.619801 -26.594145 39.141946 1.487203 2.317779 0.063316 -0.036481 -241943.000000 0 0 1
3.540099 28.520401 -25.567275 38.465974 1.447303 2.297852 0.052411 -0.028557 -213443.000000 0 0 1
4.110799 27.292401 -25.294005 37.437421 1.421299 2.312621 0.046477 -0.022726 205653.000000 0 0 1
5.245399 27.468901 -24.452385 37.147999 1.382110 2.289278 0.023033 -0.015344 -318238.000000 0 0 1
5.804899 26.229701 -23.841685 35.918241 1.352997 2.296653 0.041636 -0.018574 -137779.000000 0 0 1
6.940599 26.459501 -23.036385 35.762440 1.314265 2.270708 0.034358 -0.020573 -43467.900000 0 0 1
7.540799 25.243801 -22.559485 34.684917 1.280515 2.278923 0.039961 -0.012671 -20644.200000 0 0 1
8.999999 25.425201 -22.150285 34.900945 1.230581 2.258367 0.026494 -0.003316 -1069690.000000 0 0 1
9.038299 25.960101 -20.848085 34.500150 1.235761 2.219670 0.039046 -0.009322 403103.000000 0 0 1
10.274999 26.434701 -20.305885 34.881198 1.200075 2.192160 0.048639 -0.014871 549631.000000 0 0 1
11.335499 25.360901 -19.930485 34.189078 1.150467 2.193150 0.029689 -0.000361 -81152.400000 0 0 1
11.732399 24.524501 -20.996685 34.350562 1.124582 2.228432 0.028416 -0.006419 -64730.400000 0 0 1
11.891199 23.163101 -20.592485 33.196089 1.096511 2.239958 0.010088 0.002813 -447362.000000 0 0 1
12.120499 22.195801 -21.803885 33.391159 1.070974 2.282314 0.002202 -0.006336 -49954.300000 0 0 1
11.074699 22.298001 -22.760785 33.732820 1.109818 2.311405 0.009920 -0.015825 512363.000000 0 0 1
11.459799 21.572701 -23.893685 34.170405 1.082488 2.345145 -0.006180 -0.022634 399705.000000 0 0 1
10.464499 21.811901 -25.060985 34.832711 1.123471 2.373831 0.012169 -0.016841 1460320.000000 0 0 1
9.087199 21.405601 -24.907285 34.075648 1.169329 2.390496 0.010778 -0.019178 875277.000000 0 0 1
8.402299 21.465601 -26.130265 34.844819 1.197699 2.418713 0.007423 -0.018165 -92598.000000 0 0 1
7.027499 20.722301 -26.045025 34.016802 1.243840 2.442850 0.011573 -0.022354 967254.000000 0 0 1
5.903799 21.495801 -25.606975 33.950574 1.302757 2.425296 0.028141 -0.020135 456499.000000 0 0 1
5.925499 21.754101 -24.205285 33.079424 1.304863 2.391656 0.038247 -0.015336 -328195.000000 0 0 1
4.498999 22.126001 -23.708185 32.739562 1.370196 2.380590 0.053262 -0.016714 319440.000000 0 0 1
4.103699 23.372401 -24.265885 33.940281 1.396989 2.367361 0.044318 -0.016339 569807.000000 0 0 1
2.691199 23.526701 -24.061885 33.759777 1.456902 2.364191 0.060406 -0.016777 505032.000000 0 0 1
2.172499 24.592201 -25.015585 35.146488 1.482684 2.362786 0.045573 -0.002916 -319874.000000 0 0 1
0.768899 24.572001 -25.153405 35.171981 1.539515 2.367642 0.064454 -0.026957 -67286.400000 0 0 1
0.386799 25.305601 -26.286815 36.489994 1.555512 2.375152 0.060959 -0.024017 107821.000000 0 0 1
-1.079101 25.228401 -26.763345 36.795561 -1.528049 2.385253 0.076957 -0.022144 132552.000000 0 0 1
-1.336301 23.961601 -27.346475 36.383701 -1.515086 2.421301 0.085323 -0.031743 -807715.000000 0 0 1
-2.606301 23.799101 -27.877825 36.747287 -1.461718 2.432014 0.086337 -0.027302 -534841.000000 0 0 1
-3.036401 22.341301 -28.127995 36.049099 -1.435714 2.465892 0.074570 -0.028964 -181274.000000 0 0 1
-2.332601 21.764201 -29.230865 36.518008 -1.464028 2.498843 0.080417 -0.029977 -59519.000000 0 0 1
-2.709101 20.415801 -29.531755 36.003732 -1.438871 2.532629 0.068138 -0.017694 1420490.000000 0 0 1
-4.095201 20.243701 -30.356985 36.716817 -1.371195 2.544168 0.053258 -0.012585 1259410.000000 0 0 1
-4.129801 20.668101 -31.729525 38.091842 -1.373578 2.555258 0.057947 -0.013270 -236343.000000 0 0 1
-3.788601 22.052701 -31.842685 38.918270 -1.400660 2.529059 0.068988 -0.017337 -262040.000000 0 0 1
-3.260801 22.430101 -33.238335 40.230948 -1.426432 2.543104 0.052912 -0.012980 -372809.000000 0 0 1
-2.096901 21.742601 -33.574345 40.054642 -1.474652 2.564795 0.058320 -0.010377 -427182.000000 0 0 1
-1.642701 22.172601 33.947652 40.580362 -1.496844 0.579834 0.055556 -0.000306 502773.000000 0 0 1
-0.418601 21.345501 33.424627 39.661207 -1.551188 0.568418 0.052016 0.005865 591695.000000 0 0 1
-0.779601 20.026401 33.102973 38.697175 -1.531887 0.544403 0.042507 0.008824 526332.000000 0 0 1
0.354399 19.383301 32.500492 37.843360 1.552515 0.537842 0.030311 0.004770 555206.000000 0 0 1
0.085499 17.910301 32.023122 36.691505 1.566023 0.509955 0.030148 0.005466 45048.200000 0 0 1
-0.677101 17.767501 30.837712 35.596447 -1.532706 0.523021 0.010843 0.007843 22479.700000 0 0 1
-1.121701 16.451301 30.739932 34.883333 -1.502719 0.492357 0.019214 0.005356 -898595.000000 0 0 1
-2.106201 16.130801 29.652912 33.822093 -1.440961 0.501771 0.022266 0.002647 2499.860000 0 0 1
-3.471801 16.498301 29.805462 34.243436 -1.363389 0.514784 0.012478 -0.002453 377478.000000 0 0 1
-3.637401 17.819101 29.392052 34.563619 -1.369433 0.554098 0.018826 -0.001349 -1403280.000000 0 0 1
-4.942101 18.527101 29.615652 35.281223 -1.310116 0.574587 0.014794 -0.006959 -293617.000000 0 0 1
-6.001101 18.049401 28.791222 34.506935 -1.249812 0.583825 0.015134 -0.010145 -347394.000000 0 0 1
-7.258301 18.538301 29.097202 35.256187 -1.197613 0.600049 0.027600 -0.019704 332274.000000 0 0 1
-8.508601 18.024201 28.261062 34.582593 -1.129745 0.614252 0.033069 -0.022109 1260000.000000 0 0 1
-9.007601 16.678901 28.477662 34.209645 -1.075617 0.587290 0.050756 -0.025889 81310.400000 0 0 1
-9.726801 16.460501 29.641772 35.273126 -1.037082 0.572868 0.049851 -0.031167 -754079.000000 0 0 1
-10.312701 15.010701 29.817482 34.939307 -0.968833 0.548308 0.049549 -0.030285 -586475.000000 0 0 1
-9.476701 13.900101 29.832092 34.248713 -0.972409 0.513475 0.033415 -0.010762 -733885.000000 0 0 1
-8.643101 13.861101 30.950862 34.996988 -1.013240 0.485618 0.025728 -0.012271 -580455.000000 0 0 1
-9.251901 13.541601 32.356162 36.275251 -0.971421 0.469129 0.047290 -0.020045 -313309.000000 0 0 1
-9.595801 12.152701 32.507112 36.006664 -0.902428 0.444541 0.030039 -0.000070 316147.000000 0 0 1
-10.170401 11.899001 33.762116 37.214295 -0.863564 0.434133 0.038055 0.011384 -490225.000000 0 0 1
-10.518001 10.423901 33.851691 36.948925 -0.780905 0.412366 0.034504 0.000885 -472955.000000 0 0 1
-9.423701 9.531301 33.919932 36.472094 -0.791075 0.376317 0.022309 0.003718 148195.000000 0 0 1
-9.343101 8.702701 -33.748675 36.083287 -0.749926 2.779900 0.050789 -0.004713 -18116.800000 0 0 1
-8.400501 9.286201 -32.662735 34.980798 -0.835434 2.775500 0.047369 -0.009707 -130761.000000 0 0 1
-8.924901 10.435201 -31.993445 34.815626 -0.863251 2.736179 0.053973 -0.010747 246397.000000 0 0 1
-8.035901 10.974101 -31.028515 33.878833 -0.938745 2.728459 0.057048 -0.006158 144368.000000 0 0 1
-7.049101 11.992701 -31.616295 34.541349 -1.039409 2.727091 0.047077 -0.008713 135737.000000 0 0 1
-7.769301 13.148701 -32.070055 35.520963 -1.037110 2.697146 0.055730 -0.011998 549058.000000 0 0 1
-6.828301 14.090901 -32.526035 36.098783 -1.119553 2.692931 0.034064 -0.016270 -90570.300000 0 0 1
-7.407001 15.465801 -32.891945 37.093594 -1.124148 2.661016 0.036125 -0.019420 -205013.000000 0 0 1
-8.214301 15.555401 -34.042235 38.318651 -1.084948 2.664641 0.041997 -0.022530 73025.100000 0 0 1
-8.627701 16.870001 -34.212911 39.109557 -1.098052 2.635812 0.050487 -0.027342 -1038000.000000 0 0 1
-9.186001 17.276501 33.182109 38.521584 -1.082108 0.532796 0.046115 -0.027897 1166500.000000 0 0 1
-10.443101 16.709701 32.760312 38.229707 -1.012217 0.541506 0.054346 -0.032404 313552.000000 0 0 1
-11.560701 16.968301 33.536080 39.322280 -0.972723 0.549373 0.062840 -0.034377 -644928.000000 0 0 1
-12.861201 16.441301 32.812857 38.889722 -0.906973 0.566581 0.063667 -0.031356 325138.000000 0 0 1
-12.974001 14.984301 32.733522 38.266662 -0.857178 0.544463 0.057614 -0.028422 196178.000000 0 0 1
-13.990201 14.385001 33.504995 39.054304 -0.799311 0.539612 0.057415 -0.019865 -218359.000000 0 0 1
-14.006001 12.794301 33.396217 38.407935 -0.740217 0.516580 0.045987 -0.010376 -76197.600000 0 0 1
-14.170001 12.409601 32.082812 37.203413 -0.719264 0.530880 0.028346 -0.008881 -115594.000000 0 0 1
-12.926701 12.261601 31.458972 36.154023 -0.758999 0.515315 0.021070 0.001580 -597424.000000 0 0 1
-13.042901 11.693701 30.046802 34.780314 -0.730909 0.527829 0.017009 0.005446 63916.700000 0 0 1
-13.556501 10.380301 29.842282 34.381553 -0.653478 0.519689 0.005060 0.006973 69388.800000 0 0 1
-13.450401 10.038401 28.478022 33.055718 -0.641146 0.532549 -0.012102 0.011126 309981.000000 0 0 1
-14.281701 8.767601 28.059522 32.682940 -0.550581 0.538386 0.001332 0.010280 68174.700000 0 0 1
-13.798401 7.543301 28.552152 32.596359 -0.500290 0.503435 -0.025220 0.020141 114371.000000 0 0 1
-14.702801 6.444201 28.388672 32.613138 -0.413080 0.514645 -0.012731 0.025676 251645.000000 0 0 1
-14.047701 5.045701 28.645142 32.300792 -0.344832 0.480368 -0.007404 0.024365 697133.000000 0 0 1
-13.050101 4.720001 27.646552 30.934049 -0.347045 0.465214 -0.013663 0.020455 275313.000000 0 0 1
-13.596601 4.281801 26.433802 30.032437 -0.305085 0.494565 -0.007115 0.021117 -353995.000000 0 0 1
-12.563401 4.111401 25.299992 28.545267 -0.316268 0.481478 -0.013525 0.021483 -590392.000000 0 0 1
-11.813201 2.910201 25.355452 28.123299 -0.241542 0.447384 -0.015233 0.020265 92675.200000 0 0 1
-11.529301 2.367401 24.074292 26.797405 -0.202523 0.454726 -0.015689 0.018242 127036.000000 0 0 1
-10.495701 1.191301 24.121312 26.332805 -0.113020 0.412759 -0.016783 0.019070 392395.000000 0 0 1
-9.144301 1.545101 24.329492 26.037084 -0.167388 0.364178 -0.016054 0.008860 218943.000000 0 0 1
-8.317801 0.473501 24.697922 26.065252 -0.056865 0.325340 -0.014082 -0.000347 101415.000000 0 0 1
-6.799201 0.729801 24.582512 25.515910 -0.106927 0.271316 0.001535 -0.002838 -353902.000000 0 0 1
-6.382301 0.862501 23.242162 24.117955 -0.134326 0.270314 0.004192 0.002282 109802.000000 0 1 0
-5.048101 1.312201 23.096462 23.678086 -0.254311 0.222104 0.010905 -0.000132 56798.700000 0 1 0
-4.650701 2.744901 23.594062 24.204199 -0.533192 0.225009 0.022936 -0.003582 -861175.000000 0 1 0
-4.185401 2.729401 24.900432 25.396825 -0.577867 0.198038 0.014841 -0.004568 -99967.900000 0 0 1
-4.005801 4.027301 25.430792 26.057451 -0.788075 0.219755 0.017934 -0.008571 66639.500000 0 0 1
4.031499 -23.788199 12.644015 27.239723 -1.402917 1.088093 0.029146 0.004542 256166.000000 0 0 1
3.872299 -24.900599 13.510215 28.593014 -1.416522 1.078670 0.033270 -0.003423 -1371370.000000 0 0 1
2.720899 -25.558099 13.199115 28.893535 -1.464736 1.096380 0.022279 -0.005422 -951437.000000 0 0 1
2.504299 -26.733069 14.177315 30.363214 -1.477391 1.084987 0.016204 0.004181 94605.900000 0 0 1
1.994199 -26.500979 15.487215 30.759268 -1.495688 1.043154 0.013633 -0.002637 141966.000000 0 0 1
2.161899 -27.686269 16.178315 32.139402 -1.492869 1.043291 -0.001671 0.000736 -277226.000000 0 0 1
1.653499 -27.638249 17.648115 32.833867 -1.511041 1.003330 -0.019030 0.008988 -109939.000000 0 0 1
2.551899 -27.103939 18.625915 32.985761 -1.476921 0.970769 0.008002 -0.001419 152851.000000 0 0 1
2.240699 -27.373179 19.923015 33.929901 -1.489121 0.943224 0.007495 -0.003741 -406708.000000 0 0 1
3.015799 -26.569979 20.948115 33.968844 -1.457776 0.906270 0.012006 -0.001364 -518447.000000 0 0 1
2.515799 -25.292289 21.201715 33.098971 -1.471653 0.875575 0.010098 -0.000963 204039.000000 0 0 1
3.426999 -24.467799 21.942115 33.043516 -1.431640 0.844591 0.031382 -0.015927 185926.000000 0 0 1
2.838399 -23.205599 22.635015 32.540747 -1.449086 0.801556 0.041228 -0.020388 -500104.000000 0 0 1
2.311199 -22.188999 21.790815 31.185460 -1.467011 0.797149 0.040226 -0.016463 618018.000000 0 0 1
3.182899 -21.389399 20.907415 30.079183 -1.423073 0.802266 0.033852 -0.009114 125046.000000 0 0 1
2.367499 -20.409299 20.088915 28.735154 -1.455311 0.796650 0.016891 -0.010681 -154483.000000 0 0 1
1.974399 -19.278899 20.809315 28.435924 -1.468740 0.749842 0.016364 -0.017176 -164191.000000 0 0 1
1.469999 -18.329399 19.930615 27.117470 -1.490769 0.745169 0.004102 -0.023240 -65538.600000 0 0 1
1.213199 -16.979299 20.647615 26.759904 -1.499466 0.689463 0.003931 -0.020153 182936.000000 0 0 1
2.370599 -16.168399 20.597515 26.292480 -1.425214 0.670680 -0.011708 -0.007643 318345.000000 0 0 1
1.958099 -14.899799 21.102315 25.906483 -1.440127 0.618831 -0.006615 -0.006721 -63047.300000 0 0 1
2.950399 -13.790799 20.884115 25.199945 -1.360034 0.593950 -0.035898 0.004211 -899505.000000 0 0 1
3.220799 -13.288399 19.603315 23.900733 -1.333005 0.609041 -0.047885 0.006431 175380.000000 0 1 0
2.110599 -12.752499 18.883515 22.883793 -1.406778 0.600255 -0.034641 0.008369 700594.000000 0 1 0
1.339399 -11.468999 19.397015 22.573793 -1.454539 0.536953 -0.025280 -0.002428 -64843.700000 0 1 0
1.989599 -10.271099 19.047215 21.731322 -1.379458 0.502281 -0.022228 -0.004213 -271426.000000 0 1 0
1.708799 -9.216499 19.915115 22.010808 -1.387472 0.439915 -0.015020 -0.022689 -183988.000000 0 1 0
0.236799 -8.736599 19.951315 21.781625 -1.543699 0.412878 -0.006433 -0.026432 43059.100000 0 1 0
-0.002701 -7.872399 21.045015 22.469253 1.570453 0.357959 0.006109 -0.029435 -477595.000000 0 1 0
-1.350301 -7.476099 21.046915 22.376059 1.392107 0.346404 0.017987 -0.027518 -239646.000000 0 1 0
-1.888601 -7.037199 22.397315 23.552679 1.308601 0.314518 0.014648 -0.019788 -426226.000000 0 1 0
-1.928501 -8.020499 23.418615 24.828996 1.334829 0.338674 0.005492 -0.009959 -135976.000000 0 1 0
-2.346801 -7.515999 24.631315 25.859223 1.268148 0.309402 0.015434 0.000820 -182752.000000 0 0 1
-2.465301 -8.574399 25.698715 27.203345 1.290829 0.334150 0.014005 0.007805 587304.000000 0 0 1
-1.173001 -9.065499 26.033915 27.592099 1.442119 0.337674 0.011969 0.007070 295055.000000 0 0 1
-1.326801 -10.174199 26.888615 28.779721 1.441120 0.364533 0.012882 0.003423 1058100.000000 0 0 1
0.008299 -10.954399 27.260815 29.379431 -1.570039 0.382089 0.016463 0.004793 1196760.000000 0 0 1
0.866599 -10.476299 28.299215 30.188564 -1.488264 0.355665 0.008179 0.007448 186135.000000 0 0 1
1.870999 -11.438299 28.555315 30.817874 -1.408659 0.385573 -0.002159 0.005046 -193395.000000 0 0 1
2.898099 -10.941699 29.582515 31.674042 -1.311875 0.365438 0.012658 0.005655 277900.000000 0 0 1
2.269099 -10.910699 30.875815 32.825419 -1.365749 0.346383 0.007143 0.010271 235653.000000 0 0 1
3.058899 -10.128699 31.721315 33.439337 -1.277503 0.321942 0.020332 0.005899 -230143.000000 0 0 1
2.529999 -10.103799 33.192515 34.788370 -1.325441 0.304067 0.024151 0.003095 -291115.000000 0 0 1
2.890699 -11.204799 33.983415 35.899529 -1.318314 0.328195 0.012774 -0.002126 203131.000000 0 0 1
2.290699 -11.284299 -33.505532 35.428850 -1.370519 2.810579 0.018051 -0.005665 -41389.100000 0 0 1
2.943799 -10.371199 -32.417732 34.163388 -1.294227 2.820537 0.014914 -0.001657 55996.400000 0 0 1
2.537799 -9.070699 -32.588732 33.922610 -1.297992 2.860233 0.031151 -0.002563 748233.000000 0 0 1
3.536899 -8.332899 -31.878332 33.138723 -1.169392 2.864908 0.025103 -0.005519 431011.000000 0 0 1
3.154699 -6.889299 -31.644932 32.539458 -1.141382 2.906572 0.014193 -0.007991 -53378.800000 0 0 1
3.241899 -6.044299 -32.810632 33.519861 -1.078488 2.935517 0.025827 -0.006618 113057.000000 0 0 1
3.446499 -4.721399 -32.376632 32.900096 -0.940235 2.962970 0.021469 -0.002334 -65181.300000 0 0 1
3.243599 -3.620399 -33.409832 33.761592 -0.840238 2.997114 0.023502 -0.000392 -851209.000000 0 0 1
1.966999 -3.407599 -33.899032 34.126606 -1.047281 3.026042 0.027407 -0.002022 -793215.000000 0 0 1
2.071799 -2.260999 34.069915 34.207654 -0.829037 0.089769 0.044554 -0.000046 185526.000000 0 0 1
1.841699 -2.537699 32.595415 32.745883 -0.943006 0.095901 0.038162 -0.011192 -182619.000000 0 0 1
0.457299 -2.650499 32.394415 32.505882 -1.399945 0.082838 0.037145 -0.015373 -518854.000000 0 0 1
0.060099 -3.258799 31.149815 31.319871 -1.552356 0.104255 0.042300 -0.000214 1061510.000000 0 0 1
-1.475601 -3.590199 31.006715 31.248733 1.180836 0.124538 0.043043 -0.013712 1147120.000000 0 0 1
-2.300601 -2.432799 30.780915 30.962493 0.813320 0.108353 0.037699 -0.014872 -155688.000000 0 0 1
-3.606201 -2.960999 30.714115 31.066526 0.687466 0.150767 0.021542 -0.016495 36616.600000 0 0 1
-4.744201 -2.046399 30.219215 30.657726 0.407235 0.169338 0.015680 -0.011689 -33266.400000 0 0 1
-4.414501 -1.625199 28.898715 29.279085 0.352752 0.161365 0.017107 -0.012456 130547.000000 0 0 1
-5.351801 -0.733499 28.283415 28.794641 0.136208 0.188717 0.004503 -0.012140 311847.000000 0 0 1
-5.419701 0.687501 28.869815 29.382172 -0.126178 0.187022 0.012866 -0.007755 215008.000000 0 0 1
-6.342301 0.885801 29.934515 30.611838 -0.138768 0.210752 0.011465 -0.000481 -150963.000000 0 0 1
-6.697901 2.230201 30.105015 30.921636 -0.321424 0.230332 0.009659 -0.007350 -646563.000000 0 0 1
-8.212001 2.429901 30.402615 31.585762 -0.287688 0.274570 0.004922 -0.000712 300207.000000 0 0 1
-9.041401 2.191101 29.283015 30.725280 -0.237757 0.307612 -0.009189 0.002979 -280551.000000 0 0 1
-10.346001 2.642901 29.554315 31.424229 -0.250103 0.346714 -0.014661 0.013522 -550235.000000 0 0 1
-11.361801 2.005301 28.623015 30.860796 -0.174696 0.383160 -0.011732 0.019912 -510234.000000 0 0 1
-11.545301 0.611501 28.874215 31.102865 -0.052916 0.380859 -0.006468 0.014788 -167031.000000 0 0 1
-12.136101 -0.064599 27.824715 30.356282 0.005323 0.411293 -0.007061 0.014677 -984745.000000 0 0 1
-12.207201 -1.607299 28.034015 30.618706 0.130915 0.413837 -0.006083 0.012876 457272.000000 0 0 1
-10.998601 -2.305499 28.336915 30.483853 0.206626 0.377548 -0.003271 0.003731 539297.000000 0 0 1
-9.836801 -2.203899 27.541515 29.328397 0.220407 0.350872 -0.008998 0.005943 -220875.000000 0 0 1
-9.816801 -2.808099 26.094015 28.020575 0.278610 0.372982 -0.008966 0.003189 -182341.000000 0 0 1
-10.737801 -2.132599 25.211415 27.485701 0.196055 0.409662 -0.006253 0.007711 666386.000000 0 0 1
-10.801001 -2.852899 23.990415 26.463950 0.258235 0.435802 0.004050 0.007049 -76206.500000 0 0 1
-9.791101 -2.483999 22.849315 24.982536 0.248458 0.416250 0.004724 0.002737 427313.000000 0 1 0
-8.458001 -2.766499 23.223215 24.869841 0.316118 0.365933 0.008262 -0.002261 -533518.000000 0 1 0
-7.583101 -2.489199 22.164915 23.558077 0.317174 0.345629 0.003148 -0.005361 477698.000000 0 1 0
-6.090301 -2.476999 22.666715 23.601001 0.386279 0.282314 0.014389 -0.006339 621486.000000 0 1 0
-5.450401 -3.730299 22.633215 23.577201 0.600185 0.283930 0.016606 -0.008379 -83948.900000 0 1 0
-5.662201 -4.614499 23.696615 24.796848 0.683800 0.299005 0.007104 -0.007480 -347854.000000 0 1 0
-5.392501 -6.083099 23.300615 24.677962 0.845505 0.335678 0.003845 -0.007875 -626211.000000 0 1 0
-6.229401 -6.654799 22.327815 24.116863 0.818403 0.387604 0.001389 -0.013055 -140768.000000 0 1 0
-5.938001 -6.213799 20.977315 22.669779 0.808090 0.388858 0.015089 -0.014303 -231860.000000 0 1 0
-7.145801 -6.287099 20.021215 22.168426 0.721560 0.443766 0.025040 -0.007901 3876.020000 0 1 0
-7.988701 -5.145099 20.075815 22.211027 0.572179 0.442072 0.013740 -0.015870 413356.000000 0 1 0
-9.062501 -5.212299 19.101715 21.775502 0.521947 0.500774 0.023249 -0.006607 724375.000000 0 1 0
-9.807801 -3.884699 19.137115 21.852071 0.377125 0.503794 0.014083 -0.010239 -288575.000000 0 1 0
-8.955001 -2.865499 18.704215 20.934440 0.309693 0.465792 0.013568 -0.015034 -250964.000000 0 1 0
-9.573101 -1.592099 18.754615 21.116691 0.164801 0.477511 0.007425 -0.013888 -102174.000000 0 1 0
-8.644401 -0.410999 18.357415 20.295055 0.047509 0.440528 0.010325 -0.002898 401845.000000 0 1 0
-7.598101 -0.078999 19.282815 20.725934 0.010397 0.375372 0.011825 0.004739 555688.000000 0 1 0
-8.026501 0.574301 20.452415 21.978531 -0.071429 0.374848 0.023128 0.008444 -243721.000000 0 1 0
-7.819001 2.076701 20.328815 21.879446 -0.259603 0.378748 0.010771 0.008234 501856.000000 0 1 0
-8.609401 2.588701 19.208915 21.208620 -0.292083 0.437738 -0.001599 -0.002833 547725.000000 0 1 0
-8.369101 3.922301 18.959415 21.092314 -0.438266 0.453594 -0.003038 0.004044 101575.000000 0 1 0
-9.238501 4.453901 17.799915 20.543225 -0.449227 0.522726 -0.002573 0.009742 -12637.300000 0 1 0
-10.629701 4.550101 18.039915 21.427377 -0.404456 0.569984 -0.003160 0.013060 159556.000000 0 1 0
-11.354701 5.042601 16.924515 20.995148 -0.417935 0.633238 0.004099 0.013572 -220955.000000 0 1 0
-11.482001 6.591101 16.786515 21.379103 -0.521111 0.667804 -0.001226 0.017349 -930799.000000 0 1 0
-10.287601 7.314701 16.677615 20.916080 -0.618084 0.647891 -0.002295 0.014846 -153376.000000 0 1 0
-10.503201 8.662901 16.338715 21.267738 -0.689673 0.694710 -0.006898 0.007807 -254258.000000 0 1 0
-9.240801 9.514401 16.500215 21.170104 -0.799985 0.677071 -0.005391 0.007530 -361471.000000 0 1 0
-8.886801 9.863901 17.834415 22.233716 -0.837461 0.639936 0.013674 0.022050 -249019.000000 0 1 0
-8.178601 11.051501 17.998615 22.648958 -0.933697 0.652320 0.032072 0.013612 -171040.000000 0 1 0
-8.874701 12.352401 17.567715 23.237184 -0.947789 0.713589 0.031949 0.016364 -5246.330000 0 1 0
-8.658301 12.592501 16.223515 22.287658 -0.968457 0.755520 0.016341 -0.006323 -130521.000000 0 1 0
-9.308101 13.772901 15.842915 22.963699 -0.976479 0.809430 0.019112 -0.014341 -134665.000000 0 1 0
-8.953501 14.332501 14.441715 22.229460 -1.012413 0.863652 0.010228 -0.014016 -1011640.000000 0 1 0
-7.765601 15.006801 14.507015 22.270207 -1.093269 0.861356 0.011589 -0.002636 -1155440.000000 0 1 0
-7.422201 15.526001 13.249215 21.718367 -1.124863 0.914677 0.002060 -0.016185 -225589.000000 0 1 0
-6.260401 16.545901 13.218115 22.083433 -1.209078 0.929102 -0.020480 -0.009290 383453.000000 0 1 0
-4.969701 16.054801 13.503315 21.559083 -1.270605 0.893947 -0.016518 -0.018267 272372.000000 0 1 0
-4.011601 17.160101 13.539615 22.223482 -1.341146 0.915684 -0.016341 -0.015232 1244380.000000 0 1 0
-2.599401 16.667501 13.990415 21.915615 -1.416086 0.878409 0.001307 -0.022465 222364.000000 0 1 0
-2.394301 16.327501 15.326715 22.521726 -1.425192 0.822310 0.008226 -0.015085 -132980.000000 0 1 0
-2.628801 14.941101 15.579315 21.745393 -1.396635 0.772107 0.011007 -0.017384 -40616.300000 0 1 0
-1.470001 14.346001 16.412115 21.847795 -1.468685 0.720915 0.017265 -0.007727 27616.400000 0 1 0
-0.255301 14.063801 15.763015 21.126484 -1.552645 0.728572 0.006015 -0.020584 -405126.000000 0 1 0
0.734299 13.640701 16.662215 21.546167 1.517017 0.686726 0.009495 -0.002097 593552.000000 0 1 0
1.763199 14.708201 17.158815 22.668590 1.451487 0.712175 0.012632 -0.004791 95386.000000 0 1 0
1.117899 15.550601 18.062715 23.860690 1.499032 0.712076 0.006096 -0.004836 -277338.000000 0 1 0
1.969899 16.480001 18.680315 24.988499 1.451828 0.726421 0.032304 -0.008867 -208346.000000 0 1 0
1.073599 17.607401 19.214715 26.084065 1.509897 0.742699 0.030466 -0.002082 393617.000000 0 0 1
0.579599 18.475401 18.231415 25.962682 1.539435 0.792291 0.017138 -0.001510 -1103430.000000 0 0 1
-0.638901 18.108501 17.708215 25.335881 -1.535529 0.796885 0.023576 -0.003064 -1175890.000000 0 0 1
-1.264101 19.197601 16.766315 25.519701 -1.505044 0.853971 0.018350 0.000085 120756.000000 0 0 1
-1.907901 20.265101 17.488815 26.836040 -1.476926 0.860984 0.008935 0.008060 233707.000000 0 0 1
-2.472001 21.173501 16.524315 26.971854 -1.454573 0.911387 0.005581 0.003762 -650569.000000 0 0 1
-3.098601 22.402401 17.156315 28.386758 -1.433353 0.921812 0.002089 0.016208 255708.000000 0 0 1
-4.324901 22.120401 17.846615 28.749236 -1.377716 0.901074 0.008961 0.017491 485150.000000 0 0 1
-4.616601 23.257601 18.619415 30.148161 -1.374845 0.905113 0.009563 0.016524 -343764.000000 0 0 1
-5.649901 22.907801 19.679815 30.724320 -1.328986 0.875610 0.008384 0.014140 6748.490000 0 0 1
-6.982001 22.799701 19.189615 30.607450 -1.273632 0.893153 0.007919 0.006073 424072.000000 0 0 1
-7.823901 22.290101 20.250015 31.114709 -1.233228 0.862135 0.002644 0.002064 -589778.000000 0 0 1
-9.278701 22.533101 19.922515 31.476047 -1.180175 0.885449 0.005438 -0.006482 -926208.000000 0 0 1
-9.686901 23.893601 19.830115 32.526507 -1.185628 0.915165 0.011219 -0.003975 -791376.000000 0 0 1
-10.977101 23.930001 19.328215 32.660704 -1.140717 0.937521 0.008623 -0.005303 -855735.000000 0 0 1
-11.568601 25.346101 19.463015 33.986266 -1.142612 0.961034 0.017550 -0.013197 -366059.000000 0 0 1
-11.959901 25.667601 20.766715 35.115828 -1.134755 0.938030 0.023534 -0.011595 208939.000000 0 0 1
-12.583801 26.966601 20.684715 36.240958 -1.134188 0.963371 0.038116 -0.016875 -416755.000000 0 0 1
-13.414601 27.269101 21.941115 37.482901 -1.113622 0.945468 0.044152 -0.016253 -882140.000000 0 0 1
-14.631101 26.586301 21.894215 37.420010 -1.067704 0.945801 0.045649 -0.015249 -310472.000000 0 0 1
-15.374701 26.877801 23.060515 38.608094 -1.051203 0.930669 0.038526 -0.008705 334051.000000 0 0 1
-16.893701 26.536501 23.032515 38.988200 -1.003884 0.938801 0.039452 -0.003498 519570.000000 0 0 1
-17.197801 25.152401 23.151715 38.267604 -0.971064 0.921037 0.040175 -0.010070 -626235.000000 0 0 1
-18.545201 25.005701 23.470215 38.987954 -0.932668 0.924810 0.047320 -0.008348 -585946.000000 0 0 1
26.087099 24.297901 23.489362 42.692796 0.749903 0.988199 0.019020 -0.018950 -258928.000000 0 0 1
26.199799 23.514301 24.681312 42.994406 0.731432 0.959342 0.031466 -0.027733 308427.000000 0 0 1
25.795899 22.169101 24.443112 41.885119 0.709928 0.947672 0.037821 -0.017668 -654463.000000 0 0 1
25.644399 21.383701 25.781612 42.185180 0.695046 0.913279 0.041276 -0.014980 -572365.000000 0 0 1
24.556799 21.820101 26.513352 42.215057 0.726457 0.891746 0.033583 -0.006879 -424776.000000 0 0 1
24.558399 21.164101 27.727192 42.659481 0.711297 0.863257 0.040894 -0.000479 640337.000000 0 0 1
23.288199 21.600801 28.542952 42.704039 0.747825 0.838754 0.040413 0.002242 528295.000000 0 0 1
23.094599 22.994201 28.845862 43.522150 0.783220 0.846263 0.053742 -0.008051 -860612.000000 0 0 1
21.878399 23.150301 29.471512 43.395516 0.813637 0.824210 0.070694 -0.006434 -760968.000000 0 0 1
21.538899 24.579601 29.972492 44.344461 0.851235 0.828609 0.075921 -0.009724 -231000.000000 0 0 1
20.956999 25.494901 29.027322 43.951919 0.882779 0.849400 0.058655 -0.012180 73647.500000 0 0 1
20.621499 26.737801 29.640922 44.930396 0.913834 0.850367 0.060135 -0.016632 -59478.200000 0 0 1
19.249299 26.837501 30.333802 44.843355 0.948584 0.827879 0.066183 -0.012112 -506653.000000 0 0 1
18.124099 26.982401 29.485582 43.885447 0.979317 0.834057 0.064157 -0.010795 1207220.000000 0 0 1
16.942999 27.270001 30.299092 44.144684 1.014858 0.814326 0.061543 -0.005992 1490650.000000 0 0 1
16.049699 26.128501 30.920042 43.546991 1.019957 0.781243 0.018472 0.009886 -405048.000000 0 0 1
16.527999 25.572601 32.130572 44.266311 0.997015 0.758531 0.038361 0.004192 268991.000000 0 0 1
15.568499 24.766201 32.819603 43.964408 1.009599 0.728004 -0.020025 0.005390 223218.000000 0 0 1
16.044799 24.291301 34.188956 44.904204 0.987064 0.705364 0.004513 0.000087 -67487.700000 0 0 1
16.275799 25.410901 -33.795615 45.307385 1.001125 2.412709 0.010718 -0.002417 -31135.000000 0 0 1
16.609399 25.070201 -32.459465 44.249339 0.985673 2.394339 0.010979 0.002181 -411361.000000 0 0 1
16.908799 26.211501 -31.478235 44.315116 0.997880 2.360759 0.019163 0.007824 152635.000000 0 0 1
15.877099 27.154301 -31.224095 44.321354 1.041703 2.352505 0.021516 -0.007403 201562.000000 0 0 1
16.463699 28.299401 -30.683725 44.870931 1.043890 2.323784 0.024771 -0.009820 -93235.200000 0 0 1
16.213399 28.461001 -29.126585 43.832190 1.052976 2.297624 0.036589 -0.012077 94400.800000 0 0 1
16.855499 27.574501 -28.184625 42.881628 1.022130 2.287981 0.033988 -0.002806 379815.000000 0 0 1
16.581899 28.063701 -26.858405 42.236295 1.037120 2.259981 0.023727 0.005476 -243052.000000 0 0 1
17.200299 27.213801 -25.761975 41.232519 1.007148 2.245668 0.026532 0.001782 -642794.000000 0 0 1
18.586499 27.391101 -25.751785 41.939060 0.974605 2.231951 0.023306 0.003360 -987710.000000 0 0 1
19.091999 26.865301 -24.544885 41.093798 0.952954 2.210913 0.029131 -0.000062 1312450.000000 0 0 1
20.680299 26.910001 -24.546685 41.885113 0.915561 2.196969 0.026001 0.006552 1203520.000000 0 0 1
21.202399 26.463101 -23.350385 41.171324 0.895320 2.173840 0.016644 0.006371 -151292.000000 0 0 1
22.604299 26.267301 -23.405885 41.818188 0.860210 2.164827 0.029433 0.009074 256093.000000 0 0 1
23.217699 26.014901 -22.015785 41.237500 0.842153 2.133976 0.035828 0.001379 -31903.600000 0 0 1
22.873999 24.822601 -21.393585 39.963319 0.826230 2.135695 0.044104 0.000557 84428.400000 0 0 1
23.282199 24.889401 -20.073085 39.553405 0.818750 2.103069 0.039135 -0.010613 -634315.000000 0 0 1
22.793399 23.590801 -19.356185 38.088408 0.802588 2.103879 0.042078 -0.016542 -139688.000000 0 0 1
23.599999 22.483101 -19.704585 38.088324 0.761166 2.114535 0.048826 -0.012433 232919.000000 0 0 1
23.534899 21.462101 -18.678685 36.924335 0.739365 2.101179 0.061888 -0.009461 -921683.000000 0 0 1
23.511699 20.060801 -19.330285 36.454021 0.706364 2.129709 0.072956 -0.020753 239127.000000 0 0 1
22.434299 19.645001 -20.141585 35.984820 0.719208 2.164850 0.051522 -0.021445 467521.000000 0 0 1
21.108999 19.854501 -19.670885 35.024774 0.754783 2.167148 0.045619 -0.024678 -341144.000000 0 0 1
20.034199 19.704001 -20.774785 34.945793 0.777089 2.207423 0.044875 -0.023702 -49847.700000 0 0 1
20.105299 20.417401 -21.974585 36.110604 0.793100 2.225010 0.043137 -0.022968 -169812.000000 0 0 1
20.184599 21.827501 -21.770285 36.848380 0.824484 2.202855 0.033999 -0.013923 -81950.200000 0 0 1
19.883699 22.558701 -23.065985 37.898498 0.848342 2.225123 0.032785 -0.004617 350783.000000 0 0 1
18.514399 22.427401 -23.398585 37.326466 0.880683 2.248317 0.038847 -0.013316 -144560.000000 0 0 1
18.181799 22.995801 -24.615385 38.279261 0.901778 2.269267 0.029898 -0.006585 40541.000000 0 0 1
16.688199 23.181101 -24.966985 37.936918 0.946836 2.289113 0.025211 -0.011667 -24323.900000 0 0 1
16.157199 24.306601 -24.317185 37.989359 0.984139 2.265431 0.019693 -0.010914 -507147.000000 0 0 1
14.761899 24.231901 -24.276485 37.342287 1.023645 2.278522 0.026845 -0.009581 -370066.000000 0 0 1
14.106599 25.226101 -23.311685 37.132021 1.060912 2.249527 0.013275 -0.007155 -243352.000000 0 0 1
14.226699 26.548801 -23.844785 38.416293 1.078866 2.240425 0.008605 -0.005114 -463734.000000 0 0 1
13.095599 27.318701 -23.611385 38.409682 1.123793 2.232833 0.015917 -0.005370 -571979.000000 0 0 1
13.235199 28.738101 -24.164685 39.811819 1.139208 2.223042 0.017269 -0.012438 126187.000000 0 0 1
13.044199 28.818101 -25.602255 40.695326 1.145750 2.251217 0.022759 -0.013764 -65341.800000 0 0 1
12.440899 30.023701 -26.068865 41.662745 1.177964 2.246840 0.030526 -0.014146 -117548.000000 0 0 1
13.313899 31.277401 -26.143675 42.883883 1.168357 2.226401 0.048537 -0.016891 -309457.000000 0 0 1
14.367699 31.162501 -27.065625 43.704465 1.138785 2.238631 0.040849 -0.010361 -234238.000000 0 0 1
15.221499 32.286501 -26.998925 44.755493 1.130248 2.218371 0.036726 -0.012374 -680835.000000 0 0 1
16.558499 32.064701 -27.672205 45.476146 1.094108 2.224964 0.034257 0.001802 -369411.000000 0 0 1
17.473699 31.416201 -26.796885 44.837271 1.063205 2.211360 0.024135 0.007747 547073.000000 0 0 1
18.800899 31.321201 -27.296865 45.602744 1.030185 2.212523 0.015031 0.012601 564158.000000 0 0 1
19.868199 30.545101 -26.461435 45.032833 0.994102 2.198890 0.007407 0.020346 -138367.000000 0 0 1
20.435499 31.141201 -25.291665 45.022798 0.990060 2.167299 0.019384 0.018187 507408.000000 0 0 1
21.308099 32.261401 -25.366395 46.241616 0.987087 2.151440 0.015630 0.018044 652394.000000 0 0 1
22.682199 32.129101 -26.102905 47.202997 0.956075 2.156748 0.012281 0.017587 -64610.900000 0 0 1
22.450599 31.746301 -27.492935 47.620568 0.955263 2.186255 0.004336 0.023928 255339.000000 0 0 1
23.594999 31.940501 -28.307535 48.767162 0.934555 2.190094 0.001324 0.026824 -994031.000000 0 0 1
23.338399 31.243601 -29.686965 49.011829 0.929230 2.221454 -0.002462 0.027956 -258098.000000 0 0 1
22.382599 31.811001 -30.564355 49.468175 0.957650 2.236813 0.008217 0.018040 -585795.000000 0 0 1
21.130899 31.288201 -30.218055 48.359045 0.976797 2.245760 0.011218 0.017855 -965619.000000 0 0 1
20.057999 31.994201 -31.126315 48.936691 1.010813 2.260168 -0.001055 0.017757 -543950.000000 0 0 1
19.863499 33.335001 -30.682835 49.469357 1.033415 2.239844 0.014374 0.012467 -196016.000000 0 0 1
18.918599 33.943501 -31.490055 50.016979 1.062323 2.251818 0.022264 0.001586 1004160.000000 0 0 1
17.351099 33.809401 -31.235995 49.191703 1.096642 2.258785 0.033283 -0.002548 1442240.000000 0 0 1
16.753099 32.511201 -31.579005 48.320576 1.094982 2.283037 0.041781 -0.003692 262219.000000 0 0 1
16.906899 31.887101 -32.826135 48.787146 1.083273 2.308843 0.036223 -0.011900 -807938.000000 0 0 1
16.329599 32.621301 -34.064875 49.912131 1.106684 2.321970 0.043440 -0.012378 -716096.000000 0 0 1
17.187699 33.648901 34.365115 51.074716 1.098550 0.832755 0.042801 -0.002451 -133404.000000 0 0 1
16.874999 34.224601 33.090933 50.508403 1.112711 0.856406 0.048567 -0.010838 -303983.000000 0 0 1
15.532299 -33.937369 32.827609 49.705626 -1.141578 0.849391 0.051416 -0.012800 -462485.000000 0 0 1
14.517199 33.937201 32.857022 49.417270 1.166585 0.843451 0.042569 -0.005054 423957.000000 0 0 1
13.172599 -34.435769 32.765805 49.324817 -1.205443 0.844258 0.021955 -0.004125 891416.000000 0 0 1
12.679499 -33.770469 31.431712 47.845238 -1.211621 0.854036 0.016820 -0.002304 -666584.000000 0 0 1
13.261899 -32.503569 31.146132 46.930177 -1.183401 0.845082 0.037936 -0.008015 262613.000000 0 0 1
12.556399 -31.931169 30.089112 45.635703 -1.196137 0.850865 0.034011 -0.009629 -182458.000000 0 0 1
13.016799 -30.494769 29.744382 44.543196 -1.167357 0.839594 0.031177 -0.010794 -101968.000000 0 0 1
12.629299 -29.549569 30.700382 44.443106 -1.166900 0.808230 0.025854 -0.007857 409762.000000 0 0 1
13.273799 -28.342669 30.331762 43.583442 -1.132802 0.801059 0.033793 -0.018990 -363411.000000 0 0 1
13.021899 -27.237569 31.406062 43.563698 -1.124833 0.765663 0.022084 -0.015112 912368.000000 0 0 1
11.661199 -26.768669 31.571032 43.003201 -1.159958 0.746374 0.010029 -0.013003 967871.000000 0 0 1
11.129099 -25.810769 30.634532 41.575560 -1.163702 0.742412 -0.006662 -0.007413 -37793.800000 0 0 1
11.324299 -24.348069 31.080432 41.073854 -1.135456 0.712551 0.000154 -0.009961 -169312.000000 0 0 1
10.494199 -24.002969 32.143122 41.466264 -1.158634 0.683823 0.008907 -0.010974 -280684.000000 0 0 1
10.788199 -22.722569 32.621772 41.193208 -1.127528 0.656848 0.014094 -0.010154 163865.000000 0 0 1
9.839899 -22.328269 33.788826 41.678051 -1.155709 0.625432 0.011561 -0.008637 -96065.500000 0 0 1
9.945699 -23.135969 -33.811585 42.159380 -1.164799 2.501423 0.008047 -0.006613 41464.700000 0 0 1
11.124799 -23.129069 -33.025265 41.825628 -1.122474 2.480943 0.017519 -0.008882 117533.000000 0 0 1
11.462999 -21.848769 -32.205385 40.570382 -1.087622 2.487853 0.031376 -0.015658 -40044.600000 0 0 1
11.804799 -20.753269 -33.047835 40.770221 -1.053622 2.515951 0.019034 -0.008318 593622.000000 0 0 1
13.061099 -20.166969 -32.669435 40.553557 -0.996076 2.507463 0.034994 -0.015228 735783.000000 0 0 1
13.573099 -19.032869 -33.653985 40.976455 -0.951306 2.534483 0.030724 -0.010538 -297875.000000 0 0 1
13.840099 -19.484569 33.808988 41.403436 -0.953184 0.615345 0.053054 -0.005404 207634.000000 0 0 1
13.828099 -18.443269 32.827875 40.112839 -0.927446 0.612196 0.034220 -0.007014 -536043.000000 0 0 1
14.897999 -17.355369 32.927747 40.092340 -0.861441 0.607114 0.052062 -0.013235 -1054360.000000 0 0 1
14.781999 -16.383569 33.968466 40.506611 -0.836742 0.576105 0.051812 -0.010763 -48105.800000 0 0 1
15.597499 -15.270069 33.813371 40.246752 -0.774791 0.573234 0.056861 -0.008629 526867.000000 0 0 1
17.144899 -15.366969 34.061840 41.113261 -0.730767 0.594394 0.061274 -0.004033 1281340.000000 0 0 1
17.933599 -16.010369 33.014438 40.839919 -0.728800 0.629390 0.066793 -0.002322 -326802.000000 0 0 1
19.293999 -16.006169 33.202609 41.603715 -0.692527 0.646714 0.073336 -0.001431 -660590.000000 0 0 1
20.229999 -16.626769 32.114672 41.437356 -0.687945 0.684054 0.077246 -0.012070 -193248.000000 0 0 1
20.299199 -15.835769 30.925042 40.239126 -0.662500 0.694253 0.073735 -0.009974 600540.000000 0 0 1
20.937399 -16.505369 29.822872 40.002570 -0.667578 0.729476 0.065539 -0.017646 -97508.600000 0 0 1
21.043399 -15.535669 28.592352 38.751829 -0.635950 0.740943 0.056741 -0.010933 -445796.000000 0 0 1
21.914699 -14.487369 28.846272 39.015962 -0.584125 0.738699 0.044025 -0.007388 54531.600000 0 0 1
22.281899 -13.848569 27.649062 38.114781 -0.556090 0.759158 0.040444 -0.006596 275768.000000 0 0 1
23.195699 -12.592569 27.895902 38.403055 -0.497363 0.757730 0.029231 0.001005 432630.000000 0 0 1
22.423299 -11.437969 28.107512 37.731469 -0.471689 0.730358 0.051728 -0.010733 412535.000000 0 0 1
23.208099 -10.459669 28.758042 38.406321 -0.423428 0.724571 0.028846 -0.011655 656857.000000 0 0 1
22.438699 -9.066369 28.703712 37.544605 -0.383993 0.700495 0.044924 -0.019971 1117420.000000 0 0 1
21.328099 -8.935669 29.590042 37.554022 -0.396746 0.663352 0.055286 -0.017196 181361.000000 0 0 1
20.460599 -7.837069 29.365132 36.638323 -0.365794 0.641019 0.065466 -0.022350 -246420.000000 0 0 1
19.265199 -7.862169 30.299082 36.755897 -0.387471 0.601774 0.043989 -0.002576 -940922.000000 0 0 1
19.543899 -7.594369 31.670552 37.982395 -0.370623 0.584801 0.039131 -0.008799 73690.200000 0 0 1
19.693799 -8.799869 32.468932 38.980956 -0.420218 0.586391 0.052463 -0.018113 -313450.000000 0 0 1
19.761599 -8.528369 33.998813 40.238951 -0.407416 0.564375 0.032286 -0.014768 -176239.000000 0 0 1
18.546099 -8.045269 -34.269519 39.787989 -0.409299 2.608625 0.022897 -0.018978 -167542.000000 0 0 1
18.653299 -7.579169 -32.930075 38.597658 -0.385941 2.592814 0.010943 -0.022818 -127775.000000 0 0 1
17.365999 -7.101069 -32.236405 37.298645 -0.388161 2.614510 0.015736 -0.018416 -199037.000000 0 0 1
17.661399 -6.290969 -31.099075 36.313273 -0.342186 2.599073 0.006634 -0.020398 -426385.000000 0 0 1
16.568499 -5.941569 -30.313285 35.052998 -0.344321 2.615517 0.023842 -0.017371 -586893.000000 0 0 1
16.809599 -4.766569 -29.268545 34.087102 -0.276309 2.603407 0.016241 -0.012923 72018.300000 0 0 1
17.589899 -5.058169 -28.069755 33.509712 -0.280006 2.563782 0.013184 -0.006807 644861.000000 0 0 1
17.005499 -5.951869 -27.078445 32.524667 -0.336672 2.554493 0.008753 -0.011532 -791563.000000 0 0 1
15.639899 -5.724969 -26.468195 31.272145 -0.350900 2.579952 0.014652 -0.013523 -681772.000000 0 0 1
15.501499 -4.469969 -25.765515 30.399652 -0.280741 2.582166 -0.003624 -0.007791 -399964.000000 0 0 1
14.244999 -4.511569 -25.135085 29.241183 -0.306718 2.605240 0.024722 -0.015454 -155089.000000 0 0 1
13.996299 -3.470569 -24.053785 28.045068 -0.243061 2.601543 0.025477 -0.006157 33251.100000 0 0 1
14.047999 -2.139569 -24.592185 28.402458 -0.151143 2.617637 0.028872 -0.012899 -6973.070000 0 0 1
13.406699 -1.229569 -23.764285 27.312866 -0.091457 2.626154 0.025684 -0.012069 -224976.000000 0 0 1
13.649399 0.248431 -24.001685 27.612474 0.018199 2.624446 0.028751 -0.011393 -203655.000000 0 0 1
13.120499 0.753431 -25.214135 28.433568 0.057361 2.661113 0.040943 -0.017312 244526.000000 0 0 1
13.745599 1.978431 -25.577375 29.104257 0.142950 2.644178 0.035946 -0.005226 -250767.000000 0 0 1
13.119799 2.556431 -26.810135 29.957433 0.192442 2.679095 0.034515 -0.004608 497543.000000 0 0 1
11.873099 3.227431 -26.576875 29.286807 0.265414 2.708017 0.037714 -0.015258 909464.000000 0 0 1
11.186599 3.785431 -27.691505 30.104633 0.326294 2.738474 0.041066 -0.011699 285706.000000 0 0 1
9.810499 4.445431 -27.466445 29.502769 0.425454 2.767881 0.044131 -0.016425 31198.700000 0 0 1
9.747699 5.721431 -26.764075 29.052851 0.530770 2.742002 0.044304 -0.020194 -587007.000000 0 0 1
8.468699 6.260431 -26.779865 28.776258 0.636581 2.766909 0.063613 -0.019227 -478529.000000 0 0 1
7.768699 5.035101 -31.511745 32.843493 0.575057 2.855847 0.047001 -0.013491 -92477.600000 0 0 1
7.840199 4.066901 -30.459535 31.714219 0.478514 2.859366 0.041523 -0.003445 387699.000000 0 0 1
7.804999 2.730401 -30.959735 32.044942 0.336521 2.880602 0.033446 -0.000644 -218062.000000 0 0 1
7.590699 1.673101 -29.844825 30.840421 0.216946 2.886809 0.040059 -0.003775 -453598.000000 0 0 1
8.721799 1.412301 -29.068065 30.381191 0.160534 2.846511 0.050335 -0.011957 -112683.000000 0 0 1
8.439099 0.443101 -28.049735 29.295091 0.052458 2.848965 0.058184 -0.014491 -72310.800000 0 0 1
9.639399 0.060301 -27.144815 28.805601 0.006256 2.800366 0.052767 -0.020801 39596.600000 0 0 1
10.491999 -0.784499 -27.878645 29.797925 -0.074632 2.780723 0.049977 -0.011200 -379613.000000 0 0 1
11.547499 -1.240199 -27.068675 29.454983 -0.106990 2.736294 0.047883 -0.009972 -44563.200000 0 0 1
12.493099 -2.240899 -27.771375 30.534381 -0.177484 2.712904 0.051471 -0.014223 -11893.500000 0 0 1
11.887199 -3.522899 -27.930515 30.558632 -0.288115 2.723827 0.063992 -0.019276 -2074.450000 0 0 1
12.669699 -4.537299 -28.484555 31.503623 -0.343892 2.700223 0.064177 -0.019047 -186827.000000 0 0 1
12.063299 -5.913599 -28.020535 31.074817 -0.455788 2.694510 0.062864 -0.016310 142569.000000 0 0 1
11.978099 -6.054399 -26.631885 29.822607 -0.468003 2.674786 0.052843 -0.017836 -208434.000000 0 0 1
11.214799 -7.154999 -26.261135 29.438291 -0.567890 2.672711 0.056303 -0.018862 -188181.000000 0 0 1
10.778099 -7.091799 -24.769285 27.928096 -0.581966 2.661376 0.048139 -0.020100 -590107.000000 0 0 1
11.822699 -7.126699 -23.855385 27.561666 -0.542474 2.616999 0.021245 -0.012842 -828221.000000 0 0 1
11.440499 -6.894199 -22.541785 26.202043 -0.542339 2.606667 0.016586 -0.009245 106649.000000 0 0 1
12.524999 -6.726299 -21.407285 25.698065 -0.492831 2.555360 0.016312 -0.011765 330605.000000 0 0 1
13.287799 -5.556399 -21.428285 25.818803 -0.396061 2.549812 0.011270 -0.008994 325045.000000 0 0 1
14.353699 -5.701799 -20.456485 25.632147 -0.378121 2.494897 0.013506 -0.008754 685794.000000 0 0 1
14.871899 -4.370099 -19.925385 25.244645 -0.285805 2.480451 0.015882 -0.004923 -114164.000000 0 0 1
15.621699 -3.538499 -20.824185 26.271756 -0.222753 2.485932 0.014340 -0.002823 416688.000000 0 0 1
16.107399 -2.391299 -20.099985 25.868437 -0.147383 2.460695 0.017196 0.001235 -303787.000000 0 0 1
17.065599 -1.579499 -20.982685 27.092482 -0.092292 2.456695 0.004450 -0.001446 -549402.000000 0 0 1
18.308099 -2.180299 -21.124485 28.038974 -0.118531 2.424010 0.015913 -0.008665 -818882.000000 0 0 1
19.129599 -1.482999 -21.996885 29.189104 -0.077369 2.424317 0.019062 -0.007938 935072.000000 0 0 1
20.567699 -2.064199 -22.309585 30.413957 -0.100026 2.394299 0.015920 -0.004307 -220953.000000 0 0 1
21.446599 -2.037299 -21.243085 30.255179 -0.094710 2.349182 0.016596 -0.002924 -819936.000000 0 0 1
22.741399 -2.481099 -21.442385 31.354473 -0.108671 2.323850 0.007221 -0.004040 -212259.000000 0 0 1
23.649599 -1.618699 -22.355785 32.583813 -0.068339 2.326912 0.019712 -0.009033 -1187090.000000 0 0 1
23.276899 -1.727999 -23.737685 33.290805 -0.074101 2.364621 0.016797 -0.006294 258692.000000 0 0 1
24.136199 -0.988499 -24.603285 34.479775 -0.040932 2.365359 0.012432 0.005819 1445300.000000 0 0 1
25.524399 -1.698099 -24.980385 35.754694 -0.066431 2.344320 0.009904 -0.000478 176960.000000 0 0 1
26.430799 -1.779499 -23.893585 35.674321 -0.067225 2.304695 0.011569 -0.001068 -418468.000000 0 0 1
27.582199 -2.441099 -24.337185 36.865095 -0.088273 2.291840 -0.003911 0.010168 370925.000000 0 0 1
28.683799 -1.593999 -25.080575 38.135763 -0.055514 2.288512 -0.008509 -0.000389 -592890.000000 0 0 1
28.252399 -1.223899 -26.350195 38.652668 -0.043293 2.320904 0.009447 -0.005701 -106824.000000 0 0 1
28.999999 -0.152599 -26.834605 39.511002 -0.005262 2.317425 0.007931 -0.014165 -885163.000000 0 0 1
28.508699 0.298901 -28.218695 40.113963 0.010484 2.351055 0.018297 -0.010192 464708.000000 0 0 1
27.095299 0.450501 -28.308785 39.188589 0.016625 2.378024 0.018861 -0.001503 343602.000000 0 0 1
26.679999 1.721601 -27.960975 38.685946 0.064438 2.378596 0.019281 0.000343 -242531.000000 0 0 1
25.160299 2.021701 -28.059295 37.741913 0.080181 2.409013 0.020486 -0.007835 382798.000000 0 0 1
24.389899 1.641801 -26.926085 36.367248 0.067213 2.404452 0.020511 -0.006116 30518.000000 0 0 1
23.021499 1.843901 -27.167195 35.657340 0.079924 2.437032 0.019763 -0.009004 -677396.000000 0 0 1
22.047799 1.387801 -26.122035 34.210995 0.062862 2.439600 0.024676 -0.007823 -625277.000000 0 0 1
21.996999 2.255601 -24.968285 33.352226 0.102184 2.416781 0.032475 -0.008162 -158816.000000 0 0 1
21.028199 1.888801 -24.046385 31.999709 0.089582 2.421063 0.033171 -0.008812 -675933.000000 0 0 1
21.177099 2.523501 -22.647085 31.108328 0.118603 2.386207 0.027293 -0.006477 -364911.000000 0 0 1
20.734299 3.862001 -22.652285 30.950803 0.184151 2.391874 0.028577 -0.013745 486956.000000 0 0 1
20.865899 4.330901 -21.326585 30.149058 0.204653 2.356569 0.031707 -0.020223 -219861.000000 0 0 1
20.600699 5.805601 -21.211685 30.133526 0.274692 2.351702 0.033348 -0.017692 114882.000000 0 0 1
21.595299 6.619401 -21.840685 31.419563 0.297428 2.339397 0.022682 -0.015880 465265.000000 0 0 1
21.386399 8.005701 -21.570785 31.412865 0.358188 2.327717 0.013777 -0.018892 -450134.000000 0 0 1
21.709999 8.543601 -20.131185 30.815285 0.374919 2.282712 0.013183 -0.004782 195969.000000 0 0 1
23.111099 8.489801 -19.838685 31.619188 0.352045 2.249039 0.013493 0.001513 843018.000000 0 0 1
23.269299 8.543501 -18.417485 30.881312 0.351878 2.209800 0.031725 -0.006017 -61478.000000 0 0 1
22.958899 9.899501 -17.736585 30.654488 0.407097 2.187803 0.037540 -0.010848 379174.000000 0 0 1
21.553399 10.048501 -17.509485 29.531398 0.436256 2.205465 0.039975 -0.016750 546997.000000 0 0 1
21.315399 11.483001 -17.258885 29.733393 0.494141 2.190083 0.018122 -0.011385 1425530.000000 0 0 1
19.756699 11.854701 -17.188885 28.745763 0.540445 2.211753 0.019067 -0.016815 2052460.000000 0 0 1
19.026699 11.682701 -18.421585 28.945735 0.550662 2.260642 0.009146 -0.012919 377840.000000 0 0 1
18.602199 10.363301 -18.653785 28.309071 0.508279 2.290196 0.010845 -0.009193 -566163.000000 0 0 1
17.809499 10.155001 -19.926285 28.589493 0.518221 2.341973 0.019337 -0.021035 319193.000000 0 0 1
18.736199 10.261401 -21.021785 29.970935 0.501059 2.348164 0.030214 -0.023243 928198.000000 0 0 1
18.067799 10.097801 -22.253385 30.391184 0.509638 2.392389 0.020740 -0.025865 54472.100000 0 0 1
18.985999 10.497101 -23.449985 31.946191 0.505057 2.395058 0.029151 -0.022789 -88151.300000 0 0 1
19.113299 11.890901 -23.487285 32.532511 0.556531 2.377432 0.019802 -0.016859 122786.000000 0 0 1
19.861499 12.175201 -24.641085 33.910142 0.549927 2.384241 0.028953 -0.020570 -107988.000000 0 0 1
19.878199 13.671201 -24.924185 34.688032 0.602456 2.372474 0.043601 -0.030785 152783.000000 0 0 1
20.765099 14.183501 -25.927095 36.118905 0.599256 2.371471 0.032331 -0.034443 262813.000000 0 0 1
20.544299 15.575801 -26.278325 36.813369 0.648701 2.365742 0.046117 -0.022667 -174335.000000 0 0 1
19.244499 15.981401 -26.990205 36.799825 0.693028 2.394155 0.036004 -0.020896 131084.000000 0 0 1
18.073399 15.755401 -26.230785 35.537790 0.716984 2.401061 0.034733 -0.023841 -656625.000000 0 0 1
16.933499 16.097301 -26.960465 35.675386 0.760088 2.427543 0.026196 -0.019646 195329.000000 0 0 1
15.616799 15.454001 -26.437465 34.375138 0.780159 2.448207 0.020072 -0.017640 160733.000000 0 0 1
15.642699 14.084301 -26.750285 34.038791 0.733022 2.474909 0.016180 -0.012323 1110360.000000 0 0 1
14.431399 13.486501 -26.209415 32.818964 0.751565 2.495771 0.011411 -0.013198 957218.000000 0 0 1
14.343899 11.989801 -26.408675 32.356157 0.696240 2.525577 0.010878 -0.012704 -418818.000000 0 0 1
13.022999 11.602001 -26.184105 31.461282 0.727757 2.553976 0.021075 -0.009360 -376394.000000 0 0 1
12.951499 10.220601 -26.012935 30.803812 0.668086 2.576374 0.029446 -0.018980 900664.000000 0 0 1
11.484799 9.748601 -25.662105 29.757007 0.703812 2.610766 0.042261 -0.014842 890327.000000 0 0 1
10.904099 10.293701 -24.514585 28.737163 0.756611 2.592622 0.054649 -0.017249 134766.000000 0 0 1
9.712899 9.605901 -24.163485 27.757661 0.779860 2.627046 0.055102 -0.015758 306450.000000 0 0 1
8.940499 10.177101 -22.917385 26.621654 0.849992 2.607744 0.044689 -0.016347 262254.000000 0 0 1
7.999099 11.203001 -23.245285 27.015479 0.950727 2.606935 0.031947 -0.020558 460536.000000 0 0 1
7.354999 11.901401 -22.148885 26.197566 1.017251 2.578214 0.034516 -0.007857 746725.000000 0 0 1
8.339799 12.807101 -21.338885 26.247326 0.993588 2.520070 0.031971 -0.018049 285525.000000 0 0 1
9.311799 12.120601 -20.598285 25.649716 0.915710 2.503211 0.039872 -0.022984 -946341.000000 0 0 1
10.168799 12.967101 -19.955485 25.879945 0.905764 2.451330 0.038424 -0.022855 -1222220.000000 0 0 1
11.364199 12.323401 -19.281085 25.549393 0.825870 2.425931 0.040370 -0.021077 -394706.000000 0 0 1
12.338899 11.647001 -20.073985 26.284329 0.756560 2.439859 0.044001 -0.022631 78783.700000 0 0 1
11.945099 10.684801 -21.012285 26.426625 0.729764 2.489998 0.054996 -0.027628 -1082800.000000 0 0 1
13.141999 9.871501 -21.581185 27.127591 0.644231 2.490701 0.056636 -0.028686 36039.200000 0 0 1
13.814499 9.141801 -20.630585 26.458155 0.584594 2.465053 0.067688 -0.038366 301801.000000 0 0 1
14.741199 8.227201 -21.264985 27.151232 0.509048 2.470601 0.057974 -0.038326 1802.490000 0 0 1
15.096499 6.965801 -20.443385 26.350686 0.432309 2.458810 0.073819 -0.037536 122182.000000 0 0 1
16.148399 7.223901 -19.513485 26.338786 0.420644 2.405154 0.042310 -0.031085 398225.000000 0 0 1
16.622599 5.965801 -19.022185 25.956600 0.344579 2.393291 0.032013 -0.043960 221715.000000 0 0 1
17.521199 6.149601 -17.744985 25.684519 0.337548 2.333505 0.053210 -0.034643 349531.000000 0 0 1
18.709399 6.904001 -17.953085 26.833190 0.353511 2.303743 0.038826 -0.036638 822249.000000 0 0 1
19.601299 7.142001 -16.860585 26.823468 0.349413 2.250517 0.043854 -0.038965 829443.000000 0 0 1
20.344899 5.897101 -16.197885 26.665750 0.282125 2.223632 0.044712 -0.036450 -22828.500000 0 0 1
21.416999 5.336101 -16.968685 27.840584 0.244181 2.226219 0.040004 -0.032114 546193.000000 0 0 1
21.830799 4.167401 -16.361585 27.598052 0.188626 2.205393 0.056824 -0.032203 -2108250.000000 0 0 1
23.239699 3.901801 -16.699485 28.882183 0.166342 2.187309 0.027879 -0.000471 -1969930.000000 0 0 1
23.714599 2.797401 -15.928885 28.704304 0.117419 2.159075 0.027176 -0.004464 -474801.000000 0 0 1
24.977899 2.466901 -16.410585 29.988137 0.098444 2.149855 0.029131 -0.009196 -418739.000000 0 0 1
25.753699 1.405301 -15.598485 30.142008 0.054513 2.114723 0.043936 -0.023130 -26117.200000 0 0 1
25.167299 0.151501 -15.775185 29.703070 0.006020 2.130690 0.046573 -0.016814 396018.000000 0 0 1
26.187099 -0.859399 -15.942685 30.670376 -0.032806 2.117422 0.038553 -0.008423 198546.000000 0 0 1
25.665199 -2.312699 -16.181685 30.428571 -0.089868 2.131512 0.024977 -0.012425 -352774.000000 0 0 1
25.156899 -2.879799 -14.999485 29.430382 -0.113977 2.105586 0.030228 -0.008639 303786.000000 0 0 1
24.835699 -4.236499 -15.234385 29.442255 -0.168955 2.114644 0.025490 -0.005450 -1332770.000000 0 0 1
24.226099 -4.978399 -14.023385 28.431385 -0.202676 2.086602 0.018715 -0.005471 374786.000000 0 0 1
22.851899 -4.748399 -13.765485 27.096959 -0.204875 2.103667 0.020443 0.005115 627951.000000 0 0 1
21.933799 -5.170899 -14.799985 26.960514 -0.231523 2.151904 0.028301 0.004146 126378.000000 0 0 1
20.458099 -5.369499 -14.318485 25.541816 -0.256674 2.165894 0.036468 0.002734 361659.000000 0 0 1
20.154599 -6.375199 -13.348185 25.000502 -0.306357 2.134022 0.036190 0.006820 260039.000000 0 0 1
20.768699 -6.198799 -12.089785 24.817874 -0.290051 2.079609 0.056979 0.000986 -789912.000000 0 1 0
20.749099 -7.441299 -11.181585 24.716915 -0.344344 2.040235 0.067381 0.001811 -144372.000000 0 1 0
19.510399 -8.025999 -10.792085 23.696866 -0.390270 2.043643 0.067284 0.002522 848507.000000 0 1 0
18.991199 -8.921499 -11.794085 24.069882 -0.439173 2.082879 0.047599 -0.000367 123607.000000 0 1 0
17.582099 -9.533499 -11.538085 23.089938 -0.496856 2.094051 0.062716 -0.010373 1145520.000000 0 1 0
16.494099 -8.617099 -11.778585 22.023732 -0.481434 2.135083 0.048977 -0.006585 710578.000000 0 1 0
15.262899 -9.202199 -12.127485 21.557190 -0.542559 2.168291 0.050170 -0.007369 372202.000000 0 1 0
14.103099 -8.227799 -12.478385 20.550041 -0.528127 2.223353 0.036189 -0.003044 -5674.830000 0 1 0
14.176399 -7.429399 -13.659385 21.041508 -0.482716 2.277281 0.032771 -0.001581 1016210.000000 0 1 0
15.280899 -6.479999 -13.679185 21.508519 -0.401073 2.260086 0.034995 -0.000085 752210.000000 0 1 0
15.083699 -5.463399 -14.794985 21.823343 -0.347507 2.315757 0.014886 0.002761 -266962.000000 0 1 0
14.174399 -4.486999 -14.358985 20.669475 -0.306576 2.338792 0.025974 -0.001847 -228556.000000 0 1 0
13.885999 -3.490299 -15.342285 20.985444 -0.246252 2.390717 0.026157 -0.007337 -267480.000000 0 1 0
14.909299 -2.347499 -15.511885 21.642933 -0.156170 2.369881 0.022861 -0.009384 -1069460.000000 0 1 0
15.996799 -2.742599 -16.251285 22.967884 -0.169796 2.356844 0.016796 -0.007726 -631600.000000 0 1 0
17.030699 -1.765999 -16.293885 23.635866 -0.103326 2.331417 0.023761 -0.001097 183700.000000 0 1 0
18.209799 -2.002299 -15.354085 23.903011 -0.109517 2.268356 0.034615 -0.001089 -1011150.000000 0 1 0
17.826899 -1.874899 -14.001685 22.745566 -0.104787 2.233916 0.034256 0.004635 127677.000000 0 1 0
18.829199 -2.258499 -13.064485 23.028685 -0.119376 2.174036 0.035927 0.004004 -183377.000000 0 1 0
18.421399 -2.589799 -11.611085 21.928801 -0.139671 2.128796 0.036547 0.010246 -336576.000000 0 1 0
18.180999 -1.522099 -10.775285 21.188966 -0.083524 2.104276 0.037555 0.007351 541513.000000 0 1 0
17.515799 -1.967999 -9.611385 20.076229 -0.111886 2.070021 0.029135 0.006581 -1016690.000000 0 1 0
17.259099 -0.865899 -8.600485 19.302710 -0.050129 2.032594 0.011081 0.005714 163016.000000 0 1 0
18.373699 -0.407599 -7.810485 19.969042 -0.022180 1.972655 0.004595 0.006503 2095110.000000 0 1 0
19.527999 0.215101 -8.470685 21.287121 0.011015 1.980051 0.016072 0.001016 827592.000000 0 1 0
19.316699 1.455901 -9.409685 21.535939 0.075228 2.022978 0.018301 -0.002228 -728406.000000 0 1 0
19.224799 2.638601 -8.692185 21.262860 0.136398 1.991931 0.017165 0.001259 746491.000000 0 1 0
18.654499 3.678601 -9.504585 21.256989 0.194698 2.034348 0.012070 -0.005833 -301088.000000 0 1 0
18.480199 5.095301 -8.862585 21.119310 0.269032 2.003849 0.014291 -0.002101 -410320.000000 0 1 0
17.848899 5.959001 -9.794585 21.213835 0.322223 2.050715 0.009530 -0.006069 288253.000000 0 1 0
18.099599 7.342401 -9.499185 21.719596 0.385382 2.023452 0.011260 -0.008442 -199296.000000 0 1 0
-25.632111 -29.789169 5.941015 39.745382 0.860266 1.420757 0.040480 -0.013033 -89787.500000 0 0 1
-25.948221 -28.530929 6.521815 39.113401 0.832770 1.403273 0.043955 -0.013899 221946.000000 0 0 1
-24.764301 -27.738729 6.583715 37.763117 0.841990 1.395558 0.047889 -0.010554 -47180.200000 0 0 1
-24.899001 -26.471619 7.561715 37.119892 0.816002 1.365650 0.046930 -0.009531 -960528.000000 0 0 1
-25.869481 -25.529849 7.307315 37.072902 0.778791 1.372391 0.047038 -0.010782 876507.000000 0 0 1
-27.269301 -25.908859 7.442115 38.344085 0.759821 1.375469 0.043617 -0.009790 1384530.000000 0 0 1
-27.777881 -26.267019 8.898815 39.252463 0.757450 1.342101 0.030459 -0.006862 -441607.000000 0 0 1
-27.131251 -27.374029 9.504915 39.696167 0.789852 1.329006 0.040743 -0.007725 -190979.000000 0 0 1
-27.389761 -27.362099 10.875015 40.213796 0.784893 1.296957 0.032967 -0.000889 -379482.000000 0 0 1
-26.378591 -28.196079 11.656215 40.332571 0.818689 1.277612 0.018368 0.004600 346869.000000 0 0 1
-25.190641 -27.519629 12.051515 39.206344 0.829554 1.258351 0.030676 0.004546 94707.700000 0 0 1
-25.363931 -26.851229 13.289215 39.254563 0.813874 1.225432 0.027704 0.004054 -600667.000000 0 0 1
-24.126301 -26.187649 13.887915 38.219701 0.826345 1.198913 0.046212 0.005245 -283065.000000 0 0 1
-23.062201 -27.070989 14.145415 38.272658 0.865191 1.192222 0.061102 0.002427 -314669.000000 0 0 1
-22.169601 -26.565249 15.109415 37.755769 0.875350 1.159074 0.059738 -0.001567 -212139.000000 0 0 1
-21.489001 -27.695659 15.840515 38.467501 0.910926 1.146379 0.049893 -0.005960 -282516.000000 0 0 1
-22.350701 -28.422469 16.693115 39.825252 0.904419 1.138277 0.045293 0.001549 277960.000000 0 0 1
-21.640701 -29.490479 17.271215 40.451244 0.937731 1.129664 0.056693 -0.005770 227853.000000 0 0 1
-22.571201 -30.351179 18.147415 41.952138 0.931360 1.123450 0.066408 -0.018209 973847.000000 0 0 1
-23.774201 -30.924739 17.605415 42.796060 0.915386 1.146829 0.013372 -0.010436 1156990.000000 0 0 1
-24.376201 -32.009439 18.350615 44.221583 0.919956 1.142887 0.020975 -0.007996 -157209.000000 0 0 1
-25.574421 -32.715479 17.723815 45.149609 0.907300 1.167386 0.016850 -0.007867 -279367.000000 0 0 1
-25.173981 -33.340159 16.501015 44.917469 0.924062 1.194624 0.018023 -0.002514 -93522.900000 0 0 1
-25.863311 34.376035 16.159615 45.953844 -0.925784 1.211464 0.011709 -0.001303 -988878.000000 0 0 1
-25.238121 33.586468 14.996315 44.608329 -0.926376 1.227941 0.003271 -0.008081 -120846.000000 0 0 1
-23.980501 32.973058 15.145115 43.493235 -0.941998 1.215127 -0.006568 -0.009630 -554804.000000 0 0 1
-22.931001 33.799712 14.767515 43.431910 -0.974689 1.223863 0.000745 -0.006606 -1120140.000000 0 0 1
-21.602801 33.040918 14.825015 42.168286 -0.991741 1.211551 0.036108 -0.017142 -419065.000000 0 0 1
-21.471101 32.064581 13.818015 40.988816 -0.980752 1.226944 0.029162 -0.016427 -223852.000000 0 0 1
-20.327201 31.270291 13.959915 39.823428 -0.994387 1.212643 0.028668 -0.014184 -199748.000000 0 0 1
-20.121101 30.357361 12.719015 38.577213 -0.985470 1.234808 0.022360 -0.013442 143603.000000 0 0 1
-19.811801 31.081521 11.512615 38.614877 -1.003320 1.268054 0.012124 -0.009822 5334.200000 0 0 1
-20.021501 30.309811 10.347415 37.770546 -0.987032 1.293294 0.025486 -0.016154 -44119.900000 0 0 1
-19.433201 30.953291 9.092115 37.661945 -1.010169 1.326974 0.014283 -0.012489 524766.000000 0 0 1
-17.996901 31.065821 9.050115 37.025373 -1.045725 1.323864 0.010597 -0.017424 676753.000000 0 0 1
-17.530101 31.299971 7.753715 36.703034 -1.060257 1.357937 0.019298 -0.012412 -143200.000000 0 0 1
-17.184201 30.032171 7.034815 35.308875 -1.051074 1.370218 0.022374 -0.014723 122919.000000 0 0 1
-18.314401 29.193271 6.688115 35.105487 -1.010509 1.379110 0.009226 -0.010089 776276.000000 0 0 1
-18.274401 27.894591 7.235715 34.123562 -0.990828 1.357130 0.000296 -0.009344 -232061.000000 0 0 1
-19.099101 26.901481 6.417715 33.610302 -0.953414 1.378672 0.009414 -0.001092 -245673.000000 0 0 1
-18.568801 26.503491 5.157215 32.769380 -0.959656 1.412760 0.026899 -0.007312 196958.000000 0 0 1
-19.509601 25.656331 4.566315 32.553388 -0.920659 1.430061 0.031694 -0.009202 -663264.000000 0 0 1
-19.023601 24.977401 3.275215 31.567309 -0.919892 1.466856 0.043829 -0.013795 -2079100.000000 0 0 1
-18.868301 25.768781 2.082315 32.005919 -0.938775 1.505690 0.041508 -0.012693 -362175.000000 0 0 1
-17.764401 26.620351 1.993415 32.065413 -0.982339 1.508589 0.041089 -0.009705 125172.000000 0 0 1
-16.379201 25.860081 2.173915 30.687911 -1.006195 1.499897 0.044602 -0.011333 -535242.000000 0 0 1
-16.138501 24.680991 1.347715 29.519804 -0.991696 1.525126 0.053770 -0.013817 131962.000000 0 0 1
-15.864901 25.056781 0.010915 29.656997 -1.006352 1.570428 0.053894 -0.015696 -89709.700000 0 0 1
-15.379801 23.827071 -0.758485 28.369753 -0.997608 1.597535 0.052671 -0.020530 -55392.800000 0 0 1
-16.508201 23.031871 -1.006985 28.354925 -0.948914 1.606317 0.058462 -0.032726 237852.000000 0 0 1
-16.256201 22.034571 -1.976385 27.453460 -0.935176 1.642849 0.059831 -0.027191 126936.000000 0 0 1
-15.414801 20.760271 -1.580885 25.905678 -0.932103 1.631859 0.057376 -0.029303 179195.000000 0 0 1
-15.962401 19.889771 -0.585485 25.509685 -0.894507 1.593750 0.057392 -0.034188 -21365.400000 0 0 1
-14.996701 19.000571 -0.076385 24.205961 -0.902628 1.573952 0.065224 -0.030281 -296576.000000 0 1 0
-15.542801 17.866371 0.832015 23.695529 -0.854835 1.535676 0.051691 -0.031011 104639.000000 0 1 0
-16.326801 16.903471 0.153915 23.501392 -0.802750 1.564247 0.048877 -0.028582 401605.000000 0 1 0
-17.102001 16.109571 1.013215 23.516448 -0.755525 1.527698 0.052155 -0.035670 -47024.800000 0 1 0
-17.709101 14.863271 0.328015 23.122212 -0.698250 1.556610 0.057753 -0.029698 -434207.000000 0 1 0
-18.779301 15.111571 -0.545985 24.110575 -0.677596 1.593443 0.063812 -0.031644 245895.000000 0 1 0
-19.473101 13.919071 -0.883385 23.952506 -0.620580 1.607685 0.055376 -0.023556 -181599.000000 0 1 0
-20.567101 14.080571 -1.953985 25.001723 -0.600326 1.649030 0.056869 -0.014688 -704268.000000 0 0 1
-21.417501 12.965571 -2.220285 25.134539 -0.544361 1.659248 0.046462 -0.013319 1098580.000000 0 0 1
-22.498901 12.657571 -1.333485 25.849426 -0.512455 1.622406 0.057511 -0.008599 637033.000000 0 0 1
-23.643501 13.734471 -1.309685 27.374552 -0.526256 1.618658 0.056703 -0.011173 -586662.000000 0 0 1
-23.188201 14.881971 -0.649585 27.560618 -0.570582 1.594368 0.052678 -0.020072 -486651.000000 0 0 1
-24.222701 15.663171 -0.170585 28.846200 -0.574004 1.576710 0.042190 -0.014538 -1002600.000000 0 0 1
-23.846701 16.894171 0.683415 29.232605 -0.616374 1.547416 0.036467 -0.021480 -136389.000000 0 0 1
-23.496301 16.601971 2.025815 28.841039 -0.615127 1.500498 0.035646 -0.023306 164621.000000 0 0 1
-23.338601 17.747371 2.887415 29.461783 -0.650143 1.472633 0.033466 -0.026225 59929.400000 0 0 1
-24.632501 18.407271 3.422515 30.940287 -0.641755 1.459953 0.041916 -0.030106 -468152.000000 0 0 1
-25.488091 17.568971 4.209815 31.241544 -0.603509 1.435635 0.046052 -0.026157 2033400.000000 0 0 1
-26.816341 18.177971 4.410915 32.695733 -0.595718 1.435476 0.047552 -0.034443 1897150.000000 0 0 1
-27.771191 18.242671 3.183415 33.379158 -0.581205 1.475280 0.036423 -0.027290 -279237.000000 0 0 1
-28.901671 19.113771 3.272115 34.804447 -0.584304 1.476643 0.033731 -0.018541 554257.000000 0 0 1
-29.628881 19.191471 2.077015 35.362369 -0.574777 1.512027 0.020447 -0.017707 209706.000000 0 0 1
-30.934211 20.051371 2.170715 36.928240 -0.575105 1.511980 0.019808 -0.024124 548634.000000 0 0 1
-32.056781 19.268871 2.589415 37.491754 -0.541217 1.501675 0.026486 -0.016834 759099.000000 0 0 1
-33.216621 19.998671 2.990815 38.887475 -0.541939 1.493811 0.037931 -0.017497 404564.000000 0 0 1
-33.252701 20.626771 4.404715 39.377751 -0.555215 1.458704 0.039812 -0.025961 -567161.000000 0 0 1
-32.291631 21.677071 4.461715 39.147819 -0.591197 1.456577 0.030966 -0.019572 400695.000000 0 0 1
-32.172901 22.119871 5.783215 39.469353 -0.602308 1.423743 0.054523 -0.020637 -124317.000000 0 0 1
-30.979781 23.074971 6.070515 39.103098 -0.640190 1.414922 0.044454 -0.016464 -71573.000000 0 0 1
-31.039891 24.338251 5.437015 39.816911 -0.664968 1.433818 0.041831 -0.008410 90798.300000 0 0 1
-30.276751 25.302931 6.146615 39.933705 -0.696146 1.416262 0.029275 -0.007213 -201345.000000 0 0 1
-30.694321 26.757331 5.788615 41.129116 -0.716978 1.429585 0.019896 -0.001193 -166063.000000 0 0 1
-31.845091 27.113081 6.521315 42.329145 -0.705309 1.416118 0.026967 0.004499 -127274.000000 0 0 1
-32.204871 28.477841 6.271515 43.445058 -0.724057 1.425935 0.019114 0.009861 1195650.000000 0 0 1
-33.450811 28.892161 7.183815 44.780810 -0.712406 1.409678 0.016717 0.010831 594765.000000 0 0 1
-32.975081 28.999981 8.520615 44.732044 -0.721346 1.379144 0.022546 -0.002070 465015.000000 0 0 1
-33.821321 29.740241 9.429315 46.013864 -0.721279 1.364411 0.027497 0.000174 1559250.000000 0 0 1
-35.177684 28.968771 9.806715 46.613633 -0.688906 1.358830 0.022014 0.007134 997010.000000 0 0 1
-34.816332 27.719151 10.383015 45.698307 -0.672391 1.341587 0.031691 -0.002943 605511.000000 0 0 1
35.495601 27.262601 11.420315 46.191024 0.654957 1.320965 0.026217 -0.001532 218552.000000 0 0 1
-35.029161 25.981241 11.941315 45.217939 -0.638170 1.303543 0.050343 -0.008029 -171850.000000 0 0 1
-33.855691 26.177141 12.674915 44.632992 -0.658183 1.282853 0.040783 -0.013531 -88914.300000 0 0 1
-33.440761 25.063021 13.467015 43.906719 -0.643165 1.259053 0.053509 -0.015782 -14768.300000 0 0 1
-32.278771 25.401631 14.425015 43.534388 -0.666730 1.233065 0.055898 -0.017969 -28931.300000 0 0 1
-32.561121 26.319241 15.467915 44.633904 -0.679783 1.216905 0.042165 -0.011858 -285578.000000 0 0 1
-31.370491 26.726371 16.079815 44.237620 -0.705630 1.198788 0.066817 -0.009874 -285393.000000 0 0 1
-31.592011 27.897961 17.065015 45.470497 -0.723382 1.186077 0.037573 -0.010493 -348473.000000 0 0 1
-31.823141 29.132661 16.413715 46.160960 -0.741289 1.207266 0.052101 -0.014697 181601.000000 0 0 1
-32.237031 30.103611 17.376615 47.406754 -0.751190 1.195506 0.032002 -0.012444 41614.100000 0 0 1
-31.937021 31.509751 16.759215 47.892682 -0.778664 1.213297 0.028363 -0.012388 -693975.000000 0 0 1
-30.577871 31.722171 16.612615 47.088016 -0.803764 1.210235 0.019410 -0.006985 -909827.000000 0 0 1
-30.342631 32.856281 15.771815 47.423207 -0.825151 1.231763 0.012665 0.001429 -1028930.000000 0 0 1
-28.973251 32.972617 15.131215 46.428401 -0.849871 1.238828 0.025119 -0.004866 -1071430.000000 0 0 1
-28.643441 32.069671 14.077615 45.244776 -0.841771 1.254400 0.031574 -0.008218 192191.000000 0 0 1
-28.411101 30.734821 14.490215 44.292056 -0.824666 1.237509 0.031474 -0.007590 -130783.000000 0 0 1
-29.533681 29.735281 14.060115 44.205340 -0.788800 1.247110 0.059153 -0.013529 308023.000000 0 0 1
-29.847101 29.536951 12.721615 43.876194 -0.780175 1.276629 0.070296 -0.020810 -370463.000000 0 0 1
-30.785811 28.519311 12.579015 43.810374 -0.747199 1.279573 0.089024 -0.020434 -133349.000000 0 0 1
-30.830321 28.092551 11.080215 43.156358 -0.738968 1.311143 0.068925 -0.009963 -43097.200000 0 0 1
-29.623931 27.492001 10.685115 41.803816 -0.748089 1.312327 0.058827 -0.005981 -409622.000000 0 0 1
-29.280611 27.820781 9.339415 41.455696 -0.759838 1.343559 0.048971 -0.009418 770671.000000 0 0 1
-28.020931 27.084021 8.743015 39.939417 -0.768398 1.350102 0.046026 -0.008243 800758.000000 0 0 1
-27.862331 27.454381 7.348115 39.800092 -0.778023 1.385105 0.036549 -0.004959 -1190420.000000 0 0 1
-26.786161 26.824631 6.798015 38.513274 -0.786116 1.393356 0.029146 -0.007802 -1176660.000000 0 0 1
-26.604151 27.163911 5.308115 38.390558 -0.795808 1.432086 0.016905 -0.016709 -346350.000000 0 0 1
-26.011081 28.392611 5.013615 38.831083 -0.829145 1.441321 0.025402 -0.011422 107760.000000 0 0 1
-25.668791 28.557971 3.665615 38.573064 -0.838627 1.475622 0.018685 -0.009068 63147.900000 0 0 1
-24.561501 29.630771 3.420915 38.638744 -0.878669 1.482144 0.017015 -0.015629 737120.000000 0 0 1
-23.269901 29.235751 3.895015 37.568452 -0.898536 1.466932 0.014539 -0.018848 881304.000000 0 0 1
-22.265001 30.168731 3.424515 37.651161 -0.935009 1.479717 0.021666 -0.021630 -354851.000000 0 0 1
-20.861601 29.713351 3.708015 36.494369 -0.958666 1.469016 0.013655 -0.017602 -535634.000000 0 0 1
-19.892801 30.668251 3.248115 36.698983 -0.995374 1.482173 0.011156 -0.014822 -470858.000000 0 0 1
-18.597101 30.197421 3.474215 35.634345 -1.018803 1.473145 0.018283 -0.013861 -31500.300000 0 0 1
-17.516101 31.260801 3.088615 35.966526 -1.060063 1.484816 0.023990 -0.012142 243213.000000 0 0 1
-17.507801 32.413141 3.884215 37.043514 -1.075551 1.465748 0.018338 -0.008395 -115947.000000 0 0 1
-16.440401 33.234959 3.469915 37.240966 -1.111420 1.477486 0.020385 0.008998 -224950.000000 0 0 1
-16.293501 -34.246606 4.182015 38.154914 1.126720 1.460969 0.019928 0.005965 344462.000000 0 0 1
-17.364501 -33.319579 3.918815 37.776678 1.090372 1.466873 0.015709 0.001536 577257.000000 0 0 1
-17.176601 -32.155189 4.724115 36.760156 1.080181 1.441928 -0.000321 -0.002607 -74139.800000 0 0 1
-18.338101 -31.145529 4.661115 36.442502 1.038662 1.442542 0.005671 -0.004560 -152447.000000 0 0 1
-18.396301 -30.270709 3.532815 35.598041 1.024715 1.471391 0.011888 -0.001222 245627.000000 0 0 1
-19.467901 -29.376379 3.772115 35.442907 0.985541 1.464166 0.016937 -0.007818 -363285.000000 0 0 1
-19.737901 -28.255329 2.740215 34.575383 0.961041 1.491460 0.018684 -0.000655 -229818.000000 0 0 1
-18.726101 -27.303749 2.592915 33.209709 0.969635 1.492640 0.019113 -0.004486 -236163.000000 0 0 1
-19.047201 -26.375869 1.572015 32.572282 0.945362 1.522515 0.014195 -0.002547 231873.000000 0 0 1
-18.081001 -25.150399 1.580315 31.015521 0.947488 1.519822 0.019546 -0.007794 14244.200000 0 0 1
-16.785801 -25.509529 1.190015 30.560028 0.988803 1.531846 0.030114 -0.012075 -738942.000000 0 0 1
-15.896001 -24.410899 1.359315 29.162006 0.993589 1.524167 0.032611 -0.017105 366245.000000 0 0 1
-14.557201 -24.708199 0.624215 28.684436 1.038382 1.549033 0.038801 -0.016175 -152101.000000 0 0 1
-14.546201 -24.834899 -0.800385 28.792443 1.040946 1.598598 0.032006 -0.009083 49891.800000 0 0 1
-14.775401 -23.616599 -1.517585 27.899091 1.011740 1.625219 0.039577 -0.011487 -284613.000000 0 0 1
-14.975701 -23.774999 -3.076185 28.266325 1.008686 1.679841 0.019682 -0.000036 1036250.000000 0 0 1
-13.756501 -24.235699 -3.723585 28.115397 1.054531 1.703626 0.029379 -0.001836 1099430.000000 0 0 1
-14.025201 -24.428799 -5.058985 28.619326 1.049619 1.748498 0.024088 -0.004081 1987.300000 0 0 1
-12.879701 -25.120149 -5.807985 28.820848 1.097021 1.773706 0.034240 -0.008920 -51554.900000 0 0 1
-12.781601 -26.536389 -5.675885 29.996082 1.121926 1.761165 0.033481 -0.012390 -321607.000000 0 0 1
-11.828901 -26.967239 -6.642485 30.187373 1.157430 1.792654 0.036087 -0.006518 194093.000000 0 0 1
22.529099 13.251201 28.335152 38.549131 0.531684 0.745071 0.013408 0.009191 179858.000000 0 0 1
23.599999 12.315301 28.598832 39.070702 0.480962 0.749578 0.019347 0.004410 593693.000000 0 0 1
23.142099 11.215601 29.305572 38.989268 0.451285 0.720264 0.030535 -0.008686 -330121.000000 0 0 1
23.131799 11.446101 30.858732 40.228779 0.459496 0.696518 0.030490 -0.008400 289540.000000 0 0 1
22.111099 12.330401 31.290992 40.250039 0.508703 0.680250 0.027716 -0.005987 344094.000000 0 0 1
22.368499 12.608301 32.677442 41.558804 0.513273 0.666008 0.020097 -0.005347 93435.600000 0 0 1
21.425399 13.717101 33.240827 41.858800 0.569474 0.653241 0.015902 0.005198 -572089.000000 0 0 1
20.243699 13.149101 33.646173 41.409796 0.576052 0.622339 0.018358 0.010151 -1045190.000000 0 0 1
19.377399 13.973901 34.354917 41.845117 0.624776 0.607633 0.022876 0.013198 -27688.900000 0 0 1
18.168399 13.307801 -33.726525 40.554492 0.632187 2.552841 0.014621 0.016100 358217.000000 0 0 1
17.082499 13.100701 34.152269 40.371000 0.654235 0.562433 0.009945 0.021002 260369.000000 0 0 1
16.027799 12.505601 -33.904725 39.532402 0.662578 2.601467 0.006083 0.018545 165753.000000 0 0 1
14.758099 12.117301 34.090039 39.073792 0.687452 0.510597 0.012063 0.022089 352938.000000 0 0 1
14.968599 11.098101 33.149700 38.028008 0.637991 0.512099 0.004668 0.030131 -592092.000000 0 0 1
13.760199 10.499301 32.823170 37.107127 0.651782 0.485264 0.016694 0.023093 -373257.000000 0 0 1
14.016799 9.369301 31.774982 35.970876 0.589225 0.487828 0.016641 0.024915 -71894.600000 0 0 1
14.439199 8.155401 32.307022 36.314525 0.514142 0.474230 0.010322 0.021722 -16250.100000 0 0 1
15.019799 7.248301 31.392692 35.547621 0.449617 0.488332 0.004775 0.001534 268103.000000 0 0 1
15.258099 5.809501 31.926582 35.858981 0.363801 0.472711 0.023958 -0.007066 -201210.000000 0 0 1
14.064899 5.113301 32.059002 35.380034 0.348695 0.436747 0.009728 0.000235 -511204.000000 0 0 1
14.453699 3.913401 32.670072 35.938249 0.264415 0.429771 0.020375 -0.005143 16766.000000 0 0 1
13.397199 2.809801 32.754821 35.500116 0.206734 0.395853 0.013269 -0.002656 -369866.000000 0 0 1
13.898099 1.547301 33.033458 35.871446 0.110875 0.400453 0.021613 -0.011062 493229.000000 0 0 1
12.775799 0.692301 33.338683 35.709496 0.054136 0.366441 0.019032 -0.009486 337652.000000 0 0 1
13.229199 -0.694499 33.829799 36.331107 -0.052449 0.373236 -0.000481 -0.009625 -31107.800000 0 0 1
13.497999 -1.557599 32.724750 35.433478 -0.114887 0.393547 -0.013168 -0.012224 -62841.700000 0 0 1
14.032099 -2.746099 33.197940 36.146149 -0.193259 0.406687 0.030427 -0.021973 -483598.000000 0 0 1
14.081299 -3.953299 32.185992 35.353213 -0.273702 0.426517 0.032643 -0.026709 -806037.000000 0 0 1
14.648599 -5.196599 32.592562 36.109018 -0.340901 0.444989 0.051209 -0.024507 1302630.000000 0 0 1
16.051999 -5.363699 32.904641 37.002045 -0.322481 0.475060 0.043893 -0.023161 1643050.000000 0 0 1
17.111099 -4.775999 31.911072 36.522820 -0.272190 0.507978 0.035807 -0.028414 -510047.000000 0 0 1
17.176799 -3.339299 31.807712 36.303221 -0.192012 0.502943 0.037137 -0.029858 -421800.000000 0 0 1
18.347499 -2.868899 31.208582 36.315794 -0.155109 0.536767 0.056730 -0.037305 -246081.000000 0 0 1
18.390299 -1.310399 31.146932 36.194635 -0.071135 0.534467 0.054298 -0.034890 -345946.000000 0 0 1
18.506199 -0.687799 32.415372 37.332410 -0.037149 0.519051 0.049851 -0.027838 -17127.100000 0 0 1
18.240399 0.712901 32.450532 37.232478 0.039064 0.512411 0.051141 -0.015019 -372614.000000 0 0 1
19.343999 1.649101 31.973842 37.406369 0.085046 0.545689 0.055826 -0.017975 -628511.000000 0 0 1
19.727199 1.410001 30.650092 36.477097 0.071354 0.573042 0.050320 -0.021118 288147.000000 0 0 1
20.803799 2.273701 30.220192 36.759050 0.108861 0.605679 0.045060 -0.017864 428480.000000 0 0 1
20.677499 3.814401 30.148812 36.756761 0.182420 0.608992 0.044605 -0.009253 -402007.000000 0 0 1
20.379399 4.446801 31.388322 37.687142 0.214833 0.586531 0.037535 -0.015365 231966.000000 0 0 1
19.723899 5.667501 31.163472 37.313734 0.279804 0.582347 0.036548 -0.013865 -206926.000000 0 0 1
19.341499 6.324801 32.524162 38.365581 0.316046 0.559080 0.038245 -0.011972 54835.500000 0 0 1
18.320199 5.640201 33.227942 38.360627 0.298659 0.523251 0.028077 -0.004414 155968.000000 0 0 1
18.298099 6.032801 -34.234510 39.283798 0.318473 2.628981 0.022851 0.002185 334751.000000 0 0 1
17.161499 5.206901 -33.540945 38.034509 0.294579 2.650580 0.019982 0.002937 164865.000000 0 0 1
17.344299 3.803801 -33.525125 37.937154 0.215893 2.654509 0.011591 -0.000327 239737.000000 0 0 1
16.213499 3.121201 -32.981935 36.883973 0.190180 2.677455 0.001400 -0.001605 327613.000000 0 0 1
16.054799 1.594101 -33.201075 36.913536 0.098967 2.689256 0.014998 -0.011261 -108071.000000 0 0 1
17.088899 0.914201 -32.526985 36.754197 0.053446 2.657262 0.018472 -0.009088 -28507.000000 0 0 1
17.276099 -0.417999 -33.043815 37.289838 -0.024191 2.659733 0.023819 -0.011234 172216.000000 0 0 1
18.343499 -1.220299 -32.211785 37.088707 -0.066427 2.622978 0.022389 -0.011284 146740.000000 0 0 1
18.058299 -1.457699 -30.852955 35.778931 -0.080547 2.610634 0.021232 -0.007829 244101.000000 0 0 1
18.227399 -0.223999 -30.150365 35.232553 -0.012289 2.597801 0.022092 -0.001614 -377245.000000 0 0 1
18.066299 -0.293499 -28.598795 33.828514 -0.016244 2.578119 0.016772 -0.002887 -300871.000000 0 0 1
16.817499 -0.726699 -28.122345 32.775336 -0.043184 2.602225 0.019703 -0.007754 -95406.500000 0 0 1
16.689299 -0.617499 -26.716805 31.507169 -0.036983 2.582920 0.017883 -0.005854 -60403.600000 0 0 1
17.403799 -1.716399 -25.890425 31.243437 -0.098304 2.547519 0.017264 -0.002742 -414476.000000 0 0 1
18.776799 -1.476199 -25.745495 31.899496 -0.078457 2.509989 0.014411 -0.002455 -691163.000000 0 0 1
19.542699 -2.651199 -25.833725 32.501189 -0.134839 2.489565 0.019642 0.000806 136201.000000 0 0 1
20.214399 -2.916899 -27.199375 34.013765 -0.143309 2.497522 0.019939 -0.007146 -71108.200000 0 0 1
21.439299 -2.203999 -27.351935 34.822830 -0.102442 2.474235 0.015550 -0.001931 -4528.550000 0 0 1
21.814299 -2.002799 -28.658945 36.072288 -0.091555 2.488958 0.013559 -0.007106 -514106.000000 0 0 1
23.297799 -1.695999 -28.821365 37.098988 -0.072668 2.460488 0.012562 -0.011080 -693366.000000 0 0 1
24.128899 -2.745399 -28.416195 37.379421 -0.113293 2.434432 0.011184 -0.011538 -1123800.000000 0 0 1
25.448699 -2.301999 -28.544945 38.311217 -0.090211 2.411452 0.011745 -0.012978 -532660.000000 0 0 1
26.442899 -3.462299 -28.354165 38.925225 -0.130194 2.386819 0.007081 -0.008990 -296282.000000 0 0 1
26.317899 -4.482299 -29.347405 39.673581 -0.168695 2.403453 0.017013 -0.013879 649613.000000 0 0 1
27.264399 -5.565199 -29.206995 40.340643 -0.201354 2.380393 0.009269 -0.012551 254260.000000 0 0 1
26.909199 -6.553999 -28.019595 39.397432 -0.238908 2.362005 0.007244 -0.008794 81460.400000 0 0 1
27.071599 -5.986499 -26.751265 38.527131 -0.217633 2.338311 0.003915 0.001306 256996.000000 0 0 1
26.666799 -6.869999 -25.722705 37.682524 -0.252141 2.322133 -0.007271 0.003255 -176175.000000 0 0 1
26.725699 -6.286799 -24.309585 36.670734 -0.231034 2.295502 -0.023462 0.014701 18896.000000 0 0 1
28.064399 -6.227499 -23.854085 37.355182 -0.218362 2.263441 -0.029342 0.010529 318886.000000 0 0 1
28.090899 -5.579899 -22.561785 36.459128 -0.196085 2.238041 -0.021296 0.002876 -948001.000000 0 0 1
29.476999 -5.317899 -22.035385 37.185101 -0.178489 2.205062 -0.017964 0.003006 -953831.000000 0 0 1
30.038999 -4.140099 -22.651785 37.849508 -0.136961 2.212386 -0.010744 -0.007463 76860.300000 0 0 1
31.394499 -3.997799 -22.285185 38.706930 -0.126659 2.184307 -0.004870 -0.008772 -270681.000000 0 0 1
31.925599 -2.634899 -22.762185 39.297629 -0.082346 2.188574 -0.006876 -0.007909 -76792.700000 0 0 1
31.294599 -1.551499 -22.092585 38.338511 -0.049537 2.184930 -0.013130 -0.006614 337526.000000 0 0 1
31.767699 -0.320799 -22.636185 39.008800 -0.010098 2.189874 -0.004200 -0.006943 -495675.000000 0 0 1
30.800599 0.784001 -22.295685 38.031423 0.025449 2.197211 -0.009316 -0.006720 -386886.000000 0 0 1
29.683099 0.697001 -23.161985 37.657001 0.023477 2.233281 -0.006664 -0.004670 -111389.000000 0 0 1
28.694699 1.628701 -22.848685 36.716493 0.056699 2.242474 -0.003807 -0.002534 -373412.000000 0 0 1
27.414199 1.646701 -23.688185 36.268169 0.059995 2.282520 0.003462 -0.003245 -567977.000000 0 0 1
26.568099 2.677501 -23.318285 35.451027 0.100440 2.288638 0.004723 -0.000894 34299.700000 0 0 1
25.498499 2.868201 -24.256885 35.310006 0.112014 2.328106 0.011202 -0.008126 -313837.000000 0 0 1
24.547899 3.894501 -23.752785 34.379664 0.157338 2.333525 0.021535 -0.008683 -1107040.000000 0 0 1
25.040899 5.210101 -23.864185 34.981297 0.205137 2.321561 0.014883 -0.007015 -435177.000000 0 0 1
24.091799 6.153401 -23.533185 34.235799 0.250068 2.328679 0.023452 -0.012182 -909223.000000 0 0 1
24.673299 7.515501 -23.144085 34.654049 0.295672 2.302127 0.031326 -0.010911 -52396.100000 0 0 1
25.265199 8.271901 -24.248285 35.982412 0.316404 2.310261 0.021210 -0.008469 443694.000000 0 0 1
25.573499 9.552501 -23.758985 36.190379 0.357482 2.286966 0.035035 -0.009455 -269814.000000 0 0 1
26.346099 10.436101 -24.800485 37.657578 0.377153 2.289725 0.049168 -0.008804 127245.000000 0 0 1
25.634099 10.859001 -25.975015 38.075272 0.400697 2.321566 0.041330 -0.019476 253347.000000 0 0 1
24.450399 11.599101 -25.795085 37.386462 0.442953 2.332227 0.047938 -0.022805 -113566.000000 0 0 1
23.694299 11.902801 -27.081475 37.901224 0.465525 2.366745 0.039396 -0.026606 -227509.000000 0 0 1
23.118099 10.862801 -27.866625 37.802060 0.439265 2.399672 0.035793 -0.020505 356317.000000 0 0 1
23.998099 9.918701 -28.453615 38.521391 0.391929 2.401854 0.033391 -0.021317 300503.000000 0 0 1
25.003799 10.305101 -29.608175 40.100238 0.390929 2.401423 0.032661 -0.017423 414005.000000 0 0 1
25.992399 11.279901 -29.219585 40.701660 0.409443 2.371573 0.028442 -0.014676 1079070.000000 0 0 1
26.906899 11.708901 -30.237495 42.135326 0.410448 2.371187 0.021811 -0.013080 1399350.000000 0 0 1
28.009799 10.646101 -30.718825 42.913104 0.363221 2.368620 0.025841 -0.010186 33489.900000 0 0 1
27.417099 9.681301 -31.519245 42.882254 0.339444 2.396490 0.030791 -0.017043 202830.000000 0 0 1
28.244099 8.586001 -31.911835 43.471988 0.295116 2.395104 0.029783 -0.010989 -268760.000000 0 0 1
27.509699 7.773101 -32.936905 43.612434 0.275380 2.426783 0.036098 -0.015189 -318313.000000 0 0 1
26.440899 7.094101 -32.350865 42.379546 0.262127 2.439296 0.037457 -0.014945 -336053.000000 0 0 1
25.938699 6.037901 -33.162735 42.532803 0.228703 2.464979 0.032018 -0.012725 863551.000000 0 0 1
24.502599 5.432801 -32.849945 41.340193 0.218194 2.489186 0.040636 -0.012347 454995.000000 0 0 1
23.450899 6.300601 -33.049305 41.010960 0.262474 2.507932 0.027259 -0.014557 -632773.000000 0 0 1
22.993499 6.862401 -31.835175 39.865673 0.290034 2.495697 0.028751 -0.010205 391839.000000 0 0 1
21.508799 7.358101 -31.909355 39.178783 0.329617 2.522586 0.020818 -0.011283 558540.000000 0 0 1
21.301199 8.585501 -32.555965 39.841471 0.383135 2.527224 0.019326 -0.002422 -866066.000000 0 0 1
19.984699 9.010601 -32.454865 39.165002 0.423581 2.547524 0.006802 0.010426 -825494.000000 0 0 1
19.558299 9.957601 -33.606215 40.137994 0.470920 2.563062 0.009815 0.014171 -195873.000000 0 0 1
19.283899 9.264101 33.950380 40.128800 0.447850 0.562292 0.024695 0.002706 -137718.000000 0 0 1
19.106999 10.207501 32.938017 39.423133 0.490654 0.581755 0.023243 0.007337 -670900.000000 0 0 1
18.032899 9.923001 31.936332 37.994482 0.503052 0.572495 0.017346 0.003127 -913826.000000 0 0 1
18.243899 8.949101 30.936922 37.013773 0.456039 0.581168 0.018074 -0.006400 -416519.000000 0 0 1
19.332199 9.077201 30.065062 36.878686 0.438982 0.617649 0.030820 -0.007750 -915801.000000 0 0 1
19.180999 10.093901 28.913972 36.136067 0.484422 0.643265 0.032978 -0.010112 -642283.000000 0 0 1
18.208299 9.675501 28.022582 34.791128 0.488434 0.634359 0.024225 -0.003349 -755251.000000 0 0 1
16.952199 10.174201 28.367612 34.577635 0.540544 0.608680 0.015133 -0.005652 -1087640.000000 0 0 1
15.799099 9.446801 27.641872 33.210340 0.538898 0.587503 0.032121 -0.004343 -536849.000000 0 0 1
15.716499 9.788601 26.298862 32.162947 0.557032 0.613434 0.031743 -0.004418 807273.000000 0 0 1
14.546799 9.328301 25.592822 30.880724 0.570208 0.593902 0.040674 -0.007837 585595.000000 0 0 1
14.402499 7.846001 25.250972 30.109854 0.498816 0.576036 0.048382 -0.004918 -123549.000000 0 0 1
14.308499 7.022701 26.396792 30.835728 0.456266 0.543226 0.040462 -0.001200 47475.700000 0 0 1
13.929299 5.693701 26.125542 30.149420 0.388033 0.522578 0.046333 -0.007407 -141798.000000 0 0 1
14.105199 4.885001 27.386972 31.190802 0.333398 0.499032 0.037606 -0.007604 -688711.000000 0 0 1
15.327499 4.292901 27.665672 31.917873 0.273081 0.522094 0.029898 -0.007184 -494964.000000 0 0 1
15.445499 3.848701 29.026122 33.104255 0.244206 0.501610 0.016411 -0.006494 -22235.600000 0 0 1
16.410799 2.689301 29.327952 33.714618 0.162430 0.515820 0.028570 -0.011770 -37142.800000 0 0 1
15.937099 1.401501 29.045452 33.160121 0.087714 0.503467 0.019417 -0.020111 301370.000000 0 0 1
14.981399 0.888501 30.000112 33.544574 0.059238 0.463852 0.009761 -0.015040 324468.000000 0 0 1
14.880899 -0.628699 29.946462 33.445882 -0.042224 0.461533 0.019263 -0.018198 -186198.000000 0 0 1
14.200499 -1.094699 28.763332 32.096445 -0.076937 0.459773 0.018447 -0.019172 275186.000000 0 0 1
14.845899 -0.999299 27.500682 31.267984 -0.067210 0.495953 0.020809 -0.013530 17891.400000 0 0 1
16.104399 -1.889899 27.152292 31.625470 -0.116819 0.538346 0.015381 -0.017528 2348220.000000 0 0 1
17.412699 -1.676499 27.782742 32.831288 -0.095984 0.561931 0.019709 -0.017961 1478430.000000 0 0 1
17.995299 -0.459299 27.378562 32.766254 -0.025518 0.581623 0.021996 -0.014300 -355814.000000 0 0 1
19.535399 -0.409199 27.633042 33.843526 -0.020943 0.615484 0.035377 -0.012169 646928.000000 0 0 1
20.222399 -1.282199 26.736852 33.547708 -0.063320 0.648518 0.027856 -0.014674 -253739.000000 0 0 1
21.584699 -1.393899 27.103702 34.676402 -0.064489 0.673541 0.040551 -0.016717 -81790.400000 0 0 1
22.361299 -1.945199 25.917502 34.285980 -0.086771 0.713736 0.042621 -0.007611 -397811.000000 0 0 1
22.360899 -1.028799 24.816802 33.420681 -0.045976 0.733914 0.042411 0.000807 58168.900000 0 0 1
21.888299 -1.733999 23.698762 32.306899 -0.079055 0.747264 0.030302 0.008065 -315228.000000 0 0 1
21.692299 -0.778899 22.498162 31.262275 -0.035891 0.767486 0.025163 -0.008757 -356127.000000 0 0 1
20.729899 0.209301 22.713462 30.751811 0.010096 0.739797 0.005382 0.000675 -271465.000000 0 0 1
20.423799 0.913201 21.597962 29.739493 0.044683 0.757962 0.025235 -0.000858 -227061.000000 0 0 1
-29.799941 -27.738869 -10.507185 42.046192 0.749593 1.823369 0.002378 0.008714 -61329.600000 0 0 1
-29.669041 -26.534769 -9.722985 40.974168 0.729690 1.810377 0.008055 0.011617 -443881.000000 0 0 1
-30.293791 -26.734369 -8.520985 41.292220 0.723064 1.778648 0.024386 0.001100 -756892.000000 0 0 1
-30.515181 -25.490469 -7.578385 40.476811 0.695920 1.759136 0.035540 -0.003799 92734.200000 0 0 1
-29.382201 -24.849369 -7.025885 39.117361 0.702009 1.751387 0.026052 -0.003519 -432517.000000 0 0 1
-28.805591 -25.528269 -5.900385 38.939301 0.725153 1.722910 0.011949 0.000016 763498.000000 0 0 1
-27.498631 -24.822669 -5.391185 37.435338 0.734298 1.715312 -0.002820 0.011166 185208.000000 0 0 1
-27.726151 -23.659469 -4.569185 36.734009 0.706422 1.695505 0.016982 0.000417 -33397.700000 0 0 1
-28.281841 -22.507469 -5.192985 36.515966 0.672192 1.713491 0.023467 -0.004348 -212275.000000 0 0 1
-28.316821 -21.239369 -4.279585 35.654845 0.643541 1.691115 0.022545 -0.003858 242729.000000 0 0 1
-27.069131 -20.572569 -4.046485 34.239487 0.649871 1.689255 0.018793 -0.008226 495831.000000 0 0 1
-27.293631 -19.400469 -3.216485 33.640248 0.617941 1.666557 0.040083 -0.002121 -463218.000000 0 0 1
-26.334191 -18.266669 -3.425085 32.231848 0.606450 1.677261 0.034513 -0.000180 -429228.000000 0 0 1
-26.571071 -17.475369 -4.587785 32.131886 0.581758 1.714066 0.030647 -0.005561 331170.000000 0 0 1
-25.678861 -16.366369 -4.668785 30.806809 0.567430 1.722933 0.037342 -0.009840 -32092.800000 0 0 1
-26.079771 -15.440569 -5.840985 30.865559 0.534555 1.761184 0.036211 -0.023111 514946.000000 0 0 1
-27.253951 -14.645169 -5.568085 31.436641 0.493087 1.748857 0.021352 -0.017839 678014.000000 0 0 1
-27.467031 -13.719169 -6.548485 31.393249 0.463230 1.780935 0.050272 -0.038718 -346864.000000 0 0 1
-28.822021 -13.043969 -6.343485 32.265986 0.424989 1.768685 0.053265 -0.026187 -660504.000000 0 0 1
-29.925481 -13.656869 -6.907885 33.611953 0.428132 1.777790 0.062817 -0.021612 -422389.000000 0 0 1
-31.125931 -13.013369 -6.552185 34.367172 0.396001 1.762623 0.059702 -0.025428 -350689.000000 0 0 1
-32.356671 -13.469769 -7.344685 35.809681 0.394470 1.777366 0.030895 -0.016474 -325463.000000 0 0 1
-32.875481 -14.636269 -6.679385 36.600981 0.418858 1.754317 0.031357 -0.016251 172679.000000 0 0 1
-32.766311 -15.823369 -7.431185 37.138022 0.449887 1.772253 0.038715 -0.020779 -1070830.000000 0 0 1
-33.468651 -17.093769 -6.892585 38.208052 0.472202 1.752186 0.018865 -0.014512 1192690.000000 0 0 1
-34.913790 -17.038269 -6.878285 39.453595 0.454009 1.746030 0.023018 -0.020668 1093970.000000 0 0 1
-35.431106 -16.261369 -5.828185 39.417802 0.430278 1.719197 0.030823 -0.020498 -998653.000000 0 0 1
34.248754 -16.416869 -5.666985 38.400592 -0.446985 1.718913 0.042532 -0.018697 -1101880.000000 0 0 1
33.463334 -15.766269 -6.628385 37.580653 -0.440303 1.748101 0.036493 -0.013772 -348594.000000 0 0 1
32.076954 -15.844669 -6.484585 36.359791 -0.458802 1.750101 0.031171 -0.025884 -311749.000000 0 0 1
31.521544 -14.971169 -5.336985 35.301942 -0.443408 1.722559 0.033630 -0.026164 -1034820.000000 0 0 1
31.710444 -15.491769 -4.025585 35.521156 -0.454436 1.684370 0.034661 -0.022829 278222.000000 0 0 1
30.978074 -14.736469 -3.093885 34.443820 -0.444025 1.660742 0.036736 -0.024308 -928427.000000 0 0 1
31.016934 -15.331469 -1.631385 34.637633 -0.459072 1.617912 0.061555 -0.019481 420816.000000 0 0 1
32.302114 -15.408769 -0.997585 35.802960 -0.445096 1.598663 0.069870 -0.010729 1133450.000000 0 0 1
33.371844 -16.147169 -1.599285 37.107530 -0.450649 1.613908 0.057463 -0.010786 -529117.000000 0 0 1
33.204254 -17.648069 -1.903085 37.651010 -0.488529 1.621363 0.043261 -0.016360 -1112200.000000 0 0 1
33.505884 -18.556169 -0.826085 38.310026 -0.505770 1.592361 0.059971 -0.021818 320731.000000 0 0 1
33.388634 -19.944369 -1.147385 38.908807 -0.538461 1.600290 0.049705 -0.029788 -77306.800000 0 0 1
34.452924 -20.592069 -2.066285 40.190880 -0.538717 1.622231 0.048771 -0.044390 -276125.000000 0 0 1
34.382264 -19.987269 -3.324585 39.908444 -0.526575 1.654198 0.026368 -0.039394 73492.000000 0 0 1
35.158200 -20.687269 -4.286785 41.017541 -0.531850 1.675499 0.057157 -0.038032 -170685.000000 0 0 1
35.006974 -20.088069 -5.727585 40.765476 -0.520955 1.711764 0.072398 -0.039319 -486595.000000 0 0 1
33.830474 -20.231869 -6.462285 39.944845 -0.538975 1.733291 0.054306 -0.047722 -398277.000000 0 0 1
33.739664 -19.494569 -7.665385 39.713490 -0.523931 1.765033 0.056090 -0.039336 -521475.000000 0 0 1
32.464634 -19.750369 -8.453385 38.929286 -0.546548 1.789687 0.055660 -0.045714 -537493.000000 0 0 1
32.637964 -20.865569 -9.243185 39.825183 -0.568819 1.805026 0.064851 -0.048766 4845.120000 0 0 1
31.668804 -21.005969 -10.241385 39.357971 -0.585669 1.834037 0.055106 -0.044967 -610334.000000 0 0 1
31.713504 -22.390069 -10.971385 40.341453 -0.614749 1.846229 0.053853 -0.032209 -83558.200000 0 0 1
31.474154 -23.434269 -10.046185 40.505718 -0.640008 1.821431 0.048776 -0.031643 90779.400000 0 0 1
31.219864 -24.688669 -10.667085 41.206760 -0.669106 1.832646 0.045354 -0.020437 -204544.000000 0 0 1
30.409934 -25.768969 -9.854385 41.059868 -0.702975 1.813163 0.042602 -0.021775 -1064700.000000 0 0 1
29.224314 -25.206269 -9.465885 39.736879 -0.711712 1.811323 0.042662 -0.024354 -1322650.000000 0 0 1
28.388844 -26.291669 -9.105985 39.750438 -0.747064 1.801928 0.029580 -0.019847 -428636.000000 0 0 1
26.968554 -25.874869 -8.707685 38.374934 -0.764704 1.799701 0.025782 -0.025154 -302537.000000 0 0 1
26.251944 -25.368069 -9.831185 37.806821 -0.768277 1.833857 0.025759 -0.025001 -143082.000000 0 0 1
25.044024 -24.765369 -9.414185 36.457558 -0.779804 1.831979 0.037031 -0.023740 169040.000000 0 0 1
24.186224 -24.279669 -10.645085 35.885842 -0.787326 1.871966 0.060811 -0.036359 -36919.800000 0 0 1
23.723724 -25.370369 -11.405785 36.559030 -0.818926 1.888076 0.051973 -0.030357 285155.000000 0 0 1
23.018524 -24.895769 -12.555785 36.156597 -0.824557 1.925445 0.051023 -0.013143 135071.000000 0 0 1
22.239424 -26.039169 -13.247085 36.716694 -0.863941 1.939913 0.054502 -0.022841 40745.100000 0 0 1
23.108324 -27.012369 -13.820385 38.140081 -0.863134 1.941594 0.041652 -0.008426 525081.000000 0 0 1
22.478024 -28.309669 -13.836885 38.706051 -0.899721 1.936371 0.036302 -0.007977 99763.100000 0 0 1
23.263624 -29.428269 -14.602685 40.254909 -0.901863 1.942019 0.021449 -0.007748 -56813.100000 0 0 1
23.345924 -29.228569 -16.000185 40.685960 -0.896826 1.974972 0.026053 0.005243 233766.000000 0 0 1
23.687524 -30.348969 -16.717285 41.971733 -0.908056 1.980458 0.020401 0.007332 -411133.000000 0 0 1
23.538324 -30.195169 -18.221185 42.400620 -0.908656 2.015000 0.018202 0.008225 628095.000000 0 0 1
22.192924 -29.899469 -18.633085 41.637676 -0.932273 2.034770 0.018849 0.012430 793626.000000 0 0 1
22.029824 -30.079269 -20.001985 42.310224 -0.938660 2.063201 0.013912 0.021950 -552196.000000 0 0 1
20.685024 -29.565869 -20.479185 41.489853 -0.960322 2.087015 0.021083 0.022512 -796407.000000 0 0 1
20.579724 -29.856569 -21.858885 42.340886 -0.967297 2.113274 0.011123 0.024352 104610.000000 0 0 1
19.286524 -29.606169 -22.351885 41.810310 -0.993412 2.134833 0.029436 0.011416 -403254.000000 0 0 1
19.217824 -29.878569 -23.877785 42.804232 -0.999218 2.162574 0.032814 0.013113 -468988.000000 0 0 1
19.788124 -28.849569 -24.650085 42.795960 -0.969591 2.184612 0.038321 0.004085 88774.800000 0 0 1
19.773424 -29.278769 -25.974625 43.851064 -0.976806 2.204753 0.039627 0.000815 -478172.000000 0 0 1
20.275724 -28.188669 -26.933015 43.944208 -0.947243 2.230511 0.031206 -0.008677 -36709.100000 0 0 1
19.412024 -27.112169 -27.202405 43.033327 -0.949420 2.255088 0.059918 -0.020499 -302799.000000 0 0 1
18.356924 -27.397269 -28.097125 43.324768 -0.980471 2.276439 0.061890 -0.023442 -255072.000000 0 0 1
17.462424 -26.189169 -28.330935 42.349153 -0.982715 2.303638 0.060208 -0.025578 -19862.300000 0 0 1
16.666024 -25.755869 -27.221445 41.013757 -0.996479 2.296571 0.051680 -0.007566 31226.800000 0 0 1
16.311124 -24.380969 -27.292865 40.067255 -0.981173 2.320164 0.050115 0.000733 -414136.000000 0 0 1
15.137124 -24.082169 -26.356395 38.778125 -1.009640 2.318111 0.056071 -0.002525 -975311.000000 0 0 1
13.975224 -24.777669 -26.734595 39.038166 -1.057249 2.325170 0.058577 -0.010685 -516563.000000 0 0 1
12.822724 -24.379669 -26.008985 37.884797 -1.086597 2.327500 0.037838 -0.002772 209370.000000 0 0 1
12.764724 -24.676769 -24.477885 37.027665 -1.093423 2.293040 0.029056 -0.000808 -855761.000000 0 0 1
13.555324 -23.773169 -23.737685 36.226897 -1.052581 2.285310 0.036058 -0.009202 -326022.000000 0 0 1
13.682124 -24.325169 -22.421785 35.800151 -1.058431 2.247600 0.045022 -0.009012 968197.000000 0 0 1
15.002224 -23.907369 -21.644385 35.568363 -1.010391 2.225002 0.022785 -0.016944 941257.000000 0 0 1
15.071024 -22.533269 -21.449385 34.568195 -0.981295 2.240170 0.026306 -0.019545 -209422.000000 0 0 1
16.283024 -22.112669 -20.885885 34.501119 -0.936078 2.221025 0.026219 -0.017218 -395557.000000 0 0 1
16.116024 -20.727969 -20.323385 33.202635 -0.909925 2.229512 0.027297 -0.010074 306407.000000 0 0 1
15.485124 -20.659269 -19.034885 32.076804 -0.927584 2.206092 0.026277 -0.013740 670605.000000 0 0 1
14.079724 -20.433469 -19.147685 31.343247 -0.967456 2.227997 0.022470 -0.007053 338371.000000 0 0 1
13.267924 -20.370669 -17.826285 30.145952 -0.993490 2.203507 0.028685 -0.011977 111856.000000 0 0 1
13.563224 -19.185169 -17.034385 29.020718 -0.955412 2.198112 0.037363 -0.014609 873479.000000 0 0 1
12.655024 -19.187169 -15.894185 27.944986 -0.987732 2.175802 0.030989 -0.012576 563486.000000 0 0 1
12.837924 -17.943869 -15.060985 26.713817 -0.949777 2.169764 0.029241 -0.013300 -495868.000000 0 0 1
11.982224 -16.897369 -15.388685 25.805163 -0.953977 2.209732 0.035929 -0.019056 -188559.000000 0 0 1
12.339324 -15.818269 -14.530485 24.771184 -0.908328 2.197636 0.038948 -0.012696 -1361.510000 0 1 0
11.123824 -14.991069 -14.063485 23.372061 -0.932416 2.216452 0.039826 -0.012845 191772.000000 0 1 0
10.404724 -14.387069 -15.151985 23.341566 -0.944669 2.277252 0.035672 -0.008589 -1052890.000000 0 1 0
9.206224 -13.832469 -14.845685 22.281969 -0.983566 2.299985 0.034425 -0.012446 -975578.000000 0 1 0
8.387724 -13.436169 -16.104685 22.588613 -1.012726 2.364501 0.024116 -0.003524 3416.690000 0 1 0
8.718424 -12.182569 -16.729685 22.456809 -0.949646 2.411289 0.020995 -0.001864 533793.000000 0 1 0
9.906724 -12.264269 -17.552785 23.593553 -0.891335 2.409781 0.028362 -0.001287 711967.000000 0 1 0
9.998024 -11.062269 -18.513885 23.771795 -0.835888 2.463574 0.023646 0.000595 -408855.000000 0 1 0
9.046724 -11.034969 -19.526385 24.184571 -0.884084 2.510512 0.015664 -0.000046 -390865.000000 0 1 0
9.157524 -9.886869 -20.368385 24.422972 -0.823677 2.557087 0.000918 -0.006526 -195130.000000 0 1 0
8.867024 -10.071069 -21.848385 25.639861 -0.848891 2.590830 0.012586 -0.002560 -541118.000000 0 0 1
9.863924 -10.644869 -22.616885 26.872546 -0.823458 2.571101 0.015838 -0.002038 -965297.000000 0 0 1
9.672824 -10.509169 -24.015285 27.941727 -0.826815 2.605043 0.025703 -0.001729 -417965.000000 0 0 1
10.822624 -11.188969 -24.736185 29.226719 -0.802040 2.579901 0.047506 -0.004288 -452650.000000 0 0 1
10.782924 -12.597569 -24.643685 29.703223 -0.862857 2.549301 0.040626 -0.007807 -196486.000000 0 0 1
11.865224 -13.222069 -25.312365 30.924464 -0.839430 2.529630 0.032668 -0.008902 -135680.000000 0 0 1
11.928924 -14.759969 -25.078125 31.449456 -0.891079 2.493788 0.030103 -0.007609 -43006.800000 0 0 1
10.959524 -15.582869 -25.750785 32.031858 -0.957855 2.504640 0.041571 -0.010778 38547.000000 0 0 1
10.983924 -16.902769 -25.228215 32.292616 -0.994541 2.467443 0.042361 -0.016986 -365376.000000 0 0 1
9.750424 -17.714569 -25.566435 32.596309 -1.067632 2.472420 0.042268 -0.013521 -400621.000000 0 0 1
9.642624 -18.086569 -26.913805 33.829826 -1.080992 2.490735 0.040161 -0.019041 -685.371000 0 0 1
8.461124 -18.865669 -27.067965 34.061398 -1.149196 2.489279 0.041124 -0.016452 84878.300000 0 0 1
8.465224 -19.837669 -28.254935 35.546231 -1.167466 2.489604 0.026833 -0.015282 -173108.000000 0 0 1
9.224024 -21.009469 -27.906265 36.128106 -1.157093 2.453447 0.021628 -0.012003 201906.000000 0 0 1
9.053424 -22.090069 -28.788035 37.399019 -1.181835 2.449252 0.018775 -0.005906 174198.000000 0 0 1
10.112624 -23.220869 -28.616385 38.214807 -1.160068 2.417091 0.013058 -0.003733 267425.000000 0 0 1
9.833224 -24.187769 -29.642095 39.501826 -1.184667 2.419460 0.022403 -0.008184 -6981.130000 0 0 1
10.550724 -25.392369 -29.561685 40.373053 -1.176993 2.392362 0.033171 -0.007729 -62591.600000 0 0 1
9.927824 -26.386769 -28.576095 40.142453 -1.210937 2.362950 0.034158 -0.005264 190743.000000 0 0 1
10.464824 -26.227169 -27.272005 39.257346 -1.191146 2.338796 0.029784 -0.002665 -432864.000000 0 0 1
9.623424 -26.670569 -26.222865 38.620826 -1.224510 2.317172 0.019393 0.004073 218366.000000 0 0 1
8.752024 -25.536969 -25.627675 37.222473 -1.240622 2.330215 0.016338 0.005901 -357710.000000 0 0 1
9.497524 -24.530569 -25.078895 36.344226 -1.201398 2.332338 0.007173 0.009649 -1120740.000000 0 0 1
8.780924 -23.367669 -25.078225 35.384601 -1.211349 2.358497 0.003600 0.012378 -490737.000000 0 0 1
9.507324 -22.070669 -24.660685 34.433313 -1.164051 2.369119 0.022615 -0.003103 -88771.400000 0 0 1
10.015124 -22.003669 -23.352585 33.612608 -1.143662 2.338878 0.025410 -0.004075 -231315.000000 0 0 1
11.041424 -21.060169 -23.303985 33.294437 -1.087914 2.346105 0.023547 -0.006995 -291466.000000 0 0 1
11.734024 -20.906169 -21.909085 32.477119 -1.059341 2.311220 0.021970 -0.001577 -226709.000000 0 0 1
11.126324 -20.154869 -20.868585 31.072684 -1.066387 2.307170 0.021888 0.000256 -208280.000000 0 0 1
10.811824 -18.796269 -21.072285 30.236344 -1.048803 2.341889 0.035128 -0.003484 -508086.000000 0 0 1
11.961524 -17.805469 -21.042385 30.048208 -0.979256 2.346597 0.033991 -0.002538 -269349.000000 0 0 1
12.920824 -18.003369 -22.043785 31.256959 -0.948297 2.353564 0.034380 -0.001897 -112879.000000 0 0 1
14.160324 -17.390969 -21.766485 31.252848 -0.887436 2.341254 0.038760 -0.004016 727653.000000 0 0 1
15.276324 -17.639869 -22.872085 32.675118 -0.857080 2.346172 0.023524 0.009606 -76915.700000 0 0 1
16.507524 -17.885069 -22.292885 33.005254 -0.825430 2.312350 0.041789 0.009290 -620351.000000 0 0 1
17.555724 -17.778469 -23.222385 34.110945 -0.791702 2.319637 0.025252 0.009149 -444270.000000 0 0 1
18.950824 -18.040869 -22.668785 34.619078 -0.760804 2.284722 0.016789 0.011518 -635949.000000 0 0 1
19.181424 -19.376369 -22.133385 35.117766 -0.790454 2.252687 0.019360 -0.000396 1108440.000000 0 0 1
20.580224 -19.595469 -21.841485 35.841017 -0.760892 2.226099 0.024103 0.001253 1095430.000000 0 0 1
20.933424 -20.939169 -21.243685 36.441065 -0.785535 2.193163 0.024667 -0.006024 -371648.000000 0 0 1
20.725324 -21.029969 -19.876885 35.593388 -0.792694 2.163304 0.034327 -0.010634 211098.000000 0 0 1
21.090324 -22.288869 -19.299185 36.249883 -0.813021 2.132221 0.024655 -0.001477 -15882.600000 0 0 1
-16.542101 13.101301 28.663162 35.593005 -0.669842 0.634610 0.032650 -0.017984 -150102.000000 0 0 1
-17.800101 13.723401 28.635242 36.402643 -0.656789 0.665472 0.027995 -0.013246 -278202.000000 0 0 1
-18.175301 13.824401 27.297902 35.589761 -0.650260 0.696619 0.031829 -0.016239 14470.300000 0 0 1
-19.494901 14.583601 27.029182 36.377318 -0.642266 0.733220 0.043559 -0.008968 61609.700000 0 0 1
-19.441101 15.948201 27.332832 37.140076 -0.687017 0.743744 0.022995 0.000123 432335.000000 0 0 1
-20.416301 16.643701 26.531492 37.386604 -0.683951 0.781792 0.020676 0.004366 -68726.500000 0 0 1
-20.362601 18.173301 26.769562 38.229751 -0.728647 0.795079 0.009948 0.017671 242049.000000 0 0 1
-19.240101 18.910401 26.328632 37.695910 -0.776756 0.797570 0.025482 0.008176 -253033.000000 0 0 1
-18.076201 18.831601 27.089652 37.619509 -0.805863 0.766856 0.037223 0.003208 527002.000000 0 0 1
-16.842001 19.653501 26.503072 37.044917 -0.862283 0.773556 0.044281 -0.003708 867999.000000 0 0 1
-17.069501 21.029901 26.563012 37.937029 -0.888975 0.795137 0.043190 -0.004419 919950.000000 0 0 1
-15.907701 21.687801 25.994642 37.405041 -0.937948 0.802446 0.050106 -0.009743 869907.000000 0 0 1
-15.981401 23.240701 25.730872 38.178700 -0.968409 0.831242 0.047259 -0.010378 -74342.800000 0 0 1
-15.927401 24.092601 26.874042 39.450598 -0.986664 0.821386 0.049181 -0.011750 -53240.300000 0 0 1
-15.907601 25.415701 26.493812 40.011644 -1.011553 0.847109 0.045373 -0.008789 -538493.000000 0 0 1
-15.245901 26.304901 27.503262 40.997740 -1.045524 0.835444 0.032048 -0.003861 -192393.000000 0 0 1
-13.841901 26.115201 27.461932 40.345503 -1.083413 0.822121 0.047951 -0.013125 -86591.000000 0 0 1
-13.248201 26.863501 28.487922 41.336717 -1.112630 0.810457 0.055078 -0.011732 -282862.000000 0 0 1
-11.724701 26.873301 28.595442 40.955368 -1.159397 0.797902 0.067868 -0.014094 -172004.000000 0 0 1
-11.045601 27.491801 27.544072 40.453434 -1.188758 0.821828 0.069502 -0.008071 -199180.000000 0 0 1
-9.644701 27.506901 27.718702 40.224076 -1.233562 0.810540 0.052265 -0.001593 -296036.000000 0 0 1
-9.024801 28.229801 26.524372 39.773245 -1.261374 0.840769 0.053903 -0.005618 678409.000000 0 0 1
-7.595901 28.045501 26.506162 39.329689 -1.306300 0.831257 0.037346 0.001085 1288010.000000 0 0 1
-6.950101 28.812101 25.493762 39.094411 -1.334097 0.860435 0.038569 -0.005399 -1108570.000000 0 0 1
-5.481101 28.565401 25.321742 38.564429 -1.381221 0.854483 0.025011 -0.000120 -1298470.000000 0 0 1
-4.657201 29.188601 26.308922 39.570485 -1.412575 0.843487 0.025185 -0.007203 269659.000000 0 0 1
-3.270201 29.009901 26.100252 39.159823 -1.458543 0.841284 0.003417 -0.003832 272799.000000 0 0 1
-2.531501 29.826101 25.039032 39.025093 -1.486124 0.874196 -0.005324 -0.006301 -888765.000000 0 0 1
-2.752901 29.460001 23.679762 37.897246 -1.477622 0.895868 -0.006178 0.003704 -119262.000000 0 0 1
-2.472101 30.512701 22.799562 38.170096 -1.489954 0.930648 -0.009611 0.005067 -169642.000000 0 0 1
-2.863601 30.128201 21.379362 37.053823 -1.476034 0.955768 -0.008122 0.011549 890447.000000 0 0 1
-4.279701 29.951401 21.237662 36.965396 -1.428869 0.958769 -0.009417 0.019344 577647.000000 0 0 1
-4.636301 28.570801 21.276162 35.922987 -1.409925 0.936921 -0.000192 0.018338 217798.000000 0 0 1
-6.122901 28.342701 20.872362 35.727498 -1.358035 0.946890 0.021702 0.010623 174460.000000 0 0 1
-6.368601 28.521301 19.453562 35.106477 -1.351107 0.983479 0.009553 0.014187 127749.000000 0 0 1
-7.398701 27.675601 18.997662 34.374275 -1.309569 0.985231 0.008131 0.009500 -814309.000000 0 0 1
-6.830701 26.333101 18.542862 32.923068 -1.316994 0.972521 -0.008030 0.006154 73618.400000 0 0 1
-5.911601 26.370501 17.491962 32.191910 -1.350267 0.996356 -0.016167 0.006163 565844.000000 0 0 1
-4.572801 26.803901 17.769662 32.482618 -1.401821 0.991959 -0.010082 0.014745 -14393.400000 0 0 1
-3.749901 27.022201 16.501162 31.883372 -1.432906 1.026814 -0.017392 0.009000 -326367.000000 0 0 1
-3.367401 25.848101 15.950762 30.559622 -1.441249 1.021654 -0.002525 0.005959 -171245.000000 0 0 1
-2.533501 26.001701 14.828862 30.040010 -1.473667 1.054529 0.004708 -0.005345 -314099.000000 0 0 1
-2.092801 24.703701 14.148962 28.545504 -1.486282 1.052198 -0.002912 -0.003088 469034.000000 0 0 1
-1.126901 24.093401 15.030862 28.419864 -1.524058 1.013509 0.007947 0.001041 348346.000000 0 0 1
-0.426101 23.019301 14.467262 27.191385 -1.552288 1.009773 0.007072 -0.018872 -441181.000000 0 0 1
0.836299 22.561001 15.225062 27.230510 1.533745 0.977475 0.000831 -0.008576 -28684.700000 0 0 1
1.842599 23.552801 15.211862 28.098583 1.492723 0.998725 0.006838 -0.016816 -708139.000000 0 0 1
2.925799 23.206301 15.996962 28.337175 1.445380 0.970942 0.014808 -0.019982 -734982.000000 0 0 1
4.132699 24.104801 15.712362 29.068865 1.401000 0.999739 0.021363 -0.019435 -797941.000000 0 0 1
5.354099 23.607601 16.130862 29.089343 1.347774 0.983000 0.034246 -0.020079 -933660.000000 0 0 1
6.341099 24.623001 16.118562 30.104979 1.318746 1.005801 0.050493 -0.022277 -246149.000000 0 0 1
7.743499 23.981001 16.213262 29.965314 1.258464 0.999090 0.054010 -0.024394 -185202.000000 0 0 1
8.295399 23.466901 14.999962 29.060419 1.231013 1.028429 0.039005 -0.013671 -131315.000000 0 0 1
8.887699 24.388801 14.143162 29.560680 1.221336 1.071913 0.045192 -0.018600 -644996.000000 0 0 1
9.349199 23.696001 12.867162 28.538953 1.194999 1.103064 0.040426 -0.012793 -193160.000000 0 0 1
10.589999 23.027701 12.934162 28.455503 1.139756 1.098941 0.043749 -0.011291 -99941.800000 0 0 1
10.909199 22.329801 11.708562 27.472187 1.116352 1.130512 0.039729 -0.008754 575943.000000 0 0 1
12.332099 21.707601 11.872462 27.645180 1.054163 1.126903 0.051999 -0.007979 542522.000000 0 0 1
12.310399 20.707601 12.870962 27.313226 1.034440 1.080105 0.046371 -0.000721 -542933.000000 0 0 1
13.548599 20.087101 12.990162 27.491825 0.977395 1.078660 0.048021 0.002994 -616649.000000 0 0 1
13.752299 19.120201 14.189262 27.496235 0.947264 1.028571 0.048950 -0.000274 -108445.000000 0 0 1
15.053699 18.579301 14.257162 27.840096 0.889842 1.033158 0.041976 0.006524 131556.000000 0 0 1
15.187599 17.742401 15.411462 27.981585 0.862826 0.987508 0.020731 0.002826 176952.000000 0 0 1
16.592599 17.097601 15.462562 28.403048 0.800387 0.995125 0.011862 0.003949 146130.000000 0 0 1
16.776099 16.436201 16.722462 28.831006 0.775164 0.952047 0.014219 -0.001033 226239.000000 0 0 1
18.013499 15.746201 16.777362 29.221719 0.718339 0.959243 0.002611 -0.000716 184013.000000 0 0 1
18.402299 15.238901 18.213662 30.043405 0.691640 0.919466 0.012388 -0.002079 -429399.000000 0 0 1
18.939699 16.230501 19.038862 31.378649 0.708519 0.918836 0.011937 -0.001686 107477.000000 0 0 1
18.072099 17.120501 19.790562 31.802180 0.758365 0.899116 0.003088 -0.004602 -44989.400000 0 0 1
18.754699 18.129101 20.749762 33.331001 0.768438 0.898817 -0.004475 -0.001124 -491603.000000 0 0 1
17.874199 19.115101 21.170462 33.660994 0.818933 0.890618 -0.005860 0.010063 -314250.000000 0 0 1
18.599099 20.197001 21.628662 34.952029 0.826562 0.903570 -0.001500 0.014217 -339258.000000 0 0 1
17.617899 21.224901 22.174262 35.391873 0.877994 0.893696 0.000073 0.015493 126387.000000 0 0 1
16.934999 20.835801 23.384562 35.605653 0.888309 0.854275 0.000784 0.011864 83366.600000 0 0 1
16.369699 22.010101 23.885392 36.372016 0.931316 0.854366 -0.002163 0.002278 -199996.000000 0 0 1
15.590199 21.805701 25.204942 36.794456 0.950101 0.816165 0.015400 0.007933 623910.000000 0 0 1
14.519399 20.862301 25.051272 35.687740 0.962785 0.792654 0.019587 -0.000547 145568.000000 0 0 1
13.706399 20.778301 26.198022 36.137785 0.987667 0.759837 0.024381 0.000381 493432.000000 0 0 1
12.704599 19.527601 26.181152 35.045495 0.994002 0.727165 0.040591 -0.005648 630854.000000 0 0 1
13.272699 18.197301 26.191622 34.544281 0.940625 0.710242 0.023489 -0.009707 -222440.000000 0 0 1
13.868099 17.777901 24.984942 33.654498 0.908323 0.734158 0.022937 -0.008476 -91125.000000 0 0 1
12.969599 17.489101 23.725392 32.202071 0.932705 0.742521 0.033115 -0.010792 -376831.000000 0 0 1
12.711699 18.572301 22.829162 32.057578 0.970587 0.778269 0.036057 -0.000531 745122.000000 0 0 1
13.832099 19.055101 22.020262 32.238421 0.942898 0.818874 0.024758 0.000874 1572390.000000 0 0 1
14.508599 18.029501 20.966862 31.227738 0.893187 0.834676 0.027324 0.003992 213279.000000 0 0 1
13.648099 17.895901 19.860062 30.015928 0.919256 0.847778 0.042438 -0.000823 173406.000000 0 0 1
14.029199 16.831501 19.024162 29.017867 0.875955 0.855817 0.029956 -0.005435 488214.000000 0 0 1
12.742299 16.306501 18.316462 27.636225 0.907485 0.846284 0.019539 0.003147 593999.000000 0 0 1
12.175399 17.151401 17.309962 27.240515 0.953472 0.882206 0.039806 0.000696 271466.000000 0 0 1
11.209299 16.423901 16.534462 25.860807 0.971913 0.877126 0.031851 0.001201 412830.000000 0 0 1
10.644199 17.225101 15.353662 25.411376 1.017285 0.922029 0.046530 -0.000148 28292.200000 0 0 1
9.913499 18.398901 15.686862 26.131870 1.076585 0.926925 0.045133 -0.005568 169296.000000 0 0 1
9.512199 19.002101 14.480762 25.714864 1.106679 0.972630 0.028090 0.000639 -155727.000000 0 0 1
8.474099 20.135201 14.557162 26.251621 1.172438 0.983005 0.034553 -0.001742 728501.000000 0 0 1
7.177399 19.727201 15.006262 25.804368 1.221852 0.950176 0.002044 -0.002683 80828.100000 0 0 1
6.234399 20.743401 15.093362 26.400113 1.278836 0.962201 0.016866 -0.007801 -31932.300000 0 0 1
4.969999 20.252801 15.847662 26.192083 1.330154 0.920961 0.010823 -0.011446 161361.000000 0 0 1
4.081699 19.545001 14.985762 24.964783 1.364919 0.926950 0.008717 -0.016985 97998.900000 0 1 0
2.985999 19.033101 15.785662 24.907072 1.415180 0.884363 0.009672 -0.015922 640946.000000 0 1 0
1.936799 18.505601 14.777062 23.760682 1.466516 0.899614 0.010211 -0.020988 -471205.000000 0 1 0
1.140699 19.508701 14.210762 24.162706 1.512392 0.942054 0.008211 -0.024051 -280874.000000 0 1 0
0.393599 18.919001 13.150262 23.043717 1.549995 0.963480 0.004819 -0.030934 -192951.000000 0 1 0
-0.499101 19.935701 12.419962 23.493334 -1.545766 1.013776 0.013207 -0.026757 -181076.000000 0 1 0
-1.643401 20.213301 13.184162 24.188849 -1.489672 0.994346 0.008863 -0.024913 -380454.000000 0 1 0
-2.804801 20.326401 12.375062 23.961879 -1.433674 1.028099 0.008460 -0.034811 436411.000000 0 1 0
-3.913201 21.198401 13.034362 25.190870 -1.388252 1.026958 0.007624 -0.020246 -89150.500000 0 0 1
-4.578601 20.497201 14.032662 25.258947 -1.351027 0.981769 0.012104 -0.021982 -349051.000000 0 0 1
-5.595801 21.360901 14.504462 26.419320 -1.314589 0.989617 0.002499 -0.006868 -221296.000000 0 0 1
-6.377401 20.701101 15.692762 26.748263 -1.271952 0.943839 0.007826 -0.003123 -425049.000000 0 0 1
-7.351401 19.742701 15.286462 26.028700 -1.214342 0.943087 0.003727 -0.002860 304455.000000 0 0 1
-8.011201 19.171001 16.445062 26.498050 -1.174971 0.901271 0.002448 0.011319 -745777.000000 0 0 1
-9.177101 19.955901 16.993462 27.771116 -1.139766 0.912321 0.003099 0.008399 -1136600.000000 0 0 1
-10.238501 19.912201 16.046062 27.546302 -1.095867 0.948980 0.000795 0.004576 -624009.000000 0 0 1
-11.417001 19.884401 16.786562 28.417001 -1.049587 0.938842 -0.000338 0.013756 -451172.000000 0 0 1
-12.742701 20.012701 15.997962 28.615021 -1.003806 0.977526 0.003977 -0.002396 137270.000000 0 0 1
-13.306301 21.305101 15.800962 29.675501 -1.012514 1.009294 -0.000401 -0.006978 338682.000000 0 0 1
-14.248801 21.249401 14.744362 29.528995 -0.980110 1.047985 0.003497 -0.003673 -632067.000000 0 0 1
-15.200601 22.409601 14.599062 30.763307 -0.974778 1.076331 0.010254 -0.003200 -717701.000000 0 0 1
-16.404601 22.099601 15.253962 31.467231 -0.932239 1.064711 0.020709 -0.013210 -693519.000000 0 0 1
-17.286901 23.189801 15.285362 32.714616 -0.930212 1.084637 0.020544 -0.016323 -530924.000000 0 0 1
-18.608501 22.705501 15.870262 33.371864 -0.884242 1.075198 0.028281 -0.016927 -1649670.000000 0 0 1
-19.298101 21.732501 15.116262 32.760032 -0.844660 1.091197 0.028541 -0.019504 238656.000000 0 0 1
-20.542701 21.355101 15.670562 33.520283 -0.804786 1.084342 0.025744 -0.016104 188242.000000 0 0 1
-21.660501 22.391701 15.799462 34.931198 -0.801995 1.101451 0.031672 -0.025696 -1476260.000000 0 0 1
-22.185701 22.808501 14.591662 35.004994 -0.799239 1.140825 0.035284 -0.019063 -23520.800000 0 0 1
-23.071401 23.896501 14.655662 36.305932 -0.802964 1.155270 0.050257 -0.027287 -294509.000000 0 0 1
-22.545901 25.213001 14.063662 36.630583 -0.841185 1.176745 0.033325 -0.017249 -458198.000000 0 0 1
-21.380401 25.697201 14.664762 36.503738 -0.876838 1.157388 0.019204 -0.019929 -363279.000000 0 0 1
-20.799301 26.654301 13.808062 36.520203 -0.908161 1.183060 0.012210 -0.012472 -238672.000000 0 0 1
-19.365601 26.957601 14.300262 36.141890 -0.947846 1.163999 0.015517 -0.018539 377801.000000 0 0 1
-18.325501 26.276901 13.615362 34.809159 -0.961818 1.168923 0.015136 -0.015395 655236.000000 0 0 1
-16.992501 26.656301 13.970562 34.561251 -1.003282 1.154664 0.015907 -0.022702 380268.000000 0 0 1
-15.987201 25.871401 13.111362 33.118390 -1.017284 1.163755 0.025732 -0.017307 -284623.000000 0 0 1
-14.719101 26.488201 13.172962 33.042452 -1.063599 1.160733 0.025640 -0.021334 39633.300000 0 0 1
-13.789101 25.952001 12.249062 31.838423 -1.082399 1.175886 0.027798 -0.013155 -150994.000000 0 0 1
-12.470401 26.739501 12.226162 31.937295 -1.134416 1.177952 0.021411 -0.014733 -662834.000000 0 0 1
-11.407901 25.922301 11.806462 30.683846 -1.156222 1.175829 0.012206 -0.006956 1192940.000000 0 0 1
-10.037901 26.320401 12.046362 30.637196 -1.206450 1.166693 0.020250 -0.009023 1467990.000000 0 0 1
-9.483401 27.564401 11.295362 31.262058 -1.239436 1.201122 0.025336 -0.022568 -589303.000000 0 0 1
-8.288501 28.134601 11.770762 31.603890 -1.284299 1.189152 0.036923 -0.031456 -121903.000000 0 0 1
-7.967301 29.275301 10.997262 32.271673 -1.305081 1.223059 0.038209 -0.028397 530376.000000 0 0 1
-6.680001 29.948301 11.628462 32.813782 -1.351338 1.208548 0.020714 -0.025643 355393.000000 0 0 1
-5.561401 29.161101 11.396262 31.798959 -1.382346 1.204259 0.029011 -0.026682 -765838.000000 0 0 1
-4.394701 29.653001 12.033062 32.301833 -1.423663 1.189074 0.023043 -0.031135 15629.900000 0 0 1
-3.154901 29.033001 11.365662 31.337626 -1.462555 1.199650 0.027279 -0.033902 -454755.000000 0 0 1
-2.964101 29.660201 10.117062 31.478061 -1.471192 1.243588 0.046453 -0.034502 1166940.000000 0 0 1
-1.781501 29.157001 9.420662 30.692887 -1.509772 1.258827 0.032598 -0.030321 1132100.000000 0 0 1
-1.457701 29.991001 8.142362 31.110819 -1.522230 1.305991 0.025675 -0.025684 189416.000000 0 0 1
-2.434601 29.823501 7.126962 30.759747 -1.489343 1.336974 0.033313 -0.034375 383670.000000 0 0 1
-2.237401 30.796301 6.121862 31.478489 -1.498272 1.375071 0.038643 -0.017604 75465.700000 0 0 1
10.257699 -34.358269 -26.808585 44.770652 -1.280669 2.212796 0.044358 -0.024196 20349.400000 0 0 1
10.958899 -34.385769 -25.557475 44.222880 -1.262269 2.186979 0.036566 -0.026202 381755.000000 0 0 1
12.253799 -33.836569 -25.741665 44.245930 -1.223342 2.191719 0.044202 -0.020291 242714.000000 0 0 1
13.001499 -33.693469 -24.367785 43.566935 -1.202525 2.164360 0.044151 -0.004816 -323397.000000 0 0 1
12.503999 -32.595269 -23.584785 42.131267 -1.204495 2.164932 0.052011 -0.002048 493533.000000 0 0 1
12.978999 -32.552669 -22.239385 41.505674 -1.191405 2.136270 0.035476 -0.000193 489900.000000 0 0 1
14.494099 -32.267669 -21.996685 41.654958 -1.148622 2.127121 0.021408 0.010598 1049030.000000 0 0 1
15.478399 -33.235169 -22.453185 42.991893 -1.134944 2.120302 0.037007 0.009791 216520.000000 0 0 1
16.762999 -32.775769 -22.122185 42.949276 -1.098035 2.111894 0.031839 0.010670 -282423.000000 0 0 1
17.820499 -33.836969 -22.484385 44.362803 -1.086051 2.102299 0.018758 0.019280 704322.000000 0 0 1
19.185099 -33.538269 -22.126885 44.525078 -1.051192 2.090881 0.023628 0.027696 1134930.000000 0 0 1
19.913799 34.123201 -22.007385 45.224741 1.042534 2.079016 0.020527 0.028623 1460310.000000 0 0 1
21.451899 34.394701 -21.663285 45.961694 1.013134 2.061598 0.017435 0.036295 1535620.000000 0 0 1
22.183799 -33.900769 -22.736385 46.457791 -0.991352 2.082196 0.015291 0.033521 1003700.000000 0 0 1
23.584099 -33.742069 -22.437785 46.884872 -0.960774 2.069824 0.014837 0.034011 1054280.000000 0 0 1
24.343999 -33.073569 -23.620285 47.375196 -0.936279 2.092755 0.027289 0.018968 -155515.000000 0 0 1
24.210399 -31.686169 -23.777285 46.427535 -0.918352 2.108468 0.027195 0.014578 464723.000000 0 0 1
22.939399 -31.097169 -24.089385 45.536232 -0.935234 2.128237 0.007424 0.023626 367878.000000 0 0 1
22.971399 -29.541069 -23.965685 44.437754 -0.909858 2.140413 0.010139 -0.002815 -570643.000000 0 0 1
23.682199 -28.905369 -24.982485 44.949878 -0.884397 2.160104 0.000003 -0.003625 -189943.000000 0 0 1
23.950799 -27.561769 -24.640185 44.050319 -0.855383 2.164415 0.019504 -0.002203 -90665.300000 0 0 1
24.503299 -26.803769 -25.828555 44.564201 -0.830205 2.189011 0.014171 -0.000099 -34939.900000 0 0 1
23.606899 -26.594469 -26.923675 44.603091 -0.844840 2.218840 0.011442 -0.001178 -28256.200000 0 0 1
24.336699 -26.377269 -28.130695 45.600124 -0.825613 2.235594 0.009873 -0.001820 -242895.000000 0 0 1
23.341699 -25.995269 -29.226555 45.549758 -0.839131 2.267431 0.008246 -0.005428 287846.000000 0 0 1
22.705099 -24.737669 -29.108975 44.438792 -0.828215 2.285026 0.029370 -0.011020 304065.000000 0 0 1
21.533199 -24.825369 -28.280875 43.356493 -0.856294 2.281394 0.029608 -0.012300 -222479.000000 0 0 1
20.840599 -23.517069 -27.953085 42.056606 -0.845663 2.297827 0.036172 -0.009526 -140453.000000 0 0 1
20.261399 -22.922369 -29.084125 42.211914 -0.846940 2.330909 0.053772 -0.014766 -123749.000000 0 0 1
19.573699 -21.751169 -28.780365 41.043300 -0.838041 2.347903 0.051267 -0.008230 -261068.000000 0 0 1
18.539199 -21.364369 -29.860345 41.131234 -0.856080 2.383251 0.059508 -0.012974 17010.500000 0 0 1
17.357599 -22.118169 -29.813205 40.979591 -0.905413 2.385487 0.053626 -0.016549 291931.000000 0 0 1
16.182999 -21.401869 -30.190525 40.390559 -0.923372 2.415034 0.048441 -0.019189 263172.000000 0 0 1
14.877199 -22.180569 -30.023735 40.183745 -0.979985 2.414577 0.042141 -0.017563 -379893.000000 0 0 1
14.748299 -23.157269 -31.009905 41.417215 -1.003703 2.416926 0.047546 -0.015589 4950.430000 0 0 1
14.143399 -24.282469 -30.445925 41.432215 -1.043379 2.396223 0.046082 -0.016778 -107479.000000 0 0 1
14.389399 -25.567469 -31.322785 42.916980 -1.058178 2.388893 0.060490 -0.021183 -143216.000000 0 0 1
13.706999 -26.632169 -30.753815 42.929610 -1.095475 2.369393 0.065565 -0.019583 -386489.000000 0 0 1
14.196899 -27.866369 -31.140245 44.133903 -1.099607 2.354045 0.093954 -0.025183 44983.200000 0 0 1
13.614699 -29.087769 -30.396685 44.220095 -1.133029 2.328693 0.084167 -0.021782 -72196.700000 0 0 1
14.099199 -29.294069 -29.067635 43.610289 -1.122221 2.300343 0.099899 -0.026266 -246480.000000 0 0 1
13.790699 -28.296869 -28.087285 42.187579 -1.117314 2.299324 0.079928 -0.021505 149254.000000 0 0 1
14.637699 -28.347969 -26.757665 41.639431 -1.094148 2.268688 0.058738 -0.007044 177163.000000 0 0 1
14.341399 -29.470269 -25.934945 41.794663 -1.117894 2.240218 0.070097 -0.008712 484576.000000 0 0 1
15.095099 -29.473369 -24.677185 41.297760 -1.097468 2.211230 0.062037 -0.009440 -397752.000000 0 0 1
14.663899 -28.431969 -23.569585 39.735779 -1.094625 2.205772 0.036658 -0.005775 -40252.300000 0 0 1
13.517399 -28.650969 -22.803585 39.033340 -1.129966 2.194700 0.043540 -0.003617 -377332.000000 0 0 1
12.311299 -28.623369 -23.541685 39.052225 -1.164602 2.217834 0.039435 0.000258 -697317.000000 0 0 1
11.113199 -28.321769 -22.618285 37.910587 -1.196867 2.210081 0.013864 0.006709 -93248.900000 0 0 1
11.244699 -27.071069 -21.924485 36.605588 -1.177105 2.212971 0.010275 0.008581 993391.000000 0 0 1
9.935899 -26.754569 -21.394985 35.668957 -1.215210 2.214074 0.014336 0.006529 872093.000000 0 0 1
9.720999 -25.187869 -21.231185 34.346613 -1.202469 2.237177 0.010728 0.001123 -151936.000000 0 0 1
10.332299 -24.623369 -20.109485 33.428403 -1.173497 2.216260 0.006178 -0.002861 13756.800000 0 0 1
9.985199 -23.267269 -19.950285 32.234824 -1.165414 2.238144 0.008679 0.000682 -580404.000000 0 0 1
10.465399 -22.603569 -18.617485 31.097535 -1.137186 2.212649 0.004119 -0.006277 -181182.000000 0 0 1
9.899999 -23.168569 -17.446285 30.645806 -1.166977 2.176436 0.012588 -0.006733 136531.000000 0 0 1
9.851399 -22.310469 -16.276985 29.321449 -1.154984 2.159306 0.012234 -0.005620 -110527.000000 0 0 1
9.052299 -22.864069 -15.093585 28.853528 -1.193814 2.121293 0.017616 -0.005703 689.119000 0 0 1
9.621899 -24.090969 -14.721485 29.827468 -1.190809 2.086968 0.016612 -0.003554 -26839.300000 0 0 1
8.839799 -24.751569 -13.757885 29.665833 -1.227774 2.053033 0.015139 -0.003845 -236582.000000 0 0 1
9.116699 -26.246269 -13.597885 30.933531 -1.236482 2.025932 0.026675 -0.010769 -202268.000000 0 0 1
10.323899 -26.664369 -13.013085 31.415154 -1.201391 1.997892 0.030512 -0.010474 -299724.000000 0 0 1
10.537999 -28.072669 -13.187585 32.757237 -1.211690 1.985136 0.036095 -0.007391 -127753.000000 0 0 1
11.929099 -28.588769 -12.680385 33.472575 -1.175495 1.959327 0.042336 -0.012735 944094.000000 0 0 1
13.125199 -27.997269 -13.161885 33.605850 -1.132416 1.973225 0.034060 -0.005909 390185.000000 0 0 1
13.366299 -28.304369 -14.532385 34.510658 -1.129607 2.005452 0.030539 -0.005768 588761.000000 0 0 1
14.773099 -27.788669 -15.084985 34.900020 -1.082171 2.017765 0.013143 0.004375 2799770.000000 0 0 1
15.998799 -28.423269 -14.596085 35.733591 -1.058121 1.991573 0.008542 0.003924 1520330.000000 0 0 1
17.120399 -28.134769 -15.411585 36.361934 -1.024140 2.008475 0.021248 0.002722 542183.000000 0 0 1
18.410599 -28.940169 -15.150885 37.497105 -1.004212 1.986742 0.022101 0.001227 375485.000000 0 0 1
18.407599 -30.176269 -15.763085 38.702995 -1.023055 1.990274 0.014982 0.013214 -864978.000000 0 0 1
19.691099 -30.472969 -16.181185 39.726213 -0.997109 1.990311 0.011953 0.015599 -655747.000000 0 0 1
19.637499 -31.675669 -17.166485 41.032519 -1.015833 2.002439 0.007437 0.015735 58760.700000 0 0 1
19.413299 -32.947769 -16.628785 41.700698 -1.038345 1.980966 0.007528 0.023722 -63758.100000 0 0 1
19.612099 -33.842569 -17.669385 42.920404 -1.045579 1.995091 0.006725 0.025016 25155.000000 0 0 1
19.616699 33.523901 -17.363485 42.545945 1.041363 1.991181 0.006077 0.018100 185560.000000 0 0 1
20.718899 33.100401 -16.585985 42.426457 1.011521 1.972444 0.010347 0.013551 230230.000000 0 0 1
20.454199 31.738701 -16.235285 41.101142 0.998328 1.976873 0.017340 0.005754 -60505.800000 0 0 1
21.244299 31.184201 -15.030085 40.616229 0.972764 1.949860 0.020304 -0.006685 -972201.000000 0 0 1
22.607199 31.038601 -15.311585 41.339144 0.941291 1.950225 0.015329 -0.001178 -701689.000000 0 0 1
23.359899 30.701201 -14.207585 41.110876 0.920369 1.923666 0.016471 -0.010208 -263029.000000 0 0 1
23.088199 29.355901 -13.474085 39.703713 0.904346 1.917039 0.016996 -0.006530 -1283760.000000 0 0 1
23.309299 28.149301 -14.226185 39.218502 0.879178 1.942005 0.020419 -0.000355 61124.400000 0 0 1
23.002699 26.957101 -13.607185 37.960044 0.864385 1.937415 0.017642 -0.002301 -592.193000 0 0 1
21.532499 26.818001 -13.132485 36.814615 0.894282 1.935550 0.027016 -0.009076 -1058060.000000 0 0 1
20.640399 26.802201 -14.167185 36.675512 0.914554 1.967396 0.036218 -0.016883 -2094860.000000 0 0 1
19.333499 26.944301 -13.809085 35.923117 0.948398 1.965361 0.045425 -0.019047 -1424580.000000 0 0 1
18.877799 28.413701 -14.015585 36.880162 0.984371 1.960626 0.038710 -0.019253 -424214.000000 0 0 1
18.670599 28.944701 -15.330385 37.701561 0.997913 1.989553 0.034694 -0.013627 427227.000000 0 0 1
17.679499 28.256501 -16.113585 37.022185 1.011709 2.021103 0.017807 -0.003238 125120.000000 0 0 1
17.723599 28.840801 -17.540685 38.126020 1.019760 2.048872 0.019551 0.007042 -74931.800000 0 0 1
17.164599 30.140601 -17.651285 38.918468 1.053117 2.041536 0.014694 0.004269 18814.100000 0 0 1
17.423799 30.755901 -18.915185 40.091127 1.055359 2.062133 0.016111 0.008881 -374760.000000 0 0 1
16.447299 31.859501 -19.350385 40.742838 1.094238 2.065692 0.012349 0.005996 -187216.000000 0 0 1
16.480399 32.969501 -18.503985 41.243048 1.107254 2.036058 0.004993 0.018212 344498.000000 0 0 1
15.550599 33.979801 -18.917885 41.884775 1.141605 2.039427 0.011298 0.016224 218050.000000 0 0 1
15.484999 -33.680869 -17.974485 41.197916 -1.139859 2.022274 0.011448 0.015412 -23890.000000 0 0 1
14.576399 -32.645469 -18.284485 40.156201 -1.150852 2.043544 0.018954 0.012354 -69408.300000 0 0 1
14.233299 -31.781369 -17.233785 38.854158 -1.149731 2.030353 0.023358 0.008518 260376.000000 0 0 1
13.108599 -30.743369 -17.544285 37.746418 -1.167751 2.054198 0.030621 0.005952 -539579.000000 0 0 1
11.884699 -31.351269 -17.742985 37.933648 -1.208452 2.057525 0.039578 0.003453 -1318180.000000 0 0 1
10.944699 -30.322269 -17.933985 36.889758 -1.224404 2.078476 0.026775 0.007265 85197.300000 0 0 1
9.513399 -30.842169 -18.225185 37.066178 -1.271601 2.084829 0.038346 -0.000100 -737845.000000 0 0 1
8.885799 -31.530669 -17.134985 36.969558 -1.296106 2.052725 0.042585 -0.004121 606149.000000 0 0 1
7.748899 -32.342669 -17.438885 37.552742 -1.335641 2.053735 0.050729 0.000787 1162500.000000 0 0 1
6.503399 -31.638169 -18.093485 37.022185 -1.368065 2.081418 0.038189 0.004723 -412773.000000 0 0 1
6.545599 -31.285569 -19.464485 37.423227 -1.364550 2.117785 0.030852 0.014547 -93505.600000 0 0 1
6.605399 -32.307969 -20.418985 38.786224 -1.369125 2.125215 0.021341 0.008019 -657541.000000 0 0 1
6.787599 -31.725569 -21.872985 39.128132 -1.360027 2.163987 0.017595 0.010995 -66744.700000 0 0 1
8.071799 -31.237669 -22.265185 39.200566 -1.317928 2.174847 0.022025 0.005281 1041300.000000 0 0 1
9.065899 -32.274169 -22.487485 40.367060 -1.296951 2.161656 0.025196 0.000803 109263.000000 0 0 1
8.779299 -33.374369 -23.553485 41.781471 -1.313569 2.169692 0.023999 -0.004239 -1241920.000000 0 0 1
7.685899 -34.173169 -23.210885 42.019326 -1.349567 2.156020 0.019176 -0.015603 -363591.000000 0 0 1
7.453499 33.591101 -24.028185 41.967492 1.352445 2.180400 0.016521 -0.020163 299095.000000 0 0 1
6.319699 32.599401 -23.515585 40.689584 1.379312 2.186982 0.026662 -0.025601 1616460.000000 0 0 1
4.979899 33.101401 -23.693985 41.011060 1.421472 2.186761 0.030097 -0.020525 1026380.000000 0 0 1
4.497699 33.999301 -22.678585 41.115690 1.439272 2.155053 0.014154 -0.014613 -623833.000000 0 0 1
3.152599 -34.202969 -22.987285 41.330343 -1.478883 2.160584 0.011369 -0.011760 -225446.000000 0 0 1
2.093799 33.777501 -22.766085 40.787231 1.508888 2.162971 0.012664 -0.018989 844236.000000 0 0 1
0.830699 34.298301 -23.260085 41.449910 1.546581 2.166584 0.008761 -0.011839 1090780.000000 0 0 1
-0.421401 33.649701 -22.633185 40.555407 -1.558274 2.162867 0.010883 -0.017864 46759.600000 0 0 1
-0.423401 33.834701 -21.223985 39.942756 -1.558283 2.131002 0.001808 -0.016271 -1130170.000000 0 0 1
-1.671901 33.466101 -20.825285 39.452093 -1.520880 2.126878 0.003023 -0.021838 -1038310.000000 0 0 1
-1.937001 33.524201 -19.316485 38.739523 -1.513081 2.092808 0.006411 -0.017326 197584.000000 0 0 1
-1.030401 32.778801 -18.514285 37.660195 -1.539372 2.084739 0.001418 -0.025047 34186.000000 0 0 1
-1.445201 32.756501 -17.167885 37.010988 -1.526705 2.053143 -0.002298 -0.024570 -160005.000000 0 0 1
-0.643501 31.754501 -16.366285 35.729787 -1.550534 2.046605 -0.003530 -0.031299 -262616.000000 0 0 1
0.663699 32.194001 -16.103385 36.002961 1.550184 2.034518 -0.000340 -0.028201 -353215.000000 0 0 1
1.326299 31.200701 -15.280885 34.767057 1.528313 2.025863 0.009641 -0.023989 254488.000000 0 0 1
2.099799 31.853401 -14.136485 34.912584 1.504971 1.987678 0.021799 -0.023003 57069.600000 0 0 1
3.197999 32.645901 -14.595885 35.902951 1.473148 1.989457 0.025516 -0.021279 183988.000000 0 0 1
3.883199 33.224201 -13.500985 36.072196 1.454446 1.954413 0.022625 -0.022370 -369498.000000 0 0 1
5.348899 33.590701 -13.797385 36.705773 1.412885 1.956155 0.040374 -0.022739 15767.400000 0 0 1
6.001999 32.431201 -14.295985 35.946933 1.387798 1.979802 0.037341 -0.017291 69010.200000 0 0 1
7.177799 32.754701 -15.050485 36.754705 1.355068 1.992685 0.040843 -0.009405 604121.000000 0 0 1
8.160299 31.611301 -15.338185 36.071107 1.318167 2.010002 0.029514 -0.012591 89501.000000 0 0 1
8.937999 31.329501 -14.180885 35.531999 1.292889 1.981333 0.028212 -0.016435 -104139.000000 0 0 1
9.936099 30.339701 -14.381585 35.015047 1.254309 1.994046 0.031875 -0.021446 207954.000000 0 0 1
9.569499 28.895901 -13.958485 33.487127 1.250993 2.000753 0.028890 -0.017982 399976.000000 0 0 1
8.565399 28.349601 -14.859085 33.133945 1.277382 2.035832 0.026929 -0.017573 842810.000000 0 0 1
8.136899 27.010001 -14.530885 31.731623 1.278189 2.046462 0.026257 -0.013973 -95563.600000 0 0 1
7.384899 26.274101 -15.715385 31.493467 1.296794 2.093246 0.034667 -0.014945 439105.000000 0 0 1
8.236399 25.556101 -16.568585 31.551079 1.259020 2.123670 0.035941 -0.009981 319657.000000 0 0 1
7.377399 24.802201 -17.446585 31.208308 1.281681 2.164020 0.030660 -0.001928 1102330.000000 0 0 1
8.235099 23.935301 -18.451885 31.323913 1.239426 2.200700 0.036949 0.001873 350546.000000 0 0 1
7.583199 22.764901 -18.942785 30.570815 1.249247 2.239076 0.050161 -0.000245 109409.000000 0 0 1
8.432699 22.148601 -19.894585 30.942939 1.207009 2.269133 0.035254 -0.000844 -230211.000000 0 0 1
7.726099 21.306001 -20.953285 30.865489 1.222918 2.317003 0.035324 -0.011657 -204218.000000 0 0 1
7.059899 20.183601 -20.434985 29.577162 1.234314 2.333535 0.034940 -0.006630 7510.520000 0 0 1
6.397799 19.471501 -21.464085 29.677906 1.253337 2.379271 0.031382 -0.000020 28599.800000 0 0 1
25.041099 -12.243199 -9.535585 29.459802 -0.454748 1.900414 0.017455 -0.004043 -30273.200000 0 0 1
25.485599 -11.726899 -8.276285 29.249493 -0.431253 1.857670 0.016853 -0.005286 1246960.000000 0 0 1
24.341999 -11.733699 -7.397385 28.016672 -0.449173 1.838000 0.025609 -0.004554 585264.000000 0 0 1
24.823999 -11.282999 -5.978785 27.915639 -0.426606 1.786642 0.013144 -0.007292 -112287.000000 0 0 1
25.038399 -9.881599 -5.748885 27.524845 -0.375893 1.781207 0.024637 -0.012655 886217.000000 0 0 1
26.111699 -9.264599 -6.486285 28.455676 -0.340950 1.800761 0.023263 -0.009650 -255299.000000 0 0 1
26.341199 -7.794299 -5.966685 28.110696 -0.287689 1.784680 0.060516 -0.016595 -97656.900000 0 0 1
26.934299 -7.584099 -4.697085 28.373185 -0.274471 1.737109 0.072037 -0.027410 33264.000000 0 0 1
28.319499 -7.806699 -4.671285 29.744907 -0.268985 1.728494 0.063660 -0.028922 -395440.000000 0 0 1
29.036599 -7.618399 -3.300085 30.200243 -0.256589 1.680288 0.069746 -0.032039 -132974.000000 0 0 1
29.245299 -6.296999 -2.924485 30.058149 -0.212079 1.668245 0.077478 -0.034042 252286.000000 0 0 1
30.060099 -6.322199 -1.768285 30.768598 -0.207297 1.628298 0.064177 -0.029748 -109646.000000 0 0 1
30.276299 -4.938399 -1.137885 30.697506 -0.161687 1.607872 0.064957 -0.031677 225780.000000 0 0 1
29.052099 -4.403599 -0.648585 29.391101 -0.150431 1.592866 0.089549 -0.036353 382649.000000 0 0 1
29.168499 -3.194499 0.060915 29.342970 -0.109084 1.568720 0.075647 -0.027854 -153842.000000 0 0 1
29.805099 -3.098399 1.459115 30.001217 -0.103583 1.522142 0.070059 -0.021451 -304725.000000 0 0 1
28.971799 -3.748399 2.398015 29.311536 -0.128666 1.488893 0.084118 -0.026345 794106.000000 0 0 1
29.515599 -3.483199 3.679215 29.947285 -0.117469 1.447629 0.060220 -0.017785 -197617.000000 0 0 1
28.831599 -4.335799 4.715115 29.534600 -0.149265 1.410463 0.062235 -0.020728 -91693.700000 0 0 1
29.364499 -5.657999 4.543915 30.247875 -0.190349 1.420003 0.064027 -0.023039 382516.000000 0 0 1
29.265699 -6.340599 5.735415 30.489003 -0.213359 1.381555 0.065033 -0.022480 9189.590000 0 0 1
30.155799 -7.625899 5.834315 31.647524 -0.247691 1.385383 0.049260 -0.016315 463380.000000 0 0 1
31.536799 -7.305899 5.757315 32.879972 -0.227647 1.394788 0.049083 -0.020808 353718.000000 0 0 1
32.356799 -8.482699 5.654715 33.924835 -0.256391 1.403331 0.048650 -0.016230 707267.000000 0 0 1
33.887599 -8.236799 5.669715 35.332137 -0.238439 1.409630 0.042527 -0.014415 458039.000000 0 0 1
34.529399 -8.003099 4.434115 35.721007 -0.227755 1.446343 0.050536 -0.017210 101109.000000 0 0 1
-35.307726 -7.630999 4.571315 36.411050 0.212854 1.444917 0.056012 -0.014273 441211.000000 0 0 1
-34.579926 -7.478099 3.181415 35.522031 0.212976 1.481114 0.058456 -0.008658 -122783.000000 0 0 1
-34.421926 -8.680399 2.451915 35.584129 0.247026 1.501837 0.062074 -0.016787 -80224.900000 0 0 1
-33.533226 -8.449599 1.399315 34.609696 0.246838 1.530354 0.071152 -0.015518 -277229.000000 0 0 1
-33.310526 -9.772499 0.599615 34.719626 0.285368 1.553525 0.065301 -0.013378 -246184.000000 0 0 1
-32.629026 -10.696199 1.417915 34.366736 0.316774 1.529526 0.055806 -0.008191 207774.000000 0 0 1
-32.848526 -11.978699 0.844915 34.974688 0.349679 1.546636 0.047232 -0.012091 -557985.000000 0 0 1
-32.438326 -13.077499 1.828815 35.023000 0.383219 1.518555 0.027815 -0.022713 278801.000000 0 0 1
-31.089226 -13.176299 2.247315 33.840882 0.400872 1.504339 0.027725 -0.012842 142609.000000 0 0 1
-30.281026 -13.825399 1.283315 33.312597 0.428304 1.532263 0.031761 -0.001015 -856799.000000 0 0 1
-28.951826 -14.224299 1.936515 32.315461 0.456671 1.510835 0.028622 0.004844 -423365.000000 0 0 1
-28.144426 -13.103599 2.226915 31.125105 0.435738 1.499188 0.022006 -0.001004 -160443.000000 0 0 1
-27.009926 -13.493399 2.935215 30.335185 0.463305 1.473885 0.039016 0.001815 -159460.000000 0 0 1
-26.136126 -12.410099 3.636615 29.160463 0.443306 1.445760 0.040822 0.003473 -442252.000000 0 0 1
-24.937426 -12.860099 4.147415 28.362976 0.476124 1.424044 0.032336 0.004762 -492284.000000 0 0 1
-24.231926 -11.827799 4.787215 27.386137 0.454089 1.395089 0.029267 0.011534 -166494.000000 0 0 1
-22.869026 -12.221899 5.370815 26.480424 0.490811 1.366557 0.034117 0.019861 -100373.000000 0 0 1
-22.961826 -13.000599 6.576015 27.193841 0.515183 1.326555 0.041220 0.006521 146933.000000 0 0 1
-21.692426 -13.501899 6.942515 26.477559 0.556745 1.305491 0.039386 0.008261 87691.200000 0 0 1
-21.103526 -13.082699 8.309515 26.183275 0.554945 1.247852 0.044758 -0.000865 -168250.000000 0 0 1
-20.762126 -11.667099 8.532415 25.298008 0.511965 1.226774 0.041561 -0.001701 485938.000000 0 0 1
-21.865026 -10.786399 8.669215 25.876264 0.458287 1.229164 0.064742 -0.006913 -385787.000000 0 0 1
-22.488726 -10.630499 10.084015 26.840970 0.441573 1.185650 0.069500 -0.004748 -325855.000000 0 0 1
-23.123026 -11.785299 10.626415 28.044399 0.471360 1.182174 0.054313 -0.013379 945621.000000 0 0 1
-24.504526 -11.884699 10.256815 29.101892 0.451576 1.210614 0.054286 -0.009246 665893.000000 0 0 1
-25.518526 -11.198199 11.224115 30.042896 0.413523 1.187906 0.064629 -0.013509 -192291.000000 0 0 1
-25.644026 -11.980899 12.440115 30.917867 0.437065 1.156703 0.048254 -0.012021 210530.000000 0 0 1
-26.872926 -11.793599 13.109715 32.141994 0.413556 1.150678 0.039056 -0.016428 66361.600000 0 0 1
-26.838626 -12.405399 14.513715 32.937117 0.432971 1.114475 0.036959 -0.008380 -14225.200000 0 0 1
-26.787326 -13.820399 14.563415 33.476220 0.476311 1.120716 0.024945 -0.008516 305360.000000 0 0 1
-26.421826 -14.345299 15.798015 33.962888 0.497402 1.086986 0.012597 -0.005880 -740883.000000 0 0 1
-26.205226 -15.886599 15.901215 34.524579 0.544994 1.092152 0.004855 0.006432 -340518.000000 0 0 1
-27.370126 -16.688299 16.014715 35.834261 0.547541 1.107487 0.003203 0.009678 -73246.700000 0 0 1
-27.112126 -18.051899 15.667415 36.144244 0.587419 1.122457 -0.001024 0.010515 -112830.000000 0 0 1
-28.105326 -19.014899 16.351215 37.667466 0.594820 1.121764 -0.007336 0.018790 7346.470000 0 0 1
-27.999726 -19.122999 17.811315 38.300349 0.599205 1.087113 0.002170 0.019911 161034.000000 0 0 1
-28.779126 -20.218399 18.287815 39.641720 0.612427 1.091305 0.011134 0.015279 330853.000000 0 0 1
-27.912826 -21.488799 18.594715 39.832873 0.656087 1.085107 0.007919 0.013424 250088.000000 0 0 1
-26.944026 -21.330899 19.607915 39.565871 0.669644 1.052298 0.013781 0.011467 -103450.000000 0 0 1
-26.113226 -22.437199 19.721715 39.677129 0.709827 1.050595 0.021842 0.009787 -349745.000000 0 0 1
-24.775326 -22.118099 20.430815 38.992888 0.728793 1.019300 0.034647 0.014351 120390.000000 0 0 1
-23.861526 -21.577799 19.491415 37.615012 0.735182 1.026073 0.037785 0.012306 674849.000000 0 0 1
-22.535526 -21.419899 20.026015 36.982473 0.760023 0.998576 0.048879 0.007624 792452.000000 0 0 1
-21.419226 -21.073999 19.047815 35.576902 0.777274 1.005817 0.047458 0.008549 -184535.000000 0 0 1
-21.086426 -22.198099 18.210515 35.623248 0.811075 1.034219 0.044159 0.011135 622829.000000 0 0 1
-19.960526 -22.005199 17.338815 34.398923 0.834082 1.042513 0.048378 0.009338 545492.000000 0 0 1
-19.823426 -23.183999 16.341315 34.604980 0.863379 1.078984 0.042260 0.014917 -492603.000000 0 0 1
-19.709226 -24.516899 16.818515 35.670638 0.893680 1.079811 0.048491 0.006548 1060070.000000 0 0 1
-18.403526 -24.890799 17.290715 35.457164 0.934133 1.061399 0.058899 -0.000801 1136600.000000 0 0 1
-17.176026 -25.015869 16.343315 34.466121 0.969117 1.076758 0.056820 -0.004834 85093.300000 0 0 1
-16.697126 -23.768599 15.974215 33.149900 0.958403 1.067999 0.054143 -0.001220 107938.000000 0 0 1
-15.507826 -23.808999 15.185415 32.217355 0.993478 1.079984 0.048868 -0.002839 480039.000000 0 0 1
-14.523426 -22.651399 15.398615 31.002147 1.000653 1.051010 0.044305 -0.000432 -247902.000000 0 0 1
-14.944526 -21.388999 14.818015 30.006695 0.960942 1.054315 0.050944 0.000616 -114751.000000 0 0 1
-15.941426 -20.672599 15.505115 30.362708 0.913904 1.034840 0.050569 -0.002126 -242326.000000 0 0 1
-15.459026 -19.512499 16.381215 29.800391 0.900791 0.988794 0.052980 -0.009551 -418490.000000 0 0 1
-14.887926 -18.490899 15.613715 28.413937 0.892924 0.989020 0.053984 -0.009166 -64838.100000 0 0 1
-14.688026 -17.341699 16.424015 28.039631 0.868060 0.945000 0.034733 -0.009482 -380798.000000 0 0 1
-14.119526 -16.127799 15.619915 26.522607 0.851696 0.941064 0.038029 -0.008595 171463.000000 0 0 1
-14.908826 -15.515299 14.589815 25.997313 0.805329 0.974956 0.047368 -0.020919 127915.000000 0 0 1
-15.012526 -16.250199 13.401715 25.866018 0.824967 1.026144 0.052689 -0.019139 44875.000000 0 0 1
-16.068826 -15.645199 12.426915 25.639962 0.772041 1.064811 0.050544 -0.014706 -287688.000000 0 0 1
-17.368426 -15.664699 12.941615 26.730702 0.733868 1.065407 0.044626 -0.019793 -700997.000000 0 0 1
-18.104826 -14.718699 12.190115 26.325344 0.682600 1.089356 0.054416 -0.020998 -341908.000000 0 0 1
-19.632326 -14.891799 12.394915 27.583108 0.648941 1.104741 0.041000 -0.019047 86268.300000 0 0 1
-20.191026 -16.024799 11.721115 28.317067 0.670863 1.144036 0.041458 -0.023757 36551.800000 0 0 1
-20.331226 -16.013999 10.352215 27.874276 0.667168 1.190291 0.044856 -0.015031 -683682.000000 0 0 1
-21.129426 -17.175799 9.761115 28.926460 0.682549 1.226594 0.045577 -0.011357 -334671.000000 0 0 1
-20.484426 -18.424799 9.694715 29.207404 0.732513 1.232451 0.053659 -0.007182 -337909.000000 0 0 1
-21.324126 -19.462699 9.257415 30.318555 0.739792 1.260503 0.057495 -0.014877 112958.000000 0 0 1
-20.667426 -20.892299 9.345115 30.837669 0.790809 1.262913 0.053866 0.000976 41625.600000 0 0 1
-19.529826 -21.070699 8.555515 29.976413 0.823332 1.281364 0.056676 -0.001054 -675396.000000 0 0 1
-19.116426 -22.402599 8.441315 30.636090 0.864382 1.291650 0.050091 -0.001433 -439832.000000 0 0 1
-17.962226 -22.564199 7.460615 29.790022 0.898469 1.317662 0.040168 -0.013927 -1134450.000000 0 0 1
-16.818926 -22.013699 8.010215 28.838217 0.918382 1.289331 0.033214 -0.009542 -760175.000000 0 0 1
-15.676226 -22.413799 7.232515 28.291902 0.960473 1.312288 0.042027 -0.011341 654519.000000 0 0 1
-14.410826 -21.835799 7.980015 27.352416 0.987449 1.274742 0.014842 -0.009199 76218.300000 0 0 1
-13.248326 -22.391799 7.393615 27.047668 1.036532 1.293917 0.016211 -0.003489 -545272.000000 0 0 1
-12.150726 -21.974699 8.179015 26.408783 1.065697 1.255910 0.015330 -0.003064 580155.000000 0 0 1
-10.808426 -22.523099 7.578815 26.106522 1.123372 1.276252 0.014612 0.006577 592303.000000 0 0 1
-10.678526 -23.931199 7.794315 27.340164 1.151092 1.281700 0.014283 0.001922 805789.000000 0 0 1
-9.336326 -24.409899 7.497115 27.188544 1.205483 1.291431 0.029853 -0.002179 1434570.000000 0 0 1
-9.224426 -25.908569 7.769615 28.578154 1.228753 1.295458 0.031302 -0.003837 156183.000000 0 0 1
-9.915526 -26.642689 6.732515 29.214334 1.214512 1.338254 0.029371 -0.012265 83390.100000 0 0 1
-9.868026 -28.047469 6.819215 30.504756 1.232489 1.345345 0.042791 -0.009510 482096.000000 0 0 1
-8.757026 -28.651789 5.906215 30.536763 1.274177 1.376156 0.040755 -0.011759 -12055.300000 0 0 1
-7.413026 -28.385229 6.195915 29.984389 1.315344 1.362659 0.051540 -0.016711 -491425.000000 0 0 1
-6.443226 -29.225369 5.629515 30.452074 1.353801 1.384862 0.053540 -0.009640 185211.000000 0 0 1
-6.467526 -30.751189 6.034715 31.998161 1.363500 1.381064 0.060316 -0.016955 -622806.000000 0 0 1
-6.092926 -30.800279 7.399315 32.257260 1.375497 1.339351 0.056390 -0.008962 99209.900000 0 0 1
-6.248926 -32.077709 7.998815 33.645350 1.378400 1.330759 0.085969 -0.021739 -38222.800000 0 0 1
-6.594126 -32.029309 9.532815 34.062204 1.367755 1.287143 0.076112 -0.025404 305641.000000 0 0 1
-5.528926 -31.488489 10.305515 33.590142 1.396982 1.258965 0.046721 -0.017170 503672.000000 0 0 1
-5.941926 -31.662639 11.648915 34.256772 1.385290 1.223829 0.027542 -0.009931 -230726.000000 0 0 1
-5.148926 -30.908949 12.709315 33.814217 1.405728 1.185475 0.021774 -0.003524 31961.100000 0 0 1
-5.627926 -29.571669 12.895615 32.748344 1.382731 1.166057 0.025125 -0.003006 -11407.900000 0 0 1
-4.702926 -28.885339 13.649615 32.292295 1.409399 1.134385 0.003897 -0.005846 -291140.000000 0 0 1
-5.381926 -28.219089 14.889415 32.357021 1.382340 1.092621 0.014633 -0.004433 103584.000000 0 0 1
-5.920926 -28.868199 16.014715 33.539550 1.368500 1.073003 0.028523 -0.006336 444665.000000 0 0 1
-4.969926 -29.627539 16.799415 34.419640 1.404597 1.060912 0.001635 0.000346 417791.000000 0 0 1
-5.537926 -30.946619 17.332415 35.899505 1.393720 1.066943 0.004624 -0.002363 -131375.000000 0 0 1
-5.562926 -31.868149 16.234215 36.194956 1.397977 1.105686 0.009000 -0.002373 149434.000000 0 0 1
-5.857926 -33.235569 16.589515 37.604925 1.396333 1.113914 0.012177 -0.002602 -373174.000000 0 0 1
-5.262926 -34.306149 15.768315 38.121517 1.418573 1.144356 0.001429 -0.005703 -511165.000000 0 0 1
-5.873926 -34.409193 14.508815 37.802134 1.401718 1.176878 0.019762 -0.013312 227185.000000 0 0 1
-5.412926 33.264845 13.846215 36.435797 -1.409488 1.180982 0.001589 -0.015037 -187773.000000 0 0 1
-4.160926 33.274721 12.978615 35.957820 -1.446394 1.201521 0.008594 -0.019188 -658880.000000 0 0 1
-4.446926 33.872506 11.703115 36.112113 -1.440259 1.240760 0.021744 -0.023019 -111487.000000 0 0 1
-3.368926 -34.384354 11.054215 36.274359 1.473130 1.261132 0.026371 -0.027031 -1071160.000000 0 0 1
-3.667926 -34.167213 9.575615 35.672742 1.463854 1.299034 0.031248 -0.033088 -825031.000000 0 0 1
-3.684926 33.553967 8.701415 34.859174 -1.461414 1.318512 0.047089 -0.034948 440271.000000 0 0 1
-4.500926 32.376251 8.905715 33.879075 -1.432662 1.304803 0.047029 -0.033750 1080090.000000 0 0 1
-6.031926 32.496341 9.230615 34.316185 -1.387266 1.298455 0.071461 -0.029296 768991.000000 0 0 1
-6.820926 33.109963 8.239615 34.794912 -1.367630 1.331720 0.089983 -0.030849 282144.000000 0 0 1
-8.183026 33.235091 8.673115 35.309434 -1.329382 1.322625 0.079427 -0.025214 717723.000000 0 0 1
-9.188226 33.672618 7.609315 35.723527 -1.304412 1.356146 0.080390 -0.030113 -152458.000000 0 0 1
-9.150126 -33.829709 7.299215 35.797382 1.306641 1.365453 0.100731 -0.029127 64130.000000 0 0 1
-10.181226 -33.614219 6.363115 35.694010 1.276695 1.391570 0.084570 -0.014038 -152017.000000 0 0 1
-10.341926 -32.126049 5.911715 34.263492 1.259355 1.397392 0.069410 -0.013378 450690.000000 0 0 1
-11.292826 -31.246609 6.542915 33.862786 1.223993 1.376355 0.069327 -0.006345 485483.000000 0 0 1
-12.496926 -31.093809 5.795615 34.008636 1.188644 1.399545 0.060606 -0.000900 -9399.970000 0 0 1
-13.446326 -30.121959 6.467115 33.614873 1.150943 1.377201 0.047573 -0.003647 -548699.000000 0 0 1
-14.092726 -30.637099 7.576915 34.563658 1.139667 1.349785 0.076832 -0.013059 -17584.800000 0 0 1
-14.841926 -29.653829 8.302915 34.184364 1.106744 1.325456 0.057832 -0.012435 -158862.000000 0 0 1
32.156174 -13.216299 -12.810185 37.051194 -0.389956 1.923827 0.005812 0.000096 -489445.000000 0 0 1
31.060874 -13.180099 -11.940185 35.791912 -0.401304 1.910916 -0.004656 -0.000695 4903.700000 0 0 1
30.802094 -14.431599 -11.345785 35.857592 -0.438153 1.892741 -0.010915 -0.007245 -315733.000000 0 0 1
31.740064 -14.894599 -10.187985 36.511311 -0.438761 1.853587 0.000034 -0.009840 710737.000000 0 0 1
33.098524 -15.046399 -10.607585 37.873834 -0.426668 1.854671 0.005947 -0.012114 406461.000000 0 0 1
33.964474 -15.638499 -9.668385 38.621572 -0.431499 1.823824 0.030186 -0.015077 878135.000000 0 0 1
35.421921 -15.880999 -10.206485 40.138398 -0.421471 1.827902 0.025961 -0.018583 567929.000000 0 0 1
-35.054733 -14.676499 -10.350385 39.387363 0.396500 1.836703 0.023199 -0.006698 342495.000000 0 0 1
-33.785531 -14.864499 -10.971985 38.507141 0.414479 1.859734 0.034061 -0.017695 612214.000000 0 0 1
-33.083491 -13.527299 -11.367585 37.506362 0.388141 1.878724 0.059818 -0.025461 -3524.070000 0 0 1
-32.706121 -12.719299 -10.261985 36.561992 0.370898 1.855292 0.061880 -0.024725 227626.000000 0 0 1
-32.391071 -11.467599 -10.789185 36.015189 0.340266 1.875042 0.063229 -0.026836 -218550.000000 0 0 1
-32.650521 -10.292999 -9.841585 35.621049 0.305386 1.850724 0.059840 -0.028843 -362742.000000 0 0 1
-31.948261 -10.215099 -8.679385 34.646376 0.309466 1.824007 0.058565 -0.021113 9316.310000 0 0 1
-32.634671 -9.267099 -7.876185 34.827219 0.276682 1.798920 0.071101 -0.028237 -183126.000000 0 0 1
-31.982171 -8.904299 -6.525085 33.833749 0.271538 1.764870 0.060095 -0.022229 -230288.000000 0 0 1
-30.698921 -8.283999 -6.559485 32.466525 0.263569 1.774235 0.066521 -0.029399 497784.000000 0 0 1
-30.063191 -8.211399 -5.297985 31.611567 0.266634 1.739187 0.067057 -0.026568 -519851.000000 0 0 1
-29.455971 -9.456899 -4.692585 31.290694 0.310657 1.721332 0.064943 -0.024812 -1083040.000000 0 0 1
-30.354161 -10.433599 -4.260885 32.378855 0.331077 1.702774 0.064171 -0.019441 -108465.000000 0 0 1
-30.936901 -10.227599 -2.998485 32.721347 0.319284 1.662562 0.049616 -0.015994 -38440.000000 0 0 1
-31.701851 -11.522599 -2.629985 33.833334 0.348622 1.648608 0.056639 -0.013645 -481816.000000 0 0 1
-32.800191 -11.834799 -3.429985 35.038262 0.346277 1.668846 0.050894 -0.020700 -242832.000000 0 0 1
-33.196931 -13.157399 -3.068585 35.840893 0.377351 1.656518 0.048448 -0.022394 470598.000000 0 0 1
-34.728420 -13.307299 -2.775985 37.294148 0.365924 1.645300 0.036111 -0.015551 431392.000000 0 0 1
-35.081812 -12.443999 -1.731585 37.263722 0.340868 1.617281 0.045452 -0.026788 52019.800000 0 0 1
34.724654 -12.542299 -1.478685 36.949931 -0.346611 1.610826 0.056721 -0.020804 102850.000000 0 0 1
34.381324 -11.520099 -0.327885 36.261490 -0.323311 1.579839 0.053901 -0.024874 -223655.000000 0 0 1
34.747724 -12.028599 0.915115 36.782183 -0.333258 1.545914 0.065124 -0.024050 93734.600000 0 0 1
34.692234 -10.993999 1.864415 36.440296 -0.306889 1.519610 0.051812 -0.023640 -333045.000000 0 0 1
35.119284 -11.251899 3.307215 37.025762 -0.310057 1.481355 0.058414 -0.026867 -45303.500000 0 0 1
34.066234 -11.794499 4.069615 36.279199 -0.333306 1.458385 0.057104 -0.031086 26138.900000 0 0 1
34.521514 -12.253999 5.327115 37.017207 -0.341093 1.426386 0.043260 -0.029223 -877310.000000 0 0 1
33.422624 -12.724799 6.249015 36.304855 -0.363780 1.397809 0.039985 -0.023277 -221030.000000 0 0 1
32.629364 -11.643799 6.760215 35.298073 -0.342764 1.378088 0.036817 -0.022899 302516.000000 0 0 1
32.385364 -11.742099 8.121215 35.392695 -0.347833 1.339273 0.013015 -0.006724 -969066.000000 0 0 1
31.758394 -10.543499 8.743515 34.586270 -0.320542 1.315220 0.011124 -0.011548 150608.000000 0 0 1
30.376864 -10.437499 8.388415 33.197301 -0.330962 1.315343 0.043037 -0.008073 561879.000000 0 0 1
29.743954 -9.436499 9.177315 32.526504 -0.307213 1.284763 0.049702 -0.001675 -360430.000000 0 0 1
28.227704 -9.338399 9.018115 31.069847 -0.319490 1.276305 0.056234 -0.011125 -349647.000000 0 0 1
27.752904 -8.770699 7.800715 30.133039 -0.306096 1.308938 0.072471 -0.011748 502220.000000 0 0 1
26.919434 -9.716499 7.082915 29.482774 -0.346394 1.328184 0.081286 -0.024603 892578.000000 0 0 1
25.997324 -9.044699 5.959615 28.163531 -0.334811 1.357577 0.078639 -0.031134 35695.100000 0 0 1
25.109224 -8.106799 6.460115 27.164801 -0.312296 1.330684 0.073689 -0.025721 164350.000000 0 0 1
24.044524 -7.797999 5.569715 25.883772 -0.313612 1.353918 0.070047 -0.033145 144471.000000 0 0 1
24.282224 -6.527699 4.766515 25.592127 -0.262618 1.383453 0.060919 -0.030041 -513038.000000 0 0 1
25.208324 -6.753199 3.735915 26.363277 -0.261749 1.428609 0.063895 -0.029987 168520.000000 0 0 1
25.538724 -5.609499 2.925015 26.310618 -0.216213 1.459394 0.067265 -0.027825 -175549.000000 0 0 1
26.275394 -5.828499 1.641215 26.964075 -0.218289 1.509892 0.084440 -0.035832 -213970.000000 0 0 1
25.459524 -6.266299 0.597415 26.226147 -0.241331 1.548015 0.091622 -0.036441 -81672.600000 0 0 1
26.112324 -5.951999 -0.590485 26.788588 -0.224109 1.592841 0.091733 -0.040705 92503.000000 0 0 1
25.132224 -6.009099 -1.789885 25.902542 -0.234693 1.639952 0.089564 -0.033108 -248967.000000 0 0 1
24.203524 -4.996099 -1.849285 24.782886 -0.203561 1.645485 0.091647 -0.027066 -588333.000000 0 1 0
23.522424 -5.062999 -3.070585 24.256276 -0.212007 1.697726 0.075017 -0.021776 -541827.000000 0 1 0
22.217824 -4.275299 -3.169485 22.846346 -0.190103 1.709976 0.048744 -0.020588 -813829.000000 0 1 0
22.273824 -2.893799 -3.162085 22.682507 -0.129196 1.710658 0.038930 -0.023660 454706.000000 0 1 0
22.787524 -2.336899 -4.400885 23.325955 -0.102194 1.760603 0.050112 -0.023094 -239957.000000 0 1 0
21.776524 -1.316199 -4.865685 22.352277 -0.060368 1.790235 0.018464 -0.010725 -188233.000000 0 1 0
21.835624 -0.027399 -4.218285 22.239361 -0.001255 1.761629 0.024986 -0.010447 467499.000000 0 1 0
20.902824 0.897401 -4.780685 21.461322 0.042906 1.795439 0.027816 -0.002864 -525697.000000 0 1 0
20.927924 2.296901 -4.109685 21.450951 0.109315 1.763573 0.043253 0.001417 -104050.000000 0 1 0
22.050724 3.132701 -4.324585 22.688109 0.141124 1.762580 0.064367 0.000960 848931.000000 0 1 0
23.169124 2.913201 -3.449085 23.604899 0.125080 1.717439 0.083581 -0.003902 675789.000000 0 1 0
24.343024 3.892301 -3.673185 24.924388 0.158552 1.718708 0.073285 -0.007803 -465859.000000 0 1 0
23.867124 5.188701 -3.509885 24.675525 0.214069 1.713522 0.063188 0.000105 122534.000000 0 1 0
24.825424 6.194101 -3.387085 25.809706 0.244514 1.702409 0.052094 -0.003580 -490686.000000 0 0 1
24.182424 7.602201 -3.443885 25.582092 0.304587 1.705827 0.029972 -0.009947 -28765.500000 0 0 1
23.471524 7.804501 -2.240085 24.836277 0.321009 1.661113 0.042399 -0.014563 1523190.000000 0 1 0
22.327524 8.701201 -2.351885 24.078218 0.371602 1.668629 0.030311 -0.010958 701583.000000 0 1 0
21.409824 8.831701 -1.132985 23.187565 0.391241 1.619678 0.016833 -0.008741 -189960.000000 0 1 0
22.017824 9.552401 -0.013785 24.000690 0.409341 1.571371 0.007524 -0.006657 567476.000000 0 1 0
21.036324 9.878001 0.925715 23.258521 0.439008 1.530985 0.007045 -0.004546 -381260.000000 0 1 0
21.587424 10.698601 2.141415 24.188067 0.460117 1.482148 0.015724 -0.001713 -694670.000000 0 1 0
22.184924 11.906101 1.874515 25.247572 0.492556 1.496483 0.007162 -0.004966 226316.000000 0 0 1
21.441424 13.004701 1.308015 25.111110 0.545201 1.518684 0.010479 -0.005883 -600635.000000 0 0 1
20.426024 13.654601 2.272415 24.674571 0.589264 1.478570 0.012714 -0.003893 391647.000000 0 1 0
19.149124 13.032101 2.471315 23.294463 0.597559 1.464506 0.034012 -0.007178 887836.000000 0 1 0
18.346824 13.755501 3.405215 23.182218 0.643340 1.423374 0.044481 -0.011049 -115487.000000 0 1 0
18.493924 13.418701 4.872415 23.362945 0.627684 1.360701 0.044609 -0.009911 -548467.000000 0 1 0
18.070024 12.158501 5.269815 22.408165 0.592274 1.333399 0.030893 -0.006271 233170.000000 0 1 0
18.034724 12.088701 6.709115 22.724440 0.590515 1.271092 0.016298 -0.013935 -44090.400000 0 1 0
18.108524 10.649201 7.276015 22.232061 0.531606 1.237377 0.002434 -0.016851 151744.000000 0 1 0
19.341624 10.029001 6.909115 22.856403 0.478353 1.263709 0.004617 -0.017538 719520.000000 0 1 0
19.383024 8.648301 7.320815 22.451928 0.419672 1.238657 0.013392 -0.014266 -514331.000000 0 1 0
20.338124 7.859301 6.423915 22.730477 0.368755 1.284280 0.013595 -0.013709 -118432.000000 0 1 0
19.944924 7.850701 5.019515 22.014292 0.374993 1.340761 0.004999 -0.012191 1021470.000000 0 1 0
20.748924 6.866801 4.345315 22.283460 0.319602 1.374537 0.001028 -0.014024 132534.000000 0 1 0
20.478024 6.662401 2.849015 21.722199 0.314543 1.439261 0.006246 -0.013756 -578030.000000 0 1 0
21.344524 5.754501 2.253315 22.221171 0.263340 1.469218 0.004011 -0.014781 117225.000000 0 1 0
21.156424 5.677201 0.821615 21.920309 0.262168 1.533306 0.014312 -0.003303 -78463.600000 0 1 0
22.302524 4.814301 0.222015 22.817304 0.212601 1.561066 0.043407 -0.011466 195616.000000 0 1 0
22.286924 3.444101 0.654515 22.560967 0.153322 1.541781 0.043570 -0.010316 -74793.400000 0 1 0
23.371724 2.683501 0.222815 23.526332 0.114318 1.561325 0.057907 -0.014471 -365310.000000 0 1 0
23.186424 1.167601 0.385715 23.219008 0.050315 1.554184 0.068810 -0.014067 -302550.000000 0 1 0
22.056324 0.717101 -0.320585 22.070307 0.032501 1.585322 0.040015 -0.017653 268486.000000 0 1 0
22.249224 -0.581899 -0.965685 22.277772 -0.026148 1.614157 0.053822 -0.021729 -857057.000000 0 1 0
22.065724 -1.778699 -0.000985 22.137298 -0.080435 1.570841 0.064916 -0.017500 522442.000000 0 1 0
23.109424 -2.018999 0.955815 23.217137 -0.087146 1.529616 0.073702 -0.014715 1027200.000000 0 1 0
24.353024 -2.510899 0.475815 24.486748 -0.102741 1.551364 0.087761 -0.025905 709639.000000 0 1 0
25.578724 -2.217699 1.421215 25.713988 -0.086485 1.515498 0.086585 -0.020875 385015.000000 0 0 1
25.636724 -0.894399 1.772615 25.713493 -0.034873 1.501804 0.073687 -0.017712 534882.000000 0 0 1
26.479144 -0.597799 2.880315 26.642047 -0.022572 1.462473 0.065358 -0.021349 18856.900000 0 0 1
26.108224 0.771501 3.475515 26.349835 0.029542 1.438512 0.064613 -0.014000 -63035.800000 0 0 1
26.151594 1.949901 2.670415 26.359801 0.074424 1.469316 0.065497 -0.015843 569797.000000 0 0 1
27.461354 2.362901 2.279615 27.656933 0.085833 1.488278 0.062830 -0.013337 225075.000000 0 0 1
27.457174 3.614201 1.409215 27.729853 0.130878 1.519955 0.067111 -0.021153 -316168.000000 0 0 1
27.050984 3.332601 0.062015 27.255565 0.122579 1.568521 0.079142 -0.024119 400184.000000 0 0 1
27.598824 4.191801 -0.947585 27.931420 0.150731 1.604728 0.077029 -0.016659 1251150.000000 0 0 1
29.110314 3.924401 -1.390685 29.406552 0.134003 1.618106 0.069054 -0.012136 1161230.000000 0 0 1
29.958384 4.223501 -0.292885 30.256050 0.140056 1.580477 0.056502 -0.012075 -940340.000000 0 0 1
31.285684 3.999101 -0.637185 31.546677 0.127136 1.590996 0.039590 -0.011343 -558956.000000 0 0 1
32.374954 4.460201 0.354915 32.682672 0.136905 1.559937 0.021887 -0.011195 -70604.900000 0 0 1
32.464354 3.726401 1.534715 32.713540 0.114284 1.523865 0.027956 -0.007240 305111.000000 0 0 1
31.535444 4.088601 2.550315 31.901489 0.128932 1.490767 0.030790 0.001591 85084.400000 0 0 1
31.485384 3.004401 3.607515 31.833473 0.095134 1.457228 0.036533 -0.006200 8305.300000 0 0 1
30.814574 1.829001 3.114915 31.025569 0.059285 1.470229 0.040310 -0.011659 363144.000000 0 0 1
30.946884 0.693601 3.895515 31.198810 0.022409 1.445609 0.038040 -0.013744 168403.000000 0 0 1
32.292244 -0.092199 3.845415 32.520528 -0.002855 1.452273 0.041917 -0.005376 303593.000000 0 0 1
33.414244 0.581101 4.417415 33.709983 0.017389 1.439377 0.037065 -0.009524 -443182.000000 0 0 1
34.510034 -0.160599 3.998515 34.741278 -0.004654 1.455447 0.035745 -0.006477 -1311420.000000 0 0 1
-35.377377 0.546301 4.441515 35.659281 -0.015441 1.445918 0.044907 -0.012386 -130152.000000 0 0 1
-35.068015 1.768401 3.726915 35.309811 -0.050385 1.465050 0.034826 -0.017808 297141.000000 0 0 1
-34.732075 1.553201 2.357815 34.846646 -0.044690 1.503082 0.048104 -0.011391 -921136.000000 0 0 1
-34.376598 2.910601 1.593415 34.536373 -0.084467 1.524643 0.047338 -0.013824 1001590.000000 0 0 1
-33.088371 3.512601 1.846915 33.325512 -0.105762 1.515347 0.058922 -0.026380 1301160.000000 0 0 1
-31.986191 2.832101 1.221315 32.134542 -0.088311 1.532781 0.064895 -0.024258 164370.000000 0 0 1
-30.693831 3.628101 1.595515 30.948668 -0.117657 1.519220 0.073152 -0.022369 26674.900000 0 0 1
-30.306121 3.564201 2.969515 30.659134 -0.117069 1.473788 0.077296 -0.018613 172591.000000 0 0 1
-29.678721 4.726901 3.468715 30.252306 -0.157942 1.455884 0.083443 -0.022224 -537793.000000 0 0 1
-29.974531 4.845401 4.994515 30.771669 -0.160264 1.407766 0.081559 -0.012432 -100365.000000 0 0 1
-31.293431 5.153901 5.348815 32.162887 -0.163231 1.403716 0.063769 -0.011109 -175661.000000 0 0 1
-32.294701 4.169801 5.246215 32.982688 -0.128407 1.411058 0.064137 -0.016259 -444799.000000 0 0 1
-32.461461 3.208501 6.474815 33.256039 -0.098520 1.374849 0.048806 -0.001673 -482971.000000 0 0 1
-33.138321 3.841501 7.580515 34.210666 -0.115408 1.347358 0.042727 -0.003221 512667.000000 0 0 1
-33.126891 3.149101 8.806915 34.421933 -0.094777 1.312068 0.031479 0.000689 -560970.000000 0 0 1
-34.137215 2.029101 8.923515 35.342550 -0.059370 1.315547 0.021720 0.000187 -956011.000000 0 0 1
-33.686221 0.788401 8.414215 34.730132 -0.023400 1.326087 0.028402 -0.007180 -204296.000000 0 0 1
-34.558792 -0.292999 8.520015 35.594755 0.008478 1.329088 0.036946 -0.004751 -466700.000000 0 0 1
-34.473717 -1.189799 9.759515 35.848304 0.034500 1.295071 0.038130 -0.003711 316732.000000 0 0 1
-33.272791 -1.964699 9.826415 34.749059 0.058980 1.284103 0.035330 -0.007136 772885.000000 0 0 1
-33.429691 -2.790399 11.006315 35.305375 0.083278 1.253766 0.030001 -0.004396 49193.400000 0 0 1
-32.296821 -3.825399 11.035515 34.343863 0.117896 1.243669 0.017402 -0.001573 -202534.000000 0 0 1
-32.314831 -4.784099 9.994915 34.161883 0.146979 1.273878 0.022164 -0.003929 513139.000000 0 0 1
-31.124471 -5.580199 9.935615 33.144951 0.177402 1.266353 0.031572 -0.011355 484852.000000 0 0 1
-31.188811 -6.617599 8.803015 33.076088 0.209078 1.301405 0.021799 -0.004884 224988.000000 0 0 1
-31.974751 -7.771099 9.095615 34.139492 0.238416 1.301114 0.028704 -0.005347 46298.500000 0 0 1
-32.017561 -8.594599 7.997715 34.102123 0.262252 1.334069 0.019390 -0.007901 81580.000000 0 0 1
-32.998701 -9.777699 8.105915 35.358500 0.288064 1.339490 0.015106 -0.006508 1794260.000000 0 0 1
-34.375176 -9.464099 8.497515 36.652826 0.268662 1.336830 0.016149 -0.008099 1689450.000000 0 0 1
-35.232307 -10.577199 8.420015 37.737107 0.291652 1.345779 0.016992 -0.008058 -224591.000000 0 0 1
7.945399 -24.112799 10.493315 27.471187 -1.252491 1.178864 0.066412 -0.014084 142567.000000 0 0 1
7.156599 -24.642899 9.450615 27.345996 -1.288159 1.217925 0.065208 -0.015188 30516.300000 0 0 1
5.883599 -25.107749 9.874815 27.613906 -1.340616 1.205096 0.057617 -0.014831 382118.000000 0 0 1
5.354099 -26.119899 8.881615 28.103356 -1.368615 1.249250 0.041987 -0.008510 -514272.000000 0 0 1
5.066799 -25.597189 7.593315 27.176221 -1.375379 1.287616 0.041304 -0.007182 -347378.000000 0 0 1
4.948399 -26.538639 6.555315 27.780536 -1.386453 1.332582 0.035242 -0.002403 -756319.000000 0 0 1
4.253399 -25.926159 5.336315 26.809204 -1.408187 1.370410 0.034814 -0.003728 178460.000000 0 0 1
2.840999 -25.861869 5.417015 26.575395 -1.461382 1.365522 0.024843 -0.017918 -385417.000000 0 0 1
2.219399 -27.009199 4.963015 27.550936 -1.488809 1.389668 0.013056 -0.009647 -610784.000000 0 0 1
0.677599 -26.938189 4.880115 27.385045 -1.545648 1.391636 -0.002751 -0.010463 117888.000000 0 0 1
0.146699 -26.738759 6.209415 27.450676 -1.565310 1.342619 -0.000745 -0.013752 1751800.000000 0 0 1
-1.319301 -26.758779 6.323115 27.527343 1.521533 1.339024 0.001734 -0.013656 2367660.000000 0 0 1
-2.072201 -28.116489 6.319215 28.892273 1.497229 1.350297 0.006433 -0.008045 -329209.000000 0 0 1
-1.821201 -28.835659 7.527215 29.857511 1.507722 1.315942 0.005819 -0.015284 25349.400000 0 0 1
-2.469401 -30.073319 7.630715 31.124432 1.488867 1.323103 0.014585 -0.015702 -135819.000000 0 0 1
-2.378801 -30.662529 9.043015 32.056599 1.493371 1.284819 0.008380 -0.012934 1155210.000000 0 0 1
-0.995201 -30.991689 9.298115 32.371750 1.538695 1.279463 -0.000390 -0.009771 838245.000000 0 0 1
-0.718201 -31.430329 10.626515 33.185904 1.547950 1.244843 -0.009269 -0.002667 763901.000000 0 0 1
0.758199 -31.669009 11.106015 33.568506 -1.546860 1.233596 -0.007922 -0.008053 617261.000000 0 0 1
1.195499 -33.006069 10.871615 34.770991 -1.534592 1.252801 -0.008303 -0.008233 448340.000000 0 0 1
2.605499 -33.067309 11.123715 34.985320 -1.492165 1.247226 0.004224 -0.004682 697474.000000 0 0 1
2.939599 -33.683869 12.550415 36.066012 -1.483747 1.215376 0.005667 -0.006444 -401693.000000 0 0 1
2.550399 -32.908319 13.638615 35.713776 -1.493451 1.178960 -0.011111 -0.007481 117907.000000 0 0 1
3.149899 -33.444749 14.816715 36.715231 -1.476891 1.155394 -0.007852 -0.003576 -556637.000000 0 0 1
2.804599 -32.511399 16.006415 36.346419 -1.484744 1.114769 -0.017196 0.004727 -128163.000000 0 0 1
3.331199 -31.245339 15.785515 35.164621 -1.464583 1.105259 -0.009197 0.000592 798137.000000 0 0 1
4.752099 -31.102849 15.985615 35.291778 -1.419182 1.100718 0.006839 0.004177 560760.000000 0 0 1
5.193999 -29.711789 15.456515 33.892062 -1.397732 1.097243 0.022009 0.002543 -192274.000000 0 0 1
5.340499 -29.645899 14.016215 33.224307 -1.392565 1.135294 0.023989 -0.000509 -83680.800000 0 0 1
4.137899 -29.779389 13.278515 32.867205 -1.432729 1.154905 0.007430 0.007724 -242919.000000 0 0 1
4.397799 -29.692489 11.726515 32.225699 -1.423754 1.198359 0.006141 0.003932 74933.100000 0 0 1
4.918499 -30.862869 11.121615 33.172257 -1.412759 1.228906 0.011981 0.002419 -702965.000000 0 0 1
6.306499 -30.977519 11.225415 33.546812 -1.369958 1.229595 0.022421 0.001824 -692363.000000 0 0 1
6.728299 -32.325759 10.529115 34.656702 -1.365586 1.262105 0.017164 0.002254 -215550.000000 0 0 1
6.394799 -33.402649 11.331715 35.847429 -1.381639 1.249170 0.007287 -0.003759 40400.900000 0 0 1
6.620499 34.278112 10.731015 36.523618 1.380005 1.272586 0.017892 -0.008233 -176753.000000 0 0 1
6.618699 33.032205 11.621815 35.637064 1.373044 1.238604 0.034616 -0.013280 -1026100.000000 0 0 1
5.398799 32.689191 12.120515 35.279415 1.407118 1.220094 0.022189 -0.015131 -1302360.000000 0 0 1
5.418599 31.375841 12.664815 34.266633 1.399783 1.192222 0.028340 -0.012814 335967.000000 0 0 1
4.047599 31.020921 13.303515 33.995060 1.441050 1.168713 0.022759 -0.009710 377491.000000 0 0 1
3.964899 31.879811 14.414815 35.211215 1.447061 1.149020 0.043542 -0.012157 -264695.000000 0 0 1
3.000399 31.477841 15.355215 35.151664 1.475766 1.118727 0.029606 -0.011839 -251817.000000 0 0 1
3.384599 31.552041 16.852715 35.930499 1.463935 1.082597 0.022467 -0.014572 -101535.000000 0 0 1
3.573399 32.901207 17.376615 37.379210 1.462610 1.087304 0.014359 -0.004047 44578.000000 0 0 1
4.212699 32.783501 18.603915 37.929018 1.442996 1.058141 0.011673 -0.002851 -285351.000000 0 0 1
4.488999 34.159731 19.242215 39.462655 1.440133 1.061451 0.011014 0.001613 -351724.000000 0 0 1
3.373599 -34.027051 19.759115 39.492328 -1.471975 1.046819 -0.013593 0.008843 -345881.000000 0 0 1
3.765799 -32.880879 20.509715 38.935612 -1.456765 1.016012 -0.000663 0.000740 88443.700000 0 0 1
2.575799 -31.994609 20.929815 38.319015 -1.490462 0.992976 -0.021210 0.002755 144406.000000 0 0 1
1.734999 -32.674429 21.836615 39.337848 -1.517747 0.982308 -0.012060 0.007400 -275935.000000 0 0 1
0.679899 -31.898169 22.355815 38.958156 -1.549485 0.959607 -0.014741 0.010732 -289137.000000 0 0 1
-0.348601 -32.758259 23.100215 40.085471 1.560155 0.956634 -0.017883 0.008676 -14088.400000 0 0 1
-1.201901 -33.455349 22.132715 40.131808 1.534886 0.986634 -0.020989 0.003529 550601.000000 0 0 1
-2.171201 -34.317518 22.695215 41.200473 1.507613 0.987416 -0.007521 0.001069 1343610.000000 0 0 1
-3.520401 -33.666969 23.218715 41.048347 1.466610 0.969583 0.014460 0.006926 670321.000000 0 0 1
-4.491901 -33.346829 22.275815 40.353440 1.436900 0.986014 0.011737 0.002778 -234560.000000 0 0 1
-5.624201 -32.736919 22.882115 40.335204 1.400657 0.967574 0.021958 0.007879 1040260.000000 0 0 1
-6.829901 -32.403439 21.916215 39.710841 1.363060 0.986161 0.018564 0.005428 934750.000000 0 0 1
-7.514601 -33.545179 21.401515 40.494112 1.350420 1.013953 0.010761 0.011003 121691.000000 0 0 1
-8.598001 -33.136039 20.584415 39.945473 1.316919 1.029424 0.030207 -0.007575 628307.000000 0 0 1
-9.732701 -34.223251 20.422815 41.024965 1.293723 1.049720 0.061607 -0.012449 1062180.000000 0 0 1
-10.487801 -34.314472 21.660215 41.912312 1.274175 1.027689 0.080049 -0.014526 -675332.000000 0 0 1
-11.654701 33.852024 21.661815 41.845261 -1.239223 1.026677 0.059155 -0.015991 -863302.000000 0 0 1
-11.868201 33.219177 23.072715 42.151134 -1.227660 0.991565 0.047522 -0.013572 -126296.000000 0 0 1
-12.098301 34.088913 24.198715 43.520118 -1.229759 0.981188 0.048399 -0.017627 566509.000000 0 0 1
-10.946701 -34.054124 24.635015 43.432679 1.259779 0.967694 0.040152 -0.017971 250165.000000 0 0 1
-11.294001 -32.545839 24.817215 42.457982 1.236780 0.946517 0.033801 -0.016402 186024.000000 0 0 1
-11.896001 -32.236439 26.075115 43.134841 1.217276 0.921655 0.030679 -0.012284 123668.000000 0 0 1
-12.084401 -30.838779 26.200915 42.232109 1.197329 0.901540 0.031843 -0.015351 128148.000000 0 0 1
-13.001101 -30.471989 27.399515 42.991908 1.167523 0.879784 0.036412 -0.012634 285613.000000 0 0 1
-12.337801 -30.445619 28.681915 43.609739 1.185780 0.853041 0.018553 -0.005773 439825.000000 0 0 1
-13.278201 -30.177939 29.718715 44.387168 1.156292 0.837215 0.036270 -0.007883 -61865.100000 0 0 1
-12.658401 -29.690849 31.060115 44.794111 1.167791 0.804603 0.018674 -0.002533 -475738.000000 0 0 1
-13.590601 -29.334419 32.068715 45.536964 1.136938 0.789452 0.024353 -0.001364 -99485.500000 0 0 1
-13.091301 -28.766059 33.251315 45.875029 1.143713 0.760018 0.008366 0.006554 -623454.000000 0 0 1
-12.481901 -29.732169 34.248515 47.039988 1.173329 0.755291 0.008460 0.008759 -599320.000000 0 0 1
-11.214601 -30.230679 33.936615 46.811912 1.215566 0.759825 -0.003884 0.012017 -412993.000000 0 0 1
-10.925901 -31.431669 -34.081832 47.632934 1.236254 2.368150 -0.000215 0.016629 43340.900000 0 0 1
-9.461501 -31.886989 -34.290632 47.771828 1.282352 2.371434 -0.003318 0.007938 470211.000000 0 0 1
-8.555401 -31.023859 -33.591432 46.519448 1.301716 2.377621 0.012951 0.002706 -260828.000000 0 0 1
-7.320501 -31.624239 -33.312932 46.512726 1.343319 2.369154 0.030791 -0.005204 63062.100000 0 0 1
-6.498201 -30.777359 -32.292332 45.080674 1.362717 2.369315 0.044423 0.001332 100805.000000 0 0 1
-7.037201 -30.869079 -30.984132 44.299421 1.346658 2.345389 0.027987 -0.004178 5559.690000 0 0 1
-6.234601 -30.201349 -30.046132 43.055334 1.367221 2.343187 0.024890 -0.001330 -12305.100000 0 0 1
-6.702301 -30.451279 -28.606432 42.314645 1.354151 2.313173 0.034007 -0.002090 9632.740000 0 0 1
-6.260801 -31.666189 -27.999332 42.730642 1.375601 2.285312 0.028774 0.004660 356847.000000 0 0 1
-7.177401 -31.959229 -26.947132 42.415273 1.349882 2.259215 0.032900 0.004109 808.129000 0 0 1
-6.712301 -33.153989 -26.122432 42.739016 1.371038 2.228382 0.039678 -0.004753 54713.400000 0 0 1
-5.733101 -32.761159 -25.188032 41.720486 1.397554 2.218972 0.018581 -0.005956 -68589.800000 0 0 1
-5.266301 -33.994809 -24.574132 42.276104 1.417103 2.191094 0.018788 -0.017663 -141648.000000 0 0 1
-4.344101 -33.821599 -23.377732 41.343562 1.443054 2.171776 0.021621 -0.024968 -191898.000000 0 0 1
-4.940501 -33.149759 -22.266632 40.238265 1.422849 2.157201 0.026472 -0.016856 86263.200000 0 0 1
-4.887001 -31.676389 -22.337432 39.067087 1.417724 2.179459 0.008871 0.000597 -363169.000000 0 0 1
-5.485001 -30.960689 -21.112332 37.873211 1.395455 2.162105 0.021618 -0.002839 -692773.000000 0 0 1
-6.875401 -31.010459 -21.029332 38.093996 1.352613 2.155603 0.030980 -0.003837 -453164.000000 0 0 1
-7.531201 -29.764789 -20.700132 37.029139 1.322974 2.164003 0.033733 0.001134 117742.000000 0 0 1
-7.655701 -28.672409 -21.795032 36.820378 1.309877 2.204246 0.043294 -0.015611 -1719000.000000 0 0 1
-6.513401 -28.157879 -22.322332 36.518175 1.343477 2.228456 0.038644 0.004413 -1758740.000000 0 0 1
-6.751901 -27.464499 -23.501832 36.772585 1.329736 2.264141 0.053495 -0.013362 -216603.000000 0 0 1
-5.514401 -27.664999 -24.434432 37.320266 1.374047 2.284612 0.049168 -0.007445 983161.000000 0 0 1
-4.269701 -27.070599 -24.100932 36.495241 1.414360 2.292128 0.053258 -0.006236 561885.000000 0 0 1
-3.673801 -27.546659 -22.851632 35.979332 1.438212 2.258976 0.034407 -0.000257 -797366.000000 0 0 1
-2.132201 -27.299959 -22.811332 35.639738 1.492852 2.265364 0.037245 -0.000234 260114.000000 0 0 1
-1.768501 -25.951709 -23.140932 34.815536 1.502756 2.297852 0.041423 -0.005558 -74838.600000 0 0 1
-1.973401 -24.998399 -22.191632 33.485561 1.492019 2.295245 0.046295 -0.010696 -947140.000000 0 0 1
-1.859101 -23.581499 -22.790932 32.847678 1.492122 2.337600 0.054545 -0.009195 821106.000000 0 0 1
-2.832101 -23.173699 -23.813232 33.348331 1.449188 2.366099 0.052310 -0.021032 1002710.000000 0 0 1
-4.184001 -23.129099 -23.382432 33.154174 1.391834 2.353591 0.059068 -0.020987 -25169.900000 0 0 1
-5.183401 -23.358099 -24.554032 34.283654 1.352425 2.369142 0.049393 -0.020467 -25783.200000 0 0 1
-5.267801 -22.243599 -25.433232 34.196151 1.338257 2.409452 0.060036 -0.023617 -431590.000000 0 0 1
-5.969401 -22.602399 -26.535132 35.364042 1.312587 2.419376 0.056988 -0.023762 -517143.000000 0 0 1
-6.177101 -21.453399 -27.524232 35.439925 1.290448 2.460118 0.064181 -0.019738 -202591.000000 0 0 1
-6.376101 -21.713699 -28.886332 36.695498 1.285181 2.477036 0.064898 -0.024458 36096.000000 0 0 1
-5.248801 -22.226799 -29.581632 37.371827 1.338897 2.484136 0.048422 -0.025483 97208.100000 0 0 1
-5.517301 -22.388199 -31.099332 38.714862 1.329173 2.503598 0.048892 -0.031865 -437603.000000 0 0 1
-5.599701 -21.118499 -31.751932 38.542611 1.311605 2.538903 0.050457 -0.034911 47940.700000 0 0 1
-6.626101 -21.139999 -32.733032 39.525387 1.267056 2.546599 0.045343 -0.031418 143507.000000 0 0 1
-6.404001 -20.097599 -33.842132 39.877495 1.262323 2.584229 0.042116 -0.024604 -87852.400000 0 0 1
-5.433901 -20.528899 34.032515 40.114524 1.312035 0.557871 0.046176 -0.021033 -522802.000000 0 0 1
-5.492601 -19.872699 32.830815 38.767967 1.301139 0.560754 0.054403 -0.009957 721545.000000 0 0 1
-4.220201 -20.015799 31.913515 37.906658 1.362996 0.570007 0.025612 -0.002549 -510643.000000 0 0 1
-4.214601 -21.365299 31.368615 38.186763 1.376033 0.606843 0.029502 -0.005457 487377.000000 0 0 1
-3.017901 -21.885299 30.782515 37.889804 1.433764 0.622502 0.020517 0.002472 1800900.000000 0 0 1
-1.622201 -21.724199 31.544715 38.335902 1.496262 0.604387 0.007993 -0.004692 782316.000000 0 0 1
-1.199101 -20.346299 31.511715 37.528628 1.511930 0.574118 -0.001181 -0.005719 131372.000000 0 0 1
-0.130901 -20.029599 32.408115 38.098397 1.564261 0.553590 0.005697 -0.007816 292973.000000 0 0 1
-0.672501 -19.821399 33.844815 39.227689 1.536881 0.530056 0.002303 -0.013805 -211004.000000 0 0 1
-1.520201 -18.720599 33.819115 38.684679 1.489769 0.506959 0.002169 -0.016941 -202101.000000 0 0 1
-2.398901 -18.696699 -33.841632 38.737287 1.443187 2.633387 0.016410 -0.023005 142380.000000 0 0 1
-3.368501 -17.521399 -33.825332 38.242638 1.380863 2.656202 0.026331 -0.027938 -272575.000000 0 0 1
-2.709001 -16.306899 -33.862432 37.681799 1.406174 2.687459 0.022441 -0.025270 -300155.000000 0 0 1
-3.672901 -15.294699 -33.860832 37.335961 1.335117 2.706718 0.029471 -0.021510 -129429.000000 0 0 1
-3.140301 -13.899599 -34.223932 37.072064 1.348599 2.747052 0.018020 -0.021678 -429946.000000 0 0 1
-2.286401 -13.299899 -33.285332 35.916964 1.400549 2.756411 0.016872 -0.014839 -73949.800000 0 0 1
-2.020701 -11.927699 -33.495532 35.613255 1.402977 2.795000 0.012368 -0.006653 85317.100000 0 0 1
-1.440501 -11.393799 33.940215 35.830600 1.445035 0.326281 0.007768 -0.009505 -591106.000000 0 0 1
-2.298001 -11.533699 32.831215 34.873997 1.374129 0.343968 0.006119 -0.004446 -18547.100000 0 0 1
-1.772301 -11.040599 31.595715 33.516042 1.411628 0.340151 0.007595 0.006174 -538818.000000 0 0 1
-0.706601 -11.954599 31.016415 33.248003 1.511758 0.368467 0.007386 0.003639 -640969.000000 0 0 1
-1.218801 -13.146199 30.434315 33.174622 1.478349 0.409305 0.015610 -0.005612 881571.000000 0 0 1
-0.090401 -13.956399 30.028515 33.113456 1.564319 0.435078 0.009323 -0.005267 615988.000000 0 0 1
-0.320501 -15.434099 30.424515 34.116935 1.550034 0.469551 0.005993 -0.010635 76232.700000 0 0 1
-1.108201 -16.155599 29.500715 33.652989 1.502308 0.502014 0.010913 -0.017560 -73140.500000 0 0 1
-1.558501 -17.323199 30.132215 34.791846 1.481072 0.523507 0.017643 -0.008568 -279931.000000 0 0 1
-2.253601 -18.336699 29.181715 34.538178 1.448508 0.564396 0.021324 -0.011073 -1321230.000000 0 0 1
-3.565401 -18.019699 28.925715 34.265414 1.375458 0.565788 0.030698 -0.011850 -927843.000000 0 0 1
-4.349901 -18.856299 28.087215 34.108258 1.344076 0.603292 0.032694 -0.008292 152940.000000 0 0 1
-3.777901 -19.123799 26.665915 33.031247 1.375758 0.631245 0.028172 -0.019259 -785323.000000 0 0 1
-4.543001 -19.864999 25.716415 32.811447 1.345969 0.670094 0.049196 -0.019232 -268596.000000 0 0 1
-4.325901 -21.252699 25.830315 33.728264 1.369994 0.698456 0.027795 -0.013111 -171278.000000 0 0 1
-29.188071 34.174801 -0.646285 44.947505 -0.863937 1.585175 0.015859 -0.020463 53018.400000 0 0 1
-28.308471 -33.612069 -0.372485 43.946325 0.870841 1.579272 0.028008 -0.003772 317247.000000 0 0 1
-28.374381 -33.269069 0.980915 43.736697 0.864635 1.548367 0.028113 -0.011229 -264360.000000 0 0 1
-27.825381 -31.902369 1.366915 42.354238 0.853552 1.538517 0.030041 -0.010781 446008.000000 0 0 1
-26.409881 -31.822469 1.538015 41.382567 0.878080 1.533622 0.034703 -0.020169 121232.000000 0 0 1
-26.080721 -30.558669 1.946815 40.222212 0.864295 1.522376 0.029176 -0.011844 -576098.000000 0 0 1
-24.594701 -30.391569 2.197715 39.158355 0.890434 1.514643 0.028941 -0.009590 -726721.000000 0 0 1
-24.146801 -31.074169 3.344615 39.495043 0.910194 1.486010 0.028856 -0.013937 -14069.700000 0 0 1
-22.736901 -30.913069 3.395515 38.524201 0.936633 1.482542 0.033718 -0.010719 18646.000000 0 0 1
-22.281601 -31.611569 4.728415 38.963046 0.956819 1.449140 0.035763 -0.016940 -269811.000000 0 0 1
-22.629901 -30.893669 5.864015 38.741682 0.938584 1.418850 0.033778 -0.013268 -130868.000000 0 0 1
-22.082101 -31.493669 7.038915 39.102643 0.959292 1.389798 0.023856 -0.012635 -109484.000000 0 0 1
-22.643901 -30.989669 8.406615 39.290928 0.939767 1.355171 0.030135 -0.006989 318027.000000 0 0 1
-22.070401 -29.704169 8.768715 38.030654 0.931786 1.338133 0.036963 -0.007659 441421.000000 0 0 1
-22.757801 -29.193969 9.892815 38.315443 0.908658 1.309644 0.041488 -0.007904 378335.000000 0 0 1
-21.966901 -27.943769 10.377215 37.028173 0.904582 1.286740 0.046125 -0.002989 782077.000000 0 0 1
-20.729301 -28.233369 11.019815 36.718706 0.937476 1.265984 0.034652 -0.005374 -14825.600000 0 0 1
-20.395601 -27.050269 11.718615 35.847225 0.924747 1.237770 0.046161 -0.003092 970153.000000 0 0 1
-19.050001 -27.217969 12.545115 35.511974 0.960134 1.209738 0.041372 -0.002096 816564.000000 0 0 1
-19.054401 -28.087769 13.639515 36.579083 0.974723 1.188688 0.049792 -0.003931 -82241.500000 0 0 1
-17.748901 -28.378469 14.123415 36.329490 1.011884 1.171512 0.059982 -0.009759 367900.000000 0 0 1
-17.828201 -29.472669 15.211415 37.654616 1.026777 1.154941 0.086973 -0.021803 131751.000000 0 0 1
-17.824601 -30.798969 14.679615 38.493948 1.046156 1.179542 0.093771 -0.027927 -122443.000000 0 0 1
-17.901101 -31.728469 15.748615 39.688336 1.057119 1.162761 0.107543 -0.031995 147527.000000 0 0 1
-17.816001 -33.178669 15.239615 40.626098 1.078011 1.186271 0.104738 -0.034436 112236.000000 0 0 1
-17.534401 -34.128669 16.255315 41.670812 1.096191 1.170068 0.114507 -0.032488 196351.000000 0 0 1
-17.560001 33.412601 15.733515 40.893753 -1.086918 1.175869 0.096336 -0.031444 -118364.000000 0 0 1
-17.572901 32.402901 16.906915 40.553651 -1.073865 1.140762 0.088230 -0.030164 -495348.000000 0 0 1
-18.784301 31.750801 17.165515 40.689289 -1.036564 1.135292 0.100159 -0.026753 -335703.000000 0 0 1
-18.715801 30.739201 18.126915 40.295964 -1.023889 1.104205 0.080417 -0.019529 -199841.000000 0 0 1
-19.177901 31.265801 19.509315 41.544621 -1.020595 1.081960 0.070758 -0.027941 393487.000000 0 0 1
-18.314201 32.167101 20.247315 42.191066 -1.053222 1.070260 0.076165 -0.020673 586063.000000 0 0 1
-19.055901 32.645101 21.372615 43.423710 -1.042427 1.056195 0.061546 -0.021683 489337.000000 0 0 1
-18.267201 33.655601 22.233615 44.280060 -1.073522 1.044755 0.047927 -0.001018 -26379.200000 0 0 1
-17.106501 33.255301 22.908715 43.856090 -1.095696 1.021179 0.048138 -0.018003 -263944.000000 0 0 1
-16.728901 33.922201 24.103915 44.850536 -1.112640 1.003413 0.054638 -0.014954 74089.400000 0 0 1
-17.518201 33.418501 25.344815 45.453748 -1.087971 0.979310 0.034329 -0.015197 918153.000000 0 0 1
-18.918701 33.739001 25.315015 46.228643 -1.059747 0.991298 0.005408 -0.014776 677078.000000 0 0 1
-19.719301 32.722601 25.866915 46.138018 -1.028452 0.975635 0.001640 -0.005643 -462406.000000 0 0 1
-21.203101 33.009901 25.635315 46.865706 -0.999835 0.992026 0.046284 -0.011686 -568555.000000 0 0 1
-21.625501 32.660301 24.393715 46.145540 -0.985938 1.013816 0.029327 -0.005750 -515052.000000 0 0 1
-23.007301 32.475801 24.371115 46.668670 -0.954425 1.021349 0.004077 0.001417 -432110.000000 0 0 1
-23.673301 32.010001 23.044915 46.001450 -0.934011 1.046088 -0.009025 0.003742 -15159.100000 0 0 1
-23.603401 32.941001 22.008915 46.115316 -0.949059 1.073264 -0.011549 0.001208 50344.400000 0 0 1
-23.744601 32.335301 20.735215 45.158907 -0.937403 1.093746 -0.006881 0.002667 -365774.000000 0 0 1
-23.319001 33.183101 19.505415 45.003946 -0.958236 1.122517 0.008018 -0.001589 -480371.000000 0 0 1
-21.964401 33.510401 19.406615 44.519642 -0.990599 1.119746 0.052343 -0.005973 -372213.000000 0 0 1
-21.686101 34.419201 18.375615 44.638902 -1.008568 1.146532 0.059922 -0.007377 -1020930.000000 0 0 1
-20.314801 -33.870569 18.539015 43.630284 1.030541 1.131932 0.082766 -0.016304 -1025940.000000 0 0 1
-20.206601 -32.776969 19.426915 43.128198 1.018342 1.103532 0.078467 -0.028307 -200908.000000 0 0 1
-18.905601 -32.277169 19.523315 42.194754 1.040938 1.089763 0.093071 -0.031559 -374505.000000 0 0 1
-18.844701 -31.132969 20.567115 41.801803 1.026491 1.056394 0.089494 -0.030945 -183237.000000 0 0 1
-19.556501 -29.991269 20.185415 41.102116 0.992965 1.057440 0.104352 -0.031278 164799.000000 0 0 1
-19.875601 -29.237769 21.344515 41.297397 0.973762 1.027630 0.115067 -0.029820 185912.000000 0 0 1
-20.752001 -27.981369 21.073415 40.714756 0.932669 1.026768 0.087298 -0.018853 -319227.000000 0 0 1
-19.962301 -26.952569 20.505715 39.311815 0.933309 1.022051 0.081347 -0.015688 217203.000000 0 0 1
-20.538001 -25.654869 20.329115 38.642654 0.895720 1.016812 0.070891 -0.000598 107508.000000 0 0 1
-21.819901 -25.573169 19.431715 38.828940 0.864428 1.046685 0.051424 -0.001241 -225919.000000 0 0 1
-22.998701 -26.088569 19.980715 40.109633 0.848262 1.049330 0.043663 0.000107 -682841.000000 0 0 1
-23.930301 -25.919769 18.938815 40.039636 0.825286 1.078102 0.042523 0.003017 -533083.000000 0 0 1
-25.423711 -26.051869 19.341715 41.220952 0.797601 1.082388 0.023953 -0.000761 196592.000000 0 0 1
-25.892911 -27.341569 19.707015 42.501420 0.812604 1.088653 0.007512 0.004466 34896.800000 0 0 1
-26.007901 -28.203269 18.576315 42.625283 0.825873 1.119864 0.013590 -0.001952 -403666.000000 0 0 1
-27.011341 -29.386269 18.840315 44.137544 0.827484 1.129785 0.002137 -0.004688 207752.000000 0 0 1
-28.316581 -28.866669 18.906315 44.638124 0.795018 1.133440 -0.020940 -0.005717 182078.000000 0 0 1
-29.280081 -29.531869 18.059315 45.338651 0.789679 1.161111 -0.016421 -0.000118 12830.200000 0 0 1
-30.701881 -29.010769 18.175915 45.984716 0.757085 1.164446 -0.010881 -0.001717 -631565.000000 0 0 1
-30.980331 -27.708869 17.732215 45.188425 0.729714 1.167550 0.006225 0.005378 795235.000000 0 0 1
-32.265371 -27.241669 18.212115 45.987431 0.701176 1.163614 -0.004860 0.008834 644343.000000 0 0 1
-32.702631 -25.904569 17.658915 45.302826 0.669921 1.170385 -0.009910 0.007715 -459602.000000 0 0 1
-33.164971 -26.011169 16.301015 45.190921 0.665092 1.201763 0.017442 0.002072 155824.000000 0 0 1
-33.603741 -24.792469 15.805815 44.650887 0.635640 1.208966 0.015926 -0.003239 -92923.900000 0 0 1
-32.525301 -23.750369 15.326315 43.091428 0.630716 1.207166 -0.001092 0.005737 136657.000000 0 0 1
-31.829951 -23.169969 16.407815 42.652194 0.629226 1.175926 -0.013796 0.010676 15724.300000 0 0 1
-31.225531 -21.977769 15.944515 41.379750 0.613298 1.175240 0.000855 0.009715 -205217.000000 0 0 1
-32.082661 -20.705069 16.202015 41.478938 0.573111 1.169504 0.004967 0.005494 42966.800000 0 0 1
-32.251641 -20.390469 17.548015 41.998481 0.563782 1.139746 0.004297 0.010508 -12412.900000 0 0 1
-33.065351 -19.285169 17.766315 42.200440 0.528008 1.136251 0.006309 0.010306 -320890.000000 0 0 1
-33.517781 -19.098469 19.212515 43.096565 0.517918 1.108727 -0.001248 -0.000288 13213.500000 0 0 1
-34.552246 -19.972769 19.662415 44.490221 0.524120 1.113026 0.001654 0.004525 472566.000000 0 0 1
-35.011695 -19.654569 20.950415 45.288418 0.511532 1.089871 0.010199 0.007909 -420680.000000 0 0 1
34.774624 -20.056769 21.408615 45.495904 -0.523159 1.080869 0.026956 0.006911 -562359.000000 0 0 1
34.604204 -21.455969 21.749915 46.161330 -0.555024 1.080178 0.021121 -0.002553 6484.090000 0 0 1
35.306414 -21.987969 22.843315 47.453458 -0.556998 1.068564 0.016161 0.012372 39285.100000 0 0 1
34.600994 -23.358369 23.284615 47.801836 -0.593803 1.062022 0.024214 0.013948 434712.000000 0 0 1
33.407754 -23.094769 23.996715 47.172966 -0.604863 1.037126 0.048367 -0.000691 -171181.000000 0 0 1
32.810764 -24.333469 24.295315 47.528163 -0.638123 1.034242 0.040599 -0.009066 -188531.000000 0 0 1
31.989984 -24.230969 25.605515 47.604006 -0.648255 1.002869 0.051523 -0.010890 -35235.900000 0 0 1
30.757964 -23.541269 25.421615 46.330360 -0.653267 0.989984 0.052472 -0.009582 -112646.000000 0 0 1
30.020454 -23.638369 26.613915 46.565015 -0.667016 0.962411 0.030896 -0.002505 -22859.800000 0 0 1
28.733094 -24.441369 26.297315 45.983910 -0.704862 0.962000 0.017561 0.005506 -274161.000000 0 0 1
27.740584 -23.742469 25.587015 44.586323 -0.707895 0.959566 0.023682 0.000861 -522395.000000 0 0 1
26.567544 -24.462969 25.313015 44.102381 -0.744180 0.959462 0.011771 0.015457 1084650.000000 0 0 1
25.417124 -23.422269 24.850615 42.569778 -0.744576 0.947442 0.011937 0.005706 521766.000000 0 0 1
25.490524 -22.826069 23.539615 41.532033 -0.730308 0.968202 0.021280 0.004946 -239008.000000 0 0 1
26.582234 -21.987469 23.234115 41.591923 -0.691077 0.978074 0.028031 0.012588 -62785.100000 0 0 1
26.519024 -21.310969 21.841015 40.428282 -0.676939 1.000073 0.034319 0.001120 26817.200000 0 0 1
25.701824 -20.165669 21.870215 39.313411 -0.665280 0.980865 0.033661 -0.007632 -107309.000000 0 0 1
25.500924 -19.599769 20.580415 38.183787 -0.655293 1.001567 0.006974 -0.010177 -451859.000000 0 0 1
24.595224 -18.405569 20.545915 36.957065 -0.642437 0.981303 0.015424 -0.003420 -585458.000000 0 0 1
25.074124 -17.244669 21.247915 37.115552 -0.602455 0.961269 0.030268 -0.016451 143942.000000 0 0 1
25.164024 -17.354469 22.652115 38.046341 -0.603749 0.933055 0.029114 -0.013041 -322600.000000 0 0 1
25.318924 -15.998869 23.321515 37.959252 -0.563541 0.909193 0.049524 -0.014195 -503331.000000 0 0 1
24.194824 -15.153369 23.242115 36.813177 -0.559538 0.887499 0.025018 -0.013400 -259019.000000 0 0 1
24.287324 -13.966169 24.007815 36.895842 -0.521864 0.862301 0.029327 -0.009300 -6468.750000 0 0 1
22.924524 -13.250669 23.941915 35.697750 -0.524096 0.835666 0.020171 -0.009015 259569.000000 0 0 1
21.830224 -13.899469 24.542415 35.666288 -0.566974 0.811912 0.038993 -0.009118 585957.000000 0 0 1
20.614924 -13.113669 24.470115 34.579328 -0.566559 0.784627 0.044462 -0.013160 287156.000000 0 0 1
19.425524 -13.934369 24.908015 34.524294 -0.622258 0.764883 0.050319 -0.005993 -756139.000000 0 0 1
19.001024 -14.921669 23.954215 34.022045 -0.665718 0.789671 0.052177 -0.012927 635282.000000 0 0 1
17.680224 -15.342069 24.319315 33.754977 -0.714711 0.766322 0.051305 -0.014295 638555.000000 0 0 1
17.170424 -16.530269 23.465615 33.447098 -0.766405 0.793192 0.041529 -0.011590 131900.000000 0 0 1
17.750824 -17.788669 23.826815 34.630126 -0.786463 0.812016 0.037608 -0.016763 113991.000000 0 0 1
17.419624 -18.816369 22.927215 34.397038 -0.823925 0.841230 0.037553 -0.008700 -136808.000000 0 0 1
17.856024 -20.195469 23.349315 35.663498 -0.846802 0.856995 0.023396 -0.004872 -542311.000000 0 0 1
17.164924 -20.676269 24.460515 36.338128 -0.877925 0.832355 0.022089 -0.007890 56780.600000 0 0 1
17.481524 -22.068369 24.708915 37.458605 -0.900859 0.850467 0.024269 -0.003504 -71430.200000 0 0 1
16.964824 -23.219769 23.774615 37.312133 -0.939814 0.879960 0.010280 0.002838 177127.000000 0 0 1
17.684524 -23.243269 22.547315 36.896794 -0.920390 0.913358 0.018136 0.006500 274104.000000 0 0 1
18.867624 -24.022169 22.618615 38.008599 -0.905006 0.933416 0.016053 0.007584 -71855.600000 0 0 1
19.736924 -23.996469 21.354715 37.701466 -0.882490 0.968646 0.011883 0.019369 -467097.000000 0 0 1
19.225024 -24.782869 20.328415 37.376953 -0.911025 0.995748 0.018699 0.009496 -20834.600000 0 0 1
20.143624 -25.049969 19.293115 37.489877 -0.893537 1.030230 0.013002 0.008142 35137.500000 0 0 1
19.495824 -25.909669 18.175015 37.171620 -0.925727 1.059912 0.011218 0.000879 279033.000000 0 0 1
19.131424 -27.219369 18.528715 38.081738 -0.958153 1.062659 0.031456 -0.009016 25328.400000 0 0 1
18.268824 -27.833069 17.593615 37.655876 -0.989955 1.084651 0.033858 -0.014470 390775.000000 0 0 1
17.345824 -28.988369 18.171215 38.358783 -1.031575 1.077289 0.041446 -0.009006 436549.000000 0 0 1
16.303524 -28.503969 18.987215 37.931458 -1.051239 1.046543 0.045935 -0.015999 -530514.000000 0 0 1
15.581024 -29.540169 19.537515 38.692434 -1.085429 1.041479 0.061512 -0.017239 -63881.900000 0 0 1
14.208624 -29.079569 20.092315 38.094717 -1.116301 1.015223 0.057088 -0.005317 368223.000000 0 0 1
13.261024 -28.660369 19.119015 36.916233 -1.137435 1.026399 0.071397 -0.008974 109381.000000 0 0 1
11.998824 -28.440069 19.706915 36.622013 -1.171556 1.002595 0.053385 -0.006568 196269.000000 0 0 1
10.904724 -27.886369 18.773515 35.341300 -1.198037 1.010773 0.067809 -0.011861 -177076.000000 0 0 1
10.757924 -28.751569 17.665015 35.418052 -1.212755 1.048632 0.059972 -0.017274 -173432.000000 0 0 1
10.007024 -28.131469 16.663615 34.193511 -1.229032 1.061764 0.072827 -0.011268 -124428.000000 0 0 1
9.852024 -29.224169 15.507415 34.519478 -1.245643 1.104886 0.062642 -0.013868 652351.000000 0 0 1
8.938924 -30.338069 15.750715 35.332532 -1.284261 1.108745 0.046675 -0.005876 531161.000000 0 0 1
8.957924 -31.200769 14.624215 35.603372 -1.291211 1.147516 0.042966 0.000712 -49848.500000 0 0 1
7.896724 -32.316369 14.499815 36.289814 -1.331136 1.159764 0.027102 -0.002442 -308908.000000 0 0 1
7.792024 -33.341869 15.434715 37.558306 -1.341216 1.147297 0.031761 -0.006616 263432.000000 0 0 1
6.809824 -34.338669 15.095315 38.123306 -1.375023 1.163683 0.024326 -0.004341 262206.000000 0 0 1
6.846324 33.275801 15.961115 37.535427 1.367883 1.131583 0.031809 -0.007850 289564.000000 0 0 1
8.102624 32.609801 15.876815 37.163488 1.327256 1.129386 0.042928 -0.014219 168607.000000 0 0 1
8.281224 31.753201 17.027515 36.969997 1.315679 1.092152 0.049436 -0.020138 -117639.000000 0 0 1
9.597724 30.961401 17.027315 36.614944 1.270200 1.087120 0.040754 -0.022038 -316610.000000 0 0 1
9.779624 29.965301 16.052515 35.372921 1.255330 1.099762 0.059172 -0.021550 -352310.000000 0 0 1
11.013324 29.324001 16.344415 35.331717 1.211523 1.089872 0.058244 -0.026251 -140267.000000 0 0 1
11.598324 28.485601 15.168815 34.293491 1.184129 1.112609 0.052604 -0.024139 -459373.000000 0 0 1
10.953924 27.387101 14.625115 32.923179 1.190319 1.110494 0.056364 -0.023670 -651727.000000 0 0 1
11.702724 26.798401 13.625315 32.260769 1.159062 1.134761 0.050762 -0.017599 -319050.000000 0 0 1
-9.428801 -9.409999 19.079962 23.270052 0.784400 0.609496 0.026979 -0.016983 -103675.000000 0 1 0
-9.931201 -9.590599 17.784162 22.514101 0.767953 0.660131 0.040808 -0.016805 32109.000000 0 1 0
-9.576301 -10.855099 17.249062 22.518190 0.847906 0.698192 0.029525 -0.023259 91966.300000 0 1 0
-9.909801 -11.053199 15.715662 21.618497 0.839888 0.756920 0.038624 -0.020430 1392010.000000 0 1 0
-11.321601 -11.274799 15.440762 22.219741 0.783327 0.802499 0.041738 -0.011350 1375360.000000 0 1 0
-11.605101 -12.052299 14.249362 21.976820 0.804299 0.865340 0.044123 -0.010136 -4538.120000 0 1 0
-11.373701 -13.554399 14.369362 22.793889 0.872656 0.888723 0.028368 -0.007220 -378946.000000 0 1 0
-10.062301 -13.985499 14.064762 22.240990 0.947115 0.886174 0.019169 -0.000305 -71240.700000 0 1 0
-9.840901 -15.383999 14.373962 23.240515 1.001707 0.903980 0.012902 -0.001198 245807.000000 0 1 0
-9.436801 -15.586799 15.887362 24.174569 1.026390 0.853708 0.015791 -0.005638 -25083.100000 0 1 0
-10.489601 -15.173099 16.745562 24.913220 0.965914 0.833680 0.051048 -0.008716 -341417.000000 0 1 0
-10.087401 -14.901599 18.027762 25.471818 0.975719 0.784484 0.037370 -0.005115 -1288050.000000 0 0 1
-11.208601 -14.620499 19.046362 26.498220 0.916733 0.768752 0.041667 -0.011273 -721148.000000 0 0 1
-11.744401 -13.324899 19.014262 26.019724 0.848360 0.751357 0.038295 -0.011506 -391083.000000 0 0 1
-12.683801 -13.156499 17.998062 25.649610 0.803689 0.793030 0.039717 -0.018120 -274322.000000 0 0 1
-14.152601 -13.418099 18.494362 26.877182 0.758764 0.811920 0.025970 -0.014653 193562.000000 0 0 1
-14.398901 -14.774199 18.787762 27.903142 0.798262 0.832105 0.028152 -0.010408 -507945.000000 0 0 1
-15.310701 -14.909799 19.823462 29.149431 0.772133 0.822947 0.030915 -0.007989 -160975.000000 0 0 1
-15.892501 -16.350199 20.069062 30.375448 0.799593 0.849045 0.040506 -0.005240 -144316.000000 0 0 1
-16.979801 -16.739999 19.286362 30.667654 0.778287 0.890681 0.034904 0.002058 -471971.000000 0 0 1
-17.356101 -18.081699 19.593362 31.813235 0.805871 0.907285 0.021153 0.000978 1008130.000000 0 0 1
-18.772801 -18.463999 18.981662 32.459834 0.777105 0.946195 0.035461 0.000813 870164.000000 0 0 1
-18.844501 -18.636999 17.584262 31.806591 0.779862 0.985016 0.039634 -0.001697 73735.100000 0 0 1
-18.843401 -17.336399 16.901362 30.680296 0.743769 0.987370 0.039737 -0.001767 -680799.000000 0 0 1
-18.576001 -17.622999 15.347462 29.852680 0.759078 1.030831 0.046266 -0.015948 -65420.400000 0 0 1
-19.672001 -18.287599 14.735562 30.635938 0.748944 1.069013 0.046343 -0.017043 8350.280000 0 0 1
-19.426201 -18.453999 13.344962 29.933516 0.759739 1.108706 0.060380 -0.018944 -18205.500000 0 0 1
-19.205601 -19.879699 12.812562 30.466692 0.802643 1.136752 0.046410 -0.011306 772441.000000 0 0 1
-17.952001 -20.555699 13.036062 30.244835 0.852910 1.125176 0.058515 -0.001571 464148.000000 0 0 1
-18.130001 -21.868199 12.499462 31.034684 0.878587 1.156268 0.045592 -0.006525 176155.000000 0 0 1
-16.962501 -22.586699 11.771962 30.601708 0.926659 1.175932 0.047099 -0.005259 97927.600000 0 0 1
-17.426901 -23.861399 11.364762 31.657875 0.939998 1.203614 0.047643 -0.004440 539763.000000 0 0 1
-16.427801 -24.478199 10.542962 31.308289 0.979717 1.227337 0.042047 -0.003193 267171.000000 0 0 1
-16.731401 -25.881549 9.939262 32.381836 0.996913 1.258821 0.041914 -0.010706 -282512.000000 0 0 1
-17.859901 -25.835579 9.105862 32.701222 0.965939 1.288610 0.030471 -0.010233 -456741.000000 0 0 1
-17.792601 -26.841059 8.128862 33.212912 0.985415 1.323534 0.035541 -0.010126 -163158.000000 0 0 1
-18.923801 -26.701179 7.110262 33.490581 0.954238 1.356862 0.023569 -0.014468 -129229.000000 0 0 1
-18.965001 -25.517579 6.349062 32.421115 0.931653 1.373691 0.029762 -0.016337 615672.000000 0 0 1
-20.134401 -25.428989 5.507262 32.899203 0.901082 1.402606 0.034137 -0.013908 659191.000000 0 0 1
-20.084701 -24.116899 4.714862 31.737202 0.876369 1.421685 0.035242 -0.014752 -438813.000000 0 0 1
-21.008501 -24.088999 3.694362 32.175850 0.853600 1.455725 0.033889 -0.011607 -520662.000000 0 0 1
-20.921001 -22.811799 3.022462 31.099867 0.828606 1.473457 0.035651 -0.009426 7956.740000 0 0 1
-21.682501 -22.792499 1.724262 31.505586 0.810351 1.516040 0.017634 -0.003744 58806.500000 0 0 1
-21.076601 -23.711199 0.794062 31.734439 0.844154 1.545772 0.003553 -0.007807 208209.000000 0 0 1
-21.654001 -23.468599 -0.467938 31.935715 0.825591 1.585449 -0.001560 -0.000176 -387830.000000 0 0 1
-21.110601 -24.169099 -1.710138 32.136076 0.852843 1.624037 0.005137 0.000432 -472522.000000 0 0 1
-19.720601 -23.994499 -1.891438 31.116164 0.882856 1.631620 0.015126 -0.004031 -54783.700000 0 0 1
-19.238901 -24.352199 -3.149538 31.194302 0.902166 1.671934 0.019797 0.003615 -204430.000000 0 0 1
-18.989501 -25.864339 -3.419238 32.268504 0.937487 1.676958 0.015175 0.005995 -409740.000000 0 0 1
-20.068401 -26.719659 -3.699538 33.620938 0.926609 1.681056 0.020189 -0.002762 -486115.000000 0 0 1
-19.600901 -27.988829 -4.030638 34.406626 0.959861 1.688213 0.025515 -0.006604 -540189.000000 0 0 1
-20.677701 -28.746679 -4.722938 35.724572 0.947230 1.703389 0.025177 -0.011562 -606783.000000 0 0 1
-20.926301 -28.189109 -5.986938 35.614314 0.932207 1.739703 0.017583 -0.002700 162753.000000 0 0 1
-22.077301 -28.765559 -6.609838 36.858575 0.916195 1.751101 0.019284 -0.014993 241849.000000 0 0 1
-22.537301 -28.129069 -7.933338 36.906806 0.895318 1.787443 0.008197 -0.000746 -450032.000000 0 0 1
-21.635401 -28.262219 -9.006338 36.714544 0.917434 1.818633 0.035786 -0.001896 -224816.000000 0 0 1
-22.160901 -28.344109 -10.326538 37.431690 0.907220 1.850298 0.033216 0.007509 108601.000000 0 0 1
-22.979101 -27.111629 -10.870538 37.165147 0.867713 1.867629 0.014595 0.019485 -127835.000000 0 0 1
-22.240301 -25.972349 -11.121438 35.956645 0.862652 1.885255 0.017039 0.023416 -147278.000000 0 0 1
-21.868701 -25.285769 -9.901438 34.866154 0.857737 1.858743 0.000466 0.019144 -16624.300000 0 0 1
-21.644501 -23.804399 -10.184838 33.747071 0.832886 1.877376 0.011156 0.013636 -168241.000000 0 0 1
-22.793701 -23.086599 -10.543838 34.113288 0.791782 1.885025 0.001995 0.014688 -145778.000000 0 0 1
-22.485601 -21.678899 -10.695338 33.014651 0.767134 1.900706 0.017772 0.014232 -731714.000000 0 0 1
-23.697801 -20.841399 -10.944938 33.402715 0.721354 1.904629 0.027421 0.008575 -1372020.000000 0 0 1
-24.329801 -21.128899 -12.197638 34.455072 0.715101 1.932658 0.020979 0.005689 241007.000000 0 0 1
-25.595881 -20.526199 -12.336238 35.052200 0.675919 1.930438 0.023553 -0.005502 -247199.000000 0 0 1
-25.668241 -18.945399 -12.285238 34.186457 0.635833 1.938378 0.027218 -0.015062 -998972.000000 0 0 1
-25.030301 -18.300399 -13.399438 33.778181 0.631314 1.978704 0.037846 -0.012518 537422.000000 0 0 1
-24.763201 -16.924699 -13.210438 32.774643 0.599540 1.985664 0.044277 -0.015403 -461021.000000 0 0 1
-23.671001 -16.470399 -12.266938 31.337966 0.607905 1.972992 0.032719 -0.008865 -669337.000000 0 0 1
-24.074201 -16.541499 -10.913938 31.181764 0.602019 1.928378 0.043157 -0.011943 961351.000000 0 0 1
-22.898101 -16.356699 -10.132138 29.908608 0.620276 1.916406 0.045005 -0.009879 603364.000000 0 0 1
-23.276601 -16.778699 -8.680738 29.977994 0.624576 1.864574 0.025350 -0.010347 267539.000000 0 0 1
-23.545601 -18.170499 -8.475138 30.925561 0.657255 1.848398 0.015406 -0.000025 102692.000000 0 0 1
-24.256901 -18.402399 -7.297138 31.309643 0.649012 1.806023 0.011680 0.011260 -116271.000000 0 0 1
-24.544201 -19.914499 -7.023638 32.378026 0.681637 1.789461 0.002411 0.014734 186301.000000 0 0 1
-25.092091 -20.647399 -8.167138 33.505675 0.688528 1.817031 -0.005274 -0.003060 380141.000000 0 0 1
-25.244901 -21.971099 -7.624738 34.324494 0.716172 1.794802 -0.004130 0.006814 82129.900000 0 0 1
-25.757241 -23.052699 -8.624538 35.626466 0.730045 1.815308 -0.016409 0.016942 158582.000000 0 0 1
-26.117671 -24.288999 -8.025838 36.558204 0.749136 1.792135 -0.013428 0.017142 -263452.000000 0 0 1
-26.022071 -25.239259 -9.068438 37.368502 0.770128 1.815920 -0.012146 0.023314 -36358.000000 0 0 1
-26.498121 -26.622849 -8.752438 38.568532 0.787746 1.799723 -0.021395 0.012931 -263282.000000 0 0 1
-25.765451 -27.252859 -7.715538 38.289768 0.813445 1.773689 -0.008589 -0.002235 85823.400000 0 0 1
-26.560561 -28.238319 -7.103238 39.412207 0.816005 1.752016 0.007046 -0.012020 -135697.000000 0 0 1
-25.977371 -28.882769 -5.845938 39.283752 0.838309 1.720164 0.007582 -0.011168 -174232.000000 0 0 1
-25.911981 -28.055989 -4.661138 38.474608 0.825105 1.692243 0.006577 -0.010800 339933.000000 0 0 1
-25.041201 -28.608859 -3.662438 38.196100 0.851799 1.666829 0.006254 -0.006153 73436.600000 0 0 1
-25.563081 -29.794899 -2.798438 39.357825 0.861694 1.641959 0.014997 -0.008851 -442709.000000 0 0 1
-25.573601 -31.103519 -3.360338 40.407052 0.882659 1.654055 0.026483 -0.016845 -6804.510000 0 0 1
-25.847331 -32.150929 -2.416038 41.323166 0.893659 1.629297 0.033144 -0.021277 421881.000000 0 0 1
-24.766401 -32.261669 -1.282738 40.691957 0.916080 1.602325 0.028023 -0.022665 116830.000000 0 0 1
-23.543301 -32.847589 -1.683838 40.448565 0.948921 1.612437 0.021555 -0.021681 319502.000000 0 0 1
-22.595001 -32.939459 -0.592438 39.948630 0.969559 1.585627 0.031949 -0.017791 884711.000000 0 0 1
-21.469201 -31.890309 -0.495538 38.446898 0.978270 1.583686 0.028672 -0.018384 -415389.000000 0 0 1
-22.000201 -30.622279 -0.219438 37.706511 0.947803 1.576616 0.018752 -0.010590 -81171.900000 0 0 1
-21.966201 -29.630089 -1.244038 36.905336 0.932856 1.604512 0.015580 -0.004585 -34056.300000 0 0 1
-22.530601 -28.230969 -0.768038 36.127628 0.897227 1.592057 0.014628 -0.006622 1317630.000000 0 0 1
-23.960001 -28.229129 -0.500438 37.029931 0.867018 1.584311 0.011296 -0.005856 1190470.000000 0 0 1
-24.529701 -26.954479 -0.253138 36.446046 0.832461 1.577742 0.014317 -0.002387 277603.000000 0 0 1
-23.986501 -26.145359 0.971962 35.494743 0.828435 1.543410 0.019793 0.002479 -163571.000000 0 0 1
-24.271201 -26.798869 2.183762 36.222084 0.834852 1.510472 0.013231 -0.002985 -94449.000000 0 0 1
-23.588301 -26.290629 3.297962 35.475085 0.839523 1.477696 0.039594 -0.006343 151101.000000 0 0 1
-24.329401 -25.137379 4.075162 35.219519 0.801730 1.454829 0.046074 -0.009215 320909.000000 0 0 1
-24.708201 -24.082799 3.208362 34.652128 0.772581 1.478076 0.036903 -0.012034 210898.000000 0 0 1
-25.585941 -23.098599 3.739162 34.672280 0.734352 1.462743 0.041848 -0.005373 141465.000000 0 0 1
-25.713351 -21.904099 2.798862 33.893946 0.705571 1.488125 0.046497 -0.004882 135853.000000 0 0 1
-24.578301 -21.069599 2.833362 32.496905 0.708685 1.483497 0.029478 -0.001343 108006.000000 0 0 1
-24.726601 -20.054899 1.819462 31.889092 0.681452 1.513709 0.023170 0.004875 320781.000000 0 0 1
-23.600301 -18.986599 1.856862 30.346550 0.677483 1.509570 0.037628 0.005354 55187.600000 0 0 1
-22.331701 -19.485199 1.558862 29.678408 0.717432 1.518247 0.028961 -0.003678 -139697.000000 0 0 1
-21.234601 -18.580499 1.679762 28.265966 0.718836 1.511334 0.027043 0.002178 -41490.300000 0 0 1
-19.952201 -19.352799 1.404162 27.831508 0.770149 1.520323 0.018936 -0.005568 -877483.000000 0 0 1
-19.694801 -19.910499 0.173362 28.006128 0.790844 1.564606 0.007359 -0.000960 38929.100000 0 0 1
-18.435901 -20.544399 0.077962 27.603639 0.839437 1.567972 0.033433 -0.003719 42833.100000 0 0 1
-18.099001 -20.980499 -1.320938 27.739864 0.858999 1.618433 0.037317 -0.004452 -208070.000000 0 0 1
-17.712801 -19.943499 -2.158438 26.760892 0.844567 1.651540 0.037383 -0.007459 28658.200000 0 0 1
-17.505301 -20.358399 -3.501738 27.076967 0.860608 1.700485 0.035336 -0.000610 -77410.900000 0 0 1
-16.913401 -19.326899 -4.496238 26.073134 0.851897 1.744110 0.046549 -0.002339 301474.000000 0 0 1
-15.539001 -19.132199 -4.197038 25.002334 0.888666 1.739461 0.066298 -0.014177 302987.000000 0 0 1
-14.903801 -18.499699 -5.325338 24.345870 0.892636 1.791316 0.063887 -0.002734 -349551.000000 0 1 0
-13.400301 -18.260099 -5.235938 23.246813 0.937707 1.797978 0.067931 -0.013521 -843457.000000 0 1 0
-12.639601 -19.386799 -5.243438 23.729752 0.993038 1.793600 0.044055 -0.011106 -584399.000000 0 1 0
-11.276001 -19.102199 -5.463338 22.844918 1.037541 1.812286 0.036902 -0.019026 224904.000000 0 1 0
-10.412801 -20.387299 -5.541538 23.553705 1.098586 1.808295 0.035500 -0.017463 168212.000000 0 1 0
-10.832901 -21.277699 -6.566038 24.762978 1.099879 1.839161 0.031988 -0.009414 -199976.000000 0 1 0
-9.815401 -22.181999 -6.894038 25.217275 1.154202 1.847707 0.040588 -0.007431 -198604.000000 0 0 1
-10.352301 -23.268799 -7.821538 26.641764 1.152191 1.868768 0.027214 -0.004742 -271688.000000 0 0 1
-10.737301 -22.819299 -9.085438 26.805881 1.130997 1.916580 0.024585 -0.003143 -47156.500000 0 0 1
-10.886601 -23.939099 -9.989538 28.131645 1.143989 1.933817 0.030795 -0.002293 -104001.000000 0 0 1
-11.499201 -23.553599 -11.349138 28.562328 1.116622 1.979420 0.040754 0.000778 -164728.000000 0 0 1
-10.739201 -22.709099 -12.163238 27.910177 1.129060 2.021723 0.029939 0.001414 -335701.000000 0 0 1
-11.558701 -22.367199 -13.236038 28.444470 1.093823 2.054803 0.032862 -0.006206 -550944.000000 0 0 1
-11.111801 -21.270099 -14.220438 27.894625 1.089379 2.105739 0.035125 -0.000813 -264832.000000 0 0 1
-10.960301 -20.082899 -13.432338 26.530713 1.071220 2.101678 0.035075 -0.001111 15956.800000 0 0 1
-10.613701 -18.967899 -14.277538 26.005383 1.060642 2.151990 0.027424 0.012369 147820.000000 0 0 1
-10.066301 -17.802499 -13.404838 24.452997 1.056174 2.150992 0.037616 0.020109 -11685.800000 0 1 0
-11.133601 -17.245899 -12.589038 24.080324 0.997535 2.120921 0.035326 0.006273 644983.000000 0 1 0
-10.893901 -16.018099 -11.894838 22.731998 0.973552 2.121473 0.041534 0.003492 -83843.500000 0 1 0
-10.822001 -14.745299 -12.715438 22.276039 0.937660 2.178291 0.054747 0.009651 -23336.400000 0 1 0
-12.031501 -14.357899 -13.313638 22.981715 0.873327 2.188684 0.056629 0.021793 -205539.000000 0 1 0
-11.790501 -14.069499 -14.713338 23.525498 0.873299 2.246467 0.060154 0.012610 -443215.000000 0 1 0
-12.882501 -13.223899 -15.352838 24.011247 0.798475 2.264517 0.050193 0.016472 -702114.000000 0 1 0
-12.922301 -11.868699 -14.800038 22.954150 0.742924 2.271512 0.037214 0.010899 396543.000000 0 1 0
-14.029701 -11.138499 -15.343238 23.586302 0.671024 2.279058 0.032704 -0.002639 209363.000000 0 1 0
-14.306901 -9.724099 -14.694638 22.697531 0.596957 2.274979 0.031258 -0.010052 398893.000000 0 1 0
-13.356101 -8.648299 -14.891338 21.792899 0.574628 2.323085 0.033183 -0.006514 632226.000000 0 1 0
-13.192301 -8.148099 -16.166838 22.400781 0.553290 2.377064 0.022194 0.000687 -248246.000000 0 1 0
-12.181001 -6.989999 -16.206738 21.445168 0.520965 2.427563 0.023031 0.010237 485414.000000 0 1 0
-10.822801 -7.406899 -16.175238 20.823869 0.600165 2.460308 0.016913 0.001641 650756.000000 0 1 0
-9.888801 -6.511199 -15.583138 19.570853 0.582287 2.491854 0.011053 0.000305 562948.000000 0 1 0
11.220999 22.061101 15.988762 29.465972 1.100266 0.997246 0.073629 -0.012572 -487238.000000 0 0 1
12.205999 21.999701 16.971462 30.348044 1.064256 0.977343 0.075772 -0.014740 -331479.000000 0 0 1
12.543299 20.662801 17.365662 29.763264 1.025211 0.947814 0.060002 -0.007987 -299097.000000 0 0 1
13.745199 20.565701 18.305962 30.773150 0.981625 0.933695 0.055120 -0.002260 -439688.000000 0 0 1
14.908399 21.081601 17.718662 31.315256 0.955271 0.969374 0.034942 0.004088 499287.000000 0 0 1
16.087199 20.827301 18.546662 32.195545 0.913107 0.956892 0.026336 0.001117 26895.000000 0 0 1
17.313299 21.369601 17.933662 32.833312 0.889877 0.992971 0.011591 0.008615 -2221470.000000 0 0 1
17.500699 22.754001 18.188462 33.982925 0.915166 1.006024 0.020014 0.004417 -279427.000000 0 0 1
18.744199 23.285201 17.778662 34.779684 0.893024 1.034240 0.018958 0.004698 1309100.000000 0 0 1
19.963799 22.812601 18.722062 35.629814 0.851897 1.017540 -0.000063 0.004609 373483.000000 0 0 1
20.285799 21.438401 18.576962 34.874377 0.813015 1.009030 0.008773 0.017007 -1168360.000000 0 0 1
21.339799 20.999001 19.310862 35.626597 0.777349 0.997940 0.011215 0.005429 -1150040.000000 0 0 1
21.685899 19.573601 18.863262 34.773937 0.734247 0.997441 0.010222 0.004704 -44879.400000 0 0 1
21.973799 19.440501 17.444162 34.133264 0.724305 1.034378 -0.004253 0.004313 -17312.300000 0 0 1
21.559799 18.243701 16.864662 32.894899 0.702278 1.032489 -0.002782 0.007591 4535.230000 0 0 1
22.261499 16.888201 17.285962 32.857117 0.649000 1.016794 -0.005960 0.008499 456477.000000 0 0 1
23.542299 16.726001 16.700962 33.360472 0.617716 1.046480 -0.008169 0.010140 238266.000000 0 0 1
24.279999 15.603301 17.162162 33.578582 0.571184 1.034327 -0.010984 0.015667 129695.000000 0 0 1
25.741099 15.543301 16.660262 34.376776 0.543232 1.064848 0.050855 0.000564 -479545.000000 0 0 1
26.558599 16.553601 17.236162 35.727667 0.557366 1.067368 0.031908 0.003101 1102170.000000 0 0 1
27.855699 16.192801 17.743462 36.782839 0.526564 1.067422 0.034711 -0.003344 1068780.000000 0 0 1
28.891899 15.542301 16.820162 36.867639 0.493542 1.097041 0.041466 -0.008457 -836250.000000 0 0 1
29.155399 16.196901 15.589362 36.815827 0.507084 1.133555 0.064204 -0.015256 -158860.000000 0 0 1
29.611799 15.256101 14.639062 36.385566 0.475736 1.156734 0.085112 -0.013535 -15596.700000 0 0 1
28.664299 14.920701 13.473062 35.011323 0.479938 1.175783 0.062907 -0.006813 -267461.000000 0 0 1
29.071499 15.631601 12.339962 35.238809 0.493347 1.213032 0.057247 -0.012368 133524.000000 0 0 1
28.170699 15.545401 11.261862 34.089255 0.504246 1.234107 0.039864 -0.011251 1266870.000000 0 0 1
26.813999 16.393801 11.289762 33.394700 0.548752 1.225930 0.027627 -0.007640 666028.000000 0 0 1
26.954499 17.813101 11.173962 34.186386 0.583971 1.237823 -0.008385 0.013838 216578.000000 0 0 1
27.638599 18.547001 12.181862 35.444057 0.591034 1.219950 0.004598 0.000751 -4014.780000 0 0 1
27.011199 18.469001 13.615362 35.441317 0.599739 1.176492 0.002313 0.002538 -158924.000000 0 0 1
25.723299 19.002601 13.745262 34.809757 0.636250 1.164872 -0.006366 0.015622 -145112.000000 0 0 1
25.103499 18.965301 15.041862 34.872997 0.647002 1.124827 -0.005876 0.016127 277498.000000 0 0 1
25.783699 19.721701 16.255662 36.304148 0.652963 1.106534 0.010768 0.006107 -43025.000000 0 0 1
25.805899 21.131501 16.169962 37.066864 0.686138 1.119383 0.000834 0.008602 111323.000000 0 0 1
24.557699 21.777801 16.369162 36.678368 0.725475 1.108182 -0.003710 0.009156 -61859.300000 0 0 1
24.622599 23.309401 16.304162 37.622151 0.758008 1.122572 0.001164 0.014182 -74269.500000 0 0 1
24.655099 23.717201 14.984162 37.348422 0.766011 1.157971 0.025121 0.006241 39458.700000 0 0 1
24.566599 25.113601 14.794862 38.119531 0.796408 1.172208 0.019220 0.007896 -174553.000000 0 0 1
24.388199 25.519701 13.363962 37.744335 0.808066 1.208882 0.013288 0.006677 597273.000000 0 0 1
23.041399 25.325001 12.913562 36.592647 0.832578 1.210127 0.022146 0.003284 582002.000000 0 0 1
22.808799 25.772201 11.604162 36.319474 0.846322 1.245592 0.018852 -0.006227 -285363.000000 0 0 1
22.394899 24.611501 10.728262 34.962166 0.832519 1.258911 0.024239 -0.009708 -327454.000000 0 0 1
21.031699 24.326701 11.012762 33.991200 0.857914 1.240854 0.028031 -0.012460 299197.000000 0 0 1
20.649199 22.987201 10.587362 32.663329 0.838926 1.240698 0.025243 -0.004897 -407861.000000 0 0 1
20.528799 22.723601 9.078062 31.940645 0.836099 1.282607 0.036066 -0.007043 -500651.000000 0 0 1
19.375399 23.299301 8.485462 31.468501 0.877089 1.297767 0.043764 -0.016170 209901.000000 0 0 1
19.647699 23.670301 7.174362 31.587762 0.877995 1.341672 0.030421 -0.025235 162141.000000 0 0 1
18.395899 24.077801 6.337862 30.956713 0.918383 1.364605 0.027587 -0.022175 -227790.000000 0 0 1
17.641199 22.981901 5.796762 29.546271 0.916118 1.373323 0.031500 -0.011596 400774.000000 0 0 1
16.895099 23.167901 4.616562 29.043220 0.940711 1.411164 0.043583 -0.020137 -404220.000000 0 0 1
15.624699 24.016801 4.801362 29.051523 0.994018 1.404764 0.028211 -0.013351 -766647.000000 0 0 1
15.824799 25.420401 4.828862 30.330495 1.013980 1.410908 0.035289 -0.026130 670043.000000 0 0 1
14.650299 26.043501 5.385862 30.362851 1.058383 1.392469 0.035439 -0.028800 368660.000000 0 0 1
14.484799 27.498701 4.946762 31.471549 1.085982 1.412960 0.037071 -0.029270 -474798.000000 0 0 1
13.997699 27.574401 3.624262 31.135485 1.101060 1.454129 0.036000 -0.019728 255039.000000 0 0 1
13.597499 28.829401 3.236862 32.039095 1.130082 1.469595 0.046248 -0.023225 -179490.000000 0 0 1
12.814699 28.774001 1.902662 31.555978 1.151810 1.510465 0.052394 -0.028114 -496966.000000 0 0 1
13.635799 28.584901 0.792562 31.680589 1.125695 1.545776 0.079506 -0.030590 18214.200000 0 0 1
13.985299 27.218701 0.532262 30.606038 1.096160 1.553405 0.043912 -0.021073 -251971.000000 0 0 1
15.049199 27.064401 -0.559538 30.972137 1.063319 1.588863 0.048189 -0.025392 -194330.000000 0 0 1
14.682499 27.233501 -1.933138 30.999619 1.076334 1.633197 0.048506 -0.015701 135966.000000 0 0 1
15.844299 27.382501 -2.748838 31.755303 1.046239 1.657468 0.044091 -0.010821 599903.000000 0 0 1
15.381499 27.956901 -4.103538 32.171693 1.067810 1.698696 0.064055 -0.015066 598726.000000 0 0 1
14.553699 27.092601 -4.947238 31.149548 1.077846 1.730294 0.061027 -0.022681 45455.900000 0 0 1
14.540399 27.487101 -6.283638 31.724565 1.084227 1.770183 0.064376 -0.020944 -14999.300000 0 0 1
13.335999 27.039201 -7.118238 30.978001 1.112596 1.802652 0.062030 -0.024616 -849.023000 0 0 1
13.220199 25.644101 -7.373438 29.778535 1.094805 1.821008 0.052435 -0.018637 -120138.000000 0 0 1
11.888099 25.365101 -7.743138 29.063231 1.132518 1.840477 0.041449 -0.021214 66292.300000 0 0 1
11.669999 23.867501 -7.991438 27.743640 1.116028 1.862982 0.037153 -0.009447 -29220.900000 0 0 1
12.374899 23.399801 -9.122438 27.998351 1.084339 1.902676 0.032399 -0.009748 155482.000000 0 0 1
12.050899 22.054401 -9.501838 26.868303 1.070708 1.932261 0.037495 -0.006763 -164366.000000 0 0 1
12.289699 21.772301 -11.031638 27.327035 1.056916 1.986342 0.033439 -0.001608 210891.000000 0 0 1
11.742099 20.550701 -11.521238 26.323889 1.051693 2.023805 0.044063 -0.004007 -140818.000000 0 0 1
11.978099 20.376801 -12.923238 26.938800 1.039373 2.071139 0.040064 -0.005079 -28913.200000 0 0 1
13.326299 19.809601 -13.392038 27.374390 0.978615 2.081989 0.025597 0.003485 116570.000000 0 0 1
14.424699 20.699801 -13.312938 28.526970 0.962186 2.056328 0.023194 0.004507 -582639.000000 0 0 1
15.564999 20.102901 -13.850938 28.952449 0.911945 2.069632 0.023757 0.008183 -69721.600000 0 0 1
16.830899 20.995401 -13.771938 30.228336 0.895052 2.043839 0.029946 0.009481 -17381.800000 0 0 1
16.897799 22.201801 -14.574138 31.477946 0.920229 2.052168 0.032106 0.003793 -615001.000000 0 0 1
15.991099 23.209501 -14.246038 31.580782 0.967498 2.038792 0.029575 0.004077 -284964.000000 0 0 1
16.413199 24.647401 -14.713438 33.066187 0.983311 2.031936 0.034886 -0.000543 167307.000000 0 0 1
16.540899 24.865101 -16.148338 33.950602 0.983792 2.066490 0.022007 -0.003820 -839791.000000 0 0 1
15.300399 24.932601 -16.772438 33.720194 1.020386 2.091396 0.010315 -0.001968 -643842.000000 0 0 1
15.186099 24.898001 -18.327638 34.444598 1.023106 2.131864 0.013201 0.006529 74710.700000 0 0 1
15.649799 23.646601 -18.815038 34.030627 0.986156 2.156619 0.018431 0.006953 -241624.000000 0 0 1
15.587899 23.719001 -20.224738 34.851307 0.989383 2.189912 0.020601 0.000214 -310135.000000 0 0 1
16.014299 22.461801 -20.936738 34.631449 0.951427 2.220008 0.023020 -0.003898 -347660.000000 0 0 1
15.123399 21.404501 -20.771738 33.441515 0.955686 2.240988 0.024370 -0.004233 -260375.000000 0 0 1
15.496999 20.384001 -21.637138 33.523577 0.920765 2.272383 0.018974 -0.005365 56.928800 0 0 1
14.386799 19.306901 -21.745938 32.444140 0.930398 2.305352 0.014921 -0.004162 -535627.000000 0 0 1
14.228599 18.410301 -20.621138 31.090570 0.912824 2.295963 0.010987 -0.005579 -81424.500000 0 0 1
13.441699 17.263701 -20.867738 30.235362 0.909235 2.332529 0.006176 -0.004626 577974.000000 0 0 1
11.912899 17.497601 -21.103338 29.890368 0.973052 2.354665 0.006445 -0.000438 -381373.000000 0 0 1
11.078899 17.445901 -19.998538 28.758355 1.005008 2.339772 0.012573 -0.003630 -1565820.000000 0 0 1
9.789899 17.619001 -20.438038 28.705134 1.063630 2.363138 0.017377 -0.002895 -1397220.000000 0 0 1
8.781799 17.302501 -19.353838 27.405612 1.101131 2.354913 0.026501 -0.008098 -661300.000000 0 0 1
8.728299 15.911501 -19.023038 26.291349 1.069065 2.379724 0.021386 -0.014509 -24615.600000 0 0 1
7.542599 15.534401 -18.348838 25.196989 1.118782 2.386511 0.024472 -0.017065 243306.000000 0 0 1
7.399999 15.877901 -16.863038 24.315217 1.134670 2.337157 0.021609 -0.015424 -69376.600000 0 1 0
7.410499 17.259401 -16.565438 25.044284 1.165238 2.293541 0.026955 -0.014484 -471258.000000 0 0 1
6.652999 17.352501 -15.416538 24.146249 1.204679 2.263299 0.024603 -0.014863 -88871.800000 0 1 0
6.140899 18.804501 -15.070338 24.868353 1.255149 2.221825 0.037191 -0.017074 -167006.000000 0 1 0
7.214499 19.677901 -14.821238 25.669785 1.219384 2.186313 0.031690 -0.010133 -142899.000000 0 0 1
7.658699 20.374801 -15.995738 27.012068 1.211245 2.204546 0.041782 -0.008868 -818238.000000 0 0 1
8.935799 21.139201 -15.754038 27.837098 1.170865 2.172365 0.031413 -0.004689 -1033810.000000 0 0 1
8.976199 22.342801 -14.976938 28.356332 1.188783 2.127239 0.043122 -0.010135 -275776.000000 0 0 1
8.609599 22.250601 -13.588838 27.456710 1.201601 2.088538 0.029577 -0.002004 -257884.000000 0 0 1
8.173899 23.527901 -12.913038 28.055682 1.236428 2.049090 0.033498 -0.009036 65118.900000 0 0 1
6.815199 23.910301 -13.133238 28.118168 1.293128 2.056774 0.033361 -0.011582 400469.000000 0 0 1
6.246999 24.882101 -12.274538 28.439554 1.324817 2.017063 0.012760 -0.010865 -25915.800000 0 0 1
5.835099 24.298401 -10.918638 27.270448 1.335116 1.982732 0.007608 -0.014267 -546970.000000 0 0 1
6.867599 24.089501 -9.989838 26.967848 1.293077 1.950274 0.005993 -0.013451 107403.000000 0 0 1
6.295699 23.301501 -8.929538 25.735820 1.306913 1.925134 0.019811 -0.016893 361367.000000 0 0 1
7.130899 23.297801 -7.635238 25.533000 1.273775 1.874477 0.018022 -0.019440 3090.080000 0 0 1
7.258799 24.644101 -7.123338 26.660154 1.284352 1.841273 0.010087 -0.013444 553237.000000 0 0 1
8.109099 24.636301 -5.952838 26.610920 1.252813 1.796404 0.020355 -0.010540 345544.000000 0 0 1
8.289699 26.075701 -5.382438 27.886052 1.262991 1.765031 0.015056 -0.005837 227340.000000 0 0 1
9.012699 27.007201 -6.191938 29.136879 1.248703 1.784941 0.023197 -0.015051 118358.000000 0 0 1
9.062499 28.325501 -5.737738 30.288356 1.261147 1.761385 0.022921 -0.014743 66906.200000 0 0 1
9.363099 29.316201 -6.861138 31.530659 1.261653 1.790153 0.021420 -0.007992 776179.000000 0 0 1
10.721899 29.249601 -7.320938 32.001475 1.219441 1.801609 0.037585 -0.015699 605455.000000 0 0 1
10.892799 30.466801 -8.039538 33.339364 1.227429 1.814339 0.033629 -0.014220 -115540.000000 0 0 1
12.301199 30.644401 -8.609838 34.125183 1.189069 1.825854 0.070049 -0.032091 433916.000000 0 0 1
13.383099 30.729201 -7.677738 34.385153 1.160051 1.795981 0.057696 -0.023252 209199.000000 0 0 1
14.591499 31.046801 -8.337738 35.303450 1.131449 1.809222 0.058913 -0.022460 -5816.690000 0 0 1
15.792299 31.305201 -7.427938 35.841130 1.103585 1.779556 0.056517 -0.026376 -163683.000000 0 0 1
16.465999 30.113301 -7.047238 35.037174 1.070412 1.773314 0.056149 -0.024934 -540969.000000 0 0 1
17.655299 30.517101 -6.418838 35.835799 1.046307 1.750886 0.039674 -0.009646 -988885.000000 0 0 1
18.655399 29.419301 -6.257038 35.393074 1.005665 1.748517 0.034611 -0.004589 -1074260.000000 0 0 1
18.340599 28.413501 -5.273338 34.227368 0.997599 1.725480 0.058540 -0.014861 -567628.000000 0 0 1
19.287599 27.413301 -5.054538 33.897624 0.957668 1.720466 0.041061 -0.006643 -478300.000000 0 0 1
19.330699 26.312701 -6.183538 33.230563 0.937190 1.757967 0.031320 -0.001167 -92469.800000 0 0 1
19.828699 26.813001 -7.406938 34.161046 0.934037 1.789356 0.030352 0.002152 220950.000000 0 0 1
19.573399 25.837701 -8.418838 33.490022 0.922480 1.824906 0.023570 -0.003285 -697109.000000 0 0 1
20.254099 26.207001 -9.790438 34.538212 0.912830 1.858204 0.024742 -0.006751 1286360.000000 0 0 1
21.690699 26.255001 -9.885038 35.461606 0.880309 1.853292 0.017188 -0.005582 1013100.000000 0 0 1
22.312699 25.001701 -9.631538 34.867006 0.842170 1.850672 0.023602 -0.003335 -53713.000000 0 0 1
23.871599 25.145101 -9.592238 35.974162 0.811373 1.840704 0.016354 0.005343 270669.000000 0 0 1
24.554299 25.273901 -10.805438 36.857037 0.799839 1.868339 0.014513 0.000233 -979838.000000 0 0 1
25.886299 25.555701 -10.562738 37.878302 0.778972 1.853403 0.009695 0.009573 -484384.000000 0 0 1
26.761699 25.622801 -11.866638 38.904159 0.763660 1.880758 0.008831 0.001165 171337.000000 0 0 1
26.634499 26.852901 -12.539738 39.846202 0.789481 1.890941 0.002913 0.005097 -261725.000000 0 0 1
27.542699 26.938301 -13.596038 40.854921 0.774305 1.910055 0.015495 -0.001075 -181325.000000 0 0 1
27.185399 27.978301 -14.690838 41.685153 0.799771 1.930956 0.022732 -0.010481 -102882.000000 0 0 1
27.298399 29.311201 -14.331138 42.540929 0.820939 1.914396 0.015145 -0.009012 79414.600000 0 0 1
27.398599 30.119501 -15.459738 43.553083 0.832668 1.933671 0.028501 -0.004265 -389181.000000 0 0 1
27.743699 31.576501 -15.209538 44.700316 0.849921 1.917985 0.017493 -0.006271 -59133.700000 0 0 1
29.063099 31.818901 -14.771038 45.555348 0.830632 1.901009 0.023006 -0.005157 -17589.200000 0 0 1
29.397999 33.187501 -15.032938 46.814974 0.845874 1.897702 0.016765 -0.010277 -79840.900000 0 0 1
14.815399 -32.623269 -28.978015 46.081440 -1.144508 2.250861 0.051722 -0.014223 -405076.000000 0 0 1
15.715499 -33.148769 -28.071685 46.193477 -1.128091 2.223955 0.044025 -0.007285 -320693.000000 0 0 1
16.113599 -32.138169 -27.184905 45.072487 -1.106041 2.218225 0.061742 -0.011465 -775024.000000 0 0 1
17.220499 -32.580969 -26.225935 45.231237 -1.084575 2.189303 0.035835 -0.001294 742356.000000 0 0 1
18.566599 -32.411169 -26.699985 45.913960 -1.050583 2.191395 0.043610 -0.003207 993520.000000 0 0 1
19.050199 -33.358469 -27.711575 47.366961 -1.051917 2.195726 0.034575 -0.000449 384031.000000 0 0 1
20.607899 -33.292569 -27.862855 48.056419 -1.016528 2.189273 0.035709 0.009353 676098.000000 0 0 1
21.079799 -32.128669 -28.531535 47.860817 -0.990141 2.209476 0.029011 0.002019 383818.000000 0 0 1
22.325799 -31.689469 -27.993065 47.815013 -0.957045 2.196225 0.003492 0.010280 254285.000000 0 0 1
22.901299 -30.420669 -28.586675 47.613912 -0.925493 2.214779 -0.012109 0.015693 -256850.000000 0 0 1
23.146099 -30.568569 -29.966945 48.664126 -0.922712 2.234186 -0.007357 0.006503 11123.600000 0 0 1
23.822099 -29.429169 -30.468535 48.599383 -0.890306 2.248406 -0.005689 0.004953 164604.000000 0 0 1
24.102099 -29.463069 -32.007705 49.734061 -0.885149 2.269959 0.004697 0.001241 401279.000000 0 0 1
25.133399 -30.346169 -32.437895 51.037190 -0.879082 2.259548 0.013137 0.000257 -94830.200000 0 0 1
25.116699 -30.363469 -33.813515 51.924394 -0.879688 2.279970 0.017623 -0.007683 609559.000000 0 0 1
26.347899 -31.101269 34.325498 53.289216 -0.867951 0.870903 0.013197 -0.007324 911856.000000 0 0 1
27.562299 -30.393569 -34.278010 53.464300 -0.834212 2.266777 0.018426 -0.014061 -243640.000000 0 0 1
28.691399 -31.122569 34.098496 54.355479 -0.826021 0.892684 0.021507 -0.012309 31477.300000 0 0 1
29.981999 -30.300169 34.029971 54.544106 -0.790676 0.897075 0.027637 -0.019867 -354901.000000 0 0 1
30.012499 -29.329569 33.064414 53.424987 -0.773890 0.903462 0.028745 -0.016010 767877.000000 0 0 1
31.274699 -28.629169 32.914801 53.676068 -0.741264 0.910676 0.031879 -0.021574 854517.000000 0 0 1
31.235499 -27.637969 31.678972 52.374336 -0.724368 0.921210 0.023029 -0.020774 278296.000000 0 0 1
32.476599 -26.958669 31.439692 52.630348 -0.692824 0.930581 0.021452 -0.022674 708064.000000 0 0 1
32.369599 -26.136769 30.306042 51.472107 -0.679266 0.941241 0.017888 -0.016540 -97735.300000 0 0 1
33.055899 -26.645269 29.016012 51.425595 -0.678429 0.971293 0.021591 -0.011226 455013.000000 0 0 1
32.286799 -27.722169 28.415662 51.170362 -0.709479 0.982055 0.016021 -0.017501 464249.000000 0 0 1
31.194599 -27.352469 27.633642 49.848558 -0.719867 0.983212 0.027712 -0.014848 -579552.000000 0 0 1
30.768399 -28.495369 26.753062 49.743409 -0.747062 1.002946 0.015297 -0.001652 -29995.800000 0 0 1
29.612099 -28.163569 26.008572 48.440777 -0.760332 1.004020 0.013688 0.011263 36308.800000 0 0 1
28.975499 -29.346469 25.517022 48.496528 -0.791759 1.016716 -0.001005 0.022446 959655.000000 0 0 1
27.530299 -28.952069 25.004652 47.131437 -0.810565 1.011570 -0.004274 0.030619 601374.000000 0 0 1
26.621699 -28.688769 26.037022 47.007306 -0.822753 0.983763 -0.011071 0.030401 -640918.000000 0 0 1
25.384599 -28.329669 25.478132 45.783002 -0.840172 0.980632 -0.019050 0.046654 -590747.000000 0 0 1
24.325199 -28.199269 26.543132 45.732395 -0.859022 0.951575 0.000051 0.041897 -602402.000000 0 0 1
24.472299 -27.043269 27.355932 45.591434 -0.835263 0.927266 -0.007612 0.027897 101281.000000 0 0 1
23.248599 -26.778369 28.004302 45.186495 -0.855839 0.902373 0.006387 0.010158 152732.000000 0 0 1
23.310999 -25.514169 28.851162 45.019608 -0.830491 0.875181 0.011501 0.012443 -706185.000000 0 0 1
22.044399 -25.407769 29.425462 44.691924 -0.856159 0.852096 0.027809 0.007444 -318905.000000 0 0 1
21.944299 -24.329369 30.363432 44.669995 -0.836895 0.823405 0.032884 0.005545 -193429.000000 0 0 1
21.506699 -23.051569 29.647592 43.276930 -0.820055 0.816101 0.035158 -0.006392 -661923.000000 0 0 1
22.402299 -22.561469 28.670302 42.812021 -0.788938 0.837020 0.039032 -0.008742 153725.000000 0 0 1
22.084999 -21.209369 28.323732 41.711130 -0.765176 0.824335 0.051333 -0.012028 295271.000000 0 0 1
22.925599 -20.213069 29.186042 42.260813 -0.722602 0.808454 0.051659 -0.014376 -7956.890000 0 0 1
22.449999 -20.108769 30.551912 42.916016 -0.730442 0.778596 0.060101 -0.014105 548110.000000 0 0 1
23.298799 -19.333569 31.430632 43.640641 -0.692655 0.766685 0.055054 -0.021537 163730.000000 0 0 1
22.656799 -19.079569 32.825333 44.213833 -0.699897 0.734118 0.078484 -0.018327 -234711.000000 0 0 1
22.743799 -20.142069 33.768851 45.423767 -0.724806 0.732630 0.060472 -0.019942 149808.000000 0 0 1
22.173299 -19.695969 -33.810255 44.974657 -0.726299 2.421527 0.063490 -0.018364 10484.300000 0 0 1
22.073599 -20.640069 -32.614475 44.463021 -0.751849 2.394282 0.056440 -0.013536 475906.000000 0 0 1
23.346099 -20.857669 -32.028125 44.787091 -0.729163 2.367591 0.045238 -0.011624 157366.000000 0 0 1
23.125699 -21.837769 -31.046845 44.447640 -0.756762 2.344101 0.040866 -0.010532 79997.000000 0 0 1
24.366899 -22.360469 -30.306975 44.858100 -0.742485 2.312600 0.034564 -0.003149 -694194.000000 0 0 1
25.410099 -22.768669 -31.103935 46.168606 -0.730627 2.310005 0.029467 -0.002523 -704935.000000 0 0 1
26.341799 -23.483569 -30.290025 46.506495 -0.728096 2.280102 0.022997 -0.001901 -61400.100000 0 0 1
27.323299 -24.356669 -31.050975 47.999720 -0.728057 2.274307 0.003822 -0.000223 170263.000000 0 0 1
28.233999 -23.643969 -31.925445 48.738384 -0.697151 2.285028 0.007117 0.000368 443816.000000 0 0 1
27.892899 -23.645169 -33.323295 49.472718 -0.703165 2.309823 0.011641 0.002498 3747.010000 0 0 1
28.275699 -24.952169 -34.069495 50.821810 -0.723039 2.305506 0.010149 0.002490 239922.000000 0 0 1
27.420899 -26.069169 -33.753075 50.702834 -0.760133 2.299233 0.026178 0.000462 49761.700000 0 0 1
27.652899 -27.279669 34.376335 51.870951 -0.778604 0.846340 0.013529 -0.002966 -189942.000000 0 0 1
27.241999 -27.401469 32.920590 50.761524 -0.788317 0.865139 0.014654 -0.001718 -263331.000000 0 0 1
27.982399 -26.570369 32.045462 50.158856 -0.759520 0.877756 0.007507 -0.012143 -236076.000000 0 0 1
27.620299 -26.683169 30.671172 49.148685 -0.768143 0.896883 0.001851 -0.002586 -492416.000000 0 0 1
28.519899 -25.928169 29.664292 48.637689 -0.737834 0.914858 0.009404 -0.008642 -328180.000000 0 0 1
28.621599 -24.516569 29.751932 48.014951 -0.708299 0.902514 -0.003961 -0.014134 -7487.110000 0 0 1
29.086099 -24.020869 30.980582 48.813930 -0.690308 0.883219 -0.004767 -0.009844 -1835960.000000 0 0 1
29.498099 -22.565869 31.089382 48.434554 -0.653028 0.873843 -0.011670 -0.006245 -244988.000000 0 0 1
30.727799 -22.240369 30.506962 48.677576 -0.626512 0.893466 0.004653 -0.010744 298483.000000 0 0 1
31.858999 -22.680469 31.279842 50.078219 -0.618669 0.896152 0.001255 -0.008580 516703.000000 0 0 1
33.266899 -22.162969 30.809232 50.468729 -0.587691 0.914153 0.003836 -0.009077 680505.000000 0 0 1
33.693699 -22.698169 29.580312 50.254026 -0.592830 0.941451 0.023108 -0.017033 3585.470000 0 0 1
34.951199 -22.139869 29.271532 50.681187 -0.564653 0.955057 0.010950 -0.016403 83453.400000 0 0 1
35.445699 -22.581669 27.822872 50.402793 -0.567237 0.986023 0.025430 -0.013876 -7624.850000 0 0 1
-35.277726 -23.907469 27.737962 50.847611 0.595597 0.993797 0.020963 -0.014392 273815.000000 0 0 1
-34.868326 -24.178669 26.386622 49.966609 0.606302 1.014452 0.015974 -0.004395 -10401.300000 0 0 1
-34.699926 -25.676869 26.080242 50.433774 0.637050 1.027315 0.016648 -0.009460 -323267.000000 0 0 1
35.253799 -26.315069 26.197752 51.201909 -0.641223 1.033686 0.029119 -0.009840 -142894.000000 0 0 1
35.217399 -27.658769 25.674762 51.618467 -0.665758 1.050203 0.034265 -0.011169 620187.000000 0 0 1
-35.132326 -28.684669 26.604472 52.582207 0.684706 1.040302 0.027486 -0.014353 -378321.000000 0 0 1
-35.021026 -30.008869 26.033732 52.959982 0.708476 1.056900 0.034199 -0.014776 283412.000000 0 0 1
-33.978126 -30.774969 26.606102 53.004683 0.735971 1.044936 0.028977 -0.018718 116692.000000 0 0 1
-32.534626 -30.240869 26.516562 51.731423 0.748875 1.032608 0.020258 -0.016351 -1140060.000000 0 0 1
-32.115826 -30.138969 25.191102 50.738303 0.753655 1.051245 0.011867 -0.010434 -295697.000000 0 0 1
-30.922326 -29.419369 25.036612 49.482537 0.760496 1.040292 -0.016460 -0.007877 -376844.000000 0 0 1
-30.369126 -29.472869 23.604662 48.457341 0.770422 1.062004 -0.019944 -0.001946 -829376.000000 0 0 1
-30.055526 -30.787469 23.129262 48.848395 0.797428 1.077547 -0.020623 0.000396 755043.000000 0 0 1
-29.399426 -30.662969 21.853462 47.771516 0.806432 1.095662 -0.025995 -0.000767 -367837.000000 0 0 1
-29.463726 -32.011969 21.081362 48.345643 0.826826 1.119586 -0.021194 0.002415 -108263.000000 0 0 1
-28.649326 -33.135069 21.514062 48.801348 0.857874 1.114251 -0.030535 -0.001825 961469.000000 0 0 1
-27.267026 -32.918069 21.209962 47.717423 0.879018 1.110190 -0.019019 0.001971 221554.000000 0 0 1
-26.401226 -34.199269 21.263462 48.153396 0.913374 1.113440 -0.024701 0.010144 -710834.000000 0 0 1
-26.604826 33.729301 20.239062 47.487916 -0.902938 1.130515 -0.032913 0.011435 409430.000000 0 0 1
-27.817126 32.959301 20.301162 47.668073 -0.869805 1.130855 -0.034087 0.010622 461439.000000 0 0 1
-27.865726 31.772601 21.312262 47.330850 -0.850814 1.103714 -0.026474 0.005955 -257818.000000 0 0 1
-27.102326 30.682701 20.902762 45.966180 -0.847279 1.098714 -0.027200 0.003448 -228004.000000 0 0 1
-27.076626 29.720701 21.977662 45.820098 -0.831917 1.070539 -0.019790 -0.001740 195084.000000 0 0 1
-26.175726 28.470401 21.576262 44.286199 -0.827365 1.061915 -0.005677 -0.002978 -234177.000000 0 0 1
-24.845326 28.904201 21.582062 43.801010 -0.860770 1.055572 -0.002445 0.002802 -638949.000000 0 0 1
-23.962526 27.845601 21.201862 42.415788 -0.860209 1.047362 -0.003899 -0.001900 -650861.000000 0 0 1
-22.544026 28.327001 21.391062 42.050322 -0.898591 1.037120 -0.003127 0.003650 -1060810.000000 0 0 1
-22.225026 28.574201 22.758762 42.759771 -0.909739 1.009544 -0.000394 -0.003452 -46792.400000 0 0 1
-20.856226 28.847801 22.914262 42.334870 -0.944817 0.998859 0.027978 -0.010473 -221840.000000 0 0 1
-20.433326 28.971501 24.413012 43.044905 -0.956528 0.967752 0.015386 0.000176 -654100.000000 0 0 1
-19.995526 27.725501 24.955132 42.323552 -0.945986 0.940199 0.022182 -0.005848 468684.000000 0 0 1
-19.786726 27.793201 26.405262 43.141794 -0.952111 0.912136 0.017405 -0.006281 -774283.000000 0 0 1
-18.407126 28.260501 26.815962 43.087980 -0.993481 0.899050 0.026344 -0.002228 -1356630.000000 0 0 1
-18.110526 29.619901 26.491752 43.670844 -1.022014 0.918990 0.001128 -0.009953 763305.000000 0 0 1
-16.813326 30.071101 26.926042 43.726088 -1.060979 0.907409 0.015756 -0.008033 483327.000000 0 0 1
-16.522726 30.261001 28.452792 44.702237 -1.071024 0.880850 0.001572 -0.000226 -643101.000000 0 0 1
-16.502726 29.058601 29.189552 44.370848 -1.054305 0.852830 0.008556 0.001011 334246.000000 0 0 1
-16.428426 29.373001 30.558292 45.458504 -1.060838 0.833588 0.005869 0.000505 -364241.000000 0 0 1
-16.383126 28.092301 31.392542 45.200397 -1.042829 0.803045 0.006557 0.000238 13186.100000 0 0 1
-15.082126 27.524501 31.487822 44.458426 -1.069526 0.783776 0.022226 -0.000014 399083.000000 0 0 1
-14.821926 26.408901 32.385602 44.338998 -1.059359 0.751876 0.028041 0.000815 -163526.000000 0 0 1
-15.228226 26.544101 33.875859 45.651528 -1.049943 0.734668 0.021768 0.003668 -248890.000000 0 0 1
-16.568726 26.336801 34.252858 46.275350 -1.009247 0.737434 0.018797 0.001122 -406243.000000 0 0 1
-16.863026 27.101901 -33.354655 46.167171 -1.014207 2.378173 0.013315 0.004208 -232933.000000 0 0 1
-18.284826 26.715301 -32.942185 46.186900 -0.970595 2.364901 -0.001670 0.008793 52795.200000 0 0 1
-19.272626 26.913001 -33.959165 47.423292 -0.949341 2.368975 -0.003652 0.001326 665213.000000 0 0 1
-20.581926 26.607801 -33.479335 47.460053 -0.912405 2.353814 0.008956 -0.004951 -153202.000000 0 0 1
-21.733026 26.512201 34.350296 48.530032 -0.884136 0.784396 0.025614 -0.024258 -967217.000000 0 0 1
-21.638126 25.622501 33.286587 47.251645 -0.869506 0.789143 0.038558 -0.019479 -116023.000000 0 0 1
-21.791426 24.249701 33.662749 46.862511 -0.838741 0.769397 0.038426 -0.021390 -376572.000000 0 0 1
-22.138426 23.312901 32.499162 45.714295 -0.811233 0.779992 0.043221 -0.023922 304400.000000 0 0 1
-23.536426 23.326901 32.196392 46.202979 -0.780927 0.799805 0.054552 -0.028751 238142.000000 0 0 1
-23.687826 22.737201 30.922692 45.103285 -0.764924 0.815372 0.045584 -0.020667 -130286.000000 0 0 1
-25.132826 22.573301 30.416232 45.457233 -0.731798 0.837776 0.029509 -0.015072 645.239000 0 0 1
-25.717526 21.546101 31.184622 45.805090 -0.697368 0.821927 0.035241 -0.021300 -661361.000000 0 0 1
-26.960026 21.131701 30.710382 46.005645 -0.664794 0.839903 0.022331 -0.012574 -461578.000000 0 0 1
-27.333026 19.688001 31.186012 45.905109 -0.624221 0.823909 0.033461 -0.017442 -69959.400000 0 0 1
-28.135026 19.510001 32.358862 47.109614 -0.606311 0.813603 0.034980 -0.017805 374801.000000 0 0 1
-28.249226 18.163701 32.749885 46.909421 -0.571425 0.797984 0.020489 -0.007671 -313708.000000 0 0 1
-29.048426 17.093401 31.965982 46.452335 -0.531880 0.811866 0.008736 -0.002102 -267048.000000 0 0 1
-30.435426 17.303301 32.038072 47.456901 -0.516955 0.829698 0.005998 -0.005301 -43014.700000 0 0 1
-31.216626 16.353701 31.345292 47.164061 -0.482567 0.843836 0.024162 0.001977 -114385.000000 0 0 1
-32.735126 16.547701 31.424442 48.300212 -0.468040 0.862413 0.017527 -0.000488 -581606.000000 0 0 1
-33.232126 16.422201 32.718203 49.442327 -0.458970 0.847653 0.021757 0.003307 638259.000000 0 0 1
-34.611526 16.821001 32.722381 50.513939 -0.452380 0.866118 0.028728 0.005707 425332.000000 0 0 1
-34.977126 17.431501 34.043741 51.828881 -0.462342 0.854164 0.017885 0.018950 -423923.000000 0 0 1
34.818899 17.653201 34.122918 51.849443 0.469232 0.852483 0.007958 0.014354 146351.000000 0 0 1
34.525299 18.223801 -33.387715 51.369667 0.485670 2.278315 0.001853 0.013596 260139.000000 0 0 1
33.016999 18.223201 -33.037225 50.136469 0.504327 2.290213 -0.001486 0.015176 -39982.100000 0 0 1
32.525199 16.964101 -32.870675 49.255970 0.480753 2.301433 0.001852 0.021323 -484954.000000 0 0 1
31.251799 17.081001 -32.290835 48.074251 0.500199 2.307280 0.005385 0.015888 -390487.000000 0 0 1
30.427499 15.785101 -32.273095 47.080301 0.478556 2.326073 0.009794 0.014935 -424554.000000 0 0 1
29.806999 15.573601 -33.520895 47.483099 0.481471 2.354566 0.011837 0.003137 -106399.000000 0 0 1
29.000799 14.383401 -33.605945 46.661420 0.460415 2.374899 0.007532 -0.000800 326014.000000 0 0 1
29.730099 13.002101 -33.971655 46.978791 0.412274 2.379116 0.006844 0.002679 65741.500000 0 0 1
30.544399 12.408601 -33.024775 46.664435 0.385881 2.357045 0.015544 0.009028 -96766.300000 0 0 1
31.220799 11.273501 -33.550315 47.195908 0.346520 2.361536 0.020277 0.006265 61280.300000 0 0 1
17.364999 -21.254899 9.873915 29.168615 -0.885782 1.225462 0.007501 -0.020086 251730.000000 0 0 1
16.930999 -22.505899 10.431715 30.033230 -0.925830 1.216064 0.008341 -0.019792 -35437.300000 0 0 1
18.084499 -23.183799 10.856215 31.343182 -0.908340 1.217102 -0.011592 -0.014764 -163876.000000 0 0 1
17.848399 -24.508899 11.564115 32.449657 -0.941367 1.206415 0.004467 -0.009578 26903.800000 0 0 1
17.258899 -25.529349 10.765015 32.642041 -0.976332 1.234715 0.002456 -0.010303 -445675.000000 0 0 1
15.927099 -25.774609 11.101715 32.268422 -1.017292 1.219577 0.008837 -0.006040 -682939.000000 0 0 1
15.143899 -26.554979 10.059815 32.182363 -1.052513 1.252880 0.016274 -0.002274 -223134.000000 0 0 1
14.920399 -25.928389 8.824215 31.189204 -1.048627 1.283954 0.010393 0.000581 -52694.600000 0 0 1
14.136899 -26.743339 7.974115 31.283296 -1.084521 1.313052 0.018767 0.004604 -116823.000000 0 0 1
13.887099 -26.026009 6.676715 30.245383 -1.080643 1.348211 0.023978 0.002280 -162795.000000 0 0 1
13.103599 -24.867199 6.904215 28.943913 -1.085827 1.329937 0.039160 -0.009632 -49620.300000 0 0 1
12.710299 -24.357999 5.659115 28.051549 -1.089852 1.367662 0.041860 0.000014 -339413.000000 0 0 1
12.103299 -22.920399 5.891315 26.580860 -1.084955 1.347303 0.053059 -0.007582 38586.900000 0 0 1
11.536199 -22.321099 4.743415 25.569813 -1.093776 1.384207 0.063274 -0.010489 -123834.000000 0 0 1
10.898099 -21.107499 5.104415 24.297122 -1.094183 1.359136 0.067870 -0.011632 453808.000000 0 1 0
10.168399 -20.449799 3.852915 23.161079 -1.109361 1.403666 0.060730 -0.021207 358071.000000 0 1 0
11.087099 -19.873799 2.953915 22.948143 -1.061927 1.441717 0.055349 -0.011598 -272424.000000 0 1 0
10.373499 -19.472799 1.827415 22.139079 -1.081319 1.488160 0.052620 -0.007427 -370790.000000 0 1 0
11.203799 -19.327399 0.575815 22.347372 -1.045448 1.545027 0.034106 0.002957 -479112.000000 0 1 0
11.998299 -18.175699 0.721215 21.790718 -0.987334 1.537693 0.032588 0.003417 -631499.000000 0 1 0
12.825199 -18.073399 -0.388485 22.164937 -0.953645 1.588324 0.049622 0.003924 -446457.000000 0 1 0
14.062999 -17.166899 -0.195585 22.192535 -0.884462 1.579610 0.053357 0.014366 363175.000000 0 1 0
14.963399 -17.632599 0.822915 23.140637 -0.867103 1.535227 0.044022 0.003488 -121869.000000 0 1 0
16.197799 -16.981699 0.595615 23.475552 -0.809020 1.545422 0.034209 0.001401 -267149.000000 0 1 0
17.313199 -17.737799 1.332415 24.822403 -0.797511 1.517093 0.031477 0.005620 -299135.000000 0 1 0
17.848799 -18.801899 0.532515 25.930187 -0.811397 1.550258 0.024963 -0.002042 -324164.000000 0 0 1
19.001199 -19.308899 1.130415 27.113779 -0.793430 1.529093 0.016406 -0.002967 -319669.000000 0 0 1
19.227199 -20.749899 0.687715 28.296934 -0.823469 1.546490 0.012319 -0.006593 -32095.100000 0 0 1
18.241499 -21.661899 1.116515 28.341432 -0.870906 1.531391 0.010288 -0.004072 65257.900000 0 0 1
18.362799 -22.857699 0.303915 29.321650 -0.894014 1.560431 0.011152 -0.006124 -42029.500000 0 0 1
17.192899 -23.817799 0.628515 29.381599 -0.945555 1.549403 0.011073 -0.002693 -20511.500000 0 0 1
17.155199 -24.335299 1.955015 29.838394 -0.956755 1.505229 0.004418 -0.003547 -943879.000000 0 0 1
15.975299 -25.023939 2.059515 29.759861 -1.002619 1.501537 0.005906 -0.001004 -1281640.000000 0 0 1
15.888799 -25.850169 3.395015 30.532136 -1.019675 1.459371 -0.006327 0.000726 717720.000000 0 0 1
16.837699 -26.941019 3.531215 31.965546 -1.012209 1.460101 -0.008958 0.005359 -154450.000000 0 0 1
18.095499 -26.517249 3.937215 32.343674 -0.971977 1.448763 -0.012071 0.005097 -982675.000000 0 0 1
19.158599 -27.646029 3.983215 33.870649 -0.964786 1.452923 0.001694 0.005540 -65337.200000 0 0 1
19.583699 -27.921599 2.664415 34.208714 -0.959144 1.492830 0.001560 0.011589 -444289.000000 0 0 1
20.660299 -28.816629 2.592415 35.552309 -0.948780 1.497813 0.021790 0.012758 -374675.000000 0 0 1
20.332599 -30.343969 2.829015 36.635698 -0.980441 1.493499 0.029671 0.010480 -111576.000000 0 0 1
20.043999 -30.754699 4.132415 36.941715 -0.993200 1.458699 0.048456 -0.000402 200020.000000 0 0 1
19.480099 -32.095109 4.180015 37.776220 -1.025283 1.459917 0.042160 -0.013336 -198582.000000 0 0 1
19.106899 -32.539879 5.617015 38.150599 -1.039854 1.423026 0.051636 -0.017646 -241876.000000 0 0 1
20.153299 -33.052219 6.448215 39.245180 -1.023245 1.405742 0.049051 -0.023058 -65057.500000 0 0 1
19.794599 -33.785659 7.574715 39.883245 -1.040818 1.379713 0.045885 -0.018353 -145735.000000 0 0 1
20.954099 34.224072 8.131915 40.944956 1.021409 1.370861 0.037134 -0.022926 532284.000000 0 0 1
21.883099 -33.857259 8.884515 41.280972 -0.997003 1.353879 0.045086 -0.024720 -10100.100000 0 0 1
22.877199 34.194467 9.444815 42.211756 0.981158 1.345138 0.040000 -0.024225 -141874.000000 0 0 1
23.715999 -33.852329 10.455515 42.635040 -0.959686 1.323036 0.033867 -0.023792 205756.000000 0 0 1
24.578699 -32.907429 9.758515 42.216584 -0.929279 1.337533 0.025870 -0.022120 316691.000000 0 0 1
25.320699 -32.027919 10.543915 42.167518 -0.901824 1.318066 0.017332 -0.019466 107779.000000 0 0 1
26.061799 -30.986729 9.644715 41.622293 -0.871513 1.336951 0.019012 -0.024170 236021.000000 0 0 1
25.162899 -30.032859 9.053415 40.213287 -0.873401 1.343715 0.014444 -0.025835 344439.000000 0 0 1
25.778299 -29.350979 7.997715 39.874354 -0.850113 1.368854 0.027722 -0.027507 -110715.000000 0 0 1
25.415399 -27.889829 7.907115 38.552659 -0.831785 1.364231 0.021651 -0.029748 -190201.000000 0 0 1
25.956499 -27.261569 9.029815 38.710083 -0.809916 1.335360 0.009487 -0.022711 76502.200000 0 0 1
25.465599 -25.947699 8.996715 37.452913 -0.794775 1.328210 0.016028 -0.020287 -628443.000000 0 0 1
26.201999 -25.006899 9.967915 37.566595 -0.762065 1.302240 0.034309 -0.030619 635846.000000 0 0 1
27.557099 -24.889599 9.530615 38.336908 -0.734581 1.319560 0.032771 -0.018767 10300.400000 0 0 1
28.409599 -24.172099 10.386415 38.720451 -0.704983 1.299230 0.023546 -0.017685 -31049.700000 0 0 1
29.742599 -23.752699 9.769415 39.297002 -0.673892 1.319557 0.039794 -0.020559 -116339.000000 0 0 1
29.611199 -22.835699 8.657815 38.382939 -0.656922 1.343274 0.038496 -0.014112 -393137.000000 0 0 1
30.792199 -22.709999 7.890415 39.066126 -0.635469 1.367421 0.036077 -0.013914 -280186.000000 0 0 1
30.829599 -21.703999 6.746015 38.301912 -0.613405 1.393745 0.032023 -0.004335 -356353.000000 0 0 1
30.672899 -20.358299 7.135515 37.499369 -0.585962 1.379345 0.025518 0.000222 -195479.000000 0 0 1
30.538499 -19.498199 6.015215 36.728225 -0.568234 1.406279 0.006872 0.004163 -309983.000000 0 0 1
30.401599 -18.061899 6.411115 35.938723 -0.536077 1.391446 0.022365 0.003839 -17025.000000 0 0 1
31.408699 -17.553099 7.254215 36.704786 -0.509621 1.371850 0.029635 0.001542 -204626.000000 0 0 1
31.239399 -16.154799 7.374915 35.934203 -0.477257 1.364094 0.035020 0.002310 28454.100000 0 0 1
31.775399 -15.525699 8.688015 36.417097 -0.454492 1.329904 0.028848 -0.013654 108555.000000 0 0 1
33.169699 -15.596299 8.912115 37.721337 -0.439522 1.332279 0.006648 -0.012234 -84613.000000 0 0 1
33.542399 -14.846099 10.048815 38.032590 -0.416689 1.303405 0.006975 -0.023203 -1314700.000000 0 0 1
35.015599 -14.779099 10.286915 39.374288 -0.399388 1.306469 0.004674 -0.024699 -1420250.000000 0 0 1
-35.592626 -13.993799 9.307615 39.361061 0.374601 1.332068 0.006052 -0.020860 -330782.000000 0 0 1
-34.311526 -14.444999 8.952915 38.289601 0.398474 1.334790 0.007049 -0.023364 91984.900000 0 0 1
-33.544026 -13.657999 7.845415 37.057970 0.386669 1.357476 0.006415 -0.021950 -173648.000000 0 0 1
-34.043626 -13.843199 6.556415 37.330808 0.386210 1.394251 0.021224 -0.021385 140604.000000 0 0 1
-33.177726 -13.340599 5.529615 36.184385 0.382311 1.417377 0.020385 -0.019334 -419258.000000 0 0 1
-32.165626 -14.356699 5.050215 35.584364 0.419803 1.428393 0.003609 -0.002790 -1004720.000000 0 0 1
-31.133126 -14.530499 5.947715 34.868069 0.436672 1.399380 0.013704 -0.010467 -350937.000000 0 0 1
-30.264526 -15.595099 5.562115 34.497620 0.475807 1.408858 0.020884 -0.004781 88544.900000 0 0 1
-29.703526 -16.352499 6.804015 34.583209 0.503245 1.372761 0.027624 -0.017454 -527654.000000 0 0 1
-30.667026 -17.069699 7.493315 35.888590 0.507907 1.360455 0.019819 -0.021591 -539877.000000 0 0 1
-30.303826 -17.212799 8.805815 35.946414 0.516563 1.323307 0.014406 -0.020000 -70089.400000 0 0 1
-31.380826 -17.896599 9.671515 37.397630 0.518298 1.309210 -0.015469 -0.021404 -1231140.000000 0 0 1
-32.548226 -17.106699 9.861415 38.069327 0.483902 1.308770 -0.006005 -0.014077 -290970.000000 0 0 1
-33.506226 -17.712699 10.662415 39.371233 0.486295 1.296554 0.013942 -0.020727 -488143.000000 0 0 1
-34.053326 -19.096599 10.288315 40.375222 0.511086 1.313137 0.022669 -0.016031 -1821520.000000 0 0 1
-33.190126 -20.212199 10.377515 40.222012 0.546998 1.309839 0.025414 -0.013038 -563960.000000 0 0 1
-32.744826 -20.549899 11.702215 40.391383 0.560450 1.276861 0.017223 -0.019919 -226791.000000 0 0 1
-33.815326 -21.272599 12.592615 41.887632 0.561529 1.265445 0.033273 -0.016625 253714.000000 0 0 1
-34.077126 -22.574299 12.203915 42.658939 0.585076 1.280662 0.020201 -0.012305 -371159.000000 0 0 1
-35.199726 -22.591799 11.362415 43.341834 0.570601 1.305538 0.032309 -0.010551 -639795.000000 0 0 1
35.393999 -24.027399 11.327915 44.253505 -0.596393 1.311937 0.022623 -0.001345 -250623.000000 0 0 1
34.924799 -24.483299 12.553315 44.460761 -0.611416 1.284558 0.062076 0.001396 -118814.000000 0 0 1
34.553699 -25.831609 12.518315 44.921469 -0.641950 1.288386 0.020402 0.009721 -341067.000000 0 0 1
33.887299 -26.277969 13.829915 45.057155 -0.659592 1.258819 0.026877 -0.008910 -253806.000000 0 0 1
32.623999 -25.662689 13.866015 43.762602 -0.666529 1.248394 0.032207 -0.005834 -284704.000000 0 0 1
32.044899 -25.436579 15.143415 43.625888 -0.670936 1.216298 0.032052 -0.003036 -345892.000000 0 0 1
31.835599 -23.957899 15.576215 42.779724 -0.645131 1.198127 0.039380 -0.009068 280482.000000 0 0 1
32.971899 -23.233099 16.081315 43.422710 -0.613829 1.191418 0.044095 -0.013965 443053.000000 0 0 1
33.795699 -22.733599 15.035615 43.416996 -0.592152 1.217165 0.041355 -0.009324 69206.100000 0 0 1
34.989699 -21.900099 15.580515 44.120810 -0.559247 1.209879 0.038944 -0.013934 -47502.800000 0 0 1
34.736899 -20.551799 16.073015 43.443877 -0.534251 1.191818 0.038427 -0.007251 191237.000000 0 0 1
34.128299 -20.450599 17.368215 43.412241 -0.539851 1.159196 0.025874 -0.006985 128143.000000 0 0 1
33.988699 -19.012799 17.952315 42.883608 -0.510021 1.138861 0.027335 -0.002946 -430930.000000 0 0 1
33.379499 -18.031599 17.171515 41.643612 -0.495288 1.145770 0.040277 -0.010234 -55161.600000 0 0 1
33.165899 -16.761399 17.829115 41.216486 -0.467943 1.123452 0.035530 -0.012223 1186840.000000 0 0 1
34.460899 -15.915399 18.299115 42.139187 -0.432656 1.121586 0.020247 -0.013262 995043.000000 0 0 1
35.021399 -16.465699 19.440915 43.307815 -0.439493 1.105261 0.023516 -0.005771 939940.000000 0 0 1
-34.963526 -15.715299 19.765515 43.128811 0.422419 1.094726 -0.001182 -0.008883 1024040.000000 0 0 1
-34.604726 -15.669599 21.296815 43.549716 0.425194 1.059827 -0.010769 0.000992 -69668.300000 0 0 1
-33.839026 -16.777699 21.747115 43.583344 0.460289 1.048378 -0.008413 0.008438 244031.000000 0 0 1
-33.465326 -16.710599 23.094615 43.960589 0.463120 1.017672 -0.008870 0.009824 -7766.780000 0 0 1
-32.663326 -17.926099 23.657415 44.135147 0.501932 1.005078 -0.013015 0.010844 -1038710.000000 0 0 1
-33.328126 -19.165499 23.756615 45.193552 0.521875 1.017301 -0.013738 0.008683 -59296.800000 0 0 1
-32.565426 -20.227299 24.283415 45.379895 0.555810 1.006154 -0.019390 0.012152 312380.000000 0 0 1
-31.444326 -20.863499 23.323115 44.362134 0.585811 1.017207 -0.010073 0.008240 652718.000000 0 0 1
-30.362526 -19.970499 23.151815 43.089562 0.581794 1.003570 -0.016131 0.015879 -977463.000000 0 0 1
-29.323526 -20.705899 22.624415 42.431917 0.614821 1.008426 -0.003108 0.012191 -724372.000000 0 0 1
-28.053026 -19.847299 22.451215 41.048077 0.615737 0.992081 0.014430 0.008218 -191921.000000 0 0 1
-27.286026 -19.658599 23.603615 41.086718 0.624329 0.958824 0.001978 0.007799 82415.600000 0 0 1
-26.422226 -18.541499 23.544615 39.953349 0.611892 0.940601 0.034029 0.005102 -200907.000000 0 0 1
-25.973626 -18.210199 24.979515 40.375943 0.611466 0.903744 0.019903 -0.002322 -800586.000000 0 0 1
-25.206926 -17.019599 25.032015 39.391086 0.593884 0.882174 0.025267 -0.002671 187492.000000 0 0 1
-24.809726 -16.545599 26.325015 39.777956 0.588164 0.847580 0.014700 -0.003940 502385.000000 0 0 1
-23.563226 -17.246799 26.933215 39.725002 0.631840 0.825769 0.014507 0.001283 -27358.800000 0 0 1
-23.920026 -18.622999 27.198615 40.727735 0.661526 0.839526 0.018433 0.000773 137951.000000 0 0 1
-23.021626 -19.219499 28.140415 41.125021 0.695630 0.817201 0.028134 -0.005471 166255.000000 0 0 1
-23.575626 -20.534499 28.703015 42.442183 0.716563 0.828089 0.029526 -0.004027 -275581.000000 0 0 1
-24.627226 -20.380599 29.622415 43.581608 0.691324 0.823443 0.021730 -0.008262 -114711.000000 0 0 1
-24.825726 -21.606099 30.246615 44.698970 0.716168 0.827561 0.024727 -0.010200 -647824.000000 0 0 1
-25.941226 -21.520199 31.326215 46.015192 0.692516 0.821970 0.018090 -0.007450 -595315.000000 0 0 1
-25.589826 -20.787899 32.477015 46.278855 0.682226 0.792920 0.034427 -0.015710 167505.000000 0 0 1
-26.520026 -20.871399 33.563615 47.596674 0.666767 0.788137 0.047249 -0.021970 -171710.000000 0 0 1
-27.672426 -19.884799 33.369215 47.693531 0.623086 0.795876 0.013579 -0.024028 -355020.000000 0 0 1
-28.584826 -20.387699 32.380915 47.762686 0.619553 0.825820 0.019350 -0.020774 -255594.000000 0 0 1
-29.838026 -19.780699 32.482415 48.339333 0.585415 0.833935 0.043017 -0.022850 -455947.000000 0 0 1
-30.872826 -20.404999 31.534315 48.620041 0.584026 0.865070 0.025709 0.000587 -335089.000000 0 0 1
-30.985226 -19.692199 30.329115 47.620606 0.566139 0.880338 0.012519 -0.006732 386021.000000 0 0 1
-32.132526 -20.107099 29.592815 48.088766 0.559142 0.907930 0.011416 -0.010059 260400.000000 0 0 1
-32.627326 -19.056299 28.583915 47.378530 0.528616 0.923152 0.013649 -0.002612 -427999.000000 0 0 1
-33.688226 -19.438699 27.759415 47.784356 0.523349 0.950924 -0.006083 0.000205 317190.000000 0 0 1
-34.265726 -18.371099 26.951415 47.307674 0.492137 0.964650 0.007694 0.005120 -83859.600000 0 0 1
-35.421726 -18.800899 26.035915 47.812565 0.487962 0.994954 -0.003737 0.001390 -527752.000000 0 0 1
34.623599 -19.110899 26.797715 47.771724 -0.504348 0.975259 0.018829 -0.004546 239107.000000 0 0 1
33.597399 -19.734199 26.021815 46.854655 -0.531083 0.981985 0.060856 -0.006164 571124.000000 0 0 1
32.383299 -20.267799 26.831115 46.683728 -0.559226 0.958507 0.055297 -0.013371 500547.000000 0 0 1
31.594099 -19.162299 27.353515 45.973858 -0.545196 0.933556 0.040396 -0.013184 1126270.000000 0 0 1
30.347999 -19.649299 27.878815 45.654401 -0.574592 0.913916 0.028017 -0.011617 551134.000000 0 0 1
-29.421421 -5.846199 33.747895 45.152170 0.196151 0.726618 0.004464 -0.001526 -112484.000000 0 0 1
-30.575601 -5.476699 33.039966 45.348660 0.177240 0.754555 -0.000486 0.002080 172062.000000 0 0 1
-30.290121 -4.293399 32.293932 44.483961 0.140805 0.758355 0.003979 0.005758 -19332.200000 0 0 1
-31.004141 -4.299099 30.929472 44.004219 0.137784 0.791365 0.002395 0.003400 -136517.000000 0 0 1
-30.635161 -5.304499 30.057372 43.244611 0.171451 0.802300 -0.007791 0.005710 -540673.000000 0 0 1
-29.306221 -5.426699 29.635452 42.030509 0.183098 0.788241 0.002080 0.002628 -380080.000000 0 0 1
-29.103201 -6.433999 28.439632 41.197152 0.217576 0.808851 0.017245 -0.002106 -20306.300000 0 0 1
-29.481461 -5.989499 27.159542 40.529882 0.200434 0.836437 0.011797 -0.008094 -79104.700000 0 0 1
-29.045761 -6.858099 26.091932 39.641880 0.231867 0.852383 0.024026 -0.007800 -20019.500000 0 0 1
-29.667451 -6.440999 24.757682 39.173804 0.213789 0.886670 0.025917 -0.005638 -28096.900000 0 0 1
-29.260441 -5.161299 24.325762 38.399936 0.174596 0.884748 0.042524 -0.016166 36337.700000 0 0 1
-29.856151 -4.909799 23.056562 38.040780 0.162990 0.919647 0.042108 -0.016096 -3924.770000 0 0 1
-29.338101 -3.592799 22.462862 37.124285 0.121855 0.920940 0.046211 -0.019401 -207745.000000 0 0 1
-27.969271 -3.657699 22.179762 35.883154 0.130038 0.904459 0.058457 -0.017443 -546267.000000 0 0 1
-27.607961 -2.536199 21.446062 35.050897 0.091608 0.912393 0.058703 -0.021286 639072.000000 0 0 1
-26.163381 -2.557999 20.840062 33.546595 0.097460 0.900488 0.052078 -0.012429 621986.000000 0 0 1
-25.986281 -3.602299 19.829862 32.885966 0.137745 0.923554 0.057109 -0.009220 1074570.000000 0 0 1
-24.842001 -3.325399 18.951662 31.422107 0.133071 0.923375 0.041768 -0.004983 888540.000000 0 0 1
-24.580901 -4.196099 17.720362 30.591488 0.169076 0.952978 0.050932 -0.000578 -711040.000000 0 0 1
-25.638411 -4.126899 16.812162 30.935549 0.159597 0.996246 0.047823 0.003338 46959.900000 0 0 1
-25.294381 -4.631599 15.553862 30.052954 0.181102 1.026813 0.058678 -0.000820 85232.400000 0 0 1
-26.546411 -4.576399 14.650662 30.664267 0.170714 1.072675 0.057664 -0.008693 266531.000000 0 0 1
-27.000241 -3.314499 14.247062 30.707942 0.122147 1.088343 0.049499 -0.007683 25842.700000 0 0 1
-28.178211 -3.280199 13.471162 31.404514 0.115887 1.127459 0.033533 -0.006760 -274439.000000 0 0 1
-28.396811 -2.003699 12.646262 31.149986 0.070444 1.152746 0.039012 -0.001263 -327358.000000 0 0 1
-27.544241 -1.900899 11.521762 29.917380 0.068903 1.175459 0.045390 -0.005318 41061.200000 0 0 1
-27.904671 -0.931699 10.562362 29.851335 0.033376 1.209131 0.043482 -0.000787 -790108.000000 0 0 1
-29.203031 -1.113099 9.804162 30.824951 0.038097 1.247115 0.026872 0.003054 -589918.000000 0 0 1
-29.253421 -2.078799 8.723162 30.597019 0.070942 1.281687 0.030500 -0.003160 250798.000000 0 0 1
-30.573031 -2.181999 8.186062 31.725115 0.071249 1.309813 0.026999 0.003165 197496.000000 0 0 1
-30.787491 -2.640199 6.731262 31.625150 0.085546 1.356310 0.039501 0.001852 -529224.000000 0 0 1
-30.369721 -1.795499 5.670462 30.946695 0.059053 1.386522 0.051524 -0.007477 412094.000000 0 0 1
-31.267821 -0.750799 5.309862 31.724359 0.024007 1.402630 0.050816 -0.004587 -156195.000000 0 0 1
-30.881911 -0.104399 3.926262 31.130674 0.003381 1.444338 0.052995 -0.006590 -9242.970000 0 0 1
-31.111681 -1.047699 2.903162 31.264400 0.033663 1.477804 0.054640 -0.008577 341400.000000 0 0 1
-30.665711 -0.549099 1.663462 30.715704 0.017904 1.516613 0.063443 -0.017016 -231486.000000 0 0 1
-31.404141 -1.136299 0.425462 31.427572 0.036167 1.557258 0.066742 -0.013111 390354.000000 0 0 1
-32.712801 -0.573799 0.331662 32.719514 0.017539 1.560660 0.053577 -0.009784 437492.000000 0 0 1
-33.319311 -0.823999 -0.932238 33.342533 0.024725 1.598759 0.049519 -0.005796 -514597.000000 0 0 1
-34.833558 -0.675899 -0.776138 34.848759 0.019401 1.593070 0.041622 -0.007350 -644386.000000 0 0 1
-35.392331 -1.801099 -0.109138 35.438298 0.050846 1.573876 0.041231 -0.000902 -1472360.000000 0 0 1
34.449074 -1.782699 -0.093138 34.495296 -0.051703 1.573496 0.026908 -0.006170 -1652740.000000 0 0 1
33.641914 -2.996699 0.494762 33.778742 -0.088842 1.556149 0.034478 -0.011208 -228899.000000 0 0 1
33.733414 -3.131799 1.878962 33.930545 -0.092574 1.515391 0.037923 -0.008595 279347.000000 0 0 1
32.987054 -4.233899 2.399362 33.344094 -0.127652 1.498776 0.041085 -0.002022 -318545.000000 0 0 1
33.149624 -4.500099 3.897962 33.680003 -0.134926 1.454801 0.046114 0.001584 -173501.000000 0 0 1
32.843614 -3.400999 4.701362 33.352250 -0.103184 1.429364 0.050523 -0.009038 209133.000000 0 0 1
32.866584 -3.581099 6.116162 33.622077 -0.108531 1.387869 0.045675 -0.006915 -220269.000000 0 0 1
32.172794 -2.354499 6.754862 32.958467 -0.073053 1.364383 0.050637 -0.011381 185784.000000 0 0 1
30.770154 -2.481599 6.878962 31.627217 -0.080475 1.351543 0.048224 -0.016233 48794.400000 0 0 1
30.144474 -1.399699 7.572262 31.112500 -0.046400 1.324944 0.056304 -0.017446 239124.000000 0 0 1
28.648864 -1.541699 7.965862 29.775648 -0.053762 1.299968 0.030664 -0.010100 1209.180000 0 0 1
27.843564 -1.482899 6.808362 28.702210 -0.053208 1.331307 0.032291 -0.013425 491893.000000 0 0 1
26.440894 -1.598799 7.030662 27.406336 -0.060393 1.311362 0.038136 -0.007588 444333.000000 0 0 1
25.913124 -3.053099 7.003162 27.015842 -0.117280 1.308577 0.047507 -0.018499 -714180.000000 0 0 1
26.532544 -3.844799 8.003962 27.978953 -0.143907 1.280673 0.046187 -0.018789 581813.000000 0 0 1
25.985624 -5.149199 7.955062 27.659536 -0.195622 1.279070 0.053717 -0.025378 -171407.000000 0 0 1
26.406124 -5.998999 9.164462 28.587738 -0.223390 1.244462 0.058094 -0.020640 40533.100000 0 0 1
25.614324 -5.623999 10.313962 28.179794 -0.216135 1.196083 0.061328 -0.010989 831384.000000 0 0 1
26.010724 -6.292299 11.499562 29.127148 -0.237352 1.164940 0.058745 -0.014653 -30639.900000 0 0 1
24.814424 -6.355499 12.468462 28.488780 -0.250731 1.117799 0.051607 -0.015884 474766.000000 0 0 1
23.747024 -7.194199 12.044762 27.581769 -0.294162 1.118877 0.063843 -0.023852 74211.400000 0 0 1
22.584524 -7.009699 12.825662 26.901566 -0.300949 1.073828 0.071639 -0.024930 872975.000000 0 0 1
21.534724 -8.186499 12.743662 26.328009 -0.363281 1.065537 0.069544 -0.028498 738368.000000 0 0 1
22.047524 -9.227199 13.571462 27.484889 -0.396364 1.054366 0.071722 -0.033157 690308.000000 0 0 1
21.204224 -10.382999 13.489062 27.191554 -0.455347 1.051723 0.094765 -0.046776 130184.000000 0 0 1
21.510624 -11.393799 14.612962 28.391271 -0.487111 1.030140 0.066438 -0.041784 -275059.000000 0 0 1
21.273724 -10.807799 15.900462 28.674110 -0.470055 0.983006 0.060174 -0.034439 157861.000000 0 0 1
21.772624 -11.668299 16.939262 29.952212 -0.491966 0.969705 0.049131 -0.032488 3364.080000 0 0 1
21.550224 -11.310599 18.416062 30.520373 -0.483328 0.923036 0.054353 -0.019989 289601.000000 0 0 1
20.206724 -11.486499 18.859262 29.931975 -0.516897 0.889152 0.064402 -0.025488 151113.000000 0 0 1
20.020424 -11.712699 20.261862 30.798503 -0.529345 0.852790 0.080543 -0.013714 103677.000000 0 0 1
20.415524 -10.593899 21.265962 31.325157 -0.478664 0.824563 0.067899 -0.016171 -356179.000000 0 0 1
19.667224 -9.397299 21.303462 30.478623 -0.445743 0.796848 0.066037 -0.010649 -128093.000000 0 0 1
20.077124 -8.358299 20.385062 29.807765 -0.394487 0.817723 0.068529 -0.006756 -183535.000000 0 0 1
21.259924 -7.464499 20.877562 30.717678 -0.337660 0.823498 0.051665 0.001611 1780830.000000 0 0 1
22.630124 -7.929699 20.890862 31.802999 -0.337035 0.854119 0.056826 -0.003605 1301560.000000 0 0 1
23.141724 -8.220999 19.575862 31.406028 -0.341340 0.897821 0.055972 -0.008982 -742673.000000 0 0 1
24.528124 -8.882699 19.550762 32.600054 -0.347452 0.927651 0.042993 -0.011025 -45190.300000 0 0 1
24.473524 -10.190599 20.140662 33.293362 -0.394558 0.921099 0.031091 -0.016447 98930.500000 0 0 1
25.571724 -10.973799 19.716262 34.103788 -0.405370 0.954367 0.032607 -0.021163 17526.900000 0 0 1
25.446824 -12.483399 20.059062 34.723797 -0.456074 0.954919 0.013551 -0.023928 -472648.000000 0 0 1
24.547124 -13.149399 19.209662 33.830151 -0.491782 0.966933 0.043183 -0.027085 64208.100000 0 0 1
24.167024 -14.453999 19.524462 34.266132 -0.539012 0.964547 0.031421 -0.015317 148270.000000 0 0 1
23.051724 -15.004199 18.610462 33.209295 -0.577003 0.975929 0.035550 -0.014590 -52335.900000 0 0 1
23.597724 -15.158899 17.267262 32.936350 -0.571006 1.018949 0.032000 -0.018504 859823.000000 0 0 1
22.600624 -15.485299 16.287962 31.872879 -0.600704 1.034415 0.009751 -0.019820 194725.000000 0 0 1
22.182024 -17.013799 16.255462 32.338083 -0.654298 1.044109 -0.007485 -0.017018 -697047.000000 0 0 1
23.249724 -17.810699 15.895062 33.323020 -0.653701 1.073559 0.029715 -0.022078 -414684.000000 0 0 1
23.026824 -19.111299 16.326162 34.088414 -0.692743 1.071354 0.013490 -0.006329 -413230.000000 0 0 1
24.252824 -19.972099 16.103462 35.304472 -0.688904 1.097154 0.010763 -0.001518 -449215.000000 0 0 1
24.399324 -20.356499 14.734562 35.026010 -0.695312 1.136607 0.009051 -0.013466 -1068.390000 0 0 1
25.596324 -21.085699 14.567462 36.221395 -0.689073 1.156901 0.021394 -0.022522 -164822.000000 0 0 1
26.021624 -21.118899 13.085662 35.977318 -0.681768 1.198538 0.014453 -0.031699 -90344.700000 0 0 1
25.033124 -21.667999 12.241362 35.298873 -0.713466 1.216648 0.004699 -0.026073 178912.000000 0 0 1
25.484824 -21.452799 10.897162 35.049208 -0.699707 1.254646 0.013029 -0.027746 -543831.000000 0 0 1
24.393524 -21.356799 9.837062 33.881037 -0.719119 1.276213 -0.008101 -0.022514 -384339.000000 0 0 1
23.876524 -22.612299 9.437062 34.212025 -0.758211 1.291332 -0.005686 -0.025590 -305964.000000 0 0 1
22.649924 -22.844799 10.095262 33.716735 -0.789682 1.266718 -0.019757 -0.011773 -276817.000000 0 0 1
21.748224 -23.785899 9.242962 33.528892 -0.830119 1.291508 -0.011639 -0.014395 -317653.000000 0 0 1
22.251824 -25.106879 9.262262 34.803571 -0.845611 1.301421 -0.009450 -0.012034 -77364.700000 0 0 1
22.092724 -25.868099 8.072762 34.963074 -0.863954 1.337800 0.000697 -0.003443 -269892.000000 0 0 1
20.647324 -26.376959 7.794062 34.391909 -0.906645 1.342185 -0.009527 0.014419 558140.000000 0 0 1
19.721024 -25.313209 7.595062 32.975177 -0.908942 1.338383 -0.014842 0.015526 -635703.000000 0 0 1
18.399824 -25.786179 7.516162 32.557231 -0.951032 1.337835 -0.006855 -0.000718 472024.000000 0 0 1
17.363624 -24.592899 7.519762 31.029872 -0.956027 1.326020 -0.008538 -0.005278 112865.000000 0 0 1
17.295624 -23.945799 6.297962 30.202719 -0.945272 1.360732 0.006878 0.001420 106652.000000 0 0 1
16.245624 -23.003899 6.359262 28.871091 -0.955914 1.348711 0.028531 -0.004345 -75590.300000 0 0 1
16.066524 -22.217599 5.048362 27.879040 -0.944706 1.388711 0.033927 -0.001459 -216794.000000 0 0 1
15.048724 -21.256399 5.091662 26.537212 -0.954747 1.377730 0.048433 -0.004520 -265596.000000 0 0 1
14.978424 -20.720299 3.828962 25.852368 -0.944875 1.422141 0.052898 -0.002362 -36284.200000 0 0 1
14.128324 -19.481799 3.861962 24.373445 -0.943353 1.411676 0.057501 0.006550 -641984.000000 0 1 0
14.793524 -18.381299 4.463662 24.013430 -0.893127 1.383827 0.041739 0.000951 -41248.500000 0 1 0
14.213924 -17.126699 4.235562 22.656113 -0.878071 1.382740 0.026160 0.006725 -736891.000000 0 1 0
15.203224 -16.016899 4.341562 22.506183 -0.811455 1.376674 0.012324 0.005892 -1304390.000000 0 1 0
15.433324 -15.631399 5.669962 22.686485 -0.791774 1.318192 0.017949 -0.006957 564011.000000 0 1 0
16.538924 -14.751299 5.850362 22.920811 -0.728330 1.312698 0.025841 -0.008345 508790.000000 0 1 0
17.980424 -15.206799 5.546962 24.193205 -0.702017 1.339461 0.024376 -0.016738 36000.800000 0 1 0
18.953424 -14.152499 5.461062 24.276506 -0.641385 1.343902 0.038987 -0.021943 601301.000000 0 1 0
20.231624 -14.701499 5.163662 25.536564 -0.628395 1.367186 0.045206 -0.023199 794748.000000 0 0 1
21.389524 -13.641699 4.999362 25.857326 -0.567733 1.376227 0.045226 -0.026597 427962.000000 0 0 1
21.574724 -12.881199 6.152662 25.869853 -0.538248 1.330664 0.068916 -0.034277 406357.000000 0 0 1
22.554524 -11.848999 6.044162 26.184676 -0.483721 1.337868 0.072838 -0.039434 75904.500000 0 0 1
22.675224 -10.952299 7.293262 26.216604 -0.449961 1.288885 0.086212 -0.042123 -240246.000000 0 0 1
23.153424 -11.607999 8.473462 27.251170 -0.464728 1.254615 0.094922 -0.025268 367067.000000 0 0 1
23.089724 -10.818899 9.672662 27.271677 -0.438180 1.208227 0.109901 -0.039965 -346620.000000 0 0 1
23.534624 -11.664799 10.824262 28.409694 -0.460157 1.179912 0.086659 -0.037824 -983262.000000 0 0 1
22.666024 -12.656899 11.196762 28.272128 -0.509276 1.163601 0.092804 -0.046569 -591115.000000 0 0 1
23.119024 -13.644899 12.049562 29.425576 -0.533184 1.148898 0.082484 -0.042174 -669274.000000 0 0 1
22.119724 -14.795799 12.267162 29.303262 -0.589545 1.138862 0.058919 -0.041011 -535684.000000 0 0 1
20.946524 -14.277299 12.819162 28.406497 -0.598275 1.102602 0.042162 -0.031851 -258616.000000 0 0 1
19.977824 -15.325499 12.926762 28.303455 -0.654372 1.096491 0.010038 -0.026900 646461.000000 0 0 1
18.583124 -14.924399 13.501262 27.392595 -0.676638 1.055400 0.020971 -0.022582 305949.000000 0 0 1
18.624724 -14.642099 14.825962 27.947819 -0.666248 1.011621 0.018976 -0.037741 117649.000000 0 0 1
18.519324 -13.288599 15.226562 27.411684 -0.622410 0.981860 0.041907 -0.044713 487681.000000 0 0 1
17.076024 -12.662599 15.253362 26.164806 -0.638066 0.948414 0.052719 -0.043769 747284.000000 0 0 1
16.323424 -12.645999 14.031762 24.965292 -0.659132 0.973933 0.049305 -0.053969 -511103.000000 0 1 0
14.962624 -12.487399 14.214862 24.122139 -0.695469 0.940620 0.081865 -0.048070 -578584.000000 0 1 0
14.355824 -11.028799 14.267062 23.049364 -0.655076 0.903355 0.055298 -0.045761 -463464.000000 0 1 0
14.874624 -10.288599 15.281562 23.677750 -0.605126 0.869253 0.040531 -0.035184 -124236.000000 0 1 0
14.467624 -8.932099 15.307262 22.878086 -0.553105 0.837827 0.034491 -0.027441 -786681.000000 0 1 0
15.154024 -8.107799 16.422862 23.771648 -0.491274 0.808120 0.049799 -0.016858 74083.800000 0 1 0
16.543524 -7.947299 16.261962 24.521402 -0.447835 0.845745 0.057947 -0.034046 165575.000000 0 1 0
17.354524 -8.933899 16.904062 25.821336 -0.475408 0.857070 0.074111 -0.028191 -780266.000000 0 0 1
18.807724 -8.884299 16.458862 26.524619 -0.441304 0.901400 0.061137 -0.025629 -1226550.000000 0 0 1
19.354624 -7.797099 17.086762 26.969495 -0.382965 0.884652 0.064783 -0.028771 -32313.600000 0 0 1
20.590524 -7.570599 16.410162 27.396662 -0.352332 0.928565 0.060866 -0.018352 416449.000000 0 0 1
21.269524 -6.177299 16.710262 27.744991 -0.282654 0.924442 0.054346 -0.009249 424217.000000 0 0 1
22.005824 -6.000999 17.935762 29.016545 -0.266227 0.904445 0.060889 -0.005389 372158.000000 0 0 1
22.481424 -4.710899 18.086662 29.235840 -0.206558 0.903777 0.049826 -0.011506 -142318.000000 0 0 1
-5.719401 -33.287069 -6.182085 34.335968 1.400637 1.751830 0.013019 -0.002254 -175952.000000 0 0 1
-6.116801 -31.965569 -6.449385 33.178418 1.381726 1.766427 0.020831 -0.014524 -62170.600000 0 0 1
-5.705301 -31.120769 -5.423185 32.100836 1.389482 1.740553 0.024390 -0.017870 -386926.000000 0 0 1
-6.469301 -29.782569 -5.502785 30.969888 1.356901 1.749427 0.033190 -0.019973 1065360.000000 0 0 1
-7.864301 -29.809169 -5.200285 31.264625 1.312852 1.737904 0.029014 -0.020336 957420.000000 0 0 1
-8.801101 -30.312569 -6.158385 32.159555 1.288221 1.763481 0.027491 -0.015405 545860.000000 0 0 1
-10.297901 -30.328169 -5.740985 32.539261 1.243462 1.748157 0.024583 -0.013914 211445.000000 0 0 1
-11.187601 -30.881669 -6.626885 33.507544 1.223230 1.769882 0.026835 -0.014975 -331255.000000 0 0 1
-12.529201 -30.718069 -6.180485 33.745801 1.183518 1.754984 0.034472 -0.010428 489759.000000 0 0 1
-13.574901 -31.032369 -7.270085 34.643037 1.158434 1.782225 0.042129 -0.013042 -14803.000000 0 0 1
-13.778501 -29.961469 -8.148785 33.969684 1.139762 1.813043 0.054807 -0.015985 -345264.000000 0 0 1
-14.828001 -30.245669 -9.016185 34.870643 1.114977 1.832328 0.077894 -0.015315 -343305.000000 0 0 1
-14.882401 -29.270669 -10.224985 34.391980 1.100419 1.872667 0.076656 -0.014303 -29170.200000 0 0 1
-15.300901 -27.905669 -10.044985 33.372828 1.069253 1.876530 0.075049 -0.016106 341955.000000 0 0 1
-14.215501 -27.142069 -9.592585 32.105920 1.088334 1.874210 0.066621 -0.010661 -311020.000000 0 0 1
-14.597701 -25.646169 -9.415385 30.975286 1.053335 1.879648 0.058271 -0.005068 -47039.800000 0 0 1
-14.959001 -25.048569 -10.658885 31.061461 1.032438 1.921070 0.070190 -0.008567 438300.000000 0 0 1
-15.418301 -23.681769 -10.539285 30.160019 0.993675 1.927776 0.055914 0.003093 -149882.000000 0 0 1
-15.971901 -23.041369 -11.820685 30.425892 0.964660 1.969808 0.055684 0.011280 -1164450.000000 0 0 1
-17.192701 -23.525069 -12.218985 31.596225 0.939681 1.967872 0.058871 0.001713 -816142.000000 0 0 1
-17.621701 -23.059069 -13.489785 32.003427 0.918270 2.005907 0.056605 -0.011258 1006830.000000 0 0 1
-19.094201 -23.565669 -13.868885 33.350791 0.889834 1.999672 0.055583 0.004900 1216030.000000 0 0 1
-19.230901 -24.978769 -14.129885 34.545913 0.914687 1.992174 0.071579 -0.001235 53399.300000 0 0 1
-19.193901 -25.759169 -13.005385 34.656611 0.930420 1.955478 0.076997 -0.003675 -1252620.000000 0 0 1
-19.420401 -27.297269 -13.312785 36.048899 0.952433 1.949050 0.074963 -0.010750 173529.000000 0 0 1
-18.393401 -28.004569 -13.996985 36.311000 0.989656 1.966519 0.080047 -0.014155 371170.000000 0 0 1
-17.095401 -27.847669 -13.446685 35.334951 1.020226 1.961186 0.089759 -0.019283 -678192.000000 0 0 1
-16.162401 -28.973369 -13.914885 35.976428 1.061957 1.967931 0.083880 -0.020215 -369142.000000 0 0 1
-15.953001 -28.973769 -15.318085 36.450258 1.067491 2.004513 0.080172 -0.015141 -373163.000000 0 0 1
-15.242001 -30.085369 -15.732685 37.215124 1.101863 2.007274 0.082043 -0.013112 -116067.000000 0 0 1
-16.051001 -31.453069 -15.803085 38.686790 1.098930 1.991593 0.079163 -0.018049 375716.000000 0 0 1
-16.437501 -31.895969 -14.495385 38.699619 1.094946 1.954720 0.078403 -0.018346 79090.800000 0 0 1
-16.737001 -33.252869 -14.353985 39.898840 1.104492 1.938806 0.051669 -0.014090 -1375790.000000 0 0 1
-17.213801 -33.660969 -12.934385 39.958405 1.098080 1.900430 0.061248 -0.008853 897461.000000 0 0 1
-18.596001 -33.370669 -12.621085 40.233128 1.062399 1.889882 0.067106 -0.010998 1185590.000000 0 0 1
-19.033601 -32.032169 -12.735085 39.376646 1.034650 1.900135 0.072768 -0.015551 -980603.000000 0 0 1
-18.486501 -31.076069 -11.645585 37.988057 1.034151 1.882372 0.081604 -0.016547 -142298.000000 0 0 1
-19.036301 -31.387169 -10.357185 38.141925 1.025612 1.845793 0.072989 -0.024100 408756.000000 0 0 1
-18.705001 -30.385869 -9.423785 36.905092 1.018998 1.829008 0.076685 -0.017823 -138730.000000 0 0 1
-19.133201 -30.622869 -7.947985 36.973098 1.012340 1.787454 0.047101 -0.014358 293907.000000 0 0 1
-18.235401 -31.479769 -7.233585 37.092189 1.045756 1.767070 0.069675 -0.020772 425147.000000 0 0 1
-18.548601 -31.365669 -5.838485 36.904522 1.036749 1.729669 0.054331 -0.028106 -232713.000000 0 0 1
-17.717701 -32.238869 -4.917885 37.113976 1.068279 1.703695 0.061423 -0.021121 -737612.000000 0 0 1
-16.363401 -31.970369 -4.723985 36.224045 1.097729 1.701579 0.032343 -0.022499 -180020.000000 0 0 1
-16.017401 -32.438769 -3.433885 36.340370 1.112142 1.665430 0.031668 -0.013851 -634764.000000 0 0 1
-14.850201 -31.721269 -2.810085 35.137786 1.132955 1.650855 0.020851 -0.005854 -794904.000000 0 0 1
-13.589701 -32.193569 -3.175585 35.088320 1.171364 1.661423 0.026108 -0.009043 -316924.000000 0 0 1
-12.560001 -31.554869 -2.436585 34.049968 1.191983 1.642417 0.019825 -0.000537 864628.000000 0 0 1
-11.097101 -32.071469 -2.498785 34.028939 1.237679 1.644294 0.021306 -0.009733 174769.000000 0 0 1
-11.010101 -33.296969 -1.737885 35.113113 1.251450 1.620310 0.021970 0.004643 31941.000000 0 0 1
-9.689701 -33.756369 -1.500085 35.151572 1.291264 1.613484 0.037323 0.001030 516892.000000 0 0 1
-8.809201 -32.961869 -0.478085 34.122066 1.309645 1.584808 0.046118 -0.002599 -225167.000000 0 0 1
-9.310701 -32.966869 0.849215 34.266964 1.295539 1.546011 0.053162 -0.002567 -175410.000000 0 0 1
-8.405201 -32.385169 1.764815 33.504644 1.316861 1.518098 0.040133 -0.005997 1092200.000000 0 0 1
-7.250201 -33.356269 2.210415 34.206608 1.356769 1.506132 0.050690 -0.008403 581852.000000 0 0 1
-7.915001 -34.322669 3.054115 35.355629 1.344153 1.484306 0.061118 -0.017060 207659.000000 0 0 1
-7.142901 33.502401 3.548115 34.438656 -1.360736 1.467586 0.058372 -0.015295 -614614.000000 0 0 1
-6.206301 33.794301 4.712815 34.681170 -1.389171 1.434485 0.063906 -0.023791 539859.000000 0 0 1
-4.946201 34.396401 4.398915 35.027528 -1.427975 1.444879 0.062232 -0.025306 547519.000000 0 0 1
-4.164101 -34.188069 5.550715 34.885158 1.449594 1.411003 0.046552 -0.025975 -221610.000000 0 0 1
-2.914501 -33.378269 5.248615 33.913878 1.483700 1.415409 0.057662 -0.020989 -573999.000000 0 0 1
-3.072801 -32.064369 4.721815 32.555513 1.475256 1.425244 0.046712 -0.017154 -63953.100000 0 0 1
-3.304901 -32.018169 3.309215 32.357942 1.467941 1.468348 0.047404 -0.016371 -354655.000000 0 0 1
-3.928301 -30.681469 2.950515 31.072329 1.443454 1.475697 0.026104 -0.024543 -329005.000000 0 0 1
-3.057701 -29.597369 3.143115 29.920444 1.467852 1.465553 0.010447 -0.013079 -206143.000000 0 0 1
-3.508801 -28.410369 2.460215 28.731749 1.447914 1.485064 0.016554 -0.016918 37180.800000 0 0 1
-2.596201 -27.188369 2.584715 27.434074 1.475596 1.476441 0.002857 -0.013607 -564599.000000 0 0 1
-2.954301 -26.161569 1.716315 26.383733 1.458347 1.505698 0.006348 -0.010828 -273505.000000 0 0 1
-2.920401 -24.882869 2.373415 25.165831 1.453965 1.476345 -0.001799 -0.007755 -45724.400000 0 0 1
-4.131601 -24.574269 3.281215 25.134264 1.404227 1.439875 -0.002548 -0.001018 -319459.000000 0 0 1
-4.087601 -25.194269 4.536615 25.923745 1.409955 1.394892 0.017784 -0.007582 -229424.000000 0 0 1
-5.016301 -24.613669 5.410815 25.695776 1.369748 1.358636 0.006765 -0.004373 -541367.000000 0 0 1
-5.562501 -25.560469 6.450315 26.942264 1.356516 1.329036 0.024740 -0.009377 -19113.800000 0 0 1
-4.651501 -25.953369 7.498215 27.412352 1.393454 1.293731 0.021219 -0.013611 288051.000000 0 0 1
-5.196601 -26.986269 8.318515 28.713430 1.380560 1.276874 0.022584 -0.013851 198664.000000 0 0 1
-4.388701 -27.249069 9.626815 29.230943 1.411109 1.235196 0.012786 -0.008807 291074.000000 0 0 1
-4.201801 -26.243169 10.599215 28.612977 1.412034 1.191320 0.021491 -0.010575 87752.500000 0 0 1
-5.458201 -25.908769 11.147615 28.728481 1.363163 1.172299 0.011851 -0.013116 271036.000000 0 0 1
-5.229901 -25.087669 12.454815 28.493252 1.365275 1.118408 0.015630 -0.006853 333937.000000 0 0 1
-4.410701 -25.735169 13.419815 29.357191 1.401057 1.096040 0.018775 -0.008644 3524.480000 0 0 1
-3.534001 -24.743069 13.995415 28.645772 1.428928 1.060348 0.001220 -0.003772 230570.000000 0 0 1
-2.456401 -25.322269 14.932515 29.499682 1.474093 1.040032 -0.000396 -0.009884 -184243.000000 0 0 1
-2.914701 -25.895269 16.141315 30.652936 1.458711 1.016220 -0.006416 -0.003445 -610830.000000 0 0 1
-1.934701 -26.541569 16.894815 31.521941 1.498032 1.005140 -0.012673 0.011957 -249291.000000 0 0 1
-2.461201 -26.897069 18.308615 32.629974 1.479546 0.975085 -0.011205 -0.000014 71526.500000 0 0 1
-2.675401 -25.733769 19.112015 32.166034 1.467204 0.934566 -0.006802 -0.004434 -169439.000000 0 0 1
-2.362001 -26.099469 20.454615 33.243836 1.480542 0.908042 -0.010199 -0.008348 174598.000000 0 0 1
-2.677901 -24.938769 21.400715 32.971260 1.463827 0.864433 0.001992 -0.013210 46995.300000 0 0 1
-2.460501 -25.176369 22.814115 34.064461 1.473375 0.836946 -0.006207 -0.014800 -282584.000000 0 0 1
-2.714601 -24.139369 23.696715 33.935417 1.458811 0.797792 0.007096 -0.015642 -401515.000000 0 0 1
-1.902901 -22.892069 23.573715 32.914858 1.487862 0.772450 0.009219 -0.016973 -538230.000000 0 0 1
-2.300501 -22.087169 22.501015 31.613779 1.467015 0.778814 0.023478 -0.015753 -262979.000000 0 0 1
-1.376501 -21.046869 22.178115 30.606114 1.505488 0.760299 0.014661 -0.018140 -468441.000000 0 0 1
-1.911701 -19.804169 21.465215 29.267989 1.474564 0.747483 0.014891 -0.009477 47753.900000 0 0 1
-2.799501 -18.954669 22.203915 29.327982 1.424162 0.711949 0.025622 -0.027721 892380.000000 0 0 1
-4.107701 -19.480469 22.473915 30.023969 1.362978 0.724950 0.035458 -0.027776 244950.000000 0 0 1
-5.245601 -19.238369 21.429815 29.272310 1.304604 0.749419 0.020743 -0.022220 -378391.000000 0 0 1
-5.252701 -19.971169 20.222015 28.902740 1.313607 0.795878 0.039754 -0.018091 -321355.000000 0 0 1
-5.589801 -21.339369 20.450415 30.080459 1.314605 0.823229 0.019975 -0.009357 -145344.000000 0 0 1
-5.338701 -22.217469 19.199115 29.844994 1.334974 0.872003 0.007306 -0.009524 -54197.200000 0 0 1
-5.912301 -23.522369 19.230015 30.952393 1.324549 0.900425 0.002832 -0.014842 -324988.000000 0 0 1
-5.468001 -24.200769 18.078615 30.698739 1.348584 0.941094 0.010581 -0.015557 -227291.000000 0 0 1
-6.081001 -25.550069 17.751315 31.700060 1.337140 0.976438 0.014868 -0.021054 517059.000000 0 0 1
-7.510001 -25.530569 17.739815 31.982982 1.284708 0.982837 0.033767 -0.022362 -201491.000000 0 0 1
-8.025201 -26.777969 17.461315 32.959991 1.279620 1.012463 0.054828 -0.030955 318995.000000 0 0 1
-9.544701 -26.804669 17.795115 33.559764 1.228712 1.011899 0.046059 -0.030195 444585.000000 0 0 1
-10.355801 -26.194569 16.770515 32.781828 1.194312 1.033774 0.058757 -0.029299 40053.500000 0 0 1
-11.753001 -26.278069 16.880015 33.370719 1.150227 1.040449 0.055570 -0.021718 233992.000000 0 0 1
-12.437501 -25.378469 17.942815 33.476899 1.115116 1.005133 0.056286 -0.017446 -621379.000000 0 0 1
-12.594901 -24.008769 17.549615 32.296153 1.087666 0.996319 0.046075 -0.013968 -64842.000000 0 0 1
-12.764601 -23.163269 18.675315 32.376527 1.067131 0.955970 0.042842 -0.007211 -207985.000000 0 0 1
-11.493101 -22.718469 19.446615 32.037338 1.102446 0.918518 0.021716 -0.011331 348030.000000 0 0 1
-10.747001 -23.779769 20.056715 32.912722 1.146331 0.915504 0.029874 -0.010373 316493.000000 0 0 1
-9.357801 -23.537869 19.923015 32.226173 1.192392 0.904314 0.031938 -0.016723 279652.000000 0 0 1
-8.421601 -24.269069 20.894315 33.113192 1.236788 0.887959 0.028115 -0.021182 -48723.400000 0 0 1
-8.521201 -23.714869 22.235815 33.607103 1.225844 0.847792 0.024471 -0.017089 454710.000000 0 0 1
-7.402501 -24.208369 22.981215 34.190326 1.274043 0.833680 0.024180 -0.015044 428931.000000 0 0 1
-7.346501 -23.976169 24.489615 35.050949 1.273471 0.797237 0.026299 -0.012377 140507.000000 0 0 1
-6.306201 -24.703669 25.137515 35.804107 1.320860 0.792476 0.025018 -0.015869 91328.700000 0 0 1
-6.212601 -24.446069 26.555915 36.625446 1.321930 0.759664 0.022445 -0.004419 -466193.000000 0 0 1
-5.009701 -25.047469 27.285915 37.376383 1.373393 0.752429 0.030944 -0.001235 267491.000000 0 0 1
-3.787901 -24.378569 26.905515 36.504377 1.416651 0.742103 0.024904 0.004490 361295.000000 0 0 1
-2.895701 -24.459769 28.016815 37.304253 1.452959 0.721167 0.018373 0.006463 680290.000000 0 0 1
-1.592701 -23.614269 27.758315 36.478685 1.503452 0.706026 0.012476 0.002265 -357740.000000 0 0 1
-1.780801 -22.214369 27.549315 35.434647 1.490803 0.680166 0.019490 -0.002332 -123368.000000 0 0 1
-0.662301 -21.480769 27.053815 34.550991 1.539974 0.671304 0.025101 -0.012198 888186.000000 0 0 1
0.548699 -21.386269 28.064815 35.288914 -1.545145 0.651315 0.012113 -0.003767 115171.000000 0 0 1
1.253899 -22.583669 28.371815 36.284353 -1.515331 0.673041 0.015778 -0.005185 118338.000000 0 0 1
1.995699 -22.402769 29.561115 37.144669 -1.481948 0.650407 0.015171 -0.007448 46005.500000 0 0 1
2.525399 -23.713069 30.234415 38.507235 -1.464698 0.667839 0.026169 -0.009349 381185.000000 0 0 1
3.406099 -24.459369 29.355515 38.361550 -1.432431 0.699394 0.030431 -0.018087 1066850.000000 0 0 1
4.120899 -25.568469 29.992015 39.626372 -1.410999 0.712286 0.009409 -0.004489 -1156950.000000 0 0 1
5.370799 -25.257869 30.832215 40.217296 -1.361278 0.697204 0.004387 -0.005511 112038.000000 0 0 1
6.494399 -24.751469 30.109315 39.514343 -1.314196 0.704424 0.013055 -0.015860 424905.000000 0 0 1
6.989299 -25.725269 29.166015 39.513241 -1.305510 0.740498 0.015490 -0.009536 -833332.000000 0 0 1
8.250699 -25.252569 28.339015 38.844125 -1.255003 0.753122 0.013732 -0.012097 492308.000000 0 0 1
7.977199 -24.315369 27.322615 37.435253 -1.253788 0.752674 0.023137 -0.013478 -204461.000000 0 0 1
9.036599 -24.123769 26.420615 36.900749 -1.212382 0.772753 0.011673 -0.012464 -277339.000000 0 0 1
8.768799 -23.003569 25.411115 35.380514 -1.206607 0.769551 0.021834 -0.010113 -215246.000000 0 0 1
7.787899 -23.157769 24.438415 34.556762 -1.246380 0.785272 0.025315 -0.006148 -363144.000000 0 0 1
7.677999 -21.980469 23.725015 33.241074 -1.234736 0.775993 0.020305 -0.000547 -35490.000000 0 0 1
6.849399 -22.206169 22.434315 32.300568 -1.271609 0.803004 0.035607 -0.003720 375000.000000 0 0 1
7.686299 -22.935869 21.562415 32.404799 -1.247437 0.842756 0.031992 0.003271 687459.000000 0 0 1
6.962599 -23.099869 20.310115 31.537002 -1.278044 0.871069 0.031927 -0.000786 268889.000000 0 0 1
7.623099 -24.031269 19.322415 31.764277 -1.263621 0.916871 0.047516 -0.012642 -87664.600000 0 0 1
8.790099 -23.548769 18.702115 31.330169 -1.213541 0.931119 0.059200 -0.015831 -457032.000000 0 0 1
9.391299 -24.521469 17.927015 31.794289 -1.205046 0.971764 0.058248 -0.017081 -370448.000000 0 0 1
10.711099 -24.169969 17.252815 31.568571 -1.153647 0.992595 0.062300 -0.017396 -286591.000000 0 0 1
10.561199 -23.199969 16.207315 30.206863 -1.143606 1.004460 0.082028 -0.006532 -775862.000000 0 0 1
11.793799 -22.719269 15.736115 30.048032 -1.091978 1.019609 0.069460 -0.021509 -123719.000000 0 0 1
-12.108801 22.847001 11.737715 28.396874 -1.083441 1.144671 0.009721 0.002171 -16299.100000 0 0 1
-13.075001 21.979201 11.161715 27.903849 -1.034150 1.159273 0.000616 0.003843 229499.000000 0 0 1
-12.512501 20.706301 10.831415 26.507228 -1.027232 1.149853 0.010015 0.001883 152687.000000 0 0 1
-13.400601 19.804601 9.907115 25.883378 -0.975920 1.178015 0.013277 0.004129 -321376.000000 0 0 1
-13.390201 20.410501 8.622515 25.888874 -0.990183 1.231251 0.014780 -0.005671 43314.900000 0 0 1
-13.930401 19.644001 7.558215 25.240235 -0.953961 1.266679 0.012120 -0.013998 -497837.000000 0 0 1
-15.452801 19.569101 7.542515 26.050495 -0.902396 1.277056 0.013368 -0.013323 -814643.000000 0 0 1
-16.081501 18.866501 8.601615 26.240185 -0.864920 1.236819 0.009224 -0.009140 -1227750.000000 0 0 1
-17.441101 18.938301 8.421915 27.088372 -0.826530 1.254651 0.007793 -0.005963 -1474030.000000 0 0 1
-18.263301 18.075701 9.364215 27.348997 -0.780236 1.221329 0.009453 -0.003561 -278294.000000 0 0 1
-18.264401 16.727601 8.947115 26.333474 -0.741508 1.224132 0.003838 -0.011527 -4934.700000 0 0 1
-18.756201 15.873501 9.987115 26.523679 -0.702346 1.184742 0.014825 -0.010411 -450317.000000 0 0 1
-17.785201 15.206301 10.968915 25.843027 -0.707388 1.132449 0.020577 -0.004277 -642614.000000 0 0 1
-16.923301 14.331101 10.323915 24.461435 -0.702649 1.135092 0.006367 0.006136 11306.200000 0 1 0
-16.273001 13.403601 11.251015 23.896703 -0.689009 1.080578 -0.001434 0.001023 508822.000000 0 1 0
-17.224201 12.314701 11.798415 24.238967 -0.620699 1.062426 0.009853 -0.002146 159130.000000 0 1 0
-17.893301 11.429201 10.894715 23.864024 -0.568420 1.096702 -0.002490 -0.003201 165423.000000 0 1 0
-18.785001 10.652401 11.681315 24.552047 -0.515854 1.074948 0.015247 -0.003236 -5437.300000 0 1 0
-19.737101 9.795601 10.799815 24.538601 -0.460686 1.115069 0.023237 -0.002210 -168930.000000 0 1 0
-19.135101 8.753601 10.039115 23.314404 -0.429043 1.125642 0.003392 -0.003085 169399.000000 0 1 0
-18.748001 9.136801 8.739215 22.612884 -0.453475 1.173995 0.013692 -0.000813 -215399.000000 0 1 0
-19.938001 9.426301 7.772515 23.383563 -0.441636 1.231957 0.026546 -0.001951 131428.000000 0 1 0
-20.536801 8.267201 7.331915 23.320887 -0.382707 1.250980 0.020286 0.001537 -84587.700000 0 1 0
-21.206701 8.407201 6.114715 23.617682 -0.377434 1.308909 0.022838 -0.000841 -156471.000000 0 1 0
-21.278101 7.061901 5.400915 23.060744 -0.320447 1.334397 0.020818 -0.000641 -478750.000000 0 1 0
-22.086601 6.086601 5.992815 23.680762 -0.268904 1.314947 0.036738 -0.007691 268704.000000 0 1 0
-21.802201 4.788201 5.484315 22.985659 -0.216188 1.329875 0.042581 -0.017566 -262190.000000 0 1 0
-22.908401 3.736601 5.774415 23.918630 -0.161687 1.326968 0.059141 -0.016070 100590.000000 0 1 0
-24.081101 4.007301 5.027315 24.924522 -0.164898 1.367701 0.073798 -0.019785 572030.000000 0 1 0
-24.950101 2.846601 5.080315 25.620700 -0.113601 1.371184 0.081924 -0.023029 -452376.000000 0 0 1
-26.056691 2.917601 4.070115 26.533552 -0.111507 1.416793 0.083759 -0.019183 -914005.000000 0 0 1
-25.605111 2.819401 2.732015 25.904336 -0.109669 1.465134 0.078452 -0.014172 197928.000000 0 0 1
-26.642141 2.849101 1.768015 26.852317 -0.106535 1.504906 0.079263 -0.012117 -366569.000000 0 0 1
-26.339431 2.843001 0.267115 26.493766 -0.107521 1.560714 0.087819 -0.011452 282366.000000 0 0 1
-25.429801 3.846701 -0.290985 25.720742 -0.150129 1.582110 0.075513 -0.017315 1207370.000000 0 0 1
-25.139711 3.825001 -1.711485 25.486563 -0.150992 1.637999 0.073820 -0.012391 -247926.000000 0 0 1
-26.248471 4.507901 -2.594485 26.758826 -0.170080 1.667907 0.082636 -0.020616 252969.000000 0 0 1
-27.448261 3.772001 -2.520885 27.820674 -0.136567 1.661533 0.078446 -0.020025 -444130.000000 0 0 1
-28.517711 4.622201 -2.809085 29.026118 -0.160684 1.667726 0.067195 -0.023869 -615219.000000 0 0 1
-29.882381 3.921601 -2.799685 30.268364 -0.130489 1.663424 0.062807 -0.027587 -878917.000000 0 0 1
-30.061251 3.025501 -3.859885 30.458680 -0.100307 1.697863 0.061998 -0.017955 -197229.000000 0 0 1
-31.148341 2.180501 -3.720585 31.445452 -0.069890 1.689393 0.068172 -0.015057 -717672.000000 0 0 1
-31.514411 1.460301 -4.981885 31.939157 -0.046304 1.727416 0.063243 -0.021237 -398622.000000 0 0 1
-30.401361 0.717901 -5.435485 30.891789 -0.023610 1.747670 0.075668 -0.014743 471807.000000 0 0 1
-30.679241 -0.142899 -6.558285 31.372717 0.004658 1.781394 0.078766 -0.008549 -322291.000000 0 0 1
-30.887841 0.553001 -7.959985 31.901816 -0.017902 1.822976 0.062049 -0.012936 2891.310000 0 0 1
-32.201741 1.086701 -7.979485 33.193451 -0.033734 1.813567 0.067144 -0.021030 465174.000000 0 0 1
-32.491291 1.803101 -9.182085 33.811919 -0.055438 1.845814 0.057683 -0.017390 450940.000000 0 0 1
-33.975561 2.296301 -9.254985 35.288334 -0.067484 1.836168 0.051122 -0.013519 514211.000000 0 0 1
-34.280481 3.100001 -8.138485 35.369426 -0.090185 1.802976 0.051466 -0.009319 -886485.000000 0 0 1
35.574616 2.991601 -7.846185 36.552231 0.083896 1.787137 0.044330 0.000274 -1206210.000000 0 0 1
35.072184 3.861901 -6.700485 35.914745 0.109671 1.758462 0.046785 -0.007246 -452132.000000 0 0 1
33.717824 3.638601 -6.419085 34.515732 0.107497 1.757861 0.037392 -0.010487 -75546.000000 0 0 1
33.346004 4.244001 -5.198685 34.014613 0.126591 1.724235 0.037286 -0.009826 39216.100000 0 0 1
32.029444 3.786001 -4.533785 32.569530 0.117658 1.710453 0.036727 -0.010056 58021.300000 0 0 1
32.112414 2.496401 -3.912785 32.446095 0.077583 1.691684 0.033672 -0.013907 -212439.000000 0 0 1
30.927094 1.812301 -4.207485 31.264557 0.058532 1.705783 0.048286 -0.016440 -758027.000000 0 0 1
30.881004 0.351501 -3.747085 31.109494 0.011382 1.691538 0.062654 -0.018782 190498.000000 0 0 1
31.958054 -0.463199 -4.226185 32.239610 -0.014493 1.702261 0.042636 -0.018055 594312.000000 0 0 1
31.790724 -1.739999 -3.640485 32.045762 -0.054678 1.684645 0.048991 -0.014203 303032.000000 0 0 1
33.118194 -2.547899 -3.688585 33.420237 -0.076782 1.681391 0.032343 -0.011016 287169.000000 0 0 1
33.022514 -3.809799 -3.013685 33.377887 -0.114862 1.661209 0.027170 -0.017576 -99037.000000 0 0 1
34.200444 -4.561599 -3.175585 34.649140 -0.132596 1.662575 0.044497 -0.019645 -76457.500000 0 0 1
33.938464 -6.035599 -2.783985 34.583210 -0.175999 1.651385 0.043852 -0.018855 5100.950000 0 0 1
33.753924 -6.061799 -1.393385 34.322214 -0.177694 1.611405 0.048957 -0.018956 -93559.900000 0 0 1
33.798734 -7.358499 -0.981485 34.604411 -0.214370 1.599163 0.053119 -0.020747 -9737.250000 0 0 1
33.206574 -7.616099 0.439015 34.071605 -0.225456 1.557911 0.051392 -0.012666 -215850.000000 0 0 1
31.811784 -7.789699 0.416215 32.754271 -0.240143 1.558089 0.047983 -0.014045 -60145.700000 0 0 1
31.217574 -7.794499 1.749115 32.223447 -0.244680 1.516489 0.055690 -0.027180 -84109.800000 0 0 1
31.064754 -9.181899 2.354215 32.478740 -0.287390 1.498248 0.066613 -0.026152 -249744.000000 0 0 1
30.144604 -10.056099 1.701915 31.823243 -0.321986 1.517291 0.068696 -0.032504 519763.000000 0 0 1
28.896244 -9.934299 2.411815 30.651266 -0.331134 1.492029 0.070595 -0.038193 -266769.000000 0 0 1
27.811534 -10.907999 1.768715 29.926481 -0.373774 1.511660 0.069466 -0.036310 -43231.800000 0 0 1
26.573384 -10.855399 2.451715 28.809640 -0.387818 1.485593 0.085851 -0.034982 710980.000000 0 0 1
25.768924 -9.662099 2.239215 27.611731 -0.358728 1.489611 0.086771 -0.036095 -130251.000000 0 0 1
24.943224 -9.578399 0.931715 26.735337 -0.366645 1.535940 0.064987 -0.029173 -403079.000000 0 0 1
25.886124 -9.637799 -0.146985 27.622458 -0.356415 1.576118 0.060080 -0.034660 321966.000000 0 0 1
25.516124 -10.019799 -1.478685 27.452787 -0.374184 1.624685 0.056293 -0.017391 -257875.000000 0 0 1
24.871224 -11.433099 -1.758685 27.429665 -0.430884 1.634957 0.043084 -0.010252 789814.000000 0 0 1
23.588724 -11.611299 -1.138885 26.316292 -0.457420 1.614087 0.058608 -0.005825 565813.000000 0 0 1
22.967624 -12.801199 -1.564285 26.340643 -0.508475 1.630218 0.042059 -0.004811 -1004880.000000 0 0 1
21.491424 -12.973699 -1.330185 25.138965 -0.543113 1.623734 0.035319 -0.003956 -831839.000000 0 0 1
20.663624 -12.454299 -2.355885 24.241393 -0.542414 1.668134 0.035898 0.001994 -551873.000000 0 1 0
19.326024 -12.470499 -1.986585 23.085820 -0.573043 1.656955 0.033069 -0.000599 -592841.000000 0 1 0
18.423724 -11.934099 -3.121885 22.172111 -0.574797 1.712068 0.036818 0.001863 -61201.600000 0 1 0
18.449224 -12.770999 -4.280585 22.842848 -0.605488 1.759304 0.042128 -0.005040 562418.000000 0 1 0
17.597024 -12.199899 -5.284385 22.054876 -0.606211 1.812752 0.040872 -0.007139 -329.783000 0 1 0
17.754024 -12.926899 -6.654085 22.947483 -0.629344 1.864992 0.043549 -0.014772 -442107.000000 0 1 0
16.927724 -14.058999 -6.825385 23.038863 -0.693082 1.871566 0.047335 -0.020016 227963.000000 0 1 0
17.098824 -14.624999 -8.108585 23.916721 -0.707576 1.916686 0.051306 -0.025807 -549319.000000 0 1 0
16.099524 -15.750899 -8.444085 24.053858 -0.774453 1.929488 0.047316 -0.025355 -195987.000000 0 1 0
14.785624 -15.220499 -8.511485 22.863151 -0.799890 1.952260 0.045290 -0.019986 791326.000000 0 1 0
13.778524 -16.090099 -9.059385 23.039346 -0.862636 1.974920 0.036712 -0.021649 334744.000000 0 1 0
13.749224 -16.253599 -10.648885 23.803769 -0.868676 2.034609 0.036729 -0.021555 -769389.000000 0 1 0
13.282424 -15.190199 -11.481985 23.216394 -0.852302 2.088129 0.036515 -0.014404 159452.000000 0 1 0
13.698024 -13.879299 -11.172185 22.474175 -0.791971 2.091064 0.041406 -0.003882 -187731.000000 0 1 0
13.528924 -12.781199 -12.268285 22.291291 -0.756986 2.153594 0.048591 -0.002437 -737402.000000 0 1 0
14.645324 -12.802199 -13.071285 23.435877 -0.718348 2.162465 0.047354 -0.005997 -581761.000000 0 1 0
14.451424 -12.148599 -14.293585 23.679922 -0.699041 2.218825 0.053423 -0.005765 -531620.000000 0 1 0
15.769924 -11.987599 -15.044885 24.874517 -0.649969 2.220350 0.052609 -0.010276 -454021.000000 0 1 0
16.314724 -13.213799 -15.442685 26.062449 -0.680767 2.204988 0.048131 -0.009740 -162899.000000 0 0 1
17.362624 -12.989199 -16.381985 27.176266 -0.642292 2.217808 0.049846 -0.003524 -164599.000000 0 0 1
18.267124 -14.242299 -16.325685 28.338294 -0.662220 2.184745 0.036926 -0.000604 -640470.000000 0 0 1
19.016624 -14.191699 -15.149485 28.152144 -0.641115 2.139012 0.031463 -0.010616 -262890.000000 0 0 1
19.981624 -15.237599 -15.128685 29.331329 -0.651504 2.112721 0.026644 -0.001459 176930.000000 0 0 1
20.995724 -15.027899 -13.950885 29.347664 -0.621225 2.066176 0.019658 -0.013428 -18958.200000 0 0 1
21.733624 -13.872299 -14.244685 29.456785 -0.568097 2.075535 0.016842 -0.002913 -66449.000000 0 0 1
22.668924 -13.581099 -13.215285 29.546068 -0.539762 2.034515 0.007270 -0.007203 384229.000000 0 0 1
23.321624 -12.163699 -13.310985 29.479418 -0.480749 2.039281 0.014966 0.001487 -128789.000000 0 0 1
22.593324 -11.096199 -12.714885 28.200217 -0.456524 2.038546 0.020477 0.003143 226792.000000 0 0 1
23.166124 -9.818999 -12.936885 28.292138 -0.400898 2.045709 0.034547 -0.000603 2960.900000 0 0 1
24.286124 -9.350099 -11.972085 28.645611 -0.367507 2.001971 0.030328 -0.002066 -253587.000000 0 0 1
25.505524 -9.994599 -12.143585 29.964820 -0.373470 1.988061 0.008976 0.002134 -552362.000000 0 0 1
26.451414 -9.552999 -11.200585 30.271938 -0.346576 1.949804 0.004319 0.004005 -22995.300000 0 0 1
27.838344 -10.225699 -11.391785 31.769657 -0.352024 1.937537 -0.006041 0.006916 149319.000000 0 0 1
28.485594 -9.858299 -12.585285 32.665036 -0.333179 1.966311 -0.006976 0.001736 -732142.000000 0 0 1
29.635944 -10.571999 -12.823085 33.977756 -0.342657 1.957780 -0.016973 0.005343 -710743.000000 0 0 1
30.368794 -10.112099 -14.121085 34.984615 -0.321430 1.986285 -0.011094 0.010747 182691.000000 0 0 1
29.558374 -10.460799 -15.230985 34.858410 -0.340148 2.022989 -0.026130 0.012470 736131.000000 0 0 1
30.283034 -10.139499 -16.421285 35.910030 -0.323092 2.045741 -0.022258 0.008255 -49932.500000 0 0 1
29.847434 -10.861399 -17.694285 36.358315 -0.349001 2.079063 -0.028915 0.018099 102287.000000 0 0 1
28.651204 -10.488299 -18.359585 35.608571 -0.350917 2.112498 -0.017183 0.017026 407421.000000 0 0 1
28.715554 -9.226099 -19.031685 35.663833 -0.310875 2.133696 -0.016337 0.016151 407374.000000 0 0 1
27.282134 -8.835899 -19.541885 34.702640 -0.313211 2.168958 -0.041442 0.019916 689410.000000 0 0 1
26.834434 -9.616099 -20.668385 35.209919 -0.344093 2.198150 -0.033847 0.027281 1508150.000000 0 0 1
25.402424 -9.365299 -20.709785 34.086466 -0.353216 2.223789 -0.010737 0.036120 1293790.000000 0 0 1
24.685824 -9.864099 -21.981385 34.494517 -0.380149 2.261712 -0.006805 0.023637 32512.300000 0 0 1
24.748724 -11.236899 -22.314485 35.166796 -0.426208 2.258200 -0.014135 0.027595 -124117.000000 0 0 1
23.915924 -11.452199 -23.426285 35.382413 -0.446587 2.294398 -0.002356 0.020495 -1429850.000000 0 0 1
24.006724 -12.807199 -24.153085 36.382945 -0.490074 2.296761 -0.011614 0.027729 27077.900000 0 0 1
25.154624 -13.115699 -24.916985 37.757553 -0.480623 2.291509 -0.006394 0.024121 -128938.000000 0 0 1
26.338444 -13.075699 -24.147985 38.050135 -0.460803 2.258334 -0.014899 0.023053 -1023550.000000 0 0 1
27.572144 -13.788699 -24.724085 39.517487 -0.463724 2.246760 -0.019566 0.019515 -36056.700000 0 0 1
28.104124 -13.101099 -25.806995 40.342058 -0.436213 2.264910 -0.004253 0.005765 -37725.900000 0 0 1
29.481264 -13.375499 -25.981705 41.510215 -0.425922 2.247096 -0.011829 0.000346 222757.000000 0 0 1
30.106894 -12.719299 -27.236735 42.544628 -0.399727 2.265545 0.001251 -0.002986 -6389.200000 0 0 1
29.722494 -13.410999 -28.407615 43.246667 -0.423857 2.287462 0.017971 -0.003980 -87660.900000 0 0 1
30.438414 -13.028499 -29.511765 44.352938 -0.404433 2.298805 0.013867 -0.008707 -444886.000000 0 0 1
30.289274 -14.018099 -30.727505 45.366583 -0.433453 2.314904 0.014094 -0.011442 411015.000000 0 0 1
31.042794 -15.246899 -30.519235 46.125337 -0.456549 2.293825 0.006134 -0.015653 235391.000000 0 0 1
31.411484 -15.926999 -31.722605 47.399096 -0.469267 2.304017 -0.003817 -0.010712 148637.000000 0 0 1
30.352324 -16.610699 -32.659915 47.579922 -0.500739 2.327354 -0.014001 -0.003095 310593.000000 0 0 1
29.676704 -15.684599 -33.522745 47.439307 -0.486199 2.355542 -0.021450 0.001080 550689.000000 0 0 1
28.529904 -16.324799 -34.100273 47.363310 -0.519727 2.374559 -0.016363 0.001447 434369.000000 0 0 1
27.694314 -15.369499 33.790893 46.314372 -0.506651 0.753062 0.001868 0.002590 -282470.000000 0 0 1
27.002834 -14.391499 -34.246375 45.924749 -0.489669 2.412391 0.006545 -0.006890 123681.000000 0 0 1
27.780124 -13.229499 -33.982015 45.842473 -0.444445 2.405769 0.012976 -0.013433 63446.100000 0 0 1
26.860354 -12.017599 -33.654645 44.704994 -0.420698 2.423126 0.020700 -0.013697 677660.000000 0 0 1
26.171674 -11.440299 33.981384 44.391119 -0.412096 0.698979 0.016153 -0.007058 218323.000000 0 0 1
25.734124 -10.177999 34.379795 44.133968 -0.376626 0.677747 0.017683 -0.015701 -54535.800000 0 0 1
19.771899 -29.701069 9.657115 36.964055 -0.983466 1.306472 0.008446 -0.001024 19366.800000 0 0 1
20.356099 -29.376269 8.401715 36.714095 -0.964822 1.339909 -0.000239 -0.005541 99347.500000 0 0 1
21.610099 -29.996669 8.223315 37.873731 -0.946499 1.351929 0.022678 -0.005872 82802.100000 0 0 1
22.017199 -29.879069 6.743015 37.722461 -0.935747 1.391077 0.022629 -0.012288 -16058.000000 0 0 1
22.321699 -28.528069 6.320415 36.770323 -0.906851 1.398049 0.020293 -0.007778 55944.400000 0 0 1
23.115899 -28.505769 5.154915 37.060718 -0.889432 1.431250 0.026476 -0.006935 -214777.000000 0 0 1
23.431299 -27.122669 4.587615 36.134626 -0.858287 1.443494 0.015498 -0.012426 -114700.000000 0 0 1
24.209499 -26.289369 5.402115 36.144344 -0.826561 1.420775 0.021244 -0.015678 -85190.800000 0 0 1
24.147899 -24.955169 4.907415 35.070846 -0.801837 1.430407 0.014639 -0.010032 -139500.000000 0 0 1
24.924999 -23.944869 5.764015 35.040494 -0.765345 1.405549 0.001924 -0.007663 987021.000000 0 0 1
26.356899 -24.153369 5.734915 36.207190 -0.741800 1.411735 -0.003333 0.004170 817869.000000 0 0 1
27.174999 -23.274469 6.472515 36.360349 -0.708236 1.391832 0.008454 0.002511 -148011.000000 0 0 1
26.893699 -21.735669 6.617315 35.206523 -0.679725 1.381715 0.000710 0.005605 -601275.000000 0 0 1
27.100699 -20.948269 5.404415 34.676874 -0.658046 1.414308 0.002793 0.013377 43293.200000 0 0 1
26.808599 -19.577569 5.589115 33.663339 -0.630755 1.403994 0.007736 0.002351 -165242.000000 0 0 1
26.674999 -18.692669 4.273715 32.851729 -0.611233 1.440336 0.005991 0.006459 -592362.000000 0 0 1
27.929499 -18.589769 3.691315 33.752959 -0.587261 1.461214 0.031909 0.005558 -582928.000000 0 0 1
27.979399 -17.771769 2.481415 33.239133 -0.565882 1.496073 0.029741 0.005278 -595688.000000 0 0 1
29.166599 -16.865169 2.299115 33.769963 -0.524263 1.502662 0.034121 -0.004208 -543252.000000 0 0 1
28.943699 -15.693569 3.085615 33.068820 -0.496843 1.477352 0.041614 -0.013819 167871.000000 0 0 1
30.062899 -14.842369 3.204015 33.679958 -0.458603 1.475521 0.052044 -0.017249 49196.800000 0 0 1
29.706999 -13.643669 4.128815 32.950002 -0.430540 1.445161 0.065060 -0.022721 222740.000000 0 0 1
29.526499 -14.099969 5.474415 33.175179 -0.445516 1.405023 0.063283 -0.011912 64300.000000 0 0 1
29.450299 -12.971669 6.383915 32.807601 -0.414892 1.374960 0.063571 -0.018797 -325786.000000 0 0 1
29.015499 -13.224469 7.860315 32.841594 -0.427644 1.329110 0.071385 -0.013807 -39709.400000 0 0 1
27.622899 -13.461269 8.063015 31.768578 -0.453455 1.314185 0.063459 -0.008098 299456.000000 0 0 1
27.166299 -13.452569 9.391715 31.736158 -0.459795 1.270366 0.065347 -0.004179 139235.000000 0 0 1
27.564399 -14.674469 10.290615 32.879065 -0.489207 1.252463 0.061644 -0.010967 1181990.000000 0 0 1
28.977599 -14.756769 10.644715 34.216567 -0.471018 1.254448 0.041600 -0.007165 1293400.000000 0 0 1
29.218199 -15.956469 11.359015 35.175834 -0.499855 1.241982 0.053254 -0.015914 28803.500000 0 0 1
29.779899 -15.886569 12.821315 36.105562 -0.490061 1.207768 0.053321 -0.016380 1142080.000000 0 0 1
31.179199 -15.544669 12.889915 37.147397 -0.462494 1.216433 0.031302 -0.012232 851118.000000 0 0 1
31.627899 -15.420869 14.213315 37.949249 -0.453656 1.186901 0.034749 -0.015264 82015.400000 0 0 1
33.161799 -15.282769 14.336015 39.227405 -0.431844 1.196670 0.022053 -0.016252 -30090.800000 0 0 1
33.684999 -13.979569 14.092315 39.098604 -0.393378 1.202067 0.011216 -0.013109 -776409.000000 0 0 1
34.877899 -13.794569 14.754015 40.304329 -0.376630 1.196019 -0.001741 -0.018449 -1200670.000000 0 0 1
35.545699 -12.473569 14.274015 40.284416 -0.337491 1.208598 -0.010085 -0.017348 -399806.000000 0 0 1
-34.781926 -12.751569 13.160215 39.313816 0.351399 1.229459 -0.001894 -0.018460 485926.000000 0 0 1
-34.283426 -11.502869 12.635715 38.305752 0.323720 1.234636 0.010071 -0.024279 -189201.000000 0 0 1
-33.204226 -11.664469 11.542215 37.037862 0.337828 1.253885 0.016424 -0.022082 505523.000000 0 0 1
-31.909326 -12.139469 11.891315 36.152112 0.363528 1.235632 0.000243 -0.012607 445085.000000 0 0 1
-31.839526 -13.541569 11.875815 36.580931 0.402131 1.240160 -0.002602 -0.014364 -819033.000000 0 0 1
-30.547026 -14.235469 12.270715 35.865580 0.436095 1.221613 -0.003964 -0.006207 -620837.000000 0 0 1
-29.533326 -14.244969 11.309615 34.684923 0.449416 1.238656 0.011327 -0.010469 -175102.000000 0 0 1
-28.462826 -15.088769 11.726115 34.282725 0.487454 1.221708 0.013070 -0.005298 175981.000000 0 0 1
-27.187226 -14.816669 10.901215 32.825530 0.498986 1.232272 0.029978 -0.007521 -237530.000000 0 0 1
-27.152526 -15.382069 9.600915 32.650349 0.515427 1.272332 0.027920 -0.007919 -249298.000000 0 0 1
-25.895426 -15.297769 8.989715 31.391238 0.533592 1.280353 0.034495 -0.006859 -290951.000000 0 0 1
-25.868226 -15.254569 7.440315 30.939058 0.532814 1.327933 0.046467 -0.002475 -75371.500000 0 0 1
-26.341026 -16.364569 6.696415 31.725239 0.555904 1.358121 0.056379 0.002065 195996.000000 0 0 1
-26.072026 -16.248369 5.286515 31.172220 0.557312 1.400382 0.051696 0.006922 -560970.000000 0 0 1
-26.532226 -17.472769 4.525015 32.089445 0.582362 1.429312 0.043598 0.010100 157873.000000 0 0 1
-27.943826 -17.545669 4.478915 33.298177 0.560675 1.435878 0.024744 -0.005688 -3857.810000 0 0 1
-28.486026 -18.503369 3.594515 34.157706 0.576066 1.465368 0.025033 0.002856 818296.000000 0 0 1
-30.044026 -18.659969 3.680315 35.558159 0.555781 1.467109 0.031545 -0.007549 1126850.000000 0 0 1
-30.863026 -17.635669 3.072315 35.678878 0.519138 1.484579 0.047501 -0.008737 366287.000000 0 0 1
-32.222326 -17.982669 3.270915 37.045291 0.509026 1.482386 0.057714 -0.009916 -2684.650000 0 0 1
-33.181026 -17.085769 2.498515 37.405168 0.475517 1.503951 0.032680 -0.009297 -168934.000000 0 0 1
-33.094126 -17.311069 1.076315 37.363789 0.481945 1.541986 0.028829 -0.002512 -260705.000000 0 0 1
-33.910826 -16.435369 0.363415 37.685509 0.451304 1.561153 0.042820 -0.009739 -263213.000000 0 0 1
-34.320326 -17.075269 -0.972885 38.345744 0.461667 1.596170 0.041523 -0.011588 40585.700000 0 0 1
-33.205426 -17.425769 -1.825185 37.544494 0.483280 1.619429 0.043155 -0.010221 894806.000000 0 0 1
-33.609626 -18.141869 -2.955585 38.307569 0.494964 1.648027 0.039028 -0.006391 -67782.700000 0 0 1
-32.370726 -18.792869 -3.577685 37.601006 0.525996 1.666089 0.026460 0.001596 -147075.000000 0 0 1
-32.786226 -19.595969 -4.578385 38.469472 0.538719 1.690093 0.043324 -0.022677 50959.900000 0 0 1
-31.769526 -20.465169 -5.041085 38.125300 0.572270 1.703409 0.027255 -0.011959 -531154.000000 0 0 1
-32.313226 -21.643769 -5.887585 39.335239 0.590177 1.721038 0.040163 -0.018066 91569.100000 0 0 1
-33.081226 -22.580569 -5.140485 40.381608 0.598938 1.698440 0.053784 -0.027546 276274.000000 0 0 1
-33.659026 -23.534969 -6.052985 41.514617 0.610200 1.717122 0.051979 -0.022740 355224.000000 0 0 1
-34.194726 -24.844669 -5.370985 42.607328 0.628333 1.697190 0.066043 -0.023321 -106391.000000 0 0 1
-33.120326 -25.712069 -5.047985 42.232081 0.660136 1.690612 0.058106 -0.021049 292487.000000 0 0 1
-33.626526 -26.930069 -4.447785 43.309984 0.675264 1.673674 0.048708 -0.020066 444624.000000 0 0 1
-32.466726 -27.833269 -3.980085 42.949043 0.708709 1.663599 0.039032 -0.017065 -762826.000000 0 0 1
-31.590626 -28.236069 -4.982385 42.662248 0.729386 1.687850 0.027584 -0.015381 173246.000000 0 0 1
-30.753826 -29.331769 -4.599385 42.746987 0.761735 1.678601 0.027744 -0.014012 597035.000000 0 0 1
-29.616026 -29.150969 -3.544985 41.706773 0.777485 1.655897 0.036503 -0.015419 -405774.000000 0 0 1
-30.148126 -29.051369 -2.236285 41.927229 0.766874 1.624159 0.048500 -0.017447 -541148.000000 0 0 1
-29.227726 -28.746569 -1.227185 41.013793 0.777099 1.600722 0.042935 -0.014006 -536331.000000 0 0 1
-29.771626 -28.607469 0.192515 41.288910 0.765459 1.566134 0.045789 -0.009222 -173128.000000 0 0 1
-30.166426 -29.861969 0.736115 42.453414 0.780326 1.553456 0.048585 -0.005456 83140.100000 0 0 1
-30.990626 -29.668869 1.875715 42.943906 0.763612 1.527104 0.043468 -0.001757 222989.000000 0 0 1
-31.848226 -30.896369 2.357715 44.434828 0.770229 1.517711 0.031271 -0.005254 -880025.000000 0 0 1
-32.674526 -30.489169 3.460415 44.823973 0.750814 1.493519 0.038925 -0.002313 444946.000000 0 0 1
-33.430626 -31.536369 4.069615 46.137958 0.756249 1.482476 0.024251 0.003640 -81145.600000 0 0 1
-34.436826 -32.182869 3.101915 47.236151 0.751578 1.505081 0.028419 -0.001491 -1500230.000000 0 0 1
-35.251426 -33.139569 3.737815 48.526955 0.754529 1.493694 0.012701 0.002835 78239.700000 0 0 1
35.002199 -33.714769 2.811015 48.679990 -0.766665 1.513019 0.021338 -0.002714 -140610.000000 0 0 1
33.960999 34.272401 3.541715 48.378618 0.789962 1.497523 0.000250 0.000206 -193942.000000 0 0 1
33.088299 -34.088669 4.549415 47.723894 -0.800289 1.475324 -0.009984 0.003905 926025.000000 0 0 1
32.332699 -32.894969 4.221515 46.317423 -0.794018 1.479527 -0.002062 -0.002824 24481.900000 0 0 1
31.213799 -33.039769 3.133415 45.560354 -0.813809 1.501967 0.001449 -0.001368 -617982.000000 0 0 1
31.699599 -33.340969 1.834015 46.041812 -0.810629 1.530952 0.012087 -0.002739 -708778.000000 0 0 1
30.786899 -33.064069 0.835315 45.185878 -0.821047 1.552309 0.008903 -0.005409 -1057540.000000 0 0 1
31.169999 -33.859869 -0.422285 46.024319 -0.826738 1.579972 0.029227 -0.012774 1214870.000000 0 0 1
32.339899 -33.469169 -1.171285 46.555626 -0.802556 1.595958 0.032319 -0.004170 1608430.000000 0 0 1
33.627599 -33.572969 -0.508585 47.520715 -0.784585 1.581499 0.033613 -0.001116 677550.000000 0 0 1
34.841399 -33.217069 -1.388985 48.158344 -0.761536 1.599642 0.025320 -0.004465 248243.000000 0 0 1
35.417399 -34.259569 -2.202485 49.325056 -0.768783 1.615464 0.020467 -0.009476 295320.000000 0 0 1
-34.819626 -33.763869 -3.106485 48.600982 0.770006 1.634758 0.019853 -0.015766 -317576.000000 0 0 1
-34.172026 34.023801 -4.013285 48.388561 -0.783225 1.653830 0.021526 -0.016916 734448.000000 0 0 1
-33.021626 33.290701 -3.527885 47.022809 -0.789456 1.645892 0.031656 -0.013026 554720.000000 0 0 1
-32.514426 32.520101 -4.596085 46.215461 -0.785485 1.670410 0.033745 -0.015894 -518677.000000 0 0 1
-31.236226 31.818801 -4.204785 44.786361 -0.794637 1.664820 0.043678 -0.015029 -409140.000000 0 0 1
-30.092026 32.619601 -3.897785 44.550658 -0.825681 1.658399 0.035160 -0.024691 90794.800000 0 0 1
-28.902526 31.876001 -3.826385 43.198110 -0.834282 1.659490 0.037840 -0.020282 220561.000000 0 0 1
-28.504926 31.301701 -2.437885 42.406020 -0.832128 1.628317 0.033930 -0.022926 -847521.000000 0 0 1
-29.488426 30.452301 -1.984085 42.436382 -0.801477 1.617568 0.025585 -0.018289 -740860.000000 0 0 1
-29.529426 30.330801 -0.569485 42.335196 -0.798785 1.584249 0.013800 -0.002527 -659312.000000 0 0 1
-30.845526 29.739501 -0.128785 42.847415 -0.767144 1.573802 0.006442 0.003271 -633444.000000 0 0 1
-31.015826 28.431401 -0.600185 42.079523 -0.741951 1.585060 0.006099 -0.000984 365190.000000 0 0 1
-32.382926 28.161201 -0.904485 42.924646 -0.715781 1.591869 -0.002134 -0.002160 484090.000000 0 0 1
-32.599526 26.711501 -1.246485 42.163813 -0.686449 1.600364 0.011513 0.000693 -41236.000000 0 0 1
-32.651426 25.814301 -0.168385 41.623576 -0.668984 1.574842 0.008025 0.005990 178003.000000 0 0 1
-33.107026 24.514901 -0.636485 41.200251 -0.637377 1.586246 0.024047 0.006330 -167729.000000 0 0 1
-33.161926 23.466501 0.434115 40.627312 -0.615831 1.560111 0.025046 -0.000503 -569038.000000 0 0 1
-31.950926 22.996101 0.934115 39.377086 -0.623846 1.547072 0.024301 -0.007976 -498456.000000 0 0 1
-31.572626 23.740101 2.051115 39.555406 -0.644729 1.518919 0.015293 -0.007702 -349311.000000 0 0 1
-30.068326 23.715901 2.499815 38.377041 -0.667833 1.505612 0.005897 -0.013278 79908.200000 0 0 1
-29.219926 24.420201 1.685515 38.118122 -0.696156 1.526564 0.013829 -0.015095 -424526.000000 0 0 1
-29.264426 25.820901 2.035515 39.080288 -0.722967 1.518687 0.000025 -0.013075 -504166.000000 0 0 1
-28.545826 26.780001 1.041515 39.155043 -0.753492 1.544193 -0.000667 -0.010027 878694.000000 0 0 1
-27.130526 26.570201 0.941415 37.985883 -0.774964 1.546011 -0.002689 -0.010268 402122.000000 0 0 1
-26.633626 27.469201 -0.008485 38.261039 -0.800841 1.571018 -0.000072 -0.008915 126356.000000 0 0 1
-25.313626 26.992501 -0.639685 37.010593 -0.817484 1.588081 0.005459 -0.007760 -434305.000000 0 0 1
-25.605126 26.001201 -1.655785 36.529804 -0.793073 1.616139 0.010536 -0.006334 514061.000000 0 0 1
-24.491826 25.316101 -2.276685 35.297844 -0.801946 1.635340 0.004345 -0.005145 330849.000000 0 0 1
-23.854426 24.210101 -1.516885 34.021516 -0.792798 1.615397 0.006571 -0.001649 -605307.000000 0 0 1
-24.495726 22.990101 -1.439185 33.625237 -0.753702 1.613610 0.005004 -0.005317 215142.000000 0 0 1
-23.519726 21.934101 -1.165585 32.181375 -0.750528 1.607023 0.005930 -0.015182 -191891.000000 0 0 1
-24.047826 20.517701 -0.923285 31.624776 -0.706351 1.599995 0.016010 -0.013482 -1195470.000000 0 0 1
-24.763426 20.365301 0.285215 32.063283 -0.688248 1.561901 0.009389 -0.013604 468610.000000 0 0 1
-26.041326 20.987401 0.457115 33.448925 -0.678344 1.557130 -0.001003 -0.009630 148464.000000 0 0 1
-27.076726 20.480501 -0.563785 33.954644 -0.647577 1.587401 0.005054 -0.013002 -1587850.000000 0 0 1
-27.412126 19.087801 -0.530185 33.407333 -0.608257 1.586667 0.014367 -0.015205 102489.000000 0 0 1
-28.424726 18.651201 -1.394485 34.026121 -0.580694 1.611791 0.022719 -0.005454 -301201.000000 0 0 1
-28.623126 17.120001 -1.296885 33.377533 -0.539034 1.609661 0.031259 -0.001123 -199819.000000 0 0 1
-29.368826 16.673501 -0.184885 33.772293 -0.516352 1.576271 0.046294 -0.012887 279583.000000 0 0 1
-29.368526 15.283001 -0.011185 33.107107 -0.479824 1.571134 0.054529 -0.013351 1021920.000000 0 0 1
-27.950226 14.676701 0.415015 31.572028 -0.483526 1.557651 0.067967 -0.015800 872329.000000 0 0 1
-27.687926 14.624901 1.812315 31.365482 -0.485956 1.512984 0.085458 -0.020808 649239.000000 0 0 1
-26.378026 14.178001 2.180015 30.026129 -0.493190 1.498128 0.075791 -0.016929 458416.000000 0 0 1
-26.012326 12.678501 2.044115 29.009721 -0.453520 1.500275 0.071638 -0.010458 -282990.000000 0 0 1
-26.104826 12.157601 0.749215 28.806779 -0.435851 1.544785 0.065307 -0.010873 373027.000000 0 0 1
-25.833026 10.772301 0.831215 28.001404 -0.395073 1.541107 0.073665 -0.005668 -52048.600000 0 0 1
-25.670226 10.074101 -0.525785 27.581234 -0.373975 1.589861 0.068587 -0.004622 -1068190.000000 0 0 1
-26.866326 9.896301 -1.171485 28.654993 -0.352931 1.611690 0.069863 -0.013672 -657974.000000 0 0 1
-26.733226 9.028401 -2.241085 28.305474 -0.325695 1.650054 0.071344 -0.015860 -834799.000000 0 0 1
-27.977426 8.953601 -3.072085 29.535420 -0.309730 1.674998 0.075218 -0.022922 -849078.000000 0 0 1
-27.846126 8.141001 -4.241285 29.320149 -0.284430 1.715960 0.069450 -0.016147 582046.000000 0 0 1
-29.115826 7.705301 -4.737585 30.488485 -0.258712 1.726818 0.072514 -0.019626 570208.000000 0 0 1
-11.001301 18.077501 -19.794285 28.976514 -1.024104 2.322816 0.049162 0.000077 -3951.830000 0 0 1
-11.557201 17.511001 -20.969585 29.663573 -0.987426 2.355921 0.028227 0.002016 569473.000000 0 0 1
-10.545301 17.358101 -21.994085 29.937382 -1.024870 2.395976 0.029387 -0.008951 513946.000000 0 0 1
-10.786601 16.149101 -22.917785 30.039459 -0.981914 2.438618 0.028692 -0.007524 107253.000000 0 0 1
-10.188301 14.963901 -22.357585 28.767715 -0.973033 2.460962 0.036338 -0.014351 180227.000000 0 0 1
-10.052001 14.035501 -23.442585 29.113447 -0.949291 2.506834 0.040540 -0.016931 -131546.000000 0 0 1
-9.235201 12.763701 -23.049085 27.918834 -0.944438 2.542016 0.027548 -0.006259 -805186.000000 0 0 1
-7.884001 13.026801 -22.916785 27.514252 -1.026552 2.555134 0.019765 -0.013303 -1085250.000000 0 0 1
-7.283601 11.825901 -22.500785 26.442165 -1.018766 2.588575 0.016970 -0.003534 -1387050.000000 0 0 1
-5.794601 11.790501 -22.489585 26.045628 -1.114001 2.612903 0.018649 -0.004388 -1346060.000000 0 0 1
-5.189601 11.693101 -23.737085 26.964973 -1.153096 2.647276 0.013044 -0.006598 366438.000000 0 0 1
-3.767401 11.827701 -23.641685 26.702380 -1.262433 2.658102 0.006371 -0.003125 990249.000000 0 0 1
-2.941101 11.358901 -24.910185 27.535287 -1.317436 2.701387 0.019335 -0.013750 -71495.900000 0 0 1
-2.999101 9.984101 -25.202185 27.273192 -1.278984 2.749377 0.012365 -0.005436 173067.000000 0 0 1
-2.491401 9.699301 -26.508335 28.336820 -1.319368 2.780392 0.018961 -0.003349 -250736.000000 0 0 1
-2.315801 8.182401 -26.550245 27.878847 -1.294987 2.831626 0.017752 0.001989 663967.000000 0 0 1
-1.089401 7.666101 -25.976655 27.106134 -1.429635 2.851898 0.016988 0.003951 766263.000000 0 0 1
-1.052501 6.315201 -25.688685 26.474479 -1.405653 2.897342 0.019408 0.000898 -278977.000000 0 0 1
0.290099 5.883701 -25.084005 25.766440 1.521531 2.910928 0.001024 0.006898 -86209.200000 0 0 1
0.445499 6.464401 -23.773185 24.640440 1.501989 2.875492 -0.002807 0.000277 -154221.000000 0 1 0
1.382599 5.771701 -22.981185 23.735184 1.335679 2.888860 -0.003513 -0.000796 -337592.000000 0 1 0
1.569999 6.468901 -21.613585 22.615451 1.332700 2.842825 -0.001907 0.000577 28842.600000 0 1 0
2.264899 7.680701 -21.768485 23.194609 1.284042 2.789099 -0.007906 -0.003351 -71937.800000 0 1 0
2.194299 8.363901 -20.560785 22.305059 1.314225 2.743493 0.003034 -0.007699 12158.100000 0 1 0
2.819299 9.744101 -20.728785 23.077662 1.289153 2.686496 0.000605 -0.010013 -279240.000000 0 1 0
2.612499 10.507501 -19.499085 22.303521 1.327106 2.634707 0.008580 -0.014894 229974.000000 0 1 0
3.208899 11.768301 -19.745685 23.209524 1.304595 2.588222 0.014806 -0.010425 -237709.000000 0 1 0
4.387599 12.005701 -18.796185 22.730694 1.220416 2.544382 0.012811 -0.007022 -541266.000000 0 1 0
5.500999 11.215401 -19.028085 22.762123 1.114789 2.560665 0.023604 -0.012029 -1054450.000000 0 1 0
6.310099 11.078701 -17.873185 21.954628 1.053052 2.521968 0.019833 -0.018165 -23797.800000 0 1 0
7.365099 10.012501 -18.241985 22.074077 0.936581 2.543478 0.044588 -0.030787 -384427.000000 0 1 0
6.945299 8.726501 -18.661685 21.740457 0.898569 2.602910 0.038794 -0.018196 -173584.000000 0 1 0
6.729599 8.559801 -20.050385 22.816127 0.904535 2.644099 0.039962 -0.004281 -37235.300000 0 1 0
6.418899 7.092401 -20.437085 22.564992 0.835204 2.703821 0.043147 -0.003161 384481.000000 0 1 0
7.530999 6.187701 -20.372885 22.584465 0.687792 2.695350 0.050479 -0.009749 318873.000000 0 1 0
7.239999 4.818801 -20.620285 22.379334 0.587250 2.742460 0.043199 -0.003729 -158759.000000 0 1 0
7.260299 4.413901 -22.125285 23.700690 0.546245 2.774930 0.048881 -0.009530 -1320800.000000 0 1 0
6.124799 4.814501 -22.733385 24.031217 0.666187 2.811443 0.038124 -0.011301 -1367410.000000 0 1 0
6.127899 4.383801 -24.080685 25.231890 0.620976 2.838356 0.038853 -0.012629 462281.000000 0 0 1
4.919999 5.059001 -24.831785 25.815062 0.799327 2.864704 0.024095 -0.007930 371198.000000 0 0 1
4.825999 6.412501 -25.264965 26.509034 0.925638 2.834016 0.038843 -0.008481 -54750.300000 0 0 1
4.716099 7.351701 -24.228585 25.754872 1.000421 2.795596 0.030936 -0.010936 -712390.000000 0 0 1
4.730599 8.834001 -24.643985 26.603461 1.079154 2.755387 0.031095 -0.011555 250935.000000 0 0 1
3.586699 9.278701 -25.332475 27.215676 1.201937 2.767404 0.033520 -0.008136 33483.400000 0 0 1
2.398799 9.462901 -24.594185 26.460814 1.322531 2.763734 0.019789 -0.005131 -212093.000000 0 0 1
1.222599 9.979801 -25.438265 27.353181 1.448896 2.765190 0.018130 0.001189 -286510.000000 0 0 1
1.348199 11.395901 -25.608265 28.061850 1.453038 2.720310 0.032459 -0.013073 -248828.000000 0 0 1
0.381199 11.964201 -26.420275 29.005488 1.538945 2.716187 0.042980 -0.014331 -861589.000000 0 0 1
0.443999 13.467701 -26.570385 29.791970 1.537841 2.672246 0.038304 -0.019342 -670213.000000 0 0 1
-0.066901 14.074501 -25.400455 29.039269 -1.566043 2.635599 0.032939 -0.024513 196267.000000 0 0 1
-0.154701 15.447601 -25.492515 29.808063 -1.560782 2.596776 0.046280 -0.035367 -408934.000000 0 0 1
-0.778801 16.078601 -24.274085 29.126605 -1.522397 2.556026 0.046568 -0.025263 -105481.000000 0 0 1
-1.997701 15.433201 -23.930385 28.545364 -1.442070 2.565006 0.042703 -0.024609 -12935.600000 0 0 1
-2.578901 16.138701 -22.835885 28.081774 -1.412340 2.520413 0.035283 -0.024652 -1380970.000000 0 0 1
-3.825401 15.481201 -22.235985 27.363119 -1.328549 2.519441 0.038680 -0.019308 -542100.000000 0 0 1
-5.009101 15.821701 -22.883885 28.268171 -1.264183 2.514145 0.040477 -0.020492 -625196.000000 0 0 1
-5.115701 15.109201 -24.075685 28.880737 -1.244330 2.556434 0.031780 -0.020168 -1237110.000000 0 0 1
-6.538501 15.192201 -24.668985 29.700400 -1.164373 2.550970 0.025013 -0.016855 -110824.000000 0 0 1
-6.886901 16.422901 -25.309015 30.946524 -1.173723 2.528427 0.029819 -0.020938 -138672.000000 0 0 1
-8.261601 16.305401 -25.584805 31.443638 -1.101820 2.521237 0.037870 -0.017542 -148331.000000 0 0 1
-9.017501 17.568601 -26.138785 32.759840 -1.096586 2.494585 0.041955 -0.018667 70980.600000 0 0 1
-9.415901 18.440501 -25.118985 32.552645 -1.098697 2.452215 0.036696 -0.017697 765138.000000 0 0 1
-10.626501 19.121501 -25.534785 33.624092 -1.063560 2.433216 0.038067 -0.013808 984210.000000 0 0 1
-11.103701 20.128601 -24.442685 33.554398 -1.066696 2.386852 0.022419 -0.010937 -266598.000000 0 0 1
-10.210201 21.195401 -24.264485 33.797314 -1.121881 2.371637 0.024242 -0.016029 106805.000000 0 0 1
-10.797201 22.487501 -24.433085 34.917659 -1.123161 2.345822 0.015861 -0.011732 -1130.180000 0 0 1
-10.493901 23.026901 -25.906115 36.214457 -1.143193 2.367925 0.015465 -0.009624 184319.000000 0 0 1
-11.197001 22.302001 -26.926885 36.712521 -1.105500 2.394183 0.016583 -0.011406 327627.000000 0 0 1
-11.017201 22.939401 -28.145185 37.943989 -1.123054 2.406481 0.031825 -0.008446 30136.900000 0 0 1
-11.677601 22.159901 -29.358465 38.592059 -1.085806 2.435246 0.030133 -0.007739 214580.000000 0 0 1
-10.956601 21.082001 -29.938135 38.220280 -1.091503 2.470761 0.038820 -0.013803 -19131.700000 0 0 1
-10.708101 19.950801 -29.062555 36.841960 -1.078202 2.479722 0.041740 -0.014231 121187.000000 0 0 1
-9.616501 19.000601 -29.641865 36.498494 -1.102268 2.518606 0.038528 -0.018202 -685723.000000 0 0 1
-8.328801 19.528101 -29.500065 36.345144 -1.167653 2.517792 0.032029 -0.016706 39246.900000 0 0 1
-7.286401 18.724201 -30.099575 36.189387 -1.199684 2.553002 0.032890 -0.015771 594360.000000 0 0 1
-6.890601 17.362701 -29.395445 34.828666 -1.192998 2.575497 0.036322 -0.021445 -411720.000000 0 0 1
-7.938801 16.386601 -29.492395 34.660447 -1.119650 2.588483 0.040014 -0.023966 565565.000000 0 0 1
-7.598401 15.099201 -29.012855 33.577780 -1.104566 2.614055 0.026817 -0.019213 -38963.900000 0 0 1
-8.871301 14.221301 -28.960765 33.461490 -1.013058 2.616935 0.040118 -0.010480 261860.000000 0 0 1
-9.820501 14.631301 -28.002895 33.085939 -0.979663 2.579926 0.051989 -0.010132 -198472.000000 0 0 1
-10.962401 13.813701 -27.871895 32.982345 -0.899977 2.577464 0.083589 -0.013622 204734.000000 0 0 1
-11.756801 14.411701 -26.645335 32.494513 -0.886506 2.532198 0.072341 -0.013065 32156.000000 0 0 1
-12.460101 15.591701 -27.009015 33.583361 -0.896574 2.505189 0.059202 -0.015278 -587810.000000 0 0 1
-13.435201 15.829601 -26.045585 33.308458 -0.867035 2.468586 0.046264 -0.017193 -52961.100000 0 0 1
-14.380101 16.986201 -26.474085 34.586059 -0.868294 2.442545 0.025948 -0.014655 314556.000000 0 0 1
-13.754601 18.270901 -26.402115 34.929737 -0.925496 2.427768 0.024962 -0.005139 141648.000000 0 0 1
-14.736801 19.249401 -26.651065 36.027656 -0.917403 2.403479 0.012685 0.000657 -169084.000000 0 0 1
-14.228601 20.699001 -26.561895 36.557297 -0.968573 2.384131 0.002786 -0.003163 -69133.000000 0 0 1
-15.297001 21.572301 -26.894995 37.718738 -0.953987 2.364622 -0.023161 0.007579 140291.000000 0 0 1
-14.976501 22.904401 -27.039815 38.471532 -0.991705 2.350196 -0.015230 -0.000078 -41426.100000 0 0 1
-14.576901 23.738801 -25.773405 37.951088 -1.020107 2.317362 -0.038767 -0.005311 153382.000000 0 0 1
-13.900501 24.934501 -26.087095 38.671563 -1.062228 2.311193 -0.011059 -0.014639 61192.400000 0 0 1
-13.559201 25.593801 -24.859985 38.169535 -1.083606 2.280098 0.006726 -0.017795 -53943.000000 0 0 1
-12.902801 26.972601 -25.145915 39.068152 -1.124604 2.270044 0.020778 -0.024917 -207790.000000 0 0 1
-13.806001 27.939001 -25.601995 40.331818 -1.111841 2.258525 0.027281 -0.023314 -325387.000000 0 0 1
-14.358101 28.698501 -24.565985 40.413446 -1.106902 2.224167 0.029906 -0.025727 -896721.000000 0 0 1
-15.611701 29.440801 -24.971185 41.641878 -1.083224 2.213879 0.019721 -0.024025 -959980.000000 0 0 1
-16.704201 28.589201 -25.074885 41.534595 -1.042013 2.218944 0.003878 -0.022285 -929745.000000 0 0 1
-17.896401 29.306701 -25.220495 42.605601 -1.022576 2.204276 -0.003325 -0.012541 714532.000000 0 0 1
-19.236401 28.471501 -25.284015 42.660836 -0.976609 2.205172 0.019610 0.002046 635262.000000 0 0 1
-19.648101 27.921901 -24.083385 41.781453 -0.957604 2.185129 0.027946 -0.014342 -181085.000000 0 0 1
-20.689701 26.983501 -24.293085 41.789078 -0.916659 2.191154 0.032761 -0.017589 -601845.000000 0 0 1
-21.488301 26.725301 -23.062485 41.326348 -0.893595 2.162840 0.035787 -0.025383 -694352.000000 0 0 1
-22.305401 27.836601 -22.656085 42.257608 -0.895265 2.136657 0.032017 -0.017953 178544.000000 0 0 1
-22.661301 27.659201 -21.275085 41.607634 -0.884395 2.107524 0.011751 -0.018669 -842011.000000 0 0 1
-23.724701 28.652901 -20.831685 42.635774 -0.879212 2.081277 -0.008594 -0.005931 -32372.500000 0 0 1
-24.999001 28.023701 -20.897485 42.976537 -0.842382 2.078593 -0.016479 -0.003421 145098.000000 0 0 1
-26.080251 28.934601 -20.941585 44.226017 -0.837235 2.064071 -0.003931 -0.002682 -304158.000000 0 0 1
-27.389891 28.237201 -21.247385 44.710144 -0.800629 2.066016 -0.009325 0.003015 -709038.000000 0 0 1
-27.454901 27.981601 -22.620685 45.259662 -0.794899 2.094162 -0.012924 0.003426 449782.000000 0 0 1
-28.742561 27.527401 -23.035685 45.984078 -0.763806 2.095491 -0.016297 0.009561 200493.000000 0 0 1
-28.643571 27.196001 -24.543185 46.502092 -0.759480 2.126789 -0.010005 0.011071 2682.080000 0 0 1
-28.183391 25.903301 -24.831385 45.627647 -0.743267 2.146253 0.001985 0.016377 -258376.000000 0 0 1
-28.408691 25.696801 -26.194005 46.405875 -0.735318 2.170569 0.025875 0.010924 -86479.700000 0 0 1
-28.615551 24.243601 -26.674925 46.023402 -0.702877 2.189028 0.021351 0.000288 -341574.000000 0 0 1
-27.514951 23.373101 -26.605805 44.846887 -0.704186 2.205897 0.026910 -0.009266 -154423.000000 0 0 1
-27.717941 22.200401 -27.390575 44.848474 -0.675314 2.227786 0.035971 -0.008755 309086.000000 0 0 1
-26.622711 21.110601 -27.148515 43.491011 -0.670430 2.244945 0.039535 -0.003535 302180.000000 0 0 1
-26.762661 20.417701 -25.910685 42.479244 -0.651717 2.226808 0.034565 -0.003993 283840.000000 0 0 1
-25.992201 19.215601 -25.856695 41.393266 -0.636607 2.245492 0.025292 -0.008832 -158019.000000 0 0 1
-26.861351 18.008001 -25.562075 41.221838 -0.590587 2.239679 0.027485 -0.000829 -308334.000000 0 0 1
-27.674701 17.737901 -26.671935 42.331009 -0.569982 2.252453 0.024353 -0.004016 -156190.000000 0 0 1
-28.465121 16.585601 -26.528055 42.297553 -0.527575 2.248720 0.007702 -0.008591 -79142.200000 0 0 1
-29.224471 16.094701 -27.796145 43.425048 -0.503401 2.265418 -0.002408 -0.009813 -836903.000000 0 0 1
-30.419431 16.721001 -28.053945 44.631351 -0.502599 2.250510 -0.004543 -0.004397 -673727.000000 0 0 1
-31.068911 15.970701 -29.113375 45.474489 -0.474817 2.265572 0.000795 0.004903 441104.000000 0 0 1
-32.449791 16.509801 -29.572165 46.904961 -0.470647 2.252955 0.003141 -0.003334 261641.000000 0 0 1
-33.434681 16.541001 -28.558925 46.979728 -0.459419 2.224208 -0.002840 0.003660 568387.000000 0 0 1
-34.701385 16.941501 -29.116915 48.363161 -0.454170 2.216859 -0.007543 0.004453 475196.000000 0 0 1
35.301492 16.728301 -28.201315 48.180344 0.442526 2.196081 -0.006025 0.017496 -435443.000000 0 0 1
35.068584 17.699301 -27.214485 47.788064 0.467405 2.176673 -0.004047 0.012741 47182.300000 0 0 1
33.945454 17.311501 -26.437455 46.378022 0.471600 2.177354 0.006408 0.013287 184171.000000 0 0 1
33.310384 18.412401 -25.552985 45.842701 0.504954 2.162054 0.013512 0.010868 -30666.400000 0 0 1
32.638974 19.462501 -26.189435 46.151686 0.537692 2.174219 0.017097 0.004779 -12978.700000 0 0 1
32.311784 20.503501 -25.329755 45.891627 0.565439 2.155494 0.028925 -0.001121 -689345.000000 0 0 1
31.711584 21.699601 -26.130275 46.468145 0.600097 2.167993 0.025446 -0.006615 375564.000000 0 0 1
30.392474 21.551901 -26.617575 45.789543 0.616820 2.191125 0.026093 -0.005188 -5540.960000 0 0 1
29.389434 21.789501 -25.647965 44.680413 0.637978 2.182217 0.035209 -0.005984 -467221.000000 0 0 1
27.951754 21.533001 -26.103195 43.890175 0.656407 2.207737 0.023439 -0.005018 -32348.300000 0 0 1
27.642474 20.139001 -26.290345 43.137779 0.629633 2.226164 0.030291 -0.013321 -302372.000000 0 0 1
26.340404 19.882801 -26.768795 42.493659 0.646592 2.252283 0.034745 -0.017502 -217384.000000 0 0 1
25.925424 18.402101 -26.727105 41.534360 0.617279 2.269850 0.044480 -0.017157 -331736.000000 0 0 1
26.628804 17.464601 -27.489315 42.068610 0.580479 2.282916 0.032263 -0.015445 -247651.000000 0 0 1
27.703414 16.890801 -26.765195 42.061312 0.547522 2.260538 0.031156 -0.006667 -72719.800000 0 0 1
28.549474 15.964901 -27.690125 42.856663 0.509880 2.273273 0.021316 0.004980 -119836.000000 0 0 1
28.025114 14.739901 -28.250105 42.435129 0.484194 2.299261 0.028483 0.005980 101063.000000 0 0 1
27.379374 13.743401 -27.453565 41.136473 0.465216 2.301478 0.041034 -0.003456 239935.000000 0 0 1
28.333054 12.873901 -26.559405 40.913339 0.426488 2.277279 0.031350 -0.010450 119887.000000 0 0 1
28.846514 13.592001 -25.478175 40.816679 0.440330 2.244916 0.031775 -0.001073 -135870.000000 0 0 1
29.605604 12.807501 -24.579785 40.554774 0.408294 2.221930 0.025822 -0.003596 53561.500000 0 0 1
-14.119401 -31.590469 -23.857685 42.029803 1.150481 2.174429 0.048460 0.015070 -2049.790000 0 0 1
-13.607601 -30.441769 -24.500685 41.378155 1.150436 2.204479 0.041775 -0.003579 18323.000000 0 0 1
-13.813001 -30.387069 -25.900045 42.249087 1.144150 2.230689 0.020220 0.010930 -158522.000000 0 0 1
-13.039601 -29.294269 -26.690815 41.720319 1.152004 2.264977 0.010762 0.008728 -183313.000000 0 0 1
-13.476701 -27.977269 -26.316825 40.705336 1.121894 2.273811 0.017704 0.018948 118262.000000 0 0 1
-12.775201 -26.933269 -26.969675 40.199131 1.127897 2.306221 0.005726 0.009351 -477489.000000 0 0 1
-13.263901 -25.422269 -26.648585 39.145497 1.089906 2.319592 0.007795 0.006353 -315011.000000 0 0 1
-12.923901 -24.970969 -25.325065 37.840923 1.093202 2.303996 0.011634 -0.008670 143207.000000 0 0 1
-13.476401 -23.717769 -25.032785 37.024131 1.054089 2.313281 0.021190 -0.006288 -381719.000000 0 0 1
-13.150601 -23.136569 -23.669985 35.616111 1.053944 2.297737 0.029518 -0.004257 -352926.000000 0 0 1
-11.795901 -22.799069 -23.563585 34.845134 1.093337 2.313440 0.029603 -0.019308 -421214.000000 0 0 1
-11.516101 -22.136869 -22.341685 33.493469 1.091102 2.301033 0.019227 -0.008200 551179.000000 0 0 1
-10.005501 -22.011369 -21.977585 32.674526 1.144156 2.308542 0.020815 -0.012554 496925.000000 0 0 1
-9.305101 -21.102169 -22.833685 32.454023 1.155490 2.351205 0.031111 -0.019294 -159299.000000 0 0 1
-7.941201 -21.229069 -22.495985 31.934392 1.212839 2.352436 0.041883 -0.014024 -549317.000000 0 0 1
-6.964201 -20.380869 -23.280085 31.715017 1.241532 2.395048 0.023093 -0.005173 -512228.000000 0 0 1
-6.945101 -18.974769 -23.083485 30.677738 1.219924 2.422571 0.038020 -0.015748 -65465.400000 0 0 1
-7.837301 -18.332469 -23.944985 31.158707 1.166802 2.447266 0.025089 -0.024062 286461.000000 0 0 1
-7.016401 -17.475969 -24.983285 31.285842 1.189007 2.495677 0.029619 -0.019355 476300.000000 0 0 1
-6.419801 -18.211169 -25.998385 32.384820 1.231878 2.502765 0.036612 -0.029128 -198038.000000 0 0 1
-5.399001 -17.437269 -26.572625 32.238362 1.270534 2.539681 0.013964 -0.018691 -267045.000000 0 0 1
-5.331501 -17.867269 -28.070025 33.698524 1.280813 2.555259 0.018965 -0.007820 -615.811000 0 0 1
-6.345101 -17.391769 -28.950415 34.363651 1.220968 2.572652 0.039103 -0.008890 56265.200000 0 0 1
-6.354601 -18.114469 -30.133875 35.729055 1.233407 2.574376 0.036920 -0.019568 363180.000000 0 0 1
-7.297801 -17.488269 -31.251335 36.547824 1.175468 2.596503 0.043237 -0.019243 519947.000000 0 0 1
-6.837401 -16.394669 -32.058365 36.650703 1.175678 2.635613 0.037874 -0.018979 -122939.000000 0 0 1
-6.524601 -15.200669 -31.350655 35.447064 1.165347 2.656080 0.027186 -0.017686 42377.600000 0 0 1
-7.153401 -13.925869 -31.996605 35.621394 1.096267 2.686548 0.025591 -0.014433 180657.000000 0 0 1
-6.602501 -13.705869 -33.311335 36.620881 1.121873 2.713181 0.035448 -0.016845 -305932.000000 0 0 1
-7.318001 -12.887269 -34.154009 37.230783 1.054354 2.732192 0.038263 -0.014931 -782323.000000 0 0 1
-7.463201 -11.368969 -33.824505 36.456138 0.989898 2.759305 0.019347 -0.013102 261686.000000 0 0 1
-6.314901 -10.526169 -33.938945 36.090583 1.030433 2.794549 0.012237 -0.014462 182991.000000 0 0 1
-5.941301 -10.314269 33.473980 35.527321 1.048190 0.341648 0.011519 -0.011058 -589025.000000 0 0 1
-4.971901 -9.156669 33.401469 34.988891 1.073358 0.302379 0.008345 -0.009619 -327137.000000 0 0 1
-4.942301 -8.590269 32.126952 33.620829 1.048709 0.299219 -0.000071 -0.002864 644709.000000 0 0 1
-3.810601 -7.715869 32.009082 33.145688 1.112068 0.262637 0.000398 -0.004089 -215623.000000 0 0 1
-4.060301 -6.693869 30.851632 31.829501 1.025560 0.248518 0.003992 -0.002125 -46840.900000 0 0 1
-5.065801 -5.721769 31.044352 31.971124 0.846131 0.241367 -0.010767 -0.006203 522896.000000 0 0 1
-6.326301 -6.296369 30.639942 31.913514 0.783027 0.283462 -0.008610 -0.001794 -480570.000000 0 0 1
-7.522601 -5.368369 30.624572 31.988644 0.619817 0.293083 -0.010730 -0.003968 -270124.000000 0 0 1
-8.584501 -5.994269 29.919952 31.699029 0.609562 0.336621 -0.009463 -0.004731 -1601680.000000 0 0 1
-9.725001 -5.277369 30.003922 31.979081 0.497190 0.353300 -0.005667 -0.005329 -1880900.000000 0 0 1
-10.779901 -5.733569 29.032342 31.495348 0.488822 0.398104 -0.000965 -0.003173 -803078.000000 0 0 1
-10.359101 -5.696969 27.715042 30.131213 0.502803 0.403196 -0.003838 0.001895 20058.400000 0 0 1
-11.144501 -6.544969 26.922172 29.863688 0.531016 0.447569 0.004094 -0.007872 -173502.000000 0 0 1
-10.861801 -6.439669 25.350862 28.321622 0.535163 0.462127 -0.000394 -0.007201 -583555.000000 0 0 1
-9.673701 -6.971669 24.875692 27.585951 0.624473 0.446990 0.004642 -0.001539 -336198.000000 0 0 1
-9.146801 -6.377569 23.640862 26.138625 0.608875 0.440727 0.003374 -0.006135 -87554.300000 0 0 1
-9.909901 -6.717169 22.302762 25.312837 0.595687 0.492645 0.008967 -0.015443 -8160.460000 0 0 1
-11.138501 -6.033269 22.270862 25.621433 0.496417 0.517158 -0.000054 -0.011003 -545712.000000 0 0 1
-11.988801 -6.353969 21.214862 25.182824 0.487352 0.569012 0.008012 -0.011090 415103.000000 0 0 1
-13.213601 -5.382569 21.156162 25.517729 0.386827 0.593341 0.013367 -0.005134 456993.000000 0 0 1
-12.782301 -4.115069 20.799862 24.757934 0.311457 0.573275 -0.001037 0.000085 -71751.800000 0 1 0
-13.868701 -3.222569 20.832162 25.233010 0.228311 0.599546 -0.003097 0.003996 86390.200000 0 0 1
-13.486801 -1.856569 20.194162 24.354565 0.136798 0.593169 -0.010485 0.010182 253322.000000 0 1 0
-12.678801 -1.180569 21.168962 24.703657 0.092846 0.541540 -0.006432 0.002729 167779.000000 0 1 0
-12.879001 0.272431 21.066262 24.692717 -0.021150 0.548828 -0.012497 0.006262 -110665.000000 0 1 0
-12.309901 1.006431 19.808462 23.343559 -0.081576 0.557534 -0.001992 -0.000336 179131.000000 0 1 0
-13.085101 0.769431 18.641062 22.788179 -0.058734 0.612846 0.004271 0.002612 -62324.300000 0 1 0
-14.309501 1.461431 18.607762 23.519065 -0.101777 0.658064 0.003545 0.011776 112014.000000 0 1 0
-15.361701 0.823431 17.640262 23.405955 -0.053552 0.717175 0.015384 0.012580 68477.800000 0 1 0
-15.713501 -0.479569 18.051362 23.937330 0.030510 0.716500 -0.000805 0.011549 -197814.000000 0 1 0
-16.622001 -1.185569 17.268862 23.998127 0.071205 0.767582 -0.000696 0.012607 -588579.000000 0 1 0
-16.684701 -2.708569 17.587362 24.393255 0.160935 0.765562 -0.001673 0.016756 -283245.000000 0 1 0
-17.182001 -3.053569 18.839362 25.680090 0.175883 0.747166 -0.006011 0.017703 -160815.000000 0 0 1
-17.011901 -4.436769 19.145362 25.992972 0.255121 0.742827 -0.003763 0.013920 -194301.000000 0 0 1
-17.751201 -4.950169 20.387362 27.481882 0.271955 0.734975 -0.009145 0.017582 -337839.000000 0 0 1
-17.234201 -4.410469 21.611162 27.991289 0.250537 0.688709 -0.001605 0.014297 666816.000000 0 0 1
-18.181401 -4.416069 22.715062 29.428541 0.238275 0.689016 0.000800 0.009786 115513.000000 0 0 1
-18.608001 -5.811769 23.261062 30.349817 0.302727 0.697529 0.006839 0.004536 -770697.000000 0 0 1
-17.666801 -6.578069 23.900762 30.440652 0.356437 0.667843 0.037003 -0.007970 -680307.000000 0 0 1
-16.724801 -7.187669 23.060162 29.379459 0.405896 0.668249 0.015497 -0.006171 -959059.000000 0 0 1
-15.502901 -7.735669 23.762292 29.407942 0.462833 0.630008 0.012979 -0.006060 -647188.000000 0 0 1
-15.630101 -8.955069 24.426512 30.350417 0.520283 0.635430 0.032135 -0.016270 164059.000000 0 0 1
-14.476001 -9.100469 25.245582 30.491188 0.561226 0.595330 0.039982 -0.012296 353915.000000 0 0 1
-14.569701 -10.045069 26.452692 31.826475 0.603610 0.589617 0.032207 -0.014906 12767.200000 0 0 1
-14.729401 -11.443969 26.209352 32.169082 0.660526 0.618520 0.027735 -0.019850 -68374.800000 0 0 1
-14.491101 -12.095169 27.417742 33.286900 0.695522 0.602927 0.026386 -0.020517 -116419.000000 0 0 1
-14.664501 -13.636169 27.207122 33.781951 0.749078 0.634489 0.004804 -0.020057 344724.000000 0 0 1
-15.995601 -14.128769 27.381052 34.716039 0.723507 0.662081 0.017278 -0.017850 403913.000000 0 0 1
-16.069001 -15.537069 27.087232 35.118819 0.768570 0.689911 0.025328 -0.008608 255484.000000 0 0 1
-15.051801 -16.514669 27.821182 35.683458 0.831708 0.676664 0.017490 -0.001603 1166860.000000 0 0 1
-13.766501 -16.660169 27.217172 34.754169 0.880216 0.671107 0.029061 -0.014797 550896.000000 0 0 1
-12.876601 -17.445869 27.993222 35.408836 0.934962 0.659054 0.032280 -0.005130 -209203.000000 0 0 1
-11.455601 -17.556969 27.441742 34.532987 0.992678 0.652361 0.036602 -0.013657 -130600.000000 0 0 1
-10.649901 -18.449569 28.243502 35.376580 1.047277 0.646217 0.057331 -0.016016 202560.000000 0 0 1
-9.452101 -18.710069 27.528382 34.600877 1.103007 0.650803 0.043060 -0.012531 -196486.000000 0 0 1
-8.429301 -19.400669 28.462692 35.462148 1.160919 0.639119 0.067452 -0.017408 -226060.000000 0 0 1
-8.681701 -20.749369 28.933652 36.647844 1.174522 0.660794 0.050393 -0.006609 -888274.000000 0 0 1
-7.653901 -21.247769 29.686572 37.300703 1.225045 0.650350 0.053571 -0.003090 -642765.000000 0 0 1
-7.857401 -22.665369 30.237882 38.597762 1.237091 0.670662 0.040215 -0.004260 -65130.700000 0 0 1
-7.727801 -23.725369 29.304322 38.488379 1.255914 0.705356 0.032019 -0.000979 35128.100000 0 0 1
-7.975301 -24.928369 30.005492 39.816562 1.261158 0.717285 0.033656 -0.004531 -208735.000000 0 0 1
-8.254001 -26.145969 29.100302 39.982094 1.265009 0.755639 0.032839 -0.003419 -22665.400000 0 0 1
-9.512301 -26.121869 28.447322 39.775445 1.221571 0.773889 0.030608 -0.007731 356134.000000 0 0 1
-9.850801 -27.339369 27.760272 40.188457 1.224961 0.808267 0.031680 -0.012595 109493.000000 0 0 1
-11.105701 -27.336569 26.845772 39.891354 1.184907 0.832577 0.033957 -0.019314 -36753.600000 0 0 1
-11.007201 -26.730669 25.591212 38.608254 1.180175 0.846187 0.040881 -0.021207 22472.500000 0 0 1
-11.118301 -25.283869 25.684822 37.717380 1.156508 0.821695 0.031968 -0.008298 -300287.000000 0 0 1
-11.408201 -24.708869 24.281282 36.472674 1.138252 0.842313 0.039662 -0.021027 -473147.000000 0 0 1
-12.650401 -25.111269 23.790492 36.831997 1.104134 0.868570 0.036532 -0.014515 -403238.000000 0 0 1
-12.697401 -24.886069 22.376062 35.794254 1.099005 0.895498 0.046867 -0.016983 -792861.000000 0 0 1
-14.027001 -24.939669 21.656462 35.885181 1.058454 0.922922 0.053786 -0.018046 -800321.000000 0 0 1
-14.527701 -26.246869 21.506762 36.911964 1.065268 0.948811 0.063607 -0.019185 40010.100000 0 0 1
-15.659101 -26.307169 20.665962 36.937198 1.033884 0.977027 0.066203 -0.019916 96381.100000 0 0 1
-16.102101 -27.763069 20.352962 38.004062 1.045225 1.005641 0.077339 -0.031532 -113209.000000 0 0 1
-15.278901 -28.287769 19.379962 37.539654 1.075567 1.028326 0.072464 -0.025926 19925.600000 0 0 1
-15.790301 -29.569469 18.907262 38.485993 1.080315 1.057242 0.086996 -0.023829 413750.000000 0 0 1
-14.778801 -30.201869 17.926862 38.104308 1.115718 1.080975 0.091805 -0.031762 172361.000000 0 0 1
-14.755901 -29.403569 16.786162 36.933477 1.105677 1.098989 0.083648 -0.024966 -302271.000000 0 0 1
-13.581901 -29.591469 16.051062 36.300960 1.140500 1.112784 0.082886 -0.033243 -117640.000000 0 0 1
-13.797201 -29.140569 14.582262 35.386126 1.128597 1.146050 0.060062 -0.019933 -6490.490000 0 0 1
-13.952201 -27.730369 14.435162 34.234649 1.104642 1.135528 0.053116 -0.021564 -65038.100000 0 0 1
-14.200401 -27.252969 13.122162 33.415069 1.090444 1.167229 0.044744 -0.011691 220680.000000 0 0 1
-13.239701 -27.667069 11.961262 32.921546 1.124467 1.198961 0.034708 -0.003838 215496.000000 0 0 1
-13.542401 -26.861869 10.825562 31.971072 1.103835 1.225362 0.019590 -0.004831 -341897.000000 0 0 1
-12.652101 -26.912669 9.753662 31.296986 1.131340 1.253869 0.030407 -0.007117 -500403.000000 0 0 1
-12.956801 -25.998469 8.574762 30.287384 1.108455 1.283758 0.032164 -0.008368 -165402.000000 0 0 1
-14.159601 -26.255869 7.871262 30.851608 1.076211 1.312811 0.022762 -0.010461 -116013.000000 0 0 1
-14.184801 -25.621269 6.606762 30.021781 1.065168 1.348915 0.020079 -0.012655 -1736.000000 0 0 1
-15.300301 -26.104769 5.661962 30.783372 1.040652 1.385814 0.021509 -0.007643 -36106.900000 0 0 1
-14.968501 -27.377469 5.119462 31.619468 1.070455 1.408172 0.033426 -0.014403 430894.000000 0 0 1
-15.649201 -27.511069 3.847562 31.883541 1.053609 1.449826 0.035108 -0.002180 202051.000000 0 0 1
-15.216001 -28.788669 3.120462 32.711641 1.084577 1.475258 0.023882 0.013977 -492664.000000 0 0 1
-13.881601 -28.848969 2.729962 32.131209 1.122316 1.485731 0.026839 0.011868 -632399.000000 0 0 1
-13.622001 -30.094269 2.103262 33.100569 1.145746 1.507212 0.018973 0.016998 17553.100000 0 0 1
-12.295101 -29.958069 1.325462 32.410064 1.181348 1.529888 0.014983 0.007689 -8792.100000 0 0 1
-12.324701 -29.339869 0.068262 31.823432 1.173112 1.568651 0.022377 0.004220 -91917.800000 0 0 1
-12.196101 -27.919969 0.167062 30.467975 1.158954 1.565313 0.022327 -0.002900 -608749.000000 0 0 1
-12.018301 -27.232669 -1.218438 29.791650 1.155185 1.611706 0.027273 -0.006717 -372141.000000 0 0 1
-10.857501 -27.642269 -1.881338 29.757685 1.196524 1.634060 0.023741 -0.007605 -618318.000000 0 0 1
-10.526101 -26.813769 -3.026138 28.964367 1.196717 1.675465 0.038884 -0.009033 -700783.000000 0 0 1
-9.241001 -27.200269 -3.679538 28.961867 1.243292 1.698188 0.032253 -0.008916 -802618.000000 0 0 1
-8.829501 -26.189769 -4.595638 28.017566 1.245628 1.735568 0.032966 -0.008136 -1243950.000000 0 0 1
-7.530401 -26.383169 -5.002038 27.889047 1.292765 1.751127 0.047151 -0.001038 -859347.000000 0 0 1
-6.896901 -25.196669 -5.738338 26.746363 1.303618 1.787024 0.024113 -0.004180 -222861.000000 0 0 1
-7.305401 -24.908869 -7.066038 26.902594 1.285511 1.836567 0.036711 -0.005712 -28429.500000 0 0 1
-6.533801 -23.843669 -7.603738 25.865575 1.303335 1.869175 0.036651 -0.004333 -324438.000000 0 0 1
-6.718001 -23.659269 -9.083738 26.218445 1.294130 1.924595 0.033164 -0.008419 -502115.000000 0 0 1
-6.008101 -24.641369 -9.777438 27.182580 1.331641 1.938737 0.025920 -0.008610 -232683.000000 0 0 1
-6.062701 -24.586969 -11.224538 27.699561 1.329037 1.988021 0.014400 -0.001154 -378009.000000 0 0 1
-7.350601 -25.060969 -11.901538 28.700699 1.285490 1.998385 0.014324 -0.000611 -187758.000000 0 0 1
-7.306001 -25.080669 -13.309638 29.318323 1.287340 2.042012 0.022275 0.008083 511429.000000 0 0 1
-8.597801 -25.450069 -13.800938 30.200896 1.245004 2.045383 0.028776 0.004523 -114947.000000 0 0 1
-8.770201 -25.464569 -15.334538 30.992076 1.239112 2.088388 0.030757 0.008186 390575.000000 0 0 1
-7.937301 -26.340669 -16.143638 31.897471 1.278117 2.101465 0.024340 0.005634 905214.000000 0 0 1
-6.546701 -26.015069 -16.053038 31.262488 1.324265 2.110046 0.029977 0.007328 48909.300000 0 0 1
-5.713601 -27.172169 -16.667038 32.384598 1.363542 2.111407 0.017425 0.011189 -485303.000000 0 0 1
-5.818901 -27.228569 -18.089738 33.203813 1.360258 2.146958 0.037473 0.011340 -195507.000000 0 0 1
-4.968801 -28.146969 -18.709238 34.161037 1.396066 2.150382 0.020245 0.008101 -174836.000000 0 0 1
-24.277101 14.807401 -6.078485 29.078940 -0.547691 1.781383 0.033853 -0.012483 120017.000000 0 0 1
-24.558501 13.559901 -5.497585 28.586961 -0.504490 1.764313 0.029163 -0.005042 468428.000000 0 0 1
-23.317901 12.890601 -5.323385 27.170398 -0.505006 1.767998 0.037434 -0.008927 -215412.000000 0 0 1
-23.363401 11.401201 -4.813185 26.438658 -0.453997 1.753868 0.036537 -0.009391 -338924.000000 0 0 1
-23.930901 10.429601 -5.709085 26.721868 -0.411001 1.786104 0.028609 -0.010065 -540406.000000 0 0 1
-25.316461 10.471801 -5.803785 28.004745 -0.392206 1.779552 0.044840 -0.012880 -961616.000000 0 0 1
-25.777651 9.910601 -7.167085 28.531989 -0.367043 1.824711 0.047514 -0.008317 -236942.000000 0 0 1
-25.595361 10.815701 -8.220285 28.977146 -0.399806 1.858428 0.061447 -0.001324 -29962.500000 0 0 1
-25.843631 10.305501 -9.522385 29.407013 -0.379440 1.900554 0.054939 -0.006876 -159185.000000 0 0 1
-26.384571 11.309401 -10.614885 30.605946 -0.404947 1.924979 0.036311 -0.013517 -607899.000000 0 0 1
-25.363571 12.103801 -11.107885 30.219163 -0.445252 1.947199 0.045748 -0.017220 72477.400000 0 0 1
-25.850401 12.868201 -12.144485 31.326065 -0.461882 1.968910 0.039308 -0.022128 403037.000000 0 0 1
-24.737501 13.885001 -12.611085 31.044753 -0.511473 1.989113 0.030482 -0.018870 375540.000000 0 0 1
-24.544301 14.881501 -11.648385 30.976873 -0.545048 1.956310 0.030052 -0.015137 73259.800000 0 0 1
-23.818401 15.924401 -12.215985 31.146959 -0.589323 1.973823 0.017938 -0.017873 -337238.000000 0 0 1
-23.969301 17.243801 -11.413485 31.656653 -0.623636 1.939643 0.026521 -0.018184 -193620.000000 0 0 1
-22.872801 17.386901 -10.551085 30.607103 -0.649969 1.922744 0.012209 -0.009294 62505.400000 0 0 1
-23.005501 18.695901 -9.992985 31.283375 -0.682419 1.895929 -0.006126 -0.001271 846529.000000 0 0 1
-21.885501 19.034301 -8.897585 30.338866 -0.715833 1.868445 -0.003053 0.001199 433207.000000 0 0 1
-22.011301 18.405701 -7.620485 29.687354 -0.696424 1.830394 0.004558 -0.005719 -103909.000000 0 0 1
-22.944001 19.068401 -6.797885 30.598077 -0.693410 1.794833 0.006125 -0.006790 -483593.000000 0 0 1
-23.235301 18.398101 -5.459585 30.135965 -0.669731 1.752967 0.001570 -0.004297 412976.000000 0 0 1
-22.133501 18.383301 -4.529985 29.126592 -0.693102 1.726958 0.015078 -0.015189 433355.000000 0 0 1
-22.542901 17.806801 -3.292885 28.915526 -0.668556 1.684923 0.005670 -0.010346 482387.000000 0 0 1
-21.350001 17.563301 -2.294285 27.740869 -0.688392 1.653595 0.016876 -0.021960 272246.000000 0 0 1
-20.871501 18.798101 -1.767385 28.144481 -0.733179 1.633635 0.017436 -0.022791 -205405.000000 0 0 1
-19.752001 18.610201 -0.958885 27.155121 -0.755643 1.606115 0.050157 -0.031394 -673764.000000 0 0 1
-19.324501 19.964801 -0.433585 27.788804 -0.801694 1.586400 0.053085 -0.037853 -355148.000000 0 0 1
-20.177101 20.600001 0.501015 28.839668 -0.795769 1.553423 0.046255 -0.027905 102926.000000 0 0 1
-19.893201 21.979801 0.679815 29.653216 -0.835189 1.547869 0.051555 -0.022218 317764.000000 0 0 1
-20.887601 22.600001 1.712315 30.821809 -0.824755 1.515212 0.038318 -0.020498 -41157.400000 0 0 1
-20.632801 22.181401 3.051715 30.447331 -0.821553 1.470398 0.055986 -0.022498 155369.000000 0 0 1
-21.779301 22.102001 3.863115 31.269155 -0.792752 1.446936 0.042068 -0.021036 -217730.000000 0 0 1
-21.415501 21.734801 5.293415 30.968459 -0.792798 1.399024 0.046047 -0.020145 -303372.000000 0 0 1
-20.724901 22.737001 5.994315 31.343652 -0.831661 1.378366 0.042883 -0.013686 -38936.600000 0 0 1
-19.968201 22.179301 7.045915 30.664236 -0.837811 1.338948 0.039778 -0.012100 -226494.000000 0 0 1
-20.641601 21.848501 8.433815 31.217974 -0.813795 1.297238 0.035866 -0.020903 -748384.000000 0 0 1
-21.580801 20.793301 8.369715 31.115020 -0.766816 1.298449 0.038757 -0.018924 462256.000000 0 0 1
-22.008401 20.356701 9.658615 31.496886 -0.746431 1.259122 0.038097 -0.015552 -168274.000000 0 0 1
-22.682501 21.319501 10.601315 32.884720 -0.754432 1.242556 0.043869 -0.017589 -870796.000000 0 0 1
-23.775001 22.103501 10.141015 34.009640 -0.748981 1.268010 0.043503 -0.020796 535524.000000 0 0 1
-24.212201 22.884001 11.240115 35.160323 -0.757204 1.245403 0.042022 -0.014340 -948847.000000 0 0 1
-25.386091 23.743701 10.893815 36.426531 -0.751981 1.267086 0.043743 -0.021877 -812630.000000 0 0 1
-25.998481 24.107501 12.127615 37.472278 -0.747676 1.241220 0.039485 -0.020084 219273.000000 0 0 1
-26.746821 25.342201 12.035615 38.761780 -0.758439 1.255075 0.043898 -0.020257 221573.000000 0 0 1
-27.393391 25.704001 13.378515 39.875784 -0.753592 1.228655 0.055383 -0.019438 166735.000000 0 0 1
-26.401461 25.881201 14.398415 39.676039 -0.775448 1.199419 0.036936 -0.021208 383740.000000 0 0 1
-26.865421 26.457801 15.617915 40.812808 -0.777754 1.178110 0.027394 -0.023999 -616767.000000 0 0 1
-25.748691 26.784001 16.583315 40.686412 -0.805104 1.150985 0.029307 -0.028571 -481583.000000 0 0 1
-25.263651 25.629201 17.238015 39.903097 -0.792581 1.124091 0.040229 -0.029580 400360.000000 0 0 1
-24.171601 25.842601 18.126915 39.757909 -0.818796 1.097377 0.027258 -0.023235 -125217.000000 0 0 1
-23.960501 24.578101 19.020415 39.242386 -0.798121 1.064787 0.033528 -0.020009 -64103.900000 0 0 1
-22.671901 24.495901 19.591615 38.702656 -0.824049 1.040014 0.044112 -0.023818 454828.000000 0 0 1
-22.249601 23.168801 19.971215 37.824430 -0.805634 1.014555 0.049843 -0.023777 -747614.000000 0 0 1
-20.760801 23.147501 20.258315 37.110874 -0.839701 0.993350 0.041140 -0.023387 -972392.000000 0 0 1
-19.917801 23.216701 19.091815 36.058721 -0.861729 1.012827 0.043841 -0.030433 686742.000000 0 0 1
-18.598901 22.719601 19.254415 35.111706 -0.884800 0.990375 0.040917 -0.024771 190888.000000 0 0 1
-18.496501 21.173201 19.380715 34.147285 -0.852771 0.967254 0.041976 -0.006771 -840559.000000 0 0 1
-19.041601 20.579601 20.511315 34.739266 -0.824196 0.939197 0.036316 -0.000729 -92694.100000 0 0 1
-18.252001 20.780501 21.661015 35.130675 -0.850087 0.906400 0.028137 0.006870 -224836.000000 0 0 1
-18.976001 20.379201 22.978215 36.102615 -0.821038 0.880884 0.022903 0.007324 -311957.000000 0 0 1
-20.082801 21.199201 23.174315 37.279671 -0.812435 0.899969 0.043445 -0.000809 -115364.000000 0 0 1
-20.679801 21.146301 24.488915 38.399572 -0.796551 0.879237 0.031967 0.003370 60271.300000 0 0 1
-21.700701 22.277201 24.715315 39.724563 -0.798506 0.899289 0.029875 -0.003584 -442081.000000 0 0 1
-21.235301 23.619001 24.821115 40.309837 -0.838491 0.907448 0.045034 -0.011848 -249835.000000 0 0 1
-22.259501 24.503001 25.167815 41.584869 -0.833338 0.920760 0.032092 -0.012354 46581.600000 0 0 1
-23.235101 24.926901 24.015115 41.688680 -0.820511 0.956898 0.025841 -0.016289 511392.000000 0 0 1
-24.243501 23.977301 23.666115 41.505943 -0.779878 0.964064 0.018133 -0.016792 221881.000000 0 0 1
-24.924701 24.299601 22.502815 41.449825 -0.772700 0.996918 0.017888 -0.016771 214148.000000 0 0 1
-26.014811 23.271501 22.038115 41.279676 -0.729795 1.007622 0.022558 -0.016849 -384820.000000 0 0 1
-27.156161 23.241301 22.808915 42.401200 -0.707874 1.002816 -0.003244 -0.018519 -887429.000000 0 0 1
-27.994731 22.224101 22.326615 42.143722 -0.670990 1.012463 0.005188 -0.016209 -604235.000000 0 0 1
-29.474001 22.459301 22.617415 43.412952 -0.651139 1.022794 0.015338 -0.012710 -1106140.000000 0 0 1
-29.985791 23.491101 21.780915 43.879240 -0.664542 1.051369 0.008440 -0.013788 683816.000000 0 0 1
-31.379111 23.788001 21.913115 45.063313 -0.648655 1.062976 0.007219 -0.010413 736129.000000 0 0 1
-32.326791 22.761301 21.228415 44.874757 -0.613472 1.078037 0.018438 -0.018610 -1199490.000000 0 0 1
-32.438411 21.436901 21.766115 44.559567 -0.583964 1.060458 0.021728 -0.013123 403684.000000 0 0 1
-33.059021 20.520501 20.868915 44.153159 -0.555518 1.078503 0.023825 -0.004019 -388341.000000 0 0 1
-34.523770 20.685201 20.483115 45.158900 -0.539800 1.100020 0.027654 -0.006647 -746112.000000 0 0 1
-35.046600 19.647501 19.667715 44.733739 -0.510953 1.115574 0.033469 -0.000463 -629896.000000 0 0 1
34.865634 19.863501 19.209115 44.487765 0.517854 1.124326 0.043432 -0.010639 -1209740.000000 0 0 1
34.415504 18.917901 18.147615 43.262568 0.502606 1.137928 0.059262 -0.010627 -321856.000000 0 0 1
34.399724 17.587801 18.520815 42.844980 0.472629 1.123782 0.063540 -0.010591 84909.400000 0 0 1
33.692114 16.886101 17.572515 41.582355 0.464598 1.134489 0.071081 -0.014565 51034.900000 0 0 1
34.118334 15.381801 17.663815 41.384428 0.423550 1.129820 0.057515 -0.017125 287954.000000 0 0 1
33.346724 14.678001 16.714415 40.085152 0.414644 1.140684 0.064473 -0.017101 291751.000000 0 0 1
33.898514 13.374701 16.486215 39.997340 0.375800 1.145948 0.056175 -0.020296 97153.900000 0 0 1
33.038484 12.538901 15.534715 38.601721 0.362731 1.156620 0.065943 -0.020822 -30469.000000 0 0 1
33.054034 13.111201 14.263915 38.313601 0.377623 1.189317 0.069381 -0.024791 452880.000000 0 0 1
32.331434 12.257701 13.360715 37.068606 0.362383 1.202065 0.075870 -0.029708 129961.000000 0 0 1
32.363874 12.741101 11.863615 36.749168 0.375049 1.242082 0.081002 -0.026751 -503838.000000 0 0 1
33.643464 12.504501 11.368015 37.649396 0.355854 1.264065 0.073827 -0.027072 -263232.000000 0 0 1
33.754514 12.860701 9.980615 37.475025 0.364027 1.301216 0.071224 -0.025070 -1193470.000000 0 0 1
35.105254 12.443101 9.485015 38.434036 0.340635 1.321433 0.071267 -0.021443 -1316800.000000 0 0 1
35.296101 11.048501 9.403215 38.161559 0.303362 1.321827 0.056610 -0.022828 500492.000000 0 0 1
-34.635920 10.679701 8.834415 37.306164 -0.299092 1.331717 0.062644 -0.026143 536523.000000 0 0 1
-34.427244 11.005301 7.357015 36.884650 -0.309402 1.369989 0.054864 -0.031555 -237046.000000 0 0 1
-33.862771 12.303501 7.112415 36.723968 -0.348504 1.375892 0.098793 -0.031592 60071.500000 0 0 1
-33.613241 12.407701 5.732515 36.285847 -0.353616 1.412150 0.094702 -0.037543 360954.000000 0 0 1
-34.713800 13.286101 5.002415 37.504567 -0.365533 1.437016 0.091637 -0.045096 522465.000000 0 0 1
35.232780 12.615601 4.947215 37.748869 0.343841 1.439362 0.076795 -0.033642 462929.000000 0 0 1
34.071314 13.442201 4.806215 36.941128 0.375783 1.440322 0.050096 -0.021962 824117.000000 0 0 1
33.595014 14.161301 6.100515 36.964628 0.398928 1.405001 0.051907 -0.016392 -850633.000000 0 0 1
32.572304 15.153201 5.912915 36.407926 0.435436 1.407666 0.030009 -0.017578 545595.000000 0 0 1
32.051624 15.666101 7.141715 36.383203 0.454629 1.373222 0.036768 -0.015948 785502.000000 0 0 1
30.902234 14.722501 7.718615 35.089559 0.444608 1.349014 0.036528 -0.018567 -38425.800000 0 0 1
31.330594 13.447001 8.058215 35.033738 0.405420 1.338705 0.045507 -0.011228 -217608.000000 0 0 1
30.279714 12.523001 8.247215 33.789099 0.392156 1.324226 0.060901 -0.009049 -416401.000000 0 0 1
30.148474 11.440901 7.159915 33.031638 0.362697 1.352303 0.069478 -0.015519 -197388.000000 0 0 1
29.824414 11.926401 5.880515 32.654482 0.380409 1.389726 0.048538 -0.014408 217484.000000 0 0 1
29.898414 10.811201 5.008115 32.185066 0.346969 1.414558 0.068193 -0.020284 -127070.000000 0 0 1
29.436204 11.009001 3.529015 31.625024 0.357890 1.458974 0.044265 -0.021123 -61638.900000 0 0 1
28.036094 11.014501 3.371815 30.310245 0.374344 1.459322 0.023131 -0.015432 -35919.500000 0 0 1
27.732054 11.438001 2.086315 30.070707 0.391190 1.501360 0.035996 -0.017645 284599.000000 0 0 1
26.324964 10.910001 1.667015 28.544891 0.392889 1.512363 0.055538 -0.006776 276993.000000 0 0 1
26.216184 9.576201 1.344115 27.942773 0.350220 1.522675 0.026268 -0.018856 -285267.000000 0 0 1
24.892224 9.121501 1.269315 26.541209 0.351245 1.522954 0.023907 -0.020085 -1004410.000000 0 0 1
24.762024 7.550401 1.242815 25.917388 0.295963 1.522825 0.033183 -0.015955 -80495.100000 0 0 1
25.119524 6.866401 2.484415 26.159325 0.266831 1.475681 0.039071 -0.008688 635828.000000 0 0 1
26.529114 6.890301 2.660815 27.538157 0.254111 1.474023 0.054411 -0.019701 -333776.000000 0 0 1
26.847034 6.130701 3.955415 27.820749 0.224507 1.428138 0.061268 -0.023305 630618.000000 0 0 1
28.248924 6.207501 4.297915 29.240500 0.216305 1.423277 0.073339 -0.018774 1183300.000000 0 0 1
28.508884 5.646101 5.523115 29.582761 0.195517 1.382994 0.067232 -0.011278 -24673.300000 0 0 1
30.010584 5.635101 5.889715 31.097882 0.185609 1.380253 0.066316 -0.017911 -23988.400000 0 0 1
30.535124 6.907801 6.009715 31.878334 0.222480 1.381141 0.072470 -0.025355 300726.000000 0 0 1
31.882154 6.795701 6.502515 33.240578 0.210008 1.373907 0.060701 -0.020727 959319.000000 0 0 1
32.436864 8.058501 7.262115 34.202747 0.243507 1.356842 0.062629 -0.025742 -85704.300000 0 0 1
31.890654 8.136201 8.529815 33.999549 0.249799 1.317207 0.051373 -0.024584 -150444.000000 0 0 1
32.477304 9.059101 9.395915 35.001797 0.272022 1.299022 0.054350 -0.021240 -362463.000000 0 0 1
31.967604 8.932201 10.839615 34.917176 0.272465 1.255143 0.046058 -0.020753 -443879.000000 0 0 1
30.643904 9.373201 11.018315 33.886709 0.296838 1.239624 0.048351 -0.018904 -8896.430000 0 0 1
30.162874 9.225101 12.359415 33.877081 0.296809 1.197345 0.044775 -0.020511 66211.900000 0 0 1
28.665944 9.630701 12.486715 32.717042 0.324116 1.179207 0.034550 -0.030502 48046.400000 0 0 1
28.338354 11.016701 12.501715 32.874350 0.370776 1.180689 0.044310 -0.034133 87533.600000 0 0 1
28.468684 11.644401 11.248515 32.750376 0.388262 1.220195 0.045452 -0.030928 -1045390.000000 0 0 1
27.203944 11.706701 10.406115 31.390901 0.406377 1.232902 0.033981 -0.033058 -812754.000000 0 0 1
27.238024 12.671401 9.406215 31.479378 0.435430 1.267355 0.024741 -0.015457 514808.000000 0 0 1
26.145554 12.715701 8.461815 30.280049 0.452662 1.287573 0.020133 -0.017756 393651.000000 0 0 1
26.234534 13.997601 7.573215 30.684478 0.490131 1.321410 0.007162 -0.006706 81323.500000 0 0 1
25.927824 15.209501 8.224415 31.164435 0.530515 1.303729 -0.000137 0.000465 283889.000000 0 0 1
26.243214 16.229301 7.317015 31.711752 0.553853 1.337963 -0.001629 0.007750 -747633.000000 0 0 1
25.868724 17.672801 7.712015 32.264438 0.599343 1.329434 0.004696 -0.001258 1140450.000000 0 0 1
24.482524 18.081201 7.708115 31.396478 0.636123 1.322752 0.007855 -0.002412 739856.000000 0 0 1
23.646124 17.488201 8.620515 30.647832 0.636799 1.285672 0.014291 -0.004072 -973080.000000 0 0 1
22.308924 18.187601 8.852315 30.113791 0.683978 1.272427 0.019178 -0.004627 -525008.000000 0 0 1
21.580124 18.474101 7.710315 29.435406 0.708008 1.305764 0.028201 -0.015343 -468676.000000 0 0 1
20.457824 19.270301 7.910715 29.196686 0.755516 1.296421 0.057883 -0.026538 -114590.000000 0 0 1
19.822724 19.793301 6.567715 28.772383 0.784655 1.340502 0.054873 -0.022785 148926.000000 0 0 1
20.604324 20.803501 6.006615 29.889852 0.790208 1.368460 0.036170 -0.011243 -18000.100000 0 0 1
20.140324 20.869101 4.721715 29.384462 0.803167 1.409409 0.033377 -0.016209 -81142.200000 0 0 1
17.914799 17.295001 33.039925 41.372620 0.767797 0.645841 0.027208 0.011917 -76888.500000 0 0 1
17.117699 18.060201 32.146342 40.651861 0.812184 0.658728 0.022061 0.013787 301565.000000 0 0 1
16.605399 17.251101 31.113092 39.260212 0.804468 0.655925 0.020917 0.005638 -118882.000000 0 0 1
15.967499 17.958201 29.901982 38.361263 0.844009 0.676955 0.017079 0.005923 150385.000000 0 0 1
16.888399 18.606801 29.015202 38.383760 0.833773 0.713732 0.011050 0.010461 -105764.000000 0 0 1
16.462699 18.766701 27.640252 37.245041 0.850705 0.734570 0.020888 -0.004135 -1291620.000000 0 0 1
17.619599 18.906001 26.736162 37.184802 0.820603 0.768423 0.014095 -0.000524 -1307070.000000 0 0 1
18.276599 20.124801 26.897522 38.242887 0.833490 0.790720 0.018308 0.006322 -446090.000000 0 0 1
19.239599 20.374301 25.920162 38.172360 0.814034 0.824356 0.003402 0.007389 -604596.000000 0 0 1
19.839699 21.746701 26.251292 39.441894 0.831222 0.842541 0.012821 0.008631 -435065.000000 0 0 1
19.135799 22.864901 25.801722 39.429828 0.873953 0.857446 0.002800 0.007172 328234.000000 0 0 1
19.826399 24.073801 26.162622 40.707699 0.881849 0.872786 0.020637 0.006375 -152330.000000 0 0 1
19.005799 25.301101 25.865812 40.870605 0.926537 0.885541 0.026781 0.002501 -267671.000000 0 0 1
19.128699 25.791501 24.537862 40.413059 0.932650 0.918294 0.024460 -0.001876 529232.000000 0 0 1
18.127199 26.786401 24.309112 40.460345 0.975858 0.926278 0.039613 -0.008484 155799.000000 0 0 1
18.242999 27.624201 23.055262 40.341648 0.987145 0.962463 0.037379 -0.014215 -313728.000000 0 0 1
19.462399 28.318401 23.061662 41.383053 0.968665 0.979698 0.043450 -0.013160 -7101.440000 0 0 1
19.303899 29.421901 22.208662 41.611458 0.990140 1.007809 0.037068 -0.015826 139950.000000 0 0 1
20.649699 30.164101 22.068362 42.700066 0.970495 1.027661 0.048809 -0.012642 263449.000000 0 0 1
21.543999 29.462501 21.189462 42.203983 0.939414 1.044803 0.037303 -0.015068 179203.000000 0 0 1
22.753599 30.184701 21.013962 43.248457 0.924860 1.063416 0.042659 -0.020071 324425.000000 0 0 1
23.003399 30.613401 19.539462 42.989851 0.926390 1.098971 0.033386 -0.018638 -549663.000000 0 0 1
22.095099 31.563501 19.146062 43.023478 0.960057 1.109606 0.016720 -0.006695 -298262.000000 0 0 1
22.178699 31.741401 17.740362 42.592624 0.960923 1.141190 0.018449 -0.002268 765433.000000 0 0 1
21.145599 32.808001 17.123462 42.622931 0.998279 1.157377 0.030633 -0.002737 -124338.000000 0 0 1
21.602199 34.144201 17.369162 43.979191 1.006697 1.164793 0.027616 -0.004227 349110.000000 0 0 1
21.883799 -34.005969 16.151262 43.545033 -0.998984 1.190808 0.020388 -0.008027 -81456.200000 0 0 1
23.058299 34.297801 15.299562 44.069274 0.978906 1.216244 -0.000295 -0.007644 -334093.000000 0 0 1
22.690899 33.152001 14.551062 42.727807 0.970583 1.223292 0.015973 -0.009782 361598.000000 0 0 1
22.014099 33.465101 13.303462 42.208004 0.988942 1.250141 -0.002405 -0.006204 202447.000000 0 0 1
21.715899 32.272701 12.398162 40.826730 0.978499 1.262246 0.001734 -0.008196 -32145.500000 0 0 1
22.905299 31.824001 11.776662 40.940317 0.946938 1.279020 0.017486 -0.024937 29763.600000 0 0 1
22.577799 30.742501 10.891962 39.667281 0.937343 1.292640 0.021359 -0.027120 -725577.000000 0 0 1
23.781799 30.034001 10.223662 39.650201 0.901057 1.310004 0.024982 -0.023505 511416.000000 0 0 1
24.696299 29.339101 11.078662 39.917750 0.871109 1.289567 0.019854 -0.011093 341787.000000 0 0 1
25.460799 30.245601 11.892162 41.285254 0.871081 1.278608 0.024284 -0.011202 -1347790.000000 0 0 1
26.724699 29.610101 12.497362 41.798943 0.836572 1.267165 0.027918 0.002810 -201619.000000 0 0 1
26.647699 28.473201 13.318062 41.209147 0.818504 1.241706 0.026234 0.000668 799449.000000 0 0 1
27.974999 27.933101 13.556562 41.792811 0.784649 1.240445 0.022606 0.007587 1121570.000000 0 0 1
28.119499 26.805201 14.559862 41.487523 0.761474 1.212216 0.008714 -0.001300 32571.300000 0 0 1
29.417799 26.892301 15.120362 42.628958 0.740578 1.208206 0.006593 -0.006249 101098.000000 0 0 1
29.658499 26.045501 16.248262 42.684900 0.720628 1.180291 0.014050 -0.011180 445213.000000 0 0 1
30.975199 26.431201 17.000262 44.125732 0.706408 1.175297 0.022821 -0.011223 68549.700000 0 0 1
32.108399 26.376301 16.199862 44.599261 0.687700 1.199062 0.036921 -0.003876 -407790.000000 0 0 1
33.245199 26.747201 16.962962 45.917296 0.677505 1.192407 0.037826 -0.003557 1032900.000000 0 0 1
34.572999 27.092801 16.201662 46.816727 0.664686 1.217422 0.033716 -0.006939 889305.000000 0 0 1
34.469999 28.408701 15.681562 47.340749 0.689298 1.233170 0.031517 -0.005499 510410.000000 0 0 1
-35.471726 28.769801 15.093462 48.101532 -0.681450 1.251621 0.040705 -0.015375 770047.000000 0 0 1
35.588699 30.027901 14.167762 48.671920 0.700853 1.275434 0.026256 -0.009526 96091.800000 0 0 1
35.149199 31.138201 14.960462 49.283559 0.724963 1.262371 0.028003 -0.012697 222541.000000 0 0 1
34.855299 32.246101 14.117862 49.538035 0.746533 1.281800 0.026113 -0.012511 16577.200000 0 0 1
34.173799 33.498401 14.780262 50.084404 0.775418 1.271229 0.014735 -0.012303 -433055.000000 0 0 1
33.862399 34.390901 13.750162 50.184291 0.793141 1.293253 -0.000331 -0.020127 253546.000000 0 0 1
32.831399 -33.589569 14.135162 49.050614 -0.796812 1.278476 -0.004858 -0.010866 302554.000000 0 0 1
31.400999 -34.047769 13.776962 48.322645 -0.825816 1.281682 0.000337 -0.003742 -489987.000000 0 0 1
30.946199 33.721101 14.526362 48.018695 0.828282 1.263466 0.009161 -0.012506 172620.000000 0 0 1
30.211599 32.806401 13.707562 46.657239 0.826550 1.272604 -0.000118 -0.004128 141262.000000 0 0 1
29.558799 31.537301 14.429662 45.569058 0.817770 1.248596 0.010627 -0.008812 150635.000000 0 0 1
28.575099 31.934601 15.352462 45.519810 0.840861 1.226781 0.020171 -0.007092 56363.300000 0 0 1
28.262399 30.928501 16.298662 44.955331 0.830410 1.199791 0.023099 -0.011818 78128.800000 0 0 1
27.412699 31.448301 17.469062 45.228529 0.853853 1.174245 0.025891 -0.011326 88148.900000 0 0 1
27.116599 30.453001 18.469062 44.763841 0.843288 1.145502 0.010616 -0.005290 106434.000000 0 0 1
28.071399 30.468501 19.538662 45.804937 0.826323 1.130108 0.019046 -0.014013 392171.000000 0 0 1
27.998399 29.190101 20.430062 45.314013 0.806233 1.103073 0.021442 -0.016270 3221.240000 0 0 1
26.839199 29.183901 21.222562 44.971544 0.827226 1.079339 0.023211 -0.016454 -191588.000000 0 0 1
26.940399 28.157001 22.151362 44.825045 0.807476 1.053912 0.001574 -0.013100 10830.500000 0 0 1
25.792099 28.108101 23.185162 44.641342 0.828340 1.024688 0.010560 -0.012680 763760.000000 0 0 1
24.507299 27.720701 22.646562 43.381007 0.846847 1.021557 0.015774 -0.008753 435117.000000 0 0 1
23.488499 27.767701 23.587062 43.348637 0.868692 0.995451 0.027142 -0.008123 -282860.000000 0 0 1
23.219999 26.477001 24.417632 42.853479 0.850842 0.964542 0.032302 -0.016818 -365435.000000 0 0 1
24.209999 26.303601 25.424972 43.868356 0.826821 0.952590 0.005658 -0.016463 185433.000000 0 0 1
23.907499 25.373501 26.443722 43.756754 0.815137 0.921866 0.023706 -0.011660 -782164.000000 0 0 1
24.935499 25.251501 27.563382 44.935036 0.791695 0.910431 0.032429 -0.020653 -243552.000000 0 0 1
25.315599 26.479401 28.205102 46.233819 0.807864 0.914668 0.043216 -0.019128 794939.000000 0 0 1
26.366399 27.211101 27.546902 46.845094 0.801163 0.942160 0.025194 -0.014815 -267584.000000 0 0 1
26.817499 28.457401 28.310632 48.275188 0.815058 0.944136 -0.000141 -0.010332 -843001.000000 0 0 1
27.331599 28.268501 29.602482 49.218202 0.802247 0.925477 0.011419 -0.006934 181778.000000 0 0 1
27.479799 29.485601 30.302422 50.425954 0.820594 0.926133 0.010977 -0.006978 -23332.100000 0 0 1
28.955999 29.952901 30.380052 51.561359 0.802319 0.940726 -0.012079 0.001280 288188.000000 0 0 1
29.460599 30.126401 29.044162 51.177048 0.796571 0.967302 -0.036815 -0.002689 356987.000000 0 0 1
30.891299 30.182301 29.053702 52.051525 0.773790 0.978615 -0.000021 -0.010190 1058860.000000 0 0 1
31.543499 30.476101 27.657672 51.852983 0.768189 1.008197 -0.001655 -0.008412 55089.900000 0 0 1
31.410299 31.898201 27.325452 52.447902 0.793105 1.022772 -0.014950 -0.002869 478456.000000 0 0 1
32.242399 32.274301 26.221732 52.619217 0.785893 1.049125 0.002773 -0.006809 82351.900000 0 0 1
32.044599 33.751501 25.836022 53.230820 0.811335 1.064023 -0.002121 -0.008596 -467281.000000 0 0 1
32.646899 -34.220069 26.723422 54.322872 -0.808921 1.056483 0.013094 -0.010168 142525.000000 0 0 1
32.428899 -32.845869 26.379252 53.163423 -0.791786 1.051589 0.012364 -0.006869 -162567.000000 0 0 1
33.373699 -31.936169 27.222382 53.616982 -0.763391 1.038261 0.016955 -0.016150 170170.000000 0 0 1
33.080299 -31.703169 28.606902 54.016220 -0.764144 1.012669 0.014621 -0.021096 125995.000000 0 0 1
34.182099 -31.014869 29.126792 54.577541 -0.736857 1.007853 0.023749 -0.025946 -443772.000000 0 0 1
33.921199 -30.426269 30.538732 54.854533 -0.731138 0.980362 0.021523 -0.024556 -410124.000000 0 0 1
33.795499 -31.307669 31.675122 55.907238 -0.747203 0.968464 0.022226 -0.021243 211475.000000 0 0 1
32.609899 -32.071669 31.664452 55.629444 -0.777077 0.965260 0.018814 -0.017753 -428794.000000 0 0 1
32.585599 -33.108669 32.851367 56.896551 -0.793360 0.955271 0.026676 -0.013607 -248792.000000 0 0 1
32.287599 -32.467369 34.076738 57.077519 -0.788174 0.931008 0.027888 -0.022667 59255.600000 0 0 1
32.507599 -33.232669 -33.532005 57.319715 -0.796427 2.195676 0.027006 -0.019600 -60436.800000 0 0 1
31.857399 34.244001 -33.314395 57.422943 0.821488 2.189719 0.014341 -0.016524 -124993.000000 0 0 1
32.341599 33.317101 -34.202945 57.670180 0.800254 2.205673 0.016465 -0.015162 170741.000000 0 0 1
31.484499 32.186501 -34.147117 56.509027 0.796423 2.219655 0.023552 -0.007001 -52791.200000 0 0 1
31.786499 31.156701 33.590289 55.762255 0.775393 0.924312 0.000201 -0.000201 -342011.000000 0 0 1
33.086099 30.604201 33.629009 56.233596 0.746450 0.929764 -0.012301 -0.009310 -45094.700000 0 0 1
33.263799 29.717901 32.486892 55.181810 0.729157 0.941316 -0.014873 -0.004756 -103751.000000 0 0 1
34.528099 28.860301 32.674912 55.612557 0.696221 0.942774 -0.006203 -0.003813 -157455.000000 0 0 1
34.481299 27.868201 33.655135 55.662058 0.679728 0.921491 -0.005652 -0.000242 134469.000000 0 0 1
-35.459426 27.219301 33.681457 55.970544 -0.654682 0.925079 -0.021708 -0.003530 -102302.000000 0 0 1
-35.439326 25.872601 -34.257942 55.668159 -0.630613 2.233684 -0.024828 0.000676 40460.700000 0 0 1
35.264599 24.799201 33.760413 54.757263 0.612892 0.906447 -0.035135 0.006597 33842.700000 0 0 1
35.298699 23.511301 34.382145 54.597723 0.587587 0.889583 -0.034026 -0.004930 -129109.000000 0 0 1
34.771999 22.312301 33.574207 53.236811 0.570500 0.888396 -0.039282 0.002829 518826.000000 0 0 1
-35.478426 22.006901 32.520492 52.920741 -0.555205 0.909028 -0.026730 0.006290 840423.000000 0 0 1
35.158399 21.024301 31.728052 51.815090 0.538939 0.911789 -0.019064 0.011371 103335.000000 0 0 1
-34.905926 20.210401 31.067382 50.912338 -0.524832 0.914467 -0.000878 -0.003511 365604.000000 0 0 1
-34.209926 20.912601 30.015972 50.086071 -0.548688 0.928185 -0.005498 -0.005103 -147153.000000 0 0 1
-33.113526 20.212301 29.512922 48.744797 -0.548027 0.920455 0.007819 -0.007401 -207960.000000 0 0 1
-33.495126 19.142201 28.394332 47.901831 -0.519194 0.936314 0.019853 -0.008578 -67170.300000 0 0 1
-34.222426 17.993501 28.796662 48.209836 -0.484059 0.930642 0.025895 -0.009969 226881.000000 0 0 1
-34.477526 17.190101 27.659642 47.426313 -0.462518 0.948118 0.036840 -0.015256 -82828.200000 0 0 1
-35.162926 15.849701 28.101292 47.721347 -0.423478 0.941146 0.052617 -0.028000 -226835.000000 0 0 1
-34.317026 14.896301 28.720512 47.163819 -0.409535 0.916057 0.037643 -0.024219 284665.000000 0 0 1
-35.053726 13.983001 29.547742 47.930753 -0.379559 0.906548 0.049381 -0.026482 271262.000000 0 0 1
-34.180026 12.753701 29.955682 47.204597 -0.357133 0.883315 0.046550 -0.018798 122356.000000 0 0 1
-32.939026 13.105301 30.517002 46.776231 -0.378665 0.860044 0.035042 -0.012183 -56789.900000 0 0 1
-32.256626 11.952501 30.947912 46.272297 -0.354858 0.838174 0.037477 -0.007224 580432.000000 0 0 1
-30.704626 12.200001 30.976732 45.289867 -0.378206 0.817611 0.034055 -0.005412 -254584.000000 0 0 1
-30.155026 12.373201 29.674182 44.079233 -0.389371 0.832267 0.016113 -0.006663 528705.000000 0 0 1
-28.782226 12.752801 29.742472 43.308950 -0.417084 0.813786 -0.002991 -0.006531 1230140.000000 0 0 1
-27.690726 11.704701 30.202882 42.614439 -0.399916 0.783075 0.002151 -0.005579 -235134.000000 0 0 1
-27.292726 10.862801 29.146732 41.381461 -0.378790 0.789299 0.018238 -0.011645 1062630.000000 0 0 1
-26.176726 10.033601 29.650482 40.804966 -0.366030 0.757379 0.012624 -0.005646 794019.000000 0 0 1
-25.954726 8.830001 28.663942 39.664068 -0.327925 0.763142 0.009414 -0.007196 -114271.000000 0 0 1
-26.947026 7.844501 28.707472 40.147196 -0.283279 0.774093 0.008650 -0.010411 -528897.000000 0 0 1
-28.136026 8.096401 28.019322 40.524932 -0.280189 0.807358 0.014955 -0.007431 -279079.000000 0 0 1
-28.984926 6.759601 27.909052 40.801144 -0.229116 0.817528 0.016121 -0.002090 98748.600000 0 0 1
-29.361826 6.298601 29.201972 41.887282 -0.211314 0.799373 0.014734 -0.004391 263600.000000 0 0 1
-29.994326 5.017101 29.146962 42.123346 -0.165734 0.806619 0.018315 -0.004125 120030.000000 0 0 1
-30.679526 4.510401 30.454942 43.463554 -0.145971 0.794417 0.007404 0.007354 -793876.000000 0 0 1
-31.895826 5.034101 30.809982 44.631165 -0.156538 0.808859 0.012818 0.001771 -1053570.000000 0 0 1
-32.329826 4.618701 32.101012 45.793286 -0.141902 0.794000 0.006799 0.001532 -641279.000000 0 0 1
-33.783226 4.932401 32.362582 47.042233 -0.144977 0.812139 0.015004 -0.002677 -822687.000000 0 0 1
-34.155326 6.274201 32.534392 47.586117 -0.181671 0.817982 0.023805 0.003633 -731828.000000 0 0 1
-35.545526 6.365401 32.538452 48.608164 -0.177199 0.837391 0.026209 0.010689 -265776.000000 0 0 1
35.090299 7.819701 32.780278 48.652065 0.219262 0.831498 0.032065 -0.002893 -317233.000000 0 0 1
35.371099 8.356801 34.077833 49.822179 0.232006 0.817579 0.031706 0.000282 391719.000000 0 0 1
34.967599 9.787601 34.165488 49.857905 0.272920 0.815840 0.031081 -0.003213 3174.190000 0 0 1
35.044699 10.217101 -33.122095 49.290905 0.283682 2.307664 0.023838 -0.000076 -277435.000000 0 0 1
33.955099 9.700701 -32.394795 47.921552 0.278279 2.313112 0.041178 0.008798 182367.000000 0 0 1
34.131199 10.092501 -31.008535 47.205154 0.287505 2.287481 0.034442 0.009556 499790.000000 0 0 1
32.913199 9.588201 -30.165205 45.663463 0.283473 2.292412 0.026973 0.011243 398237.000000 0 0 1
32.899399 8.214801 -29.842405 45.171037 0.244691 2.292485 0.022413 0.004476 -97644.300000 0 0 1
31.606699 7.723301 -29.612825 43.994911 0.239660 2.309184 0.031400 0.001197 -384975.000000 0 0 1
34.150354 6.134701 -20.595085 40.348963 0.177742 2.106474 -0.010002 -0.001711 -564123.000000 0 0 1
33.557184 6.977401 -19.654985 39.510596 0.205005 2.091466 -0.018675 -0.009366 94711.400000 0 0 1
34.221484 8.240401 -19.526485 40.252923 0.236298 2.077268 -0.014559 0.002726 100268.000000 0 0 1
35.585392 8.199601 -18.696085 41.025568 0.226468 2.043975 -0.009449 -0.004944 1477650.000000 0 0 1
-34.486785 7.751801 -19.465785 40.352764 -0.221101 2.074178 -0.005719 -0.013447 274747.000000 0 0 1
-34.005771 8.697001 -20.366185 40.580929 -0.250384 2.096551 -0.001217 -0.003038 -595431.000000 0 0 1
-32.961911 8.046601 -21.356585 40.091634 -0.239435 2.132577 0.000383 -0.001283 178388.000000 0 0 1
-33.478391 6.914101 -22.010685 40.658058 -0.203661 2.142851 -0.005217 0.004799 496336.000000 0 0 1
-34.280030 7.174501 -23.175985 41.996669 -0.206313 2.155381 -0.003210 0.007135 325138.000000 0 0 1
-34.467649 5.951701 -24.098085 42.475396 -0.170989 2.174071 -0.000459 -0.002772 -314765.000000 0 0 1
-33.247861 5.719201 -24.749685 41.841085 -0.170350 2.203734 -0.002090 -0.004877 -95264.600000 0 0 1
-33.144031 4.435501 -25.309485 41.937698 -0.133035 2.218682 0.000764 -0.003110 -767959.000000 0 0 1
-31.849141 4.250701 -26.069995 41.377299 -0.132680 2.252421 0.005916 -0.002556 -384470.000000 0 0 1
-30.713631 4.155401 -25.195465 39.942533 -0.134478 2.253371 0.009330 -0.004082 432239.000000 0 0 1
-29.596271 4.033401 -26.061795 39.641200 -0.135446 2.288215 0.005645 -0.003864 -360815.000000 0 0 1
-28.228721 4.349901 -25.459595 38.261904 -0.152892 2.298830 0.006133 -0.006858 -452932.000000 0 0 1
-27.924881 5.725501 -25.574505 38.296679 -0.202230 2.302045 0.000194 -0.003289 65883.100000 0 0 1
-26.737021 6.078601 -24.900385 37.038451 -0.223548 2.308087 0.026448 -0.010584 10062.700000 0 0 1
-26.306351 7.560001 -25.229975 37.225386 -0.279842 2.315512 0.024322 -0.011458 -49960.300000 0 0 1
-27.048081 8.525101 -24.509685 37.483339 -0.305327 2.283500 0.017692 -0.013344 -145939.000000 0 0 1
-26.710481 9.871801 -24.777685 37.746999 -0.354015 2.286853 0.000169 -0.014238 -887701.000000 0 0 1
-25.394291 10.355101 -24.234985 36.598260 -0.387189 2.294533 0.030060 -0.007139 -1023000.000000 0 0 1
-25.419281 10.755701 -22.855985 35.836029 -0.400287 2.262426 0.020013 -0.012651 -426375.000000 0 0 1
-24.133501 10.705301 -22.336885 34.582738 -0.417508 2.272994 0.056713 -0.014582 -886537.000000 0 0 1
-24.161501 11.000401 -20.816185 33.735745 -0.427241 2.235768 0.079052 -0.024622 -925359.000000 0 0 1
-24.495501 12.316401 -20.367985 34.155206 -0.465887 2.209725 0.054337 -0.026816 224649.000000 0 0 1
-25.846351 12.691801 -20.367085 35.269446 -0.456460 2.186424 0.060564 -0.011928 -510798.000000 0 0 1
-26.781451 11.956401 -19.404685 35.167363 -0.419892 2.155295 0.044586 -0.010734 -902268.000000 0 0 1
-26.334691 12.045101 -18.084285 34.141496 -0.428979 2.129027 0.051541 -0.018730 510021.000000 0 0 1
-27.327301 11.578701 -17.167385 34.286540 -0.400773 2.095207 0.037671 -0.019960 51059.400000 0 0 1
-26.694611 11.469601 -15.743985 33.045833 -0.405811 2.067385 0.046333 -0.024032 623511.000000 0 0 1
-25.849411 10.319001 -15.600285 31.906782 -0.379814 2.081663 0.069771 -0.029810 1713300.000000 0 0 1
-24.467101 10.495201 -16.007685 31.065000 -0.405213 2.112150 0.069696 -0.026728 301730.000000 0 0 1
-23.715101 9.199801 -15.903785 29.999545 -0.370058 2.129555 0.062438 -0.030063 -1004640.000000 0 0 1
-22.350601 9.342201 -16.191685 29.137549 -0.395913 2.159999 0.068161 -0.027530 -239033.000000 0 0 1
-21.688501 8.264601 -15.574685 27.951127 -0.364072 2.161820 0.060820 -0.024722 -107811.000000 0 0 1
-20.149801 8.420901 -15.554885 26.811947 -0.395854 2.189706 0.064371 -0.024422 -94418.900000 0 0 1
-19.530101 8.514301 -16.819985 27.144614 -0.411115 2.239085 0.069094 -0.029905 691133.000000 0 0 1
-18.147601 8.813901 -16.611185 26.133345 -0.452125 2.259623 0.062299 -0.029593 419198.000000 0 0 1
-17.396401 9.539801 -17.804985 26.658208 -0.501597 2.302178 0.045240 -0.025271 -63817.700000 0 0 1
-17.164501 8.728901 -18.925385 26.999704 -0.470459 2.347522 0.063544 -0.033735 95781.900000 0 0 1
-16.091801 7.830601 -18.873185 26.008873 -0.452887 2.382766 0.055689 -0.021668 -1015030.000000 0 0 1
-15.561801 7.301701 -20.236985 26.552214 -0.438711 2.437436 0.045147 -0.011007 157755.000000 0 0 1
-16.407001 6.342201 -20.808685 27.247286 -0.368862 2.439818 0.039843 -0.009417 411733.000000 0 0 1
-17.647401 6.755301 -21.365385 28.522702 -0.365585 2.417447 0.052146 -0.011448 281226.000000 0 0 1
-18.530101 5.675501 -22.039985 29.348542 -0.297213 2.420332 0.060941 -0.005539 -138174.000000 0 0 1
-19.077801 4.785501 -21.129485 28.867259 -0.245770 2.391981 0.086578 -0.012501 129302.000000 0 0 1
-19.701601 3.693601 -21.760485 29.585714 -0.185326 2.397210 0.055565 0.003351 -230050.000000 0 0 1
-20.769201 2.995901 -20.878885 29.601739 -0.143259 2.353680 0.061964 0.004348 -90719.300000 0 0 1
-21.479601 1.942401 -21.449185 30.417326 -0.090185 2.353450 0.061288 0.008291 347248.000000 0 0 1
-22.341101 1.357901 -20.478685 30.337192 -0.060706 2.311809 0.058249 0.001484 -134564.000000 0 0 1
-23.121801 0.097001 -20.870485 31.148102 -0.004195 2.305059 0.055025 0.002077 557858.000000 0 0 1
-22.230101 -1.044799 -20.972785 30.579842 0.046965 2.326549 0.043440 -0.002917 1060950.000000 0 0 1
-22.969501 -2.284199 -21.231985 31.362601 0.099119 2.314454 0.047631 -0.009474 203079.000000 0 0 1
-23.469101 -2.496699 -22.697985 32.744935 0.105984 2.336682 0.044235 -0.012905 1319860.000000 0 0 1
-22.431501 -2.806399 -23.712785 32.761934 0.124463 2.380077 0.027272 -0.008099 1025000.000000 0 0 1
-21.657201 -3.978399 -23.512485 32.213335 0.181673 2.388971 0.021378 -0.017873 -496777.000000 0 0 1
-20.502601 -4.083999 -24.477085 32.189492 0.196621 2.434734 0.012248 -0.010234 -648720.000000 0 0 1
-20.965201 -4.318399 -25.768435 33.499261 0.203138 2.448422 0.015353 -0.015502 15010.800000 0 0 1
-20.099401 -3.739099 -26.703405 33.630918 0.183928 2.488180 0.017069 -0.025675 -252832.000000 0 0 1
-20.749201 -3.674999 -28.064855 35.095171 0.175297 2.497556 0.024406 -0.031074 -154500.000000 0 0 1
-20.733201 -4.901999 -28.779125 35.806888 0.232169 2.504337 0.014893 -0.015022 199384.000000 0 0 1
-21.581501 -4.846999 -29.900605 37.192752 0.220925 2.504681 0.011919 -0.015080 -242423.000000 0 0 1
-21.483801 -6.093999 -30.834335 38.071600 0.276395 2.514784 0.017957 -0.006496 -653559.000000 0 0 1
-20.272101 -6.118799 -31.506435 37.961207 0.293138 2.549839 0.019456 -0.002945 -686687.000000 0 0 1
-19.902201 -7.447099 -31.810235 38.255038 0.358056 2.552654 0.013781 -0.003208 900869.000000 0 0 1
-18.408801 -7.396799 -32.357505 37.955299 0.382064 2.591577 0.021794 -0.006262 544934.000000 0 0 1
-18.182001 -6.812099 -33.652155 38.851736 0.358474 2.618280 0.013732 -0.006511 340366.000000 0 0 1
-18.531401 -7.749599 34.100229 39.576442 0.396086 0.532325 0.018869 -0.001328 -577115.000000 0 0 1
-18.527901 -7.130199 32.676752 38.234709 0.367366 0.545947 0.022045 -0.005863 364890.000000 0 0 1
-17.249501 -6.914999 32.085102 37.078515 0.381266 0.524991 0.031524 -0.008802 283288.000000 0 0 1
-16.559701 -5.792599 32.539512 36.967523 0.336497 0.494473 0.009641 -0.008795 -892950.000000 0 0 1
-15.409601 -5.470999 31.618392 35.596493 0.341156 0.477287 0.018964 -0.004541 -732049.000000 0 0 1
-15.824701 -5.174199 30.311762 34.583181 0.316012 0.502277 0.021486 -0.008193 -319866.000000 0 0 1
-14.741901 -5.004399 29.458482 33.319211 0.327261 0.486170 0.015983 -0.004998 -390684.000000 0 0 1
-15.094301 -5.160999 27.968822 32.198274 0.329456 0.518339 0.029874 -0.006286 -27007.000000 0 0 1
-16.021201 -4.157999 27.617132 32.197419 0.253929 0.539932 0.019377 0.000787 -216405.000000 0 0 1
-16.561601 -4.253799 26.329182 31.394383 0.251413 0.575980 0.028427 -0.000769 -21886.300000 0 0 1
-15.632501 -3.788099 25.165662 29.866960 0.237739 0.568718 0.020852 0.000165 51479.100000 0 0 1
-15.391101 -2.412499 25.286122 29.700069 0.155481 0.552181 0.016470 0.005645 69005.100000 0 0 1
-14.412501 -1.894699 24.389522 28.392937 0.130713 0.537484 0.008881 0.005493 201367.000000 0 0 1
-14.179501 -0.372999 24.537432 28.342247 0.026299 0.524140 0.010644 0.012582 252731.000000 0 0 1
-15.044901 0.409401 23.691262 28.067642 -0.027205 0.565954 0.006554 0.011992 489244.000000 0 0 1
-15.421601 1.668701 24.179192 28.727055 -0.107786 0.570396 -0.002720 0.015744 -443610.000000 0 0 1
-15.980201 2.676601 23.167662 28.271391 -0.165954 0.610304 0.004042 0.010214 617026.000000 0 0 1
-14.945701 3.284401 22.367162 27.100760 -0.216317 0.600004 -0.002376 0.015617 1175090.000000 0 0 1
-15.609601 4.212101 21.498362 26.899461 -0.263563 0.644814 0.009534 0.013314 164880.000000 0 0 1
-14.678701 4.878001 20.492262 25.674734 -0.320837 0.646580 0.012312 0.019596 117446.000000 0 0 1
-13.847601 5.896501 21.027662 25.858990 -0.402560 0.621224 -0.011656 0.020903 -435648.000000 0 0 1
-12.646101 5.996501 20.353162 24.700872 -0.442777 0.602387 -0.015078 0.031256 -584339.000000 0 1 0
-11.669201 7.030001 20.870562 24.923313 -0.542212 0.578303 -0.013673 0.032567 -342092.000000 0 1 0
-12.291801 8.255201 20.681062 25.435075 -0.591412 0.621352 -0.008752 0.026320 8590.680000 0 0 1
-11.516601 9.368201 21.066262 25.771742 -0.682890 0.613884 -0.013051 0.031657 -229929.000000 0 0 1
-12.245401 10.743001 21.086662 26.645998 -0.720136 0.657761 -0.007789 0.031311 -636211.000000 0 0 1
-12.399001 11.306801 19.832762 25.979173 -0.739358 0.702220 -0.012409 0.024903 237216.000000 0 0 1
-12.971501 12.601301 19.914862 26.900824 -0.770923 0.737270 -0.017336 0.019176 -566220.000000 0 0 1
-13.184801 13.251601 18.550862 26.335876 -0.787925 0.789226 -0.019887 0.019570 -227476.000000 0 0 1
-12.106201 13.977401 18.006962 25.810434 -0.857014 0.798667 -0.015553 0.016320 4469.440000 0 0 1
-11.842801 15.287001 18.525562 26.779484 -0.911675 0.806843 -0.011813 0.023013 -246678.000000 0 0 1
-12.829801 16.379401 18.050162 27.544453 -0.906329 0.856203 -0.014594 0.016573 -62496.700000 0 0 1
-12.713001 16.711401 16.700862 26.829277 -0.920458 0.898881 -0.009992 0.012885 -19445.000000 0 0 1
-13.077801 15.754301 15.738562 25.824972 -0.877963 0.915452 -0.008909 0.017490 -375307.000000 0 0 1
-13.495401 16.384701 14.366462 25.631611 -0.881795 0.975810 -0.007327 0.009461 -538887.000000 0 0 1
-14.667201 17.114801 14.319062 26.703534 -0.862259 1.004840 -0.000896 0.003741 -643744.000000 0 0 1
-15.005601 17.365001 12.991362 26.372084 -0.858157 1.055701 -0.005603 0.001827 -164653.000000 0 0 1
-16.185701 18.336801 12.823762 27.616373 -0.847628 1.087892 0.015262 -0.007096 705620.000000 0 0 1
-17.456901 17.717701 13.143162 28.131886 -0.792812 1.084677 0.022354 -0.008387 784607.000000 0 0 1
-18.443601 18.732901 13.172462 29.404111 -0.793180 1.106291 0.031902 -0.013569 444730.000000 0 0 1
-19.916001 18.265101 13.355462 30.143480 -0.742186 1.111784 0.030531 -0.003947 631895.000000 0 0 1
-20.523301 17.617001 12.244562 29.689963 -0.709345 1.145694 0.030659 -0.008584 300539.000000 0 0 1
-21.793201 17.077501 12.600362 30.419628 -0.664671 1.143713 0.054671 -0.012278 220098.000000 0 0 1
-22.558401 16.385101 11.487562 30.154884 -0.628187 1.179971 0.049236 -0.013255 -221801.000000 0 0 1
-22.018601 15.110301 11.153062 28.940124 -0.601439 1.175172 0.044660 -0.009004 288231.000000 0 0 1
-22.664301 14.533401 10.030462 28.731523 -0.570197 1.214175 0.045041 -0.008457 123170.000000 0 0 1
-21.936201 13.194401 9.626262 27.348748 -0.541514 1.211109 0.047024 -0.000190 -208326.000000 0 0 1
-22.230101 12.007801 10.426162 27.332572 -0.495257 1.179426 0.048845 0.001255 -250113.000000 0 0 1
-23.568701 11.598601 10.416662 28.258062 -0.457323 1.193266 0.056881 -0.000257 -157328.000000 0 0 1
-24.127401 11.060901 9.037462 28.038379 -0.429848 1.242612 0.051490 0.010533 -377456.000000 0 0 1
-24.381801 12.041001 8.009862 28.348118 -0.458717 1.284341 0.052412 0.001818 582220.000000 0 0 1
-25.432331 11.655801 7.105762 28.864390 -0.429740 1.322062 0.068388 -0.003323 84225.600000 0 0 1
-25.687001 12.750301 6.056762 29.310008 -0.460741 1.362652 0.058901 -0.009812 -62947.500000 0 0 1
-24.696501 12.983901 5.045262 28.354074 -0.484026 1.391906 0.060795 -0.006249 1048530.000000 0 0 1
-23.520501 13.708701 5.458862 27.765835 -0.527707 1.372904 0.062337 -0.002555 184026.000000 0 0 1
-23.625901 15.257901 5.996162 28.756576 -0.573426 1.360741 0.053975 -0.010156 -1119160.000000 0 0 1
-22.409401 15.930501 6.148362 28.173826 -0.617994 1.350796 0.026809 -0.013001 -188671.000000 0 0 1
-22.444501 17.271001 6.631362 29.086389 -0.655864 1.340785 0.034047 -0.019923 -121547.000000 0 0 1
-21.060101 17.962401 6.616262 28.459631 -0.706182 1.336171 0.027577 -0.011695 73032.800000 0 0 1
-20.556201 18.233501 5.331862 27.990118 -0.725590 1.379134 0.029019 -0.017858 -317965.000000 0 0 1
-19.196001 18.520801 5.329462 27.201281 -0.767498 1.373594 0.024382 -0.012946 -841727.000000 0 0 1
-18.717601 19.012401 3.904362 26.964124 -0.793211 1.425487 0.035542 -0.019865 -90243.600000 0 0 1
-17.322801 19.245801 3.983362 26.198234 -0.837936 1.418157 0.021813 -0.021466 361961.000000 0 0 1
-16.881101 20.471901 3.352362 26.745254 -0.881235 1.445122 0.026398 -0.011899 -195173.000000 0 0 1
-17.166501 21.792401 4.040762 28.034358 -0.903583 1.426156 0.040173 -0.015412 -390254.000000 0 0 1
-16.413601 22.041301 5.198762 27.968775 -0.930712 1.383832 0.035556 -0.013631 132709.000000 0 0 1
-16.664701 23.384601 5.582962 29.252714 -0.951640 1.378765 0.031923 -0.014109 -315815.000000 0 0 1
-15.939301 23.792001 6.859662 29.447845 -0.980528 1.335694 0.029775 0.001470 -237617.000000 0 0 1
-16.485101 23.156201 7.999562 29.528989 -0.952123 1.296463 0.022145 -0.002041 472614.000000 0 0 1
-15.637201 23.269301 9.159262 29.493635 -0.979104 1.255024 0.025369 -0.000543 213868.000000 0 0 1
-16.196001 22.618001 10.465862 29.722360 -0.949368 1.210960 0.013730 -0.004951 -322165.000000 0 0 1
-17.250501 23.432301 10.887662 31.067566 -0.936196 1.212744 0.017928 -0.004499 -228735.000000 0 0 1
-18.199101 22.657401 11.631962 31.302837 -0.894089 1.190070 0.010583 -0.005813 -28462.400000 0 0 1
-19.461701 23.409301 12.039862 32.737004 -0.877220 1.194181 0.017793 -0.013993 464672.000000 0 0 1
-20.401601 23.772601 10.977662 33.194441 -0.861562 1.233743 0.023535 -0.011506 860693.000000 0 0 1
-20.010001 24.956001 10.304462 33.606310 -0.894952 1.259153 0.002395 -0.014129 -38793.400000 0 0 1
-21.244501 25.700401 9.734562 34.736164 -0.880032 1.286749 0.010650 -0.011477 517562.000000 0 0 1
-22.116001 26.193601 10.766862 35.932541 -0.869604 1.266480 0.014066 -0.016941 167437.000000 0 0 1
-22.985101 27.198001 10.364362 37.087277 -0.869152 1.287566 0.024612 -0.013098 -380356.000000 0 0 1
-23.902901 27.648101 11.503562 38.315768 -0.857921 1.265862 0.021973 -0.013735 -387873.000000 0 0 1
-23.207801 28.438401 12.422762 38.751383 -0.886332 1.244459 0.029341 -0.016363 586103.000000 0 0 1
-24.065101 28.748801 13.525562 39.856787 -0.873850 1.224566 0.025984 -0.014247 276031.000000 0 0 1
8.553299 -33.146669 28.181062 44.339969 -1.318261 0.882052 0.021880 -0.008108 -133167.000000 0 0 1
9.932299 -33.016669 27.957962 44.389173 -1.278581 0.889452 0.012959 -0.017661 -22039.500000 0 0 1
10.216299 -32.604669 26.615202 43.310578 -1.267148 0.909019 0.026355 -0.011225 547806.000000 0 0 1
11.720699 -32.702569 26.188422 43.504785 -1.226655 0.924835 0.009002 -0.002600 540508.000000 0 0 1
12.163099 -34.025469 26.017212 44.526047 -1.227482 0.946761 0.018781 -0.014000 -143697.000000 0 0 1
13.568799 -33.984269 25.946752 44.858408 -1.190922 0.954013 0.030056 -0.008919 -12140.700000 0 0 1
14.271999 33.524001 25.683652 44.578005 1.168312 0.956785 0.052194 -0.003544 26448.500000 0 0 1
14.137299 33.135101 24.349252 43.481999 1.167524 0.976429 0.046474 -0.014167 -10490.400000 0 0 1
15.139099 32.188901 24.130362 42.983625 1.131173 0.974738 0.055523 -0.013092 -375327.000000 0 0 1
15.465099 31.792701 22.658962 41.992543 1.118059 1.000840 0.055830 -0.030800 -229778.000000 0 0 1
14.522799 30.948501 22.030462 40.670169 1.132044 0.998355 0.047713 -0.020742 -138962.000000 0 0 1
14.708699 29.533601 22.106662 39.715034 1.108724 0.980470 0.046907 -0.018622 -74837.800000 0 0 1
14.433499 28.769501 23.438762 39.816901 1.105794 0.941392 0.042517 -0.011767 19937.600000 0 0 1
15.263399 29.175201 24.520882 41.054078 1.088790 0.930688 0.053163 -0.015856 395668.000000 0 0 1
14.689299 28.580501 25.663452 41.124607 1.096041 0.896892 0.043713 -0.007820 -335251.000000 0 0 1
15.400499 28.916401 26.922842 42.404870 1.081420 0.882918 0.043600 -0.012401 -239958.000000 0 0 1
15.229799 30.318501 27.230402 43.504633 1.105289 0.894486 0.052656 -0.006268 -87898.900000 0 0 1
15.914299 30.685001 28.388982 44.729951 1.092353 0.883208 0.071874 -0.011725 -88298.800000 0 0 1
15.782399 32.148501 28.825572 45.973077 1.114438 0.893087 0.078032 -0.013172 -254761.000000 0 0 1
16.600299 33.045901 28.164242 46.484686 1.105278 0.919922 0.074704 -0.013989 -453043.000000 0 0 1
16.327699 34.392601 28.565802 47.596741 1.127556 0.927091 0.066498 -0.007674 -59415.000000 0 0 1
17.025699 -33.323569 27.822582 46.630792 -1.098450 0.931468 0.055064 -0.011450 -862202.000000 0 0 1
16.800199 -33.224769 26.411442 45.647522 -1.102637 0.953791 0.067850 -0.010642 -108086.000000 0 0 1
17.286099 -32.012069 25.874212 44.643663 -1.075673 0.952593 0.060037 -0.014287 1430380.000000 0 0 1
18.841599 -31.627769 26.046002 45.096739 -1.033523 0.955062 0.057723 -0.008312 1303030.000000 0 0 1
19.232999 -31.355669 27.360102 45.843881 -1.020595 0.931276 0.043886 -0.006189 729862.000000 0 0 1
20.387199 -30.466069 27.217522 45.657560 -0.981058 0.932133 0.049549 -0.001304 836497.000000 0 0 1
20.615799 -29.677069 28.539392 46.046026 -0.963656 0.902307 0.056651 -0.003156 706042.000000 0 0 1
19.535599 -28.707569 28.700512 45.049790 -0.973276 0.880087 0.042290 -0.004791 1006880.000000 0 0 1
19.622799 -27.981169 29.907712 45.414440 -0.959208 0.851905 0.057797 -0.005525 -13883.000000 0 0 1
18.237499 -27.532169 30.420692 44.900392 -0.985749 0.826418 0.042794 -0.008512 -103032.000000 0 0 1
17.652499 -26.594669 29.554242 43.501039 -0.984808 0.823863 0.042422 -0.007516 -255049.000000 0 0 1
16.298099 -26.413569 29.878462 43.081634 -1.017945 0.804417 0.041616 -0.020931 -529724.000000 0 0 1
15.464599 -25.516469 28.950502 41.573737 -1.025930 0.800476 0.026493 -0.006245 -976585.000000 0 0 1
15.278999 -26.010469 27.670502 40.934692 -1.039680 0.828520 0.024351 -0.004213 -602.061000 0 0 1
14.625099 -25.181469 26.749502 39.541570 -1.044623 0.827809 0.023538 -0.006364 -1616840.000000 0 0 1
13.195699 -24.761669 27.062972 38.982960 -1.081170 0.803453 0.014027 -0.003978 -1121870.000000 0 0 1
12.361599 -25.890069 27.252472 39.570217 -1.125339 0.811086 0.004791 0.001839 -87675.600000 0 0 1
11.916499 -26.468369 26.071592 39.016733 -1.147762 0.838989 0.015158 -0.001760 -888351.000000 0 0 1
11.109999 -27.777369 26.275512 39.817293 -1.190319 0.850108 0.007174 -0.009341 650729.000000 0 0 1
9.760899 -27.680969 26.737362 39.703876 -1.231788 0.831972 0.008626 -0.016629 329618.000000 0 0 1
9.175799 -28.942269 26.528012 40.318552 -1.263783 0.852689 0.019566 -0.009421 302801.000000 0 0 1
7.655899 -29.107669 26.876242 40.350980 -1.313602 0.841880 0.020153 -0.007694 1453600.000000 0 0 1
6.608999 -28.741769 25.930472 39.270314 -1.344781 0.849569 0.034317 -0.014205 840205.000000 0 0 1
6.681099 -27.461569 25.300822 37.932921 -1.332144 0.840637 0.042252 -0.013396 -913797.000000 0 0 1
5.357599 -27.068569 24.615352 36.977383 -1.375395 0.842383 0.047766 -0.017844 -159585.000000 0 0 1
4.901599 -27.813769 23.486462 36.732075 -1.396358 0.877080 0.034826 -0.009725 202351.000000 0 0 1
4.318199 -29.104069 23.742322 37.807295 -1.423500 0.891838 0.034030 -0.007118 538090.000000 0 0 1
2.817099 -29.052069 24.200412 37.915943 -1.474131 0.878554 0.009891 -0.006568 -110410.000000 0 0 1
1.845199 -28.754069 23.227662 37.009803 -1.506712 0.892319 0.003619 -0.001200 -412694.000000 0 0 1
0.612599 -28.522769 23.839582 37.178614 -1.549322 0.874712 -0.003057 -0.009639 -347554.000000 0 0 1
0.337199 -26.982269 24.078162 36.165100 -1.558300 0.842252 0.008115 -0.009696 -285148.000000 0 0 1
1.217999 -26.467469 25.056812 36.467167 -1.524810 0.813298 0.012276 -0.010421 122227.000000 0 0 1
1.105499 -25.083669 25.149742 35.537616 -1.526752 0.784568 0.020852 -0.013263 -118810.000000 0 0 1
2.275099 -24.580069 26.006422 35.856518 -1.478501 0.759339 0.031530 -0.005224 -524244.000000 0 0 1
3.554999 -24.596469 25.410902 35.543470 -1.427257 0.774280 0.031727 -0.013073 699870.000000 0 0 1
4.610099 -23.929169 26.136682 35.734917 -1.380472 0.750417 0.043821 -0.011737 859696.000000 0 0 1
4.425999 -22.474069 26.372682 34.931241 -1.376347 0.715160 0.030152 -0.004400 -897228.000000 0 0 1
4.210199 -21.646469 25.235972 33.513426 -1.378697 0.718170 0.025226 -0.014414 275767.000000 0 0 1
3.600499 -20.368169 25.510532 32.842247 -1.395833 0.681292 0.023773 -0.022074 120810.000000 0 0 1
3.490899 -19.523969 24.224692 31.308265 -1.393865 0.686061 0.026789 -0.028233 -694973.000000 0 0 1
4.710299 -19.024769 23.817792 30.845032 -1.328089 0.688538 0.024148 -0.012786 -816383.000000 0 0 1
4.702799 -18.574169 22.476962 29.535232 -1.322817 0.705909 0.028639 -0.013153 -76222.800000 0 0 1
5.985799 -17.801669 22.062162 28.973578 -1.246424 0.705237 0.021329 -0.006165 -96958.400000 0 0 1
7.002999 -18.709169 21.774662 29.550142 -1.212632 0.742365 0.011732 -0.002101 -775973.000000 0 0 1
8.226999 -18.112469 21.419662 29.232636 -1.144441 0.748470 0.018337 0.003434 39071.500000 0 0 1
9.304799 -18.364669 22.490362 30.490273 -1.101828 0.741251 0.022365 0.007212 -385615.000000 0 0 1
9.256899 -17.482969 23.634962 30.821353 -1.083843 0.696897 0.020388 0.009201 -24714.500000 0 0 1
10.367099 -17.726769 24.461822 31.938939 -1.041608 0.698367 0.022774 0.017095 21853.700000 0 0 1
10.405999 -16.753169 25.643302 32.350154 -1.014980 0.655605 0.030100 0.006659 -43555.600000 0 0 1
10.459299 -15.384569 25.303632 31.406300 -0.973718 0.633963 0.048628 0.001359 57025.200000 0 0 1
10.272599 -14.629069 26.492692 31.959329 -0.958592 0.593568 0.044031 -0.000841 -179405.000000 0 0 1
10.614999 -13.152069 26.466962 31.403108 -0.891743 0.568307 0.047173 0.002761 -51246.200000 0 0 1
9.603699 -12.434669 25.793542 30.201968 -0.913155 0.547103 0.048008 0.004044 80249.100000 0 0 1
9.867499 -11.058269 25.821052 29.772128 -0.842241 0.521065 0.047000 0.007875 -163597.000000 0 0 1
8.937799 -10.158869 24.993352 28.421023 -0.849253 0.496203 0.050426 0.008704 -13824.600000 0 0 1
7.646599 -9.973569 25.526612 28.452601 -0.916701 0.457493 0.030806 0.012207 -44945.000000 0 0 1
6.785499 -9.283569 24.637522 27.188879 -0.939622 0.436678 0.028695 0.014714 -311306.000000 0 0 1
5.312799 -9.275169 25.003272 27.192245 -1.050618 0.403989 0.017700 0.004699 -1705760.000000 0 0 1
4.868499 -8.413069 26.053952 27.808100 -1.046199 0.357086 0.026101 0.011805 -301765.000000 0 0 1
3.559099 -8.639569 26.498402 28.097592 -1.180028 0.339010 0.016160 0.010962 396756.000000 0 0 1
2.407899 -8.505169 25.450272 26.941645 -1.294906 0.334287 0.016683 0.004622 -820986.000000 0 0 1
2.419099 -7.220969 24.840972 25.982077 -1.247537 0.297470 0.033626 -0.003475 38541.700000 0 0 1
1.483099 -7.094869 23.777482 24.857703 -1.364725 0.295887 0.026323 -0.019566 4423.910000 0 1 0
1.755199 -5.765769 23.097562 23.870949 -1.275292 0.255245 0.025074 -0.031663 -390587.000000 0 1 0
1.488699 -4.602269 23.908602 24.392998 -1.257948 0.199620 0.031053 -0.021664 -16511.100000 0 1 0
1.898399 -3.371569 23.282062 23.601394 -1.057981 0.164687 0.036023 -0.025904 -691123.000000 0 1 0
0.881099 -2.578569 22.396262 22.561425 -1.241534 0.121075 0.019472 -0.023016 1147070.000000 0 1 0
-0.211801 -1.793569 22.968262 23.039158 1.453252 0.078470 0.018669 -0.021503 1262930.000000 0 1 0
-1.196801 -2.627569 23.627362 23.803123 1.143396 0.121598 0.024897 -0.015961 -57948.700000 0 1 0
-2.328801 -1.707569 24.095302 24.267729 0.632688 0.119278 0.023222 -0.020071 -47350.000000 0 1 0
-1.814201 -1.023569 25.236832 25.322652 0.513679 0.082353 0.030883 -0.016354 426568.000000 0 0 1
-2.530001 0.183431 25.437072 25.563239 -0.072376 0.099394 0.024624 -0.018860 -281834.000000 0 0 1
-1.869401 1.074431 26.507322 26.594871 -0.521643 0.081164 0.041458 -0.023151 -449115.000000 0 0 1
-2.102601 0.581431 27.853572 27.938870 -0.269787 0.078161 0.042173 -0.015401 177229.000000 0 0 1
-1.371701 -0.581569 28.290472 28.329677 0.401004 0.052616 0.049977 -0.020365 1176210.000000 0 0 1
0.148699 -0.234569 28.678222 28.679567 -1.005806 0.009684 0.057030 -0.024931 1602970.000000 0 0 1
1.008399 0.082431 27.568742 27.587301 0.081563 0.036683 0.052265 -0.024638 77141.600000 0 0 1
1.470799 -1.006569 26.766232 26.825503 -0.600158 0.066488 0.040996 -0.020031 -226256.000000 0 0 1
2.743099 -1.674569 27.333972 27.522260 -0.548080 0.117039 0.053491 -0.016040 -884515.000000 0 0 1
2.545599 -2.341569 28.512952 28.721968 -0.743674 0.120715 0.061094 -0.013320 64115.400000 0 0 1
3.668599 -3.110569 28.950782 29.347607 -0.703268 0.164634 0.051728 0.003437 467094.000000 0 0 1
4.220099 -4.176769 27.982672 28.605674 -0.780238 0.209086 0.053692 0.004332 -260156.000000 0 0 1
5.035699 -3.708569 26.925392 27.642151 -0.634776 0.228222 0.052506 -0.000611 -347729.000000 0 0 1
5.466699 -4.680969 26.018572 26.995599 -0.708123 0.269861 0.042132 -0.000889 -953465.000000 0 0 1
6.607799 -4.262069 25.134592 26.335830 -0.572856 0.303194 0.046215 -0.006802 -415241.000000 0 0 1
7.840099 -4.326669 25.870662 27.376603 -0.504273 0.333227 0.045387 -0.003461 -50030.600000 0 0 1
8.717999 -5.339269 25.546162 27.515772 -0.549518 0.380662 0.036795 -0.002507 -224933.000000 0 0 1
9.506599 -5.303569 24.211092 26.545814 -0.508875 0.422542 0.035778 -0.007532 -650053.000000 0 0 1
8.744299 -5.659069 23.085062 25.326032 -0.574385 0.423843 0.025912 -0.009710 -110870.000000 0 0 1
9.452999 -5.457869 21.870062 24.442732 -0.523613 0.462932 0.043484 -0.009084 110618.000000 0 1 0
9.381799 -3.989169 21.323262 23.634998 -0.402043 0.445976 0.042657 -0.019684 387282.000000 0 1 0
8.148199 -3.633569 20.716462 22.555881 -0.419469 0.406651 0.036116 -0.033958 -204265.000000 0 1 0
8.091399 -2.386569 20.086362 21.785968 -0.286819 0.397617 0.028265 -0.029540 -434217.000000 0 1 0
6.654199 -1.881569 19.934662 21.099986 -0.275570 0.333900 0.024652 -0.023340 -180155.000000 0 1 0
6.109699 -1.573569 21.221262 22.139253 -0.252074 0.288978 0.031910 -0.016635 312680.000000 0 1 0
4.880999 -0.846569 21.111962 21.685382 -0.171733 0.230478 0.010981 -0.011137 547192.000000 0 1 0
4.241899 -0.592569 22.519362 22.923056 -0.138796 0.187951 0.013005 -0.011529 333451.000000 0 1 0
3.093299 0.255431 22.418162 22.632007 0.082389 0.137577 0.010635 -0.011560 267539.000000 0 1 0
2.616699 0.688431 23.695662 23.849643 0.257261 0.113695 0.023955 -0.015621 1610330.000000 0 1 0
1.109699 1.235431 23.646262 23.704502 0.838961 0.070113 0.021137 -0.015764 1459350.000000 0 1 0
1.003499 2.546431 23.171662 23.332750 1.195403 0.117575 0.016192 -0.014386 961215.000000 0 1 0
-0.385101 2.924431 23.269662 23.455868 -1.439866 0.126088 0.012228 -0.008683 1038840.000000 0 1 0
-0.854401 4.313431 22.757562 23.178488 -1.375248 0.190869 0.020874 -0.010809 -45797.700000 0 1 0
-0.736101 5.337431 23.735752 24.339596 -1.433748 0.223215 0.024891 -0.008938 -73843.000000 0 1 0
-1.522801 6.423431 23.270662 24.188904 -1.338024 0.276420 0.026392 -0.009235 172941.000000 0 1 0
-1.241901 7.779431 24.020572 25.279433 -1.412493 0.316912 0.040844 -0.009321 59878.200000 0 0 1
-0.052401 8.467431 23.694562 25.162122 -1.564608 0.343220 0.041743 -0.007073 -177107.000000 0 0 1
0.043199 9.751431 24.201422 26.092165 1.566366 0.383031 0.067284 -0.010353 -543539.000000 0 0 1
1.032199 10.725431 23.541162 25.889894 1.474853 0.429246 0.074105 -0.016473 1001970.000000 0 0 1
2.452699 10.521431 23.563162 25.921783 1.341772 0.429894 0.051989 -0.018193 552809.000000 0 0 1
3.002399 10.957431 24.821472 27.298080 1.303355 0.429257 0.071639 -0.019184 100920.000000 0 0 1
4.369099 11.707431 24.594262 27.586785 1.213613 0.470099 0.053347 -0.021445 425025.000000 0 0 1
5.477399 10.975431 24.120572 27.060376 1.107901 0.470457 0.019963 -0.013752 -15312.000000 0 0 1
5.373299 10.578431 22.799762 25.702231 1.100810 0.479830 0.041996 -0.014816 -1039070.000000 0 0 1
6.699399 10.176431 22.122162 25.255331 0.988591 0.503415 0.014808 -0.012749 -61837.300000 0 0 1
7.424199 11.322431 21.705162 25.581834 0.990419 0.557728 0.020491 -0.011864 -279221.000000 0 0 1
8.684599 10.852431 21.276662 25.414442 0.895906 0.578675 0.023807 -0.009613 -289827.000000 0 0 1
9.447299 12.058431 20.693362 25.746309 0.906222 0.637240 0.020762 -0.021840 -1151940.000000 0 0 1
8.946799 12.549431 19.473662 24.834591 0.951449 0.669496 0.024022 -0.021916 -295595.000000 0 1 0
9.777699 13.401431 18.762462 25.044595 0.940479 0.724000 0.041355 -0.023260 -28013.300000 0 0 1
11.171899 12.894431 18.310362 25.026926 0.856851 0.750092 0.041428 -0.027131 -297133.000000 0 0 1
12.075399 12.643431 19.331262 26.064714 0.808374 0.735249 0.039092 -0.029989 -679614.000000 0 0 1
13.355599 12.416431 18.775862 26.173895 0.748973 0.770804 0.043536 -0.028329 449413.000000 0 0 1
14.480799 12.172431 19.833762 27.408753 0.699006 0.761751 0.031240 -0.014595 214235.000000 0 0 1
14.951499 13.366431 20.440362 28.635942 0.729482 0.775886 0.019119 -0.014695 -450151.000000 0 0 1
16.017499 12.956431 21.243562 29.592538 0.680140 0.770060 0.017184 -0.012746 -342556.000000 0 0 1
16.761199 14.121431 21.880362 30.969386 0.700128 0.786234 0.018821 -0.011126 -285706.000000 0 0 1
16.007899 14.770431 22.894962 31.600597 0.745214 0.760472 0.015549 -0.011196 327239.000000 0 0 1
16.698399 15.853431 23.510062 32.907306 0.759446 0.774983 0.015661 -0.009338 -321663.000000 0 0 1
-21.048401 13.097501 -24.528385 34.874366 -0.556624 2.350875 0.025745 0.000248 -75939.300000 0 0 1
-20.793001 12.908801 -25.866055 35.609533 -0.555591 2.383837 0.020784 -0.013264 192310.000000 0 0 1
-21.678601 13.730601 -26.621435 36.975559 -0.564596 2.374561 0.009486 -0.013789 -91450.700000 0 0 1
-21.577101 13.732101 -28.127935 38.017399 -0.566769 2.403674 0.008194 -0.006931 -634122.000000 0 0 1
-20.305401 14.175601 -28.486035 37.745346 -0.609463 2.425978 0.037244 -0.005678 -507925.000000 0 0 1
-20.261201 14.458301 -29.896495 38.901917 -0.619792 2.447305 0.036455 -0.004891 -715670.000000 0 0 1
-18.870501 14.940201 -30.226795 38.638899 -0.669673 2.469129 0.040392 -0.006062 -426257.000000 0 0 1
-17.914701 13.886201 -30.225115 37.779898 -0.659391 2.498144 0.041357 -0.014116 44037.700000 0 0 1
-16.559301 14.283101 -30.251855 37.328168 -0.711731 2.515682 0.047443 -0.005836 348549.000000 0 0 1
-15.749001 13.794601 -29.045855 35.804801 -0.719341 2.517045 0.074566 -0.004048 -190185.000000 0 0 1
-16.097801 14.421101 -27.822875 35.230948 -0.730514 2.481162 0.072044 -0.012280 208515.000000 0 0 1
-16.974301 13.619601 -27.014495 34.690105 -0.676182 2.463448 0.065090 -0.002702 198582.000000 0 0 1
-17.549401 14.263501 -25.768315 34.284617 -0.682475 2.421281 0.051654 -0.002621 -132190.000000 0 0 1
-16.512001 14.680401 -24.911385 33.297709 -0.726746 2.416052 0.096493 -0.022268 190335.000000 0 0 1
-17.136201 14.977601 -23.720785 32.873295 -0.718282 2.376881 0.062878 -0.021580 -165957.000000 0 0 1
-16.193901 15.457701 -22.606085 31.815374 -0.762143 2.361061 0.057625 -0.008795 -197556.000000 0 0 1
-15.573401 16.650601 -23.013785 32.394562 -0.818814 2.360893 0.039426 -0.013889 -331519.000000 0 0 1
-14.815301 17.206401 -21.989085 31.608120 -0.859931 2.340160 0.024988 -0.002071 -491557.000000 0 0 1
-14.573501 18.757301 -22.252885 32.548643 -0.910269 2.323591 0.022656 -0.007769 697951.000000 0 0 1
-15.728901 19.628701 -22.285385 33.605396 -0.895250 2.295814 -0.004413 -0.006331 841740.000000 0 0 1
-16.502601 19.528401 -23.475385 34.710056 -0.869179 2.313563 -0.008232 -0.005735 -268503.000000 0 0 1
-17.682801 20.513801 -23.474185 35.840408 -0.859379 2.284932 -0.006829 -0.005909 -310689.000000 0 0 1
-17.437501 21.853901 -23.617385 36.598365 -0.897330 2.272229 -0.012118 -0.008048 -99749.400000 0 0 1
-18.657601 22.567501 -23.659185 37.645122 -0.879958 2.250393 0.021633 -0.014450 147196.000000 0 0 1
-18.426001 24.050501 -23.929885 38.608076 -0.917047 2.239304 0.015097 -0.018327 -154913.000000 0 0 1
-18.050801 24.811101 -22.816785 38.236472 -0.941832 2.210214 0.012525 -0.016714 87884.300000 0 0 1
-17.235301 25.935301 -23.151785 38.803358 -0.984261 2.210109 0.001211 -0.000616 -355377.000000 0 0 1
-16.085701 26.134101 -22.135185 37.837910 -1.019053 2.195677 -0.001475 -0.014208 255998.000000 0 0 1
-14.965801 25.230501 -22.186585 36.780401 -1.035419 2.218326 0.001239 -0.028182 321100.000000 0 0 1
-15.279101 23.911901 -21.875185 35.829508 -1.002211 2.227533 -0.002241 -0.009926 -1742000.000000 0 0 1
-14.107301 22.944901 -21.801785 34.652594 -1.019541 2.251259 0.010362 -0.008000 -224719.000000 0 0 1
-13.274601 23.290001 -20.679885 33.857005 -1.052750 2.227868 0.023817 -0.013242 -67052.300000 0 0 1
-12.393101 22.225501 -20.460885 32.652866 -1.062131 2.248003 0.032282 -0.008338 -153667.000000 0 0 1
-11.698301 22.326301 -19.041185 31.589249 -1.088157 2.217770 0.024983 -0.004686 329609.000000 0 0 1
-12.572401 22.078501 -17.956685 31.112184 -1.053150 2.186042 0.016896 -0.000706 -92951.500000 0 0 1
-13.488201 23.076601 -17.660185 32.036592 -1.041854 2.154659 0.019593 -0.010543 -700331.000000 0 0 1
-14.160701 23.032401 -16.321985 31.582022 -1.019553 2.113920 0.033375 -0.008910 -406683.000000 0 0 1
-13.392201 23.421101 -15.218685 30.975916 -1.051370 2.084386 0.053776 -0.022324 -95882.800000 0 0 1
-14.157101 23.451301 -14.022585 30.773689 -1.027675 2.043919 0.060280 -0.020307 347349.000000 0 0 1
-13.204001 23.719701 -12.822485 30.023091 -1.062848 2.012066 0.075169 -0.023476 196791.000000 0 0 1
-12.629901 24.995901 -12.870085 30.821235 -1.102935 2.001568 0.070391 -0.023614 190544.000000 0 0 1
-11.804301 25.294001 -11.758985 30.288640 -1.134155 1.969507 0.048918 -0.015397 18729.800000 0 0 1
-11.301401 26.736201 -11.636985 31.272440 -1.170875 1.952084 0.055386 -0.025220 -17979.100000 0 0 1
-10.585201 27.070501 -12.806685 31.762709 -1.198052 1.985806 0.048571 -0.034012 106242.000000 0 0 1
-10.484401 28.497101 -12.894485 32.989016 -1.218255 1.972375 0.032366 -0.011844 -873357.000000 0 0 1
-9.993001 29.040401 -14.268485 33.864356 -1.239381 2.005721 0.045835 -0.025738 1158760.000000 0 0 1
-8.580101 29.065101 -14.608585 33.642369 -1.283746 2.019982 0.034517 -0.026399 1021920.000000 0 0 1
-7.946701 27.821401 -14.612785 32.414717 -1.292572 2.038466 0.043083 -0.030304 -369715.000000 0 0 1
-6.547801 27.830401 -15.290685 32.422368 -1.339724 2.061911 0.046179 -0.032017 465749.000000 0 0 1
-5.664301 28.610101 -14.533285 32.585864 -1.375341 2.033087 0.038010 -0.031774 -305655.000000 0 0 1
-4.388401 28.769201 -15.140585 32.804913 -1.419425 2.050520 0.047194 -0.035557 1141350.000000 0 0 1
-3.294301 29.621201 -14.355385 33.080886 -1.460037 2.019667 0.031551 -0.034602 677841.000000 0 0 1
-3.370401 31.020401 -14.397585 34.364449 -1.462570 2.003104 0.022782 -0.033714 30522.800000 0 0 1
-4.569201 31.592201 -13.886385 34.810579 -1.427162 1.981127 0.012777 -0.026522 223129.000000 0 0 1
-4.615401 33.139201 -14.154185 36.329733 -1.432413 1.970997 0.008939 -0.022770 -310673.000000 0 0 1
-3.742801 33.885301 -13.377085 36.621968 -1.460787 1.944724 0.002200 -0.024361 -394197.000000 0 0 1
-3.893801 -33.601369 -13.710085 36.499043 1.455429 1.955871 0.004359 -0.018338 -87170.000000 0 0 1
-3.056901 -32.711469 -12.844385 35.275531 1.477617 1.943480 0.009253 -0.019884 -51043.000000 0 0 1
-3.510901 -32.593969 -11.487285 34.736882 1.463494 1.907835 0.011926 -0.021176 -578124.000000 0 0 1
-2.439901 -32.231369 -10.708085 34.051099 1.495241 1.890696 0.000390 -0.019492 -659129.000000 0 0 1
-2.778701 -32.131369 -9.221385 33.543703 1.484532 1.849289 -0.003401 -0.011378 -182917.000000 0 0 1
-1.676901 -31.646369 -8.481685 32.806153 1.517857 1.832306 -0.007004 -0.014006 -85933.800000 0 0 1
-2.035401 -31.512669 -7.107285 32.368267 1.506296 1.792176 0.000814 -0.021619 -179787.000000 0 0 1
-0.894501 -31.058669 -6.205185 31.685097 1.542004 1.767910 0.007472 -0.019930 -196653.000000 0 0 1
-1.282001 -30.864969 -4.854085 31.270625 1.529284 1.726655 0.016491 -0.012919 -438595.000000 0 0 1
-0.125001 -30.463669 -4.203285 30.752535 1.566693 1.707906 0.005281 -0.008701 -199530.000000 0 0 1
-0.234201 -30.452269 -2.662985 30.569381 1.563106 1.658020 0.000969 -0.004532 -238765.000000 0 0 1
-0.525101 -31.733469 -1.982885 31.799696 1.554251 1.633192 0.009733 -0.005790 1578800.000000 0 0 1
0.530499 -32.778369 -2.128985 32.851720 -1.554613 1.635648 0.001210 -0.002490 2062020.000000 0 0 1
2.006699 -32.484869 -1.716685 32.592033 -1.509101 1.623493 0.015292 -0.003654 -81678.500000 0 0 1
2.195099 -32.551069 -0.281985 32.626218 -1.503463 1.579439 0.004302 0.004157 95137.900000 0 0 1
3.527099 -32.304569 0.120315 32.496771 -1.462044 1.567094 0.010130 0.001887 110879.000000 0 0 1
3.946899 -30.816469 0.171315 31.068668 -1.443412 1.565282 0.002849 -0.003127 -851179.000000 0 0 1
4.119699 -30.216369 -1.085685 30.515236 -1.435292 1.606382 0.016310 -0.020108 91918.800000 0 0 1
4.227699 -28.754569 -0.970085 29.079886 -1.424815 1.604162 0.016163 -0.009877 -246534.000000 0 0 1
3.891499 -28.089969 -2.317785 28.452808 -1.433136 1.652347 0.013558 -0.011295 1804070.000000 0 0 1
2.487399 -28.156569 -2.763685 28.401012 -1.482683 1.668260 0.008527 -0.011816 1813880.000000 0 0 1
2.042299 -27.213569 -3.741685 27.545409 -1.495890 1.707055 0.007200 -0.016195 66528.100000 0 0 1
2.618299 -27.292369 -5.169185 27.900706 -1.475154 1.757144 0.003076 -0.012554 -239017.000000 0 0 1
2.176399 -28.439269 -5.831685 29.112494 -1.494417 1.772476 -0.001558 -0.013354 -246766.000000 0 0 1
2.633899 -28.433569 -7.128485 29.431626 -1.478427 1.815434 0.004602 -0.027552 -618253.000000 0 0 1
1.885899 -29.373369 -8.111985 30.531226 -1.506680 1.839721 0.000813 -0.025813 357303.000000 0 0 1
0.575199 -28.844469 -8.366385 30.038819 -1.550858 1.853048 0.003452 -0.018010 243848.000000 0 0 1
0.346599 -28.847469 -9.753885 30.453816 -1.558782 1.896826 0.004818 -0.016094 -585841.000000 0 0 1
-0.983001 -28.172769 -10.015385 29.916202 1.535919 1.912169 0.004743 -0.014074 -1033810.000000 0 0 1
-1.031101 -26.858869 -9.486385 28.503571 1.532426 1.910082 0.003968 -0.013400 -101546.000000 0 0 1
-2.295501 -26.227069 -9.579185 28.015876 1.483495 1.919755 0.013950 -0.015288 939168.000000 0 0 1
-3.387301 -26.718369 -8.536485 28.252728 1.444691 1.877741 0.020892 -0.012113 34479.200000 0 0 1
-3.085601 -26.550769 -7.159085 27.671588 1.455100 1.832489 0.021834 -0.012541 -246344.000000 0 0 1
-2.041001 -27.383569 -6.687885 28.262225 1.496400 1.809699 0.009075 -0.015118 153698.000000 0 0 1
-1.677801 -26.898769 -5.251985 27.458007 1.508502 1.763256 0.015840 -0.013230 -252467.000000 0 0 1
-2.493001 -27.409069 -4.218085 27.843570 1.480091 1.722874 0.028333 -0.015411 -361548.000000 0 0 1
-2.097801 -27.148669 -2.923085 27.386045 1.493679 1.677736 0.026706 -0.006212 -772836.000000 0 0 1
-3.116401 -27.361169 -1.811785 27.597611 1.457386 1.636494 0.016388 -0.007720 -1462120.000000 0 0 1
-4.258701 -26.650569 -1.946185 27.058770 1.412338 1.642783 0.018624 0.005956 -923350.000000 0 0 1
-5.098701 -26.598469 -0.781885 27.094034 1.381402 1.599659 0.020672 -0.006288 415232.000000 0 0 1
-6.040501 -25.381869 -0.805985 26.103191 1.337158 1.601678 0.015430 -0.000811 -21448.500000 0 0 1
-5.454001 -24.186069 -0.360485 24.796008 1.349004 1.585335 -0.009777 0.009292 368724.000000 0 1 0
-6.470101 -23.375169 0.263015 24.255513 1.300763 1.559953 0.010167 0.005748 889453.000000 0 1 0
-5.833201 -21.968569 0.514215 22.735626 1.311260 1.548177 -0.006699 0.005406 251639.000000 0 1 0
-4.948001 -21.784969 1.573815 22.395189 1.347456 1.500464 -0.012263 0.000731 -214024.000000 0 1 0
-4.363301 -20.511369 1.600215 21.031295 1.361195 1.494635 -0.021764 0.000698 583237.000000 0 1 0
-3.260801 -20.310969 2.725915 20.750877 1.411611 1.439052 -0.014126 0.000882 561930.000000 0 1 0
-3.803001 -20.168369 4.074115 20.924253 1.384422 1.374837 -0.012627 0.007772 591609.000000 0 1 0
-2.791501 -20.165869 5.097815 20.986722 1.433243 1.325435 0.001342 0.004256 325372.000000 0 1 0
-2.084301 -21.509769 5.416815 22.279057 1.474198 1.325200 0.000088 -0.003628 -86520.600000 0 1 0
-1.278801 -21.821669 4.332315 22.284289 1.512261 1.375139 0.009199 -0.009446 -884085.000000 0 1 0
-0.474501 -22.921769 4.630315 23.389581 1.550098 1.371515 0.011316 -0.013111 -668259.000000 0 1 0
0.502299 -23.335269 3.518615 23.604401 -1.549274 1.421173 0.008847 -0.021936 -128640.000000 0 1 0
1.663699 -22.592469 3.348815 22.899828 -1.497289 1.424032 -0.000673 -0.020789 -297762.000000 0 1 0
2.727599 -22.912269 4.221815 23.457101 -1.452309 1.389830 0.019263 -0.019638 -488798.000000 0 1 0
3.766499 -21.794369 4.394815 22.549844 -1.399667 1.374648 0.030649 -0.025821 -25478.400000 0 1 0
4.488199 -21.613769 3.171215 22.301470 -1.366052 1.428115 0.025489 -0.021955 -781185.000000 0 1 0
5.586099 -20.809869 3.461515 21.822861 -1.308544 1.411505 0.038111 -0.018831 -140968.000000 0 1 0
6.502699 -20.571469 2.244815 21.691234 -1.264633 1.467121 0.050478 -0.014528 -61572.900000 0 1 0
7.119299 -21.716569 1.728615 22.919030 -1.254009 1.495302 0.053568 -0.010896 -272911.000000 0 1 0
7.014499 -21.742569 0.316515 22.848254 -1.258722 1.556943 0.059383 -0.014846 -62930.600000 0 1 0
7.921899 -22.773269 -0.382785 24.114825 -1.236030 1.586670 0.058614 -0.005263 -469441.000000 0 1 0
9.225899 -22.321769 -0.539785 24.159263 -1.178865 1.593141 0.057635 -0.001988 -794338.000000 0 1 0
9.917999 -23.103169 -1.523985 25.188205 -1.165296 1.631337 0.053105 -0.007376 1247280.000000 0 0 1
11.287399 -22.521869 -2.069185 25.276897 -1.106209 1.652749 0.049099 0.001538 940245.000000 0 0 1
11.137499 -21.399469 -2.853485 24.292459 -1.090918 1.688532 0.045292 0.002030 6990.190000 0 1 0
12.348699 -21.251769 -3.567985 24.836638 -1.044415 1.714953 0.043171 0.001938 204730.000000 0 1 0
12.332199 -20.031169 -4.452085 23.940592 -1.018949 1.757849 0.029510 -0.007839 -246418.000000 0 1 0
12.655699 -18.811569 -3.842785 22.995844 -0.978586 1.738692 0.047541 -0.004432 208550.000000 0 1 0
12.449599 -17.686269 -4.738085 22.141502 -0.957449 1.786455 0.033119 -0.009573 -954178.000000 0 1 0
12.811899 -16.407069 -4.009885 21.199431 -0.907825 1.761093 0.034277 -0.008250 1471760.000000 0 1 0
14.173299 -16.164869 -3.543985 21.788649 -0.850950 1.734175 0.028966 -0.009835 2138570.000000 0 1 0
15.223699 -16.180769 -4.524785 22.672715 -0.815864 1.771715 0.031992 -0.009920 833449.000000 0 1 0
16.696399 -15.805569 -4.158085 23.363977 -0.757997 1.749719 0.034999 -0.006781 747841.000000 0 1 0
17.318799 -16.592669 -3.158485 24.191600 -0.763989 1.701731 0.040769 -0.012668 -131781.000000 0 1 0
18.680199 -16.243769 -3.177785 24.958129 -0.715747 1.698468 0.031943 -0.004534 -91049.400000 0 1 0
19.508399 -17.246269 -2.308485 26.140783 -0.723929 1.659221 0.023707 -0.014750 -652013.000000 0 0 1
20.890099 -17.209269 -2.313985 27.164494 -0.689086 1.656084 0.014491 -0.013472 -685992.000000 0 0 1
21.466599 -18.163469 -1.411785 28.155277 -0.702241 1.620960 0.007260 -0.011362 594573.000000 0 0 1
23.015499 -18.211969 -1.597685 29.392884 -0.669408 1.625179 0.000362 -0.015741 536247.000000 0 0 1
23.640899 -16.974769 -1.295285 29.132674 -0.622721 1.615273 0.005285 -0.013371 15954.300000 0 0 1
24.941099 -17.134169 -0.769785 30.269304 -0.601938 1.596230 0.019216 -0.016150 112211.000000 0 0 1
25.546099 -15.785469 -0.346085 30.031717 -0.553493 1.582321 0.024051 -0.018351 -80121.800000 0 0 1
24.894499 -15.213969 0.770215 29.185513 -0.548569 1.544403 0.011783 -0.017957 146182.000000 0 0 1
25.501099 -14.042569 1.175015 29.135553 -0.503354 1.530456 0.003022 -0.016353 -301791.000000 0 0 1
24.611699 -13.449769 2.243715 28.136565 -0.500136 1.490968 0.019202 -0.026449 -367439.000000 0 0 1
24.427099 -14.128369 3.466715 28.430830 -0.524378 1.448557 0.038719 -0.014992 -194406.000000 0 0 1
25.579199 -14.497869 4.202615 29.700936 -0.515637 1.428822 0.055507 -0.008848 -142397.000000 0 0 1
25.434399 -15.054569 5.633615 30.087977 -0.534441 1.382447 0.047574 -0.001527 255779.000000 0 0 1
24.705899 -16.283769 5.570715 30.109392 -0.582749 1.384708 0.034333 -0.004698 -65827.600000 0 0 1
23.879799 -16.468569 6.691515 29.769699 -0.603742 1.344083 0.021831 0.001769 -295504.000000 0 0 1
23.068199 -17.749769 6.596815 29.844834 -0.655832 1.347919 0.014414 0.000084 -192376.000000 0 0 1
23.842299 -18.944669 6.660615 31.172416 -0.671429 1.355466 0.015334 -0.001681 -397359.000000 0 0 1
23.018099 -20.049169 6.712415 31.254737 -0.716570 1.354345 0.001172 0.008140 -538988.000000 0 0 1
1.726199 23.479201 -3.118185 23.748173 1.497408 1.702479 0.032390 -0.008388 8050.740000 0 1 0
2.791299 24.287701 -2.667085 24.592623 1.456372 1.679461 0.032203 -0.008628 -8173.870000 0 1 0
3.188499 25.130801 -3.760485 25.609860 1.444594 1.718167 0.040863 -0.005020 384277.000000 0 0 1
4.227299 26.184001 -3.243285 26.720607 1.410732 1.692474 0.030532 0.004130 356088.000000 0 0 1
5.451199 25.666801 -2.769285 26.385018 1.361523 1.675947 0.028287 0.000932 77866.800000 0 0 1
6.183299 26.660301 -2.058085 27.445228 1.342897 1.645856 0.024153 0.001957 -281279.000000 0 0 1
7.370999 26.110001 -1.293885 27.161331 1.295651 1.618451 0.013369 -0.012124 -630226.000000 0 0 1
8.549999 25.970201 -2.041685 27.417554 1.252749 1.645332 0.006770 -0.018072 -337411.000000 0 0 1
9.323099 24.972101 -1.357785 26.690252 1.213481 1.621690 0.009482 -0.006303 -78898.300000 0 0 1
10.536199 24.470701 -2.143085 26.728627 1.164223 1.651062 0.017265 -0.005680 -91532.800000 0 0 1
11.622099 25.416001 -2.209685 28.034425 1.141909 1.649699 0.018587 -0.003223 557914.000000 0 0 1
12.455599 25.244601 -3.341685 28.347816 1.112445 1.688953 0.023256 -0.010565 979928.000000 0 0 1
13.526499 24.052201 -3.381185 27.801204 1.058497 1.692718 0.038069 -0.011163 -49052.500000 0 0 1
12.931599 22.776701 -3.427685 26.415022 1.054423 1.700926 0.037690 -0.016001 10921.100000 0 0 1
12.740999 22.389501 -4.762985 26.197497 1.053437 1.753624 0.035855 -0.016248 -830166.000000 0 0 1
11.862699 21.205501 -5.007085 24.808623 1.060753 1.774021 0.040588 -0.020042 -481359.000000 0 1 0
10.510599 21.576901 -4.847685 24.485412 1.117503 1.770096 0.044959 -0.015531 32102.100000 0 1 0
9.659599 20.425801 -4.759685 23.090600 1.129053 1.778416 0.027081 -0.010952 58031.100000 0 1 0
8.161599 20.721001 -4.667885 22.754356 1.195576 1.777406 0.014310 -0.008985 -79620.400000 0 1 0
7.724099 21.295401 -3.407985 22.907862 1.222842 1.720120 0.014339 -0.005390 92052.100000 0 1 0
6.449199 21.894901 -3.483185 23.089206 1.284345 1.722232 0.020698 0.008205 153701.000000 0 1 0
5.779599 22.401601 -2.228985 23.242286 1.318303 1.666846 0.022951 -0.001204 -17066.000000 0 1 0
5.325599 21.436501 -1.322685 22.127699 1.327290 1.630607 0.019045 -0.009641 180730.000000 0 1 0
4.597999 22.095801 -0.262085 22.570660 1.365631 1.582408 0.024827 -0.005234 338646.000000 0 1 0
4.248299 21.154601 0.930115 21.596997 1.372611 1.527716 0.022993 -0.010102 -73151.300000 0 1 0
3.560599 21.758501 2.018215 22.140086 1.408592 1.479513 0.027263 -0.008838 199586.000000 0 1 0
3.231499 20.819701 3.061515 21.290265 1.416812 1.426497 0.023733 -0.012424 -179295.000000 0 1 0
2.314099 21.429501 4.151415 21.950235 1.463227 1.380522 0.026385 -0.013869 211294.000000 0 1 0
0.993499 21.526901 3.618815 21.851552 1.524678 1.404421 0.021467 -0.014265 403401.000000 0 1 0
0.118099 22.080201 4.611215 22.556873 1.565448 1.364919 0.022928 -0.018415 59940.200000 0 1 0
-1.345701 22.127101 4.166315 22.556101 -1.510054 1.385021 0.020010 -0.018065 22386.800000 0 1 0
-2.348301 22.493301 5.094215 23.182194 -1.466773 1.349241 0.026428 -0.019571 760766.000000 0 1 0
-3.614301 22.745601 4.460315 23.458899 -1.413213 1.379499 0.024458 -0.018649 408447.000000 0 1 0
-4.692501 23.121401 5.449315 24.213917 -1.370565 1.343803 0.028471 -0.024915 -563152.000000 0 1 0
-4.885601 24.428301 5.744815 25.565873 -1.373403 1.344155 0.037266 -0.017803 -45666.200000 0 0 1
-5.831101 24.592601 6.778515 26.167652 -1.337988 1.308766 0.045978 -0.023819 -76128.600000 0 0 1
-6.207401 26.024601 7.150715 27.693761 -1.336651 1.309631 0.051546 -0.022834 -222774.000000 0 0 1
-5.139701 26.748001 7.744815 28.317031 -1.380957 1.293763 0.047280 -0.021382 112674.000000 0 0 1
-5.443601 28.061701 8.179915 29.732185 -1.379189 1.292082 0.052632 -0.032022 -186845.000000 0 0 1
-5.822101 29.142201 7.185515 30.574439 -1.373610 1.333560 0.060074 -0.036815 -408520.000000 0 0 1
-7.137101 29.023601 6.739415 30.638657 -1.329674 1.349018 0.056531 -0.030125 -865157.000000 0 0 1
-7.372801 30.161001 5.908015 31.606151 -1.331050 1.382764 0.063153 -0.028193 -210060.000000 0 0 1
-8.856301 30.392701 5.577715 32.144381 -1.287252 1.396393 0.067716 -0.024289 347093.000000 0 0 1
-9.724501 30.899801 6.605215 33.060437 -1.265899 1.369651 0.072429 -0.023367 321676.000000 0 0 1
-10.261701 29.896201 7.454115 32.475362 -1.240153 1.339200 0.064749 -0.023942 -138505.000000 0 0 1
-11.224701 30.381001 8.568915 33.502618 -1.216888 1.312154 0.058444 -0.023310 534566.000000 0 0 1
-10.472301 31.090501 9.582615 34.177695 -1.245900 1.286610 0.060709 -0.027731 377541.000000 0 0 1
-11.366801 31.459801 10.606615 35.091644 -1.224080 1.263739 0.059518 -0.022272 46647.800000 0 0 1
-10.726201 31.953101 11.934615 35.755937 -1.246930 1.230486 0.055277 -0.023860 -300732.000000 0 0 1
-10.231101 33.257701 11.784215 36.737145 -1.272353 1.244253 0.057960 -0.019067 206796.000000 0 0 1
-9.311701 33.467001 12.852515 37.039642 -1.299425 1.216433 0.055773 -0.021400 344335.000000 0 0 1
-8.679801 -34.018569 12.837315 37.381796 1.320978 1.220250 0.060056 -0.024366 -114810.000000 0 0 1
-9.622301 -33.162369 13.431415 37.050429 1.288394 1.199829 0.062387 -0.014350 -23302.500000 0 0 1
-9.100101 -31.897969 13.642615 35.866603 1.292891 1.180599 0.066213 -0.005141 458740.000000 0 0 1
-10.182501 -30.879669 14.171415 35.469230 1.252276 1.159780 0.065545 -0.010838 238791.000000 0 0 1
-10.465001 -30.983669 15.519215 36.198757 1.245068 1.127718 0.053812 -0.020281 620084.000000 0 0 1
-9.370801 -30.969669 16.486915 36.314607 1.276974 1.099544 0.065708 -0.021606 747626.000000 0 0 1
-9.826101 -31.177669 18.001415 37.318230 1.265486 1.067431 0.063062 -0.027192 -85825.600000 0 0 1
-10.540101 -30.133369 18.575115 36.934382 1.234316 1.043820 0.079603 -0.034952 -66062.400000 0 0 1
-11.346501 -30.511069 19.653815 38.025529 1.214763 1.027619 0.080223 -0.035519 -77716.900000 0 0 1
-11.429601 -29.471069 20.799415 37.839072 1.200830 0.988814 0.071554 -0.041788 -272288.000000 0 0 1
-10.234701 -29.547169 21.517215 37.957540 1.237345 0.968088 0.056494 -0.032156 -195335.000000 0 0 1
-10.306101 -28.678969 22.638015 37.962860 1.225807 0.931887 0.042332 -0.029371 -198415.000000 0 0 1
-9.082501 -28.556069 23.549115 38.111701 1.262856 0.904731 0.048380 -0.030645 -290386.000000 0 0 1
-8.869701 -29.676869 24.430815 39.449371 1.280371 0.902951 0.043824 -0.017951 -194557.000000 0 0 1
-7.587901 -29.798869 24.991515 39.624799 1.321458 0.888336 0.052082 -0.015808 -99507.100000 0 0 1
-7.486401 -30.927469 26.000615 41.092415 1.333301 0.885716 0.052431 -0.012366 -136318.000000 0 0 1
-7.585601 -32.190569 25.394515 41.697188 1.339372 0.915969 0.076326 -0.008544 243593.000000 0 0 1
-7.583501 -33.183169 26.451915 43.108422 1.346120 0.910167 0.073488 -0.009012 -192247.000000 0 0 1
-7.552001 34.191001 25.956315 43.586552 -1.353410 0.932893 0.066377 -0.009893 346310.000000 0 0 1
-6.214401 33.962501 25.490115 42.916386 -1.389820 0.934839 0.057611 -0.004304 788189.000000 0 0 1
-5.949601 32.653801 24.951315 41.523928 -1.390571 0.926182 0.056556 -0.000568 -489561.000000 0 0 1
-6.620801 32.183401 23.677315 40.499648 -1.367906 0.946372 0.062118 -0.002396 -575053.000000 0 0 1
-7.864701 31.618901 24.011715 40.474323 -1.327009 0.935696 0.063100 -0.001336 -98290.400000 0 0 1
-8.542801 31.357601 22.782215 39.690148 -1.304820 0.959412 0.046071 0.005006 255591.000000 0 0 1
-9.521301 30.145401 22.831915 38.996111 -1.264866 0.945309 0.041852 -0.006584 60036.300000 0 0 1
-8.830101 28.937101 22.682015 37.812700 -1.274623 0.927480 0.048166 -0.001781 337544.000000 0 0 1
-9.626701 27.799601 23.049415 37.373342 -1.237431 0.906209 0.043611 -0.005257 -173991.000000 0 0 1
-8.924401 26.520701 22.648215 35.999085 -1.246192 0.890359 0.039238 -0.007310 41257.500000 0 0 1
-7.887501 26.157701 23.560515 36.076805 -1.277931 0.859171 0.021452 -0.000314 282755.000000 0 0 1
-7.348101 24.914701 23.166915 34.805787 -1.283997 0.842492 0.024630 -0.002846 -100201.000000 0 0 1
-5.931101 24.630001 23.688715 34.683859 -1.334488 0.818949 0.007022 0.004072 -381535.000000 0 0 1
-4.889701 25.252401 23.004515 34.507979 -1.379530 0.841100 -0.006287 0.011659 -23013.400000 0 0 1
-3.665601 25.058201 23.726015 34.702649 -1.425543 0.817983 0.007268 0.005424 378795.000000 0 0 1
-2.439501 25.579401 22.961815 34.460149 -1.475714 0.841521 0.008697 0.015209 -375838.000000 0 0 1
-2.183501 24.737401 21.884215 33.100235 -1.482757 0.848446 0.005288 0.014562 125818.000000 0 0 1
-1.217001 25.297301 20.997115 32.898531 -1.522725 0.878588 0.010781 0.017118 280263.000000 0 0 1
-0.744901 24.322801 19.891415 31.429634 -1.540180 0.885520 0.014099 0.014366 -579617.000000 0 0 1
0.061999 23.335701 20.424215 31.011406 1.568139 0.851835 0.010951 0.006820 -499276.000000 0 0 1
0.236099 22.264301 19.514215 29.606746 1.560192 0.851157 0.009038 0.008357 -858681.000000 0 0 1
1.460299 21.448901 19.836615 29.251993 1.502819 0.825583 0.016059 0.009757 -1335210.000000 0 0 1
2.604699 22.195101 19.632415 29.746238 1.453976 0.849982 0.023732 0.002918 -1042220.000000 0 0 1
3.717299 21.327401 19.621215 29.217604 1.398233 0.834492 0.023479 0.007746 526097.000000 0 0 1
5.095099 21.953801 19.225615 29.623532 1.342751 0.864530 0.026552 0.001044 712264.000000 0 0 1
6.148399 21.010901 19.328215 29.203436 1.286116 0.847516 0.026230 0.001125 -374728.000000 0 0 1
7.330499 21.581201 18.852415 29.578675 1.243353 0.879722 0.044471 -0.008202 -550427.000000 0 0 1
8.489499 20.654501 18.476715 28.983944 1.180823 0.879572 0.041215 0.005677 -203531.000000 0 0 1
8.866799 19.964101 19.653115 29.384186 1.152829 0.838158 0.052195 -0.003319 84829.000000 0 0 1
9.835099 18.972301 19.348815 28.828007 1.092543 0.834995 0.037589 -0.000414 34149.700000 0 0 1
10.330099 18.140101 20.518615 29.270937 1.053134 0.794013 0.039489 -0.003337 49027.100000 0 0 1
9.400499 17.154601 21.000115 28.699382 1.069500 0.749944 0.043017 -0.004338 294503.000000 0 0 1
9.815099 16.552101 22.243115 29.411977 1.035553 0.713218 0.033353 -0.006068 -516942.000000 0 0 1
8.909999 15.433201 22.671015 28.836551 1.047215 0.666177 0.023812 -0.004689 169069.000000 0 0 1
7.720099 15.822701 23.386815 29.272870 1.116865 0.645291 0.024090 0.002193 461246.000000 0 0 1
6.858099 14.736301 23.640015 28.688715 1.135220 0.602330 0.025111 0.004971 -105004.000000 0 0 1
7.321499 13.672001 24.676715 29.145638 1.079146 0.561102 0.032371 0.000387 -716258.000000 0 0 1
7.506599 14.272901 25.949515 30.552284 1.086618 0.556048 0.028853 -0.007682 3188.150000 0 0 1
7.748299 13.354901 26.969615 31.076513 1.045075 0.519947 0.034749 -0.008172 -749494.000000 0 0 1
8.696199 13.930201 28.036715 32.492026 1.012723 0.529856 0.023298 0.002767 -770681.000000 0 0 1
10.035399 13.994401 27.696815 32.613893 0.948685 0.556264 0.041781 0.000857 -691715.000000 0 0 1
10.457199 15.023901 26.850515 32.496473 0.962735 0.598362 0.038566 -0.002138 -1077080.000000 0 0 1
11.684499 14.821001 25.984715 32.115339 0.903184 0.628167 0.045348 -0.006463 -766747.000000 0 0 1
11.489199 14.058001 24.741815 30.688540 0.885613 0.633056 0.036425 -0.009843 21741.800000 0 0 1
12.679099 13.823101 24.017415 30.474151 0.828538 0.663041 0.030722 -0.005596 -211879.000000 0 0 1
12.463599 12.625401 23.028415 29.069743 0.791847 0.656427 0.026612 -0.009051 8567.620000 0 0 1
12.291799 11.358401 23.612315 28.942063 0.745952 0.616603 0.033684 -0.008316 1307880.000000 0 0 1
10.931499 11.200601 24.108715 28.743369 0.797556 0.575799 0.038346 -0.008897 909488.000000 0 0 1
10.683799 9.788101 24.654815 28.597384 0.741673 0.531327 0.029113 -0.008609 -118820.000000 0 0 1
10.555099 8.721701 23.713715 27.382813 0.690574 0.523635 0.038960 -0.002799 179938.000000 0 0 1
10.153599 7.544001 24.360515 27.448902 0.638998 0.478936 0.040926 -0.006849 -1539.150000 0 0 1
10.114799 6.329701 23.425215 26.289065 0.559164 0.471114 0.061426 -0.024093 -619542.000000 0 0 1
11.351799 5.951801 22.910915 26.252567 0.482902 0.510068 0.062156 -0.024488 -427993.000000 0 0 1
11.270199 4.546601 22.459715 25.536792 0.383449 0.495977 0.067801 -0.021490 -23939.100000 0 0 1
11.601199 3.508701 23.535815 26.473258 0.293697 0.475550 0.061170 -0.016148 -423879.000000 0 0 1
12.954299 3.421701 23.908415 27.406828 0.258239 0.510802 0.057720 -0.019353 -54844.100000 0 0 1
13.154499 2.298601 24.755415 28.127477 0.172992 0.494692 0.056444 -0.016319 24655.400000 0 0 1
14.681399 2.154101 24.994415 29.067239 0.145684 0.535757 0.052309 -0.018011 145997.000000 0 0 1
15.212199 1.042701 24.330615 28.713708 0.068437 0.559818 0.027594 -0.012163 431764.000000 0 0 1
16.629099 1.087701 24.241915 29.417350 0.065316 0.602240 0.040290 -0.017012 326640.000000 0 0 1
17.335399 -0.082499 23.517115 29.216050 -0.004759 0.635225 0.034453 -0.009692 -19708.500000 0 0 1
17.189399 -1.367999 24.084015 29.620713 -0.079417 0.621373 0.017064 -0.007231 -139743.000000 0 0 1
18.300699 -2.165199 23.790515 30.093060 -0.117765 0.659066 0.009415 -0.000983 -585927.000000 0 0 1
18.103399 -3.635599 24.223615 30.458729 -0.198188 0.651306 0.014816 0.008277 90030.800000 0 0 1
17.146399 -4.297899 23.390715 29.318876 -0.245599 0.647152 0.012634 0.003562 412931.000000 0 0 1
16.939199 -5.611799 23.721615 29.684066 -0.319911 0.644939 0.043535 -0.000092 -176552.000000 0 0 1
16.005499 -6.405099 22.771815 28.561457 -0.380663 0.648001 0.037221 -0.004930 -118821.000000 0 0 1
16.494299 -6.745999 21.434615 27.874955 -0.388232 0.693590 0.029029 -0.004774 145315.000000 0 0 1
15.770299 -7.794999 20.772715 27.220765 -0.459064 0.702669 0.047837 -0.010317 57967.900000 0 0 1
16.176699 -9.250799 21.094015 28.146409 -0.519471 0.723582 0.056731 -0.012484 17985.100000 0 0 1
15.811199 -9.596599 22.394115 29.044537 -0.545514 0.690344 0.044670 -0.004781 200108.000000 0 0 1
16.640999 -10.687599 22.851315 30.221354 -0.570904 0.713415 0.052279 -0.006953 283291.000000 0 0 1
16.077199 -11.512699 24.032815 31.122255 -0.621442 0.688489 0.071911 -0.024921 -257718.000000 0 0 1
14.930799 -12.213399 23.632815 30.505833 -0.685621 0.684559 0.061276 -0.011950 -228790.000000 0 0 1
14.531499 -13.125599 24.645215 31.477491 -0.734609 0.671407 0.068523 -0.004866 -212506.000000 0 0 1
13.478399 -14.130699 24.161415 31.066346 -0.809020 0.679740 0.065550 -0.002363 -436450.000000 0 0 1
13.878099 -15.012599 23.130715 30.870856 -0.824647 0.723832 0.059905 0.001397 -475225.000000 0 0 1
12.891599 -15.898299 22.701915 30.566750 -0.889457 0.733703 0.061038 0.004802 -658671.000000 0 0 1
13.213899 -16.772599 21.486115 30.291589 -0.903522 0.782278 0.059408 0.001690 83492.600000 0 0 1
14.258399 -17.728199 21.611415 31.379041 -0.893452 0.811072 0.056887 0.001078 305359.000000 0 0 1
14.645699 -18.342299 20.393615 31.093986 -0.896992 0.855462 0.049465 0.007997 114316.000000 0 0 1
-23.753501 -32.250969 26.529862 48.043599 0.935978 0.985791 0.023463 -0.016360 -384176.000000 0 0 1
-24.190701 -33.103369 27.521192 49.380554 0.939721 0.979632 0.030777 -0.018400 -365642.000000 0 0 1
-25.283131 -33.778669 26.971282 50.076794 0.928260 1.002024 0.013627 -0.015565 -274805.000000 0 0 1
-26.061791 34.144201 27.900462 51.219910 -0.918846 0.994742 0.004503 -0.011293 -138500.000000 0 0 1
-26.941771 -34.197369 28.863082 52.234056 0.903519 0.985349 0.018596 -0.017519 257066.000000 0 0 1
-26.263601 -33.842969 30.058222 52.331826 0.910835 0.958953 0.015424 -0.023188 -251989.000000 0 0 1
-27.133461 -33.024269 30.990232 52.794143 0.883010 0.943446 0.003915 -0.025929 -405021.000000 0 0 1
-27.304201 -31.691569 30.571492 51.812075 0.859629 0.939681 -0.005596 -0.016206 138264.000000 0 0 1
-27.994231 -30.968469 31.588962 52.350602 0.835798 0.923024 -0.008781 -0.007297 -172727.000000 0 0 1
-28.254761 -29.489669 31.308552 51.460641 0.806781 0.916756 -0.013465 -0.010699 -9352.350000 0 0 1
-29.088811 -29.364569 30.149262 51.160677 0.790116 0.940598 -0.023065 0.002464 418314.000000 0 0 1
-29.427441 -28.013469 29.910022 50.451344 0.760787 0.936204 -0.013271 0.002859 125847.000000 0 0 1
-30.127871 -27.764869 28.519582 49.919366 0.744604 0.962692 -0.027098 -0.003322 696439.000000 0 0 1
-29.230451 -27.653769 27.372712 48.666370 0.757688 0.973443 -0.022132 -0.007584 736244.000000 0 0 1
-28.609231 -26.358369 27.326182 47.539162 0.744472 0.958419 -0.016745 -0.002830 739840.000000 0 0 1
-27.556651 -26.166069 26.134462 46.119869 0.759520 0.968345 -0.013874 -0.001627 374114.000000 0 0 1
-28.104341 -26.299369 24.863562 45.822566 0.752233 0.997261 -0.014761 -0.003234 -347266.000000 0 0 1
-27.231761 -25.975769 23.824612 44.541234 0.761797 1.006420 -0.000610 0.003107 -586156.000000 0 0 1
-27.802271 -26.350769 22.431662 44.390413 0.758601 1.041036 -0.012794 0.004277 117185.000000 0 0 1
-28.590501 -25.283869 21.882262 43.994593 0.724098 1.050214 -0.012910 0.000427 287319.000000 0 0 1
-29.103681 -25.707869 20.640762 43.976810 0.723523 1.082235 -0.013113 0.004902 -508610.000000 0 0 1
-29.917101 -24.646869 19.920662 43.581348 0.689109 1.096074 -0.010985 0.002096 -631869.000000 0 0 1
-31.233661 -24.491669 20.386762 44.620662 0.664997 1.096300 -0.012787 -0.001723 -558593.000000 0 0 1
-31.660641 -23.309769 19.764962 44.004491 0.634635 1.104974 0.001449 0.002964 340799.000000 0 0 1
-33.179921 -22.984869 19.968462 45.032775 0.605833 1.111385 -0.001959 0.009499 390326.000000 0 0 1
-34.036931 -23.970769 19.418962 45.936984 0.613578 1.134340 -0.003524 0.008021 -235895.000000 0 0 1
-35.344778 -23.412569 19.511262 46.670023 0.585047 1.139478 0.009855 0.000101 52577.600000 0 0 1
34.877124 -24.344569 18.751362 46.483174 -0.609389 1.155566 0.019083 -0.007808 -196973.000000 0 0 1
34.684734 -25.549669 19.457562 47.269579 -0.634887 1.146555 0.017795 -0.011313 -101228.000000 0 0 1
34.282354 -26.599869 18.591862 47.206887 -0.659876 1.165993 0.018893 -0.004798 -152960.000000 0 0 1
33.775494 -27.945269 19.159562 47.841519 -0.691216 1.158756 0.020450 0.002971 655077.000000 0 0 1
32.521234 -27.907369 19.869662 47.236166 -0.709194 1.136640 0.020664 0.002227 550565.000000 0 0 1
32.503224 -27.259069 21.119262 47.387126 -0.697872 1.108868 0.022031 -0.007295 -873476.000000 0 0 1
31.112384 -27.163669 21.729562 46.669254 -0.717743 1.086475 0.022235 -0.002903 -701235.000000 0 0 1
30.276034 -26.263069 21.064962 45.278247 -0.714540 1.086898 0.031293 0.002711 -379015.000000 0 0 1
29.141044 -26.023269 21.892662 44.785038 -0.728940 1.060038 0.035401 0.000899 -327153.000000 0 0 1
28.482344 -24.726369 21.413462 43.372499 -0.714926 1.054445 0.034937 0.006484 -272627.000000 0 0 1
29.334314 -23.659769 21.007562 43.146313 -0.678726 1.062269 0.044327 0.001099 286751.000000 0 0 1
30.181604 -23.036369 21.990262 43.876818 -0.651933 1.045832 0.060128 -0.003423 480046.000000 0 0 1
31.102074 -21.948769 21.363562 43.651910 -0.614542 1.059386 0.051967 -0.007447 56392.600000 0 0 1
30.361164 -20.828569 21.008162 42.390712 -0.601286 1.052289 0.052925 -0.014115 -12961.900000 0 0 1
31.210114 -19.708969 20.780962 42.359923 -0.563255 1.058040 0.043608 -0.012247 -572920.000000 0 0 1
30.530904 -18.315669 20.792562 41.230213 -0.540350 1.042221 0.045045 -0.006139 -45078.100000 0 0 1
30.165504 -17.825469 22.062362 41.405952 -0.533718 1.008854 0.050844 -0.015005 628388.000000 0 0 1
28.952614 -18.387969 22.591662 41.070117 -0.565833 0.988342 0.069078 -0.016301 168104.000000 0 0 1
28.778204 -18.011169 24.070702 41.617135 -0.559219 0.954050 0.054631 -0.014864 -108594.000000 0 0 1
28.464014 -16.688569 24.278282 40.965149 -0.530288 0.936443 0.046394 -0.017136 46487.800000 0 0 1
28.717804 -16.292069 25.671272 41.822936 -0.516040 0.909921 0.045507 -0.014163 -53384.500000 0 0 1
28.572014 -14.812469 25.932062 41.330873 -0.478279 0.892553 0.037408 -0.020269 -155981.000000 0 0 1
27.256814 -14.361169 26.151562 40.411401 -0.484922 0.866978 0.048076 -0.019260 9191.780000 0 0 1
27.248414 -13.007869 26.624542 40.256018 -0.445389 0.848139 0.037648 -0.017680 51686.000000 0 0 1
27.712534 -11.908269 25.601132 39.562727 -0.405851 0.867019 0.039880 -0.029266 -141019.000000 0 0 1
26.764884 -11.547269 24.608232 38.147917 -0.407307 0.869676 0.044730 -0.017679 235663.000000 0 0 1
27.320714 -10.767769 23.543562 37.638618 -0.375431 0.895003 0.043468 -0.008266 3006.540000 0 0 1
28.417924 -11.321169 22.614162 38.041394 -0.379110 0.934200 0.060351 -0.021463 -197197.000000 0 0 1
28.051504 -12.418869 21.774262 37.619592 -0.416781 0.953539 0.053455 -0.023580 -241499.000000 0 0 1
28.656464 -13.602869 22.207862 38.722347 -0.443193 0.960006 0.051513 -0.029154 -399209.000000 0 0 1
28.144984 -14.803769 21.454562 38.361308 -0.484217 0.977284 0.056765 -0.023994 -250527.000000 0 0 1
28.451674 -14.772669 20.044762 37.809020 -0.478905 1.012009 0.042641 -0.026365 -209916.000000 0 0 1
27.918804 -15.859569 19.401562 37.515413 -0.516603 1.027264 0.048865 -0.034070 -302716.000000 0 0 1
28.420864 -15.934769 17.936562 37.193852 -0.510999 1.067580 0.057456 -0.037856 216152.000000 0 0 1
27.752304 -16.876969 17.073562 36.695082 -0.546375 1.086843 0.061133 -0.039026 157152.000000 0 0 1
26.440614 -16.549169 16.646762 35.356694 -0.559246 1.080572 0.052010 -0.037278 -101353.000000 0 0 1
26.329984 -15.491369 15.480262 34.247469 -0.531813 1.101777 0.052215 -0.034877 -460007.000000 0 0 1
26.534514 -15.918169 14.147162 34.023679 -0.540349 1.141970 0.064150 -0.037621 1236120.000000 0 0 1
25.413924 -16.746569 13.674762 33.366364 -0.582643 1.148521 0.044299 -0.040144 1035080.000000 0 0 1
25.746724 -17.501669 12.383262 33.504439 -0.597015 1.192217 0.036068 -0.015583 -86903.300000 0 0 1
25.256824 -16.706369 11.296762 32.320687 -0.584389 1.213736 0.056974 -0.026338 -96292.800000 0 0 1
25.244124 -17.407869 10.053662 32.270356 -0.603699 1.253978 0.034522 -0.018572 656656.000000 0 0 1
26.591334 -17.871369 9.368562 33.380456 -0.591737 1.286315 0.034106 -0.007252 860296.000000 0 0 1
27.290044 -18.897869 10.034462 34.678039 -0.605663 1.277237 0.031689 0.000524 -836687.000000 0 0 1
28.579224 -19.066969 9.520062 35.650427 -0.588345 1.300477 0.026870 0.008062 213149.000000 0 0 1
29.588764 -19.837069 10.437762 37.120765 -0.590601 1.285769 0.039724 -0.006391 233930.000000 0 0 1
29.883564 -19.156469 11.635962 37.354964 -0.570048 1.254028 0.054253 -0.019471 11294.100000 0 0 1
29.648044 -20.005869 12.739062 37.967421 -0.593598 1.228633 0.040230 -0.015756 -49120.300000 0 0 1
29.427564 -19.356369 14.097562 37.939318 -0.581813 1.190084 0.060104 -0.015062 65536.300000 0 0 1
29.289514 -20.348269 15.090862 38.725467 -0.607179 1.170503 0.053792 -0.015563 -37381.300000 0 0 1
29.053414 -19.680969 16.314462 38.698877 -0.595401 1.135615 0.066829 -0.023141 102139.000000 0 0 1
28.807094 -20.803869 17.426762 39.577035 -0.625456 1.114836 0.050691 -0.018076 323822.000000 0 0 1
27.530854 -21.400469 17.288962 38.920897 -0.660762 1.110507 0.025084 -0.009071 -51619.600000 0 0 1
27.404274 -22.262669 18.354962 39.793534 -0.682244 1.091387 0.031402 -0.009492 292060.000000 0 0 1
26.049824 -23.015969 18.389762 39.325711 -0.723644 1.084192 0.018885 -0.001463 540659.000000 0 0 1
24.930024 -22.166069 18.582662 38.185810 -0.726778 1.062559 0.023955 -0.004450 -249497.000000 0 0 1
23.702724 -22.817169 18.441662 37.716538 -0.766364 1.059906 0.014363 0.001457 -187903.000000 0 0 1
22.616524 -22.281669 19.403162 37.208368 -0.777940 1.022220 -0.004756 0.004725 -270780.000000 0 0 1
22.055324 -21.087769 18.913062 35.900352 -0.762975 1.015940 -0.000757 -0.002051 -180131.000000 0 0 1
20.934124 -20.497769 19.523962 35.207687 -0.774867 0.982990 0.001253 0.000758 63422.700000 0 0 1
21.082424 -19.970469 20.992762 35.832727 -0.758319 0.944862 -0.002276 0.005528 -346254.000000 0 0 1
21.186924 -21.050669 21.894662 37.032319 -0.782172 0.938212 0.002429 0.005207 -138804.000000 0 0 1
21.540824 -20.497669 23.116962 37.663716 -0.760589 0.909966 0.010639 -0.000437 -190188.000000 0 0 1
22.147224 -21.459269 24.100432 39.138608 -0.769623 0.907432 0.012241 -0.000675 200350.000000 0 0 1
21.140424 -22.261569 24.716852 39.413421 -0.811224 0.892949 0.012274 0.005887 432541.000000 0 0 1
21.702024 -23.349269 25.451372 40.791403 -0.821946 0.897022 0.009638 0.005728 34905.200000 0 0 1
20.647424 -24.071269 26.324602 41.215614 -0.861813 0.877983 0.015953 -0.000697 40828.100000 0 0 1
19.771424 -24.943969 25.664592 40.887432 -0.900563 0.892215 0.018110 0.006086 348011.000000 0 0 1
18.817824 -25.578469 26.513062 41.367996 -0.936517 0.875116 0.026324 -0.000374 333814.000000 0 0 1
18.113924 -26.843969 25.922582 41.481239 -0.977194 0.895763 0.036577 0.000922 294456.000000 0 0 1
17.165924 -26.421269 24.946962 40.188348 -0.994631 0.901096 0.033854 -0.001700 250984.000000 0 0 1
16.735624 -27.471769 24.080932 40.182963 -1.023644 0.928192 0.038164 -0.004964 -310029.000000 0 0 1
15.943424 -26.911069 22.901562 38.766996 -1.035948 0.938810 0.036932 -0.007633 -19635.800000 0 0 1
14.618624 -26.604569 23.300662 38.267847 -1.068354 0.916144 0.032244 -0.007607 25077.500000 0 0 1
13.974724 -25.900569 22.275762 36.909917 -1.076009 0.922892 0.022501 -0.005681 753786.000000 0 0 1
12.546724 -25.276369 22.485162 36.081819 -1.110048 0.898005 0.017892 -0.003808 350633.000000 0 0 1
11.489124 -26.190069 22.528262 36.406624 -1.157394 0.903588 0.022963 -0.006054 -839185.000000 0 0 1
10.395424 -25.402469 22.122162 35.252523 -1.182359 0.892414 0.024596 -0.005607 235602.000000 0 0 1
9.022524 -26.155969 22.170862 35.455434 -1.238627 0.895259 0.033184 -0.003564 468677.000000 0 0 1
8.878124 -27.200869 21.212762 35.618670 -1.255307 0.932844 0.043454 -0.006965 753043.000000 0 0 1
7.542224 -27.717969 21.049562 35.612568 -1.305123 0.938410 0.037295 -0.001281 855273.000000 0 0 1
7.343024 -28.681869 19.824862 35.631374 -1.320163 0.980764 0.046184 -0.001290 -114804.000000 0 0 1
7.887524 -29.987569 19.928462 36.859340 -1.313596 0.999572 0.056394 -0.004223 50068.300000 0 0 1
7.696124 -30.623969 18.703262 36.699725 -1.324585 1.036042 0.036001 -0.004691 -15104.000000 0 0 1
8.218924 -32.084969 18.539962 37.956899 -1.320027 1.060486 0.037356 -0.000458 -70504.000000 0 0 1
7.556824 -33.025469 19.323262 39.002252 -1.345851 1.052455 0.029729 0.000892 316264.000000 0 0 1
8.437824 -34.133169 19.577162 40.243452 -1.328452 1.062753 0.030309 -0.004915 347468.000000 0 0 1
8.019224 33.821101 20.740462 40.476432 1.337988 1.032809 0.040670 -0.014513 -35267.500000 0 0 1
7.212724 32.705301 20.388762 39.209204 1.353734 1.023946 0.036716 -0.018849 -95950.800000 0 0 1
7.215124 31.744901 21.442662 38.981848 1.347309 0.988351 0.039731 -0.027180 -223496.000000 0 0 1
6.408424 30.449801 21.151762 37.625195 1.363365 0.973789 0.045359 -0.028718 1283600.000000 0 0 1
4.973924 30.631901 21.212362 37.590126 1.409824 0.971203 0.037941 -0.031100 906634.000000 0 0 1
4.338924 29.349401 21.095062 36.403506 1.424023 0.952707 0.034271 -0.026161 522114.000000 0 0 1
2.838724 29.374801 21.486862 36.505103 1.474457 0.941472 0.024816 -0.019016 255529.000000 0 0 1
2.685524 29.208601 22.838962 37.174892 1.479111 0.909215 0.023228 -0.029580 732988.000000 0 0 1
1.283424 29.078201 23.139162 37.183461 1.526688 0.899122 0.015865 -0.018337 831701.000000 0 0 1
1.108024 28.456401 24.588952 37.624607 1.531878 0.858552 0.024159 -0.017603 -281040.000000 0 0 1
1.064224 29.383501 25.688452 39.043812 1.534594 0.852717 0.026836 -0.022945 184077.000000 0 0 1
0.958224 28.788201 26.964202 39.455632 1.537523 0.818379 0.027093 -0.018626 258193.000000 0 0 1
2.299924 28.240901 27.556462 39.524634 1.489536 0.799316 0.023960 -0.018021 181904.000000 0 0 1
2.727124 27.067801 26.882822 38.246427 1.470384 0.791352 0.024259 -0.019483 247987.000000 0 0 1
3.623324 26.337101 27.717762 38.406323 1.434080 0.764544 0.011174 -0.009044 81976.400000 0 0 1
4.212624 25.051801 27.087962 37.136190 1.404198 0.753319 0.009848 -0.000367 -74954.100000 0 0 1
3.261024 24.020201 26.924602 36.228973 1.435860 0.732988 0.019189 -0.000050 -233433.000000 0 0 1
3.890224 22.792101 26.608402 35.250826 1.401742 0.715401 0.027564 0.007617 635665.000000 0 0 1
2.790024 21.688401 26.554392 34.399225 1.442858 0.688897 0.016392 0.009688 386174.000000 0 0 1
3.254324 20.408301 26.848472 33.881113 1.412667 0.656011 0.025593 0.007833 -142942.000000 0 0 1
3.749224 19.671501 25.735512 32.608913 1.382463 0.661263 0.030794 0.009626 -415469.000000 0 0 1
4.030424 18.226701 26.089792 32.080121 1.353171 0.621047 0.021267 0.003618 306687.000000 0 0 1
5.199124 17.956901 26.877392 32.739508 1.288969 0.607729 0.014130 0.003886 929897.000000 0 0 1
6.377024 17.803301 26.087232 32.220609 1.226841 0.627251 0.030247 0.013749 -320484.000000 0 0 1
7.746024 17.649001 26.772892 32.989026 1.157217 0.623963 0.020514 0.002431 80647.300000 0 0 1
8.200724 18.781001 27.510582 34.304664 1.159100 0.640246 0.015254 0.004653 145331.000000 0 0 1
8.684324 19.866101 26.687682 34.384761 1.158686 0.682262 0.010362 -0.004704 -321152.000000 0 0 1
9.093824 21.143801 27.442612 35.816964 1.164619 0.697905 0.001003 -0.003759 86577.500000 0 0 1
10.256124 20.892601 28.205782 36.568497 1.114457 0.689894 0.014729 -0.018990 -205760.000000 0 0 1
10.570524 21.967701 29.026122 37.905562 1.122314 0.698592 0.005424 -0.012247 -395778.000000 0 0 1
11.765624 21.695901 29.923702 38.788787 1.073886 0.689676 0.003757 -0.010344 -782348.000000 0 0 1
12.978424 21.563201 29.262482 38.596683 1.028997 0.710309 0.003958 -0.002413 -950267.000000 0 0 1
14.027424 21.581901 30.209052 39.687957 0.994448 0.705690 0.002641 0.012144 -788944.000000 0 0 1
15.368224 21.843601 29.591442 39.861995 0.957687 0.734229 0.001391 0.008508 -951398.000000 0 0 1
15.528924 23.188601 29.248342 40.426776 0.980711 0.761953 0.001641 0.006837 -293039.000000 0 0 1
16.677224 23.383401 28.467292 40.438842 0.951261 0.789840 0.036583 0.012784 -189540.000000 0 0 1
-8.800801 16.814301 4.368715 19.474611 -1.088595 1.344542 0.016754 -0.013308 -275269.000000 0 1 0
-8.516001 18.015301 5.046115 20.555695 -1.129219 1.322776 0.017216 -0.013797 648592.000000 0 1 0
-7.128501 18.357001 5.003715 20.318272 -1.200394 1.321970 0.014169 -0.009665 450448.000000 0 1 0
-6.757401 19.785101 5.556415 21.632994 -1.241678 1.311036 0.009973 -0.010266 -267105.000000 0 1 0
-7.090301 20.895201 4.735015 22.567724 -1.243661 1.359412 0.015071 -0.011036 -541164.000000 0 1 0
-8.420301 21.254701 4.577115 23.315526 -1.193603 1.373201 0.008963 -0.007983 -718895.000000 0 1 0
-8.678901 22.427301 3.621315 24.319150 -1.201565 1.421333 0.032700 -0.012296 83362.200000 0 1 0
-8.142701 22.299201 2.285415 23.849131 -1.220683 1.474821 0.023816 -0.012422 -78006.500000 0 1 0
-8.518201 21.197101 1.499115 22.893758 -1.188690 1.505268 0.030799 -0.010515 -916981.000000 0 1 0
-7.997001 21.082601 0.025115 22.548364 -1.208246 1.569683 0.014260 -0.002675 387143.000000 0 1 0
-6.643501 20.696201 -0.128985 21.736731 -1.260186 1.576730 0.017682 -0.000988 141657.000000 0 1 0
-5.693301 21.711001 0.212615 22.446078 -1.314340 1.561324 0.022663 -0.006106 71478.200000 0 1 0
-4.338201 21.297501 -0.465585 21.739832 -1.369850 1.592214 0.024729 -0.007082 383397.000000 0 1 0
-4.325601 21.567901 -1.847385 22.074827 -1.372865 1.654582 0.020121 -0.009269 -239447.000000 0 1 0
-3.040001 21.500801 -2.403085 21.847216 -1.430337 1.681014 0.026632 -0.002941 -262526.000000 0 1 0
-2.937301 21.748601 -3.933585 22.295795 -1.436552 1.748152 0.019692 -0.009426 1017300.000000 0 1 0
-1.586701 21.928901 -4.422985 22.426705 -1.498566 1.769317 0.033800 -0.009270 1022650.000000 0 1 0
-1.581001 22.443701 -5.734785 23.218678 -1.500470 1.820369 0.031994 -0.009337 164643.000000 0 1 0
-0.271101 23.182501 -6.097685 23.972559 -1.559103 1.827983 0.036364 -0.015215 76293.000000 0 1 0
0.890399 22.394701 -6.040685 23.212180 1.531058 1.834065 0.038914 -0.001842 -688592.000000 0 1 0
1.931199 22.943001 -6.787985 24.003907 1.486821 1.857494 0.038568 -0.006912 -684594.000000 0 1 0
3.166399 22.053501 -6.722085 23.271644 1.428193 1.863825 0.029718 0.002238 -507057.000000 0 1 0
3.089599 20.878001 -7.518485 22.404557 1.423879 1.913015 0.033060 -0.012881 -1357520.000000 0 1 0
4.203999 20.118901 -7.459985 21.865387 1.364803 1.918966 0.034672 -0.003787 -1054440.000000 0 1 0
4.131199 18.861901 -8.383585 21.050478 1.355178 1.980417 0.020025 -0.008760 57672.000000 0 1 0
4.308799 19.226101 -9.756585 21.986352 1.350327 2.030582 0.030982 -0.011213 -317430.000000 0 1 0
3.124899 19.206601 -10.520785 22.121153 1.409510 2.066440 0.025701 -0.010824 -399364.000000 0 1 0
3.386499 19.480801 -12.034285 23.147224 1.398679 2.117532 0.031675 -0.013352 106176.000000 0 1 0
3.708999 20.810001 -12.467685 24.540904 1.394417 2.103700 0.051602 -0.013093 2660.930000 0 1 0
3.621999 20.995201 -13.893185 25.434974 1.399962 2.148646 0.047080 -0.011313 -120242.000000 0 0 1
4.065699 22.357001 -14.471285 26.940369 1.390909 2.137863 0.044949 -0.011161 86560.500000 0 0 1
3.102499 23.389901 -14.389585 27.636445 1.438923 2.118437 0.053457 -0.017783 -351962.000000 0 0 1
3.514299 24.576001 -15.035685 29.024161 1.428762 2.115355 0.047993 -0.020889 149156.000000 0 0 1
2.369799 25.477301 -15.567485 29.950883 1.478047 2.117375 0.043156 -0.016869 883701.000000 0 0 1
1.348899 25.976001 -14.680885 29.868052 1.518914 2.084636 0.043365 -0.023492 241861.000000 0 0 1
1.689999 27.238201 -14.154685 30.742980 1.508831 2.049265 0.027760 -0.023848 -757913.000000 0 0 1
0.761399 27.662101 -13.002785 30.575218 1.543278 2.010059 0.030056 -0.030519 604924.000000 0 0 1
-0.646101 27.693601 -13.276285 30.718280 -1.547470 2.017722 0.030421 -0.030220 987191.000000 0 0 1
-1.411701 26.493601 -13.521185 29.777949 -1.517562 2.042121 0.022629 -0.027016 -96631.500000 0 0 1
-1.307601 25.400901 -12.396085 28.294496 -1.519363 2.024291 0.041522 -0.027307 -873973.000000 0 0 1
-2.024501 25.716601 -11.237285 28.137497 -1.492235 1.981626 0.029646 -0.022134 -260311.000000 0 0 1
-2.073501 24.552401 -10.386385 26.739424 -1.486544 1.969723 0.043372 -0.014364 -385884.000000 0 0 1
-3.213901 24.472801 -9.365885 26.400131 -1.440218 1.933461 0.032528 -0.017106 -397694.000000 0 0 1
-2.930201 24.991401 -8.059985 26.421952 -1.454081 1.880786 0.045785 -0.018387 -148853.000000 0 0 1
-2.620601 26.347001 -7.856085 27.617930 -1.471658 1.859235 0.044554 -0.020994 -183500.000000 0 0 1
-2.468701 26.686901 -6.364885 27.546269 -1.478553 1.803965 0.036532 -0.018012 104963.000000 0 0 1
-1.304801 26.114501 -5.792185 26.780946 -1.520873 1.788799 0.038728 -0.017058 -42518.000000 0 0 1
-1.132501 26.314901 -4.395785 26.703548 -1.527786 1.736163 0.037850 -0.017278 39118.100000 0 0 1
-2.158001 25.691401 -3.416985 26.007323 -1.486996 1.702563 0.043782 -0.017174 2116900.000000 0 0 1
-3.541301 26.192001 -3.371185 26.644448 -1.436406 1.697661 0.023493 -0.010369 1799230.000000 0 0 1
-4.392201 25.587701 -2.449985 26.077275 -1.400800 1.664886 0.025281 -0.005629 326391.000000 0 0 1
-5.583701 24.780501 -3.107685 25.591183 -1.349171 1.692533 0.000916 -0.005007 138664.000000 0 0 1
-6.568901 25.629801 -3.581585 26.699530 -1.319898 1.705346 -0.013553 -0.002908 -661183.000000 0 0 1
-7.637101 24.982901 -4.249685 26.467536 -1.274125 1.732057 -0.002625 -0.004529 976648.000000 0 0 1
-8.924601 25.913901 -4.241285 27.733865 -1.239124 1.724327 -0.006722 -0.006594 357540.000000 0 0 1
-9.623101 25.776601 -3.034685 27.681158 -1.213493 1.680647 -0.003750 -0.007383 -705212.000000 0 0 1
-10.833801 26.481401 -3.103985 28.779690 -1.182461 1.678860 0.012281 -0.009525 -451190.000000 0 0 1
-11.495301 26.440801 -1.725885 28.883154 -1.160691 1.630586 0.024637 -0.007389 80432.700000 0 0 1
-12.049001 25.158801 -1.322985 27.926582 -1.124156 1.618188 0.029307 -0.004298 1361290.000000 0 0 1
-10.969701 24.248801 -0.940085 26.631230 -1.145964 1.606104 0.017105 -0.001591 986054.000000 0 0 1
-11.538101 22.873501 -0.528685 25.624292 -1.103610 1.591430 0.027506 -0.007983 -117245.000000 0 0 1
-12.231701 22.968701 0.676215 26.031385 -1.081459 1.544816 0.041362 -0.007901 -225099.000000 0 0 1
-12.808701 21.760201 1.057215 25.272255 -1.038779 1.528951 0.047736 -0.013101 -317775.000000 0 0 1
-13.574301 21.781801 2.426815 25.779797 -1.013496 1.476520 0.052323 -0.016932 -200457.000000 0 0 1
-12.883901 21.892101 3.672015 25.665983 -1.038862 1.427234 0.054298 -0.018199 19374.900000 0 0 1
-12.633701 23.229201 4.049815 26.750835 -1.072670 1.418822 0.046791 -0.011230 -47468.300000 0 0 1
-12.407201 23.419401 5.566315 27.081190 -1.083607 1.363779 0.043474 -0.007633 -628781.000000 0 0 1
-11.235701 22.882701 6.086315 26.208819 -1.114364 1.336433 0.033771 -0.006616 -115410.000000 0 0 1
-11.445501 22.627201 7.466315 26.433607 -1.102496 1.284444 0.028558 0.001324 -236865.000000 0 0 1
-10.158201 22.211701 8.186115 25.759681 -1.141859 1.247401 0.025428 -0.008376 -403889.000000 0 0 1
-9.134001 23.186601 8.292615 26.264346 -1.195530 1.249563 0.028463 -0.016641 399862.000000 0 0 1
-7.997401 22.742501 9.010515 25.736533 -1.232652 1.213112 0.030030 -0.014764 -233224.000000 0 0 1
-8.015001 22.460301 10.526315 26.067387 -1.228030 1.155117 0.025317 -0.012867 118557.000000 0 0 1
-8.898201 21.351501 10.925015 25.581644 -1.175936 1.129552 0.023068 -0.008931 863382.000000 0 0 1
-8.504301 20.828701 12.185215 25.585882 -1.183158 1.074414 0.015454 -0.006219 68851.500000 0 0 1
-9.431501 19.708501 12.754515 25.299325 -1.124456 1.042405 0.009282 -0.000452 4714.760000 0 0 1
-9.538301 18.581201 11.858815 24.018153 -1.096541 1.054407 0.012346 -0.008499 -19987.300000 0 1 0
-10.158001 17.463801 12.404415 23.707358 -1.043971 1.020159 0.013052 -0.009171 -652986.000000 0 1 0
-10.508901 16.298601 11.402915 22.496841 -0.998104 1.039249 0.012273 -0.024628 -188082.000000 0 1 0
-10.873401 15.113601 12.164415 22.240161 -0.947139 0.992071 0.001310 -0.019548 -63634.100000 0 1 0
-11.317101 14.132501 11.266615 21.324656 -0.895577 1.014155 0.004325 -0.014434 105969.000000 0 1 0
-11.654201 12.716401 11.922815 20.968566 -0.828956 0.965988 -0.002636 -0.020221 685178.000000 0 1 0
-12.827201 12.807201 12.752615 22.162822 -0.784618 0.957696 0.006975 -0.015255 545905.000000 0 1 0
-13.201801 11.537501 13.267215 21.986825 -0.718226 0.923018 -0.000105 -0.006148 -128865.000000 0 1 0
-14.026501 11.739501 14.550715 23.372674 -0.696870 0.898796 -0.003498 0.005068 -70776.100000 0 1 0
-15.065101 12.653101 14.261515 24.299157 -0.698598 0.943554 0.002538 0.004530 -300389.000000 0 1 0
-15.672601 13.051701 15.487315 25.609261 -0.694407 0.921339 0.003683 0.014854 -550887.000000 0 0 1
-16.787601 14.052801 15.296415 26.707397 -0.696954 0.960951 0.022149 0.004717 -657656.000000 0 0 1
-17.987801 13.488901 14.847215 26.943482 -0.643432 0.987174 0.023421 0.002477 -668548.000000 0 0 1
-18.928201 14.495901 14.618015 27.965949 -0.653559 1.020772 0.046810 -0.003560 -222846.000000 0 0 1
-20.144401 14.005301 13.790015 28.144446 -0.607528 1.058738 0.049899 -0.006355 13636.900000 0 0 1
-20.961701 13.138901 14.569515 28.710527 -0.559896 1.038559 0.061164 -0.005168 414885.000000 0 0 1
-22.144601 12.875001 13.801615 29.096968 -0.526635 1.076592 0.045675 -0.005780 1025500.000000 0 0 1
-23.148901 11.827901 14.485815 29.759195 -0.472368 1.062411 0.058952 -0.006793 523289.000000 0 0 1
-23.756101 12.427901 15.603915 31.020754 -0.481992 1.043712 0.070061 -0.011655 -63526.300000 0 0 1
-24.652701 11.522201 16.203115 31.671086 -0.437213 1.033744 0.063051 -0.012939 -371206.000000 0 0 1
-25.522031 12.115701 17.279615 33.117206 -0.443216 1.021870 0.045638 -0.009980 -546589.000000 0 0 1
-26.501801 13.001901 16.841815 33.985903 -0.456103 1.052325 0.043503 -0.003815 -107701.000000 0 0 1
-27.203981 13.647001 17.858115 35.287526 -0.464970 1.040169 0.031911 0.003691 847737.000000 0 0 1
-28.391481 14.627401 17.545915 36.440310 -0.475737 1.068434 0.028682 0.001890 1351780.000000 0 0 1
-27.770241 15.928301 17.375215 36.425199 -0.520762 1.073546 0.037270 0.002361 915180.000000 0 0 1
-28.806441 16.918001 17.259815 37.602274 -0.531028 1.093916 0.045682 0.003705 360911.000000 0 0 1
-28.342311 18.403301 17.160715 37.900636 -0.575899 1.100914 0.052602 -0.002824 -184169.000000 0 0 1
-27.727491 18.959601 18.307815 38.255147 -0.599759 1.071769 0.037163 -0.007199 -187752.000000 0 0 1
-28.572111 19.139201 19.399915 39.484569 -0.590207 1.057181 0.028942 -0.007550 -756568.000000 0 0 1
-27.844661 19.199101 20.758915 39.684546 -0.603649 1.020314 0.019699 -0.010543 30853.700000 0 0 1
-27.423691 17.982201 21.314515 39.111723 -0.580384 0.994449 0.018073 -0.006640 -288403.000000 0 0 1
-26.280201 17.363201 20.788215 37.739629 -0.583857 0.987435 0.030152 -0.000277 -438261.000000 0 0 1
-26.020111 15.992601 21.440815 37.316457 -0.551104 0.958721 0.011231 -0.002866 -294474.000000 0 0 1
-26.962721 15.048701 21.041315 37.365608 -0.509064 0.972640 -0.004979 -0.002521 10100.300000 0 0 1
-26.537191 13.738501 21.404315 36.757497 -0.477713 0.949227 -0.002348 0.005090 -197076.000000 0 0 1
-27.713801 12.852501 21.837215 37.551371 -0.434236 0.950189 -0.001693 0.000494 -177503.000000 0 0 1
-28.634051 12.624701 20.797315 37.574197 -0.415259 0.984236 0.003816 -0.003730 -343399.000000 0 0 1
-29.617481 11.697601 21.182015 38.245350 -0.376151 0.983821 0.017426 -0.004572 -266749.000000 0 0 1
-30.599401 11.451001 20.016015 38.315657 -0.358089 1.021136 0.025282 -0.002286 -501051.000000 0 0 1
-30.023871 10.992801 18.798515 37.089873 -0.350976 1.039285 0.032476 -0.009837 145514.000000 0 0 1
-29.642941 9.632201 18.827915 36.413921 -0.314178 1.027392 0.034371 -0.009926 -142544.000000 0 0 1
-28.727451 9.205001 17.646415 34.948454 -0.310089 1.041499 0.044460 -0.016994 -88144.400000 0 0 1
-29.324021 8.922801 16.368715 34.748373 -0.295381 1.080299 0.047120 -0.011953 269107.000000 0 0 1
-29.911991 10.024401 15.717015 35.245430 -0.323367 1.108583 0.041955 -0.009097 -293061.000000 0 0 1
-28.907681 10.944001 14.979615 34.348421 -0.361910 1.119527 0.040863 -0.004882 59888.500000 0 0 1
-28.431631 10.433401 13.730415 33.252636 -0.351707 1.145147 0.047736 -0.013476 346328.000000 0 0 1
-27.558971 11.399801 13.159915 32.598093 -0.392219 1.155237 0.055226 -0.008355 42724.700000 0 0 1
-27.345181 11.338001 11.580115 31.786919 -0.393050 1.197911 0.067598 -0.006009 -587398.000000 0 0 1
-26.678861 10.278001 11.039115 30.647365 -0.367726 1.202316 0.080818 -0.004194 464120.000000 0 0 1
-27.578781 9.190101 10.829515 31.021372 -0.321658 1.214187 0.072690 -0.007600 58561.900000 0 0 1
-26.869871 7.965701 10.248915 29.840955 -0.288201 1.220207 0.078045 -0.018894 -380480.000000 0 0 1
-26.271911 8.228801 9.045515 28.978402 -0.303538 1.253344 0.071823 -0.010950 264465.000000 0 0 1
-25.640071 7.057301 8.472315 27.910551 -0.268594 1.262378 0.084943 -0.027658 -50515.800000 0 0 1
-25.026901 7.392001 7.139415 27.054735 -0.287197 1.303746 0.069201 -0.008068 -185411.000000 0 0 1
-26.005151 7.730901 6.169015 27.822499 -0.288963 1.347211 0.072397 -0.013586 100799.000000 0 0 1
-25.416051 8.291801 5.052315 27.207637 -0.315355 1.384017 0.069411 -0.001514 71851.100000 0 0 1
-26.393511 8.451901 3.848315 27.979664 -0.309908 1.432819 0.064675 0.001350 170007.000000 0 0 1
-26.929711 7.307501 3.172315 28.083313 -0.264974 1.457594 0.075720 -0.008683 238203.000000 0 0 1
-26.016141 6.354801 2.676915 26.914475 -0.239573 1.471172 0.068296 -0.005684 -257354.000000 0 0 1
-25.050001 6.556201 1.509615 25.937719 -0.255983 1.512562 0.067703 -0.003874 284268.000000 0 0 1
-24.018901 7.519501 1.780515 25.231344 -0.303400 1.500170 0.049775 0.004466 -72989.400000 0 0 1
-23.073101 7.476001 0.796515 24.267118 -0.313340 1.537968 0.051795 0.007370 -1856770.000000 0 1 0
-21.945301 8.399101 1.125015 23.524600 -0.365529 1.522955 0.039938 0.008543 -1236560.000000 0 1 0
-22.255901 9.772101 1.292015 24.341084 -0.413735 1.517692 0.029089 0.011497 422486.000000 0 1 0
-21.252301 10.526601 1.950315 23.796499 -0.459893 1.488746 0.040210 0.009021 -20742.500000 0 1 0
-21.648101 12.047201 2.068715 24.860710 -0.507821 1.487488 0.038223 0.008261 378815.000000 0 1 0
-20.498601 12.826101 2.436715 24.303067 -0.559107 1.470364 0.031694 -0.004519 604958.000000 0 1 0
-20.751801 14.166301 2.898315 25.292717 -0.598989 1.455953 0.019257 -0.007496 -462754.000000 0 0 1
-19.641901 14.722801 3.798215 24.839315 -0.643220 1.417283 0.004913 -0.008942 -147979.000000 0 1 0
-19.303701 13.810701 4.817615 24.219367 -0.621015 1.370545 0.005679 -0.012014 148503.000000 0 1 0
-18.686201 14.489801 5.911115 24.373545 -0.659577 1.325832 0.013317 -0.012567 -644648.000000 0 1 0
-18.426701 13.523401 7.017715 23.909705 -0.633119 1.272901 0.017284 -0.010893 -1094150.000000 0 1 0
-17.404801 12.738901 6.614115 22.559991 -0.631828 1.273246 0.012476 -0.008325 -1001460.000000 0 1 0
-16.779201 12.059801 7.631515 22.027719 -0.623190 1.217012 0.004780 -0.007573 -402098.000000 0 1 0
10.663899 -32.531669 -14.419085 37.147520 -1.254034 1.969428 0.047894 -0.011193 -635604.000000 0 0 1
11.777699 -32.991069 -13.735485 37.626964 -1.227902 1.944476 0.038682 -0.008097 -29279.800000 0 0 1
12.684999 -31.889769 -13.553785 36.899481 -1.192208 1.946918 0.033033 -0.008415 1084050.000000 0 0 1
14.138299 -32.079969 -12.987585 37.385737 -1.155686 1.925587 0.053222 -0.003205 1253930.000000 0 0 1
15.019999 -32.715969 -13.939285 38.603610 -1.140398 1.940230 0.040497 -0.004110 1574800.000000 0 0 1
16.397599 -32.271669 -13.770985 38.729600 -1.100681 1.934317 0.047319 -0.004908 1060160.000000 0 0 1
17.468299 -33.333169 -13.950885 40.135631 -1.088093 1.925800 0.034245 -0.006564 -219829.000000 0 0 1
17.465299 -34.415569 -13.042085 40.737748 -1.101181 1.896681 0.032584 -0.015111 -567596.000000 0 0 1
18.203599 33.450901 -13.691685 40.469693 1.072426 1.915927 0.015475 -0.002670 109417.000000 0 0 1
18.029399 32.008001 -13.073985 38.993595 1.057816 1.912705 0.016340 -0.011574 581480.000000 0 0 1
18.809599 31.960701 -11.837685 38.928373 1.038859 1.879778 0.015457 -0.018257 234249.000000 0 0 1
18.609599 30.714301 -11.222685 37.624913 1.026055 1.873684 0.015652 -0.019882 453593.000000 0 0 1
19.567899 30.344301 -10.032285 37.474338 0.998041 1.841813 0.019644 -0.012079 79803.200000 0 0 1
20.909399 30.105901 -10.351885 38.088446 0.963752 1.846044 0.018397 -0.010156 -533277.000000 0 0 1
21.640599 29.998101 -9.160485 38.106641 0.945853 1.813565 0.012597 -0.005032 -174568.000000 0 0 1
23.003199 29.337601 -9.426785 38.453950 0.905835 1.818465 -0.007388 0.003775 510258.000000 0 0 1
23.934999 30.072101 -10.273385 39.783890 0.898548 1.831986 -0.001839 -0.003819 197805.000000 0 0 1
25.165699 29.420701 -10.330885 40.070154 0.863191 1.831562 0.001772 0.006141 -641603.000000 0 0 1
26.145799 30.054201 -11.290585 41.404530 0.854831 1.846984 0.013896 -0.001166 -449496.000000 0 0 1
26.571999 31.344801 -10.993585 42.537355 0.867620 1.832209 0.011502 -0.005472 -141828.000000 0 0 1
27.659899 31.781301 -11.751485 43.740353 0.854623 1.842803 0.006571 -0.000816 -134551.000000 0 0 1
28.062099 33.241301 -11.475985 44.990707 0.869683 1.828721 0.004065 -0.002263 -377131.000000 0 0 1
27.178799 34.141601 -12.078085 45.279313 0.898462 1.840812 0.024486 -0.007277 -141687.000000 0 0 1
27.509499 -33.401169 -11.708685 44.827491 -0.881825 1.835056 0.043153 -0.010037 -202452.000000 0 0 1
26.451699 -32.364169 -12.115785 43.519238 -0.885587 1.852925 0.043988 -0.019973 -493864.000000 0 0 1
25.260999 -32.598469 -11.409485 42.789656 -0.911540 1.840703 0.032452 -0.014597 -689355.000000 0 0 1
24.197799 -31.694369 -11.605085 41.530044 -0.918728 1.854005 0.020633 -0.014981 155399.000000 0 0 1
24.404899 -30.193869 -11.271585 40.426693 -0.891031 1.853357 0.035638 -0.023818 -519279.000000 0 0 1
25.321099 -29.515669 -12.157585 40.744812 -0.861741 1.873795 0.031255 -0.016330 261887.000000 0 0 1
25.843599 -28.405869 -11.452385 40.074208 -0.832594 1.860616 0.032891 -0.008270 -453908.000000 0 0 1
26.793999 -27.518069 -12.256285 40.315990 -0.798729 1.879691 0.020798 0.013238 -64656.800000 0 0 1
27.979099 -28.180069 -12.648285 41.676437 -0.788977 1.879147 0.016627 0.007485 28483.500000 0 0 1
27.870799 -28.855069 -13.889885 42.453803 -0.802748 1.904110 0.020443 -0.002036 107870.000000 0 0 1
29.176699 -29.653769 -14.202385 43.958316 -0.793507 1.899787 0.014121 0.007953 482079.000000 0 0 1
29.520799 -30.643569 -13.250685 44.565531 -0.804058 1.872692 0.014116 -0.004331 -334983.000000 0 0 1
30.767099 -31.127869 -13.659285 45.849043 -0.791227 1.873308 0.014421 -0.015877 -490612.000000 0 0 1
31.299099 -32.176569 -12.640585 46.634211 -0.799221 1.845289 0.007726 -0.016168 772305.000000 0 0 1
32.438499 -32.896769 -13.208885 48.051309 -0.792412 1.849273 -0.000311 -0.011322 690191.000000 0 0 1
33.175399 -33.527069 -12.192385 48.716791 -0.790670 1.823756 0.002022 -0.010776 -331095.000000 0 0 1
32.647499 33.995201 -11.560185 48.530101 0.805618 1.811315 -0.004815 -0.003811 329889.000000 0 0 1
31.925999 34.138401 -10.281385 47.858194 0.818874 1.787314 -0.001883 -0.012766 525800.000000 0 0 1
31.350899 32.924201 -9.822485 46.511967 0.809871 1.783580 0.003209 -0.005816 -421141.000000 0 0 1
30.641899 33.143401 -8.440785 45.920125 0.824596 1.755662 -0.005442 -0.006624 498974.000000 0 0 1
29.554199 34.053601 -8.666585 45.915227 0.856017 1.760687 0.005174 -0.015524 -24827.600000 0 0 1
28.915299 -34.346169 -7.504585 45.520025 -0.871036 1.736416 0.014370 -0.010909 1178930.000000 0 0 1
27.817499 -33.245069 -7.897985 44.061617 -0.874051 1.751019 0.025702 -0.016442 625223.000000 0 0 1
28.406899 -31.993169 -8.201285 43.563470 -0.844704 1.760187 0.022845 -0.018432 -228102.000000 0 0 1
27.521299 -31.006169 -8.629785 42.347109 -0.844870 1.776021 0.023754 -0.021051 -203947.000000 0 0 1
26.505399 -30.443469 -7.596685 41.073722 -0.854439 1.756820 0.036938 -0.021990 222020.000000 0 0 1
25.551099 -29.675969 -8.303085 40.030776 -0.859949 1.779731 0.034935 -0.025886 -180391.000000 0 0 1
24.632699 -29.042569 -7.455185 38.804903 -0.867372 1.764118 0.035337 -0.026734 -152352.000000 0 0 1
23.579499 -28.222269 -8.219985 37.683649 -0.874785 1.790696 0.049534 -0.030245 -248057.000000 0 0 1
22.605799 -28.982769 -8.894185 37.817054 -0.908386 1.808210 0.056432 -0.032922 572455.000000 0 0 1
21.656499 -28.209469 -9.657085 36.851559 -0.916061 1.835946 0.069709 -0.035165 -7855.500000 0 0 1
20.518999 -29.060069 -10.207385 37.009562 -0.955995 1.850222 0.050785 -0.024837 -577354.000000 0 0 1
20.688299 -29.730769 -11.436285 37.983062 -0.962858 1.876631 0.039032 -0.021510 -468885.000000 0 0 1
19.623499 -30.527869 -11.874685 38.184299 -0.999495 1.887024 0.037713 -0.018000 -85588.400000 0 0 1
19.390399 -31.907469 -11.111985 38.955749 -1.024729 1.860060 0.038058 -0.020568 220133.000000 0 0 1
20.433599 -32.842069 -11.356085 40.312457 -1.014229 1.856363 0.032003 -0.019863 -200066.000000 0 0 1
20.218099 -34.026469 -10.638285 40.984695 -1.034662 1.833370 0.026989 -0.016733 460165.000000 0 0 1
21.392399 33.788001 -10.629985 41.379467 1.006368 1.830599 0.006071 -0.007770 879136.000000 0 0 1
22.550799 34.399301 -10.063385 42.345273 0.990523 1.810743 0.009941 -0.004582 -389085.000000 0 0 1
23.653899 33.546801 -10.280185 42.315210 0.956655 1.816195 0.013253 -0.012097 269269.000000 0 0 1
24.897999 33.841001 -9.381985 43.048175 0.936488 1.790501 0.023673 -0.009379 -31331.700000 0 0 1
24.840799 33.578601 -7.991285 42.525855 0.933868 1.759836 0.016462 -0.014009 51102.600000 0 0 1
24.927099 32.265901 -7.514085 41.459741 0.913017 1.753042 0.003431 0.003504 -335810.000000 0 0 1
24.970999 32.192501 -5.996585 41.180905 0.911063 1.716932 0.000783 0.006934 -666995.000000 0 0 1
26.090199 32.622901 -5.269685 42.103702 0.896207 1.696285 0.015076 -0.007323 -186739.000000 0 0 1
27.095599 31.689301 -4.913285 41.982421 0.863384 1.688097 0.010682 -0.004262 78630.000000 0 0 1
26.691299 30.518001 -3.906185 40.731218 0.852188 1.666845 0.014641 0.010106 -365622.000000 0 0 1
26.422099 31.133001 -2.648585 40.919507 0.867066 1.635568 0.020999 0.004000 -57311.400000 0 0 1
26.161899 30.295801 -1.537685 40.058020 0.858489 1.609192 0.015689 0.013448 161278.000000 0 0 1
24.979299 29.288901 -1.472785 38.522386 0.864645 1.609038 0.021651 0.016475 -65621.400000 0 0 1
23.739199 29.828101 -1.095685 38.137458 0.898581 1.599530 0.008772 0.017687 -414103.000000 0 0 1
22.742599 28.829501 -1.150985 36.738137 0.902882 1.602131 0.019605 0.016469 537153.000000 0 0 1
21.388399 29.244401 -0.483585 36.234410 0.939327 1.584143 0.035384 0.001582 434506.000000 0 0 1
21.462999 29.595201 0.889815 36.569496 0.943345 1.546462 0.050987 -0.007783 -41307.200000 0 0 1
20.235799 30.186701 1.268015 36.363888 0.980245 1.535919 0.043842 -0.011177 -37108.400000 0 0 1
19.602299 29.460201 2.499115 35.473922 0.983683 1.500289 0.046469 -0.026422 -176851.000000 0 0 1
19.008999 28.237801 2.018515 34.099704 0.978301 1.511567 0.060964 -0.020750 210494.000000 0 0 1
18.407399 27.434001 3.002915 33.173396 0.979820 1.480150 0.057086 -0.026525 -334801.000000 0 0 1
17.865599 26.152301 2.379515 31.761369 0.971478 1.495808 0.035816 -0.015277 -301268.000000 0 0 1
18.819699 25.231701 1.881715 31.533485 0.929940 1.511087 0.034563 -0.016257 566502.000000 0 0 1
19.626999 24.573401 2.907215 31.583588 0.896843 1.478618 0.040031 -0.014674 -10176.200000 0 0 1
20.780599 23.713301 2.334415 31.616506 0.851215 1.496894 0.042082 -0.005207 -247422.000000 0 0 1
20.373499 22.627601 1.545815 30.487331 0.837770 1.520071 0.037221 -0.003261 -411300.000000 0 0 1
21.459399 21.881401 1.098915 30.667721 0.795135 1.534956 0.017038 -0.005947 -498090.000000 0 0 1
21.265499 20.833301 -0.010885 29.769918 0.775132 1.571162 0.037136 -0.008290 -240491.000000 0 0 1
20.993999 21.397401 -1.253185 30.002787 0.794914 1.612577 0.027341 -0.000655 256689.000000 0 0 1
21.181999 20.502601 -2.336685 29.571842 0.769101 1.649896 0.059497 -0.013673 25278.900000 0 0 1
21.043599 21.161301 -3.733285 30.076089 0.788187 1.695245 0.039270 -0.004520 284317.000000 0 0 1
22.111399 22.068201 -4.021785 31.497527 0.784420 1.698832 0.036056 0.001463 679733.000000 0 0 1
21.830199 22.719401 -5.280885 31.947089 0.805355 1.736860 0.025278 0.005078 110982.000000 0 0 1
22.854699 23.864501 -5.561685 33.507969 0.807009 1.737549 0.022428 0.017623 80036.300000 0 0 1
22.822899 25.009201 -4.760485 34.190745 0.831074 1.710483 0.003575 0.022346 53922.900000 0 0 1
23.101999 24.881601 -3.355185 34.118231 0.822469 1.669295 0.024021 0.015290 -403892.000000 0 0 1
21.846899 24.832401 -2.480385 33.167566 0.849269 1.645650 0.025996 0.005276 -998352.000000 0 0 1
21.024899 25.996701 -2.411085 33.521458 0.890741 1.642785 0.031873 0.001694 1614140.000000 0 0 1
19.843799 25.874901 -1.561885 32.645464 0.916558 1.618658 0.039756 0.002519 1407910.000000 0 0 1
18.831399 24.702201 -1.846185 31.116374 0.919446 1.630163 0.039338 -0.009150 -751693.000000 0 0 1
18.165199 24.939701 -3.080185 31.007268 0.941286 1.670298 0.036661 -0.009045 124185.000000 0 0 1
17.498099 23.831501 -3.633685 29.788044 0.937457 1.693086 0.031219 -0.011580 118148.000000 0 0 1
16.768599 23.996201 -4.992985 29.697365 0.960875 1.739728 0.030055 -0.012053 -217485.000000 0 0 1
16.319799 22.769401 -5.570985 28.562516 0.948922 1.767100 0.027430 -0.018794 55702.900000 0 0 1
15.905699 23.112001 -6.860085 28.882808 0.968033 1.810603 0.030270 -0.013522 -230998.000000 0 0 1
15.266399 21.889201 -7.573185 27.740822 0.961791 1.847304 0.035932 -0.014209 55553.200000 0 0 1
16.195499 20.846501 -7.947485 27.568702 0.910305 1.863226 0.016267 -0.006345 584058.000000 0 0 1
15.533799 19.696501 -8.446885 26.468867 0.903010 1.895603 0.035473 -0.008858 -121370.000000 0 0 1
16.474499 18.512001 -8.735685 26.275759 0.843569 1.909709 0.031646 0.001737 104452.000000 0 0 1
17.257899 18.624701 -9.928485 27.263334 0.823471 1.943538 0.013912 0.003557 184203.000000 0 0 1
18.032499 17.479701 -10.198585 27.105758 0.769833 1.956544 0.013995 0.000823 709831.000000 0 0 1
19.456499 17.920001 -10.715785 28.539619 0.744313 1.955701 0.011531 0.003865 732288.000000 0 0 1
19.336599 18.314901 -12.050485 29.232753 0.758269 1.995692 0.011705 0.002857 467884.000000 0 0 1
20.594199 18.817101 -12.482785 30.561810 0.740338 1.991545 0.015695 0.005130 297608.000000 0 0 1
20.557799 19.121301 -14.006985 31.375833 0.749211 2.033563 0.025080 0.001085 -30222.000000 0 0 1
20.534399 17.987401 -14.796485 31.050670 0.719376 2.067497 0.030560 -0.001731 219325.000000 0 0 1
20.280399 18.421301 -16.098985 31.777606 0.737398 2.102049 0.038335 -0.007202 -94120.800000 0 0 1
20.547799 17.263301 -17.104685 31.824579 0.698750 2.138228 0.036967 -0.015181 -206831.000000 0 0 1
21.849499 17.243201 -17.637485 32.951623 0.668109 2.135605 0.041106 -0.013260 -58318.700000 0 0 1
22.062299 16.126101 -18.464385 32.980747 0.631187 2.165005 0.046703 -0.025372 26465.600000 0 0 1
23.225999 16.285601 -19.483885 34.413509 0.611517 2.172648 0.056624 -0.018944 -1454550.000000 0 0 1
24.500199 16.190401 -19.016885 34.986151 0.583949 2.145463 0.069503 -0.013119 -1315410.000000 0 0 1
25.262099 16.761501 -20.055285 36.350186 0.585810 2.155227 0.075261 -0.017971 -989869.000000 0 0 1
26.658299 17.200501 -19.671385 37.329419 0.573008 2.125825 0.052032 -0.014928 -618077.000000 0 0 1
26.605799 18.371201 -18.835685 37.418613 0.604319 2.098299 0.041117 -0.015675 211543.000000 0 0 1
27.915499 18.769601 -18.472585 38.377199 0.591942 2.072982 0.033796 -0.020413 -195.322000 0 0 1
27.975099 19.872001 -17.426685 38.486256 0.617636 2.040703 0.029572 -0.019930 -272947.000000 0 0 1
27.477599 19.526801 -16.158485 37.381961 0.617834 2.017787 0.025637 -0.022818 172213.000000 0 0 1
26.174399 20.079201 -16.066085 36.693222 0.654375 2.024001 0.019578 -0.021524 310206.000000 0 0 1
25.188999 19.441801 -15.018185 35.185440 0.657331 2.011780 0.021472 -0.006077 456415.000000 0 0 1
25.565699 19.673301 -13.637285 35.023125 0.655877 1.970754 0.023979 -0.006816 -484075.000000 0 0 1
24.474299 19.421201 -12.829985 33.775477 0.670786 1.960442 0.032707 -0.002086 -669206.000000 0 0 1
24.688299 19.814801 -11.325685 33.621564 0.676324 1.914374 0.041102 -0.003607 -133418.000000 0 0 1
24.966499 21.191801 -11.140885 34.591008 0.703802 1.898716 0.035263 -0.009731 27588.600000 0 0 1
25.336899 21.631601 -9.832385 34.735578 0.706672 1.857783 0.025677 -0.003755 -79058.700000 0 0 1
24.367199 21.393201 -8.662685 33.562949 0.720499 1.831854 0.028519 -0.003880 -447889.000000 0 0 1
24.261699 20.005501 -8.333985 32.531606 0.689545 1.829866 0.039697 -0.004936 9035.870000 0 0 1
23.461899 19.784701 -7.219985 31.528135 0.700574 1.801848 0.028513 -0.007519 -992086.000000 0 0 1
21.990399 19.537601 -7.457385 30.346467 0.726403 1.819081 0.020544 -0.007433 -1095490.000000 0 0 1
21.282799 20.725101 -7.709885 30.690873 0.772123 1.824728 0.034820 -0.000478 692024.000000 0 0 1
19.944199 20.541801 -8.220485 29.787800 0.800158 1.850393 0.053355 -0.001364 921310.000000 0 0 1
19.275499 21.930001 -8.357985 30.369816 0.849730 1.849601 0.023618 -0.002608 -792372.000000 0 0 1
19.827299 22.750901 -9.356585 31.595426 0.853955 1.871442 0.026949 -0.004513 -8740.410000 0 0 1
19.299999 22.533301 -10.634785 31.517269 0.862535 1.914979 0.023328 0.012428 820830.000000 0 0 1
17.766899 22.821101 -10.848385 30.889364 0.909285 1.929650 0.022759 0.004748 511733.000000 0 0 1
17.478499 24.194901 -10.650085 31.690937 0.945192 1.913528 0.047094 -0.011070 -104155.000000 0 0 1
16.101199 24.499401 -10.667185 31.197085 0.989371 1.919765 0.044097 -0.007540 160144.000000 0 0 1
15.785599 25.839601 -9.964885 31.877406 1.022395 1.888726 0.053445 -0.011347 -164820.000000 0 0 1
16.366899 26.916601 -10.601385 33.238053 1.024472 1.895421 0.058872 -0.008248 -113656.000000 0 0 1
16.416899 28.059801 -9.770485 33.945977 1.041428 1.862751 0.064003 -0.028403 -51719.600000 0 0 1
19.603399 29.120701 33.687627 48.653517 0.978300 0.805988 0.036545 0.001392 -314738.000000 0 0 1
18.259599 29.421301 33.899146 48.458002 1.015349 0.796019 0.043735 -0.012771 -1246850.000000 0 0 1
17.488799 28.271601 34.088693 47.614919 1.016813 0.772849 0.036324 -0.006362 135845.000000 0 0 1
16.028299 28.813701 34.018085 47.374738 1.063149 0.769780 0.029960 -0.007887 39208.300000 0 0 1
15.591499 29.274901 32.781976 46.634457 1.081418 0.791251 0.039121 -0.009316 387659.000000 0 0 1
14.259799 29.818401 32.834180 46.589293 1.124723 0.788714 0.023411 -0.008705 786508.000000 0 0 1
13.544499 29.654501 31.464212 45.308272 1.142349 0.803145 0.023157 -0.010610 -64649.800000 0 0 1
13.105799 28.382801 31.100012 44.097121 1.138213 0.788004 0.009361 -0.014863 -1045730.000000 0 0 1
11.747599 28.247801 31.293902 43.763599 1.176679 0.774077 -0.007964 -0.003584 -1153130.000000 0 0 1
11.158599 26.827901 31.132842 42.585261 1.176631 0.750906 -0.018224 0.003964 -438.523000 0 0 1
11.431399 26.224201 29.861802 41.353510 1.159721 0.763948 -0.012804 0.003160 48301.600000 0 0 1
12.758099 25.840701 29.588552 41.303672 1.112184 0.772216 -0.005128 0.003930 -525085.000000 0 0 1
12.911099 24.996301 28.294192 39.900787 1.094020 0.782556 0.013747 0.008350 -261835.000000 0 0 1
12.726499 25.794601 27.105202 39.522363 1.112460 0.815067 0.008473 0.004232 25944.100000 0 0 1
12.898699 25.043301 25.942412 38.295588 1.095177 0.826539 0.027891 0.003680 -141447.000000 0 0 1
11.814499 24.020501 25.537842 36.996597 1.113689 0.808927 0.030605 -0.000152 -466420.000000 0 0 1
11.963199 23.675101 24.175862 35.890122 1.102912 0.831717 0.041926 -0.006880 47208.800000 0 0 1
11.112499 22.634501 23.751272 34.640023 1.114412 0.815287 0.047638 -0.011843 -10162.600000 0 0 1
11.236999 22.318401 22.246962 33.456068 1.104364 0.843355 0.055993 -0.012366 259973.000000 0 0 1
10.721499 23.433301 21.473462 33.543698 1.141696 0.876085 0.060813 -0.016057 -131618.000000 0 0 1
10.974099 23.226801 20.128162 32.635227 1.129410 0.906174 0.070875 -0.011651 -797784.000000 0 0 1
10.338599 24.211201 19.117462 32.535307 1.167218 0.942718 0.058904 -0.021007 -273920.000000 0 0 1
8.950599 24.370301 19.194062 32.286790 1.218816 0.934169 0.063019 -0.024943 -491179.000000 0 0 1
8.496099 25.076601 20.329162 33.381049 1.244129 0.915993 0.060730 -0.028688 -755343.000000 0 0 1
7.083499 25.677401 20.116062 33.379048 1.301626 0.923972 0.060835 -0.026054 148976.000000 0 0 1
7.100099 26.548801 18.970262 33.393429 1.309476 0.966621 0.066469 -0.033654 854440.000000 0 0 1
5.802599 27.080101 18.619962 33.372219 1.359713 0.978885 0.045926 -0.028743 491335.000000 0 0 1
6.096499 28.272401 17.603362 33.858150 1.358414 1.024045 0.047209 -0.020247 386556.000000 0 0 1
6.469699 27.821201 16.298962 32.886660 1.342312 1.052259 0.049614 -0.018272 -96462.200000 0 0 1
7.010799 28.859301 15.495862 33.498243 1.332482 1.089885 0.040065 -0.016375 -364211.000000 0 0 1
7.544299 28.354201 14.137862 32.569254 1.310748 1.121773 0.045572 -0.017472 431441.000000 0 0 1
6.568599 28.320401 13.080762 31.879428 1.342887 1.147992 0.030155 -0.016964 211353.000000 0 0 1
6.550799 27.017201 12.449562 30.460363 1.332919 1.149752 0.011989 -0.017933 93580.300000 0 0 1
5.891299 27.017501 11.032462 29.771933 1.356102 1.191178 -0.000594 -0.015454 7890.010000 0 0 1
6.500499 27.775801 9.956762 30.214048 1.340899 1.234979 0.003816 -0.011598 162152.000000 0 0 1
6.444999 29.153701 10.119762 31.525955 1.353226 1.244013 0.000711 -0.008458 -101923.000000 0 0 1
6.944899 29.968701 8.943862 32.036656 1.343077 1.287861 -0.001627 -0.002100 743613.000000 0 0 1
5.897699 29.935701 7.906262 31.518852 1.376275 1.317246 -0.004627 -0.006233 1039630.000000 0 0 1
5.898599 28.765601 7.078462 30.205262 1.368543 1.334251 -0.007305 0.007289 321304.000000 0 0 1
4.489099 28.333301 6.574162 29.430385 1.413663 1.345516 -0.006295 0.011652 567674.000000 0 0 1
3.809299 29.326601 5.787162 30.133893 1.441627 1.377547 -0.011030 0.005956 371285.000000 0 0 1
2.428399 28.969201 5.724362 29.629040 1.487165 1.376373 -0.000007 0.003035 621282.000000 0 0 1
1.545299 29.983601 4.958362 30.430077 1.519304 1.407124 0.003399 -0.000771 -302217.000000 0 0 1
1.785999 30.000301 3.544462 30.261709 1.511334 1.453400 0.002668 0.003706 633553.000000 0 0 1
0.763199 30.798601 2.903162 30.944541 1.546021 1.476840 0.007709 -0.002898 647968.000000 0 0 1
-0.498501 29.992801 2.556362 30.105674 -1.554177 1.485781 0.027469 -0.005925 -676287.000000 0 0 1
-0.432301 29.294401 1.319362 29.327283 -1.556040 1.525794 0.028352 -0.000430 -82935.600000 0 0 1
-1.401101 28.264101 1.185262 28.323618 -1.521265 1.528937 0.033850 -0.008819 202711.000000 0 0 1
-1.744601 27.834101 -0.281438 27.890142 -1.508200 1.580887 0.042899 -0.013213 88163.000000 0 0 1
-2.573401 28.729901 -0.960038 28.860895 -1.481463 1.604067 0.043651 -0.011487 230886.000000 0 0 1
-1.762801 29.668801 -1.663038 29.767615 -1.511450 1.626693 0.028823 -0.006988 -111565.000000 0 0 1
-2.573301 30.879301 -2.156538 31.061290 -1.487654 1.640281 0.029412 0.000150 -549785.000000 0 0 1
-3.615101 30.522601 -3.029738 30.884906 -1.452905 1.669052 0.015653 -0.002776 -517490.000000 0 0 1
-3.407301 29.733301 -4.229638 30.225299 -1.456699 1.711194 0.017503 -0.004923 -1687960.000000 0 0 1
-4.647501 29.258601 -4.925838 30.032130 -1.413270 1.735560 0.009355 -0.004608 -1010420.000000 0 0 1
-5.306601 30.389101 -5.437938 31.324569 -1.397918 1.745280 0.008404 -0.000044 -507096.000000 0 0 1
-6.354801 29.996301 -6.270738 31.296704 -1.362030 1.772526 0.001744 -0.003151 -468221.000000 0 0 1
-6.963901 31.126201 -7.132738 32.683516 -1.350690 1.790803 0.008661 -0.002834 -343037.000000 0 0 1
-7.889401 31.883101 -6.401338 33.462694 -1.328221 1.763280 0.012183 0.004111 -131316.000000 0 0 1
-8.186501 33.085601 -7.091638 34.813318 -1.328234 1.775937 0.010992 -0.007976 -33087.100000 0 0 1
-9.160501 34.069101 -6.368038 35.849272 -1.308129 1.749378 0.027930 -0.003765 1053730.000000 0 0 1
-10.509001 33.574901 -6.397938 35.758169 -1.267454 1.750687 0.030741 -0.003328 900449.000000 0 0 1
-11.440601 34.346101 -5.639038 36.637968 -1.249258 1.725323 0.034640 -0.005335 1200690.000000 0 0 1
-12.980701 34.160001 -5.820838 37.003870 -1.207652 1.728756 0.050544 -0.009766 954716.000000 0 0 1
-13.361101 -34.408469 -7.174338 37.602299 1.200409 1.762768 0.058879 -0.008782 -207178.000000 0 0 1
-14.709201 34.154401 -7.440538 37.924205 -1.164135 1.768272 0.050560 -0.015500 -161752.000000 0 0 1
-15.189001 -34.431669 -8.874238 38.665200 1.155339 1.802376 0.067442 -0.010760 1873880.000000 0 0 1
-16.546401 34.014601 -9.236438 38.936978 -1.118047 1.810294 0.076514 -0.017421 2037120.000000 0 0 1
-17.608701 -33.942769 -9.032438 39.290748 1.092241 1.802758 0.068144 -0.022526 675697.000000 0 0 1
-19.052401 34.276601 -9.156738 40.270649 -1.063478 1.800183 0.063735 -0.018449 878083.000000 0 0 1
-19.495401 33.445501 -8.134638 39.558116 -1.043045 1.777912 0.053561 -0.016874 -55972.900000 0 0 1
-19.772901 34.204301 -6.976638 40.119512 -1.046649 1.745581 0.052929 -0.016941 -752765.000000 0 0 1
-19.968801 33.208001 -5.776338 39.177677 -1.029403 1.718775 0.038488 -0.019078 -273756.000000 0 0 1
-19.674401 33.819301 -4.517438 39.385713 -1.043904 1.685747 0.033285 -0.026178 1060670.000000 0 0 1
-20.839401 34.262501 -3.752138 40.277514 -1.024349 1.664089 0.019195 -0.017285 1156480.000000 0 0 1
-21.481801 -33.235869 -4.139638 39.789790 0.996996 1.675023 0.031336 -0.029413 -68240.800000 0 0 1
-22.194001 -33.328369 -5.336638 40.395960 0.983311 1.703292 0.040804 -0.018082 -754721.000000 0 0 1
-23.294101 -32.497069 -5.415538 40.348516 0.948880 1.705422 0.029565 -0.025227 -653811.000000 0 0 1
-23.892001 -32.591169 -6.811038 40.980511 0.938211 1.737773 0.033922 -0.022396 -356650.000000 0 0 1
-23.067001 -32.056069 -7.827038 40.260907 0.947048 1.766450 0.052721 -0.023139 -13393.700000 0 0 1
-23.263301 -32.578469 -9.107438 41.054638 0.950690 1.794494 0.028261 -0.015656 714680.000000 0 0 1
-24.472901 -31.947269 -9.902638 41.444097 0.917108 1.812070 0.014184 -0.009996 2718470.000000 0 0 1
-25.845621 -32.204069 -9.389938 42.347009 0.894498 1.794393 0.020282 -0.011040 2248160.000000 0 0 1
-26.909541 -31.789869 -10.218838 42.885240 0.868348 1.811394 -0.003203 -0.003521 331750.000000 0 0 1
-27.232681 -30.263369 -10.195938 41.969603 0.838061 1.816188 -0.003646 0.000604 -581008.000000 0 0 1
-26.345651 -29.431169 -10.925538 40.983587 0.840661 1.840643 -0.010164 0.013087 71879.300000 0 0 1
-26.683081 -29.316269 -12.333238 41.515530 0.832385 1.872425 -0.010511 0.008032 284441.000000 0 0 1
-25.511871 -28.713969 -13.189938 40.611846 0.844381 1.901576 -0.000542 0.011293 824729.000000 0 0 1
-24.398501 -29.620269 -13.228538 40.591150 0.881765 1.902757 0.011528 0.002518 1080620.000000 0 0 1
-23.279601 -29.050369 -13.941938 39.752250 0.895231 1.929137 0.024356 0.001828 1603530.000000 0 0 1
-21.930901 -29.849669 -14.135138 39.645546 0.937152 1.935356 0.045409 -0.012805 756274.000000 0 0 1
-21.948601 -31.004269 -14.929438 40.815364 0.954773 1.945267 0.045140 -0.010882 -154246.000000 0 0 1
-22.482101 -32.125469 -14.282838 41.731165 0.960190 1.920116 0.031765 -0.007412 -209647.000000 0 0 1
-22.879901 -33.358569 -15.104738 43.179128 0.969611 1.928171 0.021834 -0.009911 -143760.000000 0 0 1
-23.320701 -34.301069 -14.134238 43.820031 0.973700 1.899221 0.013495 -0.018510 -58745.600000 0 0 1
-23.524701 33.286901 -14.625538 43.305146 -0.955571 1.915303 0.018697 -0.025696 -266889.000000 0 0 1
-24.002301 32.342401 -13.494138 42.476265 -0.932350 1.894085 0.008895 -0.024887 -649501.000000 0 0 1
-23.171401 31.984101 -12.431738 41.405853 -0.943838 1.875742 0.010157 -0.017851 -232751.000000 0 0 1
-22.888601 33.026501 -11.532738 41.804807 -0.964759 1.850292 0.031914 -0.021220 -97354.300000 0 0 1
-22.164301 32.533701 -10.292238 40.689410 -0.972750 1.826521 0.032404 -0.018444 -222948.000000 0 0 1
-23.032901 31.819201 -9.435238 40.398017 -0.944231 1.806531 0.034325 -0.007177 103472.000000 0 0 1
-22.357601 31.247001 -8.335338 39.315585 -0.949735 1.784429 0.030641 -0.006113 -98223.600000 0 0 1
-23.194501 30.113201 -7.719838 38.786410 -0.914465 1.771169 0.029693 -0.006880 -83369.700000 0 0 1
-23.281401 28.947501 -8.534938 38.115962 -0.893461 1.796631 0.026805 0.004269 -120179.000000 0 0 1
-23.810901 27.834301 -7.867238 37.464660 -0.863146 1.782362 0.011872 0.011541 -424233.000000 0 0 1
-22.977501 27.109801 -6.800338 36.182198 -0.867714 1.759868 0.014321 0.012626 -315179.000000 0 0 1
-22.791301 27.857201 -5.615338 36.427998 -0.885087 1.725562 0.023806 0.014351 343171.000000 0 0 1
-21.858801 27.259301 -4.687838 35.254113 -0.894908 1.704164 0.027643 0.012481 -864693.000000 0 0 1
-20.643101 28.113701 -4.531838 35.171798 -0.937437 1.700004 0.030539 0.008238 -1108850.000000 0 0 1
-19.881901 27.841701 -5.711238 34.685278 -0.950666 1.736208 0.031859 -0.002094 178248.000000 0 0 1
-18.601701 28.463601 -5.654138 34.469829 -0.991946 1.735572 0.057374 -0.005180 501761.000000 0 0 1
-17.655501 28.223201 -6.861638 33.990408 -1.011789 1.774063 0.065649 -0.012276 -3173.540000 0 0 1
-18.007701 28.809101 -8.118738 34.930724 -1.012147 1.805366 0.070069 -0.014719 98362.600000 0 0 1
-17.914101 30.221201 -8.126838 36.059416 -1.035713 1.798123 0.069610 -0.012568 -139528.000000 0 0 1
-17.851601 30.865001 -9.493038 36.897774 -1.046428 1.831002 0.066890 -0.018251 -732317.000000 0 0 1
-16.613101 30.838801 -10.113938 36.459820 -1.076664 1.851883 0.072170 -0.022432 -620806.000000 0 0 1
-16.670801 31.543501 -11.354338 37.441007 -1.084608 1.878908 0.072001 -0.019077 -144662.000000 0 0 1
-15.299301 31.970901 -11.934838 37.398495 -1.124465 1.895604 0.072607 -0.019740 23487.800000 0 0 1
-15.263701 32.530201 -13.259538 38.301565 -1.132078 1.924301 0.068835 -0.015669 -168207.000000 0 0 1
-15.478901 31.557801 -14.253438 37.929562 -1.114783 1.956042 0.065361 -0.026032 -315671.000000 0 0 1
-14.969901 31.932001 -15.609538 38.566932 -1.132414 1.987490 0.094478 -0.024340 -605684.000000 0 0 1
-13.594601 31.907801 -15.796238 38.110918 -1.168029 1.998168 0.076009 -0.031601 -766233.000000 0 0 1
-13.163201 32.138601 -17.121038 38.720659 -1.182062 2.028811 0.059426 -0.037965 -705154.000000 0 0 1
-11.677901 32.182301 -17.376438 38.392896 -1.222705 2.040470 0.074070 -0.042133 -1127460.000000 0 0 1
-10.973001 30.970301 -17.206738 37.089596 -1.230290 2.053215 0.072946 -0.049226 1369460.000000 0 0 1
-9.633601 30.906201 -17.798338 36.942934 -1.268636 2.073480 0.066370 -0.042053 1393330.000000 0 0 1
-9.513101 31.109301 -19.347938 37.850104 -1.274031 2.107345 0.069353 -0.046981 -776530.000000 0 0 1
-10.130101 30.091201 -20.060938 37.557164 -1.246067 2.134291 0.053088 -0.055962 -38237.600000 0 0 1
-9.829501 30.200001 -21.453538 38.326406 -1.256130 2.164891 0.059842 -0.056721 -1097890.000000 0 0 1
-10.945301 29.706701 -22.395438 38.779419 -1.217784 2.186470 0.065499 -0.054818 -107761.000000 0 0 1
-11.980601 30.638601 -22.569838 39.895567 -1.198047 2.172106 0.067665 -0.052195 -82030.600000 0 0 1
-12.995201 30.636701 -21.596038 39.672050 -1.169628 2.146427 0.065419 -0.050133 -358262.000000 0 0 1
-14.061801 31.769801 -21.743738 40.985908 -1.154100 2.130007 0.086511 -0.045970 526109.000000 0 0 1
-14.867501 31.654801 -22.921938 41.814881 -1.131701 2.150979 0.065828 -0.044228 151632.000000 0 0 1
-15.526401 32.871001 -23.167338 43.107973 -1.129518 2.138178 0.058000 -0.027363 30984.400000 0 0 1
-16.028101 32.957801 -24.639838 44.161502 -1.118151 2.162708 0.051340 -0.022592 -187752.000000 0 0 1
-15.028401 33.303901 -25.574838 44.599047 -1.146903 2.181494 0.044346 -0.021231 -67251.500000 0 0 1
-15.331101 33.197201 -26.972038 45.437734 -1.138157 2.206327 0.039451 -0.002211 -181532.000000 0 0 1
-15.711401 -34.386969 -27.710338 46.874029 1.142219 2.203300 0.030561 0.005514 -581807.000000 0 0 1
-16.979601 -33.952169 -27.354938 46.790483 1.107066 2.195215 0.026727 0.008724 -660759.000000 0 0 1
-17.191901 -32.702169 -28.030138 46.375446 1.086792 2.219831 0.028861 0.011444 402078.000000 0 0 1
-18.637301 -32.242069 -27.675538 46.398658 1.046678 2.209896 0.025155 -0.002224 442626.000000 0 0 1
-19.672401 -32.997269 -28.232638 47.674993 1.033188 2.204570 0.011152 0.001080 -539947.000000 0 0 1
-20.944801 -32.759569 -27.673438 47.725185 1.001945 2.189341 0.021210 0.000203 29511.400000 0 0 1
-21.944601 -33.858969 -27.968038 49.093854 0.995745 2.176919 0.007794 0.006213 -392708.000000 0 0 1
-21.710901 33.770401 -27.287738 48.543010 -0.999430 2.167762 0.017309 0.004176 -945860.000000 0 0 1
-22.859801 33.004601 -27.205338 48.497470 -0.965037 2.166346 0.006765 0.006119 -502438.000000 0 0 1
-22.685901 31.515201 -26.802038 47.182700 -0.946879 2.174928 -0.000396 0.005851 52591.000000 0 0 1
-22.391601 31.220901 -25.423438 46.070377 -0.948620 2.155364 0.009102 0.003258 -70888.300000 0 0 1
-22.743101 29.897101 -25.171938 45.218489 -0.920474 2.161173 0.003579 -0.001550 -298477.000000 0 0 1
31.022294 9.926201 -26.781405 42.168186 0.309676 2.258946 0.010606 0.000671 -157336.000000 0 0 1
30.693674 8.536501 -26.683635 41.557068 0.271264 2.268026 0.006716 0.003559 -247244.000000 0 0 1
29.322674 8.247101 -26.722915 40.520959 0.274171 2.290928 0.011416 -0.000037 -253766.000000 0 0 1
28.906994 6.871501 -26.172605 39.595923 0.233379 2.292937 0.011203 -0.002934 -157659.000000 0 0 1
29.054334 6.812301 -24.782585 38.790957 0.230307 2.263832 -0.003844 -0.002038 247165.000000 0 0 1
28.345454 5.638301 -24.400985 37.824110 0.196351 2.271973 -0.003169 -0.000399 33072.200000 0 0 1
28.349044 5.357701 -22.817785 36.783483 0.186787 2.239956 -0.001444 -0.001303 244251.000000 0 0 1
29.608444 4.977001 -22.264685 37.378426 0.166537 2.208878 -0.007383 0.001513 405225.000000 0 0 1
29.544664 4.880001 -20.851285 36.489419 0.163696 2.179048 -0.007773 0.001518 -431865.000000 0 0 1
30.846284 4.603501 -20.094985 37.101131 0.148147 2.143168 -0.015276 0.001699 -493091.000000 0 0 1
31.389384 3.257901 -20.193285 37.465666 0.103420 2.140023 -0.010094 -0.001194 541427.000000 0 0 1
32.333664 3.106301 -19.135085 37.699688 0.095776 2.103154 -0.008155 -0.002613 -76669.700000 0 0 1
33.061964 1.756901 -19.110585 38.228192 0.053090 2.094289 0.004203 -0.015105 -365529.000000 0 0 1
32.208984 0.692101 -18.781485 37.291311 0.021485 2.098606 0.018949 -0.007328 -360846.000000 0 0 1
32.858234 -0.518599 -18.897785 37.908558 -0.015782 2.092675 0.028219 -0.006034 -337094.000000 0 0 1
32.029324 -1.767499 -18.462685 37.011788 -0.055128 2.093048 0.005483 -0.002356 154695.000000 0 0 1
31.596394 -1.749099 -17.118785 35.978386 -0.055301 2.066678 0.021060 -0.009765 1352130.000000 0 0 1
30.137904 -1.692399 -17.085485 34.685318 -0.056096 2.085855 0.020278 -0.012878 1425050.000000 0 0 1
29.556904 -1.998799 -15.671185 33.514054 -0.067523 2.057370 0.037538 -0.010972 -466675.000000 0 0 1
29.561834 -3.317699 -15.242485 33.425178 -0.111761 2.044312 0.030588 -0.012438 290401.000000 0 0 1
28.826204 -3.409299 -14.053685 32.250263 -0.117724 2.021690 0.041209 -0.011752 -217761.000000 0 0 1
28.570964 -4.883399 -13.548385 31.995411 -0.169286 2.008044 0.031633 -0.010561 5886.140000 0 0 1
27.787514 -5.685299 -14.429585 31.822657 -0.201814 2.041415 0.026778 -0.009830 536882.000000 0 0 1
27.684064 -7.056199 -13.970785 31.802204 -0.249569 2.025618 0.013933 -0.004528 -152481.000000 0 0 1
27.025394 -7.989099 -15.027485 31.937798 -0.287429 2.060680 0.007904 0.001436 1046090.000000 0 0 1
25.642924 -7.701299 -15.325785 30.850434 -0.291758 2.090677 0.017708 -0.000957 903189.000000 0 0 1
25.045424 -8.634499 -16.195385 31.050255 -0.331993 2.119505 0.010210 0.004660 161601.000000 0 0 1
23.747324 -8.133099 -16.875885 30.246954 -0.329964 2.162694 0.013033 -0.000239 39457.500000 0 0 1
23.811924 -6.847399 -17.502285 30.335204 -0.280007 2.185802 0.003883 0.000146 -27075.800000 0 0 1
22.542424 -6.500499 -18.032385 29.590274 -0.280751 2.226103 0.023885 -0.003016 207960.000000 0 0 1
22.252224 -6.918299 -19.487685 30.377528 -0.301430 2.267270 0.015829 0.006243 -132412.000000 0 0 1
22.889824 -6.224399 -20.584085 31.406875 -0.265509 2.285509 0.013609 0.002392 26606.000000 0 0 1
22.485724 -6.537999 -21.846485 32.025336 -0.282960 2.321512 0.025044 -0.000915 -99836.800000 0 0 1
23.178124 -5.605599 -22.903185 33.063637 -0.237292 2.336022 0.020861 0.000627 73807.100000 0 0 1
23.026224 -6.115599 -24.203685 33.962125 -0.259600 2.364089 0.020150 -0.002413 146743.000000 0 0 1
23.163324 -5.109899 -25.181845 34.594450 -0.217125 2.386074 0.015005 -0.009540 -379590.000000 0 0 1
22.937724 -5.493199 -26.667445 35.601504 -0.235056 2.417429 0.016341 -0.011186 -235010.000000 0 0 1
21.707524 -6.055899 -27.053505 35.210548 -0.272060 2.447032 0.021855 -0.009521 -444476.000000 0 0 1
21.652924 -6.159299 -28.445615 36.275875 -0.277136 2.472117 0.012486 -0.011607 -474504.000000 0 0 1
20.387424 -6.868199 -28.864315 35.999554 -0.324943 2.501092 0.017898 -0.018077 -658855.000000 0 0 1
20.358124 -8.234899 -28.500475 35.979770 -0.384381 2.485079 0.016567 -0.008456 -369020.000000 0 0 1
19.356624 -8.890099 -29.195425 36.139807 -0.430544 2.511286 0.012802 -0.008935 -522223.000000 0 0 1
19.353524 -10.446099 -29.006225 36.401113 -0.494941 2.492860 0.018490 0.001336 -249190.000000 0 0 1
18.568024 -10.785799 -27.888195 35.197392 -0.526242 2.485426 0.014903 -0.001989 290404.000000 0 0 1
18.822224 -12.097699 -27.354855 35.340042 -0.571251 2.456005 0.017597 -0.001792 -327402.000000 0 0 1
18.699224 -13.357699 -28.280095 36.439716 -0.620289 2.459220 0.019671 0.006504 224116.000000 0 0 1
17.387824 -13.588099 -28.780695 36.267083 -0.663341 2.487460 0.027687 -0.001941 597179.000000 0 0 1
17.453224 -14.624299 -29.690425 37.416661 -0.697435 2.487349 0.031529 -0.003535 -279227.000000 0 0 1
16.297924 -14.797099 -30.702355 37.778448 -0.737170 2.519559 0.028567 -0.009655 504736.000000 0 0 1
15.136424 -15.489499 -30.182715 37.148785 -0.796926 2.519193 0.036543 -0.013820 934618.000000 0 0 1
14.192824 -15.687199 -31.231135 37.721457 -0.835369 2.546222 0.039685 -0.019109 -384107.000000 0 0 1
12.898624 -16.280699 -30.673155 37.044273 -0.900790 2.546352 0.042837 -0.018152 -489848.000000 0 0 1
12.939024 -17.628699 -30.253895 37.329446 -0.937630 2.515727 0.039031 -0.021181 -76686.300000 0 0 1
12.186924 -17.836599 -29.066905 36.215333 -0.971398 2.502460 0.039686 -0.023375 -36180.700000 0 0 1
12.329224 -19.150699 -28.320735 36.343130 -0.998792 2.464280 0.035895 -0.017243 -184215.000000 0 0 1
13.459524 -19.247199 -27.484495 36.152606 -0.960542 2.434472 0.044427 -0.018395 -264371.000000 0 0 1
13.314924 -20.298999 -26.584595 36.001073 -0.990257 2.401549 0.045978 -0.013111 -160163.000000 0 0 1
14.286924 -20.463299 -25.426725 35.628376 -0.961298 2.365513 0.039820 -0.004835 308455.000000 0 0 1
15.682924 -20.687399 -25.652715 36.496361 -0.922137 2.350241 0.035328 -0.001727 618943.000000 0 0 1
16.305024 -20.903099 -24.433485 36.052581 -0.908352 2.315451 0.033182 0.012566 -84971.400000 0 0 1
17.837924 -21.161699 -24.543085 36.991514 -0.870419 2.296255 0.033933 0.003472 356831.000000 0 0 1
18.167124 -22.445099 -25.079755 38.246843 -0.890348 2.285951 0.041307 -0.006269 221982.000000 0 0 1
18.129924 -23.436999 -24.022085 38.145087 -0.912387 2.252035 0.046178 -0.010705 -574221.000000 0 0 1
18.979624 -24.704199 -24.327085 39.526329 -0.915701 2.233773 0.031378 -0.011403 421505.000000 0 0 1
20.343024 -24.555799 -23.919285 39.861738 -0.878952 2.214368 0.044077 -0.007113 626449.000000 0 0 1
20.802124 -25.752539 -23.225785 40.439569 -0.891336 2.182586 0.047894 -0.011261 -31194.300000 0 0 1
20.530724 -25.721019 -21.693685 39.416969 -0.897149 2.153597 0.052968 -0.004082 -640532.000000 0 0 1
19.161324 -25.746379 -21.406385 38.578047 -0.930996 2.159021 0.043511 -0.002419 -356132.000000 0 0 1
19.048124 -25.951129 -20.014885 37.906303 -0.937614 2.127051 0.027056 -0.007992 -233996.000000 0 0 1
17.855124 -26.708359 -19.430885 37.545988 -0.981510 2.114749 0.026429 0.000512 -885766.000000 0 0 1
17.955124 -28.053029 -19.841985 38.769361 -1.001453 2.108070 0.028919 0.007218 116635.000000 0 0 1
17.000924 -28.958089 -19.290685 38.726385 -1.039926 2.092235 0.016452 0.017642 -396167.000000 0 0 1
15.568324 -28.802139 -19.772885 38.247914 -1.075255 2.114100 0.014483 0.015960 -1075840.000000 0 0 1
14.853524 -27.844569 -19.060985 36.868257 -1.080753 2.114142 0.020138 0.012780 -466215.000000 0 0 1
13.591724 -27.580659 -19.655885 36.493582 -1.112926 2.139585 0.019583 0.017559 400700.000000 0 0 1
12.753524 -26.578639 -18.791485 34.959925 -1.123405 2.138284 0.008329 0.006064 -124578.000000 0 0 1
12.249924 -27.138989 -17.557985 34.566866 -1.146798 2.103591 0.012333 0.009885 124440.000000 0 0 1
11.402924 -26.293189 -16.801685 33.221305 -1.161594 2.101048 0.018145 -0.005611 -643726.000000 0 0 1
9.942024 -26.315119 -17.199685 32.972087 -1.209567 2.119573 0.021588 0.002867 -1307910.000000 0 0 1
9.295624 -27.563429 -16.913385 33.648386 -1.245530 2.097459 0.028441 0.003051 684792.000000 0 0 1
7.893324 -27.243029 -16.947385 33.040900 -1.288781 2.109381 0.027787 0.008795 706334.000000 0 0 1
7.026524 -27.950169 -17.969685 33.963121 -1.324505 2.128329 0.031578 0.006787 -282098.000000 0 0 1
7.132324 -27.444279 -19.265385 34.281388 -1.316537 2.167571 0.020006 0.008890 -603561.000000 0 0 1
6.121924 -27.923859 -20.069585 34.928615 -1.354975 2.182898 0.028738 0.009108 -870108.000000 0 0 1
6.163824 -27.353129 -21.493685 35.329377 -1.349156 2.224814 0.019845 0.005581 -237221.000000 0 0 1
5.820824 -25.962599 -21.509185 34.213793 -1.350243 2.250638 0.014025 0.002621 107233.000000 0 0 1
5.727824 -25.619999 -22.882785 34.825482 -1.350845 2.287722 0.008615 0.000111 -199204.000000 0 0 1
4.373624 -24.976099 -23.250185 34.402111 -1.397442 2.312895 0.004885 0.003852 460604.000000 0 0 1
3.336924 -25.964119 -23.164985 34.955502 -1.442976 2.295214 0.002792 0.005001 610291.000000 0 0 1
2.078124 -25.535749 -23.671485 34.881690 -1.489594 2.316681 0.006200 -0.001519 1372370.000000 0 0 1
1.166724 -26.678329 -24.355985 36.142890 -1.527091 2.310245 -0.001573 0.003068 616077.000000 0 0 1
1.703224 -27.112319 -25.557295 37.298179 -1.508058 2.325696 -0.012020 0.006529 404229.000000 0 0 1
0.762524 -28.062439 -26.082595 38.319495 -1.543631 2.319461 0.002955 -0.001989 234827.000000 0 0 1
1.177024 -28.934229 -27.265885 39.774408 -1.530139 2.326105 -0.007309 -0.000107 -632151.000000 0 0 1
1.579424 -28.205769 -28.412255 40.066398 -1.514858 2.359059 -0.006618 -0.003894 172512.000000 0 0 1
2.128424 -29.046489 -29.423855 41.400386 -1.497651 2.361310 0.004619 -0.009699 782838.000000 0 0 1
3.669224 -29.327629 -29.411285 41.696484 -1.446332 2.353736 -0.007505 -0.002098 386289.000000 0 0 1
4.163824 -30.106829 -28.360755 41.570314 -1.433366 2.321613 -0.011637 -0.011390 -171116.000000 0 0 1
5.285624 -30.817639 -28.853165 42.546091 -1.400936 2.316056 0.006024 -0.011430 118845.000000 0 0 1
5.705524 -32.051209 -28.003195 42.941960 -1.394629 2.281170 0.025770 -0.017919 279448.000000 0 0 1
4.732324 -33.094689 -27.969055 43.588088 -1.428766 2.267467 0.022855 -0.027716 248015.000000 0 0 1
5.331524 -34.237075 -27.424455 44.189402 -1.416313 2.240319 0.036241 -0.037335 -479963.000000 0 0 1
4.360124 33.581971 -26.948545 43.277980 1.441683 2.242966 0.035364 -0.032985 -362891.000000 0 0 1
3.603624 33.027370 -28.014175 43.457879 1.462116 2.271333 0.031844 -0.032142 -803117.000000 0 0 1
2.331924 32.702761 -27.627305 42.873960 1.499610 2.271014 0.036185 -0.034142 -1173090.000000 0 0 1
1.244724 32.795591 -28.703285 43.600214 1.532861 2.289393 0.048770 -0.028221 -449985.000000 0 0 1
1.124424 31.717061 -29.580425 43.384765 1.535359 2.321039 0.074166 -0.032928 -261974.000000 0 0 1
0.064624 31.970301 -30.439805 44.143924 1.568775 2.331675 0.072460 -0.038335 -362402.000000 0 0 1
-0.054776 30.912651 -31.525705 44.152747 -1.569024 2.366012 0.080042 -0.035425 365983.000000 0 0 1
1.079524 30.912061 -32.398485 44.792664 1.535888 2.379364 0.081812 -0.037387 439105.000000 0 0 1
1.028524 29.784931 -33.305725 44.693079 1.536278 2.411646 0.084028 -0.032935 195767.000000 0 0 1
2.310424 29.603101 -34.180584 45.276859 1.492908 2.426334 0.088189 -0.026937 389328.000000 0 0 1
2.601024 30.665831 33.736298 45.665045 1.486181 0.739542 0.082846 -0.029650 116393.000000 0 0 1
3.561524 30.297021 32.743107 44.751592 1.453780 0.750037 0.049980 -0.027010 176866.000000 0 0 1
3.022324 29.434651 31.545742 43.251208 1.468476 0.753409 0.056792 -0.024042 -121056.000000 0 0 1
2.832024 28.065241 31.769512 42.485056 1.470228 0.726083 0.059095 -0.020756 -219421.000000 0 0 1
3.983024 27.264971 31.637582 41.954496 1.425737 0.716525 0.052971 -0.015075 -489582.000000 0 0 1
3.758724 25.749111 31.909672 41.174894 1.425845 0.684115 0.061833 -0.017514 -266174.000000 0 0 1
2.850324 25.133371 31.042752 40.043266 1.457871 0.683717 0.056200 -0.007762 -55805.500000 0 0 1
2.975424 23.694071 31.023542 39.149997 1.445873 0.656018 0.044379 -0.003956 174009.000000 0 0 1
2.008924 22.936271 30.046622 37.853769 1.483432 0.653838 0.035547 0.004303 715331.000000 0 0 1
0.710024 22.715971 30.580982 38.101390 1.539550 0.639120 0.017904 0.005014 324252.000000 0 0 1
-0.137776 22.132471 29.587242 36.949562 -1.564571 0.642255 0.029947 0.004568 621649.000000 0 0 1
-1.540676 21.625971 30.000752 37.014881 -1.499675 0.625782 0.029770 0.008089 -260472.000000 0 0 1
-2.421676 22.612871 30.267322 37.859176 -1.464110 0.644382 0.041649 0.005554 -372155.000000 0 0 1
-3.785576 22.258871 30.404352 37.870999 -1.402338 0.638753 0.028566 0.002502 670544.000000 0 0 1
-4.835976 23.362771 30.599992 38.801614 -1.366684 0.662224 0.002579 -0.005544 -179709.000000 0 0 1
-5.060976 23.787471 31.909182 40.120483 -1.361164 0.651238 0.004454 -0.002498 -371834.000000 0 0 1
-4.396476 24.946181 32.230642 40.993356 -1.396349 0.666095 0.018666 -0.005015 -394005.000000 0 0 1
-4.635176 25.436431 33.697634 42.473844 -1.390548 0.654465 0.023537 -0.005729 474579.000000 0 0 1
-5.998476 25.740131 33.997142 43.062068 -1.341843 0.660816 0.011464 -0.000433 438556.000000 0 0 1
-6.208776 26.071441 -33.440265 42.854641 -1.337006 2.465971 0.026129 -0.006012 -13099.500000 0 0 1
-7.679176 26.473951 -33.215455 43.163715 -1.288479 2.448890 0.029869 -0.002283 -268698.000000 0 0 1
-8.041976 27.781551 -33.722055 44.425949 -1.289026 2.432668 0.024276 -0.007819 507972.000000 0 0 1
-9.308476 28.217931 -33.197695 44.553185 -1.252159 2.411519 0.022532 -0.008891 685767.000000 0 0 1
-9.473376 28.419401 -31.628645 43.563498 -1.249038 2.383335 0.023932 -0.010504 -532568.000000 0 0 1
-9.065076 29.667531 -31.146425 43.959502 -1.274251 2.358203 0.021293 -0.013374 73807.100000 0 0 1
-9.154376 29.759371 -29.765085 43.074157 -1.272370 2.333695 0.026955 -0.014734 -421131.000000 0 0 1
-8.617676 31.132351 -29.303215 43.613828 -1.300750 2.307539 0.027373 -0.024065 56065.400000 0 0 1
-7.242076 31.305211 -29.596155 43.685195 -1.343458 2.315137 0.021079 -0.022273 -179203.000000 0 0 1
-6.693276 32.419391 -28.936235 43.967290 -1.367198 2.289130 0.028324 -0.018116 -401611.000000 0 0 1
-5.200876 32.530341 -29.236225 44.045761 -1.412260 2.296644 0.025752 -0.020409 -578223.000000 0 0 1
-4.481276 33.635734 -28.711205 44.449721 -1.438347 2.273031 0.029364 -0.028792 -90200.500000 0 0 1
-4.426776 -34.111672 -29.619665 45.393029 1.441745 2.281696 0.040412 -0.021640 120125.000000 0 0 1
-3.322676 -34.153252 -30.725895 46.060454 1.473814 2.301075 0.046186 -0.030547 -112711.000000 0 0 1
-3.469976 33.854294 -31.782255 46.564640 -1.468656 2.322030 0.055732 -0.033037 -304333.000000 0 0 1
-4.416276 34.208019 -32.745085 47.559780 -1.442406 2.330220 0.057587 -0.027650 -292304.000000 0 0 1
-3.955376 -33.618679 -33.754885 47.804318 1.453681 2.354779 0.031195 -0.022423 -119030.000000 0 0 1
-3.673376 -32.363019 -33.198695 46.508194 1.457775 2.365741 0.026737 -0.020266 126520.000000 0 0 1
-3.092476 -31.440389 -34.089612 46.477555 1.472752 2.394200 0.007193 -0.018809 18899.800000 0 0 1
31.576684 19.781501 12.705762 39.367895 0.559648 1.242169 0.062908 -0.009138 -189070.000000 0 0 1
32.529824 18.946701 13.315362 39.930763 0.527408 1.230824 0.060713 -0.013114 18027.100000 0 0 1
32.168354 17.606701 13.206562 38.977073 0.500791 1.225124 0.062927 -0.014596 110742.000000 0 0 1
33.273584 16.666401 13.740062 39.669757 0.464359 1.217107 0.078274 -0.016709 472927.000000 0 0 1
34.438064 16.447501 12.971762 40.308401 0.445565 1.243153 0.079417 -0.011763 -13486.900000 0 0 1
35.426521 15.683801 13.601262 41.061105 0.416778 1.233174 0.078536 -0.012691 109094.000000 0 0 1
-34.760080 15.154701 12.515662 39.932066 -0.411134 1.252000 0.079788 -0.025754 239010.000000 0 0 1
-33.954961 14.063201 12.979962 38.976819 -0.392664 1.231294 0.059859 -0.020783 -331155.000000 0 0 1
-34.602592 12.837401 13.123262 39.170885 -0.355255 1.229164 0.051479 -0.016580 -314402.000000 0 0 1
-34.067221 11.899901 14.234062 38.791645 -0.336057 1.195083 0.040893 -0.012364 65208.600000 0 0 1
-34.157745 12.440101 15.544062 39.536382 -0.349265 1.166732 0.048155 -0.013732 71455.000000 0 0 1
-33.390261 11.632301 16.406262 38.979294 -0.335226 1.136363 0.035354 -0.012903 -39155.600000 0 0 1
-33.178231 12.429701 17.716462 39.612694 -0.358450 1.107117 0.030301 -0.007981 747251.000000 0 0 1
-34.395272 12.580001 18.475962 41.020145 -0.350635 1.103570 0.030179 -0.006437 792530.000000 0 0 1
-34.060431 13.156701 19.739562 41.507373 -0.368619 1.075187 0.020017 -0.011750 79930.900000 0 0 1
-35.281193 13.359201 20.663062 43.013869 -0.361966 1.069707 0.030985 -0.013056 117313.000000 0 0 1
35.443944 12.092301 21.160262 43.014574 0.328784 1.056488 0.032954 0.000289 351032.000000 0 0 1
34.347704 12.307301 22.047462 42.630095 0.344063 1.027243 0.034506 -0.004764 440470.000000 0 0 1
34.078824 11.092601 23.057462 42.615239 0.314683 0.999098 0.030334 -0.010129 818646.000000 0 0 1
35.153540 10.965601 24.029542 43.970839 0.302370 0.992631 0.023607 -0.005158 597708.000000 0 0 1
34.739584 11.471401 25.266572 44.461572 0.318938 0.966384 0.031716 -0.006815 -1417870.000000 0 0 1
-35.306602 11.720201 26.271812 45.542588 -0.320509 0.955914 0.035976 -0.010613 103814.000000 0 0 1
-34.485485 12.799201 25.874272 44.972727 -0.355389 0.957786 0.037540 -0.019114 -331283.000000 0 0 1
-33.570921 12.427501 24.873172 43.590414 -0.354544 0.963547 0.020745 -0.015518 -2060260.000000 0 0 1
-32.604881 13.577701 24.594332 43.038510 -0.394591 0.962525 0.012590 -0.017437 -98995.000000 0 0 1
-31.614031 13.837401 25.570192 42.950615 -0.412577 0.933108 0.009780 -0.023108 99950.100000 0 0 1
-32.104921 14.484301 26.674862 44.182227 -0.423814 0.922604 0.007205 -0.018539 -1016610.000000 0 0 1
-30.947691 15.056701 27.523102 44.067958 -0.452806 0.896228 -0.004946 -0.007318 -61248.900000 0 0 1
-30.180941 16.051601 26.882182 43.487869 -0.488798 0.904405 -0.016442 -0.011846 -305464.000000 0 0 1
-29.508671 16.752101 27.934582 43.951512 -0.516332 0.882040 -0.025928 -0.010437 -84480.200000 0 0 1
-29.072921 18.154501 27.556922 43.979593 -0.558202 0.893634 -0.011257 -0.001660 147807.000000 0 0 1
-30.144491 19.016901 27.189942 44.828850 -0.562801 0.919110 -0.001672 -0.015501 613833.000000 0 0 1
-29.579991 20.173801 26.583712 44.594303 -0.598549 0.932132 -0.004520 -0.017288 294226.000000 0 0 1
-30.642821 21.143001 25.993272 45.405497 -0.603971 0.961282 -0.004715 -0.010601 173818.000000 0 0 1
-31.401951 21.845201 26.976922 46.808649 -0.607810 0.956574 0.005749 -0.012224 169099.000000 0 0 1
-32.342741 22.783301 26.527702 47.632454 -0.613695 0.980118 0.014791 -0.010650 -533370.000000 0 0 1
-31.866111 24.007001 25.714852 47.466185 -0.645655 0.998277 0.010665 -0.008305 -875598.000000 0 0 1
-32.925261 24.565801 25.014502 48.096535 -0.641006 1.023841 0.018142 -0.008651 -399463.000000 0 0 1
-32.980671 25.953101 25.069802 48.885407 -0.666713 1.032321 0.019749 -0.004145 -94080.600000 0 0 1
-33.983311 26.554701 24.063762 49.387065 -0.663299 1.061860 0.041169 -0.006055 -133036.000000 0 0 1
-33.735871 26.341701 22.665662 48.432700 -0.662937 1.083790 0.047405 -0.007002 194911.000000 0 0 1
-34.780340 26.924301 21.909662 49.138817 -0.658763 1.108647 0.060087 -0.013117 142475.000000 0 0 1
-34.373764 26.738601 20.442962 48.108452 -0.661106 1.131906 0.057034 -0.016088 232543.000000 0 0 1
-34.476679 25.452101 19.912862 47.254343 -0.635933 1.135811 0.056352 -0.019124 194804.000000 0 0 1
-33.815871 25.406301 18.648262 46.225003 -0.644341 1.155541 0.058328 -0.017412 -73749.000000 0 0 1
-33.980771 24.196601 17.724362 45.324621 -0.618779 1.169020 0.052622 -0.010894 585761.000000 0 0 1
-35.317603 24.024901 17.234062 46.060198 -0.597350 1.187301 0.056176 -0.020578 405457.000000 0 0 1
-35.442728 23.020401 16.219262 45.267983 -0.576031 1.204356 0.040782 -0.012687 408027.000000 0 0 1
34.308974 23.044101 15.643662 44.191181 0.591454 1.208952 0.033119 -0.007373 726739.000000 0 0 1
33.334194 22.249401 16.304862 43.267226 0.588555 1.184413 0.041210 -0.010088 808904.000000 0 0 1
32.217084 21.975801 15.432462 41.940878 0.598622 1.193985 0.045555 -0.007475 813811.000000 0 0 1
31.058864 21.065701 16.009262 40.800898 0.595980 1.167584 0.035646 -0.012261 1105540.000000 0 0 1
30.293144 21.599801 17.111962 40.951743 0.619415 1.139711 0.027374 -0.007300 518119.000000 0 0 1
29.312404 22.557601 16.699462 40.582440 0.655901 1.146703 0.026559 0.003550 485044.000000 0 0 1
28.420414 23.027001 17.905262 40.725436 0.680946 1.115579 0.027466 -0.001390 594847.000000 0 0 1
29.249234 23.783801 18.782862 42.118675 0.682704 1.108560 0.012090 -0.000463 -6633.100000 0 0 1
28.502264 24.462501 19.776362 42.448763 0.709273 1.086159 0.006292 -0.004179 -434562.000000 0 0 1
29.320084 25.174701 20.894762 43.932038 0.709475 1.075133 0.020882 -0.014036 849235.000000 0 0 1
30.186564 26.243201 20.381262 44.892428 0.715631 1.099544 0.036800 -0.018744 772213.000000 0 0 1
31.231374 26.528301 21.304262 46.184641 0.704153 1.091354 0.046214 -0.023207 -181178.000000 0 0 1
32.306174 27.428701 20.667062 47.150291 0.703927 1.117064 0.052632 -0.018075 322535.000000 0 0 1
33.331914 28.031601 21.473262 48.558090 0.699236 1.112726 0.060600 -0.014560 700336.000000 0 0 1
32.859504 29.049001 22.346162 49.223393 0.723925 1.099575 0.033923 -0.008115 -582382.000000 0 0 1
33.764704 29.275301 23.550362 50.514533 0.714303 1.085795 0.039159 -0.018412 -652468.000000 0 0 1
34.930784 29.996401 23.358962 51.629302 0.709545 1.101301 0.066889 -0.013201 -570678.000000 0 0 1
35.464021 30.328301 24.672372 52.784738 0.707497 1.084432 0.063230 -0.007164 381858.000000 0 0 1
-34.390227 31.105301 24.639642 52.510374 -0.735285 1.082373 0.062045 -0.011453 240868.000000 0 0 1
-33.254331 30.343401 24.304342 51.159296 -0.739659 1.075751 0.048407 -0.015101 -170922.000000 0 0 1
-32.094591 31.153901 24.365362 50.934263 -0.770526 1.072000 0.046086 -0.013898 248177.000000 0 0 1
-30.809011 30.336001 24.078042 49.489597 -0.777662 1.062686 0.040113 -0.014286 -203928.000000 0 0 1
-30.485621 29.990501 22.764362 48.446046 -0.777211 1.081629 0.017116 -0.007914 -54161.500000 0 0 1
-31.069311 28.842001 22.227462 47.866723 -0.748238 1.087883 0.023435 -0.002616 -211157.000000 0 0 1
-30.547571 27.497901 22.860562 47.030776 -0.732907 1.063202 0.013806 0.005079 -1392680.000000 0 0 1
-29.234691 27.171101 22.617262 45.874573 -0.748830 1.055234 -0.021973 0.000527 -860710.000000 0 0 1
-28.705531 26.069901 23.366162 45.272782 -0.737318 1.028482 -0.018623 0.004008 95667.200000 0 0 1
-28.320711 26.204901 24.858102 45.898635 -0.746614 0.998473 0.003456 0.002607 141098.000000 0 0 1
-29.425201 26.761501 25.590162 47.295632 -0.738026 0.999090 0.004655 -0.001317 318870.000000 0 0 1
-29.071321 27.226101 26.877212 48.049836 -0.752634 0.977181 0.024416 -0.013487 -220038.000000 0 0 1
-30.218651 27.923201 27.731902 49.617843 -0.745938 0.977726 0.032421 -0.013576 642938.000000 0 0 1
-31.071301 26.866801 28.213692 49.832350 -0.712956 0.968942 0.019707 -0.004687 481912.000000 0 0 1
-31.942991 27.366701 29.247652 51.231983 -0.708392 0.963211 0.026743 0.002540 338294.000000 0 0 1
-32.774261 26.248201 29.936862 51.568750 -0.675276 0.951425 0.012205 0.003360 233054.000000 0 0 1
-32.062461 25.315801 30.755042 51.134761 -0.668353 0.925481 0.009566 -0.006324 11155.300000 0 0 1
-32.916751 24.230601 31.138012 51.382977 -0.634557 0.919776 -0.008295 -0.006001 286736.000000 0 0 1
-32.336381 23.305201 32.249312 51.271747 -0.624491 0.890546 0.019562 -0.016139 -820714.000000 0 0 1
-31.263281 22.534601 31.806742 49.968688 -0.624550 0.880801 0.018233 -0.013528 -290443.000000 0 0 1
-30.666291 21.728301 32.824424 49.899732 -0.616435 0.852892 0.020873 -0.022429 125574.000000 0 0 1
-29.697191 22.448001 33.791978 50.276572 -0.647264 0.833726 0.029825 -0.025738 -749679.000000 0 0 1
-30.297231 23.307401 -34.022685 51.173238 -0.655734 2.298093 0.051878 -0.033803 148181.000000 0 0 1
-30.164921 22.816701 -32.698405 49.997100 -0.647584 2.283664 0.041352 -0.022966 -143918.000000 0 0 1
-28.731471 22.900501 -32.111915 48.796572 -0.672941 2.289059 0.046926 -0.023667 -6510.600000 0 0 1
-28.267951 24.219901 -31.981755 49.076606 -0.708427 2.280580 0.038914 -0.023850 -105706.000000 0 0 1
-27.298651 24.313001 -30.972775 47.912954 -0.727614 2.273703 0.059770 -0.017906 -377538.000000 0 0 1
-27.601431 25.516901 -30.055905 48.128044 -0.746175 2.245286 0.033907 -0.010445 -55712.300000 0 0 1
-27.322421 26.847601 -30.521095 48.978011 -0.776633 2.243572 0.032348 -0.011743 148548.000000 0 0 1
-28.298361 27.381401 -31.406255 50.367561 -0.768931 2.244061 0.039873 -0.007790 -392480.000000 0 0 1
-27.997691 28.779101 -31.960455 51.318399 -0.799160 2.243097 0.037229 -0.009110 -789639.000000 0 0 1
-28.101341 29.853601 -31.013295 51.407658 -0.815624 2.218406 0.039928 -0.012756 160098.000000 0 0 1
-28.117071 31.085701 -31.686895 52.544741 -0.835500 2.218110 0.035476 -0.018349 -106117.000000 0 0 1
-28.495881 32.277901 -30.726715 52.896211 -0.847549 2.190614 0.033857 -0.005805 12722.100000 0 0 1
-27.564311 32.435701 -29.682505 51.893324 -0.866410 2.179727 0.014854 0.002971 -28144.200000 0 0 1
-27.982941 33.414101 -28.737355 52.205198 -0.873628 2.153723 0.009849 0.012763 -550881.000000 0 0 1
-26.978131 33.793101 -27.640025 51.320212 -0.897073 2.139547 0.009755 0.008588 217254.000000 0 0 1
-25.775931 -34.422969 -28.033105 51.334145 0.928063 2.148487 -0.004660 -0.002911 493115.000000 0 0 1
-25.887821 -33.042769 -28.327945 50.640659 0.906220 2.164448 0.008869 0.011222 -498312.000000 0 0 1
-26.202941 -31.951269 -27.180355 49.459574 0.883924 2.152618 0.005306 0.011727 276022.000000 0 0 1
-27.613251 -31.852869 -27.053805 50.089972 0.856572 2.141357 0.001633 0.007761 53665.200000 0 0 1
-27.912901 -30.960369 -25.994675 49.126344 0.837115 2.128382 -0.003356 0.008390 61996.600000 0 0 1
-29.438391 -30.824569 -25.788255 49.817738 0.808396 2.114901 -0.013018 0.007236 5499.750000 0 0 1
-29.996871 -29.914269 -26.677195 50.063445 0.784019 2.132782 -0.012548 0.005676 -323283.000000 0 0 1
-31.394421 -29.856469 -26.554425 50.814918 0.760294 2.120661 -0.015662 0.003467 -601641.000000 0 0 1
-31.967931 -28.852869 -27.597675 51.147516 0.734226 2.140723 -0.010430 -0.006161 109186.000000 0 0 1
-33.387391 -28.897669 -27.542235 52.041982 0.713439 2.128490 -0.001020 -0.008929 -215710.000000 0 0 1
-33.934861 -28.292269 -28.624125 52.643782 0.694968 2.145674 -0.000751 -0.010497 -1364990.000000 0 0 1
-35.408635 -28.482569 -28.801095 53.800848 0.677416 2.135692 0.016807 -0.016589 -1284150.000000 0 0 1
35.017774 -27.893469 -27.805815 52.701551 -0.672635 2.126580 0.013120 -0.006843 -1314890.000000 0 0 1
33.681024 -27.953569 -28.175945 52.054753 -0.692738 2.142749 0.019219 -0.010261 -1078950.000000 0 0 1
32.777534 -27.468769 -27.055765 50.605479 -0.697507 2.134879 0.021334 -0.001737 -443430.000000 0 0 1
32.653964 -28.319069 -25.953895 50.416820 -0.714422 2.111555 0.030763 -0.006099 136017.000000 0 0 1
31.855404 -27.641469 -25.016985 49.037406 -0.714690 2.106169 0.026630 0.000422 -64891.200000 0 0 1
31.718224 -28.391069 -23.722085 48.732288 -0.730103 2.079200 0.031352 0.003206 17646.000000 0 0 1
31.003874 -29.609269 -23.821785 49.045148 -0.762394 2.077973 0.039170 -0.002670 211194.000000 0 0 1
30.576394 -30.280469 -22.621885 48.616586 -0.780536 2.054783 0.049566 0.001613 -636320.000000 0 0 1
31.541324 -30.325169 -21.433185 48.722197 -0.765743 2.026290 0.044035 0.008398 -510387.000000 0 0 1
32.570334 -31.292969 -21.840485 50.170543 -0.765399 2.021195 0.031564 0.003432 1139730.000000 0 0 1
33.683454 -31.352969 -20.948085 50.560914 -0.749580 1.997985 0.008561 0.009064 811162.000000 0 0 1
34.694274 -30.170769 -21.102285 50.589272 -0.715774 2.001081 -0.005238 0.013048 -500254.000000 0 0 1
34.110354 -28.943169 -20.641585 49.267620 -0.703632 2.003105 -0.003115 0.018666 35898.000000 0 0 1
34.780304 -27.760869 -21.094785 49.247593 -0.673629 2.013453 -0.002745 0.015910 -57344.100000 0 0 1
33.904624 -26.561969 -20.751285 47.808761 -0.664557 2.019777 -0.006352 0.020204 23690.700000 0 0 1
32.672184 -26.532769 -21.425485 47.228285 -0.682070 2.041662 0.014161 0.010124 469449.000000 0 0 1
31.813374 -25.469069 -20.915085 45.806168 -0.675093 2.044966 0.030147 0.015958 747493.000000 0 0 1
30.456334 -25.270469 -21.651385 45.110613 -0.692607 2.071408 0.025491 0.009898 403228.000000 0 0 1
29.640914 -26.431069 -21.547085 45.182542 -0.728215 2.067909 0.047081 0.007793 452047.000000 0 0 1
28.438864 -26.279569 -22.301185 44.684758 -0.745957 2.093331 0.045043 -0.001627 361722.000000 0 0 1
27.783944 -27.542569 -22.815285 45.288828 -0.781035 2.098757 0.037819 -0.002074 -124816.000000 0 0 1
27.254504 -28.321269 -21.734585 44.914302 -0.804591 2.075916 0.039554 0.003054 33530.200000 0 0 1
26.848984 -29.571669 -22.242585 45.717439 -0.833618 2.078902 0.035183 0.004049 -36321.100000 0 0 1
26.168654 -30.440169 -21.116085 45.357375 -0.860712 2.055051 0.042982 0.010954 95375.300000 0 0 1
27.039764 -30.813169 -20.072085 45.645250 -0.850530 2.026107 0.054253 0.005034 58869.100000 0 0 1
27.783374 -31.986069 -20.338385 46.996536 -0.855598 2.018352 0.062706 0.005907 -315159.000000 0 0 1
28.661884 -32.408769 -19.161585 47.318055 -0.846675 1.987724 0.049320 0.003890 -423355.000000 0 0 1
28.139874 -33.028569 -18.022185 46.984445 -0.865150 1.964464 0.042493 0.005227 -570661.000000 0 0 1
27.339844 -32.215769 -17.221485 45.627869 -0.867088 1.957820 0.023298 0.002831 -245210.000000 0 0 1
26.864834 -32.925869 -15.931185 45.383200 -0.886424 1.929475 0.022810 0.000914 -135543.000000 0 0 1
25.865724 -33.854069 -16.299585 45.615898 -0.918373 1.936196 0.033600 -0.002610 -298108.000000 0 0 1
25.330524 34.408201 -15.223285 45.357559 0.936201 1.913069 0.028909 0.003790 267895.000000 0 0 1
23.774924 -34.324769 -15.135885 44.413194 -0.965023 1.918561 0.012872 0.005222 570786.000000 0 0 1
23.267824 -33.065869 -14.764785 43.043493 -0.957604 1.920927 0.008718 0.005929 930104.000000 0 0 1
21.899724 -33.266769 -14.327585 42.326771 -0.988604 1.916118 0.015982 0.000285 1036780.000000 0 0 1
-0.615501 -6.929099 -28.781095 29.609841 1.482200 2.904441 0.029766 -0.009246 113867.000000 0 0 1
-0.341501 -8.318399 -28.814745 29.993365 1.529766 2.860324 0.028800 -0.002907 -47440.700000 0 0 1
-0.210501 -8.739199 -30.159485 31.400835 1.546714 2.859473 0.031797 -0.004078 -216992.000000 0 0 1
-0.044701 -10.263399 -30.235475 31.929975 1.566441 2.814345 0.037570 -0.006379 -430547.000000 0 0 1
0.968099 -10.785599 -29.438125 31.366695 -1.481278 2.789101 0.018224 -0.008735 -534758.000000 0 0 1
1.126599 -12.189999 -29.680755 32.106269 -1.478638 2.750396 0.021689 -0.007852 156432.000000 0 0 1
2.466499 -12.673199 -29.061405 31.800297 -1.378576 2.723518 0.018040 -0.002804 200830.000000 0 0 1
3.583799 -12.488199 -29.984585 32.678343 -1.291332 2.732715 0.013400 -0.005179 773842.000000 0 0 1
4.850999 -12.478099 -29.359465 32.267838 -1.200016 2.713762 0.034773 -0.015296 405142.000000 0 0 1
5.325799 -13.833199 -28.743475 32.340515 -1.203286 2.665464 0.041787 -0.026701 -1648190.000000 0 0 1
4.641999 -14.278299 -27.594565 31.414615 -1.256466 2.643298 0.036227 -0.016172 -491952.000000 0 0 1
5.339499 -15.221199 -26.842945 31.316751 -1.233415 2.600494 0.044076 -0.017831 -154517.000000 0 0 1
5.186999 -16.690799 -27.201935 32.333157 -1.269488 2.570483 0.027396 -0.015554 -294078.000000 0 0 1
5.547899 -16.972599 -28.548875 33.673232 -1.254871 2.582659 0.028220 -0.017879 206871.000000 0 0 1
5.132299 -18.309999 -28.807245 34.517444 -1.297509 2.558149 0.017539 -0.017704 -760391.000000 0 0 1
5.225799 -18.790599 -30.272565 36.011440 -1.299544 2.569255 0.012298 -0.017577 -805722.000000 0 0 1
6.538699 -18.886999 -30.726605 36.655117 -1.237510 2.564885 0.007380 -0.018616 -551852.000000 0 0 1
6.690699 -19.666599 -31.909165 38.075391 -1.242873 2.564500 0.001567 -0.019318 -251479.000000 0 0 1
8.086299 -19.549699 -32.515585 38.792296 -1.178597 2.564765 0.012173 -0.016326 -212246.000000 0 0 1
8.419899 -18.287199 -33.093215 38.735994 -1.139306 2.595051 0.019232 -0.014529 -570309.000000 0 0 1
9.659899 -18.146299 -33.701365 39.476371 -1.081617 2.593865 0.022793 -0.009724 -611320.000000 0 0 1
9.823299 -16.877799 34.243304 39.420314 -1.043699 0.518282 0.020061 -0.008137 -197544.000000 0 0 1
8.974499 -16.844599 33.131611 38.235923 -1.081268 0.522639 0.015766 -0.003773 -345999.000000 0 0 1
9.116099 -15.565799 32.486122 37.158384 -1.040996 0.506885 0.015026 -0.005087 -19902.000000 0 0 1
8.117999 -15.128699 31.389412 35.778131 -1.078302 0.500516 0.020805 -0.007042 -182128.000000 0 0 1
8.237499 -15.982999 30.257992 35.197425 -1.094912 0.536183 0.026673 -0.012496 -120403.000000 0 0 1
7.368999 -15.679999 29.214702 33.965620 -1.131467 0.535280 0.024872 -0.004536 -994110.000000 0 0 1
7.504999 -16.562499 27.948672 33.343210 -1.145341 0.576800 0.021554 -0.003759 -499713.000000 0 0 1
7.065499 -17.915399 28.105612 34.070636 -1.195143 0.600732 0.021582 -0.007323 250152.000000 0 0 1
7.298099 -18.734999 27.047562 33.702122 -1.199336 0.639243 0.010843 -0.007774 -187108.000000 0 0 1
7.005799 -20.147699 27.523562 34.821796 -1.236152 0.659315 0.014449 -0.013610 -381103.000000 0 0 1
7.703499 -20.491199 28.687042 36.085725 -1.211200 0.651839 0.021969 -0.005731 239550.000000 0 0 1
7.150699 -21.627299 29.352812 37.154544 -1.251478 0.659956 0.011866 -0.001134 -180681.000000 0 0 1
7.403299 -21.701999 30.882622 38.464554 -1.242041 0.638677 0.013973 -0.003567 -352609.000000 0 0 1
6.811799 -20.836599 31.823982 38.643632 -1.254833 0.603200 0.012167 -0.007814 39105.100000 0 0 1
7.076199 -19.422999 31.637482 37.792271 -1.221421 0.578760 0.006327 -0.002116 212451.000000 0 0 1
6.368999 -18.538999 32.763589 38.179987 -1.239883 0.539170 0.003612 -0.000580 -244718.000000 0 0 1
4.991799 -18.625199 32.958119 38.184470 -1.308937 0.529363 0.002372 -0.003404 -907322.000000 0 0 1
4.609099 -17.837599 34.056681 38.720553 -1.317935 0.495880 0.004953 -0.005033 658523.000000 0 0 1
3.124199 -18.033199 -34.287333 38.866156 -1.399252 2.651289 0.009888 -0.012508 574994.000000 0 0 1
2.962099 -19.121299 -33.385825 38.587711 -1.417107 2.616332 0.003870 -0.009499 195052.000000 0 0 1
2.060299 -18.881199 -32.295635 37.466686 -1.462107 2.609964 0.011699 -0.023551 134233.000000 0 0 1
1.808999 -20.168399 -31.535935 37.477353 -1.481341 2.570788 0.011357 -0.015343 -1413300.000000 0 0 1
0.913299 -21.018699 -32.206675 38.469335 -1.527372 2.562947 0.009808 -0.018148 -188790.000000 0 0 1
0.190299 -21.825799 -31.330475 38.183771 -1.562078 2.533113 0.011195 -0.019856 -64264.300000 0 0 1
-0.762701 -21.115899 -30.327165 36.962141 1.534692 2.533069 0.017870 -0.024731 -918160.000000 0 0 1
-1.828701 -20.451399 -31.009785 37.191540 1.481617 2.556727 0.026711 -0.041043 186952.000000 0 0 1
-2.557201 -19.546099 -30.211995 36.074283 1.440706 2.563477 0.040886 -0.020692 259741.000000 0 0 1
-1.976501 -18.088799 -30.385345 35.417233 1.461962 2.602014 0.018722 -0.005417 61922.600000 0 0 1
-2.798501 -17.087999 -29.859795 34.517223 1.408467 2.616085 0.026896 -0.005845 -563200.000000 0 0 1
-2.356801 -15.804199 -30.222325 34.186491 1.422762 2.655239 0.035331 -0.011950 73100.400000 0 0 1
-3.150501 -14.574299 -29.683505 33.218163 1.357904 2.676082 0.027238 0.008416 82929.700000 0 0 1
-3.077401 -14.434199 -28.269955 31.890545 1.360739 2.660453 0.018558 0.000341 -16972.900000 0 0 1
-3.825301 -13.308599 -27.875325 31.125319 1.290910 2.680538 0.010547 -0.003486 -67230.300000 0 0 1
-4.084901 -13.154499 -26.368555 29.749420 1.269705 2.660209 0.004336 -0.001190 -560083.000000 0 0 1
-4.604401 -14.246399 -25.636905 29.688572 1.258196 2.613020 -0.001440 0.004249 223114.000000 0 0 1
-4.594001 -14.064199 -24.227385 28.387898 1.255077 2.593348 -0.005242 0.006862 -113890.000000 0 0 1
-5.472201 -12.911699 -23.600185 27.452244 1.169928 2.605442 0.017122 -0.001371 648914.000000 0 0 1
-6.851501 -13.071099 -23.990785 28.166549 1.087999 2.590108 0.016849 -0.002557 633321.000000 0 0 1
-7.572301 -12.071199 -23.268385 27.285002 1.010543 2.592101 0.000679 0.000393 -100404.000000 0 0 1
-9.077301 -11.996499 -23.565085 27.957586 0.923045 2.573422 0.039487 -0.005776 224732.000000 0 0 1
-10.023901 -12.956699 -23.115085 28.331287 0.912333 2.525055 0.036554 -0.005879 219148.000000 0 0 1
-9.919301 -14.250899 -23.736685 29.409367 0.962728 2.510042 0.044115 -0.012764 336052.000000 0 0 1
-11.022101 -15.288899 -23.236185 29.919182 0.946166 2.460097 0.043642 -0.023891 733077.000000 0 0 1
-10.472701 -16.473799 -22.621885 29.879980 1.004526 2.429646 0.039284 -0.017964 205554.000000 0 0 1
-11.431301 -17.499399 -22.325785 30.583399 0.992147 2.389114 0.049203 -0.018528 507447.000000 0 0 1
-12.077601 -18.313099 -23.518385 32.161351 0.987767 2.390967 0.031118 -0.010415 166169.000000 0 0 1
-13.152001 -17.621899 -24.104485 32.627177 0.929639 2.402063 0.040672 -0.005593 -332737.000000 0 0 1
-13.853601 -18.427499 -25.045585 34.040804 0.926151 2.397573 0.027123 -0.010851 -4008.450000 0 0 1
-15.101601 -17.643399 -25.445375 34.450181 0.862867 2.401808 0.043646 -0.015298 64715.800000 0 0 1
-16.256001 -17.503799 -24.614085 34.300055 0.822342 2.371162 0.044535 -0.007256 896238.000000 0 0 1
-17.341901 -17.053999 -25.441875 35.197577 0.777028 2.378686 0.032499 -0.008985 494024.000000 0 0 1
-18.030101 -15.751199 -24.985985 34.604686 0.718040 2.377543 0.047252 -0.010386 -160403.000000 0 0 1
-18.773201 -15.859799 -23.793385 34.206600 0.701474 2.340022 0.030368 -0.001689 198143.000000 0 0 1
-19.479001 -14.677799 -23.461585 33.842507 0.645750 2.336796 0.043982 -0.005454 307006.000000 0 0 1
-20.214901 -14.694999 -22.094885 33.358195 0.628578 2.294751 0.024622 -0.009341 710036.000000 0 0 1
-19.250501 -14.591599 -21.017985 32.019561 0.648592 2.286848 0.034153 -0.002424 949767.000000 0 0 1
-19.821301 -14.786899 -19.729385 31.635186 0.640943 2.244204 0.011839 -0.009378 39792.900000 0 0 1
-20.473401 -13.554799 -19.047285 31.075582 0.584813 2.230565 0.011152 -0.007743 50764.100000 0 0 1
-21.683001 -13.022799 -19.543285 31.963821 0.540860 2.228649 0.021427 -0.008887 79196.700000 0 0 1
-22.208601 -12.072799 -18.668185 31.424124 0.497923 2.206908 0.020166 0.001964 39926.400000 0 0 1
-23.593401 -11.550199 -19.111785 32.485628 0.455254 2.199770 0.030472 0.000928 -106101.000000 0 0 1
-23.645701 -10.760499 -20.306185 32.973454 0.427064 2.234241 0.021129 -0.001227 956536.000000 0 0 1
-25.045601 -10.725799 -20.655185 34.190080 0.404621 2.219468 0.020275 -0.003520 896978.000000 0 0 1
-25.325161 -9.688899 -21.771685 34.774198 0.365400 2.247322 0.022597 -0.001549 -133994.000000 0 0 1
-25.380551 -10.259499 -23.104085 35.822178 0.384145 2.271775 0.012362 -0.002967 432846.000000 0 0 1
-25.890451 -9.360299 -24.104785 36.591957 0.346914 2.289946 0.016618 -0.007661 -33418.000000 0 0 1
-26.105181 -9.908199 -25.494185 37.810136 0.362753 2.310770 0.014958 0.003460 -52210.800000 0 0 1
-24.892701 -9.855199 -26.204975 37.462945 0.376973 2.345481 0.012240 -0.007844 -135223.000000 0 0 1
-24.224901 -11.105899 -26.251515 37.407604 0.429858 2.348675 0.015080 0.005070 -306955.000000 0 0 1
-23.158101 -10.979199 -27.355315 37.485380 0.442712 2.388767 0.023386 -0.004495 -168003.000000 0 0 1
-23.623001 -11.223899 -28.672135 38.808677 0.443551 2.402095 0.031037 0.000953 271947.000000 0 0 1
-22.603701 -10.972299 -29.632055 38.850706 0.451916 2.438299 0.039138 -0.002218 341273.000000 0 0 1
-23.126601 -11.286299 -31.052425 40.329559 0.454020 2.449586 0.041086 -0.003481 649084.000000 0 0 1
-24.059301 -10.304099 -31.551295 40.994007 0.404645 2.449099 0.038584 -0.005469 606326.000000 0 0 1
-23.397201 -9.243899 -32.223315 40.880567 0.376263 2.478725 0.034961 -0.003550 -52032.400000 0 0 1
-24.401301 -8.180999 -32.830375 41.715534 0.323492 2.476737 0.041867 0.000680 -10386.500000 0 0 1
-25.285141 -8.670199 -33.851695 43.132911 0.330333 2.473207 0.052668 0.001559 1550870.000000 0 0 1
-26.466291 -9.368399 -33.407865 43.638480 0.340211 2.442707 0.044994 -0.007990 400451.000000 0 0 1
-27.527031 -8.513799 -32.680935 43.569091 0.299957 2.419001 0.025563 -0.005085 364668.000000 0 0 1
-28.904511 -8.956699 -32.708265 44.559217 0.300489 2.395049 0.018106 -0.005574 875623.000000 0 0 1
-29.688901 -8.391999 -31.727575 44.254893 0.275478 2.370182 0.024717 -0.005677 887901.000000 0 0 1
-31.191421 -8.888899 -31.778015 45.406602 0.277620 2.345990 0.028442 -0.012026 965673.000000 0 0 1
-31.263611 -10.235099 -31.482945 45.534014 0.316384 2.334243 0.025834 -0.013815 320125.000000 0 0 1
-32.555481 -10.824699 -31.500105 46.575638 0.321000 2.313554 0.021836 -0.014690 -29381.300000 0 0 1
-32.577201 -12.330099 -31.615775 47.041074 0.361826 2.307822 0.015040 -0.018811 -691954.000000 0 0 1
-33.856961 -12.877099 -31.853255 48.236328 0.363443 2.292092 0.016063 -0.017271 -16183.500000 0 0 1
-33.801661 -14.293499 -31.941985 48.653333 0.400060 2.286995 0.015497 -0.014878 -130317.000000 0 0 1
-35.080823 -15.030999 -31.526435 49.502639 0.404804 2.261220 0.007468 -0.019605 -283835.000000 0 0 1
-35.196807 -14.939799 -30.144935 48.690142 0.401417 2.238415 0.017979 -0.022256 -133865.000000 0 0 1
35.429517 -16.020499 -29.481505 48.796170 -0.424665 2.219528 0.012662 -0.022082 -338729.000000 0 0 1
35.443054 -15.912899 -27.929695 47.848703 -0.421998 2.194085 0.035970 -0.022369 175863.000000 0 0 1
-34.457701 -16.184699 -27.412335 46.911766 0.439113 2.194861 0.028898 -0.028746 156373.000000 0 0 1
-34.271701 -15.952699 -26.019175 45.891563 0.435650 2.173620 0.045272 -0.027337 385798.000000 0 0 1
-32.865961 -15.409599 -25.589845 44.412468 0.438428 2.184851 0.033951 -0.023909 588378.000000 0 0 1
-31.858431 -16.393899 -25.723365 44.106814 0.475248 2.193466 0.033563 -0.021054 -622440.000000 0 0 1
-30.626531 -15.919099 -25.273535 42.780296 0.479347 2.202816 0.036771 -0.010009 -373670.000000 0 0 1
-29.476021 -16.862399 -25.670535 42.569387 0.519631 2.218088 0.021337 -0.010135 -771449.000000 0 0 1
-29.338831 -18.047899 -24.905585 42.506256 0.551488 2.196820 0.021790 -0.017434 -435233.000000 0 0 1
-30.327661 -19.045899 -24.986985 43.667639 0.560757 2.179992 0.025488 -0.015634 -404318.000000 0 0 1
-30.020111 -20.207399 -24.062785 43.457608 0.592463 2.157606 0.023740 -0.010426 460889.000000 0 0 1
-28.799071 -20.937499 -24.253185 43.081114 0.628631 2.168766 0.028941 -0.003248 407382.000000 0 0 1
-28.774221 -22.113699 -23.504785 43.237095 0.655252 2.145547 0.024049 0.000408 72450.000000 0 0 1
-27.406731 -22.888399 -23.516285 42.755390 0.695802 2.153184 0.019035 -0.000490 1159380.000000 0 0 1
-26.286071 -22.205299 -22.931685 41.350877 0.701441 2.158635 0.012939 -0.001712 265844.000000 0 0 1
-26.254041 -21.953899 -21.554985 40.445837 0.696434 2.132861 0.028630 -0.015634 -638843.000000 0 0 1
-26.422461 -23.113999 -20.536485 40.671251 0.718709 2.100107 0.033480 -0.006197 -144712.000000 0 0 1
-26.228061 -22.722799 -19.205685 39.662263 0.713912 2.076280 0.037489 -0.015903 220778.000000 0 0 1
-26.343231 -23.837499 -18.284785 39.956546 0.735505 2.046109 0.035428 0.015780 -111004.000000 0 0 1
-26.333401 -23.431399 -16.821385 39.056849 0.727150 2.016053 0.034112 0.007658 -830921.000000 0 0 1
-27.475481 -22.733299 -16.488085 39.288190 0.691228 2.003878 0.034554 -0.002659 -659860.000000 0 0 1
-27.244501 -21.641499 -15.609785 38.135059 0.671282 1.992515 0.032678 -0.008119 93547.400000 0 0 1
-28.571501 -21.163699 -14.982285 38.583697 0.637540 1.969589 0.020476 -0.006926 131657.000000 0 0 1
-29.440341 -20.489499 -15.846785 39.213185 0.608014 1.986812 0.022726 -0.007862 -733840.000000 0 0 1
-30.671721 -20.275599 -15.252485 39.805687 0.584105 1.964026 0.037823 -0.002586 -269725.000000 0 0 1
-31.782531 -19.568999 -16.096185 40.646798 0.551895 1.977954 0.029192 -0.007448 94745.900000 0 0 1
-32.511781 -20.500199 -16.862585 41.971667 0.562578 1.984236 0.018689 0.003456 -248688.000000 0 0 1
-33.086221 -19.883599 -17.998585 42.591133 0.541127 2.007097 0.022116 -0.000105 150866.000000 0 0 1
-34.050141 -20.802099 -18.866685 44.137187 0.548414 2.012473 0.003186 0.011230 281021.000000 0 0 1
-35.257240 -21.211799 -18.306985 45.035087 0.541617 1.989422 -0.012625 0.024114 -314655.000000 0 0 1
-35.108686 -22.102899 -17.238085 44.925600 0.561869 1.964599 0.010471 0.017024 -929256.000000 0 0 1
35.231303 -23.377299 -17.338685 45.698718 -0.585833 1.959958 -0.000656 0.032277 96222.400000 0 0 1
33.847544 -23.068599 -17.214485 44.431464 -0.598232 1.968648 0.006200 0.020351 425220.000000 0 0 1
33.103904 -24.298599 -17.153185 44.503058 -0.633189 1.966479 -0.000422 0.017114 572744.000000 0 0 1
31.614494 -24.157099 -16.707285 43.152927 -0.652473 1.968351 0.000616 0.010768 128226.000000 0 0 1
30.814294 -23.734799 -17.757085 42.757169 -0.656337 1.999070 -0.002699 0.004142 -217055.000000 0 0 1
29.461614 -23.961599 -17.389585 41.767722 -0.682808 2.000213 0.019530 -0.001638 528342.000000 0 0 1
28.424774 -23.384599 -18.404585 41.152594 -0.688420 2.034460 0.034309 0.017195 237148.000000 0 0 1
28.011364 -22.040599 -18.170185 40.007252 -0.666668 2.042239 0.042360 0.005128 -546753.000000 0 0 1
26.867964 -21.705699 -18.854085 39.351003 -0.679519 2.070455 0.020364 -0.018005 -801030.000000 0 0 1
33.760614 29.310001 -18.025285 48.205457 0.714949 1.954035 0.036305 -0.002798 -151658.000000 0 0 1
32.955754 29.241601 -19.202385 48.061258 0.725753 1.981811 0.033410 -0.016567 343761.000000 0 0 1
33.761724 29.385401 -20.342285 49.164666 0.716205 1.997375 0.044482 -0.011944 -132602.000000 0 0 1
32.907804 29.710201 -21.556985 49.298309 0.734377 2.023364 0.044568 -0.004985 21288.300000 0 0 1
32.001744 28.628101 -21.889885 48.195922 0.729812 2.042254 0.045624 -0.015414 969245.000000 0 0 1
31.204134 28.837701 -23.061185 48.343865 0.746005 2.068062 0.054668 -0.011765 761032.000000 0 0 1
29.928244 29.753301 -22.967685 48.046574 0.782467 2.069206 0.048979 -0.007479 131338.000000 0 0 1
30.207524 31.149001 -22.934385 49.078924 0.800741 2.057026 0.059531 -0.009953 -194194.000000 0 0 1
29.048044 31.903201 -22.711685 48.758832 0.832207 2.055331 0.056218 0.001931 -631265.000000 0 0 1
29.255224 33.424801 -22.590785 49.834015 0.851822 2.041284 0.060090 -0.000232 73278.000000 0 0 1
29.877924 33.857701 -21.383185 49.962735 0.847759 2.013056 0.057970 0.002395 1300490.000000 0 0 1
31.325434 33.875201 -21.421185 50.869237 0.824485 2.005457 0.050004 -0.000611 888837.000000 0 0 1
31.893444 33.755601 -19.964785 50.549234 0.813756 1.976818 0.045135 -0.003070 -317950.000000 0 0 1
31.828164 -34.054069 -19.076785 50.365022 -0.819171 1.959264 0.047300 -0.000423 242263.000000 0 0 1
32.151514 -34.415769 -17.719085 50.320285 -0.819400 1.930638 0.019742 -0.010491 -164753.000000 0 0 1
31.878834 -33.159269 -16.848785 48.986516 -0.805083 1.921914 0.023357 -0.011113 145979.000000 0 0 1
32.810794 -32.109269 -17.016185 48.960228 -0.774593 1.925755 0.022420 0.004090 -85732.500000 0 0 1
33.950254 -32.191669 -16.178685 49.504275 -0.758816 1.903727 0.014518 0.000653 42318.000000 0 0 1
35.024044 -31.194869 -16.652985 49.770729 -0.727636 1.911971 0.014613 0.000309 301311.000000 0 0 1
-35.161614 -31.709569 -17.520185 50.485570 0.733822 1.925203 0.004843 -0.003997 356952.000000 0 0 1
-34.008791 -30.887169 -17.647985 49.214495 0.737333 1.937557 -0.000236 0.002072 993041.000000 0 0 1
-32.953211 -31.519269 -18.644485 49.264544 0.763161 1.958924 -0.005955 -0.007749 -190552.000000 0 0 1
-32.519781 -32.851469 -18.190685 49.675509 0.790472 1.945708 0.007575 -0.013836 298228.000000 0 0 1
-31.700181 -33.674869 -19.001585 49.999585 0.815595 1.960630 0.014383 -0.003923 154687.000000 0 0 1
-30.296291 -33.093369 -19.309285 48.845520 0.829495 1.977205 -0.002707 -0.008093 -999816.000000 0 0 1
-30.463771 -32.068669 -20.309885 48.671679 0.811058 2.001250 -0.011640 -0.000264 156768.000000 0 0 1
-29.275721 -31.478569 -20.821485 47.765075 0.821641 2.021850 -0.001406 0.000786 672269.000000 0 0 1
-28.269111 -32.435969 -21.564485 48.127557 0.853932 2.035401 -0.003332 0.011130 249800.000000 0 0 1
-28.982881 -32.986569 -22.649285 49.407603 0.849916 2.047010 -0.007829 0.016213 238567.000000 0 0 1
-28.151301 -33.863969 -23.378185 49.857835 0.877256 2.058838 -0.008349 0.010139 271211.000000 0 0 1
-28.904631 34.345401 -24.577585 51.177553 -0.871207 2.071726 -0.013456 0.008083 -625682.000000 0 0 1
-29.825091 33.370601 -24.180885 50.870898 -0.841443 2.066145 -0.012264 0.002981 -290880.000000 0 0 1
-30.297291 32.677501 -25.337905 51.261626 -0.823176 2.087810 -0.008591 0.006472 719245.000000 0 0 1
-31.288931 33.390901 -26.341765 52.799981 -0.817885 2.093122 -0.004217 0.000568 -181242.000000 0 0 1
-30.625801 34.312001 -27.178375 53.422066 -0.842102 2.104526 -0.001884 -0.005114 232662.000000 0 0 1
-31.544861 -33.741969 -27.928675 53.977863 0.819039 2.114618 -0.011404 -0.002980 674370.000000 0 0 1
-30.843851 -33.055869 -29.142125 53.789377 0.820001 2.143352 -0.010081 -0.004648 43660.000000 0 0 1
-30.670711 -33.759769 -30.405495 54.817047 0.833306 2.158765 -0.004235 -0.000927 175385.000000 0 0 1
-31.899221 -33.945169 -31.091815 56.004784 0.816461 2.159356 0.010719 -0.005421 82237.600000 0 0 1
-31.771381 34.067801 -32.328215 56.702286 -0.820263 2.177472 0.024289 -0.010702 317681.000000 0 0 1
-31.052901 -34.137869 -33.372155 56.950659 0.832685 2.196890 0.024193 -0.028424 184881.000000 0 0 1
-31.230591 33.950901 34.251908 57.456128 -0.827108 0.932111 0.018842 -0.034070 -759611.000000 0 0 1
-30.339831 -34.295369 33.154705 56.532399 0.846520 0.944099 0.021672 -0.033820 -136027.000000 0 0 1
-29.013621 34.133301 33.231395 55.778114 -0.866297 0.932562 0.031190 -0.032978 -471339.000000 0 0 1
-28.829751 32.802401 32.727810 54.573451 -0.849767 0.927668 0.041273 -0.037299 -1358010.000000 0 0 1
-27.406541 32.295901 32.893768 53.629690 -0.867111 0.910501 0.033222 -0.035188 -559657.000000 0 0 1
-26.888871 32.179001 34.228689 54.130422 -0.874720 0.886230 0.039258 -0.034959 449133.000000 0 0 1
-25.571131 31.713701 -34.303122 53.257354 -0.892219 2.270644 0.037715 -0.030486 -53974.800000 0 0 1
-25.139991 30.275701 34.212016 52.144983 -0.877810 0.855165 0.055265 -0.026858 -704232.000000 0 0 1
-25.612251 29.317701 -33.749945 51.522556 -0.852754 2.285048 0.055687 -0.019462 -204089.000000 0 0 1
-25.207181 27.990801 -34.120777 50.824348 -0.837676 2.306821 0.051434 -0.018623 -626369.000000 0 0 1
-25.078091 26.952301 -32.997035 49.438259 -0.821404 2.301561 0.057248 -0.028056 -250772.000000 0 0 1
-24.049001 27.050801 -31.974885 48.295896 -0.844075 2.294363 0.046751 -0.017252 607293.000000 0 0 1
-23.962901 28.309001 -31.289445 48.524731 -0.868351 2.271577 0.031926 -0.007175 264472.000000 0 0 1
-22.792701 28.380901 -30.238795 47.321956 -0.894168 2.263996 0.041563 -0.001125 746912.000000 0 0 1
-21.508901 28.508701 -30.828615 47.178198 -0.924442 2.282930 0.027193 -0.000262 1054190.000000 0 0 1
-20.362701 28.557301 -29.936025 46.112088 -0.951367 2.277330 0.016481 -0.002925 1104450.000000 0 0 1
-20.138501 29.909201 -29.180185 46.385372 -0.978201 2.251168 0.007473 -0.001653 -777962.000000 0 0 1
-19.640101 31.017801 -29.910825 47.354989 -1.006331 2.254450 0.005956 0.004159 180420.000000 0 0 1
-19.405001 32.205201 -29.156165 47.579523 -1.028509 2.230380 0.001377 0.003703 -191153.000000 0 0 1
-18.952201 33.410101 -30.017325 48.748954 -1.054799 2.234138 0.000483 0.013402 309584.000000 0 0 1
-17.665901 33.237401 -30.609325 48.515355 -1.082262 2.253535 0.008185 0.012806 193930.000000 0 0 1
-17.387801 34.358501 -31.476955 49.735711 -1.102305 2.256069 0.011953 0.009149 292062.000000 0 0 1
-15.906701 34.306701 -31.960305 49.511958 -1.136640 2.272483 0.012046 0.010285 206382.000000 0 0 1
-15.039901 -34.151369 -30.912335 48.457065 1.155963 2.262607 0.016896 0.007050 508670.000000 0 0 1
-13.631801 -34.252869 -31.122205 48.246002 1.192036 2.271915 0.024413 0.018240 1086940.000000 0 0 1
-13.037601 33.170301 -31.158485 47.340248 -1.196295 2.289197 0.026483 0.008713 -501186.000000 0 0 1
-13.181201 32.565201 -29.892145 46.127830 -1.186190 2.275789 0.036926 -0.006471 151675.000000 0 0 1
-12.699901 31.202901 -29.980305 45.096865 -1.184261 2.298020 0.031471 -0.012822 17111.300000 0 0 1
-12.682001 30.567201 -28.557465 43.711734 -1.177521 2.282749 0.029968 -0.026393 -45718.400000 0 0 1
-11.514901 30.872101 -27.815685 43.120667 -1.213791 2.271906 0.032481 -0.018673 -26738.000000 0 0 1
-11.500001 30.220801 -26.547935 41.837061 -1.207184 2.258230 0.035187 -0.037871 -438008.000000 0 0 1
-10.248901 30.564901 -25.742335 41.254345 -1.247262 2.244636 0.041511 -0.033768 -629878.000000 0 0 1
-9.088201 29.962301 -26.214455 40.835432 -1.276295 2.267840 0.042018 -0.027598 -655604.000000 0 0 1
-7.992401 30.467501 -25.485995 40.517688 -1.314251 2.251074 0.042765 -0.029322 273515.000000 0 0 1
-6.585101 30.011901 -25.976925 40.235288 -1.354803 2.272638 0.040132 -0.030597 216263.000000 0 0 1
-6.324501 28.721901 -25.496595 38.923300 -1.354057 2.285041 0.037529 -0.034719 116341.000000 0 0 1
-4.975601 28.329001 -25.687865 38.563653 -1.396933 2.299785 0.050678 -0.038815 178505.000000 0 0 1
-4.619601 27.040901 -24.864785 37.024432 -1.401592 2.307132 0.044387 -0.025902 8064.760000 0 0 1
-5.435601 25.879501 -24.986185 36.381366 -1.363771 2.327853 0.056057 -0.026039 13255.800000 0 0 1
-4.713401 24.791001 -24.474485 35.154094 -1.382913 2.340895 0.056798 -0.020677 -118051.000000 0 0 1
-5.545301 23.500701 -24.431485 34.350120 -1.339072 2.362070 0.061097 -0.018784 -123008.000000 0 0 1
-5.720001 23.001401 -25.772335 35.014227 -1.327060 2.398018 0.052333 -0.020538 548755.000000 0 0 1
-6.612701 21.871601 -25.717555 34.401851 -1.277192 2.415182 0.048328 -0.024044 241444.000000 0 0 1
-6.629601 20.897901 -26.987185 34.770419 -1.263601 2.459339 0.041133 -0.019301 -434881.000000 0 0 1
-5.460001 20.178601 -27.206215 34.309848 -1.306541 2.486442 0.050559 -0.022643 -737194.000000 0 0 1
-5.430901 19.013901 -26.474185 33.043995 -1.292577 2.500061 0.046222 -0.020522 730549.000000 0 0 1
-4.102501 18.148101 -26.577525 32.443010 -1.348476 2.530822 0.039585 -0.028180 999148.000000 0 0 1
-3.953301 17.678901 -27.914725 33.277680 -1.350799 2.565949 0.039274 -0.028698 -503221.000000 0 0 1
-2.890101 16.780901 -27.823375 32.620416 -1.400244 2.592395 0.038279 -0.028307 -529009.000000 0 0 1
-2.522901 16.352401 -29.283935 33.635025 -1.417720 2.627294 0.043800 -0.019809 -105198.000000 0 0 1
-1.899401 17.390901 -29.987975 34.717860 -1.462009 2.613485 0.048121 -0.026384 -28430.000000 0 0 1
-1.677201 17.064401 -31.341895 35.725637 -1.472824 2.640992 0.044594 -0.029015 -92243.200000 0 0 1
-1.076901 18.263501 -32.100375 36.947926 -1.511900 2.623571 0.057420 -0.012466 312524.000000 0 0 1
0.292099 18.436901 -31.758565 36.723441 1.554954 2.615555 0.055282 -0.021157 217932.000000 0 0 1
1.008699 19.521101 -32.316105 37.767996 1.519170 2.597598 0.057014 -0.010567 338717.000000 0 0 1
0.789099 20.900601 -31.701945 37.979878 1.533059 2.558391 0.067080 -0.014274 28091.400000 0 0 1
1.274199 21.023201 -30.361975 36.951970 1.510261 2.535115 0.066193 -0.028367 -246816.000000 0 0 1
1.006699 22.305501 -29.814545 37.248569 1.525695 2.498794 0.074426 -0.031078 343833.000000 0 0 1
1.994899 22.733701 -28.674015 36.646963 1.483270 2.469369 0.072112 -0.031435 678453.000000 0 0 1
3.359199 22.765701 -29.071525 37.077148 1.424298 2.472012 0.055976 -0.029786 23686.600000 0 0 1
4.316399 22.975901 -28.072005 36.531641 1.385094 2.447180 0.043095 -0.029125 26208.400000 0 0 1
4.563099 24.440501 -27.737985 37.249910 1.386219 2.410800 0.040838 -0.027572 -672788.000000 0 0 1
5.421399 25.039201 -28.680265 38.456609 1.357571 2.412505 0.036979 -0.030743 136924.000000 0 0 1
5.824999 26.326901 -28.278365 39.073037 1.353048 2.379990 0.031201 -0.030377 -66420.900000 0 0 1
6.628999 27.060501 -29.394845 40.500262 1.330558 2.382984 0.036046 -0.026654 -417127.000000 0 0 1
7.982999 26.709601 -29.432795 40.539123 1.280366 2.383334 0.014437 -0.015746 -600566.000000 0 0 1
8.714099 27.470301 -30.341235 41.846667 1.263618 2.381914 0.013806 -0.014763 344682.000000 0 0 1
10.150199 27.744001 -29.798885 41.961050 1.220070 2.360516 0.005689 -0.014075 375350.000000 0 0 1
10.897199 28.635701 -30.603525 43.305058 1.207172 2.355614 0.002564 -0.008829 -354133.000000 0 0 1
12.173599 28.922701 -30.105295 43.486181 1.172403 2.335462 0.011858 -0.014738 -238768.000000 0 0 1
13.014999 29.883301 -30.975715 44.965507 1.160043 2.330735 0.017802 -0.011334 -290643.000000 0 0 1
12.438799 31.141301 -31.232075 45.825177 1.190781 2.320673 0.004631 -0.011072 211130.000000 0 0 1
13.305699 31.960301 -32.001895 47.144711 1.176301 2.316925 0.023591 -0.014786 -273022.000000 0 0 1
12.821599 33.415901 -31.979425 47.996869 1.204422 2.300007 0.025966 -0.021794 -262724.000000 0 0 1
11.730799 33.611001 -32.820875 48.420253 1.234998 2.315608 0.011403 -0.014993 -257622.000000 0 0 1
10.994399 -34.094869 -32.518615 48.381786 -1.258859 2.307872 0.017265 -0.017276 -482434.000000 0 0 1
9.826099 -33.861069 -33.470965 48.615119 -1.288365 2.330200 0.000372 -0.011753 -735771.000000 0 0 1
10.079199 -33.013469 34.216484 48.602955 -1.274479 0.789782 -0.001725 0.001475 472615.000000 0 0 1
8.966199 -33.013269 33.314731 47.750811 -1.305600 0.798644 0.002346 0.002009 311289.000000 0 0 1
9.179199 -32.097769 32.086482 46.304069 -1.292255 0.805221 0.008402 -0.002878 -174617.000000 0 0 1
9.031599 -30.754269 32.405662 45.579840 -1.285157 0.779927 -0.003804 -0.005814 43793.200000 0 0 1
9.323899 -30.010169 31.196422 44.280494 -1.269560 0.789052 0.012649 -0.007888 -753399.000000 0 0 1
8.856699 -28.553669 31.438622 43.383639 -1.270029 0.760248 0.005292 -0.015858 -811528.000000 0 0 1
7.507199 -28.243569 31.339882 42.851435 -1.311001 0.750480 -0.000579 -0.013163 -1012910.000000 0 0 1
6.848199 -28.639469 32.516792 43.868654 -1.336086 0.735894 -0.000475 -0.004902 -920720.000000 0 0 1
5.340999 -28.865169 32.276742 43.629260 -1.387833 0.738030 0.006683 -0.000518 -251344.000000 0 0 1
4.908599 -30.011069 31.526452 43.802692 -1.408672 0.767372 0.020496 -0.005332 134852.000000 0 0 1
5.368399 -30.232369 30.174652 43.050267 -1.395057 0.794114 0.007102 -0.008245 -204942.000000 0 0 1
4.606799 -29.266169 29.197662 41.596090 -1.414667 0.792689 0.021997 -0.011423 -7458.540000 0 0 1
3.243599 -29.597869 29.073102 41.614902 -1.461643 0.797326 0.026493 -0.010864 33456.900000 0 0 1
2.698999 -28.769769 28.003722 40.239193 -1.477256 0.801080 0.023694 -0.014699 1055320.000000 0 0 1
1.181199 -29.102369 27.686482 40.185625 -1.530231 0.810736 0.022567 -0.013788 1108170.000000 0 0 1
0.919699 -30.387769 27.050662 40.693988 -1.540540 0.843659 0.028409 -0.019421 54919.700000 0 0 1
0.845399 -31.476869 27.913772 42.079528 -1.543945 0.845500 0.042726 -0.025000 -475435.000000 0 0 1
1.022699 -32.886669 27.231522 42.709890 -1.539709 0.879427 0.040445 -0.032071 472225.000000 0 0 1
2.345799 -33.309769 26.929262 42.897886 -1.500489 0.892134 0.036916 -0.030359 477819.000000 0 0 1
2.985199 -32.729369 25.770442 41.764084 -1.479839 0.905811 0.027877 -0.028933 446840.000000 0 0 1
4.534299 -32.836669 25.788022 41.997962 -1.433578 0.909640 0.039280 -0.020366 542011.000000 0 0 1
5.197999 -32.115569 24.743752 40.873980 -1.410335 0.920570 0.043835 -0.024611 688510.000000 0 0 1
6.616299 -32.116669 24.863812 41.151732 -1.367630 0.922037 0.045758 -0.023836 149281.000000 0 0 1
7.371899 -31.784769 23.567362 40.249683 -1.342894 0.945264 0.038407 -0.013204 422267.000000 0 0 1
8.692299 -31.342569 23.892572 40.357994 -1.300263 0.937239 0.022432 -0.005691 431115.000000 0 0 1
9.411299 -30.884769 22.769162 39.507927 -1.275012 0.956579 0.031511 0.001390 546681.000000 0 0 1
10.696799 -30.040269 23.001762 39.318194 -1.228714 0.945897 0.017905 0.003738 624907.000000 0 0 1
11.802199 -30.713369 23.574862 40.476871 -1.203924 0.949084 0.020902 -0.008038 -183656.000000 0 0 1
12.941399 -29.908869 23.444862 40.145757 -1.162427 0.947157 0.027480 -0.005266 340373.000000 0 0 1
14.129099 -30.272569 24.381512 41.358409 -1.134118 0.940335 0.039794 -0.006937 322294.000000 0 0 1
13.694299 -29.900569 25.704262 41.740711 -1.141314 0.907385 0.023155 -0.006708 214044.000000 0 0 1
14.761999 -29.719569 26.587122 42.521106 -1.109784 0.895320 0.024011 -0.008059 -585488.000000 0 0 1
-10.982701 -13.982499 26.154522 31.625765 0.904984 0.597045 0.042671 -0.032694 -535922.000000 0 0 1
-9.631901 -14.010099 25.794872 30.893880 0.968511 0.582753 0.034101 -0.032403 -653706.000000 0 0 1
-8.900101 -14.160499 27.024922 31.781723 1.009673 0.554186 0.040129 -0.027907 -343990.000000 0 0 1
-7.406401 -13.967299 26.777832 31.096503 1.083229 0.533327 0.055166 -0.021560 -351499.000000 0 0 1
-6.670901 -14.923299 26.033292 30.739845 1.150430 0.560685 0.048020 -0.033983 159157.000000 0 0 1
-6.707101 -14.702699 24.647142 29.472634 1.142814 0.580348 0.039744 -0.031847 -419029.000000 0 0 1
-5.953001 -15.772999 23.802082 29.167873 1.209908 0.616274 0.038834 -0.035946 -66271.000000 0 0 1
-6.577601 -16.992599 23.685962 29.883742 1.201472 0.655729 0.046058 -0.026302 -521897.000000 0 0 1
-6.779901 -17.859299 24.795162 31.300506 1.207974 0.656448 0.052848 -0.024388 -118575.000000 0 0 1
-7.379601 -19.247599 24.437942 31.970949 1.204678 0.700718 0.043408 -0.018836 -488803.000000 0 0 1
-8.708401 -19.197199 23.998182 31.941845 1.144929 0.720754 0.020319 -0.011669 -708322.000000 0 0 1
-9.053601 -20.537999 23.744782 32.674023 1.155601 0.757265 0.016198 -0.007499 -147656.000000 0 0 1
-10.578301 -20.721899 23.680762 33.197531 1.098793 0.776559 0.001143 -0.004524 34269.500000 0 0 1
-11.199901 -20.625099 24.966082 34.265693 1.073326 0.754516 0.007348 -0.000427 114944.000000 0 0 1
-12.613201 -20.674199 24.951562 34.772055 1.022988 0.770482 0.026148 -0.000819 270702.000000 0 0 1
-13.120101 -20.815299 26.470562 36.140066 1.008387 0.748892 0.036517 -0.007669 -369805.000000 0 0 1
-12.707201 -22.016799 27.128412 37.177455 1.047341 0.752912 0.038975 -0.002138 308212.000000 0 0 1
-12.019901 -21.675399 28.358242 37.662858 1.064473 0.718263 0.030341 -0.003404 340270.000000 0 0 1
-11.421101 -22.924499 29.065262 38.739691 1.108586 0.722325 0.023008 0.002481 -159034.000000 0 0 1
-12.421401 -23.737499 29.649362 39.960540 1.088697 0.734798 0.035904 -0.001888 59980.500000 0 0 1
-11.933901 -24.921899 30.260482 40.978236 1.124210 0.740024 0.017108 0.007278 -178549.000000 0 0 1
-12.991301 -25.530459 31.195452 42.352503 1.100090 0.742816 0.027103 -0.007028 169193.000000 0 0 1
-12.944101 -25.036369 32.541512 43.050198 1.093632 0.713773 0.016129 -0.006113 308019.000000 0 0 1
-14.154401 -25.401499 33.203954 44.137125 1.062422 0.719264 0.036256 -0.011553 111694.000000 0 0 1
-14.186401 -24.968099 -34.087717 44.571655 1.054102 2.441503 0.029256 -0.007538 30434.500000 0 0 1
-14.248101 -23.547399 -33.726995 43.531582 1.026649 2.457149 0.035133 -0.010629 896202.000000 0 0 1
-15.385001 -22.831099 -34.294813 43.978308 0.977829 2.465162 0.036819 -0.017010 739405.000000 0 0 1
-15.398201 -21.423399 -33.767275 42.852019 0.947593 2.478346 0.032324 -0.014489 52782.400000 0 0 1
-15.735701 -21.192399 -32.419885 41.806447 0.932102 2.458265 0.032742 -0.011541 165801.000000 0 0 1
-15.627901 -19.831199 -32.290725 40.990227 0.903387 2.477971 0.027307 -0.017472 -186285.000000 0 0 1
-15.753101 -19.259099 -30.886695 39.661833 0.885202 2.463469 0.030143 -0.015863 -430748.000000 0 0 1
-16.991401 -19.475599 -30.273735 39.805850 0.853415 2.434933 0.028386 -0.011662 -288702.000000 0 0 1
-16.989901 -19.278499 -28.851925 38.636134 0.848416 2.413974 0.022344 -0.016919 322440.000000 0 0 1
-16.085101 -20.202299 -27.938575 38.045070 0.898376 2.395512 0.020861 -0.003639 702001.000000 0 0 1
-14.679501 -20.019199 -28.070775 37.472984 0.938088 2.417489 0.023624 -0.010639 193397.000000 0 0 1
-14.044901 -21.257499 -27.693695 37.630855 0.986934 2.397836 0.015088 0.002457 528276.000000 0 0 1
-12.504201 -21.109699 -27.850185 37.116132 1.036025 2.419392 0.022469 -0.013193 -12233.000000 0 0 1
-11.930101 -20.223399 -26.888325 35.697272 1.037825 2.423758 0.029010 -0.022381 -47862.900000 0 0 1
-10.525801 -20.298699 -26.799145 35.228169 1.092423 2.435234 0.020502 -0.023867 150983.000000 0 0 1
-9.872801 -21.513599 -26.050965 35.198863 1.140558 2.404027 0.025896 -0.026955 -495194.000000 0 0 1
-9.791901 -22.719599 -26.753515 36.439156 1.163864 2.395279 0.026642 -0.025164 81782.200000 0 0 1
-9.469301 -23.731899 -25.818255 36.324276 1.191142 2.361391 0.037785 -0.027720 -198129.000000 0 0 1
-9.742101 -25.150839 -26.334845 37.696118 1.201245 2.344248 0.034090 -0.015773 -733405.000000 0 0 1
-8.877501 -25.584809 -27.380305 38.510695 1.236812 2.361686 0.029170 -0.010046 155376.000000 0 0 1
-9.142301 -26.864939 -27.961025 39.838744 1.242784 2.348795 0.016393 -0.003575 -446780.000000 0 0 1
-8.879001 -28.124929 -27.061475 40.027138 1.265000 2.313223 0.030072 0.000547 25255.700000 0 0 1
-9.837801 -28.330419 -26.017205 39.702518 1.236572 2.285381 0.020588 0.002519 143317.000000 0 0 1
-9.525201 -29.453419 -25.244965 39.944231 1.258013 2.254934 0.050594 0.005058 -397665.000000 0 0 1
-10.473001 -29.662059 -24.047185 39.595311 1.231383 2.223484 0.046628 -0.002530 -286200.000000 0 0 1
-10.589901 -28.641799 -23.058585 38.264827 1.216649 2.217558 0.038210 -0.006308 -356548.000000 0 0 1
-11.361401 -27.521599 -23.426485 37.885618 1.179289 2.237435 0.024404 -0.002636 -322113.000000 0 0 1
-11.148801 -26.349639 -22.449385 36.367213 1.170527 2.236099 0.041095 -0.008819 62206.800000 0 0 1
-11.558501 -26.686689 -21.112985 35.937953 1.162069 2.198743 0.039069 -0.010483 135259.000000 0 0 1
-11.568001 -25.553939 -20.310885 34.631698 1.145708 2.197506 0.034183 -0.004580 -69487.100000 0 0 1
-12.015901 -25.836679 -18.843385 34.161221 1.135480 2.155080 0.047005 -0.000935 1044450.000000 0 0 1
-13.436901 -26.073719 -18.849385 34.866724 1.094950 2.141961 0.055709 -0.006109 932354.000000 0 0 1
-13.986801 -26.377449 -17.552185 34.633504 1.083238 2.102263 0.061032 -0.011810 -28594.800000 0 0 1
-15.506201 -26.605059 -17.462485 35.400704 1.043098 2.086654 0.060260 -0.015137 -962282.000000 0 0 1
-16.174601 -25.425729 -17.720485 34.958561 1.004219 2.102381 0.052734 -0.010667 -216216.000000 0 0 1
-17.546701 -25.434659 -17.377085 35.450976 0.966899 2.083084 0.065326 -0.015019 456036.000000 0 0 1
-18.576001 -26.180679 -18.298985 36.950624 0.953702 2.088894 0.064283 -0.011362 -691680.000000 0 0 1
-18.477301 -27.572199 -18.496185 37.996654 0.980391 2.079201 0.067557 -0.018540 -7976.760000 0 0 1
-18.884501 -28.307979 -17.351985 38.197611 0.982488 2.042348 0.071744 -0.022405 -394178.000000 0 0 1
-20.405701 -28.558059 -17.317685 39.138952 0.950383 2.029144 0.063121 -0.022931 -316638.000000 0 0 1
-20.811601 -29.459259 -18.329885 40.459305 0.955752 2.040974 0.049104 -0.020001 -507943.000000 0 0 1
-21.938101 -30.113759 -17.835185 41.306326 0.941193 2.017260 0.033063 -0.006855 -59598.100000 0 0 1
-22.677301 -31.079759 -18.855485 42.845545 0.940448 2.026485 0.014677 -0.014506 268078.000000 0 0 1
-21.882601 -32.201789 -19.205885 43.412780 0.973930 2.029071 0.008830 -0.017056 221647.000000 0 0 1
-22.631201 -33.143329 -19.923785 44.806347 0.971688 2.031596 -0.004951 0.002555 -351300.000000 0 0 1
-21.896601 34.424728 -19.892485 45.389800 -1.004275 2.024457 -0.017368 -0.000372 -149150.000000 0 0 1
-22.420601 33.485146 -18.965485 44.537938 -0.980787 2.010673 -0.013390 -0.003546 -49707.200000 0 0 1
-21.556201 32.345661 -18.932885 43.236162 -0.982956 2.024052 -0.013770 -0.009581 -429336.000000 0 0 1
-22.133101 31.099591 -18.320785 42.340405 -0.952271 2.018284 0.004259 -0.019757 -207851.000000 0 0 1
-22.675701 31.138781 -16.973185 42.093944 -0.941385 1.985831 -0.003834 -0.018872 -113090.000000 0 0 1
-23.316301 29.942111 -16.619585 41.429343 -0.909171 1.983574 0.001756 -0.014980 -302163.000000 0 0 1
-22.514901 28.646891 -16.399285 39.956247 -0.904684 1.993723 0.014954 -0.024985 -266928.000000 0 0 1
-22.111101 27.919701 -17.541985 39.700525 -0.900981 2.028465 0.008174 -0.025147 -204041.000000 0 0 1
-21.358901 26.797581 -17.208585 38.346426 -0.897859 2.036181 0.028458 -0.028164 -18694.000000 0 0 1
-20.558401 26.270911 -18.463985 38.127777 -0.906784 2.076320 0.034274 -0.025480 -1099470.000000 0 0 1
-20.147301 24.945571 -18.209485 36.875203 -0.891408 2.087267 0.050059 -0.026462 -184.074000 0 0 1
-19.428801 24.316441 -19.271085 36.607954 -0.896666 2.125178 0.038927 -0.015464 -514011.000000 0 0 1
-18.043101 24.922291 -19.388485 36.367395 -0.944161 2.133090 0.023563 -0.018995 -2786990.000000 0 0 1
-17.196601 24.606191 -18.349085 35.183471 -0.960827 2.119434 0.033373 -0.017496 -157752.000000 0 0 1
-16.084301 25.505091 -18.362785 35.304480 -1.008158 2.117795 0.042232 -0.023271 928.400000 0 0 1
-16.197701 26.719071 -17.452985 35.789397 -1.025814 2.080201 0.031775 -0.034744 -791661.000000 0 0 1
-17.107801 27.627301 -17.987185 37.141398 -1.016353 2.076347 0.021993 -0.035903 -215216.000000 0 0 1
-16.882501 28.886201 -17.381585 37.703461 -1.041890 2.049927 0.034563 -0.041035 -498347.000000 0 0 1
-18.027401 29.895311 -17.547785 39.072261 -1.028161 2.036567 0.036432 -0.032586 -309267.000000 0 0 1
-18.205001 30.377441 -18.867085 40.127022 -1.030897 2.060296 0.024320 -0.033247 219586.000000 0 0 1
-19.070401 29.550501 -19.615185 40.269936 -0.997697 2.079554 0.017478 -0.032689 -657795.000000 0 0 1
-19.238601 29.881991 -21.104585 41.333529 -0.998778 2.106670 0.013424 -0.029143 40888.600000 0 0 1
-19.828901 31.140091 -21.436685 42.689835 -1.003782 2.096879 0.007984 -0.020096 216184.000000 0 0 1
-20.031401 31.285131 -22.839685 43.608115 -1.001281 2.122042 0.013287 -0.018643 -184830.000000 0 0 1
-20.705601 32.626811 -23.123185 45.032348 -1.005310 2.110031 0.003998 -0.010384 -670392.000000 0 0 1
-19.914201 33.752259 -22.987285 45.433530 -1.037754 2.101284 -0.007503 -0.003425 -253630.000000 0 0 1
-20.224301 -34.281506 -24.094785 46.527440 1.037801 2.115146 -0.001860 0.007965 1480.730000 0 0 1
-19.280001 -33.048139 -24.214685 45.279674 1.042679 2.135044 0.013804 0.002691 36637.700000 0 0 1
-19.260001 -32.110219 -23.111185 44.001599 1.030517 2.123788 0.020892 -0.000642 45114.800000 0 0 1
-18.787601 -32.589629 -21.852985 43.504147 1.047843 2.097076 0.024582 -0.011404 -279412.000000 0 0 1
-18.460601 -31.483309 -20.823985 42.019411 1.040465 2.089299 0.050533 -0.022899 694705.000000 0 0 1
-17.222901 -30.796739 -21.103685 41.114876 1.060883 2.109805 0.062669 -0.021482 720223.000000 0 0 1
-16.889401 -30.102559 -19.916285 39.850651 1.059500 2.094133 0.067656 -0.021135 -180517.000000 0 0 1
-15.610801 -29.273069 -20.120885 38.800254 1.080879 2.115981 0.074324 -0.022068 977424.000000 0 0 1
-14.395101 -30.048579 -19.984585 38.852538 1.124040 2.111069 0.075506 -0.019717 1810970.000000 0 0 1
-13.210801 -29.246069 -20.272985 37.958553 1.146520 2.134218 0.070348 -0.019848 343181.000000 0 0 1
-11.868901 -29.968019 -20.491285 38.194839 1.193698 2.137073 0.076044 -0.017785 146714.000000 0 0 1
-11.329001 -30.456019 -19.249585 37.768531 1.214677 2.105601 0.075523 -0.011757 192997.000000 0 0 1
-10.870301 -29.485179 -18.311085 36.370800 1.217587 2.098390 0.055625 -0.008786 -888732.000000 0 0 1
-10.178601 -30.086229 -17.095685 36.070037 1.244570 2.064577 0.045464 0.003882 -812890.000000 0 0 1
-10.941001 -30.893759 -16.268085 36.589349 1.230430 2.031538 0.070680 -0.003863 -386491.000000 0 0 1
-11.049901 -32.251039 -16.667485 37.947792 1.240710 2.025528 0.080657 -0.005107 34510.700000 0 0 1
-12.130501 -32.936029 -15.812985 38.496514 1.217908 1.994088 0.096602 -0.006608 -86901.500000 0 0 1
-11.739801 -33.099319 -14.456285 37.978573 1.229955 1.961288 0.083207 -0.006319 -358468.000000 0 0 1
-12.779001 -33.555189 -13.637085 38.408641 1.206920 1.933767 0.084602 -0.005787 -365186.000000 0 0 1
-12.423601 -33.969869 -12.180485 38.166243 1.220183 1.895621 0.065031 -0.006168 -36993.000000 0 0 1
-11.881201 -32.838489 -11.508285 36.769144 1.223642 1.889133 0.063835 -0.001509 124998.000000 0 0 1
-11.805401 -33.146189 -10.130585 36.615108 1.228643 1.851131 0.061273 -0.007787 -556849.000000 0 0 1
-10.597101 -32.417559 -9.549485 35.417360 1.254852 1.843802 0.049541 -0.012124 4481.110000 0 0 1
-9.389901 -33.059959 -9.926485 35.772423 1.294058 1.851977 0.024220 -0.002595 413383.000000 0 0 1
-8.211901 -32.497429 -9.332485 34.793872 1.323284 1.842343 0.009870 -0.002156 323758.000000 0 0 1
-6.915201 -33.096639 -9.853485 35.217875 1.364820 1.854368 0.010349 -0.007740 -343380.000000 0 0 1
-6.722201 34.370996 -9.558185 36.303061 -1.377657 1.837226 0.001734 -0.002306 -840714.000000 0 0 1
-5.619701 33.921063 -10.261185 35.881910 -1.406618 1.860816 0.002724 -0.005170 -136945.000000 0 0 1
-4.780101 32.819631 -9.486385 34.495928 -1.426166 1.849386 0.008444 -0.009334 -22296.500000 0 0 1
-4.011201 33.343359 -8.464185 34.633968 -1.451072 1.817687 0.018417 -0.008022 -374607.000000 0 0 1
-3.338401 32.313701 -7.769385 33.401849 -1.467849 1.805550 0.013553 -0.005595 -79711.700000 0 0 1
-3.009001 32.689811 -6.349285 33.436376 -1.479008 1.761848 0.015356 -0.002520 88900.900000 0 0 1
-2.063801 33.790219 -6.298785 34.434181 -1.509795 1.754755 0.007486 0.000350 420237.000000 0 0 1
-1.753901 34.236013 -5.021685 34.646761 -1.519611 1.716248 0.010348 0.002940 25581.300000 0 0 1
-0.747901 33.351301 -4.239985 33.628055 -1.548375 1.697218 0.009023 -0.002509 561773.000000 0 0 1
0.626899 33.630672 -4.564285 33.944776 1.552158 1.705667 0.014991 0.002299 621861.000000 0 0 1
1.519699 32.833111 -3.782085 33.085145 1.524544 1.685360 0.012739 0.002130 1174680.000000 0 0 1
2.997299 33.139745 -4.239285 33.543972 1.480597 1.697515 0.006398 0.008574 835871.000000 0 0 1
3.566099 34.397237 -3.891285 34.799843 1.467491 1.682850 -0.000169 0.006050 -88899.600000 0 0 1
4.954899 -34.433568 -4.137585 35.033431 -1.427880 1.689177 0.014709 0.002521 223993.000000 0 0 1
5.621099 -33.127329 -3.698985 33.803834 -1.402716 1.680441 0.016277 0.002249 -133359.000000 0 0 1
5.541499 -32.139609 -4.704185 32.951359 -1.400055 1.714047 0.010528 -0.005058 -169633.000000 0 0 1
5.767599 -30.879679 -4.110485 31.681475 -1.386147 1.700907 0.011003 -0.008361 -171627.000000 0 0 1
5.620099 -29.814899 -5.131585 30.770877 -1.384483 1.738347 0.008995 -0.018905 -670687.000000 0 0 1
6.486999 -29.731459 -6.207085 31.057507 -1.355977 1.772009 0.023496 -0.014188 -622529.000000 0 0 1
6.308899 -28.544429 -6.989685 30.057318 -1.353273 1.805490 0.015429 -0.013768 -98167.100000 0 0 1
6.690399 -27.166249 -6.287285 28.675713 -1.329326 1.791847 0.020222 -0.011878 602626.000000 0 0 1
5.914699 -26.771929 -5.125085 27.892407 -1.353360 1.755591 0.026113 -0.020745 -121192.000000 0 0 1
6.434799 -25.591709 -4.643885 26.793803 -1.324462 1.744995 0.037233 -0.021343 -110336.000000 0 0 1
5.617899 -25.097639 -3.446085 25.948560 -1.350585 1.703994 0.035442 -0.021977 -206102.000000 0 0 1
4.485499 -24.406199 -3.904285 25.120225 -1.389039 1.726853 0.028510 -0.026948 -629004.000000 0 0 1
3.757699 -23.937899 -2.802085 24.392519 -1.415090 1.685925 0.023068 -0.023149 48856.900000 0 1 0
2.446699 -23.197599 -3.152485 23.538333 -1.465713 1.705130 0.020134 -0.023500 27841.000000 0 1 0
1.485899 -24.007899 -3.735085 24.342103 -1.508983 1.724846 0.008652 -0.017067 -649607.000000 0 1 0
0.293899 -23.336599 -4.062585 23.689404 -1.558203 1.743142 -0.002607 -0.016949 39825.900000 0 1 0
-15.012601 23.188401 18.362062 33.169948 -0.996238 0.984145 0.005503 -0.013472 -227811.000000 0 0 1
-15.180101 22.668801 19.653262 33.623811 -0.980733 0.946527 0.015687 -0.012118 431721.000000 0 0 1
-14.707001 23.665501 20.553762 34.623820 -1.014752 0.935233 0.014436 -0.012449 -900671.000000 0 0 1
-14.803701 23.041201 22.018262 35.140438 -0.999720 0.893640 0.029657 -0.018258 -461904.000000 0 0 1
-13.848201 22.040701 22.368962 34.321067 -1.009827 0.860899 0.032524 -0.016304 1120140.000000 0 0 1
-12.466901 22.436701 22.340862 34.028566 -1.063627 0.854584 0.027226 -0.017794 332230.000000 0 0 1
-12.039001 23.550701 23.340662 35.275481 -1.098233 0.847755 0.052759 -0.011267 -1004020.000000 0 0 1
-11.697901 23.149601 24.648742 35.781355 -1.102904 0.810866 0.057079 -0.013540 142706.000000 0 0 1
-11.601501 24.216201 25.551122 37.065874 -1.124024 0.810214 0.066959 -0.013308 111862.000000 0 0 1
-11.102001 23.623301 26.898132 37.480985 -1.131468 0.770378 0.062768 -0.015550 544878.000000 0 0 1
-9.745501 23.186501 26.958342 36.869239 -1.172905 0.750735 0.049796 -0.016236 100120.000000 0 0 1
-9.445801 22.414301 28.117492 37.178184 -1.171963 0.713173 0.042911 -0.017652 -237802.000000 0 0 1
-7.911401 22.174001 28.215632 36.747768 -1.228088 0.695367 0.030779 -0.011151 768872.000000 0 0 1
-7.042901 23.279001 28.418672 37.405016 -1.277008 0.707859 0.016677 -0.005461 39450.400000 0 0 1
-6.940401 24.220001 27.360832 37.193988 -1.291718 0.744207 0.021069 -0.006079 -822313.000000 0 0 1
-5.946101 25.358001 27.751492 38.059554 -1.340471 0.753703 0.009193 -0.006601 -1069980.000000 0 0 1
-4.654201 24.909801 27.810762 37.624437 -1.386084 0.738963 -0.003072 -0.002934 -1386490.000000 0 0 1
-3.810301 26.041001 28.065882 38.475263 -1.425508 0.753275 0.005613 -0.001924 398900.000000 0 0 1
-2.326801 25.660201 28.315652 38.283626 -1.480366 0.738278 0.011216 -0.003407 353721.000000 0 0 1
-1.651301 25.347401 27.103412 37.145827 -1.505742 0.752988 0.009285 -0.007286 -964820.000000 0 0 1
-0.287301 25.180201 27.286912 37.130858 -1.559387 0.745299 0.026362 -0.001014 -220376.000000 0 0 1
0.440999 24.815901 25.907742 35.878050 1.553027 0.763955 0.022117 -0.009200 -62725.500000 0 0 1
0.096799 23.540701 25.401762 34.632694 1.566684 0.747395 0.019434 0.000795 -179924.000000 0 0 1
0.431599 23.461401 24.069622 33.615031 1.552402 0.772687 0.022809 0.007555 -34507.300000 0 0 1
-0.096901 22.112601 23.423562 32.212416 -1.566414 0.756621 0.008154 0.010492 374446.000000 0 0 1
0.561099 20.941101 23.945332 31.815459 1.544009 0.718746 0.028677 0.009913 -160454.000000 0 0 1
0.164999 19.766001 23.207762 30.484787 1.562449 0.705496 0.028656 0.013182 -254641.000000 0 0 1
1.075199 18.545801 23.243562 29.755100 1.512886 0.674271 0.038699 0.009041 246043.000000 0 0 1
2.341299 18.766501 22.637062 29.497454 1.446678 0.695982 0.043290 0.007294 -135135.000000 0 0 1
3.184399 17.659901 22.501662 28.780849 1.392395 0.673205 0.035066 0.004043 -685940.000000 0 0 1
4.518399 18.030901 21.890862 28.718272 1.325261 0.703995 0.038288 0.003562 -806730.000000 0 0 1
5.339599 18.651101 22.857462 29.980635 1.291966 0.703771 0.025633 0.003543 -231250.000000 0 0 1
6.496699 19.084901 22.136362 29.940926 1.242690 0.738715 0.028693 -0.000783 171561.000000 0 0 1
7.589399 19.786501 22.963662 31.247950 1.204538 0.745299 0.039596 -0.004075 -218082.000000 0 0 1
7.239399 21.012401 23.670362 32.468691 1.239003 0.753906 0.031475 -0.003771 93703.600000 0 0 1
7.166099 22.177901 22.881562 32.661570 1.258267 0.794607 0.033631 -0.012932 -830771.000000 0 0 1
5.740899 22.670101 22.824762 32.678145 1.322774 0.797537 0.026184 -0.008451 -746641.000000 0 0 1
5.674399 24.088601 22.993362 33.780974 1.339450 0.822133 0.022926 -0.019853 902795.000000 0 0 1
4.337099 24.517701 23.311662 34.108088 1.395711 0.818298 0.015414 -0.011895 846038.000000 0 0 1
3.871699 25.871901 22.714062 34.644970 1.422250 0.855788 0.022731 -0.013402 -50180.300000 0 0 1
3.920999 26.029601 21.298362 33.860516 1.421284 0.890526 0.021824 -0.014351 -56101.500000 0 0 1
3.057899 25.274601 20.466062 32.665209 1.450394 0.893690 0.027994 -0.003418 -339535.000000 0 0 1
2.597999 25.987901 19.178462 32.402685 1.471158 0.937409 0.021891 -0.003776 -775880.000000 0 0 1
1.623999 26.980201 19.434862 33.290877 1.510677 0.947408 0.019947 -0.009804 44765.500000 0 0 1
1.065899 27.319501 18.203462 32.845963 1.531800 0.983386 0.030395 -0.003938 63720.300000 0 0 1
-0.054201 28.377101 18.289762 33.760601 -1.568886 0.998280 0.004084 0.003492 -85658.100000 0 0 1
0.516399 29.584201 18.605062 34.951966 1.553343 1.009477 0.012985 0.007377 208582.000000 0 0 1
-0.418701 30.636501 18.590162 35.838033 -1.557130 1.025435 -0.005788 0.007616 -228839.000000 0 0 1
0.257699 31.858401 19.167262 37.180748 1.562708 1.029187 -0.011403 0.015949 2873.980000 0 0 1
0.620399 31.736101 20.546362 37.811612 1.551250 0.996329 -0.004720 0.010500 86099.800000 0 0 1
1.123999 32.954001 21.087062 39.139414 1.536701 1.001822 -0.010136 0.002380 24181.000000 0 0 1
1.643299 32.771601 22.517462 39.795909 1.520694 0.969365 -0.004290 -0.011505 935373.000000 0 0 1
0.520599 32.619701 23.433262 40.167570 1.554838 0.947903 -0.004964 -0.004604 934046.000000 0 0 1
0.903599 32.815901 24.750262 41.112958 1.543268 0.924785 0.008748 -0.013397 130075.000000 0 0 1
-0.177801 32.398301 25.816082 41.426460 -1.565308 0.897996 0.008002 -0.013378 30607.100000 0 0 1
-1.246101 33.334801 25.896102 42.229963 -1.533432 0.910670 0.003711 -0.003995 653769.000000 0 0 1
-2.281001 32.951101 26.818032 42.546267 -1.501683 0.888823 0.006715 -0.008214 474204.000000 0 0 1
-1.909601 33.156301 28.277592 43.618907 -1.513266 0.865463 0.031947 -0.020110 -397653.000000 0 0 1
-0.867401 32.347201 28.819492 43.331939 -1.543987 0.843187 0.034735 -0.026713 237580.000000 0 0 1
-0.238101 33.112401 29.825402 44.565035 -1.563606 0.837590 0.049877 -0.031220 -87714.300000 0 0 1
0.995099 32.308001 30.421092 44.387385 1.540006 0.815706 0.044537 -0.026739 1092930.000000 0 0 1
2.241299 32.551201 29.762962 44.163763 1.502050 0.831291 0.039369 -0.028965 493084.000000 0 0 1
2.366199 31.904901 28.527002 42.863871 1.496768 0.842599 0.031559 -0.026751 -638103.000000 0 0 1
3.846099 31.785101 28.074572 42.582469 1.450379 0.850911 0.021567 -0.022623 76478.900000 0 0 1
4.435899 30.700901 28.719632 42.273393 1.427302 0.823881 0.023286 -0.027079 662571.000000 0 0 1
5.837499 30.604101 28.427852 42.176180 1.382318 0.831151 0.014918 -0.028679 1054060.000000 0 0 1
6.675299 29.486701 29.138162 41.988780 1.348166 0.803834 0.007125 -0.015278 312137.000000 0 0 1
6.791699 29.699501 30.532672 43.132721 1.345981 0.784308 0.008116 -0.017951 76879.600000 0 0 1
7.402099 28.575001 31.095832 42.875080 1.317327 0.759376 -0.002914 -0.012739 -350056.000000 0 0 1
7.599299 28.723601 32.624322 44.126420 1.312156 0.738710 0.003631 -0.009351 548159.000000 0 0 1
6.361299 28.650101 33.390301 44.454545 1.352307 0.721053 0.025506 -0.018693 837813.000000 0 0 1
6.535099 28.332001 -33.991015 44.730291 1.344100 2.433972 0.032408 -0.020899 -57605.500000 0 0 1
6.475899 26.770801 -33.900035 43.678661 1.333454 2.459291 0.025109 -0.019494 -482988.000000 0 0 1
7.647599 26.162801 -34.339330 43.842531 1.286411 2.470660 0.003665 -0.011534 -416207.000000 0 0 1
7.641399 24.865201 -33.874115 42.709775 1.272644 2.486716 0.008848 -0.010538 -746722.000000 0 0 1
9.025499 24.272701 -33.953485 42.702023 1.214801 2.490012 -0.016644 -0.001435 -1268420.000000 0 0 1
9.525899 24.159401 33.563327 42.437204 1.195219 0.658528 -0.028232 -0.001746 -132741.000000 0 0 1
10.748699 23.456001 33.436230 42.233872 1.141103 0.657222 -0.018713 -0.008456 139667.000000 0 0 1
10.713499 21.904701 33.697807 41.594918 1.115910 0.626401 -0.011899 -0.011503 -433539.000000 0 0 1
9.925099 21.125601 32.761568 40.225849 1.131588 0.619032 -0.008031 -0.012730 381977.000000 0 0 1
9.644499 19.818401 33.296461 39.930436 1.117891 0.584729 -0.010688 -0.003404 1255420.000000 0 0 1
8.248499 19.759101 34.071026 40.240460 1.175335 0.561071 0.006354 -0.010725 1029720.000000 0 0 1
8.315499 20.558001 -33.550555 40.217144 1.186426 2.557541 0.014122 -0.020361 680121.000000 0 0 1
7.010299 20.623601 -32.957225 39.505138 1.243133 2.557570 0.023383 -0.020511 522547.000000 0 0 1
7.087299 21.358901 -31.571575 38.771082 1.250409 2.522331 0.023497 -0.028100 -102436.000000 0 0 1
7.484299 22.692101 -31.648255 39.655494 1.252211 2.494898 0.009526 -0.023195 -101566.000000 0 0 1
7.533599 23.430501 -30.490625 39.184457 1.259706 2.462480 0.006010 -0.031783 -49387.000000 0 0 1
8.926099 23.560301 -29.836575 39.051047 1.208644 2.440349 0.009872 -0.020773 230212.000000 0 0 1
9.546899 22.327501 -29.509465 38.216084 1.166738 2.453052 0.011416 -0.027868 -712964.000000 0 0 1
10.822999 22.473501 -28.970875 38.229663 1.121985 2.430749 0.016132 -0.024385 -331450.000000 0 0 1
11.521099 21.127001 -28.764365 37.502994 1.071549 2.444931 0.011294 -0.029443 -182292.000000 0 0 1
11.761899 20.334001 -29.890765 38.016729 1.046384 2.475518 0.006269 -0.022657 -312193.000000 0 0 1
10.620899 19.781801 -30.490635 37.865578 1.078064 2.506866 0.020024 -0.014477 -710912.000000 0 0 1
10.862699 18.932701 -31.723075 38.507128 1.049899 2.538920 0.026383 -0.004758 -297545.000000 0 0 1
11.390399 17.604301 -31.524265 37.860691 0.996516 2.554651 0.029153 -0.000996 123550.000000 0 0 1
11.347199 16.782801 -32.702785 38.469384 0.976277 2.586970 0.031377 0.009503 387213.000000 0 0 1
12.623299 16.767201 -33.621965 39.634874 0.925469 2.583549 0.027481 0.020412 428371.000000 0 0 1
12.848699 18.058301 -34.280531 40.820903 0.952386 2.567672 0.031630 0.013142 -116165.000000 0 0 1
13.364599 17.987101 33.191290 40.047597 0.931784 0.593844 0.036556 0.011434 58225.700000 0 0 1
12.366499 17.561401 32.058342 38.588475 0.957266 0.590298 0.033361 -0.002940 -615864.000000 0 0 1
12.743699 17.890501 30.744602 37.784950 0.951852 0.620353 0.020466 0.005887 -111469.000000 0 0 1
11.907799 17.307801 29.758452 36.426928 0.968168 0.614719 0.024727 -0.001349 1938020.000000 0 0 1
10.338099 17.625901 29.717562 36.064971 1.040341 0.602360 0.012959 -0.009156 1507590.000000 0 0 1
9.590099 17.025601 30.756302 36.438869 1.057818 0.566001 0.026874 -0.004100 -138705.000000 0 0 1
8.228799 17.421901 30.757322 36.293920 1.129533 0.559631 0.029992 -0.012227 364311.000000 0 0 1
7.395999 16.482201 31.652222 36.444847 1.149002 0.518635 0.032433 -0.005552 -324230.000000 0 0 1
7.702099 16.613401 33.053460 37.787017 1.136684 0.505917 0.032466 -0.003908 327341.000000 0 0 1
7.042099 15.656001 33.871062 37.973021 1.148107 0.469097 0.042174 -0.001471 -150592.000000 0 0 1
7.267699 15.990001 -33.405755 37.741808 1.144194 2.657533 0.037515 -0.002072 -17684.000000 0 0 1
6.434399 17.010301 -32.861475 37.558333 1.209166 2.636119 0.032045 -0.000454 255916.000000 0 0 1
6.691599 17.248401 -31.479195 36.513348 1.200717 2.610252 0.039393 -0.011169 -209504.000000 0 0 1
5.510999 17.996201 -30.856735 36.143775 1.273633 2.593888 0.036562 -0.016430 -1046200.000000 0 0 1
5.702399 18.132501 -29.457985 35.058206 1.266104 2.568558 0.026193 -0.020557 -44226.600000 0 0 1
4.838799 19.060701 -28.831775 34.899793 1.322186 2.543001 0.035540 -0.024992 386707.000000 0 0 1
3.306099 18.845101 -28.954015 34.704511 1.397128 2.557660 0.046933 -0.033687 -1033860.000000 0 0 1
2.777499 18.040601 -27.913765 33.352002 1.418038 2.562472 0.057015 -0.029425 1529370.000000 0 0 1
1.332099 17.833601 -27.940915 33.173883 1.496239 2.572252 0.060294 -0.034094 2275270.000000 0 0 1
0.435299 19.150701 -27.730675 33.703548 1.548070 2.537085 0.059939 -0.041016 -328298.000000 0 0 1
0.350899 19.455701 -26.308395 32.722761 1.552762 2.504752 0.068220 -0.037463 -180969.000000 0 0 1
-0.434501 20.607801 -26.242465 33.369705 -1.549715 2.475781 0.078765 -0.031422 -53061.400000 0 0 1
-1.031001 20.899001 -24.820085 32.463330 -1.521504 2.441151 0.052075 -0.023785 25773.100000 0 0 1
-2.038501 20.016301 -24.394885 31.621483 -1.469304 2.451938 0.051567 -0.022578 -43701.900000 0 0 1
-2.641101 20.487101 -23.195385 31.059984 -1.442588 2.414023 0.054212 -0.014418 -128556.000000 0 0 1
-3.788201 19.566201 -22.769385 30.259405 -1.379553 2.422605 0.046055 -0.018445 -318299.000000 0 0 1
-5.107901 19.974101 -23.057385 30.930541 -1.320436 2.412016 0.040964 -0.013369 -605304.000000 0 0 1
-5.915801 18.907401 -22.620885 30.069768 -1.267563 2.422312 0.032852 -0.016951 217157.000000 0 0 1
-7.417101 19.341001 -22.537685 30.611027 -1.204602 2.398324 0.037456 -0.011868 300555.000000 0 0 1
-7.780801 20.258101 -21.521485 30.563145 -1.204086 2.352042 0.022834 -0.006264 356701.000000 0 0 1
-7.196801 21.614001 -21.664085 31.437105 -1.249373 2.331077 0.021798 -0.009287 -192610.000000 0 0 1
-7.553901 22.621701 -20.601185 31.515260 -1.248515 2.283246 0.027556 -0.011408 -268516.000000 0 0 1
-6.815201 22.460801 -19.427085 30.468774 -1.276199 2.262183 0.033476 -0.014516 46243.900000 0 0 1
-7.261001 23.335301 -18.406185 30.594870 -1.269133 2.216312 0.045319 -0.015978 115039.000000 0 0 1
-6.311501 23.367001 -17.159985 29.670134 -1.306988 2.187512 0.049554 -0.020133 -286339.000000 0 0 1
-5.098901 23.972001 -17.430385 30.074473 -1.361217 2.189002 0.044623 -0.021756 -873207.000000 0 0 1
-4.216301 23.929601 -16.298285 29.258111 -1.396390 2.161628 0.035304 -0.017164 -356759.000000 0 0 1
-2.866001 24.502201 -16.650885 29.762792 -1.454356 2.164522 0.035023 -0.013232 -831310.000000 0 0 1
-2.859201 25.908501 -16.573385 30.888550 -1.460883 2.137145 0.023140 -0.026546 -322545.000000 0 0 1
-1.651501 26.369901 -17.130385 31.488874 -1.508250 2.146010 0.019304 -0.025260 56208.800000 0 0 1
-1.509401 27.920801 -17.225385 32.841487 -1.516789 2.122925 0.018088 -0.038973 -646514.000000 0 0 1
-2.552101 28.571301 -17.849785 33.785312 -1.481709 2.127428 0.019132 -0.044943 -793119.000000 0 0 1
-2.074301 29.249101 -18.997585 34.938816 -1.499996 2.145682 0.017461 -0.037342 -672479.000000 0 0 1
-3.141101 29.860501 -19.945885 36.046558 -1.465989 2.157161 0.035663 -0.040301 -159400.000000 0 0 1
-3.830401 30.932701 -19.421085 36.724413 -1.447593 2.128021 0.032551 -0.039011 -43430.700000 0 0 1
-4.918701 30.555201 -18.559185 36.086802 -1.411188 2.110979 0.024268 -0.039641 -248306.000000 0 0 1
-5.433701 31.699001 -17.716785 36.718336 -1.401031 2.074309 0.029902 -0.030008 -207865.000000 0 0 1
-6.160401 32.605101 -18.489285 37.985481 -1.384058 2.079157 0.044689 -0.027866 -191872.000000 0 0 1
-6.239801 33.891201 -17.899185 38.832067 -1.388723 2.049849 0.049591 -0.035195 -17410.900000 0 0 1
-6.982201 -34.003869 -18.811785 39.482876 1.368276 2.067414 0.050273 -0.022101 -370925.000000 0 0 1
-8.297601 -34.365869 -19.125785 40.195259 1.333882 2.066695 0.065984 -0.028350 -515867.000000 0 0 1
-8.811701 -33.314569 -19.895585 39.791217 1.312218 2.094394 0.101368 -0.034676 -251639.000000 0 0 1
29.341499 -20.199999 -26.925485 44.653615 -0.602929 2.218035 0.030505 -0.000481 222243.000000 0 0 1
28.685699 -21.455999 -26.626585 44.634116 -0.642200 2.209995 0.038066 -0.007387 237310.000000 0 0 1
27.356299 -21.484099 -27.135585 44.116591 -0.665740 2.233294 0.030318 0.000344 867643.000000 0 0 1
26.499999 -22.764399 -26.665885 43.949258 -0.709715 2.222753 0.023030 -0.000547 288778.000000 0 0 1
26.899299 -24.042199 -27.006495 45.066067 -0.729371 2.213378 0.022642 0.009064 -381871.000000 0 0 1
28.005899 -24.477899 -26.230105 45.513914 -0.718278 2.185002 0.027951 0.010364 -81627.500000 0 0 1
28.489199 -25.815529 -26.693975 46.804320 -0.736203 2.177706 0.027379 0.002426 333391.000000 0 0 1
27.653899 -26.897179 -26.219995 46.644234 -0.771527 2.167752 0.032076 0.000014 -157326.000000 0 0 1
28.050099 -28.128279 -26.766755 47.900598 -0.786790 2.163732 0.031916 -0.000719 11154.400000 0 0 1
27.087099 -28.889599 -27.703805 48.330329 -0.817588 2.181224 0.046342 0.001789 -534187.000000 0 0 1
26.877099 -28.392589 -29.039515 48.701243 -0.812811 2.209654 0.021624 0.000706 -196993.000000 0 0 1
27.859099 -28.525009 -30.046335 49.925823 -0.797208 2.216574 0.014535 0.002885 -595397.000000 0 0 1
28.097299 -29.926549 -30.682745 51.249267 -0.816914 2.212669 0.030369 0.004641 -572594.000000 0 0 1
28.518699 -30.926359 -29.801135 51.554472 -0.825878 2.187135 0.039361 0.002320 471035.000000 0 0 1
29.813499 -30.779149 -29.190615 51.848749 -0.801334 2.168802 0.030716 0.001388 1195170.000000 0 0 1
31.107899 -30.711499 -30.082925 53.064866 -0.778986 2.173545 0.024880 -0.002013 -56975.900000 0 0 1
31.361399 -29.428899 -30.601075 52.782793 -0.753619 2.189224 0.032877 -0.013652 671707.000000 0 0 1
32.581099 -29.245639 -31.350485 53.848754 -0.731502 2.192222 0.026753 -0.014912 649155.000000 0 0 1
32.620599 -27.884759 -32.005695 53.535295 -0.707286 2.211604 0.014319 0.000244 -41626.000000 0 0 1
32.554699 -26.774419 -31.146775 52.409919 -0.688277 2.207181 -0.002760 0.002544 -280474.000000 0 0 1
31.251199 -26.466529 -30.712135 51.189353 -0.702690 2.214261 0.022045 0.010101 -339511.000000 0 0 1
31.118599 -25.036829 -30.118395 50.023272 -0.677516 2.216910 0.007525 0.008512 212814.000000 0 0 1
31.757699 -24.865599 -28.809295 49.566369 -0.664276 2.191032 0.016398 0.008859 337288.000000 0 0 1
31.766699 -23.498699 -28.414555 48.669282 -0.636894 2.194234 0.009823 0.008872 -18231.500000 0 0 1
32.554599 -23.249999 -27.111455 48.325929 -0.620183 2.166405 0.005462 0.005345 -96339.100000 0 0 1
31.999599 -23.876599 -25.967095 47.627265 -0.641035 2.147442 0.015151 0.000456 686188.000000 0 0 1
31.075299 -23.106099 -25.147665 46.173273 -0.639362 2.146752 0.025596 -0.000807 14366.600000 0 0 1
31.634099 -21.915699 -24.346285 45.538508 -0.605869 2.134867 0.019345 -0.002255 -255046.000000 0 0 1
32.236199 -20.797399 -25.103605 45.846432 -0.572963 2.150240 0.028220 -0.010088 530082.000000 0 0 1
32.528799 -19.703599 -24.246185 45.102462 -0.544621 2.138361 0.023490 -0.014833 -10535.900000 0 0 1
32.762599 -18.485899 -25.184145 45.269830 -0.513709 2.160737 0.015712 -0.025284 -304633.000000 0 0 1
31.554999 -18.076299 -25.769735 44.570728 -0.520217 2.187288 0.019470 -0.015097 124476.000000 0 0 1
31.725399 -16.879899 -26.556595 44.684278 -0.488968 2.207212 0.013791 -0.014468 -726459.000000 0 0 1
30.590399 -16.752399 -27.529375 44.432892 -0.501026 2.238994 0.009823 -0.008418 -107090.000000 0 0 1
29.298699 -16.561399 -26.922815 43.099092 -0.514484 2.245508 0.016955 -0.001083 635605.000000 0 0 1
28.401099 -16.600299 -28.016905 43.210408 -0.528941 2.276255 0.011582 -0.000791 969166.000000 0 0 1
26.875599 -16.331399 -27.671595 41.889493 -0.546038 2.292395 0.005596 0.003822 1218910.000000 0 0 1
26.184799 -17.385999 -27.057275 41.473037 -0.586135 2.281552 0.006810 0.008773 112651.000000 0 0 1
25.593399 -16.970399 -25.811965 40.115758 -0.585513 2.269776 0.006778 0.012222 127726.000000 0 0 1
25.147299 -18.161599 -24.962685 39.816655 -0.625476 2.248417 0.011265 0.011730 -397636.000000 0 0 1
24.709999 -17.833199 -23.664485 38.582573 -0.625142 2.231087 0.006626 0.022157 -68424.900000 0 0 1
24.952299 -18.826399 -22.642285 38.596938 -0.646372 2.197693 0.013143 0.012507 -286613.000000 0 0 1
25.139799 -18.296499 -21.190785 37.627394 -0.629135 2.169019 0.014341 0.007010 298773.000000 0 0 1
24.127799 -17.491199 -20.576885 36.214651 -0.627269 2.175104 0.016142 0.009237 39080.400000 0 0 1
23.988899 -16.159099 -21.152585 35.833164 -0.592792 2.202236 -0.002270 0.021147 698095.000000 0 0 1
25.179499 -15.122499 -20.940085 36.071933 -0.540852 2.190150 -0.012968 0.022151 837372.000000 0 0 1
25.158699 -14.499999 -19.664585 35.070016 -0.522842 2.166056 -0.011504 0.011599 -214505.000000 0 0 1
26.356099 -13.830799 -19.442985 35.552280 -0.483264 2.149435 -0.019298 0.017035 -553532.000000 0 0 1
26.217299 -12.830999 -18.309685 34.456144 -0.455139 2.131038 -0.013973 0.021923 -328329.000000 0 0 1
26.387099 -13.404899 -17.041485 34.152343 -0.470035 2.093223 -0.022491 0.019145 212667.000000 0 0 1
26.092999 -12.474899 -15.967285 33.036675 -0.445970 2.075239 -0.022532 0.017855 31491.000000 0 0 1
26.895799 -12.739299 -14.661885 33.175965 -0.442349 2.028560 -0.020881 0.010345 -236994.000000 0 0 1
26.549499 -13.859199 -13.942585 33.035572 -0.481103 2.006499 0.003908 -0.000166 -73354.700000 0 0 1
27.190399 -13.846599 -12.715185 33.056347 -0.471017 1.965627 0.004732 -0.005938 -317788.000000 0 0 1
26.981499 -15.122499 -11.797985 33.104135 -0.510851 1.935198 0.011537 -0.015021 -89402.100000 0 0 1
25.646499 -15.100799 -11.336285 31.847895 -0.532148 1.934728 0.009914 -0.022019 111120.000000 0 0 1
25.328899 -16.353899 -10.781285 32.019358 -0.573319 1.914219 0.022745 -0.021344 -516303.000000 0 0 1
23.856899 -16.488899 -10.392285 30.806412 -0.604767 1.914888 0.031938 -0.025543 -391672.000000 0 0 1
23.534599 -15.918499 -9.127985 29.842857 -0.594702 1.881647 0.037212 -0.021683 -12364.900000 0 0 1
22.165299 -16.015899 -8.850985 28.742816 -0.625711 1.883821 0.049386 -0.028337 -343671.000000 0 0 1
21.709199 -15.644199 -7.407685 27.765160 -0.624435 1.840865 0.042079 -0.025577 -307528.000000 0 0 1
21.890899 -14.304499 -7.042585 27.081879 -0.578793 1.833868 0.031014 -0.011205 283972.000000 0 0 1
21.645999 -14.083199 -5.653085 26.435642 -0.576807 1.786304 0.041517 -0.011497 35898.600000 0 0 1
22.621699 -14.737199 -4.586385 27.385420 -0.577403 1.739065 0.030881 -0.007007 194998.000000 0 0 1
23.935999 -14.262099 -4.819085 28.276547 -0.537357 1.742059 0.015464 -0.007823 -437923.000000 0 0 1
24.798199 -14.832499 -3.921685 29.160475 -0.539042 1.705691 0.018637 -0.020985 -987400.000000 0 0 1
26.275699 -14.488999 -4.118285 30.287023 -0.503934 1.707194 0.019554 -0.017644 -377591.000000 0 0 1
26.611199 -13.219999 -3.660285 29.938637 -0.461071 1.693363 0.033681 -0.009274 -653790.000000 0 0 1
27.856999 -12.800099 -4.096685 30.929561 -0.430720 1.703639 0.041524 -0.005817 -849183.000000 0 0 1
28.361499 -11.544699 -3.411385 30.810587 -0.386574 1.681745 0.039500 -0.021244 -1047100.000000 0 0 1
28.822999 -11.710599 -2.056585 31.179047 -0.385920 1.636805 0.053295 -0.029595 957738.000000 0 0 1
29.671799 -10.673999 -1.494085 31.568690 -0.345321 1.618142 0.054640 -0.017854 1176380.000000 0 0 1
31.092599 -10.529099 -2.144385 32.896961 -0.326516 1.636027 0.052665 -0.025697 -247255.000000 0 0 1
31.056699 -9.950599 -3.438885 32.792666 -0.310067 1.675857 0.033502 -0.019387 477775.000000 0 0 1
32.001999 -10.600899 -4.298885 33.985106 -0.319881 1.697629 0.040703 -0.022548 -340911.000000 0 0 1
31.625299 -10.390999 -5.818185 33.793249 -0.317454 1.743829 0.027591 -0.019434 92836.800000 0 0 1
30.502899 -11.234199 -6.099385 33.073200 -0.352883 1.756279 -0.002914 -0.015671 584813.000000 0 0 1
30.046399 -11.069299 -7.483685 32.883446 -0.352978 1.800390 -0.000892 -0.011303 27004.700000 0 0 1
28.864499 -12.034399 -7.706385 32.208298 -0.395013 1.812407 -0.026997 -0.008035 -102941.000000 0 0 1
29.087299 -13.441399 -7.564785 32.923672 -0.432875 1.802635 -0.025711 -0.006692 -305336.000000 0 0 1
27.932299 -14.108299 -7.995785 32.298452 -0.467711 1.820957 -0.028159 -0.004980 -260978.000000 0 0 1
27.984099 -15.615999 -8.014885 33.033432 -0.508988 1.815872 -0.014696 -0.015180 -234179.000000 0 0 1
28.661899 -16.130099 -9.143385 34.136286 -0.512596 1.841957 -0.009717 -0.022353 238331.000000 0 0 1
28.934599 -17.526099 -9.062485 35.021477 -0.544611 1.832544 0.001627 -0.025540 -116235.000000 0 0 1
29.223699 -18.152899 -10.492685 35.967329 -0.555841 1.866829 0.003395 -0.032240 356995.000000 0 0 1
30.481999 -17.650499 -10.973385 36.893191 -0.524870 1.872803 0.007257 -0.022088 793287.000000 0 0 1
30.762999 -18.033799 -12.349385 37.737082 -0.530223 1.904186 0.004550 -0.005281 -257070.000000 0 0 1
30.017899 -17.323999 -13.536785 37.208061 -0.523428 1.943155 0.002198 -0.007206 -193965.000000 0 0 1
30.519399 -16.123199 -14.081285 37.278330 -0.486025 1.958144 -0.016281 0.002805 125304.000000 0 0 1
29.708399 -15.668899 -15.159985 36.850082 -0.485345 1.994782 -0.021748 0.005324 -1354660.000000 0 0 1
30.265699 -14.459799 -15.936185 37.135702 -0.445699 2.014330 -0.024779 0.018150 -120952.000000 0 0 1
31.312499 -14.742399 -16.817785 38.479200 -0.440028 2.023126 -0.028569 0.022389 196595.000000 0 0 1
32.556399 -15.093799 -16.229685 39.384573 -0.434122 1.995535 -0.016319 0.015788 -1269680.000000 0 0 1
33.577099 -15.308099 -17.347885 40.776324 -0.427757 2.010245 -0.007489 0.014299 -578442.000000 0 0 1
34.876699 -15.381099 -16.787485 41.650714 -0.415356 1.985648 0.009842 0.005184 -109624.000000 0 0 1
-35.489626 -16.030199 -17.743885 42.793999 0.424256 1.998338 0.019644 -0.001442 -309711.000000 0 0 1
-34.019026 -16.143399 -17.308185 41.442451 0.443073 2.001647 0.043534 -0.005234 -277960.000000 0 0 1
-33.669126 -16.982599 -16.218385 41.049418 0.467159 1.976967 0.034029 -0.005299 93344.200000 0 0 1
-34.027326 -16.509299 -14.940585 40.664935 0.451720 1.947016 0.031645 -0.010119 -481443.000000 0 0 1
-33.512526 -17.363099 -13.764885 40.175100 0.478029 1.920503 0.017203 -0.010770 -283793.000000 0 0 1
-32.108026 -17.369099 -13.688385 38.986957 0.495875 1.929544 0.038942 -0.017597 -235000.000000 0 0 1
-31.667126 -17.850599 -12.433685 38.419361 0.513297 1.900361 0.041978 -0.006984 -682119.000000 0 0 1
-30.196726 -17.669599 -12.110385 37.023215 0.529428 1.904032 0.053687 -0.015230 -748673.000000 0 0 1
-29.839026 -16.312599 -12.090685 36.092285 0.500296 1.912395 0.050488 -0.025556 1053540.000000 0 0 1
-28.624626 -15.960099 -11.366885 34.688616 0.508633 1.904647 0.054187 -0.026873 974926.000000 0 0 1
-28.794826 -15.884799 -9.834685 34.324771 0.504113 1.861387 0.042176 -0.017857 -95417.400000 0 0 1
-29.002626 -17.111999 -9.183685 34.904340 0.533046 1.837041 0.019361 -0.012629 29654.900000 0 0 1
-29.276626 -16.941799 -7.769285 34.706011 0.524596 1.796569 0.040516 -0.009132 -257613.000000 0 0 1
-29.166526 -18.342699 -7.150685 35.189106 0.561396 1.775429 0.024862 -0.005757 144682.000000 0 0 1
-30.145626 -19.298399 -7.530385 36.577229 0.569436 1.778155 0.028671 -0.010826 -82879.400000 0 0 1
-29.919726 -19.913399 -8.759785 36.992801 0.587237 1.809864 0.022971 -0.006716 164343.000000 0 0 1
-31.158426 -20.738799 -9.241785 38.553287 0.587258 1.812868 0.029600 -0.011286 156553.000000 0 0 1
-32.240426 -19.880799 -9.542285 39.060805 0.552566 1.817587 0.021964 -0.014285 -819172.000000 0 0 1
-33.338826 -20.693399 -9.749585 40.432023 0.555501 1.814332 0.015599 -0.014339 -1667680.000000 0 0 1
-34.624826 -19.966799 -9.973985 41.195049 0.523082 1.815343 0.013501 -0.022716 -1092210.000000 0 0 1
-34.947526 -19.516199 -11.273585 41.584917 0.509302 1.845330 0.009430 -0.025525 849672.000000 0 0 1
34.822899 -19.556099 -11.464885 41.551401 -0.511696 1.850344 0.027764 -0.030527 576180.000000 0 0 1
34.342499 -19.094099 -12.844385 41.339692 -0.507431 1.886729 0.014427 -0.014067 -448543.000000 0 0 1
34.791699 -19.899599 -13.884485 42.417394 -0.519550 1.904273 0.014203 -0.001079 238711.000000 0 0 1
34.118799 -19.601099 -15.112585 42.150751 -0.521455 1.937496 0.005294 0.008131 497794.000000 0 0 1
32.919299 -20.537699 -15.429185 41.755683 -0.557794 1.949279 0.009086 -0.000789 469645.000000 0 0 1
31.847899 -20.416599 -14.470585 40.503383 -0.570069 1.936138 0.022076 -0.005315 1350390.000000 0 0 1
30.543399 -20.962799 -14.693885 39.852835 -0.601491 1.948410 0.027089 -0.002702 1303200.000000 0 0 1
29.782399 -20.535199 -15.975285 39.546118 -0.603650 1.986644 0.019312 -0.002249 -701852.000000 0 0 1
29.406899 -19.184699 -16.078285 38.617738 -0.578052 2.000217 0.005994 0.000967 603869.000000 0 0 1
28.380199 -19.004799 -17.055985 38.177542 -0.590065 2.033931 0.005730 -0.002177 530969.000000 0 0 1
27.471099 -17.729599 -16.961485 36.833300 -0.573128 2.049347 0.007541 -0.001482 -452657.000000 0 0 1
26.495099 -17.835799 -15.992085 35.719082 -0.592494 2.035008 0.011941 -0.008692 -399420.000000 0 0 1
25.895099 -16.554099 -15.804085 34.559564 -0.568799 2.045753 0.003393 -0.006887 -1368460.000000 0 0 1
24.501299 -16.643399 -15.135485 33.262581 -0.596689 2.043203 0.013976 -0.019281 281015.000000 0 0 1
23.434799 -17.203999 -15.870985 33.121829 -0.633261 2.070505 0.017046 -0.022611 342626.000000 0 0 1
23.210899 -16.591199 -17.134285 33.280587 -0.620591 2.111621 0.007140 -0.009223 -1079780.000000 0 0 1
22.152599 -17.303099 -18.057985 33.409964 -0.663102 2.141824 0.009259 -0.003223 455340.000000 0 0 1
20.874799 -17.359299 -17.454585 32.276385 -0.693709 2.142166 0.018620 0.002099 -108487.000000 0 0 1
19.940699 -17.893499 -18.386485 32.494178 -0.731341 2.172247 0.021647 -0.009167 -334276.000000 0 0 1
18.562799 -18.150499 -17.801085 31.478513 -0.774168 2.171835 0.023376 -0.003665 -161641.000000 0 0 1
17.736699 -16.979199 -17.697985 30.267183 -0.763582 2.195338 0.025997 -0.002328 1007110.000000 0 0 1
16.354699 -17.340999 -17.624085 29.644474 -0.814661 2.207459 0.032186 -0.008223 867176.000000 0 0 1
15.251699 -16.286399 -17.372185 28.278153 -0.818194 2.232336 0.034478 0.004310 -139960.000000 0 0 1
14.859899 -15.661599 -18.514885 28.441225 -0.811659 2.279681 0.038042 0.015048 -53279.800000 0 0 1
13.637099 -15.034399 -18.208985 27.268494 -0.834094 2.302000 0.033699 0.011778 327106.000000 0 0 1
12.725499 -14.426499 -19.329885 27.270986 -0.847964 2.358603 0.033942 0.003789 312942.000000 0 0 1
13.291199 -13.365899 -20.034985 27.508251 -0.788200 2.386673 0.034313 -0.003514 -69780.500000 0 0 1
12.481499 -13.061899 -21.153585 27.818612 -0.808116 2.434742 0.026762 0.001042 62449.400000 0 0 1
12.621899 -11.611699 -21.690085 27.651468 -0.743736 2.472540 0.028889 0.001835 -142053.000000 0 0 1
13.844199 -11.246099 -22.315685 28.567926 -0.682216 2.467294 0.028746 0.005111 -8672.110000 0 0 1
13.763999 -9.896399 -22.782885 28.397997 -0.623368 2.501886 0.006795 -0.000150 -73262.100000 0 0 1
15.073399 -9.385399 -23.423785 29.393312 -0.556905 2.492957 0.009644 0.008980 133675.000000 0 0 1
15.468799 -10.090999 -24.611485 30.770720 -0.578022 2.497816 0.014682 0.004102 -381607.000000 0 0 1
16.610799 -9.524699 -25.165785 31.622070 -0.520634 2.491173 0.011114 -0.000093 -758019.000000 0 0 1
21.677299 4.980001 -7.016485 23.322452 0.225815 1.876377 0.059195 0.012966 -238908.000000 0 1 0
21.521799 6.329801 -7.339885 23.603562 0.286045 1.887005 0.044723 0.004941 843996.000000 0 1 0
21.061799 7.107601 -6.228685 23.084928 0.325464 1.843998 0.039660 0.000325 -266976.000000 0 1 0
21.017299 8.611101 -6.534185 23.634159 0.388853 1.850917 0.029951 0.003850 -374646.000000 0 1 0
19.962499 9.041801 -7.394585 23.128671 0.425296 1.896225 -0.002143 0.007764 819103.000000 0 1 0
19.630499 10.421001 -7.366185 23.413979 0.488028 1.890838 0.001844 0.007386 -110284.000000 0 1 0
19.119499 11.061101 -6.088985 22.912419 0.524479 1.839779 0.010148 0.006756 -161886.000000 0 1 0
20.093699 11.221301 -5.035985 23.559191 0.509307 1.786217 0.016895 0.002164 187377.000000 0 1 0
19.709199 12.214401 -4.178585 23.560660 0.554801 1.749094 0.033601 -0.006498 -56067.500000 0 1 0
20.638799 12.498301 -2.958885 24.308899 0.544507 1.692819 0.027357 -0.015736 -244491.000000 0 1 0
21.924799 12.959001 -3.292885 25.680257 0.533824 1.699377 0.025747 -0.022759 -120898.000000 0 0 1
22.757299 13.301301 -2.248685 26.455167 0.528933 1.655899 0.016753 -0.022837 -251814.000000 0 0 1
23.590899 12.128201 -1.635485 26.576279 0.474868 1.632375 0.013924 -0.027451 -992120.000000 0 0 1
24.658599 11.779601 -2.472585 27.439373 0.445655 1.661030 0.016866 -0.022101 -428009.000000 0 0 1
25.419099 10.833001 -1.853485 27.693319 0.402866 1.637775 0.026924 -0.022687 -535605.000000 0 0 1
26.824399 10.558501 -2.451685 28.931662 0.374990 1.655639 0.039732 -0.022479 66644.300000 0 0 1
27.635399 11.731101 -2.426485 30.120123 0.401443 1.651444 0.029035 -0.025137 -823433.000000 0 0 1
28.937899 11.272601 -2.419085 31.150048 0.371461 1.648534 0.025292 -0.021028 -1069400.000000 0 0 1
29.962899 12.349901 -2.018585 32.471065 0.390956 1.633002 0.019068 -0.013939 -849419.000000 0 0 1
29.871499 12.626601 -0.650285 32.437022 0.399919 1.590845 0.024249 -0.010931 167591.000000 0 0 1
30.746899 13.642901 -0.210585 33.638444 0.417616 1.577057 0.033595 -0.007357 228855.000000 0 0 1
32.219199 13.114101 -0.084785 34.785969 0.386550 1.573234 0.051196 -0.010733 688298.000000 0 0 1
33.172999 14.150801 0.315715 36.066504 0.403205 1.562043 0.046777 -0.009916 987031.000000 0 0 1
34.019899 14.714701 -0.692885 37.072308 0.408233 1.589488 0.049242 -0.001661 -184276.000000 0 0 1
33.422999 15.741801 -1.643585 36.981110 0.440169 1.615255 0.011613 0.018810 -315327.000000 0 0 1
32.345699 15.196001 -2.382085 35.816714 0.439197 1.637353 0.030567 0.011734 -101344.000000 0 0 1
31.771299 16.165501 -3.275485 35.797593 0.470669 1.662425 0.014470 0.017415 190405.000000 0 0 1
30.389999 15.718501 -3.800685 34.424824 0.477333 1.681427 0.029540 -0.001198 -727152.000000 0 0 1
30.479099 14.811701 -4.913285 34.241821 0.452355 1.714781 0.011687 -0.002204 303036.000000 0 0 1
29.320699 14.707801 -5.729285 33.299362 0.464941 1.743711 0.022385 -0.013135 960451.000000 0 0 1
28.011199 14.129501 -5.062085 31.778842 0.467180 1.730769 0.026959 -0.018892 696607.000000 0 0 1
27.005499 13.643101 -5.967285 30.838931 0.467797 1.765523 0.037953 -0.023176 1546030.000000 0 0 1
25.867599 13.050601 -5.285285 29.451402 0.467253 1.751232 0.039380 -0.015360 1074340.000000 0 0 1
24.688699 12.705901 -6.240085 28.458925 0.475294 1.791859 0.033886 -0.015169 -223611.000000 0 0 1
24.978299 11.597001 -7.078585 28.434349 0.434668 1.822387 0.039810 -0.011689 108158.000000 0 0 1
23.950999 11.186401 -7.956585 27.606035 0.436945 1.863163 0.042802 -0.014434 -210207.000000 0 0 1
23.750399 12.111901 -9.232185 28.213699 0.471589 1.904160 0.039368 -0.003082 -401148.000000 0 0 1
23.137999 13.228101 -8.741085 28.049175 0.519354 1.887709 0.033631 -0.006891 -79687.200000 0 0 1
23.061599 14.240901 -9.774585 28.812899 0.553199 1.916909 0.027340 -0.006651 -335126.000000 0 0 1
22.338099 15.600801 -9.454685 28.840366 0.609647 1.904800 0.020471 -0.010446 -10842.300000 0 0 1
20.981499 15.526401 -9.113985 27.647010 0.637073 1.906735 0.022038 -0.005207 -177218.000000 0 0 1
20.713499 15.172401 -7.743185 26.818048 0.632199 1.863697 0.027796 -0.007405 -363413.000000 0 0 1
19.281799 14.647601 -7.530785 25.358484 0.649655 1.872317 0.038890 -0.007072 -467687.000000 0 0 1
18.238699 15.550301 -7.639085 25.155867 0.706001 1.879339 0.041358 -0.009869 -128061.000000 0 0 1
16.964499 14.939301 -7.572885 23.839579 0.722005 1.894057 0.048904 -0.014941 176305.000000 0 1 0
16.146999 15.065301 -6.277385 22.958537 0.750756 1.847746 0.052222 -0.011860 -351317.000000 0 1 0
16.735599 14.460501 -5.145385 22.708178 0.712598 1.799369 0.060234 -0.011434 897017.000000 0 1 0
15.926499 14.645701 -3.922485 21.989448 0.743528 1.750136 0.032956 -0.011187 366545.000000 0 1 0
15.835799 13.384701 -3.072885 20.961044 0.701711 1.717926 0.033747 -0.007945 434225.000000 0 1 0
17.130599 13.018201 -2.569685 21.668739 0.649831 1.689666 0.044340 -0.002822 1059090.000000 0 1 0
16.953299 12.280401 -1.346685 20.977039 0.626893 1.635039 0.039204 -0.004514 -65714.600000 0 1 0
16.891299 13.177801 -0.130585 21.423993 0.662522 1.576892 0.045500 -0.008592 344522.000000 0 1 0
15.777099 14.088601 -0.076585 21.152101 0.728922 1.574417 0.035783 -0.012812 1008120.000000 0 1 0
16.007399 14.972801 1.043015 21.943324 0.752015 1.523246 0.041607 -0.009560 341000.000000 0 1 0
14.751499 15.879701 1.310415 21.713793 0.822213 1.510410 0.038313 -0.006723 231274.000000 0 1 0
14.542199 16.921501 0.376815 22.314899 0.860875 1.553909 0.044759 -0.006913 -265888.000000 0 1 0
13.406799 17.574101 0.834515 22.119848 0.919108 1.533060 0.031820 -0.017948 -632554.000000 0 1 0
13.417299 19.042601 0.469215 23.299458 0.956994 1.550657 0.021930 -0.016297 -303532.000000 0 1 0
13.102899 19.209101 -0.929485 23.271000 0.972172 1.610749 0.032850 -0.016419 186174.000000 0 1 0
12.644699 20.512201 -1.216885 24.127155 1.018371 1.621254 0.028224 -0.018640 1125780.000000 0 1 0
11.088399 20.709201 -1.040485 23.513958 1.079205 1.615060 0.022648 -0.018789 818489.000000 0 1 0
10.475099 20.406501 0.173315 22.938679 1.096548 1.563241 0.021099 -0.032456 -162190.000000 0 1 0
9.072999 20.347201 -0.041985 22.278457 1.151350 1.572681 0.022298 -0.022446 526840.000000 0 1 0
8.225299 20.204501 1.238415 21.849738 1.184182 1.514087 0.019616 -0.023250 -23994.800000 0 1 0
8.149899 21.440501 1.980915 23.022597 1.207547 1.484648 0.021283 -0.015349 -396275.000000 0 1 0
7.325099 21.355701 3.074015 22.785359 1.240367 1.435472 0.023175 -0.017779 -593674.000000 0 1 0
6.894999 22.784201 3.535815 24.065802 1.276936 1.423340 0.023693 -0.009130 -126605.000000 0 1 0
7.636499 23.465001 4.534415 25.089506 1.256165 1.389068 0.018411 -0.001915 -12964.700000 0 0 1
7.040999 24.656601 4.944615 26.114610 1.292637 1.380303 0.011551 0.000145 -388234.000000 0 0 1
7.570299 25.125701 6.301715 26.987439 1.278150 1.335115 0.000165 0.004605 -214016.000000 0 0 1
7.285099 24.271601 7.349315 26.385521 1.279203 1.288527 0.006196 -0.008231 25407.100000 0 0 1
7.759099 24.735001 8.592615 27.310381 1.266829 1.250731 0.005040 -0.006061 -188812.000000 0 0 1
7.565699 23.842201 9.845015 26.881493 1.263523 1.195834 0.012720 -0.010372 -84416.000000 0 0 1
6.278699 23.710801 10.413415 26.647014 1.311934 1.169305 0.005225 -0.013939 -57832.400000 0 0 1
6.056899 22.529001 11.164115 25.862702 1.308158 1.124455 -0.003211 -0.013925 -82453.000000 0 0 1
4.745099 22.697201 11.986515 26.102786 1.364704 1.093697 0.008646 -0.017565 9886.390000 0 0 1
3.649799 22.835801 11.113515 25.657456 1.412309 1.122812 0.001347 -0.017853 -826158.000000 0 0 1
2.519099 23.133001 11.906115 26.138806 1.462327 1.097867 -0.008259 -0.022590 -740213.000000 0 0 1
1.349699 23.372501 10.966815 25.852785 1.513113 1.132715 0.022670 -0.019824 -745364.000000 0 0 1
1.464199 24.570901 10.245415 26.661612 1.511276 1.176373 0.025368 -0.014079 556003.000000 0 0 1
0.664699 24.557001 9.011715 26.166756 1.543735 1.219201 0.011053 -0.021508 699040.000000 0 0 1
-0.686701 25.334701 9.017415 26.900416 -1.543698 1.228963 0.018007 -0.025598 628184.000000 0 0 1
-1.648601 24.695501 9.867415 26.644915 -1.504138 1.191432 0.011434 -0.026075 82603.300000 0 0 1
-2.913501 25.237201 9.556415 27.142768 -1.455860 1.211004 0.017892 -0.022018 -24741.200000 0 0 1
-4.122901 24.585901 10.292415 26.970329 -1.404649 1.179248 0.034450 -0.025201 193952.000000 0 0 1
-4.387801 24.888001 11.672715 27.837343 -1.396288 1.138102 0.018221 -0.012700 -576231.000000 0 0 1
-5.409101 25.786801 11.818815 28.877359 -1.364032 1.149136 0.027125 -0.013416 -981323.000000 0 0 1
-6.044901 26.003801 13.177915 29.772402 -1.342391 1.112276 0.013806 0.008839 -34196.600000 0 0 1
-6.935001 24.953301 13.573015 29.240181 -1.299718 1.088076 0.020048 -0.018365 223106.000000 0 0 1
-7.189601 25.051301 14.945015 30.043493 -1.291313 1.050144 0.010460 0.013952 419971.000000 0 0 1
-8.381101 24.128001 15.394415 29.822664 -1.236475 1.028390 0.010728 -0.002337 599562.000000 0 0 1
-9.667401 24.688801 15.253415 30.588596 -1.197578 1.048740 0.008275 -0.001796 -35212.800000 0 0 1
-10.658301 23.800901 15.723915 30.451991 -1.149764 1.028212 0.004968 -0.004435 449192.000000 0 0 1
-12.130001 24.276001 15.596215 31.300208 -1.107412 1.049184 0.005254 -0.010152 100887.000000 0 0 1
-12.597901 25.170701 16.578015 32.666525 -1.106750 1.038524 0.013796 -0.022384 -301893.000000 0 0 1
-13.564301 26.034401 16.072415 33.467937 -1.090479 1.069876 0.007255 -0.019835 -863725.000000 0 0 1
-14.021601 27.100701 17.054115 34.955631 -1.093335 1.061138 0.029603 -0.022191 -829709.000000 0 0 1
-15.011401 26.613201 17.897915 35.411015 -1.057224 1.040912 0.024367 -0.024087 -304348.000000 0 0 1
-15.568301 27.680701 18.624215 36.816499 -1.058464 1.040411 0.041552 -0.022331 -386566.000000 0 0 1
-16.844101 27.418301 19.452915 37.601900 -1.019901 1.027058 0.034855 -0.022054 -299847.000000 0 0 1
-17.977501 27.460101 18.619215 37.734902 -0.991140 1.054777 0.033109 -0.025201 -619131.000000 0 0 1
-18.977801 26.691501 19.257115 37.992494 -0.952722 1.039251 0.030470 -0.021985 -72717.100000 0 0 1
-20.291601 26.705701 18.437815 38.273967 -0.921038 1.068166 0.038020 -0.025291 -206976.000000 0 0 1
-20.870701 27.983101 18.303115 39.416292 -0.929968 1.087891 0.021921 -0.022112 233998.000000 0 0 1
-21.745201 27.989001 17.177115 39.386434 -0.910288 1.119517 0.022993 -0.023775 -490245.000000 0 0 1
-22.630401 29.221101 17.002715 40.682921 -0.911827 1.139628 0.014925 -0.020316 206053.000000 0 0 1
-23.817301 29.240801 17.796715 41.701455 -0.887262 1.129884 -0.003779 -0.019567 616549.000000 0 0 1
-24.587801 30.417201 17.501115 42.849213 -0.890983 1.150058 -0.013208 -0.011171 -73427.200000 0 0 1
-25.998361 30.478101 18.083115 43.952570 -0.864553 1.146781 -0.024660 -0.003727 -142187.000000 0 0 1
-26.907371 29.555401 17.462715 43.617367 -0.832263 1.158885 -0.006908 -0.007730 1637820.000000 0 0 1
-28.200961 29.471501 18.154415 44.648027 -0.807425 1.152054 0.014239 -0.012724 1460700.000000 0 0 1
-28.484651 28.229201 19.026315 44.387653 -0.780894 1.127810 0.004354 -0.011301 -664128.000000 0 0 1
-28.708641 26.995901 18.302415 43.450467 -0.754661 1.136001 0.019854 -0.018592 129743.000000 0 0 1
-28.936661 25.933201 19.215315 43.348467 -0.730715 1.111547 0.012074 -0.014735 -115646.000000 0 0 1
-29.040721 24.543501 18.584815 42.321888 -0.701666 1.116166 0.023552 -0.019433 -718702.000000 0 0 1
-30.193901 24.304901 17.871415 42.682401 -0.677758 1.138775 0.041193 -0.018859 -619086.000000 0 0 1
-29.945091 23.246801 16.978515 41.537840 -0.660131 1.149714 0.044725 -0.014558 -489489.000000 0 0 1
-30.498461 21.821301 17.148715 41.235952 -0.621046 1.141899 0.046973 -0.012418 -810075.000000 0 0 1
-31.794071 21.681701 16.674415 41.940377 -0.598503 1.161925 0.053447 -0.008369 -659245.000000 0 0 1
-32.179811 20.304901 16.890215 41.630621 -0.562890 1.153034 0.048116 -0.009170 1772100.000000 0 0 1
-33.610171 19.821601 16.320715 42.295451 -0.532849 1.174641 0.052819 -0.018908 1501660.000000 0 0 1
-33.561951 19.731201 14.904915 41.687904 -0.531478 1.205168 0.052362 -0.018689 -1016950.000000 0 0 1
-34.802950 19.580101 14.347115 42.431891 -0.512465 1.225877 0.062333 -0.020222 -901371.000000 0 0 1
-34.814506 19.863701 12.864215 42.096371 -0.518490 1.260239 0.071718 -0.013273 -16881.100000 0 0 1
-34.779725 21.278401 12.612615 42.678773 -0.549054 1.270792 0.062677 -0.019121 9019.860000 0 0 1
-34.919125 21.651501 11.241815 42.597079 -0.555030 1.303722 0.041898 -0.016817 -8920.050000 0 0 1
-33.757911 21.261801 10.282715 41.199453 -0.562066 1.318546 0.059434 -0.020693 -130170.000000 0 0 1
-33.730301 19.900701 9.825315 40.377071 -0.533030 1.324990 0.078783 -0.020183 413968.000000 0 0 1
-32.470671 19.643801 9.205815 39.050869 -0.544066 1.332817 0.102765 -0.020732 598839.000000 0 0 1
-31.579721 18.658301 10.051215 38.032064 -0.533651 1.303336 0.094189 -0.025822 144998.000000 0 0 1
-31.227131 19.171301 11.333215 38.355107 -0.550600 1.270837 0.091401 -0.020504 89643.100000 0 0 1
-30.686081 18.218301 12.198115 37.713871 -0.535774 1.241435 0.069581 -0.022118 -59555.900000 0 0 1
-30.475971 18.856501 13.645215 38.347677 -0.554080 1.206995 0.054034 -0.006324 214066.000000 0 0 1
-29.271801 19.616201 13.669415 37.795325 -0.590403 1.200738 0.043260 -0.004936 110888.000000 0 0 1
-29.349901 21.021401 13.348015 38.490070 -0.621538 1.216649 0.038531 0.002520 393686.000000 0 0 1
-27.983231 21.704301 13.655015 37.955201 -0.659696 1.202779 0.045082 -0.009061 516458.000000 0 0 1
-27.655491 21.847701 15.040015 38.319059 -0.668611 1.167454 0.048420 -0.001337 -35686.000000 0 0 1
-26.554851 22.702801 15.287915 38.135254 -0.707355 1.158312 0.042479 -0.016306 -456289.000000 0 0 1
-26.037141 22.421501 16.695515 38.202050 -0.710923 1.118500 0.046613 -0.016875 -606177.000000 0 0 1
-25.334331 21.211101 16.730415 37.035738 -0.697044 1.102085 0.054215 -0.012739 69602.100000 0 0 1
-24.921101 20.914001 18.047615 37.204477 -0.698196 1.064327 0.049246 -0.007801 -736808.000000 0 0 1
-23.957701 19.779501 18.151415 35.981578 -0.690158 1.042035 0.048399 -0.006963 -536431.000000 0 0 1
-23.481001 19.746701 19.509515 36.358091 -0.699225 1.004401 0.038116 -0.006606 -232742.000000 0 0 1
-22.525701 18.733201 19.583815 35.240117 -0.693736 0.981562 0.033679 -0.003294 -238823.000000 0 0 1
-21.989201 18.510201 21.021715 35.609900 -0.699706 0.939324 0.032622 -0.001538 95505.900000 0 0 1
-23.002801 17.969801 21.846115 36.459502 -0.663172 0.928309 0.026147 0.007442 463946.000000 0 0 1
-22.750501 18.287301 23.209115 37.291737 -0.677066 0.899034 0.025769 0.009415 598628.000000 0 0 1
-23.761701 17.433001 24.045315 38.035577 -0.632961 0.886433 0.003430 0.012390 21756.900000 0 0 1
-23.187201 16.143701 24.090215 37.129554 -0.608193 0.864770 0.004366 0.004031 297895.000000 0 0 1
-24.029901 15.206901 24.732915 37.688235 -0.564212 0.854958 -0.005214 0.000069 -56504.800000 0 0 1
20.027199 25.070401 34.093247 46.818406 0.896764 0.755102 0.068705 -0.002412 502617.000000 0 0 1
21.110599 24.249301 33.646577 46.537921 0.854484 0.762672 0.065112 -0.007796 111665.000000 0 0 1
21.026199 22.903901 34.015373 46.084003 0.828115 0.740522 0.068038 -0.005871 180792.000000 0 0 1
19.942499 21.951401 33.385187 44.655772 0.833314 0.726337 0.053484 0.000048 367940.000000 0 0 1
20.118799 21.677601 31.997482 43.572047 0.822676 0.746076 0.058251 0.006987 119556.000000 0 0 1
19.311699 20.577701 31.558812 42.336062 0.817125 0.729608 0.035786 0.007973 -51090.500000 0 0 1
19.589999 20.067301 30.156732 41.181223 0.797433 0.749113 0.021431 0.023213 -277931.000000 0 0 1
20.827999 19.409301 30.052382 41.396524 0.750154 0.758361 0.036588 0.010403 -337013.000000 0 0 1
20.896499 18.654101 28.828382 40.195954 0.728762 0.771026 0.010115 0.007725 137917.000000 0 0 1
22.001099 17.570301 28.970882 40.398958 0.673893 0.771136 0.017122 0.005042 131675.000000 0 0 1
23.299999 18.105801 29.138952 41.470333 0.660604 0.791687 0.020330 0.004664 -883441.000000 0 0 1
24.176599 17.124701 29.578682 41.864803 0.616286 0.786215 0.017235 0.019064 -1124930.000000 0 0 1
25.519599 17.826001 29.626632 42.973871 0.609733 0.810122 0.027784 0.006581 -813731.000000 0 0 1
26.247999 18.055901 28.427382 42.697647 0.602556 0.842253 0.026612 0.015100 302476.000000 0 0 1
27.550299 18.537601 28.707592 43.895187 0.592281 0.857932 0.039474 0.017961 672323.000000 0 0 1
28.584199 18.494001 27.536522 43.787493 0.574264 0.890701 0.044092 0.012575 310160.000000 0 0 1
28.456699 19.516201 26.547182 43.536406 0.601146 0.915026 0.056050 0.003093 -60777.000000 0 0 1
29.531799 19.544301 25.637092 43.719187 0.584629 0.944184 0.053780 -0.005260 -307916.000000 0 0 1
29.632699 20.729101 24.632772 43.755753 0.610414 0.972833 0.055583 -0.011124 -93105.300000 0 0 1
28.570499 20.898501 23.710962 42.605522 0.631537 0.980601 0.042386 -0.011628 -752.560000 0 0 1
28.881299 21.803601 22.689762 42.712431 0.646654 1.010755 0.035280 -0.024372 -254401.000000 0 0 1
29.914099 21.325301 21.647562 42.640810 0.619321 1.038315 0.050769 -0.011066 -288629.000000 0 0 1
29.354899 20.336601 20.793862 41.323990 0.605866 1.043509 0.041189 -0.000343 468677.000000 0 0 1
30.239299 19.581501 19.950862 41.181152 0.574652 1.065044 0.058835 0.001127 931144.000000 0 0 1
31.423099 18.728301 20.583062 41.974073 0.537476 1.058276 0.062412 0.000734 570750.000000 0 0 1
31.041699 17.418801 21.025162 41.340768 0.511357 1.037259 0.068127 0.004669 -907991.000000 0 0 1
32.085599 16.579201 21.205362 41.881057 0.476932 1.039880 0.061627 -0.001948 -1654950.000000 0 0 1
31.663499 15.073801 20.994862 40.872740 0.444315 1.031346 0.059243 0.000838 391680.000000 0 0 1
30.858299 14.413701 21.980862 40.535758 0.436977 0.997673 0.051585 0.004140 365817.000000 0 0 1
29.523799 14.842001 22.010562 39.703961 0.465816 0.983194 0.048472 0.002744 -642522.000000 0 0 1
28.599099 14.277301 23.103362 39.440019 0.463025 0.944948 0.050466 0.001136 80249.200000 0 0 1
28.294499 12.859901 22.944462 38.631646 0.426591 0.934862 0.049865 0.002948 341541.000000 0 0 1
27.633399 12.266701 24.095472 38.660942 0.417777 0.897903 0.046531 0.008553 101311.000000 0 0 1
26.975699 10.915901 23.843202 37.621051 0.384514 0.884375 0.040112 0.005451 -628210.000000 0 0 1
25.834899 11.077301 23.060362 36.358340 0.405062 0.883755 0.041166 0.007987 -400848.000000 0 0 1
25.391099 9.801401 22.615862 35.387181 0.368394 0.877472 0.024983 0.009683 -451192.000000 0 0 1
24.116099 9.695701 21.792362 33.919020 0.382266 0.873063 0.023430 0.001497 -360856.000000 0 0 1
22.929699 9.606101 22.551162 33.564910 0.396724 0.834069 0.018111 0.002749 -631600.000000 0 0 1
21.840099 9.431601 21.727962 32.218773 0.407657 0.830660 0.003969 0.014187 -192900.000000 0 0 1
20.458899 9.515501 22.449662 31.829210 0.435343 0.787927 0.006030 -0.000077 377841.000000 0 0 1
20.182099 8.488301 23.451062 32.083028 0.398126 0.751085 0.020686 0.004504 1009320.000000 0 0 1
18.839599 8.612401 23.959612 31.672811 0.428779 0.712894 0.029029 0.002138 751562.000000 0 0 1
18.570299 7.751701 25.220952 32.265171 0.395437 0.673446 0.039039 0.005685 -334750.000000 0 0 1
18.074299 6.464401 24.937302 31.469633 0.343480 0.656023 0.033674 0.001835 248476.000000 0 0 1
18.024999 5.728201 26.159032 32.280146 0.307699 0.626004 0.024618 -0.006169 -62446.000000 0 0 1
18.272999 4.217701 26.012842 32.068044 0.226843 0.624635 0.027773 -0.011856 -95899.600000 0 0 1
19.614999 3.942701 25.702782 32.571860 0.198361 0.661438 0.029998 -0.005578 -338815.000000 0 0 1
19.955599 2.564601 25.763242 32.688649 0.127815 0.663015 0.019801 -0.000742 -509847.000000 0 0 1
21.468499 2.428901 25.539502 33.452387 0.112659 0.702145 0.027020 -0.001489 -751652.000000 0 0 1
22.076899 2.895101 26.678462 34.749265 0.130393 0.695487 0.036744 -0.009647 -267388.000000 0 0 1
23.472599 2.848201 26.402452 35.442413 0.120751 0.730352 0.043265 -0.011655 643024.000000 0 0 1
24.436599 3.301301 27.546012 36.970647 0.134284 0.730145 0.047832 -0.014585 -141818.000000 0 0 1
24.656399 2.343701 28.508892 37.764903 0.094770 0.715288 0.057044 -0.020443 359975.000000 0 0 1
25.492999 2.735501 29.608732 39.166988 0.106895 0.713675 0.056389 -0.014602 819555.000000 0 0 1
27.036799 2.783801 29.438392 40.066906 0.102602 0.745527 0.051460 -0.008716 -150219.000000 0 0 1
27.387399 3.897501 28.615292 39.800692 0.141361 0.768485 0.045912 -0.005098 497985.000000 0 0 1
28.764299 4.012701 28.242462 40.510780 0.138608 0.799369 0.049355 -0.002123 613315.000000 0 0 1
29.268699 3.050301 27.122212 40.019688 0.103842 0.826136 0.050807 -0.009125 -385051.000000 0 0 1
28.950199 3.429501 25.812532 38.937929 0.117913 0.846091 0.036116 -0.002824 -57464.800000 0 0 1
29.248099 2.357701 24.938952 38.509238 0.080436 0.866353 0.042064 0.004502 -269700.000000 0 0 1
28.800499 2.529801 23.460862 37.232790 0.087614 0.889098 0.052791 -0.010870 -119468.000000 0 0 1
29.536599 3.396901 22.659062 37.381583 0.114503 0.919578 0.032098 -0.009022 -481812.000000 0 0 1
30.889899 3.063201 22.410262 38.285623 0.098842 0.945492 0.024922 -0.008272 -227563.000000 0 0 1
31.635099 4.195201 21.686862 38.583665 0.131843 0.973905 0.026104 -0.014488 -520036.000000 0 0 1
31.220399 4.537601 20.380462 37.558839 0.144330 0.997234 0.019117 -0.024051 -263455.000000 0 0 1
31.511399 5.870901 19.906862 37.732200 0.184198 1.015044 0.025802 -0.009745 300385.000000 0 0 1
33.026099 6.117201 19.624062 38.900478 0.183148 1.042030 0.014750 -0.010089 -199509.000000 0 0 1
33.896399 6.198001 20.719162 40.207770 0.180853 1.029436 0.019830 -0.005323 12010.000000 0 0 1
33.887199 7.302601 21.559762 40.822709 0.212251 1.014398 0.024988 -0.006863 -455516.000000 0 0 1
34.705399 7.001101 22.838762 42.131807 0.199058 0.997887 0.027683 -0.011534 -7794.050000 0 0 1
34.007399 6.098201 23.693462 41.893572 0.177434 0.969680 0.021556 -0.003448 143883.000000 0 0 1
34.586699 5.912801 24.959032 43.059891 0.169319 0.952515 0.030287 -0.004879 -107300.000000 0 0 1
33.755699 4.927201 25.817612 42.781697 0.144943 0.922946 0.033940 -0.002568 99568.700000 0 0 1
33.840499 3.617701 25.273812 42.391423 0.106500 0.932035 0.032699 -0.003393 41282.400000 0 0 1
33.196699 2.648401 26.077962 42.297694 0.079610 0.906464 0.038217 -0.002510 -21869.100000 0 0 1
33.426499 1.260501 25.470172 42.043422 0.037692 0.920017 0.031943 -0.008907 -307217.000000 0 0 1
32.663399 0.921401 24.347782 40.749983 0.028201 0.930427 0.038333 -0.016038 -385055.000000 0 0 1
32.726399 -0.435099 24.066832 40.625348 -0.013294 0.936750 0.044400 -0.010131 -44771.800000 0 0 1
31.508699 -0.967899 23.295062 39.196873 -0.030709 0.934390 0.044925 -0.009034 513304.000000 0 0 1
30.281299 -0.994799 24.025522 38.667459 -0.032840 0.900348 0.049395 -0.004991 394695.000000 0 0 1
29.292099 -1.772899 23.346362 37.499638 -0.060451 0.898767 0.059683 -0.013663 1098650.000000 0 0 1
27.843999 -1.605499 23.918242 36.741641 -0.057597 0.861916 0.051318 -0.010859 801776.000000 0 0 1
27.280599 -0.320099 23.612562 36.081666 -0.011733 0.857381 0.042770 -0.004587 450441.000000 0 0 1
25.854099 -0.352499 23.586662 34.998419 -0.013633 0.831274 0.046202 -0.010730 582012.000000 0 0 1
25.140699 0.947701 23.263562 34.265817 0.037678 0.824513 0.042186 0.003340 -138733.000000 0 0 1
25.414799 1.504701 22.042562 33.675669 0.059137 0.857203 0.034723 -0.005782 -70386.200000 0 0 1
24.574699 2.615101 21.878362 33.006322 0.106015 0.846173 0.024774 -0.004185 6255.780000 0 0 1
24.938599 3.438701 20.629162 32.547207 0.137023 0.884311 0.026339 -0.010680 -73487.800000 0 0 1
24.509899 2.836701 19.418162 31.398201 0.115224 0.904030 0.022610 -0.007592 5092.350000 0 0 1
23.700099 3.727701 18.706762 30.422580 0.156008 0.908541 0.019767 -0.010425 45999.100000 0 0 1
23.413599 3.322901 17.232162 29.260651 0.140980 0.941075 0.016702 -0.011378 76695.300000 0 0 1
24.574799 3.660001 16.490162 29.820158 0.147846 0.984851 0.011621 -0.005026 126229.000000 0 0 1
24.532799 3.608401 15.060162 29.011847 0.146038 1.024994 0.010376 -0.010857 -657421.000000 0 0 1
24.255199 2.288701 14.287262 28.243206 0.094081 1.040411 0.012754 -0.009083 -479668.000000 0 0 1
22.910499 1.934501 14.332462 27.093407 0.084237 1.013372 0.049413 -0.007091 -345902.000000 0 0 1
22.501599 0.731201 13.672862 26.340155 0.032484 1.025013 0.060510 -0.010886 311900.000000 0 0 1
20.979899 0.380301 13.685162 25.051636 0.018125 0.992882 0.089452 -0.019547 710553.000000 0 0 1
20.079999 0.958101 12.733662 23.796438 0.047678 1.006161 0.101544 -0.015448 642764.000000 0 1 0
20.185299 0.638101 11.361762 23.172033 0.031602 1.058337 0.098717 -0.014858 -820401.000000 0 1 0
20.037099 -0.828799 10.803462 22.779092 -0.041340 1.076661 0.109291 -0.017223 1031170.000000 0 1 0
21.075299 -1.815999 11.187562 23.929639 -0.085955 1.084314 0.087239 -0.022930 2411800.000000 0 1 0
22.361999 -1.644099 10.516362 24.766024 -0.073390 1.132245 0.094923 -0.017874 710938.000000 0 1 0
23.470699 -2.448299 11.193962 26.118435 -0.103937 1.127871 0.080349 -0.024262 -405447.000000 0 0 1
23.759799 -1.874799 12.434162 26.882175 -0.078743 1.089935 0.071337 -0.030585 -18097.700000 0 0 1
24.540099 -2.832599 13.124062 27.972863 -0.114919 1.082444 0.040281 -0.023998 -38643.200000 0 0 1
24.727699 -2.557099 14.603562 28.831613 -0.103044 1.039662 0.034256 -0.019040 30808.700000 0 0 1
25.608199 -1.470599 14.806662 29.617221 -0.057364 1.047274 0.019410 -0.019625 -116881.000000 0 0 1
25.725899 -1.076799 16.144462 30.391200 -0.041832 1.010755 0.020856 -0.027519 -585662.000000 0 0 1
26.970899 -0.235499 16.351262 31.541221 -0.008731 1.025807 0.024301 -0.025189 -1006280.000000 0 0 1
28.120899 -1.003599 16.196962 32.467426 -0.035674 1.048504 0.024966 -0.026277 -1142570.000000 0 0 1
29.217899 -0.154299 16.365062 33.489173 -0.005281 1.060235 0.013751 -0.025237 -691353.000000 0 0 1
30.565399 -0.878899 16.444162 34.719253 -0.028747 1.077386 0.029859 -0.021813 -363238.000000 0 0 1
30.949999 -1.306899 15.146362 34.482209 -0.042201 1.116031 0.033217 -0.022699 -795184.000000 0 0 1
32.148399 -1.982999 15.254062 35.638999 -0.061605 1.128500 0.033572 -0.017738 -800178.000000 0 0 1
32.435999 -2.670399 13.924962 35.399571 -0.082143 1.166507 0.037125 -0.024593 -204039.000000 0 0 1
32.915799 -1.796699 12.940662 35.413821 -0.054531 1.196720 0.038957 -0.027960 56770.800000 0 0 1
33.455899 -2.456599 11.845862 35.576067 -0.073296 1.231342 0.042215 -0.025255 -121334.000000 0 0 1
33.027299 -1.692299 10.550762 34.712893 -0.051195 1.261967 0.055839 -0.016325 -118470.000000 0 0 1
33.356499 -0.318999 10.405562 34.943290 -0.009563 1.268426 0.040614 -0.008729 -251260.000000 0 0 1
32.342599 0.339301 9.739262 33.778870 0.010490 1.278320 0.025341 -0.010356 -888636.000000 0 0 1
32.603799 1.827401 9.314962 33.957556 0.055990 1.292922 0.020572 -0.013651 -139493.000000 0 0 1
33.579399 1.898101 8.307762 34.643870 0.056466 1.328632 0.041178 -0.011932 189746.000000 0 0 1
33.606999 3.207501 7.780962 34.644795 0.095153 1.344271 0.039306 -0.014308 -50286.600000 0 0 1
34.478699 3.333301 6.503962 35.244760 0.096378 1.385196 0.049383 -0.016745 -114511.000000 0 0 1
34.613999 4.704401 6.126062 35.465320 0.135083 1.397192 0.033109 -0.013915 -23437.400000 0 0 1
34.860299 4.742101 4.785562 35.505346 0.135202 1.435601 0.045607 -0.014814 -355618.000000 0 0 1
35.496099 6.074401 4.368462 36.276092 0.169487 1.450081 0.054007 -0.029484 -243305.000000 0 0 1
34.605699 7.177401 4.487062 35.625878 0.204506 1.444511 0.061875 -0.026202 -75796.800000 0 0 1
34.976599 8.426201 3.927862 36.191041 0.236405 1.462051 0.060750 -0.034454 -1001050.000000 0 0 1
33.770399 9.358701 3.831462 35.252025 0.270343 1.461893 0.071067 -0.036104 492996.000000 0 0 1
32.725299 9.159101 2.875062 34.104256 0.272896 1.486394 0.070090 -0.033206 764487.000000 0 0 1
32.010599 7.918001 2.884262 33.101241 0.242488 1.483551 0.081151 -0.023883 -462192.000000 0 0 1
30.825499 7.954101 1.892462 31.891386 0.252528 1.511421 0.080573 -0.025693 15409.800000 0 0 1
31.198199 7.839801 0.531362 32.172542 0.246193 1.554280 0.075034 -0.029595 177614.000000 0 0 1
30.059899 7.758801 -0.300038 31.046522 0.252598 1.580461 0.074409 -0.021649 -13444.000000 0 0 1
30.431499 7.702701 -1.780538 31.441661 0.247909 1.627457 0.052594 -0.013497 17774.900000 0 0 1
29.380599 7.084201 -2.505638 30.326288 0.236602 1.653513 0.062480 -0.016412 858069.000000 0 0 1
29.805999 6.961901 -3.828338 30.846747 0.229460 1.695225 0.056648 -0.016831 -353525.000000 0 0 1
28.781699 6.250001 -4.716538 29.827746 0.213832 1.729589 0.066038 -0.015379 -637449.000000 0 0 1
28.765099 4.827201 -4.474438 29.508531 0.166265 1.723015 0.068158 -0.014786 1071730.000000 0 0 1
27.783999 4.167301 -5.296738 28.589726 0.148879 1.757140 0.069259 -0.010578 -66205.800000 0 0 1
27.640299 2.664901 -5.157838 28.243426 0.096117 1.754448 0.081473 -0.006736 -840939.000000 0 0 1
27.123599 2.238501 -3.928538 27.497889 0.082343 1.714154 0.095929 -0.022123 489313.000000 0 0 1
26.915199 0.833401 -3.848238 27.201681 0.030954 1.712743 0.082061 -0.027857 -120289.000000 0 0 1
26.858799 0.204601 -2.403638 26.966914 0.007617 1.660048 0.087656 -0.030323 -407479.000000 0 0 1
28.134099 0.321201 -1.852638 28.196861 0.011416 1.636547 0.074862 -0.024999 -161259.000000 0 0 1
28.085799 0.173101 -0.446638 28.089884 0.006163 1.586697 0.079546 -0.017449 -840217.000000 0 0 1
29.411999 0.545901 0.157062 29.417484 0.018558 1.565457 0.081986 -0.018447 -914961.000000 0 0 1
30.518599 -0.239599 -0.248838 30.520554 -0.007851 1.578950 0.059734 -0.012333 -302118.000000 0 0 1
31.664099 0.317201 0.305862 31.667165 0.010017 1.561138 0.029712 -0.014694 -928125.000000 0 0 1
-2.792501 -21.317399 -8.342185 23.061258 1.440542 1.940930 0.008172 -0.000725 191278.000000 0 1 0
-3.446701 -21.958599 -7.278285 23.388742 1.415103 1.887239 0.009497 0.003227 6810.100000 0 1 0
-2.818001 -23.201799 -6.938185 24.380382 1.449932 1.859365 0.011102 0.002579 -40549.700000 0 1 0
-3.431801 -23.794499 -5.703285 24.707952 1.427557 1.803725 0.008331 0.007088 -570802.000000 0 1 0
-3.102701 -23.020699 -4.554785 23.671194 1.436825 1.764423 0.006074 0.005375 229345.000000 0 1 0
-3.621201 -23.733199 -3.437685 24.252743 1.419385 1.713019 0.004730 -0.001127 -214032.000000 0 1 0
-3.240901 -23.056499 -2.078485 23.375750 1.431148 1.659830 -0.005107 -0.002920 -388803.000000 0 1 0
-1.886701 -22.961299 -1.704985 23.101686 1.488812 1.644667 0.007748 -0.007736 -465641.000000 0 1 0
-1.761301 -22.438999 -0.381985 22.511259 1.492464 1.587766 0.010889 -0.015179 -747744.000000 0 1 0
-0.328301 -22.422099 0.067715 22.424605 1.556156 1.567777 0.004791 -0.020046 -692511.000000 0 1 0
0.537499 -21.479099 -0.532185 21.492413 -1.545777 1.595560 -0.002985 -0.018025 208152.000000 0 1 0
1.858899 -21.640599 -0.016785 21.720298 -1.485108 1.571569 0.007228 -0.011730 706993.000000 0 1 0
2.812399 -20.447999 -0.306585 20.642777 -1.434115 1.585649 0.018010 -0.014132 331101.000000 0 1 0
3.202299 -20.430699 -1.673985 20.747781 -1.415322 1.651567 0.022853 -0.022480 -849753.000000 0 1 0
4.370699 -19.718999 -1.899785 20.286723 -1.352674 1.664580 0.030345 -0.019746 -475204.000000 0 1 0
5.111999 -20.301499 -3.142985 21.169831 -1.324120 1.719813 0.033165 -0.013384 128946.000000 0 1 0
6.314199 -20.955999 -2.694385 22.051819 -1.278140 1.693287 0.045630 -0.024928 327872.000000 0 1 0
6.878699 -21.619799 -3.816585 23.006489 -1.262757 1.737458 0.036259 -0.020480 613062.000000 0 1 0
8.132999 -20.990899 -4.502285 22.957223 -1.201152 1.768192 0.048464 -0.012745 492016.000000 0 1 0
7.771799 -19.777399 -5.163585 21.867990 -1.196370 1.809173 0.023813 -0.013349 725378.000000 0 1 0
8.981299 -19.232699 -5.707185 21.980273 -1.133911 1.833456 0.033371 -0.014616 424004.000000 0 1 0
8.712799 -18.005199 -6.602785 21.064113 -1.120108 1.889632 0.017065 -0.007507 -595675.000000 0 1 0
9.802399 -17.848099 -7.422985 21.673541 -1.068558 1.920363 0.022810 -0.003371 -414725.000000 0 1 0
9.603199 -16.681199 -8.119685 20.890503 -1.048444 1.969993 0.019312 -0.002580 172115.000000 0 1 0
10.070499 -16.624099 -9.619085 21.686457 -1.026140 2.030355 0.015978 -0.004818 -372514.000000 0 1 0
9.380799 -17.413399 -10.532885 22.409095 -1.076661 2.060118 0.014459 -0.004398 -423705.000000 0 1 0
8.841699 -16.610899 -11.537085 22.072652 -1.081657 2.120796 0.010122 -0.009301 78887.500000 0 1 0
8.385699 -17.433099 -12.826585 23.211079 -1.122446 2.156284 0.010914 -0.007958 -32122.100000 0 1 0
7.238999 -18.207399 -12.622885 23.307718 -1.192373 2.143106 0.008116 -0.003125 -264556.000000 0 1 0
6.604399 -18.589599 -13.814685 24.083953 -1.229431 2.181697 0.007180 -0.003692 -330227.000000 0 1 0
5.299199 -19.340299 -13.584185 24.221040 -1.303362 2.166199 0.009948 0.000397 -293722.000000 0 1 0
5.584199 -20.633499 -13.132885 25.087791 -1.306490 2.121723 0.016447 -0.001275 -529005.000000 0 0 1
4.410499 -21.202999 -12.683385 25.097568 -1.365708 2.100599 0.022954 -0.003967 -675441.000000 0 0 1
4.586599 -22.714699 -12.450285 26.305970 -1.371553 2.063815 0.018267 -0.003356 -12890.300000 0 0 1
4.806099 -23.365999 -13.671885 27.495253 -1.367938 2.091217 0.020119 -0.007000 -64823.700000 0 0 1
4.781699 -24.767099 -13.644585 28.678364 -1.380076 2.066647 0.010615 -0.007671 401770.000000 0 0 1
3.376899 -25.307299 -14.077785 29.155563 -1.438144 2.074703 0.017551 -0.008898 206857.000000 0 0 1
2.384399 -24.962899 -13.132785 28.307274 -1.475568 2.053230 0.030152 -0.006207 -532269.000000 0 0 1
1.107899 -25.307049 -13.606985 28.754551 -1.527046 2.063729 0.022543 -0.009901 101910.000000 0 0 1
0.512099 -26.689159 -13.125685 29.746547 -1.551611 2.027788 0.011225 -0.003911 -480781.000000 0 0 1
1.100599 -27.779279 -13.821185 31.047139 -1.531198 2.032158 0.009804 -0.000748 123053.000000 0 0 1
0.485999 -29.025199 -13.561585 32.040833 -1.554054 2.007836 0.000552 0.000145 1022320.000000 0 0 1
-1.013901 -29.347229 -13.943185 32.506927 1.536262 2.014104 -0.004196 -0.000486 1464750.000000 0 0 1
-1.995301 -28.643319 -13.199885 31.601550 1.501248 2.001706 0.001495 -0.002238 756925.000000 0 0 1
-3.356201 -29.013779 -13.473385 32.165130 1.455632 2.003010 0.011683 0.002213 853518.000000 0 0 1
-4.408901 -28.078679 -12.819285 31.179877 1.415048 1.994500 0.005336 -0.001036 166334.000000 0 0 1
-4.633101 -28.130949 -11.406785 30.707176 1.407564 1.951388 0.013702 -0.012830 18496.600000 0 0 1
-5.046901 -29.406169 -10.870385 31.754673 1.400825 1.920186 0.003087 -0.005245 -439213.000000 0 0 1
-5.518701 -29.498839 -9.363585 31.437467 1.385852 1.873234 0.012357 -0.009436 -43425.900000 0 0 1
-6.861501 -29.091459 -9.218985 31.279113 1.339170 1.869972 0.021862 -0.010679 -257335.000000 0 0 1
-7.077701 -27.720369 -9.062485 30.010687 1.320812 1.877560 0.028764 -0.010205 -904166.000000 0 0 1
-8.556701 -27.333459 -8.862685 29.981366 1.267412 1.870887 0.022686 -0.006486 11812.800000 0 0 1
-9.480101 -27.455659 -9.905185 30.688731 1.238326 1.899444 0.029537 -0.007088 -223303.000000 0 0 1
-9.754301 -28.729899 -10.330685 32.051155 1.243490 1.898974 0.031148 -0.010651 -274586.000000 0 0 1
-11.170901 -28.774149 -11.002385 32.768784 1.200480 1.913206 0.040238 -0.007364 308616.000000 0 0 1
-11.167701 -28.269329 -12.313185 32.794619 1.194567 1.955693 0.043824 -0.005574 -48038.500000 0 0 1
-11.858701 -29.060869 -13.258585 34.072760 1.183357 1.970479 0.054655 -0.004120 -168639.000000 0 0 1
-12.085701 -28.299919 -14.571385 34.048126 1.167184 2.013036 0.058714 -0.006734 114698.000000 0 0 1
-13.142601 -27.340659 -14.592685 33.662829 1.122709 2.019164 0.049446 -0.015885 153798.000000 0 0 1
-12.892101 -26.197399 -13.775385 32.284226 1.113478 2.011627 0.041613 -0.005488 89942.100000 0 0 1
-13.828501 -24.940299 -13.908785 31.728540 1.064532 2.024579 0.060138 -0.005738 -288354.000000 0 0 1
-13.628501 -24.203799 -15.137185 31.633753 1.057972 2.069758 0.047712 -0.006910 44070.400000 0 0 1
-14.576201 -23.211499 -15.445085 31.460928 1.010062 2.083952 0.054399 -0.005483 -712380.000000 0 0 1
-14.424401 -22.464399 -16.744685 31.513442 0.999994 2.130990 0.047536 -0.003276 -282683.000000 0 0 1
-13.435701 -21.474699 -16.661785 30.319892 1.011728 2.152602 0.032406 0.003919 164040.000000 0 0 1
-13.317101 -20.732799 -17.895785 30.454117 0.999839 2.198924 0.030188 0.008610 -283362.000000 0 0 1
-13.319501 -19.189799 -17.734485 29.328646 0.964046 2.220162 0.023091 0.011316 362668.000000 0 0 1
-12.090701 -18.467199 -17.848285 28.386331 0.991116 2.250758 0.028475 0.018162 639856.000000 0 0 1
-12.446301 -17.088699 -17.799585 27.636195 0.941305 2.270600 0.041806 0.012257 849937.000000 0 0 1
-11.164601 -16.193099 -17.906985 26.599340 0.967175 2.309340 0.050335 0.009076 1208610.000000 0 0 1
-10.316301 -16.212399 -16.721685 25.473176 1.004097 2.286890 0.041247 0.015452 79944.400000 0 0 1
-9.075601 -15.643799 -17.015885 24.832143 1.045107 2.325724 0.036918 0.009018 -1199210.000000 0 1 0
-8.484301 -14.929399 -15.804285 23.337647 1.054016 2.314749 0.027854 0.010568 -371877.000000 0 1 0
-8.047201 -15.704999 -14.687485 22.959239 1.097280 2.264930 0.031268 0.011679 328360.000000 0 1 0
-6.962901 -16.571799 -15.001085 23.412370 1.173028 2.266249 0.037612 0.008385 -591791.000000 0 1 0
-6.515901 -17.474699 -13.845585 23.227620 1.213889 2.209410 0.031930 0.012738 -951022.000000 0 1 0
-6.056401 -16.720299 -12.765385 21.890716 1.223278 2.193387 0.030586 0.004341 99377.900000 0 1 0
-5.840301 -17.530199 -11.617685 21.826305 1.249205 2.132087 0.029236 0.000858 118256.000000 0 1 0
-4.757201 -18.665599 -11.671385 22.522362 1.321244 2.115557 0.035763 -0.004900 200626.000000 0 1 0
-3.438001 -18.125899 -11.719685 21.856786 1.383350 2.136729 0.025378 -0.000939 -232933.000000 0 1 0
-2.496501 -19.185399 -11.663185 22.590749 1.441398 2.113300 0.019130 0.004029 -9086.590000 0 1 0
-1.080301 -18.667499 -11.907885 22.168453 1.512990 2.137856 0.008887 0.008611 -959542.000000 0 1 0
-0.910201 -18.215699 -13.263785 22.551456 1.520870 2.199574 0.014693 -0.002901 612842.000000 0 1 0
0.392099 -17.658499 -13.560085 22.267740 -1.548595 2.225541 0.016553 -0.005784 930300.000000 0 1 0
1.585099 -18.666699 -13.625585 23.164947 -1.486084 2.199626 0.016239 -0.010950 -495725.000000 0 1 0
1.630399 -19.637599 -14.620985 24.537048 -1.487962 2.209150 0.030035 -0.004474 156950.000000 0 1 0
0.973699 -20.882199 -14.321485 25.340072 -1.524202 2.171437 0.026908 0.002720 -588625.000000 0 0 1
0.971599 -21.836699 -15.550785 26.825591 -1.526332 2.189156 0.028617 0.002562 776696.000000 0 0 1
2.250499 -22.254699 -16.036885 27.523046 -1.470014 2.192808 0.027381 0.001573 646775.000000 0 0 1
3.208999 -21.330899 -16.518885 27.169441 -1.421477 2.224329 0.026784 0.002334 -511335.000000 0 0 1
4.560399 -21.987199 -16.786885 28.036292 -1.366285 2.212743 0.025248 -0.002950 -551824.000000 0 0 1
4.661599 -22.743099 -18.017585 29.387284 -1.368629 2.230785 0.017372 -0.001608 465924.000000 0 0 1
5.897999 -23.458399 -18.156485 30.244683 -1.324478 2.214697 0.019755 -0.006688 540966.000000 0 0 1
6.322099 -23.398099 -19.633685 31.191691 -1.306901 2.251645 0.018575 0.001992 -421991.000000 0 0 1
6.765299 -22.128599 -19.980485 30.572274 -1.274094 2.283061 0.026753 -0.012511 -129955.000000 0 0 1
6.915299 -22.093799 -21.397585 31.524815 -1.267458 2.316861 0.014957 -0.006958 -136387.000000 0 0 1
6.907999 -20.644299 -21.958585 30.920657 -1.247888 2.360520 0.021680 -0.012625 -19037.300000 0 0 1
5.684199 -19.977099 -21.875985 30.165433 -1.293587 2.382122 0.029907 -0.014746 -250107.000000 0 0 1
5.982599 -18.649199 -22.377185 29.737561 -1.260371 2.422629 0.039034 -0.018170 502382.000000 0 0 1
4.688999 -17.853699 -22.661085 29.227830 -1.313962 2.458027 0.051244 -0.019309 32675.800000 0 0 1
4.024799 -18.189699 -23.913985 30.314070 -1.353037 2.479771 0.052823 -0.019042 965590.000000 0 0 1
2.852599 -17.436399 -24.245085 29.999825 -1.408633 2.511842 0.058346 -0.011849 1830980.000000 0 0 1
1.500399 -17.603099 -23.432785 29.346477 -1.485767 2.495574 0.049564 -0.001276 552902.000000 0 0 1
1.685499 -17.117099 -22.076085 27.985524 -1.472644 2.479715 0.069862 -0.008156 -148332.000000 0 0 1
0.880399 -15.969599 -21.901185 27.119460 -1.515722 2.510837 0.047051 -0.008429 -89355.500000 0 0 1
1.201899 -15.200999 -20.666185 25.682799 -1.491893 2.505916 0.040637 -0.012212 -738322.000000 0 0 1
2.357999 -14.449499 -20.644485 25.308950 -1.409033 2.524733 0.043957 -0.009018 -798159.000000 0 0 1
2.415799 -13.655799 -19.480685 23.912633 -1.395701 2.522940 0.040003 -0.013491 -78342.600000 0 1 0
3.541699 -12.607499 -19.498385 23.487863 -1.296935 2.550168 0.044407 -0.013370 -1336510.000000 0 1 0
4.800299 -13.182899 -19.551985 24.064742 -1.221589 2.519180 0.034648 -0.008028 -970249.000000 0 1 0
5.879699 -12.281399 -19.607585 23.871762 -1.124294 2.534608 0.029153 -0.005284 144333.000000 0 1 0
6.066299 -11.273999 -18.411085 22.424788 -1.077152 2.533983 0.023937 -0.006215 -865962.000000 0 1 0
5.247199 -10.071499 -18.243185 21.489114 -1.090494 2.584792 0.014217 -0.002605 267234.000000 0 1 0
5.485399 -8.974599 -19.129985 21.830927 -1.022172 2.638881 0.028168 -0.010191 -186021.000000 0 1 0
4.998899 -9.054799 -20.615485 23.064618 -1.066364 2.676576 0.041302 -0.014776 475925.000000 0 1 0
3.575199 -9.112299 -20.685885 22.884971 -1.196903 2.699614 0.039194 -0.013903 96780.300000 0 1 0
3.189399 -9.033499 -22.030385 24.023202 -1.231395 2.731405 0.040201 -0.014923 1638080.000000 0 1 0
1.609499 -8.932399 -22.240185 24.020909 -1.392523 2.754122 0.048416 -0.012518 1544340.000000 0 1 0
1.024299 -7.908099 -21.452785 22.886879 -1.441988 2.785712 0.044771 -0.017470 -19805.200000 0 1 0
-0.389001 -7.818499 -21.527285 22.906424 1.521083 2.792819 0.036938 -0.015308 610948.000000 0 1 0
-0.905601 -6.786199 -22.611185 23.624951 1.438133 2.847582 0.040359 -0.019467 -225968.000000 0 1 0
-0.535901 -7.187199 -23.903085 24.965987 1.496371 2.848746 0.038612 -0.015266 -189790.000000 0 1 0
-1.258501 -6.597199 -24.974685 25.861975 1.382298 2.878889 0.042068 -0.013299 -33357.800000 0 0 1
-0.721301 -5.239699 -25.516515 26.058919 1.433995 2.937205 0.051933 -0.020650 -161316.000000 0 0 1
-1.375101 -4.642999 -26.633065 27.069697 1.282860 2.961740 0.043875 -0.017806 -327387.000000 0 0 1
-0.861401 -3.403299 -27.048025 27.274899 1.322895 3.012522 0.024369 -0.016137 -592640.000000 0 0 1
-1.280201 -2.158699 -26.273205 26.392806 1.035508 3.046356 0.028367 -0.013481 113333.000000 0 0 1
-2.631301 -1.736299 -26.301885 26.490142 0.583278 3.022302 0.021277 -0.012178 62855.800000 0 0 1
-3.146401 -1.142199 -27.486225 27.689295 0.348224 3.020408 0.032150 -0.012970 -795472.000000 0 0 1
-4.658101 -1.107799 -27.353115 27.769012 0.233485 2.968304 0.036023 -0.011403 -700832.000000 0 0 1
-5.135301 -0.119999 -26.487335 26.980820 0.023363 2.950040 0.035275 -0.012632 -804333.000000 0 0 1
-6.484801 -0.301799 -26.223875 27.015465 0.046506 2.898918 0.034213 -0.028142 -592850.000000 0 0 1
-7.322901 0.809401 -25.458725 26.503334 -0.110083 2.859898 0.040859 -0.019139 -117168.000000 0 0 1
-7.633001 2.016001 -26.164495 27.329613 -0.258220 2.848545 0.051745 -0.020508 598924.000000 0 0 1
-8.551801 1.845601 -27.260415 28.629876 -0.212554 2.831046 0.054158 -0.024482 670166.000000 0 0 1
-10.020801 1.408501 -26.999105 28.833175 -0.139643 2.782996 0.050500 -0.028257 -162432.000000 0 0 1
-11.024501 2.011101 -27.798395 29.972236 -0.180437 2.758389 0.056314 -0.031455 726643.000000 0 0 1
-12.292201 1.412601 -27.508195 30.162799 -0.114417 2.718908 0.037521 -0.023157 -38240.400000 0 0 1
-13.379201 2.110801 -28.282135 31.358215 -0.156478 2.694956 0.025772 -0.022047 -1093400.000000 0 0 1
-14.685501 1.629301 -28.134215 31.778178 -0.110494 2.658002 0.020310 -0.020496 446778.000000 0 0 1
-15.689201 2.308701 -28.894525 32.960199 -0.146104 2.639649 0.013846 -0.017054 277402.000000 0 0 1
-16.404101 3.591901 -28.336025 32.938224 -0.215562 2.606611 0.012520 0.000227 -484759.000000 0 0 1
-15.677201 4.791601 -28.240505 32.653640 -0.296624 2.615648 0.026335 -0.001604 -150053.000000 0 0 1
-15.323401 5.360501 -29.488385 33.661646 -0.336518 2.638350 0.023545 -0.002953 -385237.000000 0 0 1
-16.481901 5.910101 -30.349785 35.038433 -0.344299 2.618314 0.011269 0.001404 118110.000000 0 0 1
-17.263401 6.887101 -29.643595 34.988568 -0.379594 2.581558 0.010388 0.010154 351988.000000 0 0 1
-18.065301 7.597701 -30.547015 36.293254 -0.398111 2.571168 0.011947 0.010909 -130379.000000 0 0 1
-18.871901 8.805401 -29.975105 36.499187 -0.436562 2.534402 0.010573 0.006978 -46704.300000 0 0 1
-18.090301 9.957301 -29.739165 36.205314 -0.503167 2.534663 0.013719 0.012333 370129.000000 0 0 1
-18.717201 10.798401 -28.773975 35.984451 -0.523279 2.497463 0.039444 0.004407 85391.500000 0 0 1
-8.400701 25.192801 30.802622 40.670020 -1.248935 0.711506 0.022355 -0.004704 159336.000000 0 0 1
-9.313301 26.310801 31.017802 41.726489 -1.230587 0.732717 0.024354 -0.004026 584174.000000 0 0 1
-8.899401 27.279601 31.994912 42.977324 -1.255453 0.731070 0.022181 -0.005139 -429630.000000 0 0 1
-7.522101 27.910801 31.837712 43.002729 -1.307546 0.737183 0.018749 -0.006504 -569623.000000 0 0 1
-7.413601 28.832401 30.767162 42.812230 -1.319121 0.768932 0.034870 -0.004591 -687691.000000 0 0 1
-6.075401 29.049301 30.498622 42.555121 -1.364627 0.771759 0.029019 -0.001262 -846741.000000 0 0 1
-5.718401 30.052201 29.395392 42.425511 -1.382762 0.805334 0.046399 -0.010483 -306664.000000 0 0 1
-5.966901 31.345801 29.851602 43.695323 -1.382690 0.818693 0.052880 -0.013328 357635.000000 0 0 1
-5.744601 32.384001 28.909372 43.788991 -1.395233 0.849715 0.053399 -0.010756 -261675.000000 0 0 1
-6.149601 33.699401 29.626022 45.289826 -1.390298 0.857747 0.046820 -0.013182 -589346.000000 0 0 1
-5.368501 34.001401 30.725472 46.140770 -1.414199 0.842087 0.048001 -0.024680 -314419.000000 0 0 1
-5.927501 -33.878669 31.558352 46.677929 1.397587 0.828357 0.047173 -0.023011 360586.000000 0 0 1
-7.196201 -34.298569 32.381412 47.715124 1.363986 0.824886 0.020595 -0.013901 285686.000000 0 0 1
-7.035501 33.705701 33.523090 48.055906 -1.365018 0.798775 0.030248 -0.018989 -91161.900000 0 0 1
-7.048901 32.341901 33.084077 46.800018 -1.356203 0.785656 0.038649 -0.018802 -304909.000000 0 0 1
-6.958901 31.350901 34.272425 46.967056 -1.352370 0.752896 0.031630 -0.019575 -605707.000000 0 0 1
-5.705001 31.167901 -33.923345 46.419591 -1.389759 2.390287 0.032412 -0.022711 -478697.000000 0 0 1
-5.841501 30.573501 -32.645475 45.106420 -1.382007 2.380008 0.031221 -0.025044 -408098.000000 0 0 1
-4.585001 30.089001 -31.866055 44.066038 -1.419578 2.379139 0.040661 -0.026990 172773.000000 0 0 1
-3.930401 28.985701 -32.398715 43.649692 -1.436020 2.407209 0.061614 -0.020484 -34097.500000 0 0 1
-3.081401 29.226801 -33.512735 44.573583 -1.465754 2.421663 0.048861 -0.026960 -97178.300000 0 0 1
-2.280701 27.895001 -33.879565 43.944938 -1.489218 2.451135 0.058758 -0.023442 -69001.400000 0 0 1
-1.340601 27.432901 -32.921485 42.874065 -1.521967 2.446298 0.086835 -0.021419 135641.000000 0 0 1
-0.850801 26.120701 -33.056015 42.139234 -1.538236 2.472601 0.091500 -0.018786 342114.000000 0 0 1
-0.117001 25.602601 -34.316557 42.815102 -1.566226 2.500606 0.085110 -0.010261 -127733.000000 0 0 1
-1.061801 25.402501 33.436407 42.004854 -1.529022 0.650117 0.074925 -0.008223 126185.000000 0 0 1
-0.555301 25.356301 32.101222 40.911353 -1.548900 0.668660 0.069677 -0.004260 -279548.000000 0 0 1
-0.235301 26.733301 31.511432 41.324267 -1.561995 0.703565 0.048984 -0.011958 801518.000000 0 0 1
-1.419401 27.522901 31.339872 41.733827 -1.519270 0.721302 0.038889 -0.014659 822577.000000 0 0 1
-0.965101 28.765301 30.747532 42.116323 -1.537258 0.752383 0.035759 -0.013925 -202761.000000 0 0 1
-2.049601 29.796501 30.715322 42.842308 -1.502118 0.771395 0.038388 -0.017516 -733384.000000 0 0 1
-2.448301 30.322701 31.955172 44.120215 -1.490230 0.760814 0.038150 -0.017337 130120.000000 0 0 1
-3.167301 31.556001 31.834312 44.935914 -1.470761 0.783514 0.039390 -0.014328 -97274.100000 0 0 1
-2.994801 32.383101 33.083013 46.390945 -1.478578 0.776836 0.049883 -0.020848 669805.000000 0 0 1
-1.700501 32.996401 33.053454 46.735265 -1.519306 0.785197 0.061497 -0.026859 255266.000000 0 0 1
-0.975601 32.818601 34.241482 47.439345 -1.541078 0.764404 0.061980 -0.037553 264040.000000 0 0 1
0.506399 33.258001 34.056390 47.604503 1.555571 0.773596 0.074742 -0.038382 277632.000000 0 0 1
0.550499 -34.315469 33.624470 48.046430 -1.554755 0.795633 0.076435 -0.031038 -508080.000000 0 0 1
1.865399 -33.954869 33.354593 47.633410 -1.515914 0.795069 0.044015 -0.019617 -548830.000000 0 0 1
2.011099 -32.543769 32.816249 46.260649 -1.509078 0.782182 0.042016 -0.022426 -260409.000000 0 0 1
1.842899 -31.593569 33.833798 46.327916 -1.512531 0.752019 0.039361 -0.014791 227667.000000 0 0 1
1.988799 -30.315869 33.246773 45.037264 -1.505288 0.740389 0.018318 0.001297 -176465.000000 0 0 1
1.737099 -29.196269 34.310265 45.084742 -1.511369 0.705917 0.016642 0.006963 -155833.000000 0 0 1
0.360999 -29.021769 -34.244147 44.889364 -1.558358 2.438516 0.017521 0.001946 -45501.400000 0 0 1
0.024999 -28.242069 -33.134565 43.537507 -1.569911 2.435739 0.012000 -0.000948 253748.000000 0 0 1
-1.453801 -27.770269 -33.178335 43.290915 1.518493 2.444021 0.026343 0.004709 209774.000000 0 0 1
-1.921101 -27.396569 -31.920785 42.109371 1.500789 2.431106 0.044422 -0.008963 -96062.400000 0 0 1
-3.116801 -26.656969 -31.948925 41.725799 1.454402 2.442906 0.039779 -0.015104 -541364.000000 0 0 1
-3.505801 -25.995969 -30.630295 40.327361 1.436746 2.433404 0.039541 -0.020987 243311.000000 0 0 1
-4.241101 -26.921269 -29.787585 40.373778 1.414543 2.400595 0.035306 -0.014732 552724.000000 0 0 1
-4.740401 -26.583769 -28.469135 39.238500 1.394332 2.382616 0.039707 -0.016273 441389.000000 0 0 1
-3.664601 -26.095669 -27.448095 38.050114 1.431279 2.376570 0.052065 -0.020547 37788.900000 0 0 1
-3.270501 -24.771469 -27.697145 37.302195 1.439529 2.407602 0.046578 -0.018127 -54859.700000 0 0 1
-2.158801 -24.590969 -26.846045 36.470349 1.483232 2.398096 0.041943 -0.013226 -120287.000000 0 0 1
-1.124401 -23.497469 -27.360345 36.083013 1.522981 2.431438 0.040702 -0.011217 1140820.000000 0 0 1
-0.289201 -23.755969 -28.518645 37.117958 1.558623 2.447016 0.019274 -0.019709 220771.000000 0 0 1
0.720999 -24.672469 -28.204335 37.479796 -1.541582 2.422678 0.022042 -0.011849 -846442.000000 0 0 1
1.695899 -24.919769 -29.361175 38.548017 -1.502847 2.436695 -0.000208 -0.012982 398451.000000 0 0 1
2.636399 -23.853869 -29.662685 38.155374 -1.460720 2.461347 -0.011658 -0.010644 538002.000000 0 0 1
3.266399 -24.199569 -30.867195 39.358255 -1.436630 2.472303 -0.003666 -0.005472 -604599.000000 0 0 1
4.268799 -23.149469 -31.406445 39.249018 -1.388443 2.498399 -0.001744 -0.009240 -820582.000000 0 0 1
5.411999 -22.904469 -30.642895 38.637954 -1.338766 2.486641 -0.005648 -0.010821 330342.000000 0 0 1
6.513999 -23.795969 -30.780065 39.447342 -1.303598 2.465914 0.008492 -0.003732 117516.000000 0 0 1
7.128699 -24.184169 -32.175945 40.877669 -1.284147 2.476935 0.006007 -0.002009 -880387.000000 0 0 1
6.356299 -25.077069 -32.944335 41.887840 -1.322554 2.475900 -0.013210 -0.002534 -209932.000000 0 0 1
6.653899 -24.989369 -34.324668 42.975875 -1.310565 2.495922 -0.006319 0.002715 16407.900000 0 0 1
6.156099 -23.667169 33.827718 41.741430 -1.316324 0.625943 -0.002302 0.002155 245814.000000 0 0 1
4.768599 -23.464269 34.068061 41.640656 -1.370299 0.612620 -0.003591 0.004352 126714.000000 0 0 1
4.330699 -22.181869 33.615033 40.506305 -1.377986 0.591919 0.010002 -0.000724 643857.000000 0 0 1
2.820899 -21.939169 33.983197 40.548025 -1.442920 0.577010 -0.002980 0.001278 580373.000000 0 0 1
1.879799 -22.793769 33.419836 40.496605 -1.488513 0.600151 0.008066 -0.004275 -384147.000000 0 0 1
1.553999 -23.824269 34.338215 41.822527 -1.505661 0.607556 0.005354 0.003554 -197588.000000 0 0 1
0.239399 -24.583769 34.045159 41.993951 -1.561059 0.625423 0.012510 0.004125 173690.000000 0 0 1
0.265899 -25.219969 32.805413 41.380100 -1.560254 0.655436 0.021104 0.004944 375315.000000 0 0 1
-1.043401 -25.557469 32.340452 41.233212 1.529993 0.669181 0.016283 0.001246 598648.000000 0 0 1
-0.994901 -26.790369 31.439122 41.317455 1.533677 0.706072 0.016935 0.006017 -307782.000000 0 0 1
-2.123301 -26.858069 30.620392 40.785692 1.491904 0.721580 0.025450 -0.007760 -370740.000000 0 0 1
-2.140601 -27.977269 29.722842 40.874896 1.494433 0.756612 0.029834 -0.014236 -434058.000000 0 0 1
-3.459401 -28.182469 28.976372 40.569067 1.448657 0.775247 0.034824 -0.008458 134102.000000 0 0 1
-4.493401 -28.744369 29.798562 41.645933 1.415728 0.773426 0.044926 -0.008500 1229650.000000 0 0 1
-5.650901 -29.129569 29.007052 41.495464 1.379184 0.796740 0.022040 -0.006529 640635.000000 0 0 1
-6.807501 -29.685969 29.863672 42.654868 1.345377 0.795226 0.023147 -0.007365 -940202.000000 0 0 1
-7.853201 -30.108769 29.032932 42.557278 1.315653 0.820018 0.052594 -0.010213 1088080.000000 0 0 1
-9.132401 -30.283969 29.717522 43.401044 1.277910 0.816578 0.041429 -0.008064 1111820.000000 0 0 1
-9.124401 -31.546769 30.637842 44.912478 1.289246 0.820073 0.023583 0.004093 -910980.000000 0 0 1
-9.063101 -32.802969 30.025162 45.383752 1.301232 0.847867 0.041588 -0.004022 -109021.000000 0 0 1
-10.279301 -33.208169 29.479092 45.579199 1.270609 0.867459 0.051673 -0.005992 -542932.000000 0 0 1
-10.256201 34.171801 29.143492 46.067828 -1.279214 0.885863 0.062833 -0.007312 -226445.000000 0 0 1
-10.178201 33.283301 30.237072 46.104820 -1.274022 0.855511 0.047219 -0.004888 443018.000000 0 0 1
-9.727001 32.009701 29.805572 44.806334 -1.275787 0.843023 0.051102 -0.011154 -148509.000000 0 0 1
-10.389901 30.923001 30.625202 44.744665 -1.246654 0.816956 0.049346 -0.000187 -600247.000000 0 0 1
-11.772201 30.788501 30.507262 44.913356 -1.205591 0.824060 0.043321 0.009057 -240590.000000 0 0 1
-12.370601 29.671901 31.206532 44.802914 -1.175795 0.800248 0.039102 0.006315 188973.000000 0 0 1
-12.375201 29.690601 32.778186 45.924796 -1.175887 0.775978 0.038848 -0.013053 -915591.000000 0 0 1
-13.465001 30.323801 33.356117 47.047526 -1.152909 0.782735 0.032799 -0.000533 -225398.000000 0 0 1
-13.671901 29.993801 -34.068905 47.405055 -1.143110 2.372694 0.025580 -0.003975 -616449.000000 0 0 1
-14.978901 30.480701 -33.479825 47.690033 -1.114034 2.349040 0.016424 -0.002509 -589793.000000 0 0 1
-15.131401 29.938001 -32.202055 46.499629 -1.102818 2.335777 0.009536 -0.005903 -98942.600000 0 0 1
-16.356001 30.301601 -31.606235 46.740345 -1.075838 2.313401 0.015646 -0.004724 29024.900000 0 0 1
-16.479301 29.904501 -30.053315 45.486792 -1.067136 2.292553 0.014148 -0.007028 -355477.000000 0 0 1
-16.491101 28.498301 -29.913825 44.485351 -1.046209 2.308300 0.009194 -0.010504 217508.000000 0 0 1
-16.439101 28.196901 -28.534965 43.353817 -1.042962 2.289206 0.008305 -0.007761 -75859.600000 0 0 1
-16.888501 26.740801 -28.058405 42.279617 -1.007491 2.296469 -0.006175 -0.010449 193499.000000 0 0 1
-18.292001 26.603801 -28.101985 42.802816 -0.968461 2.287026 -0.005316 0.000571 -290475.000000 0 0 1
-18.689701 25.319201 -27.788005 41.982616 -0.934914 2.294138 -0.009423 -0.002639 333964.000000 0 0 1
-20.199501 25.196101 -28.133695 42.829524 -0.895025 2.287465 0.011924 -0.008755 162979.000000 0 0 1
-21.139401 25.573101 -27.163805 42.880416 -0.880029 2.256836 0.016293 -0.008100 -719283.000000 0 0 1
-22.424801 25.321801 -27.615225 43.665386 -0.845998 2.255480 0.019177 -0.012937 -525002.000000 0 0 1
-23.529901 25.425701 -26.545465 43.643834 -0.824104 2.224624 0.042614 -0.024622 -170674.000000 0 0 1
-23.772601 26.711501 -26.099245 44.269757 -0.843547 2.201298 0.021934 -0.007681 -219049.000000 0 0 1
-24.928401 26.833901 -25.310075 44.520594 -0.822194 2.175481 0.022864 -0.001044 -430803.000000 0 0 1
-24.860901 26.355701 -23.836385 43.368890 -0.814576 2.152705 0.021613 -0.001671 -1468530.000000 0 0 1
-24.620201 24.948701 -23.686785 42.304323 -0.792025 2.165078 0.023221 -0.003922 79693.900000 0 0 1
-25.767921 24.102301 -23.591685 42.443778 -0.752011 2.160162 0.022927 0.001384 115176.000000 0 0 1
-26.582891 24.249801 -22.267085 42.314607 -0.739533 2.124954 0.013345 0.002716 -227099.000000 0 0 1
-25.942371 23.839201 -21.044485 41.038816 -0.743175 2.109233 0.009496 0.004583 179317.000000 0 0 1
-24.932801 24.719201 -20.582785 40.698090 -0.781096 2.101040 0.016004 0.002852 215635.000000 0 0 1
-23.944301 24.104601 -19.546385 39.197226 -0.788734 2.092857 0.021502 -0.003596 120997.000000 0 0 1
-24.582001 23.754501 -18.360685 38.802910 -0.768280 2.063691 0.014266 -0.004600 457144.000000 0 0 1
-23.600301 23.628701 -17.329385 37.624424 -0.785999 2.049455 0.030649 -0.010174 289230.000000 0 0 1
-24.151701 23.932701 -15.946585 37.554925 -0.780844 2.009339 0.020781 -0.009087 -237063.000000 0 0 1
-24.611401 25.231101 -15.669285 38.572736 -0.797831 1.989117 0.028601 -0.018086 246896.000000 0 0 1
-25.277191 25.290701 -14.407185 38.550265 -0.785665 1.953818 -0.002616 -0.011273 106576.000000 0 0 1
-25.423961 26.782601 -13.861985 39.444139 -0.811417 1.929898 -0.010932 -0.005050 296784.000000 0 0 1
-24.156901 27.345801 -13.503785 38.906309 -0.847236 1.925257 0.012044 -0.013246 531866.000000 0 0 1
-24.263401 27.994201 -12.284685 39.029494 -0.856670 1.890994 0.012121 -0.013258 373827.000000 0 0 1
-22.903901 28.654701 -11.860485 38.553232 -0.896478 1.883507 0.023436 -0.014781 617755.000000 0 0 1
-22.000601 27.612801 -11.455085 37.117545 -0.898038 1.884534 0.028005 -0.020558 470812.000000 0 0 1
-20.968501 28.243701 -10.669185 36.758892 -0.932168 1.865282 0.032089 -0.017193 167289.000000 0 0 1
-19.987701 27.264401 -9.992385 35.252000 -0.938195 1.858192 0.063343 -0.017092 -286803.000000 0 0 1
-19.280001 26.574101 -10.979685 34.618705 -0.943148 1.893530 0.055087 -0.021949 233952.000000 0 0 1
-18.434701 25.585301 -10.357185 33.192124 -0.946431 1.888133 0.056187 -0.010986 182168.000000 0 0 1
-17.682401 24.642501 -11.344985 32.382539 -0.948384 1.928733 0.050363 -0.016196 -13796.200000 0 0 1
-17.347801 23.445701 -10.712385 31.070923 -0.933782 1.922792 0.047022 -0.022554 167491.000000 0 0 1
-16.947101 22.430901 -11.621685 30.420603 -0.923769 1.962792 0.054631 -0.013250 -60875.100000 0 0 1
-16.765501 21.055501 -10.855985 29.021863 -0.898344 1.954182 0.038199 -0.003266 489065.000000 0 0 1
-17.923301 20.202201 -10.917585 29.130178 -0.845101 1.954962 0.024246 0.005330 739391.000000 0 0 1
-17.582201 18.957801 -10.263585 27.818576 -0.823027 1.948672 0.033725 -0.008705 86128.400000 0 0 1
-18.709501 17.855901 -10.239485 27.815925 -0.762058 1.947778 0.024249 0.001381 241420.000000 0 0 1
-19.127801 17.333301 -11.487285 28.253740 -0.736221 1.989499 0.003521 0.006550 416787.000000 0 0 1
-20.033901 18.147701 -12.247885 29.676707 -0.736038 1.996224 0.005616 0.010950 -372736.000000 0 0 1
-20.444201 17.553101 -13.597385 30.182206 -0.709457 2.038133 0.014411 0.004362 -212104.000000 0 0 1
-19.411401 17.229301 -14.489085 29.725156 -0.725914 2.079946 0.013680 0.000556 -46987.600000 0 0 1
-19.994301 16.775401 -15.670885 30.442779 -0.698079 2.111530 0.039325 0.007908 -164549.000000 0 0 1
-19.019301 16.733601 -16.837085 30.417670 -0.721555 2.157393 0.032681 -0.001184 -438585.000000 0 0 1
-18.628201 17.943901 -17.442685 31.196806 -0.766689 2.164118 0.026338 -0.001119 1734.720000 0 0 1
-17.989701 17.700301 -18.662685 31.388307 -0.777290 2.207533 0.022384 0.005967 -336001.000000 0 0 1
-16.851201 18.726901 -18.939685 31.517796 -0.838070 2.215448 -0.001365 0.017957 55003.400000 0 0 1
-15.822701 18.562701 -17.989185 30.307466 -0.864915 2.206267 0.006192 0.013346 37713.600000 0 0 1
-14.675901 19.361001 -18.115285 30.305016 -0.922186 2.211507 0.019886 0.018624 188723.000000 0 0 1
32.183494 31.224901 2.482415 44.910290 0.770282 1.515493 0.018606 -0.009956 265406.000000 0 0 1
33.325774 30.913701 1.682115 45.487291 0.747868 1.533808 0.026753 -0.011785 450945.000000 0 0 1
33.252034 31.682801 0.517015 45.932178 0.761237 1.559540 0.028964 -0.005984 202526.000000 0 0 1
34.585974 31.683101 -0.268685 46.905018 0.741622 1.576525 0.026548 -0.000516 284398.000000 0 0 1
-35.476524 32.290901 0.301615 47.972669 -0.738425 1.564509 0.011545 -0.002731 274289.000000 0 0 1
-34.347800 32.113601 -0.552685 47.025102 -0.751794 1.582550 0.011145 -0.003519 757238.000000 0 0 1
-33.206271 33.156901 -0.244785 46.926500 -0.784654 1.576013 0.010983 -0.005563 564321.000000 0 0 1
-32.635071 33.025201 1.066915 46.441900 -0.791340 1.547821 -0.005735 0.003139 353121.000000 0 0 1
-32.009501 34.227501 1.578015 46.889445 -0.818871 1.537136 -0.001701 -0.000100 -180831.000000 0 0 1
-31.357191 34.020101 2.930315 46.359761 -0.826107 1.507546 0.002111 0.003450 -292902.000000 0 0 1
-30.974971 -33.668169 3.570215 45.888352 0.827037 1.492915 0.005723 0.003943 97493.700000 0 0 1
-30.472911 -33.952169 4.891515 45.883276 0.839350 1.463986 0.019957 -0.001205 -187803.000000 0 0 1
-30.250511 -32.654969 5.770715 44.885873 0.823603 1.441875 0.031854 -0.001376 63554.100000 0 0 1
-31.388741 -32.141969 6.453015 45.387230 0.797254 1.428136 0.017449 -0.000804 218761.000000 0 0 1
-31.765521 -32.872869 7.633215 46.345872 0.802528 1.405341 0.019179 -0.012045 -641031.000000 0 0 1
-32.897311 -32.105769 8.396115 46.728024 0.773222 1.390135 0.023828 -0.012489 -508132.000000 0 0 1
-34.195302 -31.994869 7.959515 47.500992 0.752166 1.402437 0.009379 -0.000606 -599890.000000 0 0 1
-34.872856 -33.212769 7.611615 48.755931 0.761021 1.414038 0.001280 -0.003771 -1358770.000000 0 0 1
34.812384 -33.093169 7.536815 48.619580 -0.760086 1.415153 -0.009707 0.000661 -654726.000000 0 0 1
34.142684 -33.011169 8.769415 48.294542 -0.768550 1.388201 -0.014517 0.005498 -349294.000000 0 0 1
32.798424 -32.694569 8.582715 47.099198 -0.783812 1.387546 -0.011009 0.011683 -383354.000000 0 0 1
31.883684 -32.712869 9.824915 46.725048 -0.798234 1.358944 -0.015976 0.003464 48862.200000 0 0 1
30.507234 -32.641569 9.511915 45.679754 -0.819184 1.361031 -0.015776 -0.005107 608245.000000 0 0 1
29.589854 -32.515369 10.621415 45.228566 -0.832469 1.333744 -0.008872 0.000198 473847.000000 0 0 1
29.588134 -31.138069 11.352315 44.428731 -0.810916 1.312413 0.004702 -0.005336 -1013560.000000 0 0 1
29.098774 -30.052269 10.651215 43.166259 -0.801516 1.321473 0.010619 -0.016646 -287664.000000 0 0 1
29.979184 -29.339169 9.821815 43.081393 -0.774609 1.340791 0.016323 -0.020439 -715958.000000 0 0 1
29.293554 -28.251969 9.078315 41.697745 -0.767300 1.351321 0.014665 -0.022971 -290349.000000 0 0 1
30.058164 -27.685069 8.036315 41.647793 -0.744324 1.376619 0.022173 -0.025572 -77716.500000 0 0 1
29.421084 -26.465969 7.673115 40.310351 -0.732571 1.379277 0.021256 -0.020844 90099.500000 0 0 1
29.439594 -26.152169 6.208515 39.864412 -0.726332 1.414419 0.010845 -0.020210 169105.000000 0 0 1
30.741574 -25.852169 5.741815 40.575208 -0.699217 1.428809 0.025017 -0.025110 -213407.000000 0 0 1
30.811104 -25.383569 4.426415 40.165195 -0.689112 1.460367 0.018467 -0.018912 -613149.000000 0 0 1
32.152254 -24.808669 3.998015 40.807128 -0.657182 1.472665 0.035250 -0.017799 -565469.000000 0 0 1
32.983164 -25.877369 3.622015 42.079049 -0.665257 1.484613 0.029494 -0.010228 -302568.000000 0 0 1
34.348864 -25.500569 3.691115 42.938885 -0.638619 1.484728 0.040037 -0.018393 488623.000000 0 0 1
35.261161 -26.740769 3.909615 44.426381 -0.648832 1.482680 0.039366 -0.017882 43897.700000 0 0 1
34.859574 -27.380269 5.093015 44.618470 -0.665803 1.456401 0.024244 -0.008998 -47946.300000 0 0 1
35.382615 -28.679569 5.133415 45.834475 -0.681144 1.458562 0.017786 -0.008301 -536824.000000 0 0 1
34.671004 -29.540369 6.234715 45.973728 -0.705665 1.434762 0.015676 -0.004397 -64820.100000 0 0 1
33.396134 -30.038069 6.025315 45.319883 -0.732510 1.437451 0.015412 -0.004667 -352174.000000 0 0 1
32.338454 -29.094569 6.041415 43.917745 -0.732644 1.432797 0.019171 -0.010860 301075.000000 0 0 1
30.902244 -29.560969 5.633415 43.133919 -0.763218 1.439819 0.008183 -0.016857 381200.000000 0 0 1
30.826874 -29.926969 4.266715 43.175508 -0.770587 1.471812 0.004506 -0.014652 318237.000000 0 0 1
29.650124 -29.422169 3.647515 41.929683 -0.781539 1.483695 0.011431 -0.013602 818483.000000 0 0 1
28.324264 -30.234969 3.748715 41.598920 -0.818015 1.480558 0.015015 -0.012999 488023.000000 0 0 1
28.437204 -31.471969 3.107015 42.530142 -0.836011 1.497677 0.016263 -0.003558 -875108.000000 0 0 1
27.243654 -32.156469 3.296115 42.274337 -0.867917 1.492747 0.020790 -0.006006 -1474340.000000 0 0 1
27.340874 -33.590869 2.707515 43.395859 -0.887614 1.508365 0.014889 -0.005007 -246539.000000 0 0 1
27.318204 -33.621369 1.307515 43.340401 -0.888465 1.540623 0.018669 -0.009820 101415.000000 0 0 1
27.353734 33.923601 0.786015 43.585035 0.892205 1.552761 0.013233 -0.008444 -229336.000000 0 0 1
26.958474 33.963501 -0.710385 43.367999 0.899879 1.587177 0.017717 -0.007038 -264678.000000 0 0 1
27.911144 -34.283669 -1.525285 44.234924 -0.887503 1.605285 0.021595 -0.006668 181995.000000 0 0 1
27.439754 -34.275569 -2.862185 43.999396 -0.895712 1.635893 0.023029 -0.003463 215716.000000 0 0 1
28.588434 -33.804269 -3.799785 44.434959 -0.868801 1.656414 0.031469 -0.004427 356906.000000 0 0 1
28.904774 -32.483369 -3.571485 43.628096 -0.843627 1.652750 0.025351 -0.007405 -260249.000000 0 0 1
29.927844 -32.091469 -4.440385 44.105048 -0.820270 1.671645 0.017080 -0.009406 -239702.000000 0 0 1
30.267924 -30.577969 -4.454685 43.255100 -0.790494 1.673966 0.015573 0.002290 -532056.000000 0 0 1
29.223364 -29.847669 -5.093385 42.081242 -0.795966 1.692131 0.014550 -0.002622 374255.000000 0 0 1
29.504594 -28.461969 -5.277685 41.333506 -0.767413 1.698831 0.013074 -0.007263 451609.000000 0 0 1
30.630954 -27.948369 -6.246485 41.933105 -0.739636 1.720316 0.025846 -0.015116 398654.000000 0 0 1
31.983874 -28.190469 -5.854385 43.034226 -0.722441 1.707260 0.026119 -0.005737 889803.000000 0 0 1
32.913664 -27.468169 -6.685585 43.387863 -0.695457 1.725502 0.034068 -0.013126 407598.000000 0 0 1
33.268294 -28.240969 -7.971785 44.360806 -0.703847 1.751481 0.022840 -0.019797 -424792.000000 0 0 1
32.153764 -28.283869 -8.885185 43.735436 -0.721454 1.775378 0.018890 -0.020242 551230.000000 0 0 1
32.087034 -29.406469 -9.795285 44.612395 -0.741835 1.792164 0.004669 -0.007738 136927.000000 0 0 1
31.667874 -30.747969 -9.169885 45.081911 -0.770661 1.775631 -0.001881 -0.004078 647627.000000 0 0 1
32.726954 -31.259069 -8.320485 46.015361 -0.762461 1.752616 0.004718 -0.007988 337189.000000 0 0 1
32.469084 -32.536269 -7.834285 46.628599 -0.786432 1.739612 0.011988 -0.013434 149921.000000 0 0 1
33.665444 -33.144769 -7.059385 47.767906 -0.777605 1.719125 0.017560 -0.008812 15886.000000 0 0 1
33.440504 -34.424469 -6.506385 48.431854 -0.799896 1.705545 0.015593 -0.011722 7623.460000 0 0 1
33.195214 -34.406869 -5.063785 48.076989 -0.803320 1.676319 0.013943 -0.012875 -134335.000000 0 0 1
32.972924 33.059901 -4.414285 46.900498 0.786715 1.665056 0.004127 -0.009519 421981.000000 0 0 1
31.781824 32.480501 -4.943485 45.711107 0.796270 1.679155 0.005076 -0.011377 424098.000000 0 0 1
31.751744 31.122801 -4.522285 44.690637 0.775395 1.672161 0.013370 0.001234 -29953.500000 0 0 1
30.530144 30.317301 -4.983685 43.313572 0.781900 1.686112 0.010814 -0.006553 -377939.000000 0 0 1
30.532374 30.157501 -6.443085 43.396015 0.779221 1.719819 -0.007366 0.004979 11627.800000 0 0 1
29.346544 29.534301 -6.878885 42.199688 0.788587 1.734535 -0.009137 0.005683 -133009.000000 0 0 1
29.316964 29.366201 -8.374585 42.331924 0.786237 1.769941 -0.004200 0.007265 -101229.000000 0 0 1
30.240024 28.400601 -8.824785 42.413795 0.754041 1.780392 -0.003256 0.005385 2982.070000 0 0 1
30.334354 28.353401 -10.244785 42.767324 0.751657 1.812696 -0.003402 0.003799 332043.000000 0 0 1
31.593834 29.061601 -10.813785 44.268329 0.743675 1.817572 -0.002662 0.007017 -581075.000000 0 0 1
32.831504 28.494401 -10.469885 44.715289 0.714794 1.807136 -0.006148 0.003659 -206579.000000 0 0 1
33.965394 29.202801 -10.860585 46.091256 0.710145 1.808665 -0.003166 0.004114 -218610.000000 0 0 1
34.229394 30.566301 -10.189485 47.008252 0.728925 1.789290 -0.004042 -0.000508 -1288290.000000 0 0 1
34.503394 30.460901 -8.838685 46.866545 0.723252 1.760525 -0.002589 0.001956 244684.000000 0 0 1
34.440334 31.794701 -8.290685 47.600158 0.745476 1.745863 0.004003 -0.002719 -781425.000000 0 0 1
35.499205 31.908701 -7.176085 48.268571 0.732183 1.720019 0.013251 -0.000710 961900.000000 0 0 1
-34.327861 32.068501 -7.572285 47.582878 -0.751383 1.730615 0.024076 -0.003664 358595.000000 0 0 1
-33.627001 30.938401 -7.915585 46.374738 -0.743781 1.742324 0.022930 -0.004119 -969646.000000 0 0 1
-32.251661 31.235701 -8.521585 45.699629 -0.769397 1.758364 0.039658 -0.004408 -384230.000000 0 0 1
-31.291121 31.688001 -7.608485 45.179118 -0.791700 1.740010 0.034244 -0.007045 -377720.000000 0 0 1
-30.028931 32.076801 -8.067285 44.673694 -0.818360 1.752375 0.033471 -0.016906 -281891.000000 0 0 1
-29.850201 33.390201 -8.859485 45.655563 -0.841317 1.766086 0.016068 -0.010887 -579894.000000 0 0 1
-29.923401 -34.240269 -8.186685 46.204197 0.852576 1.748922 0.015569 -0.009486 546636.000000 0 0 1
-28.836231 -33.910269 -7.298485 45.107676 0.866088 1.733312 0.029169 -0.019936 442920.000000 0 0 1
-29.007241 -32.494669 -6.577285 44.052063 0.842042 1.720664 0.018317 -0.018009 -270599.000000 0 0 1
-29.906721 -32.291769 -5.534685 44.359926 0.823725 1.695890 0.021084 -0.025653 -343332.000000 0 0 1
-29.685721 -33.118569 -4.404485 44.693189 0.840003 1.669506 0.026224 -0.024293 142246.000000 0 0 1
-30.823471 -33.135769 -3.338885 45.378560 0.821535 1.644441 0.033405 -0.022340 -39171.600000 0 0 1
-31.060691 -31.889669 -2.670385 44.596508 0.798566 1.630711 0.045622 -0.019758 180772.000000 0 0 1
-32.087411 -31.880269 -1.692585 45.263875 0.782160 1.608199 0.043932 -0.018563 344443.000000 0 0 1
-32.835371 -30.538769 -1.344985 44.861866 0.749175 1.600781 0.047254 -0.015522 -97610.100000 0 0 1
-33.953441 -30.724569 -0.527285 45.794250 0.735517 1.582311 0.045651 -0.008777 -683175.000000 0 0 1
-34.546110 -29.474069 -0.398285 45.412698 0.706338 1.579567 0.050547 -0.010797 -423312.000000 0 0 1
-35.517596 -29.258769 0.755015 46.023312 0.689075 1.554391 0.047129 -0.009213 -646253.000000 0 0 1
34.503804 -30.060969 0.554115 45.765505 -0.716694 1.558688 0.027992 -0.002145 631929.000000 0 0 1
33.604924 -29.817369 1.668815 44.957217 -0.725749 1.533668 0.025081 0.001133 541888.000000 0 0 1
32.794934 -28.478769 1.622215 43.464694 -0.715074 1.533465 0.022905 0.002242 -556343.000000 0 0 1
31.678834 -28.594769 0.723015 42.681754 -0.734275 1.553856 0.015868 -0.001974 957481.000000 0 0 1
30.839904 -27.420169 0.832815 41.275404 -0.726768 1.550618 0.016411 0.002257 -71861.700000 0 0 1
29.565034 -27.431769 0.004915 40.331046 -0.747988 1.570674 0.008180 -0.011894 -456419.000000 0 0 1
28.480274 -28.244069 0.421415 40.112730 -0.781234 1.560290 0.009684 0.003251 206967.000000 0 0 1
28.475904 -29.652169 0.166115 41.111505 -0.805631 1.566756 0.009989 0.000815 -406601.000000 0 0 1
28.180634 -30.015769 -1.331685 41.193057 -0.816921 1.603130 0.011666 0.001573 126236.000000 0 0 1
26.791264 -29.921569 -1.604285 40.195098 -0.840538 1.610719 0.016690 0.009109 166949.000000 0 0 1
26.490104 -30.314769 -2.946185 40.365714 -0.852627 1.643849 0.019554 0.005245 -763156.000000 0 0 1
25.038224 -30.707869 -3.095585 39.742528 -0.886754 1.648766 0.023069 0.002315 -415863.000000 0 0 1
24.145224 -29.617969 -3.234285 38.349401 -0.886842 1.655234 0.028247 0.010623 -803372.000000 0 0 1
22.915724 -29.931569 -3.784985 37.886084 -0.917383 1.670868 0.020159 0.012104 -544404.000000 0 0 1
21.987724 -28.707669 -3.879485 36.368128 -0.917185 1.677672 0.014267 0.006852 -153481.000000 0 0 1
22.222324 -27.871869 -4.995985 35.994898 -0.897702 1.710043 0.024702 -0.003752 137726.000000 0 0 1
21.564024 -26.613769 -4.975585 34.612950 -0.889832 1.715045 0.024732 -0.012362 -167238.000000 0 0 1
21.007624 -25.955869 -6.289085 33.979112 -0.890374 1.756957 0.031279 -0.030416 819436.000000 0 0 1
19.742524 -26.565169 -6.624285 33.754357 -0.931679 1.768328 0.036242 -0.025793 299463.000000 0 0 1
19.261024 -26.093669 -7.847085 33.368299 -0.934923 1.808186 0.049627 -0.021055 499156.000000 0 0 1
17.702024 -26.182069 -7.875485 32.571240 -0.976283 1.815009 0.054229 -0.013868 429514.000000 0 0 1
17.092624 -25.421169 -6.856985 31.391271 -0.978850 1.791008 0.044603 -0.020177 -353315.000000 0 0 1
15.721524 -25.744569 -6.789485 30.919998 -1.022566 1.792183 0.038575 -0.019871 -215527.000000 0 0 1
15.064424 -24.929569 -5.682385 29.676755 -1.027236 1.763462 0.035049 -0.015665 -572888.000000 0 0 1
15.278924 -25.345069 -4.368385 29.914894 -1.028294 1.717347 0.035321 -0.015733 304293.000000 0 0 1
14.594224 -24.455069 -3.485285 28.691271 -1.032750 1.692573 0.032434 -0.008314 74667.300000 0 0 1
14.395024 -24.914669 -2.045885 28.846891 -1.046881 1.641778 0.023249 -0.004588 -88869.700000 0 0 1
13.549224 -26.049669 -1.989185 29.429978 -1.091174 1.638438 0.036863 -0.007070 393471.000000 0 0 1
14.260124 -27.281369 -1.691885 30.829965 -1.089150 1.625702 0.034337 -0.012282 327368.000000 0 0 1
13.426224 -28.621069 -1.844385 31.667505 -1.132171 1.629072 0.036952 -0.006837 440781.000000 0 0 1
12.408324 -28.824669 -0.870985 31.394055 -1.164297 1.598544 0.047873 -0.014637 -20565.800000 0 0 1
11.747924 -30.069769 -1.019985 32.299305 -1.198342 1.602381 0.050242 -0.016655 -133302.000000 0 0 1
12.535324 -31.360069 -0.665185 33.779147 -1.190529 1.590490 0.049493 -0.014963 303723.000000 0 0 1
13.583924 -31.663469 -1.598185 34.491339 -1.165535 1.617149 0.043930 -0.009581 -54776.700000 0 0 1
14.174224 -32.890669 -1.327285 35.839454 -1.163897 1.607839 0.045008 -0.012016 -457086.000000 0 0 1
15.608624 -32.999969 -1.876985 36.553388 -1.128990 1.622168 0.033216 -0.000824 64894.700000 0 0 1
16.406624 -31.990169 -1.268985 35.974416 -1.096910 1.606078 0.029570 0.006143 -55733.900000 0 0 1
17.680824 -31.794169 -1.858585 36.427120 -1.063280 1.621841 0.026142 0.009548 46827.100000 0 0 1
18.417024 -30.760969 -0.967685 35.865867 -1.031323 1.597780 0.019611 0.008550 45979.400000 0 0 1
17.876124 -29.460769 -1.258985 34.483007 -1.025408 1.607315 0.020349 0.006010 589364.000000 0 0 1
18.415924 -28.534669 -0.303585 33.962712 -0.997670 1.579735 0.003216 0.013694 -54299.900000 0 0 1
18.113524 -27.118569 -0.670385 32.618491 -0.981914 1.591350 0.003555 0.002894 -341600.000000 0 0 1
18.894924 -26.663769 -1.769385 32.727748 -0.954297 1.624886 0.006668 -0.005376 -81623.300000 0 0 1
18.232624 -26.632269 -2.992685 32.413925 -0.970476 1.663255 0.007712 0.001233 -350668.000000 0 0 1
31.748264 -29.398969 13.826715 45.424990 -0.746997 1.261503 -0.008705 -0.021456 -213754.000000 0 0 1
32.362234 -29.771269 15.037715 46.473385 -0.743722 1.241289 0.001046 -0.018068 208424.000000 0 0 1
31.577074 -30.488969 16.012015 46.723372 -0.767869 1.221009 0.011511 -0.015710 -81756.900000 0 0 1
32.460544 -30.876569 17.180015 47.981271 -0.760395 1.204611 0.006112 -0.006668 -443632.000000 0 0 1
31.721144 -31.441469 18.193715 48.226634 -0.780970 1.183966 0.004696 -0.009028 504536.000000 0 0 1
32.532194 -31.579869 19.394215 49.312954 -0.770545 1.166591 0.010754 -0.012334 46091.700000 0 0 1
33.447834 -32.756969 19.551115 50.734828 -0.774963 1.175200 0.009124 -0.006906 -1015290.000000 0 0 1
34.410044 -32.906469 18.576215 51.107364 -0.763066 1.198802 0.008170 -0.002792 -544569.000000 0 0 1
35.044804 -34.146969 18.679515 52.374403 -0.772423 1.206113 0.020733 -0.010893 -169659.000000 0 0 1
-34.985644 -34.289169 17.672215 52.077342 0.775345 1.224575 0.014808 -0.006972 -197338.000000 0 0 1
-33.847361 -33.504369 17.953615 50.897140 0.780306 1.210295 0.011678 -0.003730 291502.000000 0 0 1
-33.068141 -33.421369 16.740815 49.907362 0.790711 1.228726 0.009183 0.004287 66008.900000 0 0 1
-31.658781 -32.838569 17.080415 48.707193 0.803688 1.212504 -0.004071 -0.006679 457302.000000 0 0 1
-30.778811 -32.807469 15.959115 47.732155 0.817291 1.229884 0.001949 -0.014556 223332.000000 0 0 1
-30.885911 -31.573469 15.294615 46.741295 0.796406 1.237438 0.014222 -0.003909 -1339540.000000 0 0 1
-29.801791 -31.428469 14.283715 45.606139 0.811958 1.252239 0.016193 -0.007476 -4311.320000 0 0 1
-28.501851 -31.371669 14.907715 44.930804 0.833293 1.232593 0.006600 -0.009567 -338297.000000 0 0 1
-27.564191 -31.207569 13.901315 43.896965 0.847311 1.248568 0.025780 -0.007838 -548364.000000 0 0 1
-26.225841 -30.875569 14.625415 43.069691 0.866648 1.224331 0.029742 -0.014340 167817.000000 0 0 1
-25.191151 -30.834469 13.653015 42.092320 0.885787 1.240463 0.037866 -0.013280 -244289.000000 0 0 1
-23.996701 -30.405469 14.262015 41.276377 0.902661 1.217998 0.033031 -0.008633 -592554.000000 0 0 1
-22.694801 -30.388769 13.489515 40.255413 0.929336 1.229087 0.043520 -0.008141 -266890.000000 0 0 1
-22.084601 -31.665669 13.404515 40.867166 0.961797 1.236608 0.024575 -0.013812 -264171.000000 0 0 1
-21.011901 -31.654169 12.502715 39.997554 0.984784 1.252881 0.030321 -0.022889 -234419.000000 0 0 1
-20.600001 -33.096169 12.185415 40.843614 1.014048 1.267840 0.024790 -0.016984 -233985.000000 0 0 1
-21.175701 -33.531869 10.986715 41.152211 1.007530 1.300541 0.016978 -0.010605 29682.100000 0 0 1
-21.203401 33.935401 11.019215 41.504442 -1.012329 1.302079 0.010283 -0.000609 278307.000000 0 0 1
-22.283301 33.427701 10.004315 41.401002 -0.982832 1.326736 0.015597 -0.008204 -155248.000000 0 0 1
-21.947501 33.621901 8.656015 41.073734 -0.992474 1.358461 0.004980 -0.013763 -306127.000000 0 0 1
-23.048101 33.318601 7.839715 41.265061 -0.965630 1.379650 0.018097 -0.016326 -755700.000000 0 0 1
-22.831601 33.707001 6.348215 41.203686 -0.975431 1.416111 0.015532 -0.017473 -260459.000000 0 0 1
-22.005301 32.796701 5.637615 39.895357 -0.979827 1.429012 0.018837 -0.017574 800277.000000 0 0 1
-20.621901 32.642301 5.998615 39.073853 -1.007355 1.416667 0.010548 -0.016613 976020.000000 0 0 1
-19.689401 33.914201 5.581415 39.610576 -1.044790 1.429419 0.008091 -0.006899 -312368.000000 0 0 1
-19.702701 -33.858469 6.480115 39.706224 1.043782 1.406862 0.010732 -0.009359 7164.690000 0 0 1
-19.099501 -34.077069 7.738415 39.823619 1.059943 1.375235 0.005912 -0.008385 -406604.000000 0 0 1
-19.090601 -32.795569 8.619915 38.914051 1.043636 1.347432 0.014099 -0.008997 -440239.000000 0 0 1
-18.348901 -31.664469 8.193815 37.502792 1.045602 1.350534 0.005519 -0.015230 -246438.000000 0 0 1
-18.345501 -30.574269 9.086715 36.795540 1.030354 1.321263 0.010705 -0.015971 38168.700000 0 0 1
-17.956901 -30.837669 10.586615 37.222151 1.043490 1.282398 0.009929 -0.006035 -528004.000000 0 0 1
-16.656701 -31.345469 10.645815 37.058299 1.082352 1.279419 0.018520 -0.014654 -665799.000000 0 0 1
-16.146401 -31.299669 11.966015 37.196251 1.094537 1.243272 0.041957 -0.018702 -68867.800000 0 0 1
-14.717401 -31.854869 12.085315 37.113197 1.137996 1.239114 0.054155 -0.029434 -104175.000000 0 0 1
-13.716801 -31.018069 11.555215 35.830075 1.154431 1.242426 0.053910 -0.020749 -228945.000000 0 0 1
-12.834301 -31.853669 10.810815 36.003462 1.187780 1.265819 0.073344 -0.013717 595325.000000 0 0 1
-11.762801 -31.035569 9.973615 34.656068 1.208514 1.278880 0.078432 -0.008606 1051670.000000 0 0 1
-10.706901 -30.525469 10.810915 34.107446 1.233451 1.248267 0.076885 -0.015237 548502.000000 0 0 1
-9.774701 -29.755869 10.057115 32.895320 1.253405 1.260090 0.064961 -0.014278 364507.000000 0 0 1
-8.770301 -28.940269 10.875215 32.136080 1.276545 1.225568 0.054711 -0.011820 373826.000000 0 0 1
-9.386901 -27.826369 11.603215 31.576183 1.245446 1.194512 0.054064 -0.019779 -73534.000000 0 0 1
-8.676301 -27.566169 12.769915 31.594978 1.265868 1.154719 0.050138 -0.013703 6867.160000 0 0 1
-9.128301 -26.280869 13.550415 30.945496 1.236496 1.117557 0.042793 -0.015871 223319.000000 0 0 1
-8.592101 -25.085369 13.015915 29.538348 1.240806 1.114480 0.026554 -0.012914 17721.000000 0 0 1
-9.376201 -24.566269 11.936915 28.877408 1.206191 1.144650 0.024045 -0.009900 63209.900000 0 0 1
-8.932101 -23.246069 11.359715 27.371615 1.203948 1.142834 0.015419 -0.006492 772806.000000 0 0 1
-7.711201 -23.278769 10.582015 26.708477 1.250918 1.163417 0.008084 -0.003769 615200.000000 0 0 1
-7.254001 -22.002469 10.233715 25.327023 1.252328 1.154842 0.005707 0.008449 -129206.000000 0 0 1
-6.070801 -22.033269 9.236515 24.650209 1.301939 1.186720 0.004243 -0.000673 -157328.000000 0 1 0
-4.981301 -22.686069 9.819315 25.216860 1.354651 1.170822 0.010378 -0.003387 -875147.000000 0 0 1
-3.990901 -22.848969 8.822915 24.816255 1.397876 1.207316 0.007142 -0.004248 838325.000000 0 1 0
-2.699001 -23.663669 9.227515 25.542139 1.457230 1.201171 0.013917 -0.007337 669721.000000 0 0 1
-1.836101 -22.963669 10.062115 25.138567 1.491009 1.158989 0.005841 0.001914 -871903.000000 0 0 1
-0.888201 -23.843269 10.595315 26.106533 1.533562 1.152889 0.014277 -0.007018 428413.000000 0 0 1
-0.030401 -23.305369 11.807515 26.125822 1.569492 1.101848 0.017114 0.003098 766580.000000 0 0 1
-0.840301 -22.998269 12.962715 26.413225 1.534275 1.057828 0.005844 0.009205 1061330.000000 0 0 1
0.066899 -22.664369 14.068415 26.675802 -1.567845 1.015277 0.022288 0.007597 989922.000000 0 0 1
0.726099 -21.273469 14.042015 25.500312 -1.536678 0.987641 0.010163 0.006815 -612834.000000 0 0 1
1.655899 -21.063769 13.061415 24.839987 -1.492344 1.017115 0.020883 -0.001786 -998890.000000 0 1 0
1.892099 -19.694669 12.880615 23.608691 -1.475019 0.993706 0.010346 -0.002679 264847.000000 0 1 0
3.411999 -19.551869 12.529815 23.471549 -1.398026 1.007673 0.005074 -0.006040 680458.000000 0 1 0
3.787099 -20.307769 11.411215 23.600073 -1.386429 1.066120 0.010941 0.004976 -1584790.000000 0 1 0
5.147399 -20.200569 11.211215 23.669602 -1.321291 1.077361 0.033690 -0.003749 -689638.000000 0 1 0
5.651999 -21.098169 10.081715 24.056575 -1.309052 1.138361 0.046018 -0.009930 -420615.000000 0 1 0
5.415799 -20.631069 8.743315 23.052494 -1.314081 1.181780 0.037526 -0.013967 -656756.000000 0 1 0
5.780699 -21.555369 7.705115 23.609727 -1.308782 1.238353 0.040983 -0.014129 553247.000000 0 1 0
7.329999 -21.813169 7.502915 24.204069 -1.246616 1.255618 0.036650 -0.008814 1050940.000000 0 1 0
8.121799 -20.766369 6.935915 23.351930 -1.197983 1.269229 0.039591 -0.016407 -67804.100000 0 1 0
8.313799 -19.544469 7.640915 22.571866 -1.168605 1.225458 0.038044 -0.013425 -215645.000000 0 1 0
9.291499 -19.609069 8.825115 23.424991 -1.128297 1.184523 0.040560 -0.011222 156574.000000 0 1 0
8.674499 -20.011569 10.040815 24.010993 -1.161770 1.139360 0.052313 -0.010400 -367891.000000 0 1 0
9.677199 -20.094969 11.019115 24.877236 -1.121999 1.111921 0.066016 -0.000764 231271.000000 0 1 0
9.080799 -20.313769 12.409915 25.477757 -1.150418 1.062044 0.073087 -0.002629 82885.200000 0 0 1
8.875899 -21.668969 12.594415 26.588439 -1.182030 1.077332 0.060785 -0.006881 52259.700000 0 0 1
8.097899 -21.902669 13.786415 27.117672 -1.216661 1.037480 0.072965 -0.007115 411124.000000 0 0 1
8.144699 -23.288469 14.506415 28.620360 -1.234361 1.039262 0.073302 -0.014602 -316203.000000 0 0 1
7.451599 -24.290169 13.800515 28.913541 -1.273136 1.073214 0.072724 -0.007813 -340081.000000 0 0 1
7.196099 -25.492669 14.485515 30.190896 -1.295674 1.070372 0.075348 -0.012859 320371.000000 0 0 1
7.142499 -26.626669 13.453215 30.675459 -1.308720 1.116794 0.071620 -0.022115 687702.000000 0 0 1
8.459499 -27.048169 13.093715 31.218776 -1.267678 1.137992 0.068178 -0.013491 277143.000000 0 0 1
8.527599 -27.958469 11.962015 31.582998 -1.274750 1.182353 0.060553 -0.019335 -1031610.000000 0 0 1
9.919199 -28.199069 11.438515 32.006525 -1.232558 1.205334 0.049703 -0.013088 -1324490.000000 0 0 1
10.718299 -28.821669 12.376515 33.147378 -1.214761 1.188148 0.049415 -0.011088 -786218.000000 0 0 1
11.865799 -29.242469 11.703115 33.658314 -1.185323 1.215676 0.054014 -0.001489 -594010.000000 0 0 1
12.905399 -30.029369 12.494715 34.991860 -1.164901 1.205662 0.042778 -0.003459 -571714.000000 0 0 1
13.530499 -29.308869 13.538815 35.005482 -1.138295 1.173678 0.044904 -0.007033 445821.000000 0 0 1
14.490999 -30.064869 14.292415 36.306453 -1.121659 1.166186 0.048589 -0.003788 678335.000000 0 0 1
15.905899 -30.214469 13.696715 36.790104 -1.086226 1.189317 0.040713 0.002435 -282154.000000 0 0 1
16.567699 -28.929769 13.595915 36.003737 -1.050702 1.183566 0.032543 -0.007336 748999.000000 0 0 1
17.950699 -29.079169 13.277015 36.662035 -1.017750 1.200227 0.021449 -0.003543 444540.000000 0 0 1
18.767099 -27.771069 13.291015 36.056724 -0.976512 1.193279 0.005908 -0.004751 -1239920.000000 0 0 1
20.087199 -27.986069 12.996915 36.818955 -0.948252 1.210026 -0.001332 -0.005285 -1429340.000000 0 0 1
20.713399 -26.779969 12.734315 36.171459 -0.912445 1.211031 -0.006267 -0.015972 -208910.000000 0 0 1
22.074799 -26.964769 12.040815 36.869727 -0.884784 1.238116 -0.003813 -0.011322 1026730.000000 0 0 1
23.168099 -27.524469 12.850115 38.203176 -0.871125 1.227745 -0.000830 -0.018902 744672.000000 0 0 1
24.274199 -27.744969 12.034815 38.779593 -0.852020 1.255247 -0.001577 -0.023207 -1154500.000000 0 0 1
25.422699 -28.494769 12.663815 40.232297 -0.842314 1.250585 0.012229 -0.025011 176700.000000 0 0 1
26.448999 -27.741769 13.353115 40.588927 -0.809250 1.235569 0.005583 -0.021168 1395020.000000 0 0 1
27.574899 -27.485469 12.471415 40.882298 -0.783774 1.260798 -0.004797 -0.016691 186469.000000 0 0 1
28.659299 -26.609369 13.114815 41.248180 -0.748325 1.247231 0.008686 -0.020672 -248423.000000 0 0 1
28.307599 -25.282769 13.399215 40.250187 -0.729014 1.231421 0.025423 -0.018255 71523.200000 0 0 1
27.443799 -24.990269 14.511415 39.852940 -0.738640 1.198104 0.022335 -0.014397 -640112.000000 0 0 1
28.140699 -24.878669 15.896615 40.786634 -0.723950 1.170436 0.012563 -0.008373 -225953.000000 0 0 1
28.732999 -26.143069 16.258115 42.111419 -0.738237 1.174425 0.011695 -0.014082 22630.300000 0 0 1
29.342199 -26.012969 17.501915 42.941312 -0.725327 1.150997 0.026424 0.003663 -477067.000000 0 0 1
29.821799 -27.382069 18.037715 44.322416 -0.742774 1.151666 0.019552 0.021050 -138025.000000 0 0 1
28.789799 -28.283869 18.392915 44.352329 -0.776534 1.143183 -0.003659 0.014501 110621.000000 0 0 1
29.262599 -29.351869 19.174515 45.667209 -0.786921 1.137489 0.006729 0.004120 1131690.000000 0 0 1
27.983199 -30.072969 19.803115 45.602700 -0.821378 1.121587 0.002367 0.026178 832101.000000 0 0 1
27.079699 -29.273069 20.613415 44.890261 -0.824301 1.093707 -0.003342 0.032127 584547.000000 0 0 1
26.108099 -30.069269 21.254415 45.139162 -0.855794 1.080526 -0.013963 0.030395 866261.000000 0 0 1
24.958899 -30.757169 20.415815 44.561818 -0.889093 1.094888 0.016024 0.018630 -565956.000000 0 0 1
25.448999 -31.752169 19.607615 45.169795 -0.895148 1.121772 0.016969 0.017409 -398918.000000 0 0 1
24.709499 -32.080469 18.445515 44.496661 -0.914470 1.143362 0.026135 0.011919 -293994.000000 0 0 1
25.023999 -31.195069 17.207915 43.536711 -0.894729 1.164456 0.022556 0.013260 187406.000000 0 0 1
26.330899 -31.326569 16.649615 44.180085 -0.871826 1.184395 0.006795 0.001060 226032.000000 0 0 1
26.509399 -30.284869 15.652415 43.184715 -0.851777 1.199898 0.005349 -0.022945 -251102.000000 0 0 1
27.883699 -30.482369 14.990015 43.947424 -0.829892 1.222720 0.009225 -0.023478 -437727.000000 0 0 1
28.053499 -31.608969 14.118515 44.558481 -0.844921 1.248386 0.027710 -0.010445 322886.000000 0 0 1
28.014299 -32.929069 14.744815 45.678596 -0.865869 1.242115 0.016117 -0.015345 -977629.000000 0 0 1
26.983199 -33.778669 14.025815 45.451238 -0.896773 1.257086 0.015758 -0.015765 -364075.000000 0 0 1
27.318799 -34.084169 12.654815 45.477376 -0.895135 1.288808 0.026351 -0.015035 98790.500000 0 0 1
26.645799 33.665201 12.211715 44.637096 0.901264 1.293686 0.029662 -0.016119 -387181.000000 0 0 1
27.158899 33.221101 10.789515 44.245463 0.885464 1.324457 0.026241 -0.013561 36467.600000 0 0 1
28.444099 32.641001 10.889515 44.643961 0.853996 1.324391 0.003133 -0.013466 6227.470000 0 0 1
28.821999 31.839701 9.840615 44.060321 0.835104 1.345552 0.001683 -0.012813 174720.000000 0 0 1
30.301199 31.367201 9.830115 44.706768 0.802682 1.349105 -0.020062 -0.004348 221614.000000 0 0 1
30.629199 30.442701 10.824915 44.520609 0.782344 1.325191 -0.023740 0.000984 120121.000000 0 0 1
32.015099 30.259201 11.041215 45.414692 0.757209 1.325215 -0.010940 0.005195 185758.000000 0 0 1
32.393499 29.190901 12.094815 45.251873 0.733442 1.300230 -0.003633 0.014702 -214776.000000 0 0 1
32.090999 27.845101 11.708415 44.071179 0.714676 1.301897 -0.004641 0.016201 263805.000000 0 0 1
31.952099 27.027901 12.863915 43.782695 0.702102 1.272583 0.012691 0.001622 -301232.000000 0 0 1
31.878799 25.498701 12.557215 42.709779 0.674658 1.272374 0.014310 -0.003870 -183586.000000 0 0 1
33.135499 24.993401 12.172215 43.252678 0.646234 1.285522 0.014923 0.008121 -371816.000000 0 0 1
33.203799 23.593401 11.871315 42.427219 0.617780 1.287206 0.027793 -0.000317 -789564.000000 0 0 1
32.214999 22.952001 10.889715 41.026655 0.619042 1.302146 0.007918 0.004802 -12574.600000 0 0 1
31.062699 22.567801 11.636215 40.119801 0.628306 1.276531 0.017343 -0.004014 -205076.000000 0 0 1
29.893499 22.663901 10.872215 39.057378 0.648700 1.288705 0.005967 0.009786 336983.000000 0 0 1
28.603799 22.100201 11.597815 37.961895 0.657829 1.260320 -0.012143 0.013077 636876.000000 0 0 1
27.977699 23.066201 12.415315 38.326770 0.689472 1.240912 -0.008781 0.012483 -381061.000000 0 0 1
27.134699 22.430601 13.308115 37.636813 0.690774 1.209387 0.020954 0.002678 -490297.000000 0 0 1
23.429499 9.463501 25.834682 36.137654 0.383876 0.774320 0.026217 -0.000424 -127528.000000 0 0 1
23.360299 8.430601 26.760772 36.509143 0.346347 0.748092 0.034831 -0.006536 1927690.000000 0 0 1
21.953899 8.027201 26.910892 35.645557 0.350539 0.715207 0.037843 -0.006224 1481580.000000 0 0 1
21.761599 6.764801 27.744892 35.904161 0.301390 0.687636 0.053440 -0.010948 -155327.000000 0 0 1
22.007399 6.895201 29.158232 37.176228 0.303625 0.669190 0.048816 -0.014882 1316760.000000 0 0 1
23.407899 6.857901 29.536232 38.305999 0.284998 0.690292 0.048702 -0.021570 923431.000000 0 0 1
23.509999 6.684101 31.052502 39.517783 0.277000 0.666831 0.052860 -0.019058 -383607.000000 0 0 1
23.256899 7.869101 31.745522 40.132085 0.326264 0.658312 0.041838 -0.017071 256717.000000 0 0 1
23.498499 7.713301 33.139693 41.351103 0.317165 0.641127 0.034621 -0.011773 -232385.000000 0 0 1
23.443399 8.987101 34.049237 42.304982 0.366074 0.635371 0.041375 -0.008979 -317754.000000 0 0 1
24.583699 9.781301 33.874734 42.982900 0.378675 0.663084 0.026741 -0.008379 -341994.000000 0 0 1
24.802399 10.618801 -33.790235 43.240004 0.404524 2.467795 0.035531 -0.001216 253106.000000 0 0 1
26.094299 11.458201 -33.970625 44.341924 0.413759 2.443557 0.021592 -0.004376 -68434.500000 0 0 1
25.802299 12.637501 34.145608 44.624966 0.455440 0.699494 0.008303 -0.006108 497512.000000 0 0 1
25.434499 13.719401 -33.791915 44.463797 0.494670 2.434090 0.004664 -0.005135 -446331.000000 0 0 1
25.087199 15.106701 34.375138 45.157835 0.542012 0.705601 0.002571 -0.001036 -475271.000000 0 0 1
26.213799 15.661801 33.735318 45.503043 0.538553 0.735663 -0.009137 0.002907 878.690000 0 0 1
26.218599 17.043301 33.501164 45.828125 0.576408 0.750984 0.011017 -0.004119 -142668.000000 0 0 1
26.799999 17.910101 -34.136553 46.950143 0.589124 2.384857 0.016990 -0.003957 -496586.000000 0 0 1
26.173499 17.701701 -32.908175 45.621818 0.594657 2.376510 0.017703 -0.010982 455000.000000 0 0 1
27.056199 17.250101 -31.855335 45.214669 0.567584 2.352565 0.002089 -0.004134 63401.900000 0 0 1
26.186799 16.695901 -30.721325 43.684109 0.567587 2.350770 0.014235 -0.011049 -283606.000000 0 0 1
25.476199 15.550001 -31.015345 43.044057 0.548012 2.375390 0.012269 0.000074 -388523.000000 0 0 1
24.620899 15.325601 -29.920195 41.668703 0.556773 2.371792 0.024775 -0.016519 -266910.000000 0 0 1
23.864399 14.010901 -30.170685 40.940019 0.530884 2.399341 0.029477 -0.016193 -261672.000000 0 0 1
22.793999 14.121301 -31.101685 41.064490 0.554648 2.430097 0.025212 -0.013097 281712.000000 0 0 1
22.329899 12.915801 -31.696255 40.866795 0.524392 2.458460 0.025379 -0.001390 -59307.500000 0 0 1
21.457099 11.971701 -30.826735 39.421014 0.508916 2.468644 0.026661 -0.003599 -1095190.000000 0 0 1
20.205299 12.525301 -30.596895 38.746706 0.554925 2.481058 0.026098 -0.007226 -866643.000000 0 0 1
19.510599 11.663201 -29.736255 37.429114 0.538791 2.488928 0.020673 -0.003358 -256406.000000 0 0 1
18.363299 12.451501 -29.049635 36.553138 0.595852 2.489348 0.020805 0.005803 -125714.000000 0 0 1
17.369599 12.735901 -29.983985 36.918092 0.632681 2.518668 0.011074 0.021010 -1002380.000000 0 0 1
16.210599 13.304001 -29.489775 36.186003 0.687235 2.523439 0.017141 0.009367 -1545700.000000 0 0 1
15.204799 13.468401 -30.571575 36.704291 0.724914 2.555152 0.010819 0.011751 -957631.000000 0 0 1
14.491499 12.378001 -31.056315 36.437799 0.706902 2.591183 0.001390 0.017569 -529314.000000 0 0 1
13.210699 12.294201 -30.504395 35.442744 0.749479 2.607374 0.016997 0.010587 -166429.000000 0 0 1
12.144699 11.588901 -31.415155 35.618932 0.761984 2.650842 0.027839 0.013218 323277.000000 0 0 1
11.672999 12.313601 -32.466595 36.632820 0.812098 2.660027 0.040125 0.017227 815962.000000 0 0 1
10.540699 11.681601 -33.141265 36.686640 0.836694 2.698338 0.052719 0.028968 1069980.000000 0 0 1
9.977799 12.496301 -34.349589 37.889422 0.896995 2.705892 0.054763 0.018212 101196.000000 0 0 1
10.909999 12.545901 33.378034 37.289688 0.855029 0.462139 0.048468 0.017606 84897.400000 0 0 1
10.372899 13.232001 32.265862 36.383633 0.905934 0.480371 0.053083 0.007069 -498568.000000 0 0 1
11.231499 13.262901 31.024222 35.560560 0.868142 0.510637 0.045449 0.011395 -393341.000000 0 0 1
11.624699 11.911901 30.680432 34.904382 0.797600 0.497067 0.034399 0.011432 170663.000000 0 0 1
11.765199 11.851501 29.245752 33.677767 0.789052 0.518831 0.039415 0.010278 -354009.000000 0 0 1
12.203999 10.482901 28.634222 32.844291 0.709680 0.511896 0.033908 0.014731 395844.000000 0 0 1
11.196999 9.476801 28.689692 32.222368 0.702383 0.472648 0.028516 0.006898 299570.000000 0 0 1
11.824299 8.293801 28.378942 31.842825 0.611678 0.470770 0.029021 -0.002995 -261839.000000 0 0 1
11.022199 7.025001 28.714932 31.549752 0.567431 0.427156 0.025902 -0.005850 -107807.000000 0 0 1
9.878999 6.926401 27.895332 30.392749 0.611480 0.408221 0.026049 -0.012196 58264.600000 0 0 1
8.978499 5.841901 28.178562 30.145856 0.576835 0.363267 0.031691 -0.019725 142921.000000 0 0 1
9.300799 4.480401 27.654202 29.518363 0.448919 0.357292 0.038574 -0.018548 -538950.000000 0 0 1
10.383999 3.910901 28.336162 30.431245 0.360197 0.373232 0.024323 -0.014506 -128612.000000 0 0 1
10.727899 2.687701 27.678522 29.806243 0.245481 0.380134 0.025103 -0.009842 -133701.000000 0 0 1
11.652899 1.773701 28.504722 30.845668 0.151052 0.392102 0.014691 -0.007650 -93473.700000 0 0 1
11.122399 1.581101 29.817592 31.863717 0.141209 0.360317 0.017752 -0.007572 -24070.000000 0 0 1
10.770899 0.247801 30.108592 31.978133 0.023002 0.343633 0.005400 -0.000719 310220.000000 0 0 1
9.617899 0.146201 31.151442 32.602725 0.015200 0.299494 0.014809 0.004445 66611.900000 0 0 1
9.873599 0.830601 32.335032 33.819109 0.083926 0.297347 -0.001113 -0.000848 -598810.000000 0 0 1
8.753599 1.018301 33.168675 34.319432 0.115809 0.259692 0.013435 -0.004295 -194880.000000 0 0 1
8.931799 2.167901 34.192014 35.405800 0.238113 0.262602 0.034479 -0.007081 -41861.200000 0 0 1
8.856499 3.532901 33.723018 35.045127 0.379562 0.275556 0.020567 -0.005060 714289.000000 0 0 1
9.859899 3.976201 32.752640 34.434913 0.383322 0.313869 0.006617 0.000074 531264.000000 0 0 1
9.602299 5.397601 32.231452 34.061778 0.512097 0.329314 0.017723 -0.006907 -83928.300000 0 0 1
9.881799 6.460801 33.117864 35.159420 0.579048 0.342451 0.022284 -0.005794 1662.830000 0 0 1
10.160299 7.637401 32.354622 34.761806 0.644582 0.374332 0.027618 -0.000987 -57754.700000 0 0 1
10.247499 8.908101 33.178851 35.849709 0.715590 0.388447 0.052616 -0.003019 553646.000000 0 0 1
8.963499 9.311601 33.665838 36.061598 0.804444 0.366563 0.050030 -0.001794 403737.000000 0 0 1
8.526299 8.723501 -33.901695 36.029463 0.796830 2.796203 0.046667 -0.000964 44514.000000 0 0 1
6.998599 8.857601 -33.680945 35.522437 0.902107 2.818191 0.046093 -0.000926 404398.000000 0 0 1
6.537599 8.144101 -32.525145 34.160674 0.894387 2.830901 0.048124 -0.001603 -409295.000000 0 0 1
5.162099 8.238701 -32.268275 33.701113 1.011071 2.848947 0.048237 -0.002251 -110065.000000 0 0 1
4.788799 7.385101 -31.035495 32.259483 0.995518 2.865244 0.041468 -0.001163 -373649.000000 0 0 1
5.260899 7.913701 -29.795085 31.273804 0.984098 2.832852 0.042255 -0.000375 113964.000000 0 0 1
4.867999 7.266601 -28.588925 29.896949 0.980549 2.844696 0.034075 0.003999 1861630.000000 0 0 1
3.325099 7.531201 -28.166485 29.344951 1.155025 2.857231 0.025332 0.003853 1894870.000000 0 0 1
2.421299 6.905101 -29.058705 29.965838 1.233539 2.894910 0.020528 0.006138 66829.700000 0 0 1
1.097899 7.350601 -28.777255 29.721493 1.422531 2.888851 0.025893 0.010298 -177065.000000 0 0 1
0.112199 6.770501 -29.761645 30.522251 1.554226 2.917879 0.023514 0.007088 -607413.000000 0 0 1
0.062199 7.427101 -31.025865 31.902508 1.562422 2.906622 0.027791 0.007773 258663.000000 0 0 1
-0.670701 6.747601 -32.028405 32.738337 -1.471723 2.932960 0.043626 0.000127 -311624.000000 0 0 1
-0.290901 7.456401 -33.348935 34.173586 -1.531803 2.921461 0.052282 -0.009153 122463.000000 0 0 1
1.064899 7.478401 -33.761405 34.596141 1.429351 2.921476 0.040169 -0.008352 236417.000000 0 0 1
1.570799 6.250901 -34.291326 34.891779 1.324602 2.955805 0.041553 -0.007355 -136922.000000 0 0 1
1.369899 6.110001 32.951215 33.540890 1.350238 0.187790 0.056959 -0.017569 734641.000000 0 0 1
0.061599 5.616801 32.586812 33.067394 1.559830 0.170697 0.050508 -0.015885 507408.000000 0 0 1
-0.230301 5.536101 31.185742 31.674153 -1.529220 0.175839 0.060383 -0.024293 -15544.900000 0 0 1
0.526199 4.517501 30.303352 30.642745 1.454839 0.148972 0.058985 -0.028377 131260.000000 0 0 1
0.032699 4.475201 28.954902 29.298717 1.563490 0.153348 0.053309 -0.025883 167754.000000 0 0 1
0.966499 3.764801 28.168442 28.435347 1.319503 0.137121 0.049017 -0.026340 221407.000000 0 0 1
1.038999 4.247001 26.710322 27.065806 1.330866 0.162252 0.041232 -0.022977 392654.000000 0 0 1
1.752799 5.496601 26.551462 27.171033 1.262103 0.213962 0.045625 -0.019805 138218.000000 0 0 1
1.998999 5.697201 25.157912 25.872275 1.233343 0.235538 0.039804 -0.012026 -939774.000000 0 0 1
2.715899 6.995001 24.859432 25.967239 1.200449 0.293150 0.034214 -0.010506 -504004.000000 0 0 1
4.114199 6.948401 24.997952 26.269840 1.036200 0.312449 0.027624 -0.004123 -801226.000000 0 0 1
4.631599 6.859701 23.702662 25.106242 0.976916 0.335960 0.015355 -0.010816 -1664130.000000 0 0 1
6.145899 6.898601 23.732972 25.467955 0.843037 0.371247 0.023204 -0.009748 -574959.000000 0 0 1
6.885499 5.937201 24.517552 26.149012 0.711578 0.355107 0.040083 -0.015172 233999.000000 0 0 1
6.591799 4.513301 24.388172 25.663293 0.600373 0.316555 0.047813 -0.015560 -879653.000000 0 0 1
6.938199 3.861901 22.999362 24.331534 0.507907 0.332439 0.053034 -0.018942 439218.000000 0 1 0
5.913899 4.001901 22.003162 23.132846 0.594913 0.313807 0.022270 -0.010539 69364.900000 0 1 0
4.730899 3.265401 22.264862 22.994963 0.604138 0.252666 0.017353 -0.010905 -658623.000000 0 1 0
3.596399 3.659501 21.350762 21.958622 0.794095 0.235842 0.002595 -0.002072 -713710.000000 0 1 0
3.186499 4.981701 21.506362 22.304590 1.001738 0.268340 0.001406 -0.003253 -473915.000000 0 1 0
2.080199 5.198101 20.685162 21.429499 1.190131 0.264338 0.007646 -0.003872 -391872.000000 0 1 0
1.572599 6.692901 20.700662 21.812505 1.340017 0.320661 0.018018 -0.006166 43316.300000 0 1 0
2.347699 7.662101 19.999362 21.545161 1.273475 0.381108 0.013358 -0.009807 80359.700000 0 1 0
1.688199 8.947201 19.981862 21.958534 1.384304 0.427557 0.023064 -0.016435 638874.000000 0 1 0
2.594999 10.192001 19.601762 22.244999 1.321482 0.492452 0.021564 -0.016615 146415.000000 0 1 0
2.974399 10.254401 18.225762 21.122930 1.288483 0.529930 0.012480 -0.013110 -111226.000000 0 1 0
3.788399 11.385701 17.883362 21.536035 1.249586 0.590985 0.010530 -0.010221 -419079.000000 0 1 0
5.283199 11.206501 18.032562 21.878554 1.130256 0.601987 0.019371 -0.009805 -1064220.000000 0 1 0
5.790799 10.288301 17.049362 20.737966 1.058139 0.605649 0.021710 -0.010556 743637.000000 0 1 0
7.175399 10.001301 17.317062 21.246011 0.948457 0.617940 0.024993 -0.002963 698992.000000 0 1 0
7.309399 8.651501 17.970862 21.242120 0.869288 0.562356 0.023536 0.002972 -174352.000000 0 1 0
6.697299 8.514401 19.252462 22.090861 0.904289 0.512518 0.019662 -0.001497 -180167.000000 0 1 0
6.657299 7.195401 19.777262 22.073367 0.824223 0.460167 0.016553 -0.010061 387795.000000 0 1 0
8.001099 6.437401 19.995662 22.478528 0.677518 0.474448 0.044800 -0.018510 325000.000000 0 1 0
8.641799 6.035901 18.813962 21.565666 0.609688 0.510698 0.038685 -0.020005 19657.200000 0 1 0
9.912999 5.431201 19.047662 22.149016 0.501219 0.535570 0.045213 -0.022377 432324.000000 0 1 0
9.944899 3.864901 19.014362 21.803313 0.370668 0.511347 0.050233 -0.021904 -144395.000000 0 1 0
9.274499 3.373001 20.152862 22.439503 0.348814 0.455372 0.063091 -0.021464 -62105.100000 0 1 0
9.399099 1.956101 20.104062 22.278750 0.205187 0.445519 0.060666 -0.032967 24045.200000 0 1 0
8.651499 1.262901 21.275762 23.002204 0.144951 0.389907 0.060734 -0.024683 -58189.600000 0 1 0
9.142999 1.478901 22.555562 24.383088 0.160363 0.389631 0.067879 -0.020697 191554.000000 0 1 0
8.427499 0.549101 23.366262 24.845653 0.065064 0.346825 0.062047 -0.029442 155578.000000 0 1 0
8.986599 0.679601 24.837582 26.422080 0.075480 0.348074 0.049973 -0.023200 -118655.000000 0 0 1
10.290799 0.261201 25.136252 27.162473 0.025377 0.388697 0.049412 -0.022327 -106762.000000 0 0 1
10.438799 -1.105099 25.213172 27.311057 -0.105472 0.394509 0.044075 -0.022766 795491.000000 0 0 1
11.911499 -1.699799 25.238092 27.959514 -0.141745 0.444872 0.030555 -0.011505 1027120.000000 0 0 1
11.926499 -3.087199 25.380022 28.212013 -0.253293 0.451903 0.037835 -0.003075 -22032.000000 0 0 1
13.232899 -3.617699 25.305032 28.784406 -0.266866 0.496777 0.021063 -0.000111 -67792.000000 0 0 1
13.240299 -5.162699 25.452952 29.151531 -0.371789 0.509219 0.023117 -0.006601 -174766.000000 0 0 1
12.833599 -5.890299 24.324362 28.125993 -0.430292 0.525973 0.037497 -0.010195 178703.000000 0 0 1
12.712199 -7.277199 24.593052 28.624742 -0.519922 0.537183 0.031406 -0.010323 -122852.000000 0 0 1
12.569299 -8.060899 23.275262 27.653267 -0.570247 0.570405 0.046469 -0.008933 128685.000000 0 0 1
12.045099 -9.357699 23.529362 28.040717 -0.660489 0.575144 0.039617 -0.003608 -161079.000000 0 0 1
12.262199 -10.171999 22.415262 27.500456 -0.692496 0.617917 0.040605 -0.006651 281547.000000 0 0 1
11.452499 -11.497199 22.424162 27.680108 -0.787346 0.626442 0.050325 -0.001405 711823.000000 0 0 1
10.032199 -11.429899 22.324362 27.012307 -0.850430 0.598021 0.045536 0.000937 196263.000000 0 0 1
9.513399 -12.772099 22.232262 27.347847 -0.930594 0.621607 0.036750 0.002146 -140747.000000 0 0 1
7.993499 -12.806299 22.382962 26.998043 -1.012783 0.593374 0.013512 0.005454 -176383.000000 0 0 1
7.253799 -12.048599 21.464862 25.661774 -1.028874 0.580018 0.004218 -0.002641 -984805.000000 0 0 1
5.888599 -11.965799 21.702462 25.472589 -1.113473 0.551016 -0.002383 -0.001713 -461766.000000 0 0 1
5.252399 -10.666399 21.103962 24.222654 -1.113227 0.513055 -0.007502 -0.009643 -17510.200000 0 1 0
5.470199 -9.484499 21.852762 24.442218 -1.047647 0.464472 -0.000880 -0.003972 -652528.000000 0 1 0
4.831799 -8.402099 21.263962 23.368732 -1.048909 0.427676 -0.001862 -0.008162 -446357.000000 0 1 0
5.130699 -7.007899 21.876362 23.537416 -0.938830 0.377933 0.005221 -0.007077 46398.200000 0 1 0
4.382899 -5.948099 21.277862 22.524145 -0.935760 0.334212 -0.006780 -0.015176 -287113.000000 0 1 0
4.814699 -4.665599 21.641662 22.656361 -0.769672 0.300416 0.019497 -0.027409 -243269.000000 0 1 0
-8.007001 -15.505499 -20.893085 27.222299 1.094117 2.445727 0.024181 0.000511 77045.600000 0 0 1
-7.384501 -14.945799 -19.736585 25.834871 1.111892 2.440211 0.010977 0.002929 215733.000000 0 0 1
-6.603201 -13.804099 -20.067485 25.236073 1.124618 2.490118 0.006507 -0.004672 -44479.400000 0 0 1
-5.978201 -13.189699 -18.794685 23.726509 1.145245 2.485101 -0.000637 -0.001192 526077.000000 0 1 0
-4.917201 -13.987299 -18.247885 23.511885 1.232744 2.459275 0.006969 0.001225 219277.000000 0 1 0
-4.362801 -13.484499 -17.094685 22.205720 1.257884 2.449375 0.028186 -0.009576 63349.100000 0 1 0
-3.402501 -14.435699 -16.324585 22.055804 1.339321 2.404088 0.027440 -0.007519 -712474.000000 0 1 0
-2.243301 -14.715499 -16.993185 22.590853 1.419516 2.422214 0.015551 -0.013224 -1250880.000000 0 1 0
-1.450301 -15.624799 -16.263485 22.599528 1.478241 2.374078 0.017669 -0.009728 -220824.000000 0 1 0
-0.077501 -15.843199 -16.925885 23.184015 1.565905 2.389216 0.020959 -0.014134 -91805.100000 0 1 0
-0.176001 -16.495699 -18.179085 24.548283 1.560127 2.404676 0.028512 -0.016515 -127623.000000 0 1 0
-0.242201 -17.925099 -18.051985 25.440952 1.557285 2.359676 0.028372 -0.008006 -216306.000000 0 0 1
-0.505801 -18.495699 -19.460285 26.852363 1.543456 2.381416 0.028424 -0.020065 -318050.000000 0 0 1
-1.819801 -18.178999 -19.812285 26.950220 1.471024 2.396675 0.023397 -0.017957 -759170.000000 0 0 1
-2.084901 -18.525499 -21.095385 28.152375 1.458726 2.417844 0.024786 -0.016422 813930.000000 0 0 1
-3.470801 -18.057199 -21.724185 28.461362 1.380901 2.439182 0.023728 -0.007560 1244580.000000 0 0 1
-3.548501 -16.650499 -21.842485 27.693413 1.360821 2.479528 0.021028 0.001045 -230220.000000 0 0 1
-3.737301 -15.941699 -20.662785 26.363913 1.340519 2.471481 -0.000697 -0.003214 -352340.000000 0 0 1
-2.615201 -14.884099 -20.356285 25.352594 1.396867 2.502986 0.021359 -0.004267 184830.000000 0 0 1
-2.658101 -13.799699 -21.307785 25.524868 1.380507 2.558539 0.014685 -0.006609 62020.100000 0 0 1
-1.907601 -12.706299 -20.832885 24.476480 1.421779 2.588947 0.028007 -0.012363 -23130.100000 0 1 0
-1.598601 -11.732999 -22.018185 25.000385 1.435382 2.648164 0.032790 -0.007529 614836.000000 0 0 1
-2.693301 -10.855299 -22.336985 24.980638 1.327598 2.677375 0.017761 -0.006078 617585.000000 0 1 0
-2.631401 -10.407899 -23.591485 25.919236 1.323158 2.714544 0.020927 -0.003631 200028.000000 0 0 1
-3.613001 -9.212299 -23.760285 25.738519 1.197038 2.746968 0.018046 -0.007216 1497730.000000 0 0 1
-5.041901 -9.473699 -23.807385 26.114428 1.081722 2.718093 0.024835 -0.011097 1696690.000000 0 0 1
-5.735401 -8.222299 -23.933685 25.948455 0.961722 2.744929 0.023924 -0.014769 -865700.000000 0 0 1
-7.248101 -8.281799 -23.751085 26.177036 0.851862 2.707674 0.001887 -0.014105 -338766.000000 0 0 1
-8.068901 -8.629699 -24.831885 27.499116 0.818969 2.697513 0.014370 -0.014656 -8179.870000 0 0 1
-8.151801 -7.584399 -25.806615 28.106162 0.749357 2.734267 0.019422 -0.022872 -469427.000000 0 0 1
-9.081401 -7.970999 -26.976755 29.559330 0.720373 2.720471 0.019625 -0.030924 -172481.000000 0 0 1
-9.771701 -6.898299 -27.509305 29.997242 0.614706 2.731443 0.026383 -0.036599 -339355.000000 0 0 1
-10.344701 -7.384399 -28.706415 31.394274 0.619950 2.724780 0.031996 -0.035676 -605354.000000 0 0 1
-11.249401 -6.355599 -29.354155 32.071936 0.514266 2.726949 0.038172 -0.045640 -606725.000000 0 0 1
-10.622701 -5.364199 -30.094955 32.362366 0.467620 2.765037 0.022154 -0.033938 -717192.000000 0 0 1
-11.436001 -4.902499 -31.099885 33.496559 0.404992 2.761015 0.037190 -0.039254 -545451.000000 0 0 1
-10.756701 -3.887099 -32.032285 34.012989 0.346764 2.798641 0.039441 -0.032418 -83031.700000 0 0 1
-9.659101 -4.361799 -32.768805 34.440066 0.424162 2.828785 0.033983 -0.029753 -236123.000000 0 0 1
-9.134001 -3.431499 -33.668165 35.053538 0.359370 2.859512 0.025140 -0.025519 -329574.000000 0 0 1
-8.035901 -4.103399 34.287205 35.454563 0.472118 0.257324 0.017536 -0.024221 -471871.000000 0 0 1
-6.809901 -4.257399 -33.847455 34.787216 0.558727 2.908625 0.013092 -0.023797 376256.000000 0 0 1
-5.809701 -4.775199 33.989883 34.811884 0.687974 0.217744 0.002898 -0.020015 1319920.000000 0 0 1
-4.329601 -4.445099 34.328540 34.884854 0.798560 0.178828 0.012254 -0.017203 387931.000000 0 0 1
-4.032201 -3.048099 34.246011 34.617031 0.647291 0.146540 0.030673 -0.024209 -916897.000000 0 0 1
-2.690101 -2.761799 -34.369810 34.585373 0.798548 3.029885 0.034792 -0.029980 -781970.000000 0 0 1
-2.404301 -1.342499 -33.915595 34.027203 0.509250 3.060577 0.046792 -0.030868 -47458.100000 0 0 1
-2.849301 -1.139499 -32.570685 32.714928 0.380439 3.047653 0.031528 -0.029525 271537.000000 0 0 1
-3.295201 0.140101 -32.268735 32.436850 -0.042491 3.039737 0.037154 -0.028619 -577299.000000 0 0 1
-3.758201 0.342001 -30.788745 31.019153 -0.090751 3.019632 0.067574 -0.027714 660191.000000 0 0 1
-4.950901 -0.325599 -30.388315 30.790699 0.065671 2.979748 0.046448 -0.030139 998283.000000 0 0 1
-6.197801 0.300001 -30.739475 31.359497 -0.048367 2.942410 0.055017 -0.031216 865773.000000 0 0 1
-7.422101 -0.652199 -30.542925 31.438563 0.087647 2.902324 0.051002 -0.034798 294691.000000 0 0 1
-7.691901 -1.050899 -29.220705 30.234407 0.135783 2.881912 0.036325 -0.032345 205109.000000 0 0 1
-8.654601 -2.114599 -29.274365 30.600034 0.239637 2.846164 0.040440 -0.032619 475088.000000 0 0 1
-9.138801 -2.588299 -27.853135 29.428118 0.275993 2.812947 0.034307 -0.032899 -202144.000000 0 0 1
-10.068301 -1.791299 -27.187765 29.047444 0.176072 2.781823 0.034894 -0.031320 -110841.000000 0 0 1
-10.420601 -2.458899 -25.999805 28.118054 0.231726 2.750953 0.031073 -0.025314 -85560.500000 0 0 1
-11.321501 -1.623599 -25.070985 27.556610 0.142437 2.713597 0.036133 -0.024944 269705.000000 0 0 1
-10.666301 -0.485999 -24.446085 26.676155 0.045533 2.729793 0.038230 -0.021043 858103.000000 0 0 1
-11.544601 0.208501 -23.547385 26.225953 -0.018058 2.685694 0.040048 -0.020931 464914.000000 0 0 1
-10.728001 1.395201 -23.023085 25.438141 -0.129326 2.702321 0.039904 -0.017766 276354.000000 0 0 1
-10.570901 2.428601 -23.957785 26.298622 -0.225825 2.716475 0.031751 -0.019270 -450378.000000 0 0 1
-9.766501 3.417301 -23.460885 25.641287 -0.336586 2.726218 0.032137 -0.013804 -685707.000000 0 0 1
-9.662901 4.635601 -24.407185 26.656540 -0.447302 2.727837 0.042530 -0.016452 1044840.000000 0 0 1
-10.943401 5.282201 -24.649985 27.482384 -0.449699 2.683591 0.044159 -0.012069 970828.000000 0 0 1
-11.550101 4.809201 -25.830305 28.700835 -0.394545 2.690530 0.037175 -0.015287 704546.000000 0 0 1
-12.941901 5.480001 -26.162115 29.698139 -0.400541 2.648630 0.029858 -0.003454 903900.000000 0 0 1
-12.857001 6.830101 -26.597505 30.321280 -0.488323 2.640773 0.035431 -0.001060 803000.000000 0 0 1
-14.182201 7.371501 -26.766925 31.175986 -0.479339 2.603280 0.039596 -0.000529 673484.000000 0 0 1
-14.289601 8.938701 -26.861135 31.711412 -0.558987 2.581206 0.054198 -0.000905 -253588.000000 0 0 1
-14.289901 9.586301 -25.575545 30.825427 -0.590889 2.549348 0.075748 -0.009181 318909.000000 0 0 1
-14.554101 10.989101 -25.743175 31.548269 -0.646726 2.525242 0.071389 -0.011465 -175261.000000 0 0 1
-14.083901 11.741001 -24.530885 30.626323 -0.694923 2.499716 0.062160 -0.007990 171880.000000 0 0 1
-14.892501 11.446601 -23.384985 29.994479 -0.655309 2.464892 0.066594 -0.006566 582873.000000 0 0 1
-14.354201 12.140501 -22.235985 29.118274 -0.702039 2.439734 0.049392 -0.006979 16213.200000 0 0 1
-15.140601 12.050201 -20.887585 28.473432 -0.672228 2.394373 0.047502 -0.010946 916016.000000 0 0 1
-16.413301 12.734501 -20.991185 29.532928 -0.659850 2.361392 0.041036 -0.017838 934886.000000 0 0 1
-17.092001 12.817301 -19.755585 29.098159 -0.643437 2.317099 0.040060 -0.012169 -47484.000000 0 0 1
-18.543901 13.326901 -19.884585 30.280014 -0.623145 2.287218 0.046273 -0.016634 -147296.000000 0 0 1
-18.749401 14.584601 -20.503585 31.379095 -0.661101 2.282884 0.042301 -0.011701 776401.000000 0 0 1
-20.162201 14.785401 -20.640185 32.421284 -0.632742 2.260910 0.034906 -0.014627 612154.000000 0 0 1
-20.506501 16.123601 -21.312585 33.685507 -0.666311 2.255822 0.035509 -0.010987 -180463.000000 0 0 1
-20.444501 16.133101 -22.751185 34.581368 -0.668070 2.288827 0.038269 -0.016616 226623.000000 0 0 1
-20.905501 17.374401 -23.225585 35.753847 -0.693414 2.277850 0.022916 -0.003660 -426527.000000 0 0 1
-20.960001 17.385301 -24.790885 36.826055 -0.692443 2.309309 0.015409 -0.005189 -617220.000000 0 0 1
-19.661301 17.437801 -25.280775 36.465891 -0.725536 2.336815 0.016628 -0.004746 -390968.000000 0 0 1
-19.556801 16.994201 -26.601865 37.133954 -0.715402 2.369390 0.016039 -0.007245 -402826.000000 0 0 1
-18.518801 17.858101 -27.295825 37.508930 -0.767238 2.385781 0.003205 0.003457 -260244.000000 0 0 1
-19.078901 19.052501 -27.744155 38.687729 -0.784706 2.370473 -0.012685 -0.007090 429459.000000 0 0 1
-18.247701 20.110501 -27.305525 38.509772 -0.833923 2.358953 -0.019760 -0.013417 -637755.000000 0 0 1
-18.958801 21.493901 -27.401545 39.651842 -0.847985 2.333742 0.013711 -0.006730 780999.000000 0 0 1
-19.982001 21.862401 -26.465295 39.719728 -0.830306 2.300034 0.030188 -0.007024 285507.000000 0 0 1
-21.210101 21.224401 -26.644095 40.127938 -0.785735 2.296923 0.053810 -0.013577 -979686.000000 0 0 1
-22.314801 21.517401 -25.632165 40.223833 -0.767208 2.261706 0.054739 -0.003929 -120560.000000 0 0 1
-22.051001 21.082201 -24.352585 39.035295 -0.762941 2.244469 0.027604 -0.001359 328632.000000 0 0 1
-23.118401 21.506201 -23.515485 39.369470 -0.749286 2.210930 0.031636 -0.009573 149277.000000 0 0 1
-22.815101 21.118801 -22.041185 38.109663 -0.746807 2.187516 0.043086 0.002622 -242752.000000 0 0 1
-21.743801 21.761901 -21.385085 37.465919 -0.785814 2.178261 0.039396 0.001609 249907.000000 0 0 1
-20.660001 20.885201 -21.095685 36.167046 -0.790819 2.193563 0.028720 0.003644 61048.800000 0 0 1
-20.830301 20.175001 -19.715685 35.066228 -0.769419 2.167890 0.036577 -0.002183 -878689.000000 0 0 1
-21.728001 19.076101 -19.804785 35.046158 -0.720498 2.171358 0.058147 -0.002454 257279.000000 0 0 1
-22.212801 18.670501 -18.556085 34.443061 -0.698970 2.139745 0.045293 -0.001029 -422182.000000 0 0 1
-23.271101 19.542401 -17.909485 35.273208 -0.698526 2.103351 0.036875 -0.006367 -1240670.000000 0 0 1
-24.484801 19.540901 -18.603285 36.433974 -0.673571 2.106682 0.027684 -0.002776 -96872.100000 0 0 1
-25.375341 20.597701 -18.286785 37.451031 -0.681847 2.080920 0.024054 -0.004002 -271835.000000 0 0 1
-26.728921 20.440401 -19.072985 38.678469 -0.652862 2.086465 0.005561 0.012441 875793.000000 0 0 1
-27.608851 19.367701 -18.751985 38.587478 -0.611734 2.078258 -0.000722 0.004308 433006.000000 0 0 1
-27.926411 19.209501 -17.397085 38.099185 -0.602533 2.044996 -0.001427 -0.001114 -1476080.000000 0 0 1
-28.951521 18.162001 -17.042785 38.190383 -0.560269 2.033376 -0.003062 -0.003732 -391521.000000 0 0 1
-28.359531 16.846701 -17.077585 37.144559 -0.536026 2.048521 0.014338 -0.016231 390670.000000 0 0 1
-29.298581 15.842201 -16.797885 37.303500 -0.495687 2.037901 0.003470 -0.009339 40865.300000 0 0 1
-28.623861 14.747101 -15.977985 35.945770 -0.475736 2.031415 0.031476 -0.013269 -164109.000000 0 0 1
-27.939251 15.141701 -14.763585 35.040495 -0.496642 2.005707 0.024487 -0.013059 230683.000000 0 0 1
-28.753141 15.490001 -13.628685 35.389607 -0.494145 1.966117 0.001560 -0.007534 138157.000000 0 0 1
-28.000461 16.112801 -12.412285 34.607990 -0.522171 1.937622 0.003534 -0.009534 117740.000000 0 0 1
-27.525641 17.466101 -12.559685 34.935244 -0.565430 1.938543 -0.005136 -0.002839 -189607.000000 0 0 1
-28.515421 18.424801 -12.298385 36.108902 -0.573653 1.918342 -0.013371 0.004104 -161975.000000 0 0 1
-28.048281 19.889601 -12.347185 36.534303 -0.616821 1.915546 0.007562 -0.005224 144128.000000 0 0 1
-27.264641 20.380601 -11.257885 35.853445 -0.641906 1.890197 -0.009949 -0.006297 322234.000000 0 0 1
-26.449351 21.475901 -11.646685 36.005941 -0.681993 1.900186 -0.016497 -0.008896 463224.000000 0 0 1
-25.532481 22.129301 -10.592385 35.409210 -0.714116 1.874590 -0.012601 0.001596 340178.000000 0 0 1
-26.300961 22.901301 -9.657285 36.186645 -0.716412 1.840945 -0.005028 0.000417 449684.000000 0 0 1
-26.011351 24.280301 -9.836085 36.917096 -0.750992 1.840491 0.000404 -0.002706 187413.000000 0 0 1
-26.763441 25.035401 -8.684985 37.662741 -0.752050 1.803489 0.010797 0.010351 69032.900000 0 0 1
-26.130771 24.956901 -7.425985 36.889149 -0.762425 1.773487 -0.000910 0.011087 -256175.000000 0 0 1
-26.906701 25.414101 -6.376185 37.556661 -0.756878 1.741398 0.016141 0.001364 -252373.000000 0 0 1
-26.807411 24.537301 -5.104485 36.698395 -0.741214 1.710342 0.022451 0.001526 -42869.100000 0 0 1
-27.100881 23.157501 -5.283585 36.036702 -0.707096 1.717944 0.029786 0.001807 -1228.280000 0 0 1
-26.649121 22.365301 -4.157385 35.038068 -0.698221 1.689730 0.031328 0.000380 213037.000000 0 0 1
-26.688971 20.841201 -4.458185 34.154535 -0.662981 1.701700 0.034318 0.005419 431237.000000 0 0 1
-25.740611 20.356001 -5.414485 33.260524 -0.669114 1.734314 0.020075 -0.003114 205904.000000 0 0 1
-26.059391 20.747701 -6.758485 33.988764 -0.672401 1.770975 0.003508 0.001734 -218440.000000 0 0 1
-27.136281 19.862601 -7.483585 34.451483 -0.631853 1.789763 0.006094 -0.002294 220908.000000 0 0 1
-26.754591 18.493601 -7.582085 33.396249 -0.604816 1.799827 0.000626 0.004236 235897.000000 0 0 1
-27.005091 17.882401 -8.806485 33.565002 -0.584894 1.836275 -0.012075 0.001852 -155633.000000 0 0 1
-26.600421 16.400501 -8.966885 32.510980 -0.552500 1.850230 0.009262 -0.000989 263395.000000 0 0 1
-27.353771 15.560901 -8.073685 32.489303 -0.517220 1.821931 0.007952 0.007763 465803.000000 0 0 1
-27.079771 14.254701 -8.551185 31.774727 -0.484541 1.843275 0.008982 -0.002074 -20509.600000 0 0 1
-27.782231 13.151201 -7.787685 31.708902 -0.442115 1.818934 0.010766 -0.000194 -267028.000000 0 0 1
-29.191891 13.176901 -7.730385 32.947778 -0.424008 1.807630 0.029127 0.006346 -65435.400000 0 0 1
-29.654651 12.161801 -6.811785 32.767486 -0.389195 1.780206 0.054966 -0.002290 252154.000000 0 0 1
-30.297641 10.869401 -7.440185 33.037059 -0.344452 1.797952 0.036656 0.004937 -309723.000000 0 0 1
-29.347511 10.024601 -8.000485 32.027750 -0.329156 1.823269 0.033928 0.006862 -332391.000000 0 0 1
-29.863941 8.744901 -8.203285 32.181084 -0.284861 1.828551 0.030094 0.000143 -400027.000000 0 0 1
-28.827291 7.727901 -8.685285 31.083232 -0.261918 1.853987 0.050128 -0.010095 -450578.000000 0 0 1
-28.446821 7.853701 -10.021185 31.166110 -0.269373 1.898153 0.038205 -0.015825 164180.000000 0 0 1
-27.553221 6.816701 -10.351285 30.212522 -0.242531 1.920496 0.045227 -0.025439 -308838.000000 0 0 1
-26.763621 6.996801 -11.664485 30.021773 -0.255707 1.969837 0.037221 -0.027131 -344397.000000 0 0 1
-25.839081 8.047401 -11.733885 29.497505 -0.301922 1.979906 0.054498 -0.027536 139509.000000 0 0 1
-25.180211 8.137001 -12.926185 29.450638 -0.312558 2.025182 0.053329 -0.023534 -818100.000000 0 0 1
-31.115291 26.360501 -33.662695 52.879243 -0.702859 2.260872 0.009312 -0.012329 -64193.700000 0 0 1
-31.657591 27.635401 -33.895645 53.989195 -0.717666 2.249549 0.006836 -0.013221 205112.000000 0 0 1
-31.699731 27.954501 33.486317 53.922727 -0.722698 0.900771 0.007427 -0.019673 -157850.000000 0 0 1
-32.071251 29.403601 33.238509 54.753405 -0.742031 0.918443 0.017983 -0.019398 -40838.800000 0 0 1
-32.053601 29.732201 31.868232 54.101953 -0.747844 0.940926 0.040783 -0.019311 98285.600000 0 0 1
-32.218491 31.137801 31.667902 54.867566 -0.768342 0.955538 0.046136 -0.023850 27737.300000 0 0 1
-32.102021 31.437901 30.173802 54.123375 -0.774947 0.979425 0.060885 -0.023315 461498.000000 0 0 1
-30.742591 31.522201 29.751122 53.140242 -0.797918 0.976579 0.037014 -0.019368 570403.000000 0 0 1
-30.721161 31.920601 28.357592 52.601022 -0.804543 1.001420 0.041787 -0.016056 255917.000000 0 0 1
-29.259141 32.015101 27.862072 51.549579 -0.830345 0.999776 0.032149 -0.010077 -133231.000000 0 0 1
-28.794561 30.799501 27.272232 50.214645 -0.819029 0.996656 0.033869 -0.012259 -315067.000000 0 0 1
-27.487201 30.837501 26.796902 49.239939 -0.842777 0.995348 0.007538 0.001634 -629094.000000 0 0 1
-27.209561 31.406101 25.365352 48.683719 -0.856870 1.022747 -0.000548 0.002558 -354659.000000 0 0 1
-27.263591 32.829601 25.498372 49.711699 -0.877758 1.032208 -0.004897 0.000847 129344.000000 0 0 1
-28.235571 33.329101 24.607732 50.135984 -0.867945 1.057766 -0.009542 -0.001992 -156451.000000 0 0 1
-28.636671 -34.103669 25.015092 51.077138 0.872316 1.058992 0.004302 -0.002527 -391590.000000 0 0 1
-29.315591 -34.107169 26.241642 52.070401 0.860805 1.042613 0.020073 -0.023130 260578.000000 0 0 1
-29.399551 -32.814869 26.802032 51.570323 0.840239 1.024275 0.001755 -0.026522 -344962.000000 0 0 1
-29.851221 -32.821969 28.270752 52.608103 0.832763 1.003464 0.016535 -0.027631 291769.000000 0 0 1
-31.184101 -33.287869 28.481272 53.774652 0.818017 1.012619 0.017014 -0.032911 352217.000000 0 0 1
-31.518561 -33.474869 29.835002 54.809798 0.815489 0.995198 0.019256 -0.032658 -316622.000000 0 0 1
-32.998321 -33.746469 30.090352 55.974482 0.796607 1.003241 0.035130 -0.036535 -385821.000000 0 0 1
-33.227531 -33.829369 31.501052 56.928124 0.794373 0.984418 0.024302 -0.039406 255953.000000 0 0 1
-34.591151 -34.113369 31.793912 58.061369 0.778444 0.991313 0.022038 -0.031589 301008.000000 0 0 1
-34.861095 34.378101 33.259947 59.189305 -0.778423 0.974085 0.017515 -0.028167 -31066.800000 0 0 1
-34.631959 32.987501 33.564685 58.430607 -0.761084 0.958881 0.014784 -0.021842 131711.000000 0 0 1
-35.537297 32.533001 -34.218979 59.095128 -0.741292 2.188358 0.005749 -0.016288 201311.000000 0 0 1
-35.222294 31.120901 -33.681845 57.823759 -0.723656 2.192587 0.004976 -0.006743 -61306.300000 0 0 1
-34.093928 31.185901 -32.850725 56.693267 -0.740880 2.188846 0.006751 -0.010881 -379135.000000 0 0 1
-33.590331 29.899501 -32.411935 55.433059 -0.727331 2.195312 0.000984 -0.008396 521906.000000 0 0 1
-32.579621 29.990801 -31.238085 54.191307 -0.744047 2.185163 0.001929 -0.006398 290020.000000 0 0 1
-33.206511 30.279201 -29.984555 54.023846 -0.739321 2.159189 0.010207 -0.011854 -72325.900000 0 0 1
-33.352191 31.712001 -29.700465 54.773509 -0.760195 2.143899 0.003223 0.001137 204426.000000 0 0 1
-34.387431 31.944801 -28.574805 54.949842 -0.748591 2.117666 0.005986 0.001317 195811.000000 0 0 1
-33.895871 31.533901 -27.332415 53.762235 -0.749315 2.104115 -0.010574 -0.001123 -560512.000000 0 0 1
-34.934580 31.539101 -26.428245 53.977698 -0.734362 2.082444 0.021315 -0.002054 -558632.000000 0 0 1
-34.539644 31.088101 -25.031185 52.782736 -0.732854 2.064886 0.029205 -0.006800 -190824.000000 0 0 1
-33.917131 32.094401 -24.283185 52.631696 -0.757793 2.050346 0.030092 -0.004451 -239234.000000 0 0 1
-33.730541 32.026601 -22.832385 51.814770 -0.759491 2.027123 0.020331 -0.006192 -850268.000000 0 0 1
-34.887917 31.852501 -21.865485 52.056200 -0.739949 2.004281 0.025324 -0.005195 -624569.000000 0 0 1
35.406994 32.944601 -21.725685 53.018934 0.749388 1.993001 0.030231 -0.011788 153082.000000 0 0 1
-35.408301 34.079701 -20.953285 53.424844 -0.766281 1.973820 0.035323 -0.014987 -339275.000000 0 0 1
-35.339758 33.957601 -19.388585 52.706113 -0.765455 1.947505 0.031226 -0.012152 -7294.510000 0 0 1
-34.493227 32.857201 -19.112785 51.329104 -0.761112 1.952344 0.020980 -0.017557 -40790.300000 0 0 1
-34.120843 32.750401 -17.818185 50.540166 -0.764907 1.931096 0.022852 -0.009085 -354451.000000 0 0 1
-32.989401 31.762901 -17.515685 49.030416 -0.766459 1.936109 0.022798 -0.006093 -108219.000000 0 0 1
-32.801141 31.593501 -16.149585 48.320526 -0.766647 1.911572 0.021783 0.001574 295225.000000 0 0 1
-31.641171 30.778701 -15.923485 46.926000 -0.771582 1.917003 0.020159 0.005245 343006.000000 0 0 1
-31.352471 30.591201 -14.412885 46.114317 -0.773109 1.888669 0.024652 0.002113 77007.100000 0 0 1
-32.453131 30.025201 -13.714985 46.290595 -0.746557 1.871592 0.021073 0.005339 301348.000000 0 0 1
-31.995881 29.484301 -12.468485 45.260618 -0.744569 1.849887 0.026629 0.009523 -254716.000000 0 0 1
-33.042831 28.782101 -11.600985 45.330132 -0.716591 1.829598 0.026782 0.007053 -360453.000000 0 0 1
-32.500411 28.076301 -10.453685 44.202205 -0.712494 1.809555 0.031386 0.009438 316832.000000 0 0 1
-33.297721 27.011501 -10.033285 44.034375 -0.681540 1.800667 0.032108 0.008578 -26510.600000 0 0 1
-32.615751 26.388601 -8.755385 42.857931 -0.680250 1.776533 0.032327 0.004640 276934.000000 0 0 1
-32.389691 27.129401 -7.581385 42.925212 -0.697247 1.748346 0.041438 -0.002021 1473640.000000 0 0 1
-31.115101 27.856801 -7.571485 42.443825 -0.730203 1.750145 0.040960 -0.007198 1033960.000000 0 0 1
-30.684631 28.415901 -6.186885 42.276324 -0.747029 1.717668 0.042352 -0.005662 -185517.000000 0 0 1
-30.027891 27.476801 -5.336585 41.050310 -0.741064 1.701166 0.042559 -0.006666 343701.000000 0 0 1
-29.907321 27.854501 -3.991085 41.063972 -0.749874 1.668142 0.038001 -0.010095 -176073.000000 0 0 1
-29.069641 26.821901 -3.182485 39.681061 -0.745204 1.651084 0.034206 -0.008085 150196.000000 0 0 1
-29.705281 25.575501 -3.003385 39.313233 -0.710831 1.647267 0.022900 -0.006339 396661.000000 0 0 1
-28.855561 24.831601 -2.125585 38.128335 -0.710586 1.626573 0.008079 -0.003049 284856.000000 0 0 1
-29.464571 23.554301 -1.553885 37.754213 -0.674382 1.611966 0.014408 -0.006229 -145917.000000 0 0 1
-29.676221 22.567401 -2.517385 37.367137 -0.650158 1.638216 -0.000609 0.006986 821752.000000 0 0 1
-30.792011 21.706901 -2.171385 37.736619 -0.614042 1.628369 -0.001508 0.004939 679085.000000 0 0 1
-31.203991 20.813701 -3.376585 37.660331 -0.588248 1.660576 0.013440 0.005757 -439159.000000 0 0 1
-30.352101 19.756101 -3.661585 36.400010 -0.577006 1.671560 0.011428 0.001280 -41386.200000 0 0 1
-30.878931 18.989801 -4.753885 36.561186 -0.551359 1.701191 0.022437 0.004539 773197.000000 0 0 1
-29.825391 17.899701 -5.238085 35.176566 -0.540530 1.720261 0.018063 0.010918 664067.000000 0 0 1
-29.715041 16.874101 -4.318885 34.443747 -0.516455 1.696517 0.033593 0.003677 -19698.700000 0 0 1
-29.048861 15.776201 -4.849585 33.410228 -0.497524 1.716464 0.029469 0.004519 -389249.000000 0 0 1
-28.848121 14.581801 -3.875485 32.555528 -0.468012 1.690122 0.043514 -0.004951 -523336.000000 0 0 1
-29.937521 13.791501 -3.583685 33.155745 -0.431697 1.679094 0.060945 -0.008173 -251177.000000 0 0 1
-29.409861 12.634901 -2.933285 32.143192 -0.405773 1.662180 0.065116 -0.012707 -472253.000000 0 0 1
-30.443391 11.748201 -2.309485 32.713208 -0.368295 1.641453 0.088801 -0.013035 -704173.000000 0 0 1
-31.312621 11.205501 -3.298585 33.420415 -0.343659 1.669657 0.082972 -0.003372 347936.000000 0 0 1
-32.071771 10.180701 -2.670885 33.754685 -0.307374 1.650005 0.069329 0.003189 -493218.000000 0 0 1
-33.162021 9.600501 -3.551285 34.705920 -0.281799 1.673301 0.048189 0.003270 -437558.000000 0 0 1
-32.657291 8.785101 -4.539085 34.121547 -0.262788 1.704219 0.047046 -0.013606 79066.200000 0 0 1
-33.704641 8.335801 -5.341585 35.128634 -0.242454 1.723446 0.055965 -0.004681 -259982.000000 0 0 1
-33.210791 7.561601 -6.615985 34.697344 -0.223869 1.762648 0.053731 -0.007498 -119788.000000 0 0 1
-32.656591 6.285501 -6.325185 33.852155 -0.190147 1.758748 0.048547 -0.008886 444225.000000 0 0 1
-32.267541 5.570001 -7.504885 33.593785 -0.170935 1.796099 0.041558 -0.007354 -437923.000000 0 0 1
-31.149511 4.605401 -7.109785 32.280812 -0.146785 1.792865 0.044512 -0.011671 -1107190.000000 0 0 1
-29.876011 5.120501 -6.937885 31.095495 -0.169742 1.795806 0.050205 -0.013453 -852569.000000 0 0 1
-29.046491 4.017501 -6.712985 30.081608 -0.137441 1.795850 0.043866 -0.017359 -777993.000000 0 0 1
-27.587501 4.416501 -6.482185 28.680907 -0.158744 1.798777 0.065777 -0.017698 -492937.000000 0 0 1
-26.866111 4.699601 -7.641885 28.324417 -0.173175 1.843980 0.059925 -0.014211 -795241.000000 0 0 1
-25.516781 4.865001 -7.365585 27.000485 -0.188398 1.847093 0.073883 -0.026339 -954347.000000 0 0 1
-24.751001 5.278801 -8.590985 26.726070 -0.210128 1.898052 0.064242 -0.021482 -447027.000000 0 0 1
-25.030501 4.460001 -9.691485 27.209235 -0.176332 1.934977 0.063033 -0.032031 240348.000000 0 0 1
-24.013601 4.621401 -10.639885 26.668662 -0.190125 1.981185 0.061226 -0.030609 -476637.000000 0 0 1
-24.226301 3.834001 -11.922585 27.271987 -0.156956 2.023250 0.058212 -0.038270 -105109.000000 0 0 1
-25.301981 4.373101 -12.660885 28.628871 -0.171145 2.028893 0.059138 -0.026427 359994.000000 0 0 1
-25.732471 3.556101 -13.766885 29.399541 -0.137325 2.058127 0.053439 -0.023911 -54976.800000 0 0 1
-26.687811 4.313001 -14.692285 30.768563 -0.160224 2.068614 0.051324 -0.020884 -567089.000000 0 0 1
-26.015431 5.260401 -15.487785 30.730212 -0.199513 2.099011 0.051930 -0.018960 297193.000000 0 0 1
-26.851831 6.162701 -16.191485 31.955655 -0.225601 2.102133 0.083947 -0.026911 -367569.000000 0 0 1
-27.574221 5.574301 -17.420685 33.089134 -0.199468 2.125248 0.043496 -0.009129 -437239.000000 0 0 1
-28.825681 5.086201 -17.006885 33.852968 -0.174649 2.097140 0.046661 -0.015161 -848420.000000 0 0 1
-29.436151 4.407601 -18.070185 34.820188 -0.148630 2.116427 0.052314 -0.007550 -75272.400000 0 0 1
-30.825201 3.921601 -17.591485 35.707595 -0.126541 2.085933 0.048266 -0.009192 -223411.000000 0 0 1
-30.759281 2.737201 -16.760785 35.136157 -0.088754 2.068062 0.043603 -0.018452 360229.000000 0 0 1
-30.383511 1.557301 -17.473685 35.084364 -0.051210 2.092142 0.055401 -0.017644 -287115.000000 0 0 1
-30.494421 0.269401 -16.630885 34.735697 -0.008834 2.070065 0.059838 -0.016095 -587221.000000 0 0 1
-30.059491 -0.898399 -17.249685 34.668887 0.029878 2.091574 0.057723 -0.004178 208498.000000 0 0 1
-30.285891 -1.988799 -16.391985 34.494749 0.065573 2.065990 0.056400 -0.013736 -46007.600000 0 0 1
-29.893091 -3.304799 -16.977185 34.536117 0.110107 2.084697 0.058138 -0.007837 -337445.000000 0 0 1
-30.719441 -3.435499 -18.097985 35.819321 0.111372 2.100477 0.067652 -0.009364 44781.500000 0 0 1
-30.656551 -4.714099 -18.707585 36.221825 0.152576 2.113523 0.066425 -0.007020 -158302.000000 0 0 1
-31.768471 -4.892399 -19.742585 37.721890 0.152801 2.121600 0.077472 -0.013756 -212424.000000 0 0 1
-31.546011 -6.119799 -20.440185 38.084169 0.191616 2.137330 0.083426 -0.009473 -356628.000000 0 0 1
-32.487001 -6.178199 -21.447485 39.415352 0.187930 2.146161 0.086909 -0.012146 -836295.000000 0 0 1
-32.275631 -7.306599 -22.475985 40.003408 0.222629 2.167419 0.091252 -0.005450 222262.000000 0 0 1
-31.131291 -7.104199 -23.300785 39.529148 0.224359 2.201184 0.086711 -0.009423 155758.000000 0 0 1
-30.893811 -8.144699 -24.148485 40.048883 0.257770 2.218022 0.076222 -0.009822 273972.000000 0 0 1
-29.578681 -7.934199 -24.959785 39.507477 0.262071 2.254636 0.060403 -0.002762 -4643.450000 0 0 1
-29.598751 -6.746199 -25.775855 39.824515 0.224094 2.274749 0.065138 -0.008791 21109.500000 0 0 1
-29.665461 -7.047599 -27.134455 40.816503 0.233245 2.298011 0.051975 -0.009890 127277.000000 0 0 1
-31.043911 -7.297499 -27.805425 42.309805 0.230879 2.287876 0.058374 -0.004949 -18764.600000 0 0 1
-31.652081 -8.531999 -27.490585 42.782958 0.263298 2.268630 0.055212 -0.011389 -688211.000000 0 0 1
-32.938011 -8.616199 -28.010965 44.088157 0.255855 2.259245 0.060546 -0.016804 -325407.000000 0 0 1
-33.762891 -9.800499 -27.486995 44.626421 0.282510 2.234369 0.049452 -0.014410 -352044.000000 0 0 1
-33.199721 -11.027299 -27.913275 44.754594 0.320686 2.244259 0.042731 -0.005648 361131.000000 0 0 1
-34.069071 -12.134599 -27.692075 45.549985 0.342167 2.224271 0.033034 -0.005339 393414.000000 0 0 1
-35.352145 -12.294799 -28.569915 47.086901 0.334696 2.222760 0.022675 -0.002720 184325.000000 0 0 1
34.824694 -11.428999 -28.115595 46.193810 -0.317111 2.225147 0.015948 -0.008559 -201482.000000 0 0 1
34.056974 -10.987699 -29.232645 46.207733 -0.312084 2.255748 0.013521 -0.016550 164013.000000 0 0 1
33.224374 -9.708399 -28.814255 45.037466 -0.284292 2.265014 0.005484 -0.007151 -182398.000000 0 0 1
32.090964 -10.082099 -28.102955 43.832121 -0.304408 2.266792 -0.008297 -0.008143 -170247.000000 0 0 1
31.262684 -8.972699 -27.722865 42.736659 -0.279497 2.276659 -0.026318 -0.004428 344544.000000 0 0 1
30.053484 -9.288099 -26.823865 41.340059 -0.299741 2.276880 -0.019770 0.000324 33370.000000 0 0 1
30.398134 -9.448599 -25.504485 40.789721 -0.301361 2.246271 -0.031399 0.008722 -73214.900000 0 0 1
29.218774 -9.527199 -24.763685 39.468271 -0.315194 2.249048 -0.037257 0.020142 -275791.000000 0 0 1
29.612934 -9.537999 -23.261485 38.845798 -0.311597 2.212818 -0.045357 0.024855 97410.200000 0 0 1
30.211104 -10.794099 -23.025685 39.489310 -0.343154 2.193319 -0.049821 0.017662 56971.000000 0 0 1
30.356614 -10.980999 -21.635485 38.861299 -0.347089 2.161248 -0.038052 0.017731 -148087.000000 0 0 1
31.071294 -12.296299 -21.228385 39.588744 -0.376833 2.136752 -0.014223 0.017768 -576110.000000 0 0 1
32.397684 -12.280999 -21.643685 40.851952 -0.362334 2.129170 -0.004335 0.013782 -323195.000000 0 0 1
33.233114 -12.896499 -20.639585 41.191650 -0.370173 2.095622 0.028701 0.009894 1253970.000000 0 0 1
34.783774 -12.891599 -20.948285 42.602053 -0.354926 2.084860 0.052084 -0.007900 878446.000000 0 0 1
35.460319 -11.603899 -21.024885 42.826750 -0.316253 2.083952 0.075801 -0.004032 540693.000000 0 0 1
35.226763 -10.818699 -22.204385 43.023294 -0.297972 2.113089 0.075115 -0.006478 -359668.000000 0 0 1
-35.265051 -11.195199 -23.577985 43.873428 0.307396 2.138158 0.051871 -0.005577 306185.000000 0 0 1
35.424178 -12.419199 -24.118685 44.618605 -0.337196 2.141890 0.046795 -0.002810 238199.000000 0 0 1
34.122694 -12.296599 -24.653185 43.855948 -0.345878 2.167767 0.058501 -0.003988 -157477.000000 0 0 1
33.738454 -13.562599 -25.435915 44.375818 -0.382223 2.181194 0.034795 -0.021608 -285960.000000 0 0 1
33.838134 -14.826899 -24.768185 44.478301 -0.412974 2.161397 0.031706 -0.028111 297734.000000 0 0 1
32.932234 -15.066099 -23.710385 43.286277 -0.429063 2.150478 0.011008 -0.018997 -237050.000000 0 0 1
-29.026921 8.924301 -19.546485 36.114683 -0.298277 2.142700 0.020671 -0.001925 226991.000000 0 0 1
-28.163371 7.834701 -19.856385 35.338846 -0.271327 2.167460 0.024908 -0.001738 300528.000000 0 0 1
-27.223111 8.212701 -20.867285 35.270240 -0.292998 2.203888 0.043147 -0.019048 -617376.000000 0 0 1
-25.955171 7.418201 -20.742885 34.043617 -0.278386 2.225978 0.052203 -0.019170 -1200990.000000 0 0 1
-24.971401 7.932601 -19.894085 32.897897 -0.307586 2.220213 0.059946 -0.018412 455495.000000 0 0 1
-23.802001 7.097201 -20.006385 31.892961 -0.289783 2.248875 0.071424 -0.022448 1813390.000000 0 0 1
-22.402101 7.740201 -19.621285 30.769460 -0.332671 2.262288 0.061972 -0.022447 1023250.000000 0 0 1
-21.876901 8.659501 -20.479485 31.192869 -0.376905 2.287024 0.064839 -0.021907 -968637.000000 0 0 1
-20.660501 9.146901 -20.045985 30.205357 -0.416787 2.296493 0.068042 -0.017742 -1026950.000000 0 0 1
-20.049201 10.125401 -20.989685 30.741846 -0.467662 2.322347 0.054502 -0.013314 -496813.000000 0 0 1
-19.436901 9.451901 -22.056385 30.880668 -0.452617 2.366342 0.060796 -0.009855 -744.400000 0 0 1
-18.824401 10.334901 -22.987885 31.458085 -0.502088 2.390211 0.061948 -0.010669 -244579.000000 0 0 1
-17.954901 9.537101 -23.940085 31.408000 -0.488271 2.437546 0.066252 -0.005177 -428433.000000 0 0 1
-18.668201 8.665501 -24.785185 32.216425 -0.434587 2.448594 0.063894 -0.004867 -9129.380000 0 0 1
-17.838901 8.016101 -25.739435 32.326503 -0.422322 2.491840 0.050512 0.003443 -226610.000000 0 0 1
-18.590701 6.965801 -26.598675 33.190753 -0.358501 2.500409 0.029673 0.005869 176143.000000 0 0 1
-19.064301 5.852501 -25.798065 32.607353 -0.297855 2.483521 0.050225 0.001289 429314.000000 0 0 1
-19.736301 4.836301 -26.538325 33.424453 -0.240311 2.488123 0.046246 0.002674 -437186.000000 0 0 1
-20.143401 3.614701 -25.683125 32.839695 -0.177559 2.468786 0.044526 0.005584 -132159.000000 0 0 1
-19.207701 2.606901 -25.373785 31.930560 -0.134897 2.489236 0.044405 0.006792 -200336.000000 0 0 1
-18.052601 2.923801 -24.664685 30.704913 -0.160566 2.503581 0.035660 0.005914 -707418.000000 0 0 1
-17.237101 1.776301 -24.060585 29.651048 -0.102689 2.517439 0.027921 -0.002884 -360491.000000 0 0 1
-17.772901 1.064601 -22.974785 29.066306 -0.059829 2.482302 0.027767 0.002955 -224436.000000 0 0 1
-18.782201 0.156201 -23.336685 29.956574 -0.008316 2.463893 0.026753 0.002378 -190398.000000 0 0 1
-19.203301 -0.728999 -22.141285 29.317822 0.037944 2.426780 0.027321 0.002748 -253968.000000 0 0 1
-18.323201 -1.786699 -21.889885 28.602431 0.097203 2.442328 0.034561 -0.001941 214379.000000 0 0 1
-18.865001 -2.586299 -20.840985 28.229840 0.136246 2.401285 0.027381 0.008048 176934.000000 0 0 1
-18.237001 -3.993199 -20.770885 27.927827 0.215559 2.409436 0.015795 -0.002495 -58176.200000 0 0 1
-18.736001 -4.773999 -21.826885 29.158905 0.249495 2.416668 0.021117 -0.012611 315374.000000 0 0 1
-18.566201 -6.157199 -21.592385 29.134962 0.320221 2.405527 0.037434 -0.004669 -290927.000000 0 0 1
-18.511401 -7.030899 -22.856885 30.241407 0.362985 2.427693 0.015053 -0.010644 -47999.800000 0 0 1
-17.273701 -6.905299 -23.520285 29.987793 0.380298 2.472410 0.019710 0.001148 55974.900000 0 0 1
-17.393201 -7.754799 -24.626085 31.130442 0.419399 2.483338 0.035803 -0.008643 -51656.500000 0 0 1
-16.151501 -7.768899 -25.517055 31.182477 0.448334 2.529268 0.030949 -0.014000 -1079450.000000 0 0 1
-16.093601 -8.692299 -26.585345 32.269810 0.495218 2.538959 0.035031 -0.047304 879217.000000 0 0 1
-14.732101 -8.886099 -27.051325 32.058879 0.542754 2.575124 0.050453 -0.048168 1237630.000000 0 0 1
-13.770901 -9.671199 -26.129305 31.079099 0.612263 2.569437 0.059914 -0.041722 -723377.000000 0 0 1
-13.292601 -8.950499 -25.018585 29.710844 0.592611 2.571904 0.045118 -0.025855 -30767.100000 0 0 1
-12.402801 -9.777899 -24.298685 28.980388 0.667604 2.565234 0.036120 -0.016850 -275400.000000 0 0 1
-11.568301 -9.043099 -23.258885 27.505981 0.663491 2.578473 0.033309 -0.012404 -584619.000000 0 0 1
-12.121601 -8.737499 -22.016185 26.608072 0.624563 2.545303 0.020621 -0.007822 -435271.000000 0 0 1
-11.335601 -7.903199 -21.220985 25.323638 0.608845 2.564388 0.019404 0.002815 -950342.000000 0 0 1
-11.944301 -7.455399 -19.858285 24.343393 0.558010 2.524833 0.013681 0.000853 259362.000000 0 1 0
-13.032601 -6.535499 -19.834985 24.616825 0.464825 2.507736 0.007311 0.013239 865786.000000 0 1 0
-14.317401 -7.120299 -20.060585 25.653727 0.461500 2.468625 0.004419 0.001800 -79651.100000 0 0 1
-15.439301 -6.180699 -19.621485 25.721115 0.380784 2.438514 0.013322 0.004676 -713217.000000 0 0 1
-15.447001 -5.856799 -18.216185 24.591489 0.362408 2.404985 0.009105 0.006208 370301.000000 0 1 0
-15.010301 -4.534499 -17.979485 23.856502 0.293375 2.424396 0.006950 0.003579 -727660.000000 0 1 0
-14.763401 -4.223299 -16.452085 22.504785 0.278624 2.390653 0.008616 0.005492 -354767.000000 0 1 0
-15.964001 -4.128399 -15.742385 22.797274 0.253063 2.333029 0.028967 -0.000704 -28995.100000 0 1 0
-16.547401 -2.822199 -15.954685 23.158870 0.168927 2.330799 0.004754 -0.001488 209343.000000 0 1 0
-17.826901 -2.586399 -15.088885 23.498134 0.144079 2.268071 0.014981 -0.006878 82469.400000 0 1 0
-17.543601 -2.576799 -13.698685 22.406959 0.145837 2.228572 0.033235 -0.011795 965331.000000 0 1 0
-18.604901 -2.040499 -12.894685 22.728372 0.109239 2.174067 0.039190 -0.011497 232235.000000 0 1 0
-18.146401 -0.805799 -12.067885 21.807683 0.044376 2.157210 0.038333 -0.017661 -36311.900000 0 1 0
-17.769001 0.274301 -12.910085 21.965494 -0.015436 2.199064 0.046428 -0.019182 624815.000000 0 1 0
-16.711701 1.022601 -12.347385 20.803475 -0.061115 2.206228 0.032802 -0.014586 -758670.000000 0 1 0
-16.240601 2.200601 -13.191785 21.038606 -0.134680 2.248528 0.036000 -0.015825 31451.700000 0 1 0
-15.504101 1.873501 -14.359485 21.215135 -0.120256 2.314273 0.028393 -0.014475 357148.000000 0 1 0
-14.160201 1.505301 -14.120485 20.054060 -0.105907 2.351981 0.019723 -0.013483 -773213.000000 0 1 0
-13.624601 0.426201 -15.130185 20.365017 -0.031272 2.408263 0.016666 -0.015114 -138953.000000 0 1 0
-13.288601 1.058701 -16.361185 21.104410 -0.079502 2.457906 0.013058 -0.013803 212534.000000 0 1 0
-12.864601 0.074101 -17.298185 21.557613 -0.005760 2.502130 0.002784 -0.009551 -163079.000000 0 1 0
-12.236901 0.664101 -18.570585 22.249706 -0.054217 2.558283 0.013601 -0.008946 510306.000000 0 1 0
-10.952901 1.255001 -18.325985 21.386510 -0.114084 2.600011 -0.001131 -0.009757 385165.000000 0 1 0
-10.638001 2.268901 -19.290085 22.145482 -0.210134 2.628156 0.008232 -0.011916 -220872.000000 0 1 0
-9.207801 2.791501 -19.149585 21.430882 -0.294360 2.675990 0.007265 -0.011072 -1024580.000000 0 1 0
-8.250601 1.848101 -19.539385 21.290267 -0.220359 2.733203 0.014661 -0.000209 -732071.000000 0 1 0
-6.937401 2.257601 -19.260185 20.595607 -0.314616 2.779506 0.012972 -0.001071 89792.100000 0 1 0
-6.305001 3.268701 -20.239385 21.449246 -0.478283 2.804119 0.014782 0.001833 -959330.000000 0 1 0
-6.136401 2.864001 -21.520585 22.560884 -0.436674 2.836734 0.013971 0.001885 74167.300000 0 1 0
-5.849301 4.006901 -22.310285 23.409793 -0.600603 2.833891 0.011636 0.002513 -196199.000000 0 1 0
-5.336101 3.591701 -23.722985 24.579551 -0.592440 2.876817 0.020667 -0.003663 328264.000000 0 1 0
-4.010401 3.077101 -23.710585 24.243426 -0.654469 2.931546 0.026540 -0.007667 8518.320000 0 1 0
-3.722801 2.410401 -24.913785 25.305453 -0.574594 2.965424 0.039818 -0.010561 1014480.000000 0 0 1
-2.323901 1.669201 -24.884385 25.048341 -0.622886 3.027114 0.022510 -0.008159 854320.000000 0 0 1
-1.156501 2.470301 -24.820685 24.970108 -1.132942 3.032139 0.010396 -0.007599 82642.400000 0 1 0
0.048199 1.799701 -25.038285 25.102928 1.544021 3.069812 0.016239 -0.009578 5797.140000 0 0 1
0.665599 0.985301 -23.855185 23.884801 0.976683 3.091789 0.021697 -0.015709 -746027.000000 0 1 0
0.285299 -0.365499 -23.880185 23.884686 -0.908013 3.122179 0.032900 -0.020339 102471.000000 0 1 0
0.990199 -1.026099 -22.874185 22.918589 -0.803201 3.079334 0.029584 -0.014959 -607476.000000 0 1 0
0.508999 -2.473099 -22.831485 22.970677 -1.367816 3.031450 0.041923 -0.021447 1050970.000000 0 1 0
-0.741001 -2.653999 -22.100185 22.271304 1.298528 3.017550 0.034913 -0.017991 1359330.000000 0 1 0
-1.943001 -2.644199 -22.870685 23.104876 0.937084 2.999092 0.040269 -0.021719 217090.000000 0 1 0
-2.706201 -1.339799 -22.816985 23.015938 0.459708 3.010013 0.033912 -0.020049 -1862700.000000 0 1 0
-3.276201 -1.060199 -21.551485 21.824849 0.312971 2.983153 0.027074 -0.014583 230545.000000 0 1 0
-4.159301 0.055901 -21.568185 21.965644 -0.013439 2.951070 0.018719 -0.010928 1096390.000000 0 1 0
-5.497501 -0.217899 -22.361885 23.028763 0.039615 2.900349 0.016057 -0.004753 22078.600000 0 1 0
-6.416001 -1.154299 -21.768085 22.723270 0.178005 2.850617 0.026545 -0.002361 -93424.600000 0 1 0
-7.737901 -0.695299 -21.847485 23.187737 0.089616 2.799933 0.017081 -0.005730 -459024.000000 0 1 0
-8.710101 -1.824199 -21.537885 23.303949 0.206451 2.749774 0.016872 -0.003182 -397658.000000 0 1 0
-8.954501 -2.793499 -22.522385 24.397634 0.302398 2.746961 0.049634 -0.009316 -53823.500000 0 1 0
-9.278001 -4.089099 -22.048485 24.268039 0.415119 2.710573 0.023108 -0.011759 -644121.000000 0 1 0
-9.881301 -5.015199 -23.108985 25.628452 0.469665 2.694465 0.014746 -0.010838 208273.000000 0 0 1
-11.276201 -4.778999 -23.219985 26.251843 0.400865 2.656236 0.008487 -0.011303 331263.000000 0 0 1
-11.896301 -5.478399 -24.319985 27.622392 0.431562 2.647595 0.007358 -0.025511 339212.000000 0 0 1
-13.441201 -5.359299 -24.340085 28.316563 0.379404 2.605225 0.034979 -0.028663 37406.500000 0 0 1
-13.928001 -4.093399 -24.691185 28.642621 0.285848 2.610084 0.023106 -0.035029 -525114.000000 0 0 1
-15.315901 -4.164199 -24.516085 29.205407 0.265470 2.567042 0.025626 -0.033947 136801.000000 0 0 1
-16.007501 -2.724899 -24.602585 29.477998 0.168610 2.558218 0.020949 -0.026859 208151.000000 0 0 1
-15.589801 -2.207199 -25.867035 30.282291 0.140645 2.594800 0.025171 -0.030530 139982.000000 0 0 1
-15.993201 -0.913499 -26.268485 30.767682 0.057056 2.593978 0.019589 -0.026463 1039800.000000 0 0 1
-17.503501 -0.657699 -26.720085 31.949461 0.037558 2.561339 0.017334 -0.020171 1307990.000000 0 0 1
-17.873801 -1.286099 -27.908665 33.166555 0.071831 2.570795 0.023890 -0.026810 59193.200000 0 0 1
-17.578901 -0.442699 -29.037145 33.946569 0.025178 2.597076 0.015897 -0.020502 -569077.000000 0 0 1
-17.625801 -1.189599 -30.394575 35.155571 0.067390 2.615097 0.016636 -0.022074 252843.000000 0 0 1
-18.890301 -1.777499 -30.660705 36.056647 0.093820 2.587443 0.017617 -0.018583 167151.000000 0 0 1
-18.885601 -2.413399 -31.948165 37.191070 0.127102 2.604164 0.019358 -0.023807 -487783.000000 0 0 1
-20.244201 -3.001199 -32.456645 38.370154 0.147178 2.579014 0.006403 -0.011014 404640.000000 0 0 1
-21.272201 -2.088799 -32.759995 39.116325 0.097880 2.563492 0.009332 -0.013335 273435.000000 0 0 1
-21.824701 -1.364899 -31.651715 38.470919 0.062458 2.537018 0.011194 -0.002377 -716390.000000 0 0 1
-23.095801 -0.544499 -31.933805 39.414216 0.023571 2.515307 0.021286 0.001484 -248172.000000 0 0 1
-22.760601 0.594401 -32.686965 39.835110 -0.026109 2.533181 0.017648 -0.000552 94650.000000 0 0 1
-23.816101 1.456301 -33.005715 40.727199 -0.061072 2.515647 0.020140 -0.000825 -219970.000000 0 0 1
-23.222801 2.716301 -33.664125 40.987194 -0.116438 2.534540 0.022344 -0.004384 -249421.000000 0 0 1
-22.707501 3.782801 -32.836445 40.102024 -0.165072 2.530153 0.022634 -0.006752 702306.000000 0 0 1
-23.559201 4.400501 -31.856015 39.864847 -0.184657 2.496594 0.018053 -0.003874 223785.000000 0 0 1
-24.838501 5.163501 -32.331465 41.096673 -0.204964 2.476270 0.020518 -0.008402 -127232.000000 0 0 1
-25.831851 4.271401 -32.767025 41.942906 -0.163871 2.467429 0.011088 -0.007522 -272593.000000 0 0 1
-26.729491 5.018101 -33.574685 43.207713 -0.185576 2.460767 0.012492 -0.010745 -67532.400000 0 0 1
-28.010371 4.253901 -33.982245 44.243299 -0.150717 2.446628 0.015035 -0.009345 -246367.000000 0 0 1
-27.799151 3.083101 34.029141 44.048618 -0.110455 0.687971 0.009582 -0.008579 -440035.000000 0 0 1
-28.861931 2.699801 33.234830 44.100498 -0.093271 0.717251 0.006942 -0.001459 -662283.000000 0 0 1
-28.798281 1.171601 32.959936 43.784370 -0.040661 0.718523 0.008396 0.012352 -239075.000000 0 0 1
-29.055751 0.365101 34.080304 44.786573 -0.012565 0.706022 0.001413 0.013127 271104.000000 0 0 1
-28.977901 -0.984499 33.734185 44.482392 0.033961 0.709985 0.005159 0.016350 -811709.000000 0 0 1
-28.882651 -1.879999 -33.814935 44.510580 0.064999 2.433657 -0.012588 0.013050 1787220.000000 0 0 1
-27.563451 -2.068899 -33.155135 43.165810 0.074919 2.446646 0.001859 0.004948 2301640.000000 0 0 1
-27.016861 -0.856399 -32.576805 42.330750 0.031688 2.448976 -0.006030 0.011481 -543756.000000 0 0 1
-27.303111 -0.649399 -31.088195 41.380641 0.023780 2.420786 0.008603 0.006528 -490924.000000 0 0 1
-26.397281 -1.292099 -30.242385 40.163265 0.048909 2.423385 0.016303 0.000816 113932.000000 0 0 1
-26.370831 -0.707399 -28.946345 39.163912 0.026819 2.402541 0.017724 -0.001917 168787.000000 0 0 1
-25.257941 -1.197999 -27.958145 37.696905 0.047395 2.406332 0.019680 -0.000568 367400.000000 0 0 1
-25.468931 -2.547799 -27.501555 37.569845 0.099704 2.392066 0.015938 0.003556 1233760.000000 0 0 1
-24.281701 -2.958599 -26.772655 36.264713 0.121247 2.401278 0.023256 -0.004549 892549.000000 0 0 1
-24.511501 -4.318199 -26.043485 36.023932 0.174381 2.378858 0.028641 -0.010782 35609.300000 0 0 1
-25.466111 -4.133499 -25.026985 35.943826 0.160910 2.340999 0.034972 -0.002496 -181914.000000 0 0 1
-25.885031 -5.343399 -24.414485 35.981298 0.203569 2.316560 0.023776 -0.008404 218680.000000 0 0 1
-26.910171 -5.166599 -23.273985 35.951765 0.189686 2.274921 0.033480 -0.005840 224300.000000 0 0 1
-27.354081 -6.375699 -22.639685 36.075624 0.228992 2.249214 0.027624 -0.007983 330519.000000 0 0 1
-28.309141 -6.072099 -21.616785 36.132579 0.211291 2.212128 0.050603 -0.001814 201183.000000 0 0 1
-28.571261 -7.329599 -20.678985 36.023054 0.251122 2.182238 0.054508 -0.008600 -19931.000000 0 0 1
-27.494901 -7.674499 -19.806285 34.744157 0.272197 2.177376 0.042411 -0.012623 241840.000000 0 0 1
-27.804851 -8.630299 -18.841285 34.678319 0.300960 2.145178 0.058861 -0.008501 312664.000000 0 0 1
-28.586581 -8.141299 -17.538485 34.511908 0.277449 2.103874 0.056464 -0.012904 419686.000000 0 0 1
-27.800311 -7.281599 -16.735585 33.255959 0.256170 2.098135 0.033210 -0.017106 231562.000000 0 0 1
-28.467191 -6.852999 -15.611285 33.182176 0.236238 2.060622 0.031906 -0.011998 76700.500000 0 0 1
-27.533431 -5.802499 -14.914285 31.846424 0.207704 2.058184 0.031987 -0.008699 492189.000000 0 0 1
-27.310321 -4.694599 -15.743185 31.870688 0.170235 2.087447 0.034014 -0.009441 14265.200000 0 0 1
-26.432331 -3.820499 -15.079785 30.670250 0.143545 2.084808 0.034698 -0.015504 -364828.000000 0 0 1
-13.466501 21.639601 -4.967785 25.967246 -1.014135 1.763293 0.039759 -0.021138 -209206.000000 0 0 1
-13.950001 21.118401 -6.183385 26.054244 -0.987032 1.810410 0.064746 -0.028264 131531.000000 0 0 1
-14.545101 19.845801 -5.968385 25.318716 -0.938326 1.808766 0.047826 -0.034690 40859.400000 0 0 1
-14.908901 19.123501 -7.305485 25.324962 -0.908612 1.863425 0.063888 -0.044842 -325192.000000 0 0 1
-13.789101 18.536601 -7.915485 24.421298 -0.931220 1.900880 0.060874 -0.040100 -206965.000000 0 1 0
-14.112701 17.785101 -9.080985 24.452861 -0.900024 1.951277 0.049155 -0.036041 -211281.000000 0 1 0
-14.666001 16.342701 -8.736785 23.632750 -0.839417 1.949471 0.039509 -0.031026 2176530.000000 0 1 0
-16.056301 16.447601 -8.225885 24.412979 -0.797436 1.914469 0.036392 -0.027024 2034310.000000 0 1 0
-16.447501 15.341101 -7.501985 23.709691 -0.750607 1.892739 0.050599 -0.016986 79603.700000 0 1 0
-17.887001 15.520601 -6.936385 24.676857 -0.714682 1.855725 0.055593 -0.011311 -325305.000000 0 1 0
-18.806701 15.082901 -7.852485 25.354436 -0.675957 1.885683 0.052790 -0.016434 142319.000000 0 0 1
-20.131601 15.581201 -7.562085 26.556361 -0.658665 1.859548 0.036042 -0.016568 1004490.000000 0 0 1
-21.211201 15.024201 -8.527885 27.356288 -0.616284 1.887814 0.040195 -0.009713 -25065.400000 0 0 1
-21.333101 13.614801 -8.232685 26.612800 -0.568036 1.885306 0.053003 -0.012369 129859.000000 0 0 1
-22.165301 12.970401 -9.178885 27.272400 -0.529441 1.914061 0.052537 -0.015851 34283.400000 0 0 1
-22.477901 11.502501 -8.861185 26.759749 -0.472983 1.908306 0.044674 -0.011373 350063.000000 0 0 1
-21.367301 10.570601 -8.816885 25.417250 -0.459406 1.925045 0.042717 -0.010610 602536.000000 0 0 1
-21.804301 9.337701 -8.331385 25.140250 -0.404621 1.908579 0.049352 -0.021216 163089.000000 0 0 1
-20.687301 8.450101 -7.701985 23.636607 -0.387785 1.902707 0.030081 0.001177 -34393.000000 0 1 0
-20.609101 7.262801 -8.422385 23.418366 -0.338818 1.938688 0.030871 -0.005043 396477.000000 0 1 0
-19.547501 6.459701 -7.949985 22.068865 -0.319164 1.939316 0.030603 0.003594 -169839.000000 0 1 0
-19.435501 5.218801 -8.797885 21.963091 -0.262331 1.982942 0.028477 -0.014569 -315603.000000 0 1 0
-20.493701 4.283301 -8.633785 22.646869 -0.206040 1.961928 0.039637 -0.014849 617519.000000 0 1 0
-20.475001 3.342401 -9.623385 22.869343 -0.161816 2.005122 0.042138 -0.014069 -203381.000000 0 1 0
-21.421201 2.163901 -9.353185 23.474079 -0.100675 1.980620 0.045434 -0.018035 -21701.600000 0 1 0
-20.854201 1.190801 -8.491585 22.548231 -0.057039 1.956916 0.030239 -0.016290 468358.000000 0 1 0
-21.769201 0.151701 -8.156485 23.247567 -0.006968 1.929278 0.040289 -0.010730 -128559.000000 0 1 0
-21.627501 -1.091199 -9.085585 23.483768 0.050411 1.968051 0.018404 -0.017807 533990.000000 0 1 0
-20.426801 -1.842699 -8.876385 22.348153 0.089966 1.979245 0.017767 -0.009264 924242.000000 0 1 0
-20.557201 -3.148799 -9.460785 22.847755 0.151991 1.997728 0.020414 -0.005012 290834.000000 0 1 0
-21.489001 -4.214499 -8.715285 23.568949 0.193665 1.949567 0.019730 -0.008578 451449.000000 0 1 0
-20.997201 -4.639199 -7.457985 22.760188 0.217450 1.904640 0.000673 -0.000187 704862.000000 0 1 0
-22.044801 -5.183799 -6.642685 23.600218 0.230953 1.856119 0.019984 -0.000101 -108626.000000 0 1 0
-22.272901 -6.703399 -6.741085 24.216934 0.292343 1.852885 0.025103 -0.011055 -943091.000000 0 1 0
-21.312201 -7.501199 -6.151985 23.416337 0.338426 1.836638 0.024994 -0.016137 72107.100000 0 1 0
-21.484801 -8.910699 -6.486985 24.147012 0.393152 1.842783 0.031913 -0.014855 -319854.000000 0 1 0
-20.396601 -9.850299 -5.874385 23.399960 0.449905 1.824553 0.034501 -0.011990 -21863.600000 0 1 0
-19.140801 -9.528199 -6.415585 22.323005 0.461882 1.862305 0.035589 -0.014425 103089.000000 0 1 0
-18.035601 -10.180399 -5.804385 21.508471 0.513878 1.844049 0.035288 -0.011905 337365.000000 0 1 0
-17.526501 -11.533199 -6.474985 21.957194 0.582009 1.870138 0.040531 -0.005567 -106843.000000 0 1 0
-16.500601 -11.402899 -7.465485 21.401622 0.604700 1.927117 0.037074 -0.006458 699272.000000 0 1 0
-16.850501 -10.640599 -8.638885 21.720775 0.563239 1.979832 0.040039 -0.016486 137481.000000 0 1 0
-15.817501 -10.745799 -9.824585 21.498558 0.596740 2.045402 0.040337 -0.015677 525457.000000 0 1 0
-15.937101 -11.915299 -10.534085 22.515161 0.641992 2.057671 0.051066 -0.013359 482416.000000 0 1 0
-14.819501 -12.244799 -11.359685 22.329245 0.690551 2.104512 0.043106 0.001714 441006.000000 0 1 0
-15.013301 -13.682799 -12.041685 23.613987 0.739066 2.105910 0.046390 -0.003217 688898.000000 0 1 0
-16.170701 -13.667199 -12.899685 24.792857 0.701691 2.117997 0.047710 -0.003335 555719.000000 0 1 0
-16.337801 -14.929699 -13.583785 25.968036 0.740395 2.121276 0.034464 -0.001333 -77783.100000 0 0 1
-16.225001 -14.989899 -15.162785 26.792868 0.745851 2.172353 0.029924 -0.000519 -158270.000000 0 0 1
-16.423301 -16.320999 -15.561885 27.897529 0.782274 2.162557 0.028192 0.007539 339566.000000 0 0 1
-16.576601 -16.408199 -17.006185 28.865603 0.780293 2.200803 0.029041 0.004545 -308786.000000 0 0 1
-16.815701 -17.950599 -17.406485 30.132666 0.818030 2.186657 0.028855 0.003461 1807.040000 0 0 1
-18.124401 -18.372799 -17.041485 30.926783 0.792204 2.154390 0.021223 -0.003942 153035.000000 0 0 1
-18.944301 -18.398299 -18.213285 32.079709 0.770778 2.174568 0.019078 -0.006798 -537841.000000 0 0 1
-20.412601 -18.143599 -17.885785 32.646068 0.726617 2.150612 0.009678 -0.015135 -660566.000000 0 0 1
-20.629501 -16.822499 -17.425185 31.815246 0.684096 2.150408 0.005868 -0.004060 188282.000000 0 0 1
-20.675101 -16.824299 -16.030385 31.104503 0.683067 2.112238 0.009380 -0.009899 -398365.000000 0 0 1
-20.817801 -15.445599 -15.449185 30.176559 0.638324 2.108261 0.018344 -0.011971 1375030.000000 0 0 1
-22.100401 -14.757499 -15.606685 30.818503 0.588751 2.101808 0.029759 -0.013357 1487020.000000 0 0 1
-22.011501 -13.567699 -14.866585 29.826230 0.552385 2.092595 0.034761 -0.013237 311433.000000 0 0 1
-23.362201 -12.844299 -14.539385 30.367123 0.502682 2.070069 0.034614 -0.017043 557886.000000 0 0 1
-24.139601 -13.511799 -13.510485 30.786722 0.510287 2.025105 0.045075 -0.018070 898424.000000 0 0 1
-25.120171 -12.595799 -13.029485 30.974903 0.464784 2.004954 0.058306 -0.017341 -171201.000000 0 0 1
-25.936151 -13.008999 -11.806185 31.325772 0.464909 1.957226 0.065725 -0.020177 -280235.000000 0 0 1
-26.909991 -12.005799 -11.555685 31.651551 0.419645 1.944526 0.057192 -0.027144 312887.000000 0 0 1
-27.542741 -12.364599 -10.306185 31.901463 0.421959 1.899761 0.047607 -0.022684 542714.000000 0 0 1
-28.413721 -11.295499 -9.546685 32.032281 0.378381 1.873428 0.073640 -0.031501 393030.000000 0 0 1
-27.576821 -10.408099 -8.878685 30.783772 0.360892 1.863374 0.057349 -0.032254 -59230.100000 0 0 1
-28.335531 -9.361599 -8.370285 30.993605 0.319094 1.844257 0.061847 -0.032232 -529553.000000 0 0 1
-27.468211 -8.346099 -7.693385 29.721174 0.294981 1.832630 0.039593 -0.027976 -190904.000000 0 0 1
-26.658441 -8.804099 -6.583785 28.836277 0.318978 1.801144 0.034808 -0.033996 239195.000000 0 0 1
-25.740951 -7.866999 -6.089085 27.596434 0.296607 1.793275 0.029391 -0.024093 -120472.000000 0 0 1
-26.336321 -6.643299 -5.269885 27.667796 0.247094 1.762437 0.036012 -0.023728 215835.000000 0 0 1
-27.274641 -6.854899 -4.194985 28.434022 0.246229 1.718871 0.041895 -0.026880 868985.000000 0 0 1
-26.709941 -7.280599 -2.925085 27.838538 0.266115 1.676064 0.048614 -0.019361 -241049.000000 0 0 1
-25.989721 -6.175299 -2.170385 26.801315 0.233280 1.651866 0.040167 -0.012510 61957.500000 0 0 1
-26.875431 -5.152099 -1.715885 27.418555 0.189405 1.633418 0.047335 -0.012342 293229.000000 0 0 1
-26.246091 -4.229599 -0.883385 26.599383 0.159778 1.604013 0.041625 -0.007893 -708747.000000 0 0 1
-27.264791 -3.251899 -0.284285 27.459506 0.118710 1.581149 0.053907 -0.009680 213040.000000 0 0 1
-28.131161 -3.772099 0.755715 28.392993 0.133295 1.544177 0.051306 -0.009641 175110.000000 0 0 1
-27.606901 -3.924399 2.029015 27.958161 0.141207 1.498159 0.047706 -0.008776 -707882.000000 0 0 1
-28.648591 -4.172199 3.126615 29.119147 0.144617 1.463216 0.040458 -0.002986 -153129.000000 0 0 1
-29.174581 -5.489399 2.988215 29.836540 0.185982 1.470475 0.047396 0.001138 357173.000000 0 0 1
-30.158131 -5.742699 3.998515 30.959321 0.188167 1.441281 0.052555 -0.001668 418458.000000 0 0 1
-30.866401 -7.148999 3.842515 31.915636 0.227598 1.450108 0.037900 0.000624 493000.000000 0 0 1
-30.021321 -8.292999 4.167615 31.423281 0.269516 1.437776 0.026664 0.007628 558261.000000 0 0 1
-30.757211 -9.471799 3.950115 32.424133 0.298738 1.448667 0.045626 -0.000130 -9785.210000 0 0 1
-30.059801 -10.789099 4.379015 32.236192 0.344600 1.434533 0.026884 0.007078 -94917.700000 0 0 1
-30.155581 -10.907899 5.764315 32.581723 0.347078 1.392941 0.017329 0.003747 569576.000000 0 0 1
-29.236021 -11.830399 6.332915 32.168448 0.384510 1.372635 0.020270 0.002224 8593.180000 0 0 1
-29.458561 -11.972899 7.877915 32.760016 0.386039 1.327943 0.039343 -0.008747 -121133.000000 0 0 1
-29.205201 -10.818399 8.649215 32.323218 0.354756 1.299910 0.056797 -0.002981 464974.000000 0 0 1
-29.403541 -11.161499 9.977115 32.995304 0.362795 1.263608 0.050385 -0.008743 -213143.000000 0 0 1
-29.654681 -9.916899 10.829415 33.091105 0.322722 1.237393 0.035936 -0.007977 -23626.000000 0 0 1
-28.427591 -9.291499 11.139415 31.914674 0.315902 1.214253 0.060299 -0.007688 276293.000000 0 0 1
-28.645191 -8.165899 11.920015 32.082949 0.277704 1.190132 0.041759 -0.015042 9249.330000 0 0 1
-27.563771 -7.072899 11.780815 30.798944 0.251182 1.178288 0.050024 -0.005424 -142113.000000 0 0 1
-27.651931 -6.399799 10.531015 30.273569 0.227437 1.215507 0.035282 -0.004086 638603.000000 0 0 1
-26.833441 -5.211999 10.581615 29.311586 0.191846 1.201452 0.038546 -0.006295 101457.000000 0 0 1
-26.918521 -4.370799 9.279215 28.806501 0.160967 1.242826 0.040658 -0.011466 -359611.000000 0 0 1
-26.323271 -4.931599 8.155515 27.995494 0.185201 1.275195 0.047569 -0.006007 121911.000000 0 0 1
-26.732511 -4.275699 7.020515 27.967774 0.158600 1.317061 0.044146 -0.013747 -302342.000000 0 0 1
-25.834291 -4.578499 5.806215 26.871646 0.175404 1.353007 0.032674 -0.005238 -267717.000000 0 0 1
-24.490201 -4.187999 6.011215 25.562550 0.169369 1.333416 0.056973 -0.024044 556360.000000 0 0 1
-23.805701 -4.308999 4.763115 24.656969 0.179068 1.376399 0.058921 -0.012553 -1116920.000000 0 1 0
-22.349901 -3.941399 4.784815 23.193688 0.174555 1.363006 0.069784 -0.015750 -956599.000000 0 1 0
-22.138001 -2.527999 4.809215 22.794965 0.113700 1.358222 0.054001 -0.015915 1236650.000000 0 1 0
-20.732901 -2.209399 4.732515 21.380630 0.106164 1.347602 0.035240 -0.016321 174963.000000 0 1 0
-20.454101 -0.714599 4.836015 21.030167 0.034923 1.338764 0.031369 -0.016891 -585392.000000 0 1 0
-20.601801 0.100701 3.680215 20.928171 -0.004888 1.394027 0.030975 -0.013697 1036650.000000 0 1 0
-21.862601 0.763201 3.889815 22.219056 -0.034895 1.394823 0.029008 -0.032797 407328.000000 0 1 0
-22.082301 1.772101 2.747315 22.322995 -0.080078 1.447412 0.053190 -0.016459 22059.400000 0 1 0
-21.102101 2.793101 2.687215 21.455097 -0.131596 1.445218 0.021102 -0.008894 242314.000000 0 1 0
-21.575201 3.735701 1.774315 21.967998 -0.171448 1.489940 0.040811 -0.002446 144822.000000 0 1 0
-20.484901 4.455801 0.924615 20.984286 -0.214180 1.526720 0.027942 0.001156 -406672.000000 0 1 0
-20.819401 5.132301 -0.346685 21.445469 -0.241696 1.586963 0.044527 0.011972 705622.000000 0 1 0
-21.661301 4.526301 -1.342085 22.169812 -0.205994 1.631370 0.055123 -0.003342 91904.700000 0 1 0
-20.981201 3.277401 -2.018885 21.331386 -0.154954 1.665582 0.038668 -0.003394 -209935.000000 0 1 0
-20.874301 2.186901 -1.124885 21.018666 -0.104384 1.624340 0.015527 0.001558 587743.000000 0 1 0
-20.373901 1.011401 -1.786985 20.477111 -0.049601 1.658175 0.008911 0.000817 -357856.000000 0 1 0
-19.595701 0.054601 -0.891385 19.616040 -0.002786 1.616254 0.009769 -0.001033 -393246.000000 0 1 0
-20.396101 -0.575599 0.110315 20.404520 0.028214 1.565390 0.013222 -0.006616 726404.000000 0 1 0
-19.685601 -1.415099 0.989715 19.761197 0.071762 1.520692 0.013842 -0.009392 -507655.000000 0 1 0
-18.851901 -2.628399 0.499915 19.040813 0.138531 1.544538 -0.004220 -0.007390 30029.200000 0 1 0
-18.116101 -3.273099 1.529415 18.472829 0.178745 1.487909 0.003899 -0.006595 557467.000000 0 1 0
-17.396501 -4.419299 1.062815 17.980490 0.248772 1.511653 -0.001980 -0.002986 -110720.000000 0 1 0
-18.247401 -5.636799 0.585315 19.107165 0.299611 1.540158 -0.006009 -0.005319 -151724.000000 0 1 0
-19.165901 -5.999499 1.597315 20.146393 0.303368 1.491428 0.033327 -0.012193 30248.800000 0 1 0
-19.976501 -7.055499 1.192315 21.219384 0.339514 1.514577 0.010532 -0.013555 -804382.000000 0 1 0
-20.769701 -7.589799 2.376015 22.240301 0.350351 1.463758 0.027187 -0.007663 -488919.000000 0 1 0
-20.017001 -7.834299 3.548915 21.786495 0.373055 1.407172 0.028408 -0.010492 211528.000000 0 1 0
-20.802301 -8.623199 4.419015 22.948267 0.392970 1.377022 0.037189 -0.012379 -60185.300000 0 1 0
-20.049301 -9.469899 5.455015 22.834418 0.441268 1.329569 0.033947 -0.007995 -342042.000000 0 1 0
-19.472901 -10.609099 4.889115 22.707935 0.498853 1.353793 0.031536 0.001232 250904.000000 0 1 0
-18.803701 -11.358099 5.909515 22.748801 0.543381 1.308010 0.042559 -0.000068 98355.100000 0 1 0
-18.042901 -12.634699 5.404715 22.680230 0.610900 1.330181 0.024965 0.000701 507377.000000 0 1 0
-18.938801 -13.717199 5.039415 23.921443 0.626843 1.358541 0.036444 0.006679 262247.000000 0 1 0
-18.257701 -14.898099 4.738215 24.036383 0.684415 1.372370 0.027089 0.007178 -304598.000000 0 1 0
-18.954501 -16.235699 5.071915 25.467535 0.708291 1.370304 0.034142 0.001012 -833868.000000 0 0 1
-18.153901 -17.255599 4.661715 25.476487 0.760035 1.386778 0.031897 -0.006967 -170028.000000 0 0 1
-18.604601 -18.515599 5.209515 26.760001 0.783001 1.374870 0.039460 -0.008581 -204337.000000 0 0 1
-17.627201 -19.656199 4.938315 26.860218 0.839765 1.385892 0.035778 -0.011084 -800266.000000 0 0 1
-17.491601 -20.042899 3.619615 26.847263 0.853266 1.435562 0.038982 -0.015253 320812.000000 0 0 1
-16.714501 -21.229999 3.398815 27.233056 0.903844 1.445665 0.033201 -0.014870 763132.000000 0 0 1
-15.173601 -21.091699 3.620415 26.233668 0.947161 1.432348 0.032768 -0.011391 315805.000000 0 0 1
-14.564601 -22.431699 3.703215 27.000417 0.994923 1.433209 0.031172 -0.013505 361762.000000 0 0 1
-13.156001 -22.294899 3.809815 26.165962 1.037695 1.424675 0.023031 -0.007354 -133451.000000 0 0 1
-12.436601 -23.557199 4.213615 26.969709 1.085054 1.413919 0.024908 -0.011777 -570149.000000 0 0 1
-12.597501 -24.529599 3.223215 27.763058 1.096357 1.454437 0.036456 -0.015315 402816.000000 0 0 1
-11.880101 -25.736149 3.562215 28.568786 1.138328 1.445782 0.047548 -0.018609 35680.500000 0 0 1
17.642799 19.189901 -24.193085 35.564393 0.827377 2.318916 0.048718 -0.019794 526452.000000 0 0 1
16.903499 19.727101 -25.342675 36.292395 0.862329 2.343804 0.032079 -0.022619 628880.000000 0 0 1
17.691599 19.578201 -26.530555 37.418832 0.835975 2.358898 0.037680 -0.021231 -67075.400000 0 0 1
16.962099 19.847401 -27.802815 38.139594 0.863623 2.387620 0.026352 -0.020947 -281867.000000 0 0 1
16.650499 21.233801 -27.913765 38.823855 0.905795 2.373137 0.023668 -0.016547 368238.000000 0 0 1
15.606199 21.395101 -28.869165 39.175662 0.940591 2.399293 0.008171 -0.021300 54266.000000 0 0 1
15.343799 22.828301 -29.227985 40.135254 0.979015 2.386543 0.010607 -0.011720 -345574.000000 0 0 1
14.550599 23.433701 -28.234015 39.471735 1.015132 2.367845 0.015079 -0.016987 163659.000000 0 0 1
14.289099 24.805401 -28.503945 40.397539 1.048175 2.354046 0.016157 -0.007613 244130.000000 0 0 1
13.401799 25.534201 -27.431075 39.800346 1.087462 2.331204 0.021633 -0.017096 107415.000000 0 0 1
12.081199 25.049401 -27.378585 39.025822 1.121413 2.348367 0.014444 -0.015140 -500310.000000 0 0 1
11.369399 25.933001 -26.537225 38.807320 1.157619 2.323782 0.012622 -0.016847 22915.500000 0 0 1
9.828299 25.644301 -26.505485 38.167609 1.204808 2.338451 0.018681 -0.013632 967791.000000 0 0 1
9.041499 26.519101 -25.666155 37.996881 1.242213 2.312413 0.021619 -0.013151 533393.000000 0 0 1
8.920899 27.831001 -26.246035 39.281057 1.260605 2.302529 0.024445 -0.013721 -744410.000000 0 0 1
8.274899 28.852001 -25.309595 39.261782 1.291489 2.271345 0.024371 -0.009576 -931767.000000 0 0 1
9.203999 29.232001 -24.362285 39.150280 1.265763 2.242443 0.025589 -0.010915 75308.100000 0 0 1
8.590499 29.897801 -23.303585 38.868139 1.291005 2.213741 0.038902 -0.015022 -302865.000000 0 0 1
9.605299 30.120001 -22.156985 38.605805 1.262091 2.182092 0.028121 -0.016203 145246.000000 0 0 1
10.560699 31.132801 -22.428585 39.797250 1.243762 2.169499 0.015386 -0.018896 -398928.000000 0 0 1
11.446499 31.147001 -21.404985 39.488370 1.218618 2.143680 0.013662 -0.015012 -805082.000000 0 0 1
12.676999 32.070801 -21.558585 40.669585 1.194364 2.129504 0.019958 -0.002521 406889.000000 0 0 1
13.658299 31.568501 -22.459885 41.079993 1.162459 2.149257 0.024143 0.003460 230335.000000 0 0 1
14.736099 32.483701 -22.684185 42.271926 1.144915 2.137229 0.029403 0.003317 700687.000000 0 0 1
15.943599 31.722201 -23.329685 42.482592 1.105070 2.152154 0.030167 0.006290 117042.000000 0 0 1
16.807299 31.060901 -22.443985 41.844920 1.074806 2.136916 0.015846 0.009603 54448.500000 0 0 1
17.950199 30.657001 -23.214785 42.438044 1.041094 2.149606 0.012461 0.015834 580740.000000 0 0 1
19.022399 29.922901 -22.343285 41.910071 1.004530 2.133086 -0.000150 0.018848 -179558.000000 0 0 1
19.729699 30.739001 -21.492185 42.379962 1.000175 2.102649 0.009747 0.026225 42613.500000 0 0 1
20.696799 29.936301 -20.814585 41.925965 0.965892 2.090313 0.017633 0.018938 338779.000000 0 0 1
21.486499 30.579101 -19.647785 42.223057 0.958292 2.054807 0.023635 0.013379 -2189.230000 0 0 1
22.407399 31.571601 -20.049285 43.598525 0.953568 2.048636 0.023962 0.018076 166235.000000 0 0 1
23.044399 32.034501 -18.864985 43.739470 0.947194 2.016733 0.020581 0.008287 -343292.000000 0 0 1
24.287499 32.928601 -18.962785 45.097257 0.935291 2.004778 0.034711 0.010564 117035.000000 0 0 1
25.493299 32.235201 -19.231985 45.374946 0.901658 2.008484 0.044818 0.008053 -250349.000000 0 0 1
26.601999 32.968001 -18.788085 46.341640 0.891860 1.988241 0.044056 0.007176 -186566.000000 0 0 1
27.934199 32.271101 -19.124685 46.770685 0.857309 1.992048 0.056012 -0.005594 -56130.900000 0 0 1
28.152899 30.977901 -18.528185 45.776738 0.833137 1.987503 0.040902 -0.003639 -992989.000000 0 0 1
29.406899 30.491201 -18.814185 46.351403 0.803499 1.988763 0.035232 -0.008288 -848330.000000 0 0 1
29.865599 29.215701 -18.039385 45.507478 0.774399 1.978394 0.039134 -0.015211 -226318.000000 0 0 1
30.561099 29.612801 -16.878685 45.779785 0.769640 1.948399 0.031253 -0.005343 31434.700000 0 0 1
30.821799 28.551701 -15.960185 44.943414 0.747183 1.933836 0.027311 -0.007644 -455406.000000 0 0 1
31.216099 29.061801 -14.554885 45.065261 0.749674 1.899666 0.019887 -0.004850 -200099.000000 0 0 1
32.504099 29.590301 -14.417885 46.259894 0.738507 1.887748 -0.008806 0.008916 -398600.000000 0 0 1
32.523999 30.994101 -14.734585 47.281633 0.761317 1.887709 0.002646 0.003542 210209.000000 0 0 1
33.936599 31.620901 -14.966685 48.739879 0.750090 1.882912 0.005999 0.000548 449444.000000 0 0 1
34.618699 31.717001 -13.761585 48.926513 0.741683 1.855914 0.005817 -0.001763 -535071.000000 0 0 1
-35.266126 32.207001 -13.913885 49.745218 -0.740091 1.854281 0.014676 -0.012733 -59125.300000 0 0 1
-34.611426 32.546301 -12.576985 49.146649 -0.754657 1.829582 0.015689 -0.006931 194584.000000 0 0 1
-35.330126 33.599601 -11.905785 50.188631 -0.760298 1.810300 0.009930 -0.012039 604453.000000 0 0 1
-34.606426 33.892601 -10.701485 49.606803 -0.774978 1.788232 0.016949 -0.007717 32627.400000 0 0 1
-34.986026 -33.669569 -10.010285 49.576887 0.766226 1.774108 0.016927 -0.003963 -167720.000000 0 0 1
-34.001326 -33.084969 -9.178585 48.321339 0.771740 1.761906 0.010865 -0.005534 -95751.400000 0 0 1
-33.836026 -33.783369 -7.966685 48.473300 0.784619 1.735897 0.006166 -0.009422 40705.500000 0 0 1
-33.394126 -32.782469 -6.891085 47.300582 0.776156 1.717004 0.000488 -0.016355 -97924.800000 0 0 1
-34.446926 -31.935569 -6.530485 47.424873 0.747585 1.708937 0.004443 -0.010132 -338560.000000 0 0 1
-34.064626 -31.071969 -5.488985 46.432693 0.739486 1.689287 0.027876 -0.010315 443779.000000 0 0 1
-35.315326 -30.330569 -4.939885 46.813654 0.709610 1.676515 0.032144 -0.007958 678292.000000 0 0 1
34.945699 -31.187269 -4.243885 47.030397 -0.728628 1.661156 0.021744 -0.009361 1095200.000000 0 0 1
33.652999 -30.672269 -3.916385 45.701756 -0.739093 1.656596 0.022189 -0.005829 240.291000 0 0 1
33.669899 -29.657169 -2.790385 44.955490 -0.722118 1.632906 0.026922 -0.006794 -736599.000000 0 0 1
34.211499 -28.390669 -3.121285 44.566795 -0.692683 1.640890 0.053759 -0.011612 261754.000000 0 0 1
33.646099 -27.314269 -2.390885 43.403291 -0.681901 1.625910 0.046485 -0.007180 -209915.000000 0 0 1
34.149599 -25.905169 -2.765685 42.952554 -0.648969 1.635230 0.051601 -0.018327 -510030.000000 0 0 1
33.839599 -25.542169 -4.063885 42.591502 -0.646567 1.666357 0.051669 -0.026242 277995.000000 0 0 1
33.756099 -24.181169 -4.091585 41.724624 -0.621615 1.669016 0.056187 -0.029254 -386769.000000 0 0 1
33.241599 -23.754469 -5.499685 41.225299 -0.620458 1.704601 0.059777 -0.029917 -237614.000000 0 0 1
34.251899 -23.832769 -6.482685 42.228174 -0.607907 1.724921 0.062604 -0.035955 340102.000000 0 0 1
33.700399 -23.607469 -7.793185 41.877957 -0.611068 1.757980 0.055816 -0.034794 -274534.000000 0 0 1
34.833499 -23.539069 -8.794485 42.951175 -0.594271 1.777010 0.044079 -0.036769 -408470.000000 0 0 1
35.523099 -24.705769 -9.020185 44.199880 -0.607689 1.776317 0.028974 -0.021532 -805050.000000 0 0 1
-34.541026 -24.533669 -9.802685 43.486504 0.617590 1.798169 0.041070 -0.017222 -386308.000000 0 0 1
-34.094726 -25.876769 -10.476485 44.066022 0.649215 1.810840 0.028367 -0.011383 -303133.000000 0 0 1
-33.400926 -26.763669 -9.630885 43.871059 0.675524 1.792126 0.016538 -0.010856 -237125.000000 0 0 1
-34.148626 -27.837169 -9.114285 44.990075 0.683927 1.774793 0.012594 -0.013505 -242437.000000 0 0 1
-33.277026 -28.966169 -8.475285 44.924714 0.716250 1.760589 0.009942 -0.013067 352168.000000 0 0 1
-32.506426 -29.570469 -9.515185 44.962419 0.738138 1.784034 0.008308 -0.009714 63732.400000 0 0 1
-31.736926 -30.695369 -9.253085 45.111615 0.768717 1.777378 0.001935 -0.008691 -381303.000000 0 0 1
-31.385526 -31.510469 -10.495685 45.695955 0.787385 1.802551 0.006054 -0.003127 -44023.200000 0 0 1
-30.316126 -30.925469 -11.220385 44.736442 0.795348 1.824314 -0.001244 0.007221 187495.000000 0 0 1
-30.227926 -31.542869 -12.452285 45.428400 0.806682 1.848458 0.000106 0.001108 -41910.800000 0 0 1
-30.602726 -30.655269 -13.722485 45.437638 0.786256 1.877594 -0.002318 -0.000534 201200.000000 0 0 1
-29.628826 -29.603169 -13.937085 44.141333 0.784965 1.892030 -0.006594 0.010134 499448.000000 0 0 1
-29.910726 -28.919669 -15.114585 44.265670 0.768554 1.919257 -0.011619 0.013903 -332984.000000 0 0 1
-28.832926 -27.923969 -15.498285 43.026533 0.769385 1.939282 -0.012655 0.014254 -535598.000000 0 0 1
-27.692426 -28.526869 -16.046185 42.873451 0.800240 1.954404 0.002901 0.009186 -544428.000000 0 0 1
-26.864026 -27.590869 -16.702285 41.974972 0.798745 1.980035 0.027670 0.012159 -145563.000000 0 0 1
-25.562826 -28.316069 -17.109185 41.808876 0.836454 1.992399 0.036183 -0.002247 -448701.000000 0 0 1
-25.720126 -29.246069 -18.215285 42.995977 0.849458 2.008268 0.021874 0.001195 87265.300000 0 0 1
-25.935526 -28.692269 -19.527085 43.326723 0.835820 2.038339 0.023709 0.010929 92581.000000 0 0 1
-24.722526 -27.897669 -20.092185 42.345946 0.845666 2.065166 0.031398 0.006220 159372.000000 0 0 1
-24.401926 -26.714769 -19.400985 41.055220 0.830614 2.062988 0.034542 0.005936 -960247.000000 0 0 1
-23.053726 -26.431269 -19.497385 40.127725 0.853546 2.078170 0.056722 -0.008299 -883751.000000 0 0 1
-22.666226 -25.197869 -18.684585 38.701475 0.838241 2.074631 0.049997 -0.007905 -139511.000000 0 0 1
-22.684626 -25.480569 -17.279385 38.241716 0.843382 2.039630 0.054797 -0.010854 238776.000000 0 0 1
-22.340426 -24.310369 -16.579885 36.945653 0.827601 2.036178 0.060849 -0.021387 -184216.000000 0 0 1
-22.540726 -24.373269 -15.068685 36.458276 0.824440 1.996886 0.043195 -0.011995 -523917.000000 0 0 1
-23.895226 -24.239069 -14.757985 37.098685 0.792541 1.979918 0.016492 0.001460 -324279.000000 0 0 1
-23.984426 -24.313969 -13.351485 36.669933 0.792221 1.943462 0.003876 0.005584 403257.000000 0 0 1
-25.462026 -24.297169 -12.842985 37.464777 0.761993 1.920694 -0.014805 0.021157 216578.000000 0 0 1
-26.198626 -25.462069 -13.276785 38.871043 0.771142 1.919372 0.003997 0.014093 364184.000000 0 0 1
-27.530326 -25.528469 -12.818485 39.672852 0.747687 1.899805 -0.010442 0.018157 257822.000000 0 0 1
-28.587226 -24.566869 -13.497585 40.036800 0.709906 1.914663 -0.007897 0.018765 -458329.000000 0 0 1
-28.797226 -23.374569 -12.747285 39.219179 0.681832 1.901836 -0.002424 0.017740 287050.000000 0 0 1
-29.355126 -23.438369 -11.443385 39.268711 0.673790 1.866499 0.006502 0.012844 376862.000000 0 0 1
-30.860926 -23.872769 -11.239485 40.603348 0.658410 1.851271 0.006154 0.005712 705903.000000 0 0 1
-31.875826 -23.000769 -11.675785 41.005215 0.625059 1.859531 0.029056 -0.003255 216241.000000 0 0 1
-32.163726 -23.079269 -13.058385 41.685482 0.622411 1.889420 0.028855 0.006291 -1004760.000000 0 0 1
-33.603426 -22.714069 -13.419285 42.722317 0.594399 1.890310 0.012658 -0.004417 -503262.000000 0 0 1
-34.403126 -23.849969 -13.442585 43.967024 0.606181 1.881514 0.013828 0.000494 347707.000000 0 0 1
35.389199 -23.594069 -13.542885 44.637263 -0.588027 1.879054 0.023479 -0.002523 588258.000000 0 0 1
34.469599 -24.722969 -13.062785 44.384849 -0.622203 1.869527 0.026661 0.001310 -339252.000000 0 0 1
34.485299 -25.816869 -13.948285 45.280252 -0.642626 1.883932 0.012761 0.008620 36933.000000 0 0 1
33.708799 -26.926669 -13.523485 45.212977 -0.674010 1.874552 0.012896 0.000807 127717.000000 0 0 1
33.575699 -27.916669 -14.710385 46.076712 -0.693628 1.895743 0.009857 0.002479 -197061.000000 0 0 1
32.754999 -27.510069 -15.737985 45.578263 -0.698586 1.923350 0.010640 -0.001124 -506170.000000 0 0 1
32.601299 -28.501669 -16.738585 46.425964 -0.718405 1.939647 0.002433 0.002331 124591.000000 0 0 1
31.541199 -28.208369 -17.844885 45.923842 -0.729676 1.969882 0.010803 0.008646 709927.000000 0 0 1
30.196099 -28.132469 -17.392685 44.785553 -0.750034 1.969642 0.025649 0.007970 231950.000000 0 0 1
29.298399 -27.817369 -18.416185 44.399979 -0.759474 1.998496 0.036988 0.009955 200416.000000 0 0 1
27.797999 -27.931469 -18.054185 43.345696 -0.787793 2.000406 0.036527 0.006850 239000.000000 0 0 1
27.317399 -26.945869 -17.156085 42.031553 -0.778551 1.991247 0.033699 0.005724 -568459.000000 0 0 1
25.945099 -27.070369 -16.940785 41.145392 -0.806620 1.995148 0.027265 0.000395 -430434.000000 0 0 1
25.380299 -26.097769 -15.872785 39.713958 -0.799335 1.981962 0.037539 -0.001770 -215319.000000 0 0 1
25.469999 -24.800469 -16.384085 39.143612 -0.772080 2.002659 0.047874 -0.011113 75906.200000 0 0 1
25.528699 -23.908069 -15.298485 38.175305 -0.752628 1.983124 0.043536 -0.013648 -226323.000000 0 0 1
25.266499 -22.396769 -15.567685 37.180157 -0.725262 2.002820 0.039296 -0.022052 884641.000000 0 0 1
23.888499 -22.256969 -15.953285 36.339240 -0.750057 2.025293 0.033566 -0.020093 624362.000000 0 0 1
23.537999 -20.902469 -16.002685 35.313405 -0.726163 2.041105 0.036287 -0.020129 847980.000000 0 0 1
22.009699 -20.544669 -16.182585 34.181667 -0.750985 2.063976 0.037521 -0.025123 939588.000000 0 0 1
21.303099 -20.919469 -14.991485 33.409443 -0.776313 2.036129 0.038522 -0.031302 798971.000000 0 0 1
20.021499 -20.274569 -14.859585 32.136052 -0.791678 2.051492 0.043818 -0.030676 786318.000000 0 0 1
20.056099 -18.947269 -14.036385 30.955876 -0.756977 2.041409 0.031192 -0.026182 -297848.000000 0 0 1
20.074599 -19.193169 -12.667285 30.525848 -0.762955 1.998705 0.044756 -0.035858 145171.000000 0 0 1
20.085599 -18.001669 -11.910485 29.484760 -0.730738 1.986631 0.045374 -0.035991 94.982500 0 0 1
19.117599 -18.040769 -10.667785 28.368179 -0.756427 1.956323 0.045730 -0.024273 192095.000000 0 0 1
19.522399 -18.804269 -9.541885 28.736252 -0.766663 1.909273 0.054883 -0.038960 368647.000000 0 0 1
18.536599 -18.670969 -8.519785 27.654970 -0.789010 1.883965 0.052452 -0.045197 188168.000000 0 0 1
19.003099 -19.308969 -7.232585 28.040406 -0.793382 1.831680 0.048614 -0.042280 784125.000000 0 0 1
20.169699 -18.695769 -6.638285 28.291613 -0.747492 1.807642 0.055961 -0.039806 855493.000000 0 0 1
20.833699 -19.513069 -5.712585 29.110763 -0.752678 1.768314 0.050114 -0.030080 580068.000000 0 0 1
22.183599 -18.909869 -5.180585 29.606312 -0.705901 1.746684 0.034186 -0.028377 1356720.000000 0 0 1
23.231599 -18.821969 -6.189985 30.533418 -0.680923 1.774940 0.024365 -0.035083 298168.000000 0 0 1
24.233399 -17.992769 -5.744185 30.724470 -0.638670 1.758861 0.014553 -0.037827 -1105850.000000 0 0 1
25.364199 -17.672169 -6.721085 31.635757 -0.608532 1.784880 0.009892 -0.045758 60404.900000 0 0 1
26.290399 -18.763869 -6.947785 33.038456 -0.619872 1.782672 0.014664 -0.047265 456479.000000 0 0 1
25.858599 -19.759469 -7.861385 33.479922 -0.652487 1.807818 0.018491 -0.049116 -535318.000000 0 0 1
26.602299 -21.100269 -7.932485 34.868725 -0.670565 1.800302 0.026335 -0.054029 97840.600000 0 0 1
27.976699 -20.988369 -8.293385 35.944229 -0.643635 1.803623 0.026552 -0.045616 288528.000000 0 0 1
28.552599 -22.266869 -8.186985 37.122650 -0.662336 1.793163 0.055429 -0.048172 1086.040000 0 0 1
-30.165681 30.266901 3.724615 42.894363 -0.787073 1.483855 0.026656 -0.004406 328764.000000 0 0 1
-29.196211 31.001701 2.979515 42.689597 -0.815382 1.500945 0.019337 -0.003550 -119678.000000 0 0 1
-28.248711 31.562301 3.848915 42.532137 -0.840743 1.480178 0.029089 -0.002482 -209653.000000 0 0 1
-27.363461 32.591801 3.159515 42.672790 -0.872382 1.496688 0.029779 -0.012516 -688688.000000 0 0 1
-26.470111 32.065501 2.190915 41.637282 -0.880698 1.518153 0.042019 -0.023341 126993.000000 0 0 1
-25.780791 33.000501 1.393515 41.900168 -0.907609 1.537532 0.035475 -0.027308 116055.000000 0 0 1
-24.650801 33.787001 2.126215 41.877729 -0.940483 1.520003 0.047180 -0.027611 -484033.000000 0 0 1
-23.385401 33.214401 1.927915 40.666820 -0.957341 1.523371 0.031788 -0.021803 -195728.000000 0 0 1
-22.321301 33.960601 2.497415 40.716090 -0.989327 1.509421 0.027098 -0.018051 660484.000000 0 0 1
-20.873001 33.493301 2.201915 39.526343 -1.013493 1.515060 0.022242 -0.019471 527955.000000 0 0 1
-20.345201 33.969001 0.954115 39.607203 -1.031161 1.546705 0.022414 -0.019842 -218421.000000 0 0 1
-18.941301 33.998701 0.976015 38.931185 -1.062504 1.545723 0.024503 -0.018107 -476563.000000 0 0 1
-18.351501 -34.232169 -0.314185 38.842216 1.078696 1.578885 0.031298 -0.017747 -142177.000000 0 0 1
-18.392901 -32.825569 -0.464285 37.630206 1.060063 1.583135 0.023864 -0.007227 179445.000000 0 0 1
-17.821201 -32.056769 0.592315 36.682182 1.063415 1.554648 0.021936 0.002494 -251838.000000 0 0 1
-17.854601 -30.541069 0.248015 35.378033 1.041770 1.563786 0.022881 -0.002118 -57885.900000 0 0 1
-16.747401 -30.167369 -0.543885 34.508570 1.064008 1.586558 0.029401 0.007289 166952.000000 0 0 1
-16.734701 -28.756569 -0.637485 33.277573 1.043759 1.589954 0.016603 0.010926 -92924.100000 0 0 1
-15.742601 -28.251269 -1.685085 32.385231 1.062415 1.622852 0.021128 0.002662 -199250.000000 0 0 1
-16.159501 -28.453669 -2.989785 32.858478 1.054297 1.661912 0.018136 0.002220 256083.000000 0 0 1
-15.167301 -27.939569 -3.852385 32.023545 1.073451 1.691387 0.025652 0.003215 -55957.100000 0 0 1
-15.535801 -28.171469 -5.309385 32.606477 1.066823 1.734357 0.032388 0.000703 -231467.000000 0 0 1
-16.682801 -27.391569 -5.539985 32.546972 1.023750 1.741844 0.030441 0.009842 -344689.000000 0 0 1
-16.970701 -27.297869 -6.938785 32.883508 1.014584 1.783406 0.043967 0.004568 552662.000000 0 0 1
-17.931301 -26.106069 -7.253285 32.491053 0.968941 1.795933 0.043878 0.006377 606733.000000 0 0 1
-17.147401 -24.971569 -6.979685 31.085827 0.969068 1.797257 0.035578 0.008432 605656.000000 0 0 1
-17.805001 -23.755569 -7.405985 30.597283 0.927610 1.815272 0.029446 0.015379 186689.000000 0 0 1
-16.977901 -22.492469 -7.074885 29.055366 0.924214 1.816766 0.039984 0.004859 -177113.000000 0 0 1
-15.791601 -22.442069 -7.802985 28.529068 0.957618 1.847837 0.045847 -0.002371 -535144.000000 0 0 1
-14.885901 -21.511769 -7.224985 27.139393 0.965467 1.840263 0.053426 -0.001091 5234.030000 0 0 1
-13.686901 -21.192769 -8.097685 26.495985 0.997359 1.881385 0.045439 -0.004226 -420228.000000 0 0 1
-14.007501 -20.255569 -9.121385 26.262099 0.965772 1.925509 0.045849 0.008667 -260921.000000 0 0 1
-13.051601 -20.296769 -10.137885 26.174030 0.999331 1.968526 0.040460 0.008507 -114817.000000 0 0 1
-13.394401 -19.257669 -11.168885 25.980989 0.963073 2.015164 0.043762 0.001204 -200830.000000 0 0 1
-14.421301 -19.736769 -11.994885 27.228501 0.939774 2.026982 0.037563 0.008306 -415960.000000 0 0 1
-14.544901 -18.952269 -13.177685 27.283586 0.916221 2.074862 0.025857 0.007874 547727.000000 0 0 1
-15.779801 -19.373369 -14.044785 28.663314 0.887270 2.082877 0.032202 0.008411 1395350.000000 0 0 1
-17.055701 -19.277469 -13.395985 29.016722 0.846472 2.050667 0.042680 0.002638 346774.000000 0 0 1
-18.139401 -19.620069 -14.183085 30.251362 0.824591 2.058775 0.039189 0.004110 -321731.000000 0 0 1
-19.555701 -19.545969 -13.556385 30.793602 0.785149 2.026655 0.027682 -0.004258 350849.000000 0 0 1
-20.460101 -20.035469 -14.550085 32.120721 0.774913 2.040903 0.032399 -0.011006 -87237.600000 0 0 1
-21.794201 -19.786069 -14.161585 32.665367 0.737140 2.019208 0.021467 -0.014619 -197693.000000 0 0 1
-22.839501 -20.505769 -15.013685 34.169286 0.731610 2.025717 0.029710 -0.023990 -473371.000000 0 0 1
-22.892001 -20.086269 -16.374085 34.577631 0.720208 2.064108 0.032214 -0.036351 71383.600000 0 0 1
-23.384801 -20.987269 -17.269785 35.854705 0.731418 2.073345 0.046296 -0.038887 -673382.000000 0 0 1
-23.831801 -20.441369 -18.599385 36.493033 0.708968 2.105597 0.042352 -0.029670 124528.000000 0 0 1
-22.793301 -19.924969 -19.443285 35.980277 0.718353 2.141694 0.027382 -0.026187 612877.000000 0 0 1
-23.353501 -19.532169 -20.677885 36.803078 0.696528 2.167419 0.024925 -0.023528 -388117.000000 0 0 1
-22.365401 -18.857669 -21.640285 36.388526 0.700511 2.207690 0.016825 -0.015607 510302.000000 0 0 1
-21.224801 -19.699669 -21.966485 36.346879 0.748148 2.219755 0.015024 -0.008169 509409.000000 0 0 1
-20.364901 -18.875769 -22.711785 35.872678 0.747468 2.256376 0.016616 -0.006611 -253534.000000 0 0 1
-18.938901 -19.440169 -22.872085 35.492738 0.798458 2.271056 0.014487 -0.001565 -142107.000000 0 0 1
-18.769101 -20.600069 -23.668885 36.563071 0.831872 2.274891 0.006356 0.007682 -182988.000000 0 0 1
-17.410601 -20.943769 -23.800485 36.169512 0.877258 2.288991 0.016106 0.007849 -244949.000000 0 0 1
-17.268801 -22.363669 -24.367985 37.311445 0.913250 2.282463 0.018671 0.013016 -296615.000000 0 0 1
-17.400801 -22.489269 -25.801825 38.396475 0.912275 2.307681 0.022070 0.010083 281594.000000 0 0 1
-17.392901 -23.850069 -26.229355 39.488199 0.940702 2.297263 0.022449 0.000349 -16524.900000 0 0 1
-17.560001 -24.084269 -27.819635 40.771777 0.940802 2.321736 0.023727 0.006024 -154596.000000 0 0 1
-16.321601 -23.819769 -28.420155 40.515198 0.970064 2.348253 0.014727 0.004534 -22722.200000 0 0 1
-16.296301 -24.223769 -29.782595 41.705676 0.978601 2.366154 0.028201 0.002343 322329.000000 0 0 1
-14.855101 -24.009269 -30.340685 41.444858 1.016723 2.392157 0.001327 -0.005603 728526.000000 0 0 1
-13.902101 -24.973469 -29.900235 41.363833 1.062843 2.378728 0.004441 -0.002934 967315.000000 0 0 1
-12.717201 -24.942669 -30.743615 41.581653 1.099294 2.402909 0.012943 0.000125 1246020.000000 0 0 1
-11.777501 -26.178569 -30.430395 41.833431 1.148033 2.385348 0.007300 0.005508 -846949.000000 0 0 1
-12.188501 -27.409069 -31.010145 43.144475 1.152368 2.372801 0.003428 0.011073 601769.000000 0 0 1
-11.250601 -28.474769 -30.729305 43.378321 1.194515 2.358028 0.005173 0.011466 957292.000000 0 0 1
-9.910101 -28.393969 -31.541275 43.580726 1.234994 2.380008 0.010983 0.006176 298308.000000 0 0 1
-9.088001 -27.321669 -31.087245 42.373131 1.249679 2.394481 0.013742 -0.002417 -254975.000000 0 0 1
-8.111201 -26.978769 -32.054975 42.675133 1.278742 2.420583 0.013847 -0.001690 -349983.000000 0 0 1
-7.224301 -25.839369 -31.596375 41.451109 1.298172 2.437588 0.038729 -0.006508 -543312.000000 0 0 1
-7.820901 -24.573369 -31.565915 40.760569 1.262666 2.456599 0.037269 -0.014363 149153.000000 0 0 1
-8.687301 -24.306969 -30.471435 39.935026 1.227545 2.438777 0.023456 -0.017550 -108687.000000 0 0 1
-9.180201 -22.806669 -30.247385 38.978514 1.188117 2.459098 0.023502 -0.023261 29233.300000 0 0 1
-9.989801 -22.364669 -31.330725 39.769195 1.150709 2.478048 0.024015 -0.023286 93110.800000 0 0 1
-10.456301 -21.065269 -31.008295 38.917787 1.110052 2.492718 0.025332 -0.021193 150826.000000 0 0 1
-11.050901 -20.356169 -32.259225 39.713394 1.073438 2.518883 0.017703 -0.010867 101981.000000 0 0 1
-11.516101 -19.047369 -31.951915 38.940310 1.026999 2.533144 0.029236 -0.012014 249019.000000 0 0 1
-12.064001 -18.444169 -33.148395 39.806326 0.991557 2.554838 0.032525 -0.007939 -198025.000000 0 0 1
-12.833201 -17.167269 -32.757615 39.146744 0.928872 2.562191 0.041696 -0.015413 -84885.200000 0 0 1
-12.199601 -15.917269 -33.003795 38.619169 0.916858 2.595569 0.053776 -0.015781 165839.000000 0 0 1
-11.112001 -15.524569 -32.174765 37.412623 0.949566 2.606061 0.030888 -0.012585 349708.000000 0 0 1
-11.094101 -13.970469 -32.122855 36.744128 0.899657 2.634646 0.026850 -0.016455 -220717.000000 0 0 1
-10.471601 -13.343269 -33.244055 37.321099 0.905402 2.669806 0.038641 -0.015186 81285.600000 0 0 1
-11.140801 -13.427369 34.284771 38.468912 0.878201 0.470739 0.047384 -0.010254 -26003.400000 0 0 1
-11.769501 -12.090369 33.729160 37.714114 0.798845 0.463847 0.037227 -0.007111 -491366.000000 0 0 1
-12.919701 -11.714869 34.379319 38.549895 0.736529 0.469458 0.032250 -0.007089 -904544.000000 0 0 1
-13.665701 -10.747569 33.610035 37.840403 0.666432 0.477373 0.013011 -0.015683 783926.000000 0 0 1
-14.715601 -10.115069 -34.208090 38.588301 0.602199 2.660497 0.023035 -0.009597 475851.000000 0 0 1
-14.079401 -9.139569 -33.396005 37.377191 0.575774 2.675845 0.024051 -0.003769 -112511.000000 0 0 1
-14.968801 -8.624369 -32.483115 36.791270 0.522703 2.652805 0.024846 -0.015118 -308905.000000 0 0 1
-14.283401 -7.508969 -31.606295 35.487435 0.484006 2.669533 0.023593 -0.025549 -40135.800000 0 0 1
-14.066601 -6.312369 -32.416585 35.896382 0.421813 2.697638 0.020960 -0.033610 623540.000000 0 0 1
-15.204601 -5.446269 -32.617755 36.397248 0.343960 2.681835 0.020274 -0.023826 532113.000000 0 0 1
-15.760001 -4.683469 -31.396075 35.440458 0.288863 2.659189 0.023050 -0.036670 43321.400000 0 0 1
-16.395901 -5.517369 -30.422795 34.997334 0.324606 2.624558 0.038005 -0.043853 181509.000000 0 0 1
-16.944901 -4.850469 -29.280395 34.175990 0.278794 2.599737 0.044367 -0.046437 245723.000000 0 0 1
-15.835301 -4.396969 -28.309715 32.734234 0.270846 2.615618 0.035021 -0.049062 91180.900000 0 0 1
-15.028301 -3.398569 -28.847915 32.704775 0.222404 2.651035 0.025235 -0.043104 -84250.500000 0 0 1
-13.771201 -3.258569 -28.192295 31.544726 0.232349 2.676376 0.039369 -0.042369 246392.000000 0 0 1
-12.988901 -2.072569 -28.735715 31.602981 0.158231 2.712329 0.027556 -0.022897 -313339.000000 0 0 1
-12.803101 -2.197569 -30.112415 32.794912 0.169987 2.734318 0.020237 -0.025278 31051.900000 0 0 1
-13.025201 -0.967569 -30.836595 33.488620 0.074148 2.740944 0.023227 -0.028668 -73610.200000 0 0 1
-13.215601 -1.148569 -32.365405 34.978433 0.086692 2.752612 0.019697 -0.025311 -202048.000000 0 0 1
-14.511801 -1.597569 -32.743975 35.851255 0.109646 2.722181 0.002453 -0.019758 562137.000000 0 0 1
-14.568101 -1.606569 -34.136224 37.149595 0.109836 2.736043 0.001210 -0.016538 -147000.000000 0 0 1
-15.980301 -1.884569 34.107096 37.712274 0.117389 0.440818 -0.002281 -0.010406 -143212.000000 0 0 1
-15.978401 -1.797569 32.702782 36.441906 0.112029 0.456967 0.005660 -0.005085 -509842.000000 0 0 1
-17.222901 -1.619569 32.115882 36.478503 0.093760 0.494079 0.014001 0.002173 -677365.000000 0 0 1
-17.212501 -1.549569 30.557312 35.105850 0.089784 0.514714 0.017662 0.008567 -83304.100000 0 0 1
-16.404701 -0.503569 30.102392 34.285883 0.030687 0.499166 0.003540 0.015101 -141893.000000 0 0 1
-16.428101 -0.559569 28.656262 33.035995 0.034049 0.520792 -0.000263 0.007848 -140643.000000 0 0 1
-15.917301 0.699431 27.914042 32.140993 -0.043913 0.518654 0.003461 0.010742 -171062.000000 0 0 1
-16.522601 1.939431 28.314322 32.839893 -0.116846 0.531214 0.006676 0.013662 568409.000000 0 0 1
-17.865701 2.193431 27.901372 33.203629 -0.122162 0.572940 0.020219 0.009524 572146.000000 0 0 1
-17.803001 2.975431 26.597442 32.143801 -0.165600 0.596242 0.016880 0.004490 -283453.000000 0 0 1
-17.488401 4.350431 26.726932 32.235063 -0.243812 0.593254 0.014068 0.006974 71217.100000 0 0 1
-17.935601 5.012431 25.592662 31.651139 -0.272516 0.629052 0.020150 0.008059 -495257.000000 0 0 1
-17.941701 6.580431 25.691012 32.019288 -0.351534 0.639557 0.019277 0.004373 112311.000000 0 0 1
-16.752901 7.328431 25.537092 31.408735 -0.412362 0.621412 0.011330 0.006808 -12466.500000 0 0 1
-16.127801 7.193431 24.242992 29.992900 -0.419545 0.629553 0.007660 0.010476 -21484.100000 0 0 1
-14.870901 8.047431 24.042052 29.392603 -0.496025 0.612936 0.004476 0.005942 -880645.000000 0 0 1
-13.740801 7.628431 24.707442 29.282422 -0.506801 0.566539 -0.002304 0.012191 -617469.000000 0 0 1
-12.683301 8.527431 24.356892 28.754850 -0.591917 0.560380 -0.006245 0.018118 -1136190.000000 0 0 1
-11.343001 8.007431 24.769592 28.395692 -0.614699 0.510908 -0.011429 0.026128 -1475000.000000 0 0 1
-10.383001 8.909431 24.304682 27.890899 -0.709165 0.512707 -0.017332 0.024993 -474216.000000 0 0 1
-9.237101 8.928431 25.122572 28.216742 -0.768408 0.472699 -0.009451 0.013907 -267734.000000 0 0 1
-8.943401 10.330431 25.770872 29.169163 -0.857239 0.487520 0.001312 -0.006652 -185654.000000 0 0 1
-9.911601 10.624431 26.780792 30.468495 -0.820095 0.497105 -0.004836 -0.001214 596645.000000 0 0 1
-9.837301 11.965431 27.194162 31.296429 -0.882698 0.517776 0.001219 -0.006188 -661247.000000 0 0 1
-10.494401 12.991431 26.251892 31.113848 -0.891321 0.566589 0.011081 -0.019617 1031760.000000 0 0 1
-11.943301 12.970431 26.190512 31.572416 -0.826602 0.592517 0.018532 -0.018401 1243920.000000 0 0 1
-12.439801 12.024431 25.259722 30.616811 -0.768421 0.600545 0.010471 -0.011047 -1169810.000000 0 0 1
-13.953201 11.974431 25.280602 31.260001 -0.709227 0.628823 0.014828 -0.008804 -822815.000000 0 0 1
-14.569901 13.218431 24.913732 31.744337 -0.736802 0.668384 0.024360 -0.017664 708657.000000 0 0 1
-15.864901 13.135431 24.282942 31.841732 -0.691556 0.703452 0.024706 -0.002886 934344.000000 0 0 1
-15.961701 12.432431 22.894062 30.552894 -0.661737 0.723753 0.015114 0.002097 -385004.000000 0 0 1
-15.948301 11.031431 22.774662 29.911971 -0.605133 0.705343 0.015570 -0.002390 -5757.940000 0 0 1
-15.749401 10.682431 21.407962 28.643652 -0.595996 0.726672 0.009379 0.009690 -572877.000000 0 0 1
-16.136701 9.232431 21.014362 28.057696 -0.519681 0.724291 0.007348 0.007200 165587.000000 0 0 1
-17.539301 9.084431 21.042062 28.860394 -0.477902 0.753793 0.021716 0.007847 -357002.000000 0 0 1
-17.953901 7.748431 20.763062 28.521667 -0.407425 0.755433 0.019176 0.002464 41610.700000 0 0 1
-19.484801 7.557431 20.803862 29.488521 -0.370000 0.787682 0.031693 -0.002221 71285.900000 0 0 1
-19.831201 7.872431 22.150262 30.755256 -0.377893 0.766690 0.030088 -0.001046 -597934.000000 0 0 1
-21.208201 7.880431 22.389462 31.830441 -0.355764 0.790630 0.018455 0.000904 -438529.000000 0 0 1
-21.560101 8.403431 23.847342 33.228772 -0.371654 0.770344 0.014714 -0.000205 -502407.000000 0 0 1
-21.434501 9.801431 24.004102 33.640790 -0.428886 0.776256 0.011022 -0.000435 331423.000000 0 0 1
-20.137801 10.358431 23.809312 32.858963 -0.475083 0.760355 0.020629 0.001586 517959.000000 0 0 1
-19.020801 10.059431 24.851802 32.872406 -0.486472 0.713604 0.028290 -0.005478 -348841.000000 0 0 1
-19.100001 10.628431 26.161772 34.091229 -0.507791 0.696013 0.034250 -0.003075 -164505.000000 0 0 1
-18.512101 9.908431 27.200592 34.362001 -0.491441 0.657391 0.030117 -0.007632 -64095.100000 0 0 1
-30.355711 -14.187699 20.873062 39.477142 0.437214 1.013683 0.007758 -0.007761 -123320.000000 0 0 1
-29.815141 -15.502999 21.046562 39.651524 0.479496 1.011266 0.013331 -0.003301 16161.300000 0 0 1
-30.440811 -16.519099 20.323662 40.156878 0.497193 1.040132 0.004535 0.008063 -146767.000000 0 0 1
-30.114371 -16.555699 18.787762 39.165629 0.502660 1.070483 0.013286 0.002778 208031.000000 0 0 1
-30.604321 -15.424799 18.030862 38.725455 0.466848 1.086475 0.022080 -0.008969 -72801.900000 0 0 1
-29.861591 -15.190599 16.849262 37.501554 0.470584 1.104820 0.022714 -0.010748 -1442080.000000 0 0 1
-30.381971 -13.907899 16.076162 37.080140 0.429295 1.122366 0.019371 -0.009136 -770076.000000 0 0 1
-31.624201 -14.078599 15.478562 37.919427 0.418842 1.150319 0.021017 -0.008361 55465.200000 0 0 1
-32.751381 -14.170099 16.366862 39.259634 0.408338 1.140778 0.019245 -0.012467 -616339.000000 0 0 1
-33.221851 -12.817599 16.947562 39.436051 0.368221 1.126583 0.005750 -0.014199 -1325160.000000 0 0 1
-34.387301 -12.961799 17.700462 40.789718 0.360467 1.121930 -0.014262 -0.010254 -534926.000000 0 0 1
-34.860704 -11.748399 18.081862 40.990820 0.325056 1.113950 -0.009175 -0.008852 327668.000000 0 0 1
35.133298 -11.761199 19.080562 41.674240 -0.323033 1.095221 0.001469 0.001890 -13502.300000 0 0 1
35.594985 -12.371499 20.254662 42.782103 -0.334502 1.077607 0.001590 -0.002930 -84982.100000 0 0 1
34.867324 -12.109099 21.434562 42.682561 -0.334259 1.044672 0.003632 -0.005117 -1682880.000000 0 0 1
35.486418 -12.600699 22.725262 43.982963 -0.341198 1.027824 -0.001511 -0.008229 222368.000000 0 0 1
-34.471755 -11.978499 23.078862 43.178932 0.334435 1.006888 -0.006763 -0.002147 251146.000000 0 0 1
-33.359441 -12.561299 22.454362 42.128813 0.360124 1.008662 -0.009864 -0.008939 -688902.000000 0 0 1
-32.089871 -11.657199 22.445262 40.858780 0.348445 0.989225 0.010852 -0.003245 158825.000000 0 0 1
-32.279071 -10.439099 21.771062 40.309954 0.312785 1.000251 0.019909 -0.007638 -741967.000000 0 0 1
-31.145591 -9.667599 21.858362 39.259372 0.300971 0.980306 0.027924 -0.011181 -1137300.000000 0 0 1
-31.283391 -8.280099 21.186062 38.678932 0.258747 0.991134 0.030925 -0.006848 18324.700000 0 0 1
-31.616841 -8.250899 19.812062 38.212822 0.255272 1.025740 0.028526 -0.011187 987929.000000 0 0 1
-32.934341 -8.696399 19.452562 39.226271 0.258160 1.051918 0.019639 -0.015277 132621.000000 0 0 1
-33.110911 -8.477199 17.940662 38.601330 0.250641 1.087424 0.018761 -0.012381 124028.000000 0 0 1
-34.450114 -8.689699 17.510962 39.610037 0.247086 1.112876 -0.026938 -0.008256 427747.000000 0 0 1
-34.688120 -8.499199 16.123962 39.185255 0.240284 1.146719 -0.025192 -0.009137 -966914.000000 0 0 1
35.056944 -8.643299 15.740462 39.388553 -0.241729 1.159694 -0.011916 -0.010736 -849128.000000 0 0 1
34.581044 -9.956299 16.019662 39.390431 -0.280330 1.151969 -0.018327 0.000835 -894100.000000 0 0 1
33.196994 -9.913199 15.946362 38.139198 -0.290188 1.139433 -0.002459 -0.000662 -958790.000000 0 0 1
32.482224 -11.273299 16.029462 37.935812 -0.334054 1.134549 -0.001122 -0.000106 -306589.000000 0 0 1
32.540104 -11.893699 17.309662 38.729096 -0.350424 1.107452 -0.001889 -0.007974 686150.000000 0 0 1
31.460534 -12.856799 17.434262 38.197068 -0.387953 1.096818 0.006450 -0.007286 914763.000000 0 0 1
31.154394 -13.125999 18.940262 38.750763 -0.398750 1.060115 0.012723 -0.012442 -144108.000000 0 0 1
32.073164 -14.039399 19.440662 40.046622 -0.412604 1.063918 0.020171 -0.012686 -450949.000000 0 0 1
31.993584 -13.964899 20.844262 40.658223 -0.411563 1.032504 0.029626 -0.013789 -345450.000000 0 0 1
32.542924 -15.229099 21.577762 41.911421 -0.437697 1.029973 0.023995 -0.007404 133565.000000 0 0 1
32.759664 -15.056799 22.959462 42.743885 -0.430820 1.003753 0.019971 -0.008068 -42345.800000 0 0 1
33.410754 -16.152699 23.568062 43.961821 -0.450327 1.004983 0.015965 -0.002385 80391.500000 0 0 1
33.720104 -15.853999 25.051712 44.899699 -0.439496 0.978885 0.025439 0.007066 693843.000000 0 0 1
34.964894 -15.134899 25.099062 45.624247 -0.408509 0.988282 0.021363 0.004436 514666.000000 0 0 1
35.445476 -14.908099 26.381372 46.632714 -0.398131 0.969482 0.020642 0.005363 -203070.000000 0 0 1
-34.516349 -13.982099 26.374892 45.634552 0.384883 0.954571 0.008739 -0.003446 -273517.000000 0 0 1
-33.358471 -14.639299 25.909262 44.703317 0.413541 0.952580 -0.012679 -0.001529 101394.000000 0 0 1
-32.296311 -13.663899 25.861302 43.572477 0.400243 0.935366 0.011954 -0.001273 344121.000000 0 0 1
-30.913551 -14.309699 25.677482 42.658507 0.433525 0.924879 -0.016021 0.002648 -514781.000000 0 0 1
-30.749271 -14.896999 24.362032 41.963637 0.451144 0.951391 -0.008401 0.001132 -179775.000000 0 0 1
-29.523441 -15.558099 24.202762 41.224528 0.484994 0.943329 -0.002929 -0.003232 -297874.000000 0 0 1
-29.526191 -17.009899 24.812162 42.151821 0.522657 0.941423 -0.004959 0.006226 -980268.000000 0 0 1
-29.372121 -16.894999 26.185142 42.823173 0.521989 0.912878 -0.007706 0.004510 -4442.350000 0 0 1
-29.241751 -18.184399 26.776442 43.620296 0.556341 0.909864 0.002624 -0.007972 -228663.000000 0 0 1
-29.018341 -18.197399 28.278602 44.417213 0.560108 0.880639 0.006557 -0.018624 193105.000000 0 0 1
-27.751891 -17.625199 28.601842 43.576146 0.565829 0.854806 0.009439 -0.014175 341513.000000 0 0 1
-27.271191 -18.052599 29.851662 44.280198 0.584741 0.830978 0.017373 -0.019594 -166926.000000 0 0 1
-26.066091 -17.271699 30.363122 43.585225 0.585190 0.800096 0.012624 -0.012884 -716081.000000 0 0 1
-26.318271 -16.007899 30.960822 43.674669 0.546458 0.782864 0.019950 -0.012241 -78860.800000 0 0 1
-25.443281 -15.003099 30.479642 42.443634 0.532788 0.769699 0.014756 -0.011047 -168525.000000 0 0 1
-25.540061 -13.678199 31.196572 42.574804 0.491688 0.748446 0.029449 -0.005979 -64500.700000 0 0 1
-24.900001 -13.720399 32.460472 43.150222 0.503626 0.719301 0.031962 -0.005311 104198.000000 0 0 1
-24.806001 -12.458999 32.989960 43.114984 0.465452 0.699503 0.042803 0.001375 -561827.000000 0 0 1
-23.978901 -12.422399 34.272788 43.634020 0.477987 0.667357 0.045067 -0.000518 -401570.000000 0 0 1
-22.600801 -12.662799 34.135897 42.853263 0.510702 0.649186 0.028787 -0.004583 95846.400000 0 0 1
-22.186001 -14.035899 34.148979 43.074097 0.564079 0.655413 0.033198 -0.003073 -386524.000000 0 0 1
-22.122201 -14.838699 -33.289205 42.635079 0.590831 2.466732 0.026846 -0.003873 -178296.000000 0 0 1
-21.024201 -14.488999 -32.411465 41.260771 0.603412 2.474344 0.022570 -0.002599 801132.000000 0 0 1
-20.848501 -15.529399 -31.466385 40.816120 0.640209 2.451097 0.035429 -0.003684 -173981.000000 0 0 1
-19.540801 -15.471499 -30.648695 39.503832 0.669692 2.458843 0.043068 -0.005553 -155244.000000 0 0 1
-19.338101 -14.359199 -29.777445 38.299412 0.638706 2.461463 0.023090 -0.006729 555963.000000 0 0 1
-20.206301 -14.392899 -28.621725 37.876817 0.618932 2.427447 0.033193 -0.008266 224934.000000 0 0 1
-19.929701 -13.273999 -27.605985 36.544253 0.587569 2.427080 0.035000 -0.014552 243870.000000 0 0 1
-18.685301 -13.408199 -26.925925 35.410814 0.622427 2.434705 0.039402 -0.022695 261400.000000 0 0 1
-18.305301 -12.142599 -26.405135 34.347604 0.585695 2.447700 0.025316 -0.014324 783109.000000 0 0 1
-16.965701 -11.998499 -25.589995 32.964327 0.615556 2.459561 0.051351 -0.025396 4141.320000 0 0 1
-16.918601 -12.754899 -24.371085 32.293595 0.645991 2.425951 0.063604 -0.024644 -368786.000000 0 0 1
-15.756801 -12.724899 -23.568385 31.075209 0.679347 2.431698 0.062205 -0.019865 -106383.000000 0 0 1
-14.636501 -13.573799 -24.195285 31.366973 0.747745 2.451775 0.046151 -0.018951 -653073.000000 0 0 1
-13.929601 -13.045699 -25.286975 31.680517 0.752643 2.495076 0.054165 -0.027337 -318643.000000 0 0 1
-13.272301 -14.036399 -26.062965 32.441526 0.813371 2.503751 0.056175 -0.028846 -129368.000000 0 0 1
-12.277801 -13.399299 -27.032075 32.573282 0.829047 2.549698 0.047049 -0.029919 -98719.900000 0 0 1
-12.959201 -12.462599 -27.826665 33.129753 0.765866 2.567950 0.057463 -0.035042 -192269.000000 0 0 1
-12.105801 -11.837499 -28.746055 33.361842 0.774193 2.609298 0.057160 -0.031723 -408163.000000 0 0 1
-12.745801 -10.703499 -29.580575 33.941579 0.698523 2.629079 0.035766 -0.027374 -139668.000000 0 0 1
-11.890301 -9.834599 -30.318335 34.019113 0.691055 2.670813 0.033061 -0.024707 -133114.000000 0 0 1
-11.252601 -10.409699 -31.396815 34.939131 0.746507 2.687398 0.040300 -0.020031 -516242.000000 0 0 1
-10.559701 -9.317799 -32.174785 35.121866 0.723002 2.729014 0.028343 -0.009873 161086.000000 0 0 1
-9.223301 -9.074399 -31.744085 34.279745 0.777261 2.754553 0.024140 -0.011902 124085.000000 0 0 1
-8.754101 -7.921999 -32.464545 34.544740 0.735542 2.792790 0.021288 -0.017190 393274.000000 0 0 1
-7.242201 -7.623399 -32.236985 33.908537 0.811036 2.826295 0.026108 -0.020074 6193.630000 0 0 1
-6.904301 -7.381799 -30.870105 32.482668 0.818810 2.825175 0.012273 -0.013655 -149750.000000 0 0 1
-7.203901 -6.130799 -30.200865 31.647672 0.705097 2.838051 0.022743 -0.019402 -467900.000000 0 0 1
-6.530901 -4.830399 -30.754475 31.809168 0.636826 2.883361 0.014655 -0.022791 951995.000000 0 0 1
-5.124101 -4.812999 -30.481205 31.281388 0.754101 2.914921 0.019561 -0.024223 669025.000000 0 0 1
-4.394901 -3.679099 -30.889465 31.416715 0.696974 2.958128 0.029730 -0.024869 -553673.000000 0 0 1
-2.925001 -3.741599 -30.531095 30.898268 0.907282 2.987275 0.016234 -0.012716 -1054770.000000 0 0 1
-2.130901 -4.363699 -31.541865 31.913506 1.116533 2.988832 0.012040 -0.016994 978421.000000 0 0 1
-0.705001 -4.202799 -31.530045 31.816730 1.404598 3.007249 0.017698 -0.008735 1006890.000000 0 0 1
-0.058001 -2.823499 -31.466425 31.592902 1.550257 3.052083 0.012822 -0.005123 -1060150.000000 0 0 1
-0.057701 -2.130799 -30.176685 30.251875 1.543723 3.071073 0.006310 -0.015264 -9661.320000 0 0 1
0.557299 -0.867299 -30.284025 30.301567 -0.999663 3.107564 0.012975 -0.003026 2365.200000 0 0 1
0.776599 -0.158299 -28.943225 28.954075 -0.201082 3.114216 0.013102 -0.007473 -301116.000000 0 0 1
-0.285101 0.631101 -28.500115 28.508527 -1.146487 3.117299 0.020895 -0.008797 -493814.000000 0 0 1
-0.065301 2.016201 -28.753785 28.824460 -1.538420 3.071551 0.027443 -0.011993 -695377.000000 0 0 1
-1.186701 2.922801 -28.314075 28.489259 -1.185115 3.030638 0.022293 -0.004697 -1249090.000000 0 0 1
-2.262801 2.873801 -29.161395 29.389896 -0.903792 3.016814 0.020994 -0.010786 -1076040.000000 0 0 1
-3.287501 3.727701 -28.741975 29.168554 -0.848065 2.970359 0.042924 -0.010911 -867494.000000 0 0 1
-4.436801 3.799801 -29.701645 30.270636 -0.708214 2.947397 0.058498 -0.012638 -1014360.000000 0 0 1
-4.113201 4.439101 -30.907965 31.494862 -0.823486 2.948239 0.059395 -0.012418 675279.000000 0 0 1
-5.243601 4.633301 -31.769825 32.531287 -0.723686 2.924803 0.065165 -0.004870 -455688.000000 0 0 1
-4.835101 5.508101 -32.963295 33.768272 -0.850373 2.922807 0.066339 -0.004837 -63311.200000 0 0 1
-4.156301 4.833301 -33.977085 34.569899 -0.860565 2.956134 0.064458 -0.012210 61634.900000 0 0 1
-2.895101 4.263101 -33.719815 34.111312 -0.974231 2.989941 0.062821 -0.014439 -956458.000000 0 0 1
-2.374401 3.633201 33.782928 34.060595 -0.991944 0.127775 0.045047 -0.012607 -378434.000000 0 0 1
-3.168601 2.553101 33.329499 33.576984 -0.678237 0.121489 0.046888 -0.021541 49033.400000 0 0 1
-2.863701 2.058801 32.047362 32.240857 -0.623318 0.109613 0.037933 -0.019508 -261768.000000 0 0 1
-2.930201 2.937601 30.802682 31.080875 -0.786659 0.133896 0.044882 -0.019120 611170.000000 0 0 1
-4.182401 3.644701 30.639022 31.137212 -0.716809 0.179124 0.031380 -0.009885 483650.000000 0 0 1
-4.068301 4.398601 29.451282 30.054563 -0.824389 0.200701 0.021214 -0.014084 146664.000000 0 0 1
-5.203501 5.439201 29.249552 30.202609 -0.807541 0.251884 0.024939 -0.004054 379623.000000 0 0 1
-5.067901 6.099201 28.024782 29.125114 -0.877489 0.275753 0.022714 0.000191 -1011710.000000 0 0 1
-6.264001 6.661601 27.633902 29.107511 -0.816149 0.319560 0.014531 0.004663 -1764670.000000 0 0 1
-6.149501 7.262901 26.174442 27.850808 -0.868221 0.348725 0.015217 0.005527 -641146.000000 0 0 1
-5.313601 8.353301 26.274182 28.077475 -1.004249 0.360347 0.032934 -0.004988 -472941.000000 0 0 1
-5.202601 9.175201 25.117302 27.242067 -1.054973 0.397571 0.036574 -0.004718 -187976.000000 0 0 1
-4.316201 10.415901 25.277752 27.678246 -1.177950 0.419552 0.044850 -0.012592 -501969.000000 0 0 1
-4.486501 11.234201 24.117362 26.981162 -1.190841 0.464916 0.059593 -0.013430 484665.000000 0 0 1
-3.943501 12.591701 24.236842 27.595772 -1.267290 0.498541 0.057963 -0.007465 1330810.000000 0 0 1
-2.356101 12.758101 24.343442 27.584842 -1.388179 0.489659 0.058665 -0.007208 1466420.000000 0 0 1
-1.677301 12.384001 25.535772 28.429781 -1.436175 0.455127 0.069002 -0.014244 178433.000000 0 0 1
-2.099601 13.180801 26.628692 29.786391 -1.412831 0.464627 0.066702 -0.016984 -880173.000000 0 0 1
-1.458101 12.794901 27.927972 30.753978 -1.457326 0.432050 0.051626 -0.011024 634576.000000 0 0 1
-0.048101 13.036601 27.863162 30.762169 -1.567107 0.437625 0.048055 -0.013377 60788.200000 0 0 1
0.644099 12.535001 28.962702 31.565475 1.519457 0.408938 0.036137 -0.013848 598785.000000 0 0 1
2.200399 12.570101 28.818592 31.517621 1.397502 0.416861 0.025985 -0.009209 829440.000000 0 0 1
2.684999 13.906201 28.682282 31.988513 1.380064 0.458668 0.021827 -0.010268 -131418.000000 0 0 1
4.074999 13.931901 28.436662 31.927218 1.286240 0.471976 0.017117 -0.004176 -62880.700000 0 0 1
4.692699 15.318001 28.559682 32.746267 1.273522 0.511215 0.017584 -0.007071 -344875.000000 0 0 1
4.818399 15.853001 29.912812 34.195189 1.275727 0.505842 0.023902 0.000021 318613.000000 0 0 1
3.792599 16.772801 30.287072 34.828399 1.348420 0.516387 0.001845 0.000133 104099.000000 0 0 1
3.833899 18.188301 29.677132 35.017784 1.363048 0.559562 0.016209 0.000447 -187650.000000 0 0 1
4.913799 18.947901 30.143132 35.941296 1.317054 0.575947 0.038875 0.004040 -174285.000000 0 0 1
5.237299 20.101301 29.387192 35.987479 1.315918 0.615309 0.026643 0.000273 374797.000000 0 0 1
6.324399 20.997501 30.076482 37.222142 1.278241 0.630001 0.035230 0.002076 334551.000000 0 0 1
5.921099 21.642701 31.243292 38.465689 1.303747 0.622818 0.024867 -0.013282 315030.000000 0 0 1
7.009399 22.478601 31.652842 39.450242 1.268526 0.639577 0.002045 -0.008321 474287.000000 0 0 1
7.202399 23.868001 30.969972 39.757957 1.277726 0.677786 -0.002944 0.003221 -60637.200000 0 0 1
7.494899 23.866101 29.573112 38.734135 1.266510 0.702097 -0.013391 -0.001562 231318.000000 0 0 1
7.914899 25.126901 29.128702 39.274522 1.265638 0.735241 -0.012275 -0.000339 -238418.000000 0 0 1
8.413499 25.065601 27.689102 38.285215 1.246954 0.762325 0.012295 -0.008166 -94261.700000 0 0 1
7.441099 24.839201 26.699872 37.218799 1.279733 0.770768 0.016492 -0.009387 310664.000000 0 0 1
8.154899 24.751101 25.494582 36.456729 1.252521 0.796364 0.031726 -0.015485 -67838.000000 0 0 1
28.013114 2.033101 6.647515 28.862736 0.072450 1.338395 0.048620 -0.008547 170128.000000 0 0 1
28.564224 2.805101 7.697115 29.715805 0.097889 1.308784 0.040137 -0.004826 143928.000000 0 0 1
27.900434 2.393301 8.837915 29.364449 0.085571 1.265083 0.027511 0.000912 -543843.000000 0 0 1
28.353354 3.123701 10.157115 30.279320 0.109728 1.228716 0.019121 -0.000846 -28090.600000 0 0 1
28.038864 4.546401 10.233815 30.192361 0.160747 1.224992 0.020837 -0.005990 -17343.900000 0 0 1
28.987484 5.361501 9.599015 31.002597 0.182892 1.256003 0.034092 -0.012252 -180734.000000 0 0 1
28.588234 6.834401 9.701715 30.953505 0.234659 1.251995 0.044298 -0.017955 438034.000000 0 0 1
27.709154 7.250601 8.645115 29.918330 0.255930 1.277659 0.047112 -0.009542 198321.000000 0 0 1
27.776024 8.616801 8.453015 30.285479 0.300810 1.287928 0.056181 -0.020610 13562.500000 0 0 1
27.307744 9.039701 7.071115 29.621441 0.319677 1.329753 0.056774 -0.020049 482657.000000 0 0 1
25.885224 8.995901 6.930115 28.266545 0.334473 1.323101 0.043664 -0.016530 538405.000000 0 0 1
25.580624 9.302301 5.579715 27.785506 0.348780 1.368608 0.045594 -0.023334 480850.000000 0 0 1
24.105624 9.732201 5.318515 26.534571 0.383719 1.368992 0.019270 -0.023453 453018.000000 0 0 1
23.816924 11.020301 5.754015 26.866366 0.433372 1.354953 0.004258 -0.006306 757456.000000 0 0 1
22.391024 11.181401 5.826715 25.696932 0.463143 1.342059 0.003324 -0.011099 834521.000000 0 0 1
21.982624 12.615501 6.312615 26.119643 0.520996 1.326699 0.009823 -0.002622 -160544.000000 0 0 1
22.209024 13.755501 5.455615 26.687418 0.554537 1.364919 0.008590 0.005084 327708.000000 0 0 1
21.901624 14.979201 6.111715 27.228857 0.599860 1.344410 0.036487 -0.012482 -164948.000000 0 0 1
21.783524 16.143701 5.146615 27.597620 0.637779 1.383210 0.039363 -0.009751 -117792.000000 0 0 1
20.637124 16.075401 4.328315 26.514972 0.661777 1.406822 0.060465 -0.017838 145538.000000 0 0 1
20.514824 17.324601 3.664515 27.100341 0.701288 1.435161 0.045261 -0.015880 -733455.000000 0 0 1
19.211724 17.601401 2.906415 26.217302 0.741683 1.459709 0.049466 -0.011689 -535134.000000 0 0 1
18.349924 18.147601 3.911815 26.102824 0.779855 1.420368 0.045719 -0.016699 251903.000000 0 0 1
17.091424 18.362401 3.276415 25.298803 0.821232 1.440923 0.053585 -0.015207 -399359.000000 0 0 1
16.142424 19.209601 4.050415 25.416382 0.871942 1.410752 0.035300 -0.021579 -97504.700000 0 0 1
14.803224 19.312201 3.575115 24.594268 0.916805 1.424916 0.038613 -0.016505 802372.000000 0 1 0
14.160524 20.501101 4.025915 25.239326 0.966326 1.410602 0.032336 -0.012943 406555.000000 0 0 1
12.608224 20.517101 3.920915 24.398613 1.019767 1.409394 0.029794 -0.007256 -70318.400000 0 1 0
11.998324 19.656201 4.857715 23.535577 1.022758 1.362903 0.025869 -0.007793 6716.640000 0 1 0
10.607924 19.720601 4.586815 22.857581 1.077282 1.368755 0.027836 0.004251 75161.800000 0 1 0
9.752324 18.959201 5.620915 22.048896 1.095707 1.313021 0.031901 -0.005291 -416381.000000 0 1 0
9.504524 19.744701 6.751215 22.929633 1.122163 1.271935 0.026789 -0.004487 -321799.000000 0 1 0
9.004224 18.990501 7.820315 22.424819 1.128047 1.214576 0.030226 -0.005202 -308106.000000 0 1 0
8.125324 19.808701 8.814215 23.153745 1.181537 1.180263 0.009553 -0.008852 2505410.000000 0 1 0
6.741724 20.160201 8.385515 22.851726 1.248079 1.195065 0.015604 -0.011320 2274940.000000 0 1 0
6.712524 21.225701 7.442415 23.472918 1.264503 1.248164 0.011108 -0.009128 -929788.000000 0 1 0
5.463524 21.181101 6.524715 22.826761 1.318356 1.280917 0.026587 -0.013381 891331.000000 0 1 0
4.179924 21.425401 7.127715 22.963534 1.378124 1.255190 0.032182 -0.016528 620383.000000 0 1 0
3.948424 22.544801 7.959915 24.232588 1.397418 1.236103 0.019321 -0.013953 -1043350.000000 0 1 0
3.788024 23.873701 7.146015 25.206512 1.413439 1.283356 0.014062 -0.007755 -617748.000000 0 0 1
2.686024 24.054801 6.297815 25.010211 1.459594 1.316247 0.023154 -0.014414 -171462.000000 0 0 1
2.904524 24.995701 5.240715 25.703821 1.455114 1.365468 0.019551 -0.001446 57381.800000 0 0 1
1.637324 25.272101 4.378015 25.700718 1.506099 1.399616 0.017438 -0.003408 667459.000000 0 0 1
0.511524 25.706701 5.152715 26.223016 1.550900 1.373013 0.033471 -0.013128 179923.000000 0 0 1
-0.499576 26.202901 4.317915 26.560986 -1.551733 1.407506 0.038898 -0.011100 -20984.000000 0 0 1
-1.871876 26.448301 4.995115 26.980877 -1.500139 1.384587 0.027889 -0.015568 110467.000000 0 0 1
-2.763676 26.999601 4.080115 27.445650 -1.468792 1.421582 0.041510 -0.019005 -864716.000000 0 0 1
-3.967576 27.442701 4.605815 28.107953 -1.427214 1.406192 0.031689 -0.016600 -54520.000000 0 0 1
-4.975876 27.952201 3.482915 28.604467 -1.394628 1.448732 0.029767 -0.019739 393764.000000 0 0 1
-4.458976 29.063201 2.809815 29.537217 -1.418560 1.475524 0.027901 -0.017252 54846.300000 0 0 1
-5.310976 29.514501 1.754315 30.039804 -1.392757 1.512363 0.034296 -0.021226 -25875.900000 0 0 1
-4.749576 30.662501 0.793015 31.038304 -1.417119 1.545244 0.035826 -0.011522 -308109.000000 0 0 1
-4.506276 31.954301 1.380515 32.299995 -1.430698 1.528043 0.031744 -0.006737 378213.000000 0 0 1
-3.470976 32.001401 2.352615 32.274946 -1.462755 1.497839 0.030062 -0.012460 -884712.000000 0 0 1
-2.549876 33.203401 2.410715 33.388310 -1.494151 1.498531 0.033793 -0.012220 -1066630.000000 0 0 1
-1.666376 33.087001 1.329315 33.155595 -1.520475 1.530692 0.026413 0.003479 -553723.000000 0 0 1
-0.824976 34.134801 1.020115 34.160004 -1.546633 1.540929 0.016517 -0.004289 352879.000000 0 0 1
0.460324 34.267201 1.897615 34.322790 1.557364 1.515481 0.006789 -0.001781 78188.300000 0 0 1
0.112324 -34.298769 3.239515 34.451599 -1.567521 1.476626 0.002176 -0.000770 419512.000000 0 0 1
1.289124 34.367601 4.016415 34.625502 1.533304 1.454539 0.001019 -0.000294 525742.000000 0 0 1
1.089224 -34.224969 5.564015 34.691399 -1.538982 1.409715 -0.002671 -0.004320 188773.000000 0 0 1
0.366024 33.617001 6.221215 34.189768 1.559909 1.387816 0.002087 -0.004054 1887.350000 0 0 1
0.141724 33.917501 7.604215 34.759762 1.566618 1.350248 0.010439 -0.022628 877969.000000 0 0 1
1.388324 33.635101 8.544115 34.731101 1.529544 1.322237 -0.007058 -0.015390 704951.000000 0 0 1
1.620824 32.219301 8.647815 33.399029 1.520533 1.308888 -0.004657 -0.017950 -610225.000000 0 0 1
2.680224 31.861901 9.458315 33.344026 1.486874 1.283189 0.007396 -0.010398 -766305.000000 0 0 1
2.914824 30.322101 9.594715 31.937197 1.474962 1.265659 0.012809 -0.005651 -689632.000000 0 0 1
1.959524 29.599701 10.286115 31.397232 1.504692 1.237021 0.016537 -0.016656 -358175.000000 0 0 1
2.246524 28.231401 10.295915 30.134112 1.491388 1.222103 0.027432 -0.015286 -25045.900000 0 0 1
1.778824 27.446801 11.522815 29.820569 1.506077 1.174066 0.012173 -0.018930 -217595.000000 0 0 1
2.609024 27.840001 12.599015 30.669330 1.477354 1.147463 0.026024 -0.012913 44543.000000 0 0 1
2.566024 27.076901 13.791315 30.494973 1.476310 1.101511 0.025178 -0.008077 -838272.000000 0 0 1
1.220624 26.904901 14.477515 30.577149 1.525459 1.077564 0.013916 -0.011476 -366289.000000 0 0 1
0.456424 28.012601 14.961315 31.760905 1.554504 1.080303 0.012082 -0.014356 205140.000000 0 0 1
-0.231676 28.753601 14.008115 31.985161 -1.562739 1.117472 0.017774 -0.020963 -865515.000000 0 0 1
-0.827376 30.043801 14.590615 33.409588 -1.543264 1.118848 -0.002864 -0.016323 -401186.000000 0 0 1
-1.929376 29.777601 15.391715 33.575778 -1.506094 1.094583 -0.011009 -0.007849 -96432.600000 0 0 1
-2.628776 30.976201 15.822915 34.882662 -1.486135 1.099991 -0.026249 -0.001177 -562621.000000 0 0 1
-3.980276 30.739101 16.464615 35.097271 -1.442027 1.082509 -0.022496 0.009470 -695104.000000 0 0 1
-4.937276 30.343701 15.497315 34.427948 -1.409498 1.103877 -0.010505 0.002603 -138462.000000 0 0 1
-6.080676 29.908901 16.184215 34.546284 -1.370223 1.083228 -0.000005 0.003394 -224294.000000 0 0 1
-7.194976 29.232801 15.324415 33.781089 -1.329466 1.099952 -0.001986 -0.010010 -736883.000000 0 0 1
-8.356376 28.984501 15.974215 34.133647 -1.290103 1.083781 0.008703 -0.008389 -1143290.000000 0 0 1
-9.336176 28.359801 15.164115 33.487204 -1.252766 1.100856 0.021858 -0.009867 273369.000000 0 0 1
-10.544276 27.880401 16.005615 33.833093 -1.209226 1.078018 0.029333 -0.012583 -281962.000000 0 0 1
-11.347676 28.920801 16.574315 35.212077 -1.196884 1.080713 0.036090 -0.022099 402988.000000 0 0 1
-10.933476 29.359401 17.855615 36.060204 -1.214306 1.052776 0.040150 -0.017854 174459.000000 0 0 1
-11.811176 30.627301 18.227015 37.546764 -1.202728 1.063920 0.051826 -0.019027 368273.000000 0 0 1
-13.126476 30.339301 18.615915 37.938500 -1.162459 1.057919 0.054590 -0.015676 -157170.000000 0 0 1
-13.876076 31.481401 18.931615 39.268691 -1.155644 1.067741 0.072891 -0.018620 202399.000000 0 0 1
-14.999976 31.229901 19.962115 39.984897 -1.123026 1.048073 0.071096 -0.016654 -7597.270000 0 0 1
-14.506776 31.113001 21.253215 40.375296 -1.134502 1.016445 0.059514 -0.018682 228971.000000 0 0 1
-15.512676 30.705701 22.170915 40.927162 -1.102993 0.998319 0.050913 -0.017206 5823.530000 0 0 1
-14.948276 30.721401 23.597015 41.521976 -1.117946 0.966356 0.043173 -0.007679 -524229.000000 0 0 1
-14.021476 29.666001 23.746315 40.503837 -1.129272 0.944346 0.025647 -0.006140 419127.000000 0 0 1
-13.609476 29.343801 25.112215 40.949967 -1.136531 0.910639 0.049370 -0.002825 134598.000000 0 0 1
-12.929176 30.488701 25.965915 42.082695 -1.169718 0.905845 0.044316 -0.000362 -777761.000000 0 0 1
-13.803176 31.459201 26.404015 43.328755 -1.157325 0.915508 0.038720 0.000004 99158.300000 0 0 1
-13.105176 32.545401 27.030515 44.289925 -1.187987 0.914346 0.035615 -0.001858 255251.000000 0 0 1
-14.111676 33.606201 27.583415 45.709527 -1.173242 0.922976 0.040813 -0.006321 -29019.000000 0 0 1
-14.897876 33.174101 28.654615 46.298538 -1.148706 0.903442 0.008810 -0.004593 -43870.700000 0 0 1
-14.233476 33.140201 29.898915 46.848798 -1.165126 0.878638 0.032066 -0.000481 -540014.000000 0 0 1
-15.043176 32.551601 31.037015 47.425733 -1.137898 0.857362 0.011936 0.000120 -818887.000000 0 0 1
-16.219176 33.210901 31.367815 48.476442 -1.116497 0.867057 0.011841 0.004168 -451571.000000 0 0 1
-16.697776 32.658601 32.630715 49.093416 -1.098163 0.843750 0.000202 0.003810 223856.000000 0 0 1
-18.130876 33.008501 33.073415 50.121258 -1.068507 0.850153 0.002531 -0.003620 -12267.800000 0 0 1
-18.330476 34.350101 33.431915 51.318892 -1.080603 0.861297 0.017680 -0.003975 468892.000000 0 0 1
-19.720176 -34.240569 33.611515 51.875195 1.048263 0.865932 0.016725 -0.014827 479390.000000 0 0 1
-20.041376 -32.710469 33.852115 51.162459 1.021098 0.847767 0.034802 -0.011526 -143039.000000 0 0 1
-19.626776 -32.059569 -33.713732 50.493980 1.021457 2.301882 0.034664 -0.004937 159521.000000 0 0 1
-20.400276 -32.416069 -32.590532 50.290313 1.009092 2.275815 0.038326 -0.010322 -246930.000000 0 0 1
-19.883276 -31.712769 -31.350432 48.825137 1.010774 2.268026 0.040644 -0.006651 -116429.000000 0 0 1
-20.008476 -30.324869 -31.585132 48.141016 0.987560 2.286430 0.061055 -0.010696 163337.000000 0 0 1
-19.279776 -29.501469 -30.685232 46.729326 0.991951 2.287177 0.054947 -0.007051 4491.180000 0 0 1
-19.644376 -27.982069 -30.816932 46.028046 0.958706 2.304366 0.059885 -0.011774 632872.000000 0 0 1
-20.979476 -27.674369 -30.406132 46.157795 0.922142 2.289943 0.071676 -0.012341 503105.000000 0 0 1
-21.270276 -26.318769 -30.534532 45.579161 0.891088 2.304902 0.070241 -0.011570 -637782.000000 0 0 1
-22.564376 -25.955769 -29.841332 45.534142 0.855181 2.285458 0.068569 -0.014928 -628046.000000 0 0 1
-22.515776 -26.165469 -28.435032 44.722958 0.860229 2.259846 0.062861 -0.013415 413808.000000 0 0 1
-21.819276 -25.120169 -27.743532 43.322134 0.855605 2.265816 0.060742 -0.009356 -248676.000000 0 0 1
-21.760276 -25.520269 -26.262832 42.597302 0.864756 2.235134 0.054959 -0.006787 -106650.000000 0 0 1
-22.944876 -25.431669 -25.502432 42.703761 0.836758 2.210795 0.047165 -0.005712 40682.900000 0 0 1
-22.755176 -26.021469 -24.233932 42.216091 0.852263 2.182234 0.045596 0.001540 -365713.000000 0 0 1
-23.953176 -25.972369 -23.251432 42.295954 0.825820 2.152840 0.030474 0.006536 828327.000000 0 0 1
-25.171976 -26.653669 -23.575032 43.587023 0.813980 2.142271 0.032894 0.006928 371355.000000 0 0 1
-25.109776 -28.026169 -23.610132 44.423027 0.840229 2.131148 0.035004 0.004315 -1140010.000000 0 0 1
-26.468176 -28.737569 -23.683332 45.687115 0.826483 2.115753 0.009998 0.012430 382145.000000 0 0 1
-27.324376 -28.511869 -22.550832 45.476238 0.806662 2.089646 0.007088 0.019124 -29021.200000 0 0 1
-28.310576 -27.545369 -22.714032 45.564935 0.771699 2.092662 0.010385 0.017382 -483422.000000 0 0 1
-28.839176 -26.958569 -21.425132 44.916576 0.751707 2.068033 0.007117 0.020752 20731.400000 0 0 1
-29.683076 -27.830669 -20.670132 45.638641 0.753201 2.040821 -0.000056 0.028278 471060.000000 0 0 1
-30.043576 -27.305769 -19.376432 44.985193 0.737695 2.016097 0.002013 0.028328 -784773.000000 0 0 1
-31.019076 -28.235469 -18.557532 45.867274 0.738456 1.987329 -0.001431 0.019893 1005790.000000 0 0 1
-32.384276 -28.269769 -19.010132 47.003258 0.717666 1.987166 -0.007356 0.020093 1063010.000000 0 0 1
-33.115576 -27.045269 -19.091132 46.824772 0.684837 1.990746 -0.008572 0.022499 -956508.000000 0 0 1
-33.933676 -26.693369 -17.818032 46.706665 0.666537 1.962202 0.002907 0.019213 -442508.000000 0 0 1
-33.168676 -26.738169 -16.643532 45.739457 0.678466 1.943223 -0.004658 0.028782 -24772.300000 0 0 1
-33.885076 -26.234369 -15.563532 45.592368 0.658820 1.919163 0.000050 0.019082 -232062.000000 0 0 1
-33.499676 -26.868869 -14.191532 45.227912 0.675998 1.889966 0.037677 0.016190 -277622.000000 0 0 1
-34.142476 -28.078669 -14.011632 46.372903 0.688249 1.877745 0.030188 0.006687 178804.000000 0 0 1
-33.694276 -28.718269 -12.799832 46.085561 0.705839 1.852238 0.008030 -0.007341 55877.600000 0 0 1
-34.244276 -30.162369 -12.653632 47.355605 0.722106 1.841287 0.009379 -0.000597 -149214.000000 0 0 1
-33.768576 -31.009769 -13.656532 47.837468 0.742835 1.860301 -0.001506 -0.007151 58826.700000 0 0 1
-34.233776 -32.270769 -13.430432 48.925765 0.755890 1.848873 -0.001972 -0.015184 -276344.000000 0 0 1
-33.595676 -33.157469 -14.543832 49.392411 0.778834 1.869681 -0.008860 0.006669 553074.000000 0 0 1
-32.198776 -33.368269 -14.311932 48.528692 0.803233 1.870165 -0.004917 -0.001517 222795.000000 0 0 1
-31.723676 -34.085969 -15.401432 49.045377 0.821279 1.890225 0.007978 -0.013313 -720535.000000 0 0 1
-30.248276 34.418301 -15.349132 48.323633 -0.849794 1.894027 0.008510 -0.012859 -414789.000000 0 0 1
-29.957276 33.611101 -16.445932 47.933424 -0.842814 1.921011 0.020072 -0.008599 -2187100.000000 0 0 1
-28.610076 33.565201 -16.584832 47.119166 -0.864926 1.930478 0.014860 -0.011643 -2053440.000000 0 0 1
9.122699 20.044501 -8.854885 23.736357 1.143691 1.953092 0.028343 -0.011115 107439.000000 0 1 0
7.730599 20.190101 -9.150785 23.476354 1.205126 1.971197 0.032799 -0.012953 523244.000000 0 1 0
7.391199 20.181001 -10.549685 23.941564 1.219723 2.027111 0.040368 -0.012057 110364.000000 0 1 0
7.446199 18.818301 -11.325885 23.191593 1.194012 2.081008 0.031726 -0.006945 -100739.000000 0 1 0
8.760499 18.507701 -11.736285 23.601308 1.128700 2.091249 0.035786 -0.006006 -163028.000000 0 1 0
8.835399 17.216601 -12.211285 22.882113 1.096652 2.133720 0.028534 -0.019379 671407.000000 0 1 0
9.984199 16.969901 -13.274485 23.746025 1.038989 2.163999 0.041335 -0.007366 790842.000000 0 1 0
9.857099 15.685101 -13.741785 23.065590 1.009729 2.209020 0.047829 -0.025803 54253.200000 0 1 0
10.730499 15.500201 -14.818585 23.978955 0.965270 2.236971 0.041585 -0.017618 -652972.000000 0 1 0
10.508299 14.120401 -15.565385 23.496623 0.931022 2.294884 0.041879 -0.026581 -278850.000000 0 1 0
10.697799 12.940601 -14.774485 22.364871 0.879995 2.292429 0.051319 -0.031884 552828.000000 0 1 0
12.032299 12.675501 -14.361685 22.620843 0.811425 2.258659 0.060952 -0.024609 280.235000 0 1 0
12.945299 11.866201 -15.311385 23.298627 0.741934 2.287867 0.060588 -0.030077 -294809.000000 0 1 0
13.427099 12.588001 -16.418585 24.664036 0.753155 2.299213 0.038142 -0.023850 1060220.000000 0 1 0
14.552899 11.885801 -17.030385 25.359281 0.684860 2.307114 0.048448 -0.031691 887410.000000 0 0 1
15.153299 12.639701 -18.234485 26.867842 0.695204 2.316751 0.031353 -0.024094 -484648.000000 0 0 1
16.114999 13.550301 -17.834585 27.593048 0.699158 2.273579 0.012766 -0.015883 -504666.000000 0 0 1
16.502699 14.412201 -18.849285 28.902356 0.717880 2.281241 0.006283 -0.016878 -526423.000000 0 0 1
17.709799 15.301301 -18.575585 29.880080 0.712567 2.241671 0.004947 -0.007866 -944583.000000 0 0 1
17.496199 16.611201 -17.986285 30.092448 0.759457 2.211427 0.007900 -0.010115 434000.000000 0 0 1
16.825199 17.604901 -18.840585 30.789406 0.808040 2.229279 0.023171 -0.012637 177298.000000 0 0 1
16.622499 18.931301 -18.155985 31.053847 0.850245 2.195259 0.023458 -0.010130 -65669.700000 0 0 1
17.820899 19.671101 -18.013285 32.078265 0.834707 2.167044 0.032493 -0.010271 -27348.200000 0 0 1
17.550299 20.999301 -17.573985 32.524277 0.874630 2.141631 0.020550 -0.005260 132928.000000 0 0 1
18.731999 21.977001 -17.772185 33.907623 0.864942 2.122496 0.036163 -0.010309 908871.000000 0 0 1
19.906199 21.927401 -16.961485 34.128575 0.833676 2.090920 0.036550 -0.011470 303785.000000 0 0 1
19.760899 22.806001 -15.874085 34.096824 0.856813 2.055063 0.032134 -0.005660 -525763.000000 0 0 1
21.093199 23.243701 -15.293285 34.915287 0.833864 2.024181 0.029897 -0.013243 -739958.000000 0 0 1
21.676499 22.426901 -14.317285 34.319399 0.802411 2.001134 0.036907 -0.009083 927284.000000 0 0 1
22.778299 23.036801 -13.573585 35.125309 0.791040 1.967558 0.028803 -0.011811 749207.000000 0 0 1
24.182299 22.974001 -14.165485 36.238781 0.759781 1.972398 0.035513 -0.014178 -672170.000000 0 0 1
24.320599 23.766401 -15.322985 37.297818 0.773874 1.994158 0.035500 -0.015631 190567.000000 0 0 1
25.592499 24.381501 -15.415685 38.562637 0.761170 1.982048 0.023322 -0.011931 -193715.000000 0 0 1
25.895399 24.973701 -16.807785 39.708426 0.767281 2.007859 0.031255 -0.012873 -397287.000000 0 0 1
26.441399 23.936401 -17.571485 39.759979 0.735715 2.028555 0.019007 -0.014085 -45906.100000 0 0 1
26.484099 24.415101 -18.887985 40.672603 0.744772 2.053743 0.021800 -0.014636 -756934.000000 0 0 1
26.780599 23.369301 -19.976885 40.772548 0.717481 2.082839 0.014054 -0.017062 -988542.000000 0 0 1
28.136599 23.099501 -20.005185 41.538688 0.687402 2.073280 0.006342 -0.015509 -1099670.000000 0 0 1
28.562699 22.314601 -21.051085 41.915598 0.663203 2.096967 0.012808 -0.014392 -602742.000000 0 0 1
30.054599 22.246701 -21.323185 43.045010 0.637206 2.089056 0.023384 -0.011516 -693215.000000 0 0 1
30.515999 23.406501 -21.952185 44.283054 0.654308 2.089465 0.022164 -0.010305 -334013.000000 0 0 1
31.914799 23.537101 -21.921985 45.311400 0.635452 2.075796 0.031450 -0.007810 -123022.000000 0 0 1
32.198299 24.991101 -22.421685 46.519002 0.660036 2.073721 0.044963 -0.009701 -275685.000000 0 0 1
32.320799 25.321401 -23.781985 47.448817 0.664561 2.095797 0.038154 -0.010904 617531.000000 0 0 1
31.197099 25.016601 -24.627985 46.964103 0.675892 2.122807 0.028810 -0.014726 163545.000000 0 0 1
31.237699 25.688201 -25.953155 48.054592 0.688219 2.141324 0.041168 -0.018029 -555220.000000 0 0 1
31.031799 27.090001 -25.935005 48.677153 0.717682 2.132698 0.049662 -0.018905 552109.000000 0 0 1
29.680799 27.464201 -26.254085 48.213164 0.746629 2.146639 0.048099 -0.009109 632972.000000 0 0 1
29.236099 27.306001 -27.722985 48.671666 0.751276 2.176806 0.049734 -0.007267 -442553.000000 0 0 1
28.956399 25.925601 -27.996995 47.900329 0.730230 2.195041 0.034342 -0.013061 -61121.000000 0 0 1
28.743999 25.747901 -29.402955 48.515004 0.730471 2.221893 0.040351 -0.011897 -332393.000000 0 0 1
28.119999 24.342101 -29.775835 47.643180 0.713510 2.245897 0.033234 -0.008408 450691.000000 0 0 1
26.845799 24.313101 -29.117905 46.472316 0.735932 2.247934 0.038525 -0.006780 460070.000000 0 0 1
26.089399 23.172301 -29.547205 45.723622 0.726251 2.273408 0.050982 -0.016114 529528.000000 0 0 1
24.690899 23.101001 -28.867475 44.459283 0.752143 2.277462 0.031898 -0.011313 246986.000000 0 0 1
24.752499 22.905601 -27.486295 43.506887 0.746664 2.254629 0.027629 -0.000757 1060530.000000 0 0 1
23.438799 23.016701 -26.883385 42.448348 0.776312 2.256632 0.028143 -0.007105 910677.000000 0 0 1
23.441099 23.190101 -25.317525 41.572142 0.780016 2.225598 0.022594 -0.007055 -290511.000000 0 0 1
23.847199 22.030701 -24.637785 40.756118 0.745825 2.219956 0.027818 -0.009961 188166.000000 0 0 1
24.344499 22.430901 -23.374785 40.523827 0.744511 2.185622 0.030948 -0.010153 -218028.000000 0 0 1
24.900399 21.291601 -22.564985 39.781160 0.707430 2.173932 0.046333 -0.015679 160515.000000 0 0 1
26.066799 20.684401 -23.110185 40.514233 0.670774 2.177815 0.016366 -0.007207 157692.000000 0 0 1
26.288399 19.394701 -22.573685 39.709012 0.635626 2.175451 0.049919 -0.015926 -435201.000000 0 0 1
27.538999 18.646001 -23.034585 40.455679 0.595175 2.176546 0.051596 -0.011643 -667813.000000 0 0 1
28.661999 19.102501 -22.335985 41.052551 0.587870 2.146092 0.045496 -0.017378 -1135370.000000 0 0 1
29.738699 18.310001 -22.725185 41.666298 0.551881 2.147674 0.028807 -0.007735 -1128920.000000 0 0 1
30.894499 18.317701 -21.763985 41.996182 0.535191 2.115585 0.031489 -0.001655 -712768.000000 0 0 1
31.644799 19.501801 -21.986085 43.186821 0.552298 2.104926 0.019771 -0.006996 407641.000000 0 0 1
32.973899 19.420001 -21.452285 43.870434 0.532255 2.081730 0.009651 -0.008391 814587.000000 0 0 1
33.182999 20.402701 -20.336885 43.942810 0.551270 2.051951 0.015872 -0.013514 157168.000000 0 0 1
32.356599 19.965401 -19.238585 42.610913 0.552857 2.039236 0.012276 -0.011201 591155.000000 0 0 1
32.293299 21.057601 -18.303885 42.676831 0.577831 2.014066 0.000966 -0.001664 -170498.000000 0 0 1
31.628999 20.762801 -16.961585 41.463030 0.580895 1.992239 0.013329 -0.010677 -366028.000000 0 0 1
32.332499 19.901701 -16.071985 41.228351 0.551762 1.971242 0.013466 -0.016962 224334.000000 0 0 1
31.973499 20.142101 -14.753885 40.567056 0.562160 1.943024 0.025686 -0.017469 -210921.000000 0 0 1
32.390499 19.008701 -13.765985 39.999719 0.530702 1.922132 0.025650 -0.020038 814279.000000 0 0 1
33.832699 18.845801 -13.834785 41.124409 0.508224 1.913902 0.020069 -0.021262 1370470.000000 0 0 1
34.319799 17.763001 -13.031785 40.782352 0.477607 1.896045 0.025728 -0.007317 55714.300000 0 0 1
34.334499 17.975501 -11.504285 40.426786 0.482302 1.859355 0.023741 -0.009072 -247973.000000 0 0 1
35.241199 19.053001 -11.163085 41.588140 0.495633 1.842549 0.016904 -0.015233 347394.000000 0 0 1
34.992299 19.659101 -9.932685 41.347303 0.511867 1.813395 0.011219 -0.009547 -409327.000000 0 0 1
33.778799 20.601201 -9.861285 40.775749 0.547657 1.815060 0.012655 -0.015759 -578586.000000 0 0 1
32.567899 19.968501 -10.031385 39.497313 0.550021 1.827586 0.043894 -0.021909 -748659.000000 0 0 1
31.412799 20.723701 -9.679185 38.857719 0.583179 1.822540 0.026943 -0.016114 669629.000000 0 0 1
30.060399 20.018001 -9.948885 37.461023 0.587490 1.839601 0.022709 -0.013819 100687.000000 0 0 1
29.787899 20.013501 -11.325285 37.631386 0.591594 1.876488 0.032186 -0.020718 718566.000000 0 0 1
28.557699 19.309001 -11.622685 36.379479 0.594532 1.895982 0.030801 -0.020606 820433.000000 0 0 1
28.498499 18.841601 -13.081285 36.582651 0.584169 1.936473 0.037703 -0.004912 -570847.000000 0 0 1
29.448199 17.841101 -13.355985 36.930795 0.544708 1.940832 0.044463 -0.003123 -357185.000000 0 0 1
29.077399 16.965501 -14.375085 36.605552 0.528169 1.974364 0.031841 -0.002504 24006.700000 0 0 1
30.251199 16.312301 -15.161885 37.564730 0.494536 1.986267 0.039951 -0.010207 251195.000000 0 0 1
31.082799 15.395301 -14.466685 37.582452 0.459880 1.965930 0.031679 -0.005507 480443.000000 0 0 1
32.175399 15.082701 -15.330585 38.701047 0.438349 1.978093 0.034759 -0.004890 476852.000000 0 0 1
33.190899 14.055801 -14.700085 38.926775 0.400586 1.958036 0.036474 -0.002216 -11388.800000 0 0 1
33.998599 14.503801 -13.665585 39.408288 0.403225 1.924921 0.054062 0.001341 24921.500000 0 0 1
34.556699 13.461201 -12.883085 39.259945 0.371456 1.905139 0.039871 0.008494 313995.000000 0 0 1
35.542199 13.927101 -11.768785 39.946419 0.373458 1.869848 0.062176 0.004842 404561.000000 0 0 1
-34.339326 14.260401 -12.133485 39.112272 -0.393608 1.886223 0.037095 0.002391 24296.900000 0 0 1
-33.450126 14.513701 -11.064385 38.104843 -0.409377 1.865407 0.009768 0.006320 388242.000000 0 0 1
-31.961626 14.812701 -11.491685 37.054291 -0.433985 1.886127 0.028747 -0.004384 858669.000000 0 0 1
-31.195226 13.760201 -12.043385 36.159762 -0.415428 1.910344 0.016810 -0.004793 206552.000000 0 0 1
-30.933426 12.712101 -11.114385 35.242076 -0.389911 1.891646 0.039220 0.008472 -332098.000000 0 0 1
-29.715226 11.854501 -11.645985 34.046333 -0.379590 1.919908 0.046914 0.007363 109209.000000 0 0 1
-29.985326 11.211601 -12.880985 34.507094 -0.357808 1.953344 0.045347 0.003931 146188.000000 0 0 1
-29.497626 9.911601 -12.830385 33.659598 -0.324161 1.961869 0.040337 -0.008491 -354661.000000 0 0 1
-29.599126 9.005001 -14.121885 34.009204 -0.295335 1.999000 0.039906 -0.018053 60530.300000 0 0 1
-30.885226 8.632801 -14.571085 35.224125 -0.272556 1.997275 0.024333 -0.005658 276999.000000 0 0 1
-30.678126 7.573701 -15.509085 35.200001 -0.242037 2.027062 0.040191 -0.019398 -100870.000000 0 0 1
-31.963826 7.153801 -16.256885 36.567053 -0.220181 2.031499 0.036558 -0.017691 -55735.300000 0 0 1
-32.856226 6.514101 -15.372885 36.854996 -0.195723 2.001068 0.040755 -0.016894 -332683.000000 0 0 1
-33.841626 5.804801 -16.008085 37.884168 -0.169875 2.007057 0.013736 -0.022795 -1043730.000000 0 0 1
-34.875026 5.137601 -15.125185 38.359270 -0.146263 1.976106 0.005755 -0.023135 -157787.000000 0 0 1
35.330599 4.346301 -15.810885 38.950297 0.122403 1.988787 0.001808 -0.017942 294304.000000 0 0 1
34.343299 4.097401 -14.828085 37.631410 0.118746 1.975814 0.014396 -0.019072 -665257.000000 0 0 1
33.581899 2.847501 -15.262185 36.997115 0.084590 1.996019 0.009354 -0.014566 -157852.000000 0 0 1
34.403499 1.689301 -15.252085 37.670686 0.049063 1.987643 0.011380 -0.017019 1207920.000000 0 0 1
33.487599 0.549801 -15.211485 36.784655 0.016417 1.997122 0.012575 -0.007059 1353510.000000 0 0 1
32.834799 0.114901 -13.868685 35.643760 0.003499 1.970442 0.023276 -0.018757 638890.000000 0 0 1
33.945099 -0.212799 -13.002885 36.350929 -0.006269 1.936605 0.035851 -0.019815 975445.000000 0 0 1
33.720399 -0.254999 -11.593285 35.658584 -0.007562 1.901934 0.031236 -0.010862 -485930.000000 0 0 1
33.669199 1.114401 -10.877685 35.400295 0.033086 1.883126 0.035013 -0.015935 -516765.000000 0 0 1
32.555399 1.925201 -11.106185 34.451528 0.059067 1.899030 0.029346 -0.006301 48839.800000 0 0 1
32.839499 3.301701 -10.838985 34.739279 0.100204 1.888104 0.031511 -0.011385 -158363.000000 0 0 1
31.768499 4.271501 -11.377985 34.013847 0.133656 1.911882 0.029662 -0.009872 -123428.000000 0 0 1
31.920499 4.556301 -12.777185 34.683348 0.141781 1.948079 0.023243 -0.012222 302946.000000 0 0 1
30.895499 5.441501 -13.104885 33.998232 0.174338 1.966500 0.031747 -0.011258 -456508.000000 0 0 1
31.291899 6.204101 -14.428385 35.012171 0.195727 1.995550 0.011393 -0.005244 -475627.000000 0 0 1
31.211599 5.422301 -15.578585 35.302374 0.172010 2.027832 0.001100 -0.004111 178313.000000 0 0 1
31.655899 6.092901 -16.761485 36.334099 0.190148 2.050274 -0.004704 -0.004550 -657786.000000 0 0 1
30.752499 7.201101 -17.470085 36.093987 0.230019 2.076035 -0.006745 -0.001285 1047800.000000 0 0 1
29.506899 6.737701 -18.010385 35.219706 0.224494 2.107577 -0.009846 0.000823 960232.000000 0 0 1
28.493099 6.358301 -17.085485 33.826003 0.219555 2.100293 -0.006757 0.007596 26825.200000 0 0 1
27.091199 6.315801 -17.799385 33.024847 0.229040 2.140010 -0.000893 0.006924 478937.000000 0 0 1
26.948099 5.294401 -18.775485 33.267846 0.193996 2.170470 0.007792 0.004443 200008.000000 0 0 1
25.658699 5.455301 -19.337285 32.589258 0.209491 2.206028 0.010013 0.001537 110906.000000 0 0 1
25.310899 4.267801 -20.221685 32.676785 0.167044 2.238061 0.021430 0.018524 -162894.000000 0 0 1
24.958199 3.164201 -19.441385 31.794517 0.126107 2.228713 0.023187 0.002880 168427.000000 0 0 1
24.530099 2.079001 -20.279285 31.895100 0.084551 2.259856 0.020343 0.003497 -73715.300000 0 0 1
23.461699 1.159901 -19.624685 30.609230 0.049398 2.266774 0.018744 -0.005269 190624.000000 0 0 1
22.186499 1.766201 -19.550985 29.624335 0.079439 2.291567 0.028311 -0.007720 -300848.000000 0 0 1
21.387099 1.075201 -18.644785 28.393522 0.050231 2.287173 0.030240 -0.009983 -37242.500000 0 0 1
20.039099 1.842701 -18.480185 27.321755 0.091697 2.313648 0.028000 -0.012936 -349539.000000 0 0 1
19.147799 1.639201 -19.588485 27.441464 0.085400 2.365745 0.024415 -0.014025 780959.000000 0 0 1
18.013299 2.518701 -19.610985 26.747215 0.138924 2.393808 0.022051 -0.017057 253250.000000 0 0 1
16.857699 2.036101 -18.748585 25.295003 0.120199 2.405648 0.035090 -0.018721 -1509000.000000 0 0 1
17.059099 2.053801 -17.388085 24.445377 0.119817 2.362147 0.027752 -0.020810 317148.000000 0 1 0
15.836899 1.731901 -16.747085 23.114318 0.108926 2.381153 0.008848 -0.014051 491037.000000 0 1 0
14.810199 2.856601 -16.474685 22.336459 0.190541 2.400260 0.021374 -0.022866 -413113.000000 0 1 0
14.351099 3.532001 -17.598985 22.981587 0.241318 2.443059 0.030452 -0.011382 71071.700000 0 1 0
13.697099 4.729801 -17.243085 22.523444 0.332494 2.442710 0.050467 -0.020448 -273229.000000 0 1 0
-19.242401 -21.869399 -17.263885 33.861222 0.849210 2.105798 0.043871 -0.020154 -19690.500000 0 0 1
-19.098301 -22.392599 -18.569885 34.799630 0.864630 2.133675 0.046863 -0.015497 507116.000000 0 0 1
-20.222301 -22.112099 -19.397485 35.695221 0.830008 2.145302 0.043203 -0.014961 14365.400000 0 0 1
-20.126501 -22.615999 -20.837485 36.752690 0.843577 2.173613 0.039269 -0.001433 -167277.000000 0 0 1
-19.970901 -24.013999 -20.858785 37.557928 0.877061 2.159612 0.043911 0.001411 373327.000000 0 0 1
-19.558601 -24.634599 -22.105385 38.445421 0.899756 2.183377 0.039891 0.001605 108789.000000 0 0 1
-19.376001 -26.126209 -21.887685 39.205599 0.932673 2.163107 0.046306 0.002875 640567.000000 0 0 1
-20.639601 -26.799449 -21.874285 40.282601 0.914523 2.144827 0.048315 0.001807 650946.000000 0 0 1
-20.371401 -28.183459 -21.702985 40.991718 0.944922 2.128746 0.067152 -0.009040 -297522.000000 0 0 1
-21.605001 -29.034949 -21.947485 42.326073 0.931080 2.115931 0.053399 -0.004720 -608430.000000 0 0 1
-22.044301 -29.029669 -23.288285 43.255255 0.921324 2.139324 0.040337 0.005002 66373.400000 0 0 1
-21.294001 -29.827249 -24.210885 43.923413 0.950795 2.154606 0.037510 -0.002313 -320844.000000 0 0 1
-21.708901 -29.594219 -25.702695 44.807619 0.937905 2.181719 0.038987 0.003453 161235.000000 0 0 1
-23.078201 -29.854989 -25.977405 45.812109 0.912731 2.173707 0.032668 0.006126 605949.000000 0 0 1
-23.620401 -29.061499 -27.030775 46.186111 0.888315 2.195994 0.033923 0.011783 -165576.000000 0 0 1
-23.200901 -29.416049 -28.488205 47.065524 0.902974 2.220924 0.044120 -0.007146 -474851.000000 0 0 1
-23.958601 -30.395079 -29.131805 48.441072 0.903268 2.216032 0.027590 -0.003717 56862.700000 0 0 1
-23.528201 -30.529229 -30.500635 49.151794 0.914192 2.240227 0.059072 -0.008942 212440.000000 0 0 1
-24.059201 -31.770699 -31.219965 50.625179 0.922655 2.235325 0.031563 -0.007660 463174.000000 0 0 1
-23.228701 -32.884359 -30.902325 50.753397 0.955804 2.225434 0.020012 -0.006975 163847.000000 0 0 1
-23.868201 -33.930039 -31.562405 52.126040 0.957756 2.221192 0.019532 -0.006472 -110153.000000 0 0 1
-23.303601 33.520103 -31.423645 51.517964 -0.963291 2.226800 0.025864 -0.001918 316494.000000 0 0 1
-22.224801 33.214126 -32.308205 51.390077 -0.981085 2.250658 0.018269 -0.017023 130050.000000 0 0 1
-21.845401 31.911741 -32.003105 50.197405 -0.970510 2.262104 0.023164 -0.003718 -201696.000000 0 0 1
-20.740301 31.274291 -32.867195 49.884806 -0.985216 2.290101 0.015474 0.000284 -12661.700000 0 0 1
-21.171901 31.175921 -34.204443 50.893333 -0.974228 2.307812 0.009942 -0.004496 329526.000000 0 0 1
-20.597301 30.041071 33.923507 49.774683 -0.969774 0.820929 0.003038 -0.000481 -47888.800000 0 0 1
-20.798001 29.909911 32.405292 48.757180 -0.963195 0.843803 -0.000866 -0.002724 -450045.000000 0 0 1
-19.996001 30.757991 31.671452 48.466225 -0.994346 0.858631 0.001768 0.002334 -120187.000000 0 0 1
-20.116601 30.629181 30.266192 47.527537 -0.989670 0.880438 0.013235 0.003251 -141229.000000 0 0 1
-19.660101 31.953821 29.547692 47.755967 -1.019227 0.903681 0.014104 -0.007264 -66923.800000 0 0 1
-20.458801 33.055175 29.942652 49.069028 -1.016575 0.914465 0.021024 -0.008123 -188735.000000 0 0 1
-19.996001 34.253073 29.484502 49.421138 -1.042394 0.931542 0.025564 -0.018334 -84529.000000 0 0 1
-21.028401 -33.442379 29.557172 49.337742 1.009473 0.928447 0.039127 -0.028817 346168.000000 0 0 1
-21.278201 -32.950719 30.877362 49.919167 0.997409 0.903904 0.032540 -0.024333 -295552.000000 0 0 1
-22.389501 -32.104869 30.996952 49.928183 0.961827 0.900994 0.045926 -0.022585 -194218.000000 0 0 1
-22.124301 -30.619749 30.559632 48.589555 0.945096 0.890615 0.072281 -0.018406 -387899.000000 0 0 1
-21.919101 -30.492569 29.187842 47.562316 0.947541 0.910089 0.055772 -0.014202 -175023.000000 0 0 1
-21.944001 -29.172019 28.741442 46.460912 0.925871 0.903817 0.065863 -0.018204 155636.000000 0 0 1
-23.255201 -28.626019 28.076942 46.352648 0.888552 0.920120 0.051546 -0.012484 168396.000000 0 0 1
-24.361801 -28.515229 28.958332 47.383548 0.863786 0.913287 0.055311 -0.012187 304781.000000 0 0 1
-25.229531 -29.636259 29.040072 48.560919 0.865544 0.929776 0.030760 -0.001761 -486186.000000 0 0 1
-26.328481 -29.698079 27.965382 48.551286 0.845469 0.956973 0.011610 0.003189 -765829.000000 0 0 1
-25.809621 -29.851139 26.668192 47.627928 0.857881 0.976498 0.008494 0.008548 -171762.000000 0 0 1
-26.798601 -29.960439 25.668832 47.693625 0.841047 1.002493 -0.001892 0.007450 -64755.600000 0 0 1
-26.232431 -30.030499 24.187232 46.636826 0.852802 1.025549 -0.003389 0.004052 -120103.000000 0 0 1
-25.384141 -28.920599 23.774912 45.232755 0.850429 1.017361 -0.014680 0.004418 751390.000000 0 0 1
-24.922101 -29.040219 22.468162 44.376387 0.861565 1.039897 0.004435 -0.002418 167149.000000 0 0 1
-23.823201 -30.139619 22.251762 44.396874 0.901919 1.045810 0.016783 -0.014009 -621242.000000 0 0 1
-24.328701 -31.462639 21.957662 45.430411 0.912576 1.066347 0.015728 -0.012697 635283.000000 0 0 1
-23.295501 -32.420159 21.726162 45.450778 0.947729 1.072403 0.040255 -0.009152 82449.600000 0 0 1
-22.465601 -32.912889 22.936962 45.978971 0.971859 1.048516 0.040145 -0.008163 -89826.500000 0 0 1
-21.580701 -31.958019 23.474462 45.145232 0.976852 1.023973 0.078347 -0.024960 -16727.700000 0 0 1
-20.690901 -32.676169 24.298192 45.675459 1.006314 1.009865 0.080836 -0.025902 -338052.000000 0 0 1
-19.715101 -31.858439 25.147202 45.122357 1.016643 0.979652 0.093353 -0.030613 -1781710.000000 0 0 1
-18.645101 -31.278529 24.448222 43.860024 1.033250 0.979528 0.093452 -0.029747 11583.500000 0 0 1
-17.827101 -30.609829 25.393472 43.584350 1.043420 0.948838 0.094495 -0.036646 -157029.000000 0 0 1
-16.890601 -31.491869 26.221142 44.323566 1.078495 0.937773 0.071609 -0.031075 -1411910.000000 0 0 1
-17.581801 -32.241059 27.250692 45.729704 1.071551 0.932401 0.059554 -0.024983 -130048.000000 0 0 1
-16.808701 -32.852029 28.229772 46.461901 1.097873 0.917774 0.046763 -0.021134 -595300.000000 0 0 1
-17.187901 -32.319369 29.663042 47.115408 1.082022 0.889780 0.060744 -0.023505 -57914.700000 0 0 1
-16.702301 -31.014679 29.912462 46.212905 1.076803 0.866792 0.065771 -0.014558 307902.000000 0 0 1
-17.108701 -30.583209 31.226762 46.937735 1.060754 0.842927 0.072071 -0.008356 216031.000000 0 0 1
-16.667101 -29.081619 31.448542 45.962415 1.050380 0.817259 0.079574 -0.011109 -254178.000000 0 0 1
-17.418801 -28.142549 30.704672 45.146368 1.016560 0.822878 0.106232 -0.011717 63805.400000 0 0 1
-17.298001 -28.144759 29.336552 44.181236 1.019705 0.844634 0.103249 -0.016212 -466923.000000 0 0 1
-16.000401 -27.749609 28.624962 42.958609 1.047761 0.841509 0.083909 -0.010666 -389858.000000 0 0 1
-15.807601 -26.325079 28.589542 41.955357 1.030026 0.821085 0.076774 -0.006853 438324.000000 0 0 1
-14.674901 -25.973329 27.785572 40.767690 1.056511 0.820906 0.062920 -0.006327 210313.000000 0 0 1
-14.698901 -24.589199 27.035042 39.390099 1.032012 0.814350 0.055618 0.005440 -785120.000000 0 0 1
-15.582501 -24.617299 25.980542 39.036064 1.006472 0.842563 0.093735 -0.007496 -387859.000000 0 0 1
-15.425001 -23.460899 25.089142 37.653811 0.989183 0.841546 0.052574 0.000465 -157402.000000 0 0 1
-16.237801 -22.212099 25.467812 37.492039 0.939544 0.824007 0.063224 -0.000122 -597048.000000 0 0 1
-16.099501 -21.074999 24.664712 36.217365 0.918449 0.821643 0.041648 0.004478 285484.000000 0 0 1
-16.973801 -20.000799 25.048242 36.270599 0.867083 0.808487 0.047721 0.005189 175283.000000 0 0 1
-16.778901 -18.703699 24.200872 34.886130 0.839591 0.804168 0.036178 -0.002849 -970278.000000 0 0 1
-15.529601 -18.179199 24.408832 34.167863 0.863839 0.775059 0.026396 -0.002402 -1354540.000000 0 0 1
-15.262301 -17.080399 23.572862 32.868795 0.841553 0.771048 0.019792 -0.002068 286388.000000 0 0 1
-13.858001 -16.454999 23.882712 32.143353 0.870862 0.733245 0.029695 -0.010915 -38688.400000 0 0 1
-12.831801 -17.338299 23.535062 31.924456 0.933672 0.741863 -0.009609 0.001348 181491.000000 0 0 1
-11.522501 -16.772299 23.709062 31.244162 0.968851 0.709279 -0.002953 -0.010197 775729.000000 0 0 1
-10.984901 -15.872199 22.564362 29.694195 0.965403 0.707650 0.003661 -0.011918 -382654.000000 0 0 1
-10.393201 -16.455999 21.411262 28.935457 1.007483 0.737776 0.029215 -0.010403 699925.000000 0 0 1
-8.994601 -16.752699 21.564862 28.750636 1.078063 0.722635 0.023053 -0.010056 523673.000000 0 0 1
-8.515401 -18.023799 20.808462 28.815994 1.129428 0.763941 0.022231 -0.010140 -329386.000000 0 0 1
-8.504101 -17.824099 19.422562 27.699353 1.125626 0.793728 0.014413 -0.010666 -58030.100000 0 0 1
-8.035601 -18.987099 18.741162 27.862376 1.170440 0.833035 0.011127 -0.007896 30602.500000 0 0 1
-7.740001 -18.924899 17.246962 26.749152 1.182568 0.870078 0.008208 -0.013018 254458.000000 0 0 1
-6.670901 -18.043199 16.947562 25.637430 1.216664 0.848582 0.007678 -0.003030 -77318.800000 0 0 1
-6.421401 -18.021299 15.575062 24.669499 1.228500 0.887505 0.016532 -0.002741 -82206.500000 0 1 0
-5.457801 -16.900699 15.233162 23.398086 1.258435 0.861839 0.003618 -0.003397 -413656.000000 0 1 0
-6.060101 -15.724199 15.558662 22.935719 1.202939 0.825269 0.013600 -0.011486 -707636.000000 0 1 0
-5.215201 -14.623299 15.553362 21.976039 1.228222 0.784500 0.006774 -0.008265 -808625.000000 0 1 0
-5.463001 -13.531599 16.635462 22.128876 1.187086 0.720079 -0.001082 0.000299 -224269.000000 0 1 0
-4.973801 -13.869599 17.931562 23.208735 1.226470 0.687837 0.004993 -0.003683 -17084.300000 0 1 0
-5.589701 -14.909299 18.685962 24.549891 1.212101 0.705724 0.014464 -0.014110 -307584.000000 0 1 0
-6.890801 -14.603199 19.447762 25.277500 1.129905 0.692941 0.035988 -0.017910 -508294.000000 0 0 1
-6.755201 -13.561199 20.393762 25.405598 1.108648 0.638942 0.030594 -0.023716 -523963.000000 0 0 1
-7.970001 -13.080099 20.900762 25.912386 1.023550 0.632430 0.032302 -0.020006 -263717.000000 0 0 1
-7.878101 -12.082599 22.082162 26.375662 0.993002 0.578621 0.036628 -0.012704 -251057.000000 0 0 1
-7.360201 -10.803299 21.677462 25.313952 0.972737 0.542648 0.023693 -0.012842 275506.000000 0 0 1
-6.983301 -9.872799 22.684462 25.706487 0.955170 0.489770 0.017337 -0.018686 266709.000000 0 0 1
-5.609401 -10.138199 23.364862 26.079978 1.065428 0.460360 0.019201 -0.013589 141935.000000 0 0 1
-5.602701 -11.202199 24.271312 27.312563 1.107034 0.476403 0.022869 -0.006987 -678122.000000 0 0 1
-4.312701 -11.703299 24.337572 27.347468 1.217734 0.473585 0.017783 -0.001689 -950014.000000 0 0 1
-4.022601 -12.569999 25.556012 28.762753 1.261079 0.476707 0.025275 -0.010177 -266757.000000 0 0 1
-2.679201 -13.029199 25.505862 28.766076 1.367993 0.480715 0.018674 -0.008656 252438.000000 0 0 1
-2.464701 -14.062399 26.450462 30.057491 1.397290 0.494943 0.019275 -0.009193 50152.000000 0 0 1
-2.586601 -15.484099 25.944172 30.324048 1.405276 0.544157 0.024667 -0.028913 192473.000000 0 0 1
-1.447701 -15.772399 25.135252 29.709347 1.479266 0.562286 0.010732 -0.022852 223456.000000 0 0 1
-1.570701 -17.069999 24.633522 30.011038 1.479039 0.607959 0.017549 -0.018861 -578637.000000 0 0 1
-0.326301 -18.003599 24.703772 30.569796 1.552674 0.629859 0.014509 -0.026655 243374.000000 0 0 1
0.130799 -18.413499 25.984662 31.847711 -1.563693 0.616506 0.016768 -0.023929 -73996.500000 0 0 1
0.690799 -17.342599 26.675282 31.824733 -1.530985 0.576834 0.012745 -0.018943 -1346260.000000 0 0 1
1.282399 -17.743099 28.017712 33.188165 -1.498646 0.565711 0.005507 -0.006651 -1167580.000000 0 0 1
2.375999 -18.584999 27.807792 33.530894 -1.443641 0.592909 0.005005 -0.014439 425567.000000 0 0 1
3.210099 -18.953599 28.974802 34.771868 -1.403022 0.585777 0.003317 -0.004387 889746.000000 0 0 1
4.115499 -17.886099 29.612172 34.838637 -1.344638 0.554847 0.011343 -0.003158 -790819.000000 0 0 1
3.409899 -16.796199 30.107232 34.643688 -1.370502 0.517510 0.000843 -0.008953 -315065.000000 0 0 1
4.284299 -15.839699 30.669732 34.783383 -1.306639 0.491269 0.012617 -0.019342 -504300.000000 0 0 1
3.594199 -14.646199 31.417152 34.849202 -1.330150 0.447534 0.016976 -0.006988 577279.000000 0 0 1
2.761299 -15.069699 32.535612 35.962295 -1.389572 0.440087 -0.000523 -0.014989 447185.000000 0 0 1
1.960399 -14.027299 33.035254 35.943515 -1.431940 0.405037 0.003643 -0.010323 144229.000000 0 0 1
1.051999 -14.524999 34.207979 37.178867 -1.498496 0.402481 -0.002772 -0.005195 573258.000000 0 0 1
1.776299 -14.520799 -33.338085 36.406548 -1.449073 2.728084 0.010131 -0.001895 302874.000000 0 0 1
1.158499 -15.397899 -32.372755 35.866875 -1.495700 2.696523 0.011769 -0.017271 228865.000000 0 0 1
1.939199 -15.490899 -31.061925 34.764517 -1.446261 2.675865 0.011755 -0.013021 396396.000000 0 0 1
1.270899 -16.402899 -30.181915 34.374675 -1.493471 2.642522 0.022230 -0.011296 444866.000000 0 0 1
1.981299 -16.468699 -28.924865 33.343537 -1.451065 2.620911 0.015682 -0.011023 142702.000000 0 0 1
1.459799 -17.608499 -28.023425 33.128577 -1.488082 2.579045 0.038408 -0.014050 -88417.000000 0 0 1
1.831299 -18.876799 -28.528745 34.257503 -1.474086 2.554895 0.037654 -0.011482 -19775.400000 0 0 1
1.629799 -19.908799 -27.554045 34.032954 -1.489115 2.514315 0.056526 -0.018038 -808264.000000 0 0 1
2.638499 -21.081699 -27.605205 34.834567 -1.446288 2.485638 0.044745 -0.018347 -345150.000000 0 0 1
3.939499 -20.673199 -27.261995 34.440052 -1.382493 2.484184 0.026129 -0.014017 -243601.000000 0 0 1
4.181499 -20.644899 -25.848155 33.344024 -1.370956 2.457822 0.035802 -0.016369 -161699.000000 0 0 1
5.475599 -21.438299 -25.414665 33.697004 -1.320731 2.425249 0.021756 -0.014855 378436.000000 0 0 1
5.369799 -22.856899 -25.549135 34.699148 -1.340050 2.398389 0.020794 -0.007471 163896.000000 0 0 1
5.396299 -23.311499 -26.916165 36.014247 -1.343317 2.414899 0.004503 -0.004459 -808436.000000 0 0 1
4.837799 -24.695999 -27.097805 36.980910 -1.377352 2.393152 0.008739 0.001899 -325651.000000 0 0 1
5.560599 -25.731619 -26.500535 37.353914 -1.357969 2.359506 0.007665 0.005887 11814.200000 0 0 1
4.844899 -26.947149 -26.707615 38.248119 -1.392904 2.343778 0.009683 0.004898 150792.000000 0 0 1
5.266599 -28.069089 -25.780905 38.474224 -1.385323 2.305116 0.013810 0.002139 973541.000000 0 0 1
6.625199 -28.548459 -25.930225 39.131629 -1.342764 2.295136 0.024791 -0.000328 875820.000000 0 0 1
6.826899 -29.845529 -25.401165 39.781671 -1.345924 2.263363 0.024879 -0.000278 -326174.000000 0 0 1
8.309799 -30.195679 -25.588385 40.442518 -1.302246 2.255844 0.023562 -0.006144 -294064.000000 0 0 1
8.732099 -30.131329 -26.919295 41.337574 -1.288722 2.279969 0.027523 -0.008672 -917687.000000 0 0 1
10.038599 -30.588959 -26.991265 42.011740 -1.253693 2.268513 0.044749 -0.007798 -479428.000000 0 0 1
10.639399 -30.498479 -28.418385 43.022769 -1.235146 2.292338 0.051045 -0.025015 328599.000000 0 0 1
9.855299 -31.256659 -29.349025 43.993988 -1.265360 2.301125 0.040337 -0.023237 366143.000000 0 0 1
10.347799 -31.036699 -30.650185 44.830654 -1.248981 2.323601 0.043666 -0.019307 47088.100000 0 0 1
-33.886261 -4.904299 -5.640185 34.700757 0.143730 1.734058 0.066910 -0.016938 -6958.700000 0 0 1
-33.811371 -4.186399 -4.429585 34.356309 0.123189 1.700087 0.065874 -0.020623 558184.000000 0 0 1
-33.023321 -2.963599 -4.545785 33.466204 0.089503 1.707050 0.070391 -0.020732 -158114.000000 0 0 1
-33.701651 -1.718399 -5.171785 34.139442 0.050944 1.722872 0.068296 -0.015857 -282629.000000 0 0 1
-34.506972 -1.008899 -4.231985 34.780148 0.029229 1.692777 0.046273 -0.009858 350727.000000 0 0 1
-35.010663 0.181801 -4.824085 35.341921 -0.005193 1.707721 0.035249 -0.012180 308535.000000 0 0 1
35.200502 0.956901 -3.872685 35.425820 0.027178 1.680333 0.033903 -0.011180 561859.000000 0 0 1
-35.283905 1.665801 -2.890185 35.441247 -0.047176 1.652436 0.037114 -0.007137 93405.500000 0 0 1
34.970594 2.481601 -2.263685 35.131540 0.070844 1.635276 0.033307 -0.012841 -706818.000000 0 0 1
35.475506 3.880901 -1.885685 35.736938 0.108963 1.623587 0.031791 -0.022162 -471825.000000 0 0 1
-35.410879 4.711101 -3.014585 35.849861 -0.132264 1.654985 0.040337 -0.021197 -166211.000000 0 0 1
-34.108436 4.454401 -3.451885 34.570834 -0.129860 1.670813 0.049380 -0.018904 -1094500.000000 0 0 1
-33.012791 5.428701 -3.005785 33.590920 -0.162984 1.660398 0.055848 -0.026744 -922800.000000 0 0 1
-32.866251 5.359501 -1.578085 33.337742 -0.161647 1.618150 0.063670 -0.038581 327556.000000 0 0 1
-32.973451 6.658201 -1.072785 33.656069 -0.199247 1.602677 0.071234 -0.049937 33277.900000 0 0 1
-31.948231 6.987201 0.075715 32.703458 -0.215314 1.568481 0.076654 -0.038203 -807191.000000 0 0 1
-30.649331 7.036501 -0.404285 31.449281 -0.225670 1.583652 0.086821 -0.035254 -448483.000000 0 0 1
-29.631371 7.390201 0.503515 30.543195 -0.244418 1.554310 0.081768 -0.031298 188456.000000 0 0 1
-29.563831 8.870401 0.918715 30.879575 -0.291496 1.541040 0.087131 -0.033019 -549206.000000 0 0 1
-30.721731 9.237301 1.648215 32.122719 -0.292077 1.519464 0.092188 -0.035962 202431.000000 0 0 1
-30.790241 10.635101 1.904815 32.630854 -0.332575 1.512388 0.091451 -0.029058 -446160.000000 0 0 1
-32.221331 11.150501 1.785215 34.142859 -0.333160 1.518486 0.093998 -0.018289 -730670.000000 0 0 1
-32.756551 11.174401 0.488715 34.613548 -0.328755 1.556677 0.074954 -0.004443 479879.000000 0 0 1
-33.918191 11.976601 0.391115 35.972706 -0.339436 1.559924 0.066001 0.010339 859900.000000 0 0 1
-35.356225 11.373801 0.512015 37.144154 -0.311237 1.557011 0.069169 -0.016462 536553.000000 0 0 1
35.589319 10.491401 -0.580285 37.108030 0.286671 1.586435 0.065079 -0.011329 697869.000000 0 0 1
34.385214 9.720101 -0.367285 35.734552 0.275495 1.581075 0.068254 -0.013310 867229.000000 0 0 1
34.197504 8.822201 -1.596685 35.353217 0.252473 1.615975 0.057824 -0.029462 -212538.000000 0 0 1
33.691224 9.450201 -2.709385 35.096234 0.273467 1.648072 0.048434 -0.023621 100534.000000 0 0 1
33.654684 8.592801 -3.824285 34.944229 0.249982 1.680456 0.033596 -0.025702 -876.123000 0 0 1
32.935774 9.298201 -5.041985 34.592534 0.275152 1.717071 0.027039 -0.024820 860656.000000 0 0 1
31.532484 9.530701 -4.851385 33.296663 0.293520 1.717019 0.041693 -0.026175 776803.000000 0 0 1
31.009664 9.966601 -6.085785 33.135618 0.310975 1.755508 0.037834 -0.015802 -419245.000000 0 0 1
29.545124 10.434501 -5.962885 31.895912 0.339498 1.758851 0.050405 -0.016107 -550958.000000 0 0 1
28.666464 9.369401 -6.080785 30.765692 0.315897 1.769755 0.048383 -0.013351 -1062010.000000 0 0 1
27.366454 9.823401 -6.179685 29.725587 0.344633 1.780215 0.051930 -0.011433 -1309050.000000 0 0 1
26.421074 8.603701 -6.330885 28.498718 0.314809 1.794812 0.066475 -0.010120 -515573.000000 0 0 1
26.542794 7.772201 -7.500085 28.656209 0.284855 1.835607 0.062408 -0.006962 185708.000000 0 0 1
25.539424 6.797501 -7.504285 27.473305 0.260127 1.847461 0.074167 -0.015332 -203521.000000 0 0 1
25.855024 5.796201 -8.599985 27.857458 0.220535 1.884637 0.076881 -0.022957 113511.000000 0 0 1
26.878714 4.893501 -8.198385 28.524115 0.180086 1.862328 0.064423 -0.022527 658777.000000 0 0 1
27.150294 4.002901 -9.280585 28.970519 0.146380 1.896891 0.064840 -0.015869 758870.000000 0 0 1
28.261904 2.892801 -8.955485 29.787653 0.102002 1.876164 0.040033 -0.010078 118752.000000 0 0 1
29.610154 3.278601 -8.911185 31.095332 0.110276 1.861448 0.036790 -0.008581 517822.000000 0 0 1
30.442904 2.533801 -8.010885 31.581084 0.083040 1.827259 0.040358 -0.006866 235135.000000 0 0 1
30.502094 0.983001 -8.120985 31.579969 0.032216 1.830875 0.039435 -0.011493 67002.500000 0 0 1
29.295574 0.452501 -7.472285 30.236906 0.015445 1.820508 0.056691 -0.015334 1525230.000000 0 0 1
29.120274 -0.923599 -7.292185 30.033637 -0.031706 1.816048 0.059676 -0.018366 -537943.000000 0 0 1
29.065444 -1.901599 -8.495185 30.341132 -0.065332 1.854579 0.062653 -0.012410 -269605.000000 0 0 1
30.233884 -2.005699 -9.299785 31.695372 -0.066242 1.868590 0.054470 -0.008618 390885.000000 0 0 1
30.187894 -3.145799 -10.134785 31.998733 -0.103833 1.893071 0.047923 -0.017712 135650.000000 0 0 1
31.320934 -3.263599 -11.202685 33.423826 -0.103824 1.912583 0.044805 -0.021674 249835.000000 0 0 1
32.560354 -3.843199 -10.831385 34.529202 -0.117489 1.889871 0.047782 -0.001106 330530.000000 0 0 1
33.425784 -3.959899 -11.952185 35.718603 -0.117919 1.911999 0.037872 -0.024393 -241555.000000 0 0 1
34.868204 -4.147599 -11.459985 36.936777 -0.118394 1.886262 0.035269 -0.012513 -623508.000000 0 0 1
35.050204 -5.384199 -10.788385 37.066099 -0.152422 1.866129 0.033939 -0.016588 -214979.000000 0 0 1
-34.964217 -5.420299 -10.050685 36.781685 0.153800 1.847569 0.041015 -0.016434 -520364.000000 0 0 1
-34.815308 -6.751499 -9.306885 36.664786 0.191546 1.827442 0.037390 -0.021352 -183717.000000 0 0 1
-35.455502 -6.823399 -8.053885 36.993465 0.190125 1.790265 0.042660 -0.017338 303397.000000 0 0 1
35.119214 -8.061599 -7.778185 36.862566 -0.225641 1.783399 0.035263 -0.011810 -708613.000000 0 0 1
34.469674 -7.993599 -6.413285 35.960900 -0.227874 1.750096 0.043974 -0.019550 -401418.000000 0 0 1
35.342071 -7.914499 -5.256785 36.596927 -0.220305 1.714935 0.045165 -0.020686 525322.000000 0 0 1
35.313783 -9.006099 -4.326385 36.700010 -0.249708 1.688956 0.054245 -0.018673 -224940.000000 0 0 1
-35.416613 -10.389099 -4.802785 37.220110 0.285335 1.700195 0.061585 -0.015988 -770848.000000 0 0 1
34.875164 -10.874899 -5.730285 36.978057 -0.302269 1.726388 0.033102 -0.015918 -287255.000000 0 0 1
35.383411 -11.966999 -6.467185 37.908038 -0.326132 1.742237 0.040364 -0.012200 -193789.000000 0 0 1
34.453964 -12.368599 -7.618385 37.391145 -0.344660 1.775981 0.032543 -0.012173 -132807.000000 0 0 1
34.233824 -11.277899 -8.459285 37.023037 -0.318240 1.801320 0.070071 -0.016646 299486.000000 0 0 1
33.763464 -11.659099 -9.767885 37.031307 -0.332497 1.837729 0.049682 -0.012854 102036.000000 0 0 1
34.226304 -10.740899 -10.960485 37.509186 -0.304087 1.867331 0.023481 -0.008098 79181.300000 0 0 1
33.446424 -9.563999 -11.044385 36.498107 -0.278517 1.878217 0.021812 -0.009143 498666.000000 0 0 1
34.090034 -8.683299 -11.935585 37.148194 -0.249413 1.897895 0.031604 -0.010238 -544048.000000 0 0 1
33.136294 -7.847099 -12.711585 36.347976 -0.232529 1.928068 0.029306 -0.010929 -595205.000000 0 0 1
33.694284 -7.558499 -13.990185 37.258033 -0.220673 1.955727 0.029899 -0.000874 278056.000000 0 0 1
32.778654 -6.956699 -14.855685 36.654157 -0.209130 1.988096 0.027981 -0.005552 -465340.000000 0 0 1
33.426064 -6.448199 -16.125285 37.668367 -0.190568 2.013170 0.027713 -0.007905 -62660.000000 0 0 1
34.393074 -5.416699 -15.964885 38.302764 -0.156211 2.000727 0.030240 -0.018064 1075950.000000 0 0 1
33.759304 -4.138399 -15.749585 37.481548 -0.121977 2.004457 0.031119 -0.012488 1052120.000000 0 0 1
34.937974 -3.085599 -15.673085 38.416514 -0.088088 1.991034 0.024220 -0.015634 903699.000000 0 0 1
35.572711 -2.883799 -16.970585 39.518791 -0.080891 2.014659 0.027324 -0.017012 447006.000000 0 0 1
-34.283995 -2.426099 -16.896485 38.298427 0.070647 2.027709 0.043103 -0.010421 134088.000000 0 0 1
-34.088167 -0.968399 -16.608185 37.931158 0.028401 2.024003 0.027414 -0.004486 -648120.000000 0 0 1
-34.569281 -0.079099 -17.596285 38.790085 0.002288 2.041629 0.020371 -0.004632 228747.000000 0 0 1
-34.236277 1.269001 -17.246785 38.356025 -0.037049 2.037170 0.028803 -0.012661 -231477.000000 0 0 1
-34.701179 2.428501 -18.160885 39.241396 -0.069869 2.051947 0.006906 -0.013316 -404742.000000 0 0 1
-33.929921 2.459101 -19.345985 39.135072 -0.072349 2.087870 0.020293 -0.008461 356521.000000 0 0 1
-34.083844 3.691001 -20.133485 39.757881 -0.107871 2.101804 0.018126 -0.008987 33101.200000 0 0 1
-33.061721 3.886601 -21.304785 39.523119 -0.117019 2.140101 0.019287 0.001274 -454437.000000 0 0 1
-31.719561 3.962401 -20.942885 38.215646 -0.124276 2.150790 0.020453 0.001266 -269051.000000 0 0 1
-31.027041 4.544601 -22.046185 38.332296 -0.145438 2.183564 0.019881 0.000869 -137963.000000 0 0 1
-29.541981 4.883901 -21.823885 37.052167 -0.163839 2.200622 0.030438 -0.004954 609285.000000 0 0 1
-28.609881 3.791301 -21.730085 36.126110 -0.131750 2.216182 0.038545 0.003721 166009.000000 0 0 1
-27.269171 4.134601 -21.890985 35.212467 -0.150476 2.241686 0.039106 -0.006973 -93386.200000 0 0 1
-26.291401 3.144501 -21.181385 33.908358 -0.119036 2.245500 0.054940 -0.003158 146078.000000 0 0 1
-26.216191 3.354001 -19.780685 33.012323 -0.127245 2.213286 0.048921 0.003049 134854.000000 0 0 1
-25.458001 2.394601 -19.032785 31.876180 -0.093785 2.210659 0.053289 0.005098 -259753.000000 0 0 1
-24.746501 3.138101 -17.905085 30.705522 -0.126137 2.193364 0.057898 -0.002741 -717826.000000 0 0 1
-23.629401 3.913301 -18.209585 30.087398 -0.164122 2.220842 0.052626 -0.003057 -572200.000000 0 0 1
-23.042901 4.189001 -16.988885 28.933462 -0.179828 2.198356 0.057457 -0.011867 -577128.000000 0 0 1
-21.724601 4.936101 -17.036285 28.045648 -0.223419 2.223641 0.052370 -0.014818 -905418.000000 0 0 1
-20.649601 4.378601 -17.702785 27.549351 -0.208948 2.268663 0.061113 -0.010589 -316250.000000 0 0 1
-19.505801 5.208501 -17.539185 26.743743 -0.260935 2.286070 0.046820 -0.013888 -17749.100000 0 0 1
-18.240901 4.451801 -17.996285 26.007985 -0.239377 2.334986 0.044035 -0.009253 -298366.000000 0 0 1
-17.936201 3.375201 -17.112285 25.018585 -0.186003 2.324005 0.050262 -0.011741 506687.000000 0 0 1
-16.863901 2.568901 -17.614485 24.520614 -0.151169 2.372230 0.037716 -0.014682 -100380.000000 0 1 0
-16.967901 1.028701 -17.129585 24.132770 -0.060552 2.360019 0.030770 -0.003317 -10503.300000 0 1 0
-17.925801 0.141901 -17.673385 25.173459 -0.007916 2.349088 0.027748 0.000995 1410620.000000 0 0 1
-19.295601 0.461701 -17.292785 25.914741 -0.023923 2.301368 0.031772 0.001077 866763.000000 0 0 1
-20.311701 -0.582099 -17.784785 27.003752 0.028650 2.289759 0.031734 0.001746 -343647.000000 0 0 1
-20.264301 -1.815999 -17.078685 26.563532 0.089377 2.269123 0.021696 0.001069 352154.000000 0 0 1
-21.225201 -2.741899 -17.551085 27.677929 0.128470 2.257664 0.034693 0.009062 -55189.400000 0 0 1
-21.514301 -3.917199 -16.626085 27.470644 0.180101 2.220852 0.044817 -0.000954 -14797.800000 0 0 1
-22.154501 -3.483399 -15.433385 27.223985 0.155955 2.173539 0.044430 -0.006990 315825.000000 0 0 1
-22.538401 -4.594699 -14.656285 27.274484 0.201105 2.138103 0.058108 -0.026392 -76543.100000 0 0 1
-22.878301 -4.222499 -13.193185 26.745211 0.182510 2.086666 0.044901 -0.024280 272816.000000 0 0 1
-24.002801 -3.354299 -13.058085 27.529972 0.138847 2.064991 0.045289 -0.021424 709135.000000 0 0 1
-24.137001 -2.850199 -11.784685 27.011058 0.117540 2.022269 0.045365 -0.026757 -238515.000000 0 0 1
-24.790001 -1.436199 -11.755685 27.473677 0.057870 2.012952 0.048922 -0.022927 -151602.000000 0 0 1
-25.079621 -1.019799 -10.435485 27.183207 0.040640 1.964807 0.048539 -0.021031 557223.000000 0 0 1
-25.575021 0.344001 -10.388285 27.606458 -0.013450 1.956595 0.050045 -0.018236 -212486.000000 0 0 1
-26.106441 0.722801 -8.986885 27.619428 -0.027680 1.902213 0.062900 -0.020877 -90014.800000 0 0 1
-25.035401 0.743701 -8.073985 26.315654 -0.029697 1.882639 0.051108 -0.015118 778829.000000 0 0 1
-25.584711 0.909901 -6.802785 26.489304 -0.035549 1.830519 0.059175 -0.020749 237780.000000 0 0 1
-24.432401 1.175801 -5.799485 25.138790 -0.048088 1.803592 0.039057 -0.010638 171242.000000 0 0 1
-23.928101 2.494901 -5.861285 24.761527 -0.103891 1.809774 0.051347 -0.015877 -382157.000000 0 1 0
-22.721301 2.632101 -5.202785 23.457503 -0.115329 1.794453 0.040168 -0.006365 -661427.000000 0 1 0
-22.025101 4.024401 -5.318385 23.012738 -0.180725 1.804011 0.036908 -0.007579 -173996.000000 0 1 0
-22.735701 5.085601 -4.701385 23.767172 -0.220061 1.769920 0.048078 -0.007309 464285.000000 0 1 0
-22.249501 6.309001 -5.086885 23.679531 -0.276304 1.787306 0.046161 -0.009874 -466710.000000 0 1 0
-22.878101 7.493101 -4.289285 24.453058 -0.316512 1.747117 0.054414 -0.004589 -255432.000000 0 1 0
-22.474201 7.520801 -2.924385 23.878948 -0.322927 1.693572 0.064298 0.002741 835524.000000 0 1 0
-21.088001 7.675701 -2.647485 22.597109 -0.349078 1.688226 0.058348 -0.001426 186966.000000 0 1 0
-20.517701 9.113501 -2.763485 22.620097 -0.418001 1.693272 0.046083 -0.005021 -528503.000000 0 1 0
-20.473901 9.590501 -4.070085 22.972242 -0.438071 1.748911 0.045804 -0.003708 588151.000000 0 1 0
-19.775901 10.839401 -4.057285 22.913761 -0.501392 1.748803 0.049624 -0.004060 -370634.000000 0 1 0
-19.610001 11.543401 -5.388985 23.384683 -0.532031 1.803336 0.044904 -0.008628 -500710.000000 0 1 0
-18.455001 11.090701 -6.036585 22.361374 -0.541124 1.844144 0.025310 -0.002576 -545839.000000 0 1 0
-18.300201 11.746701 -7.293085 22.936247 -0.570652 1.894386 0.024095 -0.002177 -7157.810000 0 1 0
-17.053801 11.475501 -8.157685 22.114861 -0.592306 1.948598 0.023100 0.000871 -494300.000000 0 1 0
-16.893601 10.151901 -8.656085 21.526325 -0.541104 1.984623 0.025894 0.005404 752603.000000 0 1 0
-17.935701 9.767701 -9.570985 22.554403 -0.498684 2.009041 0.037305 0.002887 204042.000000 0 1 0
-17.881101 10.388101 -10.984085 23.415733 -0.526298 2.059056 0.028849 0.002936 -130083.000000 0 1 0
-16.799901 9.913701 -11.739885 22.767148 -0.533112 2.112563 0.024052 -0.002450 -44805.500000 0 1 0
-16.974101 10.414801 -13.030485 23.798776 -0.550338 2.150203 0.022312 -0.004568 325015.000000 0 1 0
-15.757501 10.091501 -13.944585 23.336424 -0.569615 2.211233 0.013849 -0.002498 -28447.500000 0 1 0
-15.700001 8.761101 -14.443185 23.061928 -0.508989 2.247566 0.008446 -0.017434 193997.000000 0 1 0
-15.587601 7.651301 -13.514485 22.003568 -0.456307 2.232162 0.010357 -0.015691 -357879.000000 0 1 0
-15.561301 6.274001 -14.225085 21.997050 -0.383244 2.274022 0.018095 -0.021567 -228351.000000 0 1 0
-14.462301 6.173401 -15.119285 21.814257 -0.403446 2.336566 0.020732 -0.022578 693706.000000 0 1 0
-14.667501 5.070401 -15.993585 22.285406 -0.332830 2.371248 0.023135 -0.019244 -399863.000000 0 1 0
31.757054 -15.892399 28.242392 45.373027 -0.463997 0.898929 0.018543 0.001417 -296541.000000 0 0 1
30.949214 -14.744699 28.391812 44.512414 -0.444603 0.879106 0.025559 -0.000916 -277902.000000 0 0 1
30.015644 -14.931799 29.429012 44.609016 -0.461619 0.850364 0.018256 -0.004660 110705.000000 0 0 1
30.543344 -14.670499 30.898542 45.856726 -0.447778 0.831449 0.008111 -0.012631 59365.900000 0 0 1
30.964694 -13.393099 31.271652 46.001126 -0.408230 0.823304 0.002518 -0.014364 -11299.600000 0 0 1
30.855374 -13.257499 32.652002 46.839819 -0.405816 0.799453 -0.013958 -0.008914 -270071.000000 0 0 1
31.278564 -11.886499 33.244773 47.168341 -0.363165 0.788639 0.002432 -0.013411 -88506.800000 0 0 1
31.051594 -11.764499 -34.180266 47.653914 -0.362159 2.370659 -0.008755 -0.020892 97291.700000 0 0 1
31.500564 -10.537199 -33.631175 47.269166 -0.322808 2.362402 0.007380 -0.017549 -486490.000000 0 0 1
31.027644 -10.278199 -32.156145 45.851650 -0.319883 2.348028 0.013713 -0.015734 278934.000000 0 0 1
29.624314 -10.324299 -31.966545 44.788963 -0.335345 2.365584 0.034902 -0.020414 216237.000000 0 0 1
29.172584 -9.748299 -30.788455 43.520087 -0.322494 2.356686 0.025637 -0.018136 -996096.000000 0 0 1
27.814314 -10.195299 -30.329635 42.396544 -0.351341 2.367964 0.032866 -0.001216 -932267.000000 0 0 1
27.543224 -9.925299 -28.968365 41.186247 -0.345869 2.350896 0.025140 -0.002795 496055.000000 0 0 1
26.542274 -10.861899 -28.526095 40.450109 -0.388438 2.353525 0.035735 0.001275 -111423.000000 0 0 1
25.978024 -10.604799 -27.121155 39.024051 -0.387574 2.339196 0.025607 0.006395 -242759.000000 0 0 1
25.066524 -9.508399 -26.922195 37.994011 -0.362558 2.358295 0.011687 0.005200 1459080.000000 0 0 1
23.766224 -9.477599 -27.540565 37.591768 -0.379458 2.392963 0.014814 0.006126 1525560.000000 0 0 1
22.822624 -10.748799 -27.365785 37.219552 -0.440156 2.396836 0.013884 0.019088 -516205.000000 0 0 1
23.225224 -11.672599 -28.336045 38.452465 -0.465712 2.399286 0.015301 0.007408 159653.000000 0 0 1
22.681424 -12.970699 -28.080395 38.356155 -0.519475 2.392190 0.008979 0.001986 68631.000000 0 0 1
23.528424 -14.141999 -28.680525 39.700824 -0.541199 2.378087 0.021782 0.002783 176597.000000 0 0 1
23.718924 -14.078799 -30.091775 40.820520 -0.535677 2.399673 0.022645 -0.003423 -154985.000000 0 0 1
24.585424 -15.103199 -30.433255 41.937248 -0.550879 2.382827 0.024658 0.000572 -494800.000000 0 0 1
24.694524 -15.273099 -31.977175 43.192902 -0.553898 2.404363 0.034725 -0.003017 831262.000000 0 0 1
23.479524 -15.850699 -32.527435 43.134288 -0.593809 2.425074 0.045843 -0.003867 1046160.000000 0 0 1
23.589824 -16.217799 -33.867795 44.345511 -0.602281 2.439861 0.056309 -0.011531 101740.000000 0 0 1
23.878424 -15.198199 33.820964 44.102404 -0.566814 0.696841 0.033804 -0.002540 -1092360.000000 0 0 1
22.817924 -14.361599 33.758321 43.203442 -0.561757 0.673922 0.046325 -0.003285 -936785.000000 0 0 1
23.041724 -13.218999 32.896362 42.282782 -0.520856 0.679307 0.045335 -0.007869 -565083.000000 0 0 1
22.050024 -12.053599 33.152159 41.599982 -0.500266 0.648605 0.055118 -0.010779 739326.000000 0 0 1
20.681524 -12.345099 32.852132 40.735605 -0.538148 0.632635 0.058126 -0.008846 801349.000000 0 0 1
20.447224 -12.359799 31.414422 39.467956 -0.543702 0.650225 0.061286 -0.007829 -169096.000000 0 0 1
18.914124 -12.456299 31.126652 38.493791 -0.582377 0.629002 0.075442 -0.012493 1110520.000000 0 0 1
18.038424 -11.350799 31.400812 37.950447 -0.561654 0.596305 0.068946 -0.015711 283393.000000 0 0 1
16.921724 -11.689899 32.179732 38.190753 -0.604540 0.568693 0.057855 -0.006461 309623.000000 0 0 1
16.043224 -10.433999 32.571012 37.777298 -0.576634 0.531230 0.053640 -0.005810 121675.000000 0 0 1
15.136224 -10.033099 31.531462 36.386831 -0.585358 0.522524 0.061653 -0.009588 578140.000000 0 0 1
14.339624 -8.880799 31.842132 36.033523 -0.554504 0.487128 0.064624 -0.010613 747979.000000 0 0 1
13.179024 -9.072299 32.862565 36.550533 -0.602891 0.453088 0.065639 -0.007930 -626740.000000 0 0 1
12.196324 -10.021599 32.456592 36.091732 -0.687827 0.452675 0.065136 -0.008937 570476.000000 0 0 1
10.986224 -10.031499 33.195957 36.377186 -0.740005 0.421323 0.064594 -0.006470 777258.000000 0 0 1
9.918724 -9.001299 32.690642 35.328212 -0.736946 0.388862 0.043688 -0.005657 -136220.000000 0 0 1
10.413724 -7.657999 32.908845 35.356508 -0.634076 0.374278 0.056645 -0.009040 418726.000000 0 0 1
9.571324 -6.748599 32.234722 34.296226 -0.614131 0.348485 0.044432 -0.003685 -50558.900000 0 0 1
10.023524 -5.295799 32.311942 34.242928 -0.486059 0.337428 0.041919 0.000312 -131768.000000 0 0 1
9.848224 -4.655699 33.613845 35.334879 -0.441607 0.313391 0.028537 -0.004850 148849.000000 0 0 1
10.328724 -3.371299 33.597543 35.310666 -0.315498 0.312772 0.018292 -0.001689 -599661.000000 0 0 1
10.109824 -2.654099 -33.842495 35.419871 -0.256733 2.842032 0.015564 -0.003216 -554560.000000 0 0 1
8.783024 -2.226199 -33.813895 35.006813 -0.248238 2.879783 0.021130 0.006394 -687675.000000 0 0 1
8.461824 -1.778799 -32.551565 33.680424 -0.207198 2.881956 0.022054 0.002207 -299531.000000 0 0 1
6.971824 -1.490199 -32.326575 33.103391 -0.210577 2.924527 0.027452 0.000905 -340833.000000 0 0 1
6.605924 -0.311499 -33.041365 33.696692 -0.047120 2.944052 0.038329 0.003480 208761.000000 0 0 1
5.250524 0.002801 -32.767445 33.185441 0.000533 2.982707 0.040927 0.001346 277839.000000 0 0 1
4.594324 1.008401 -33.724405 34.050847 0.216062 3.003012 0.043983 -0.000932 -91555.600000 0 0 1
5.161124 2.276801 -33.605445 34.075607 0.415465 2.975283 0.046763 -0.003126 49132.400000 0 0 1
4.595224 3.072601 34.175911 34.620079 0.589375 0.160358 0.050494 -0.002479 255607.000000 0 0 1
5.520924 4.297001 33.992315 34.704788 0.661376 0.202979 0.050562 -0.002049 206855.000000 0 0 1
5.211424 5.078301 32.842121 33.638564 0.772461 0.218039 0.060288 -0.020485 -650614.000000 0 0 1
5.997924 6.180001 32.803276 33.914929 0.800348 0.256742 0.060163 -0.018421 -975895.000000 0 0 1
5.515424 7.243401 31.844212 33.120094 0.920013 0.278470 0.066217 -0.019212 34151.900000 0 0 1
4.172024 7.549101 32.198752 33.333982 1.065919 0.261730 0.056199 -0.018649 106756.000000 0 0 1
3.792424 8.909901 31.916742 33.353369 1.168382 0.294570 0.053706 -0.020595 82809.500000 0 0 1
3.441724 9.331501 30.472012 32.054109 1.217447 0.315495 0.056515 -0.022230 1431060.000000 0 0 1
2.266924 8.591301 29.939352 31.230021 1.312814 0.288498 0.058523 -0.026159 1136890.000000 0 0 1
2.110924 8.983101 28.595572 30.047610 1.339995 0.312150 0.047204 -0.025083 -227065.000000 0 0 1
0.900624 8.268701 28.006632 29.215646 1.462304 0.288690 0.045381 -0.020730 947017.000000 0 0 1
-0.353876 8.921801 28.349262 29.722120 -1.531153 0.305122 0.044557 -0.020033 397056.000000 0 0 1
-1.417976 8.485701 27.554942 28.866808 -1.405224 0.302635 0.051704 -0.016779 -137907.000000 0 0 1
-2.787676 8.599201 28.220212 29.632714 -1.257308 0.310002 0.039525 -0.009848 -286067.000000 0 0 1
-3.198376 9.905401 28.548172 30.386587 -1.258472 0.349631 0.044259 -0.017026 286727.000000 0 0 1
-4.453076 9.952701 29.233192 31.200411 -1.150087 0.357001 0.031201 -0.003324 212703.000000 0 0 1
-4.764576 11.327001 29.936132 32.360070 -1.172625 0.389511 0.022619 -0.005192 -27586.100000 0 0 1
-4.976776 12.505801 29.202022 32.154649 -1.192052 0.431895 0.035628 -0.012553 473532.000000 0 0 1
-6.156676 12.480401 28.400762 31.627019 -1.112517 0.455615 0.035602 -0.016751 71150.200000 0 0 1
-6.406976 13.945301 27.924852 31.864057 -1.140123 0.502514 0.041709 -0.013767 359583.000000 0 0 1
-5.460676 14.323901 26.904162 30.964932 -1.206576 0.517903 0.042978 -0.005793 460755.000000 0 0 1
-5.482776 15.721801 26.552102 31.340867 -1.235247 0.560097 0.031613 -0.002395 -292917.000000 0 0 1
-4.251676 16.209101 25.783042 30.750235 -1.314273 0.576333 0.048921 -0.007886 -347738.000000 0 0 1
-4.069676 15.872001 24.439922 29.424351 -1.319798 0.590609 0.048352 0.000422 -277396.000000 0 0 1
-3.018276 16.662201 23.952572 29.333677 -1.391594 0.615378 0.061604 0.004627 -203860.000000 0 0 1
-2.832076 16.586901 22.418062 28.030616 -1.401685 0.643883 0.060563 0.003466 63765.800000 0 0 1
-2.300176 15.309201 22.011562 26.910431 -1.421664 0.612947 0.059987 -0.004853 126648.000000 0 0 1
-2.241776 15.211101 20.568862 25.680367 -1.424472 0.641905 0.056473 -0.003356 14158.400000 0 0 1
-1.371076 14.033301 20.095462 24.548747 -1.473404 0.611837 0.049993 -0.010703 94860.600000 0 1 0
-1.965076 12.712701 20.204462 23.951922 -1.417434 0.566951 0.055760 -0.006114 244509.000000 0 1 0
-1.145576 11.701001 19.625362 22.877513 -1.473203 0.539735 0.052593 -0.008152 -213388.000000 0 1 0
-1.908576 10.368901 19.441462 22.116220 -1.388767 0.496912 0.040539 -0.006040 -378856.000000 0 1 0
-2.253176 9.535501 20.576162 22.789932 -1.338759 0.444416 0.060821 -0.012063 338561.000000 0 1 0
-3.165676 10.106001 21.545062 24.007133 -1.267231 0.456855 0.067954 -0.007457 924311.000000 0 1 0
-4.660176 10.078401 21.053062 23.801740 -1.137685 0.485337 0.052843 -0.000497 206935.000000 0 1 0
-5.238976 8.823801 21.055262 23.422860 -1.034998 0.453500 0.027048 0.000058 -265719.000000 0 1 0
-6.635776 8.765201 20.911462 23.625230 -0.922793 0.484017 0.021409 0.005278 274061.000000 0 1 0
-7.236576 7.298501 21.109962 23.479068 -0.789659 0.453094 0.016718 0.011477 -18471.900000 0 1 0
-7.235476 6.744201 22.435562 24.519192 -0.750271 0.415238 0.011719 0.013767 206972.000000 0 1 0
-7.925076 5.512301 22.429862 24.419070 -0.607734 0.406428 0.004308 0.016110 135031.000000 0 1 0
-7.704176 4.747201 23.744402 25.410369 -0.552236 0.364120 -0.001263 0.008712 -182135.000000 0 0 1
-8.373576 5.362801 24.820762 26.738486 -0.569628 0.381040 -0.013295 0.015440 61659.900000 0 0 1
-8.733476 4.488701 25.882642 27.682724 -0.474757 0.362609 -0.017065 0.019885 341698.000000 0 0 1
-9.726176 5.209401 26.893662 29.068977 -0.491725 0.389321 -0.016003 0.021871 -56430.900000 0 0 1
-9.105476 6.269801 27.587372 29.720080 -0.603017 0.381143 -0.019355 0.023620 -503857.000000 0 0 1
-10.084876 6.916201 28.421472 30.940566 -0.601132 0.406317 -0.010603 0.023073 511080.000000 0 0 1
-9.516276 8.098901 29.226542 31.785884 -0.705108 0.404036 -0.007312 0.013544 -26010.000000 0 0 1
-8.506476 7.658301 30.095022 32.198137 -0.732976 0.363433 -0.000131 0.009772 -257826.000000 0 0 1
-7.905076 8.675601 30.812012 32.971751 -0.831836 0.363952 0.007724 0.004350 -596284.000000 0 0 1
-6.922376 8.192201 31.835722 33.593818 -0.869215 0.324952 0.026151 0.002191 -456279.000000 0 0 1
-5.625276 7.889401 31.377312 32.839337 -0.951388 0.299516 0.021261 -0.001003 -568421.000000 0 0 1
-4.855176 7.362601 32.409192 33.587741 -0.987815 0.265691 0.041524 -0.002563 -1359330.000000 0 0 1
-3.383476 7.448501 32.146882 33.171525 -1.144414 0.249197 0.039755 -0.003137 -1195620.000000 0 0 1
-2.986976 8.815401 32.162892 33.482606 -1.244102 0.281697 0.033170 -0.003770 -108712.000000 0 0 1
-1.612876 8.931201 31.822262 33.091148 -1.392133 0.277823 0.033185 -0.013750 383148.000000 0 0 1
-1.186976 10.378201 31.518372 33.204273 -1.456919 0.320029 0.031537 -0.015374 -92850.700000 0 0 1
-1.080676 11.163901 32.645522 34.518555 -1.474296 0.330937 0.031057 -0.018843 -42103.900000 0 0 1
-1.540476 12.482501 32.369092 34.726705 -1.448006 0.370602 0.029713 -0.016031 -285299.000000 0 0 1
-1.354976 13.488101 33.514633 36.152392 -1.470675 0.384362 0.026883 -0.012614 -492355.000000 0 0 1
-0.046776 13.941401 33.670266 36.442443 -1.567441 0.392567 0.028748 -0.014746 -721003.000000 0 0 1
-0.058876 14.795201 -34.005615 37.084812 -1.566817 2.731211 0.030490 -0.015804 -887621.000000 0 0 1
1.273024 15.316101 -33.536435 36.890324 1.487870 2.711878 0.025157 -0.010655 -1336550.000000 0 0 1
1.751224 16.278901 -34.374879 38.074949 1.463632 2.697083 0.022214 -0.007553 -796983.000000 0 0 1
3.035624 16.562701 -33.927215 37.876035 1.389527 2.680897 0.027735 -0.007128 -825292.000000 0 0 1
3.741624 17.573801 33.952366 38.413557 1.361019 0.486736 0.041225 -0.002807 -339330.000000 0 0 1
3.400124 18.915801 34.119363 39.159919 1.392945 0.512986 0.035723 -0.003943 -462247.000000 0 0 1
4.242024 19.714401 33.380605 38.998938 1.358854 0.543438 0.029749 -0.000154 -436312.000000 0 0 1
3.953024 21.186401 33.582748 39.903520 1.386334 0.570560 0.042087 -0.007490 -382722.000000 0 0 1
4.070724 21.660901 -33.878095 40.416466 1.385033 2.564817 0.046525 -0.018188 12839.000000 0 0 1
3.980024 23.099801 -33.892165 41.208255 1.400175 2.536520 0.050768 -0.016856 67333.300000 0 0 1
3.875524 23.699901 -32.486635 40.399090 1.408706 2.505028 0.069627 -0.022080 84239.700000 0 0 1
3.498624 25.090101 -32.460925 41.176027 1.432247 2.478911 0.075183 -0.027854 288102.000000 0 0 1
3.273124 25.478801 -31.114775 40.348629 1.443031 2.451439 0.076086 -0.026956 232128.000000 0 0 1
2.733124 26.962501 -30.873215 41.080431 1.469774 2.421176 0.080463 -0.024842 1099510.000000 0 0 1
3.824724 27.913001 -30.974155 41.870782 1.434621 2.403504 0.067624 -0.028137 700945.000000 0 0 1
3.484624 29.108301 -30.384075 42.221177 1.451651 2.374081 0.067982 -0.032342 -661330.000000 0 0 1
4.524224 30.240601 -30.398875 43.116750 1.422290 2.353271 0.072378 -0.036821 -60078.100000 0 0 1
5.505724 29.902501 -29.426255 42.312847 1.388713 2.339835 0.039073 -0.036549 -459123.000000 0 0 1
6.176124 31.033901 -29.009435 42.927786 1.374351 2.312809 0.038809 -0.037869 -268694.000000 0 0 1
7.379124 30.680401 -28.030395 42.207126 1.334764 2.297106 0.035358 -0.030435 1144550.000000 0 0 1
8.560424 30.160401 -28.670445 42.484410 1.294240 2.311553 0.031234 -0.024236 1222570.000000 0 0 1
9.546724 31.210501 -28.987805 43.652356 1.273952 2.297033 0.036225 -0.022627 184446.000000 0 0 1
9.282924 32.384701 -29.952195 45.078548 1.291636 2.297547 0.043667 -0.030680 -768045.000000 0 0 1
8.502824 33.430301 -29.288405 45.251450 1.321733 2.274750 0.051694 -0.037720 564498.000000 0 0 1
8.278524 -34.299869 -30.106775 46.383541 -1.333968 2.277175 0.039176 -0.031245 -238758.000000 0 0 1
7.064724 -34.397769 -31.067905 46.886369 -1.368230 2.295110 0.026355 -0.024604 -381025.000000 0 0 1
7.155824 33.561101 -32.158665 47.029066 1.360724 2.323760 0.019275 -0.016875 214092.000000 0 0 1
6.028924 33.681101 -33.021815 47.552127 1.393672 2.338429 0.026264 -0.020729 1669.550000 0 0 1
6.056624 32.922901 -34.351509 47.964844 1.388867 2.369111 0.032560 -0.014110 357684.000000 0 0 1
6.990824 33.450501 33.470521 47.833915 1.364772 0.795786 0.023291 -0.005867 545240.000000 0 0 1
6.846324 32.740701 32.198862 46.428357 1.364659 0.804437 0.012123 -0.004196 542493.000000 0 0 1
5.589324 33.129301 31.310702 45.925496 1.403658 0.820615 0.021141 -0.011690 859244.000000 0 0 1
5.844924 34.350701 30.683942 46.428850 1.402256 0.848804 0.022227 -0.010560 -85540.700000 0 0 1
4.743424 -33.965369 30.025482 45.581531 -1.432039 0.851680 0.023725 -0.017329 -175706.000000 0 0 1
17.619099 -22.296699 29.575762 41.015865 -0.902053 0.765435 0.052048 -0.017090 -813040.000000 0 0 1
16.838899 -21.125199 29.484742 39.989656 -0.897826 0.741718 0.046609 -0.013714 -137350.000000 0 0 1
15.483899 -21.415399 29.742912 39.787074 -0.944783 0.726427 0.042724 -0.011856 96701.500000 0 0 1
15.056599 -21.574599 31.249552 40.849712 -0.961491 0.699773 0.034651 -0.017025 -584846.000000 0 0 1
15.455299 -22.861599 31.774142 42.084618 -0.976334 0.715133 0.060336 -0.021188 94976.800000 0 0 1
14.912499 -23.075099 33.054102 42.981583 -0.997055 0.693475 0.055872 -0.012533 32084.800000 0 0 1
15.648699 -24.134899 33.894655 44.454727 -0.995557 0.703700 0.072173 -0.023270 -127200.000000 0 0 1
15.389999 -25.496389 33.431990 44.772937 -1.027723 0.727708 0.070557 -0.029952 -638171.000000 0 0 1
16.246899 -26.348899 34.094995 46.051003 -1.018256 0.737169 0.067012 -0.027487 -337919.000000 0 0 1
15.977299 -27.863739 33.985430 46.761859 -1.050159 0.757179 0.055979 -0.018871 33281.500000 0 0 1
16.292099 -28.449789 32.706552 46.309195 -1.050721 0.786588 0.049013 -0.019449 -69479.900000 0 0 1
15.929799 -29.830029 32.586222 46.962230 -1.080305 0.803931 0.059553 -0.019014 -222538.000000 0 0 1
16.608399 -30.618579 31.443722 46.925941 -1.073785 0.836492 0.066744 -0.017194 215860.000000 0 0 1
17.942899 -30.985229 31.743652 47.850721 -1.045902 0.845457 0.068954 -0.022758 -1899.540000 0 0 1
18.458699 -31.807779 30.798202 47.968611 -1.044973 0.873628 0.060066 -0.010949 81547.400000 0 0 1
19.764799 -32.647949 30.965642 49.146789 -1.026422 0.889160 0.040002 -0.008016 476722.000000 0 0 1
20.952199 -31.880129 30.953892 49.127189 -0.989364 0.889144 0.030101 -0.009385 587555.000000 0 0 1
22.087799 -32.708329 31.229682 50.328905 -0.976843 0.901401 0.031131 -0.006817 161592.000000 0 0 1
23.367199 -31.951769 31.611002 50.657645 -0.939353 0.896929 0.019502 -0.014925 -329374.000000 0 0 1
23.994799 -31.413739 30.478182 49.914857 -0.918502 0.913974 0.006725 -0.004589 -195628.000000 0 0 1
24.766899 -30.254579 30.712032 49.718887 -0.884806 0.904964 -0.009929 0.008184 345416.000000 0 0 1
25.943399 -30.134479 29.695402 49.628255 -0.859996 0.929348 -0.002826 0.015134 765942.000000 0 0 1
27.015899 -31.091479 29.931422 50.915900 -0.855422 0.942385 -0.011206 0.015938 510763.000000 0 0 1
28.062299 -30.756319 29.028232 50.755119 -0.831168 0.961943 -0.018283 0.001256 528914.000000 0 0 1
29.310399 -31.663279 29.306612 52.158798 -0.823967 0.974148 -0.017294 -0.006579 454903.000000 0 0 1
29.087399 -32.991549 28.898452 52.627366 -0.848206 0.989492 -0.030313 -0.006020 896871.000000 0 0 1
30.278999 -33.723399 29.269562 53.951763 -0.839163 0.997370 -0.019790 -0.003722 312289.000000 0 0 1
29.889199 33.709984 29.754872 53.991477 0.845402 0.987111 -0.027022 -0.005735 -400548.000000 0 0 1
29.301999 33.611790 31.009832 54.313619 0.853794 0.963146 -0.007743 -0.004335 2136800.000000 0 0 1
28.058499 34.357821 31.381832 54.337451 0.885982 0.955089 -0.006892 -0.005357 1974010.000000 0 0 1
26.779299 34.155664 30.522112 53.059773 0.905865 0.957899 -0.016123 -0.007263 -154912.000000 0 0 1
26.194199 32.909731 30.915842 52.201300 0.898535 0.936957 -0.021213 -0.005085 -229257.000000 0 0 1
24.794799 32.917808 30.726612 51.405144 0.925229 0.930124 0.000779 -0.005844 374279.000000 0 0 1
24.213799 31.458431 30.770272 50.226991 0.914801 0.911420 0.034454 -0.011604 41855.600000 0 0 1
24.335999 30.798781 29.501552 49.103435 0.902084 0.926290 0.021988 -0.014800 -236415.000000 0 0 1
23.675099 29.600591 29.527562 48.047708 0.896166 0.908985 0.053863 -0.022608 -642774.000000 0 0 1
23.154799 29.274581 28.098852 46.719282 0.901597 0.925494 0.038508 -0.017607 335684.000000 0 0 1
22.051799 30.045471 27.571412 46.359410 0.937648 0.933864 0.064032 -0.018358 590735.000000 0 0 1
21.577699 29.530081 26.350602 45.077456 0.939761 0.946455 0.043883 -0.010458 543103.000000 0 0 1
20.117199 29.980991 26.017072 44.502242 0.979801 0.946380 0.071803 -0.010582 554274.000000 0 0 1
20.078099 31.354531 25.739772 45.263369 1.001230 0.965912 0.067227 -0.018373 -648940.000000 0 0 1
18.823799 31.785011 25.311382 44.780446 1.036115 0.970081 0.070571 -0.018209 -626572.000000 0 0 1
18.782499 33.248256 24.820202 45.544168 1.056573 0.994443 0.083112 -0.020903 -98664.500000 0 0 1
19.305999 33.568716 23.541662 45.318761 1.048873 1.024568 0.079631 -0.019739 1407010.000000 0 0 1
20.695499 34.004432 23.581862 46.267800 1.024069 1.035981 0.075177 -0.012260 1244880.000000 0 0 1
21.312899 34.383338 22.226962 46.157247 1.015901 1.068375 0.069418 -0.013714 -262967.000000 0 0 1
20.698899 -33.426749 21.607162 44.862695 -1.016356 1.068284 0.062966 -0.007640 59894.400000 0 0 1
21.107199 -33.358459 20.270162 44.375445 -1.006651 1.096415 0.061079 -0.006522 -49997.600000 0 0 1
20.847699 -31.976709 19.629062 42.923613 -0.993041 1.095837 0.051785 -0.006504 40473.400000 0 0 1
21.677399 -30.918939 20.123962 42.788600 -0.959330 1.081153 0.043575 0.004966 327894.000000 0 0 1
21.262399 -29.643829 19.657862 41.440050 -0.948579 1.076550 0.047175 -0.005104 -102791.000000 0 0 1
21.965699 -29.148799 18.349062 40.851346 -0.925013 1.104964 0.035000 -0.004373 -213090.000000 0 0 1
21.693499 -29.923649 17.206162 40.768673 -0.943513 1.135098 0.018986 -0.012901 343234.000000 0 0 1
22.286599 -29.316109 16.045962 40.169636 -0.920788 1.159874 0.008900 -0.008537 -318874.000000 0 0 1
21.853999 -29.859319 14.675362 39.806312 -0.938981 1.193219 -0.003205 -0.014750 -307952.000000 0 0 1
22.226099 -31.228719 14.383362 40.940365 -0.952248 1.211811 0.020544 -0.010791 78332.900000 0 0 1
22.400999 -31.469319 13.014162 40.761394 -0.952171 1.245830 0.012453 -0.010780 -214125.000000 0 0 1
21.165299 -31.676669 12.098962 39.972067 -0.981756 1.263287 0.007384 -0.004885 -293454.000000 0 0 1
20.476999 -32.873369 12.430962 40.675481 -1.013705 1.260214 0.012826 -0.004696 458449.000000 0 0 1
19.273299 -32.991029 11.627662 39.938335 -1.042077 1.275378 0.022012 0.005621 892881.000000 0 0 1
18.165299 -33.574649 12.560662 40.187130 -1.074857 1.252915 0.029387 0.007891 -229000.000000 0 0 1
17.980899 -32.673559 13.640662 39.710727 -1.067708 1.220154 0.033079 0.015288 433088.000000 0 0 1
18.626799 -33.138159 14.874862 40.821033 -1.058714 1.197816 0.027616 0.007234 -621052.000000 0 0 1
18.381699 -32.156619 16.087462 40.382440 -1.051498 1.161049 0.032871 0.002127 160579.000000 0 0 1
17.053299 -31.955899 16.516962 39.809604 -1.080592 1.142965 0.047582 -0.012355 90488.600000 0 0 1
16.163599 -32.976459 16.913662 40.432422 -1.115055 1.139202 0.047652 -0.008356 -319567.000000 0 0 1
16.377899 -33.618739 18.323362 41.643737 -1.117469 1.115195 0.041355 -0.009920 271693.000000 0 0 1
17.350999 34.196854 18.383962 42.525898 1.101258 1.123754 0.027229 -0.001658 351218.000000 0 0 1
17.499199 33.546192 19.635162 42.627556 1.089983 1.092101 0.027151 -0.006886 303085.000000 0 0 1
18.398399 32.281381 19.540562 41.981212 1.052774 1.086642 0.031006 -0.006294 371174.000000 0 0 1
17.757899 31.163301 18.942562 40.562482 1.052853 1.084905 0.010984 -0.002994 -140549.000000 0 0 1
18.696499 30.124681 18.851462 40.155113 1.015340 1.082110 0.008704 -0.010307 -146681.000000 0 0 1
18.107999 28.871941 18.277062 38.672207 1.010629 1.078541 0.016608 -0.003935 -233647.000000 0 0 1
17.698899 28.012001 19.314162 38.353097 1.007299 1.043049 0.021691 -0.010799 -196260.000000 0 0 1
17.289099 26.744031 18.797762 36.979886 0.996910 1.037559 0.019519 -0.011867 -169625.000000 0 0 1
17.007499 25.750561 19.995862 36.772013 0.987095 0.995862 0.017187 -0.004619 499045.000000 0 0 1
15.972999 26.242471 20.881862 37.146415 1.024026 0.973813 0.016240 -0.001031 80336.500000 0 0 1
15.250699 25.141351 21.290762 36.303827 1.025539 0.944114 0.011311 -0.005390 201841.000000 0 0 1
14.045599 25.498411 22.244162 36.636738 1.067307 0.918322 0.030209 -0.015939 865803.000000 0 0 1
13.081899 26.264371 21.532262 36.394939 1.108682 0.937720 0.040740 -0.017613 -88558.600000 0 0 1
11.907999 26.537821 22.261362 36.628194 1.149009 0.917552 0.047315 -0.020923 628196.000000 0 0 1
10.876999 27.457591 21.462962 36.508727 1.193624 0.942354 0.042310 -0.030973 424355.000000 0 0 1
11.384699 28.765371 21.349462 37.587996 1.193935 0.966739 0.029910 -0.029286 180900.000000 0 0 1
10.566299 29.578871 20.509162 37.512425 1.227700 0.992343 0.036942 -0.029103 217476.000000 0 0 1
10.937099 31.118761 20.525362 38.849555 1.232819 1.014165 0.035476 -0.029967 -129444.000000 0 0 1
10.523599 32.034041 21.525462 40.003393 1.253390 1.002626 0.035120 -0.022968 -566894.000000 0 0 1
11.161199 31.872691 22.765462 40.727227 1.233961 0.977648 0.028721 -0.023200 -187724.000000 0 0 1
10.600399 32.780671 23.856662 41.905622 1.258036 0.965148 0.017743 -0.018961 881523.000000 0 0 1
9.264899 32.382651 24.224182 41.488377 1.292134 0.947298 0.024027 -0.024566 548190.000000 0 0 1
8.817899 33.221819 25.265472 42.658981 1.311354 0.936928 0.020222 -0.017876 -78922.500000 0 0 1
7.484099 32.784831 25.938352 42.469459 1.346363 0.913785 0.043688 -0.029636 -1230780.000000 0 0 1
6.308499 33.327236 25.526712 42.451323 1.383720 0.925648 0.040614 -0.028834 -1023720.000000 0 0 1
5.706199 32.826041 24.374402 41.282213 1.398685 0.939200 0.036945 -0.033929 -297437.000000 0 0 1
4.931299 31.486381 24.610882 40.266679 1.415441 0.913224 0.034885 -0.037721 -614390.000000 0 0 1
5.811999 30.461571 25.005072 39.836419 1.382265 0.892209 0.023859 -0.034169 -523171.000000 0 0 1
5.230899 29.161741 24.945242 38.730279 1.393308 0.870982 0.017500 -0.031985 -690105.000000 0 0 1
6.202899 27.966361 25.091042 38.080883 1.352531 0.851457 0.012827 -0.031361 -65662.200000 0 0 1
7.184499 27.736021 24.050792 37.407813 1.317336 0.872472 0.026830 -0.029448 779575.000000 0 0 1
8.262199 28.646381 24.059122 38.310839 1.289997 0.891819 0.031384 -0.028683 -1177310.000000 0 0 1
9.421299 28.298931 24.965812 38.895786 1.249417 0.873869 0.025701 -0.030626 -1563710.000000 0 0 1
9.208499 28.303051 26.360542 39.758487 1.256245 0.845955 0.016326 -0.020567 -318656.000000 0 0 1
10.378799 28.131001 27.105812 40.420264 1.217344 0.835780 0.021874 -0.002415 200454.000000 0 0 1
11.379099 29.339661 27.219992 41.608023 1.200816 0.857671 0.020534 -0.002057 -56550.000000 0 0 1
10.763399 30.423841 27.846532 42.624995 1.230756 0.858873 0.012145 -0.004872 53865.900000 0 0 1
11.576399 31.568401 27.777582 43.613886 1.219315 0.880329 0.018392 0.000230 -122360.000000 0 0 1
10.942899 32.723021 28.562422 44.792355 1.248077 0.879336 0.007907 -0.002499 -143381.000000 0 0 1
11.109699 32.612491 29.961702 45.658554 1.242468 0.855008 0.000164 -0.008734 -17037.400000 0 0 1
10.191699 31.797801 30.640272 45.318839 1.260626 0.828334 0.004681 -0.009231 -518974.000000 0 0 1
10.372599 31.907951 32.173652 46.484966 1.256493 0.806360 0.007620 -0.013040 -400326.000000 0 0 1
10.008499 30.740721 32.898708 46.124689 1.256042 0.776664 0.005582 -0.013496 52823.300000 0 0 1
10.262499 30.924601 34.281731 47.295739 1.250376 0.759998 0.013765 -0.007774 -17086.800000 0 0 1
10.256199 29.561531 -33.718185 45.999888 1.236846 2.393527 -0.003789 -0.008827 73997.000000 0 0 1
11.370699 28.802321 -34.181981 46.122384 1.194794 2.405526 -0.002401 0.003441 293566.000000 0 0 1
11.290399 27.465021 -33.770165 44.969151 1.180772 2.420315 -0.003479 -0.004098 -48247.700000 0 0 1
12.623199 26.713651 -33.959965 45.013815 1.129359 2.425588 -0.007453 -0.003423 196059.000000 0 0 1
12.512499 25.363581 -33.531305 43.865958 1.112503 2.440912 -0.008253 -0.009325 -350521.000000 0 0 1
12.890299 25.196611 -32.200455 42.870716 1.097921 2.420532 -0.002719 -0.001889 -377366.000000 0 0 1
12.826599 23.654571 -31.953775 41.774443 1.073926 2.441701 -0.013129 -0.008334 -35291.200000 0 0 1
13.763899 22.891871 -32.703885 42.225902 1.029453 2.456718 -0.001561 -0.004672 -423.183000 0 0 1
13.694799 21.511771 -32.420855 41.248220 1.003885 2.475099 -0.006938 0.004329 -1086660.000000 0 0 1
14.839499 20.719271 -32.966265 41.668616 0.949269 2.483489 0.008437 -0.002233 467617.000000 0 0 1
16.050699 21.028871 -32.213155 41.683638 0.918857 2.454039 0.016196 -0.006561 2239190.000000 0 0 1
17.245899 20.306571 -32.682965 42.165793 0.866722 2.457679 0.020514 0.000206 1007810.000000 0 0 1
18.497399 20.529271 -31.852775 42.168756 0.837415 2.427006 0.028840 -0.006604 -616413.000000 0 0 1
19.026899 21.803171 -32.121985 43.234513 0.853289 2.408294 0.043513 -0.008215 10517.500000 0 0 1
19.990899 22.128171 -31.097355 43.085235 0.836098 2.377143 0.048768 -0.004688 473941.000000 0 0 1
19.468699 22.537771 -29.685105 42.049814 0.858330 2.354561 0.030382 -0.019356 36011.500000 0 0 1
18.732499 23.771171 -29.594715 42.329921 0.903394 2.344996 0.028707 -0.008882 158776.000000 0 0 1
18.597499 24.406051 -28.291635 41.736542 0.919657 2.315648 0.033605 -0.001923 -590487.000000 0 0 1
19.901999 24.880191 -27.640225 42.179326 0.896108 2.285380 0.022211 -0.006005 193250.000000 0 0 1
20.707499 25.793381 -28.395795 43.593809 0.894337 2.280188 0.026766 0.000793 -42918.800000 0 0 1
20.132299 27.070561 -28.490435 44.156875 0.931341 2.272094 0.013226 0.005581 -477598.000000 0 0 1
20.880699 28.016911 -29.484775 45.719830 0.930317 2.271690 0.008723 0.008957 -245678.000000 0 0 1
20.766499 27.783511 -30.948745 46.486512 0.928936 2.299305 0.023872 0.009857 22612.000000 0 0 1
21.256199 26.534441 -31.454845 46.317490 0.895397 2.317351 0.031670 0.012228 123875.000000 0 0 1
22.689899 26.095441 -31.093855 46.504101 0.855092 2.303156 0.040883 0.009240 -24703.900000 0 0 1
23.702899 27.035791 -31.435145 47.759080 0.850991 2.289225 0.043762 0.009804 128337.000000 0 0 1
24.980599 26.557191 -31.063435 47.898348 0.815980 2.276446 0.054918 -0.000282 362952.000000 0 0 1
26.145199 27.564931 -31.304815 49.227922 0.811825 2.259991 0.040252 0.003608 11937.300000 0 0 1
26.047699 28.744731 -30.532025 49.365441 0.834581 2.237616 0.027720 0.008457 -227619.000000 0 0 1
27.085199 29.625251 -30.849485 50.625628 0.830158 2.226056 0.035483 0.000876 -52818.200000 0 0 1
27.083399 30.891451 -29.928255 50.828070 0.850988 2.200386 0.022347 0.012018 -130694.000000 0 0 1
27.589699 30.562831 -28.656305 50.164349 0.836480 2.178822 0.035681 0.000234 242064.000000 0 0 1
26.928299 31.358491 -27.681215 49.746738 0.861259 2.160895 0.031126 0.001158 -390093.000000 0 0 1
27.624999 31.456371 -26.265755 49.421996 0.850157 2.131118 0.043199 0.005631 -230757.000000 0 0 1
27.740799 30.231381 -25.531795 48.325572 0.828333 2.127427 0.026854 0.015868 1004090.000000 0 0 1
26.500999 29.540321 -25.210655 47.016068 0.839579 2.136741 0.026302 0.011500 816781.000000 0 0 1
25.871699 29.974361 -23.877085 46.237672 0.858730 2.113437 0.021535 0.024704 -174608.000000 0 0 1
25.302599 31.271531 -23.758185 46.718107 0.890516 2.104289 0.048814 0.015522 396734.000000 0 0 1
24.522399 31.346201 -22.568085 45.752058 0.906936 2.086640 0.031255 0.022741 289975.000000 0 0 1
3.222499 -26.014319 -19.613085 32.738394 -1.447550 2.213154 0.014074 0.010996 -592988.000000 0 0 1
2.930299 -27.154909 -18.870385 33.197397 -1.463302 2.175392 0.019589 0.014179 199178.000000 0 0 1
2.938399 -26.881789 -17.513785 32.217968 -1.461920 2.145520 0.025205 0.008026 -138993.000000 0 0 1
2.811899 -28.040919 -16.472385 32.642601 -1.470852 2.099748 0.026571 -0.001592 106112.000000 0 0 1
4.006499 -28.768259 -16.251085 33.283067 -1.432418 2.080901 0.036566 -0.002142 175299.000000 0 0 1
3.843599 -29.585849 -15.107985 33.441695 -1.441606 2.039546 0.033321 -0.011056 252270.000000 0 0 1
5.178999 -30.271899 -14.705285 34.050776 -1.401354 2.017354 0.064723 -0.010847 123881.000000 0 0 1
6.150499 -29.382929 -14.205485 33.211157 -1.364453 2.012779 0.048701 -0.003100 -456847.000000 0 0 1
7.452499 -29.896859 -14.093685 33.882059 -1.326501 1.999798 0.054636 -0.004105 -26203.700000 0 0 1
7.681399 -30.755609 -12.818685 34.194007 -1.326047 1.955065 0.054425 -0.013975 -1089000.000000 0 0 1
7.641399 -30.009989 -11.600985 33.069220 -1.321466 1.929231 0.040977 -0.017935 -103808.000000 0 0 1
7.830899 -30.777589 -10.401285 33.418105 -1.321648 1.887301 0.038501 -0.018180 616929.000000 0 0 1
9.127799 -31.646089 -10.290585 34.506345 -1.289984 1.873627 0.051142 -0.015327 324176.000000 0 0 1
10.303499 -31.085469 -9.794885 34.181987 -1.250735 1.861421 0.054255 -0.017233 20630.100000 0 0 1
11.381499 -32.001419 -9.641285 35.306993 -1.229092 1.847379 0.057586 -0.014505 1026040.000000 0 0 1
12.577399 -31.457609 -8.776785 34.997201 -1.190445 1.824288 0.046665 -0.016989 989297.000000 0 0 1
13.511899 -30.573619 -9.430485 34.731134 -1.154660 1.845777 0.045617 -0.019312 415174.000000 0 0 1
14.675099 -30.438979 -8.666785 34.885572 -1.121559 1.821860 0.036901 -0.012709 -265238.000000 0 0 1
15.806899 -29.577799 -9.257085 34.790773 -1.079995 1.840119 0.043979 -0.018708 48685.600000 0 0 1
15.536099 -28.159339 -9.221785 33.456839 -1.066633 1.850044 0.042968 -0.021281 123665.000000 0 0 1
14.935199 -27.769519 -10.428385 33.210805 -1.077347 1.890206 0.033390 -0.017653 -179126.000000 0 0 1
14.684999 -26.237489 -10.495685 31.846734 -1.060540 1.906643 0.037186 -0.018083 -491016.000000 0 0 1
13.692199 -25.763869 -9.600185 30.715091 -1.082307 1.888679 0.026828 -0.012032 520838.000000 0 0 1
13.096199 -24.480199 -9.914185 29.480191 -1.079565 1.913782 0.022857 -0.004975 365627.000000 0 0 1
12.389099 -24.277799 -11.262985 29.491628 -1.098938 1.962652 0.002858 0.005568 -634542.000000 0 0 1
13.287599 -24.161999 -12.324885 30.203730 -1.068001 1.991123 -0.003783 0.002071 -75248.300000 0 0 1
12.592799 -24.125599 -13.556585 30.404015 -1.089729 2.032955 0.002660 0.001195 -34590.600000 0 0 1
13.470399 -23.408499 -14.595285 30.699053 -1.048625 2.066250 -0.001016 0.000613 -18822.100000 0 0 1
14.626699 -24.075799 -15.010985 31.920434 -1.024861 2.060385 0.004976 -0.003377 -141217.000000 0 0 1
15.078499 -23.453799 -16.219285 32.256891 -0.999427 2.097650 0.007565 -0.016381 -973869.000000 0 0 1
16.014599 -24.353699 -17.049285 33.767561 -0.989108 2.100064 0.017126 -0.014441 -441821.000000 0 0 1
17.275399 -24.627599 -16.548385 34.333761 -0.959088 2.073716 0.032507 -0.016548 -783710.000000 0 0 1
18.181299 -23.528699 -16.672785 34.090191 -0.912907 2.081829 0.031298 -0.019591 -1029900.000000 0 0 1
19.575999 -24.015999 -16.271585 34.996463 -0.886902 2.054374 0.022610 -0.014227 -601786.000000 0 0 1
20.150299 -24.849299 -17.210285 36.327898 -0.889444 2.064339 0.027268 -0.011952 -1066010.000000 0 0 1
21.297799 -25.430289 -16.691185 37.133429 -0.873606 2.036993 0.036734 -0.007127 -424829.000000 0 0 1
21.957699 -26.409199 -17.691885 38.634041 -0.877176 2.046467 0.035440 -0.000085 -413923.000000 0 0 1
22.601099 -25.730559 -18.737285 39.037895 -0.850058 2.071425 0.038719 -0.002360 -73012.700000 0 0 1
23.296599 -26.700969 -19.528985 40.460531 -0.853384 2.074494 0.025675 -0.006594 96049.400000 0 0 1
24.429999 -26.006549 -20.366685 41.084880 -0.816646 2.089462 0.029567 -0.002931 276618.000000 0 0 1
24.044199 -25.091499 -21.410085 40.817871 -0.806709 2.122956 0.032620 -0.008357 -69139.300000 0 0 1
24.548899 -23.812099 -21.066385 40.167862 -0.770164 2.122876 0.041130 -0.008243 66053.900000 0 0 1
24.078199 -22.624799 -21.935685 39.658738 -0.754288 2.156890 0.046544 -0.008428 -398144.000000 0 0 1
24.621799 -22.758099 -23.247185 40.799457 -0.746083 2.177048 0.034547 -0.011374 455482.000000 0 0 1
23.751199 -23.358699 -24.222385 41.188254 -0.777067 2.199491 0.031466 -0.021652 1075090.000000 0 0 1
22.644299 -22.424099 -24.864185 40.420690 -0.780512 2.233354 0.028160 -0.016488 557210.000000 0 0 1
23.280499 -21.481799 -25.696935 40.789482 -0.745236 2.252336 0.022049 -0.000177 26549.600000 0 0 1
22.397199 -20.633999 -26.382205 40.291652 -0.744446 2.284689 0.021312 0.007900 -539282.000000 0 0 1
23.070299 -19.964899 -27.536765 41.098775 -0.713363 2.305024 0.018342 0.006016 -494689.000000 0 0 1
22.260899 -19.028699 -28.181325 40.642664 -0.707276 2.336983 0.033199 0.008140 -382672.000000 0 0 1
22.767499 -18.667899 -29.419265 41.621420 -0.686780 2.355803 0.043556 0.004446 -57697.400000 0 0 1
21.936699 -17.610899 -30.265355 41.320144 -0.676449 2.392725 0.051694 0.002006 -841711.000000 0 0 1
20.678499 -18.087699 -30.599385 41.122835 -0.718666 2.409979 0.055466 -0.002505 -898858.000000 0 0 1
19.998499 -17.055999 -31.245365 40.830380 -0.706154 2.442223 0.060767 -0.005225 -511600.000000 0 0 1
18.741299 -17.634399 -31.900465 40.985949 -0.754978 2.462793 0.061612 -0.011820 -258456.000000 0 0 1
19.070799 -18.513999 -32.973255 42.352085 -0.770585 2.463150 0.065399 -0.012805 1113000.000000 0 0 1
17.839799 -18.954999 -33.578795 42.486303 -0.815698 2.482167 0.061777 -0.019298 729920.000000 0 0 1
18.050099 -19.708699 33.841743 43.121949 -0.829296 0.668437 0.077253 -0.019404 -162729.000000 0 0 1
18.653999 -20.948699 34.077632 44.137339 -0.843276 0.688686 0.086439 -0.021124 -15727.800000 0 0 1
18.731999 -21.779199 32.934913 43.702744 -0.860475 0.717256 0.073024 -0.023367 408498.000000 0 0 1
19.627599 -23.056399 33.279038 44.992606 -0.865556 0.738238 0.066364 -0.018069 372185.000000 0 0 1
19.004999 -23.982799 34.119231 45.831066 -0.900680 0.731076 0.073879 -0.012031 -151480.000000 0 0 1
18.988499 -23.600399 -33.269945 44.993679 -0.893267 2.403029 0.079778 -0.017073 -224532.000000 0 0 1
18.292599 -24.635499 -32.336075 44.577447 -0.932093 2.382398 0.068693 -0.019246 -59977.300000 0 0 1
18.856199 -25.946949 -32.315675 45.531344 -0.942361 2.359933 0.068534 -0.027298 -238736.000000 0 0 1
20.048899 -26.032949 -31.570305 45.567060 -0.914533 2.336205 0.048568 -0.020530 -76058.000000 0 0 1
20.361699 -27.570279 -31.485425 46.540854 -0.934671 2.313812 0.043962 -0.016895 479931.000000 0 0 1
19.270999 -28.243709 -30.832295 46.040297 -0.972041 2.304575 0.048462 -0.022094 451366.000000 0 0 1
19.407099 -29.666409 -30.987135 47.084327 -0.991490 2.289115 0.041857 -0.015947 650034.000000 0 0 1
18.124899 -30.432929 -30.497625 46.741633 -1.033642 2.281639 0.048467 -0.010575 1310890.000000 0 0 1
16.939099 -30.402699 -31.298215 46.806361 -1.062474 2.303221 0.053831 -0.019776 291027.000000 0 0 1
16.833299 -31.226499 -32.438175 48.069631 -1.076383 2.311512 0.054060 -0.019228 421693.000000 0 0 1
15.374399 -31.756819 -32.686505 48.096521 -1.119926 2.318017 0.066590 -0.027105 720743.000000 0 0 1
14.504099 -30.744959 -33.178805 47.502153 -1.129999 2.344053 0.068099 -0.032482 -66887.400000 0 0 1
13.301199 -31.386949 -33.603815 47.867305 -1.169958 2.349027 0.036997 -0.017940 315461.000000 0 0 1
12.374999 -30.379959 -34.345441 47.494124 -1.183978 2.379150 0.032423 -0.013728 26082.100000 0 0 1
11.862399 -29.347439 -33.558615 46.132086 -1.186670 2.385389 0.040932 -0.023821 -208334.000000 0 0 1
10.990799 -28.548229 -34.326864 45.979698 -1.203296 2.413681 0.014984 -0.016738 202146.000000 0 0 1
9.962299 -27.750069 -33.468875 44.603580 -1.226126 2.419407 0.019105 -0.016841 624021.000000 0 0 1
8.905499 -28.511709 -32.883345 44.424541 -1.268052 2.404174 0.025458 -0.011307 -210171.000000 0 0 1
8.059299 -27.703019 -32.151905 43.199011 -1.287693 2.410244 -0.000608 -0.005510 -392237.000000 0 0 1
6.932299 -28.457899 -31.462965 42.986358 -1.331852 2.391945 -0.006248 -0.005400 -570535.000000 0 0 1
5.918999 -29.133189 -32.114505 43.762069 -1.370354 2.394759 0.002200 -0.002996 -214556.000000 0 0 1
6.317599 -30.402359 -32.697135 45.092329 -1.365912 2.381998 0.002994 -0.002427 -231648.000000 0 0 1
5.112999 -31.289509 -33.019205 45.776021 -1.408819 2.376504 0.020702 -0.010719 45101.500000 0 0 1
4.472099 -31.764939 -31.866845 45.216223 -1.430928 2.352889 0.018685 -0.016170 -266281.000000 0 0 1
3.377799 -32.612059 -32.041025 45.843028 -1.467589 2.344695 0.035469 -0.036443 -1386430.000000 0 0 1
2.746099 -33.131929 -30.715885 45.262914 -1.488102 2.316665 0.034850 -0.052708 664729.000000 0 0 1
1.585499 -32.393379 -30.319765 44.397443 -1.521890 2.322545 0.034362 -0.044824 709836.000000 0 0 1
0.420599 -32.458019 -31.114425 44.964512 -1.557839 2.335021 0.035058 -0.017040 -745534.000000 0 0 1
-0.550501 -31.279929 -30.939795 44.000090 1.553199 2.350650 0.014711 -0.004127 70130.500000 0 0 1
-1.371001 -31.249569 -29.785055 43.192184 1.526952 2.331724 0.014852 -0.007277 212852.000000 0 0 1
-1.977401 -29.995659 -29.525085 42.135262 1.504969 2.347205 0.022381 0.004921 -123387.000000 0 0 1
-2.614201 -29.968979 -28.125095 41.182457 1.483786 2.322574 0.023390 0.003852 -655390.000000 0 0 1
-1.721301 -30.193609 -27.091245 40.602370 1.513849 2.301284 0.011172 0.001950 -669253.000000 0 0 1
-2.343901 -30.332249 -25.810645 39.896474 1.493675 2.274362 0.016802 0.002887 -583860.000000 0 0 1
-1.445201 -30.697509 -24.656285 39.399976 1.523752 2.246946 0.001071 0.003482 -286156.000000 0 0 1
-1.987801 -30.587659 -23.338385 38.525790 1.505901 2.221550 0.015125 0.003317 44738.800000 0 0 1
-0.954901 -30.988399 -22.459285 38.283315 1.539991 2.197725 0.011835 0.006173 386449.000000 0 0 1
-1.464201 -31.034529 -20.962085 37.479260 1.523652 2.164335 -0.012947 0.007808 172912.000000 0 0 1
-1.770301 -29.728799 -20.409885 36.104001 1.511318 2.171603 -0.010015 0.013121 625782.000000 0 0 1
-0.628801 -29.189799 -19.715785 35.229987 1.549258 2.164737 0.009618 0.008214 131824.000000 0 0 1
-0.768401 -27.783779 -19.086485 33.716802 1.543147 2.172542 0.006325 0.010654 -240532.000000 0 0 1
-1.514001 -27.720849 -17.913085 33.039617 1.516235 2.143814 0.004634 0.011502 -195756.000000 0 0 1
-1.404501 -26.443789 -17.310285 31.636886 1.517733 2.149758 0.010212 0.009288 445848.000000 0 0 1
-2.362701 -26.195819 -16.067185 30.821384 1.480846 2.119170 0.008050 0.012597 -53265.700000 0 0 1
-2.144301 -24.994599 -15.292885 29.380272 1.485215 2.118251 0.004970 0.013915 149301.000000 0 0 1
-3.019601 -24.882299 -14.175185 28.795532 1.450031 2.085492 0.008826 0.008874 -9692.770000 0 0 1
-2.841401 -23.622799 -13.301585 27.258804 1.451089 2.080563 0.010647 0.000227 -671364.000000 0 0 1
-1.675401 -23.778099 -12.571285 26.948881 1.500453 2.056111 0.014526 -0.006948 -752143.000000 0 0 1
-1.563401 -22.760199 -11.677985 25.629012 1.502214 2.043904 0.015337 -0.003404 578141.000000 0 0 1
-0.201901 -22.776599 -10.912885 25.256787 1.561932 2.017591 0.013476 -0.007450 607292.000000 0 0 1
0.175999 -21.478699 -10.391785 23.861155 -1.562602 2.021402 0.010499 -0.003874 791332.000000 0 1 0
1.563699 -21.526599 -10.009685 23.791457 -1.498283 2.005042 0.006215 -0.004963 866647.000000 0 1 0
2.143799 -20.209299 -9.507685 22.436750 -1.465112 2.008383 0.011863 -0.000251 -1850370.000000 0 1 0
2.433099 -19.258099 -10.554785 22.095200 -1.445121 2.068826 0.007157 -0.002165 -67767.000000 0 1 0
3.237799 -18.139599 -10.278185 21.099040 -1.394163 2.079608 0.000578 -0.005104 -180203.000000 0 1 0
4.645499 -18.453399 -9.751285 21.382146 -1.324179 2.044346 0.009471 -0.014833 -869934.000000 0 1 0
4.545899 -19.117599 -8.516985 21.416975 -1.337346 1.979777 0.010664 -0.009217 -1373640.000000 0 1 0
5.631799 -19.916699 -8.248085 22.280552 -1.295223 1.950012 0.015564 -0.004974 -1036720.000000 0 1 0
5.235299 -20.859899 -7.095185 22.646973 -1.324901 1.889457 0.018718 -0.015810 91181.100000 0 1 0
4.260499 -21.754399 -7.606685 23.436454 -1.377399 1.901350 0.009544 -0.015422 80522.800000 0 1 0
3.949099 -22.781399 -6.706585 24.074173 -1.399154 1.853112 0.018036 -0.019373 -173957.000000 0 1 0
2.974699 -23.841399 -7.229185 25.090282 -1.446667 1.863067 0.009124 -0.021149 3636.480000 0 0 1
3.412199 -24.525799 -8.397385 26.147161 -1.432557 1.897749 0.010128 -0.019402 -184997.000000 0 0 1
2.418899 -25.406579 -8.807985 26.998629 -1.475875 1.903118 -0.001978 -0.011942 -10996.000000 0 0 1
2.845399 -26.148189 -10.107285 28.177674 -1.462405 1.937669 0.005662 -0.008995 146552.000000 0 0 1
3.721299 -27.255789 -9.982885 29.264041 -1.435103 1.918917 0.002427 -0.015126 31453.300000 0 0 1
4.273499 -27.599289 -11.230285 30.101543 -1.417175 1.953123 0.016162 -0.011567 106586.000000 0 0 1
4.564399 -29.072289 -11.289185 31.519477 -1.415066 1.937098 0.020211 -0.017810 32793.600000 0 0 1
3.407299 -29.873419 -11.551585 32.209781 -1.457229 1.937603 0.020254 -0.019862 210766.000000 0 0 1
3.574099 -31.261549 -11.350085 33.449710 -1.456962 1.916988 0.029775 -0.023102 106788.000000 0 0 1
2.345699 -32.178539 -11.655985 34.304849 -1.498029 1.917476 0.022404 -0.026537 206358.000000 0 0 1
2.089199 -32.225919 -13.036385 34.825594 -1.506057 1.954474 0.027679 -0.023710 484339.000000 0 0 1
1.097099 -33.250429 -13.161385 35.777321 -1.537813 1.947513 0.018942 -0.021859 5337.830000 0 0 1
0.625299 -33.509009 -14.605385 36.559020 -1.552138 1.981769 0.027695 -0.011614 -273956.000000 0 0 1
-0.131401 -32.436619 -15.067385 35.765593 1.566745 2.005654 0.017953 -0.009089 -361735.000000 0 0 1
-0.495401 -32.697859 -16.374985 36.572333 1.555647 2.035035 0.005429 -0.006783 28488.700000 0 0 1
-1.586901 -31.788729 -16.999285 36.083476 1.520917 2.061345 -0.000966 -0.001986 1502650.000000 0 0 1
-2.886401 -31.900209 -16.378585 35.975168 1.480560 2.043477 -0.000919 0.001031 827016.000000 0 0 1
-3.978701 -31.385269 -17.096585 35.960512 1.444699 2.066245 -0.004332 0.018891 569220.000000 0 0 1
-5.386601 -31.503499 -16.471685 35.955561 1.401450 2.046667 -0.000604 0.015787 119274.000000 0 0 1
-5.488001 -30.612849 -15.386285 34.698739 1.393409 2.030213 -0.003066 0.013154 244189.000000 0 0 1
-6.845501 -30.298869 -15.077085 34.528262 1.348594 2.022678 0.004778 0.011892 589921.000000 0 0 1
-7.533901 -31.208459 -14.039485 35.040473 1.333923 1.983039 0.011171 0.002961 -4436.230000 0 0 1
-7.655401 -32.554589 -14.486585 36.445406 1.339837 1.979573 0.012882 0.001809 -66476.500000 0 0 1
-8.349001 -33.354649 -13.518085 36.945596 1.325526 1.945387 0.034328 0.003038 296524.000000 0 0 1
-8.831201 34.161251 -13.994385 37.958187 -1.317820 1.948384 0.045146 -0.004895 -362528.000000 0 0 1
-7.864201 33.150526 -13.983985 36.828723 -1.337875 1.960272 0.033082 -0.008502 -347387.000000 0 0 1
-8.199401 32.048871 -14.811885 36.245720 -1.320328 1.991773 0.038529 -0.023684 -380005.000000 0 0 1
-7.062301 -21.832499 -3.264085 23.177324 1.257943 1.712097 0.017353 -0.006630 224547.000000 0 1 0
-6.765201 -20.655799 -3.937785 22.089277 1.254286 1.750021 0.011256 -0.011364 -52121.900000 0 1 0
-5.805601 -20.840799 -4.969085 22.197651 1.299115 1.796566 0.006007 -0.005114 163563.000000 0 1 0
-5.936301 -19.869399 -6.176885 21.637620 1.280472 1.860293 0.007559 -0.003796 52.719600 0 1 0
-7.032201 -20.181999 -7.004085 22.490490 1.235513 1.887488 0.019567 -0.009115 -204455.000000 0 1 0
-7.368501 -19.141399 -7.961985 22.001845 1.203330 1.941078 0.012491 -0.012022 376182.000000 0 1 0
-8.241501 -19.534799 -9.183785 23.105684 1.171564 1.979553 0.019505 -0.007050 761713.000000 0 1 0
-7.491701 -20.113699 -10.231185 23.777376 1.214248 2.015611 0.024862 -0.007227 -756359.000000 0 1 0
-8.415201 -20.413899 -11.152985 24.737259 1.179792 2.038522 0.030109 -0.003613 -464409.000000 0 1 0
-7.795301 -21.431099 -12.167985 25.847990 1.221936 2.060939 0.023665 -0.000079 111670.000000 0 0 1
-6.901001 -20.852599 -13.084885 25.566950 1.251200 2.108062 0.034417 -0.000137 -288232.000000 0 0 1
-6.537601 -21.760399 -14.095785 26.738481 1.278940 2.126066 0.028466 0.005807 -276960.000000 0 0 1
-5.598101 -21.066599 -15.113485 26.524663 1.311065 2.177046 0.026266 0.008624 -728976.000000 0 0 1
-4.377101 -20.875399 -14.445185 25.760526 1.364113 2.166086 0.018438 -0.000039 -395780.000000 0 0 1
-3.446001 -20.307099 -15.377885 25.704719 1.402703 2.212114 0.015930 0.009283 137479.000000 0 0 1
-3.282501 -18.786999 -15.442085 24.539441 1.397820 2.251418 0.031458 0.006606 -543570.000000 0 1 0
-4.315701 -18.078099 -16.104285 24.592498 1.336457 2.284774 0.025290 0.000286 -6760.730000 0 1 0
-4.159901 -17.980399 -17.492785 25.428273 1.343439 2.329425 0.033145 -0.005589 -492598.000000 0 0 1
-5.543401 -17.730499 -18.097985 25.935246 1.267777 2.343138 0.017488 0.004197 -249833.000000 0 0 1
-6.430901 -18.811599 -17.918185 26.763672 1.241393 2.304327 0.020683 0.009474 -16112.000000 0 0 1
-7.611201 -18.645599 -18.690185 27.475658 1.183238 2.318893 0.017279 0.005302 -308122.000000 0 0 1
-8.689901 -19.620199 -18.285585 28.192716 1.153858 2.276530 0.029247 0.004391 -527853.000000 0 0 1
-8.340601 -20.983399 -18.467885 29.170729 1.192459 2.256343 0.028943 0.009324 471641.000000 0 0 1
-9.450901 -21.822399 -18.211585 29.953271 1.162100 2.224335 0.032526 0.015720 212762.000000 0 0 1
-8.980901 -23.293799 -18.300785 30.954425 1.202809 2.203363 0.031900 0.003843 -678831.000000 0 0 1
-8.609001 -23.715099 -19.622885 31.962141 1.222572 2.231841 0.034617 -0.002282 896390.000000 0 0 1
-7.396901 -24.478799 -19.701885 32.281419 1.277345 2.227256 0.035807 -0.007211 485486.000000 0 0 1
-6.087801 -23.739699 -19.399985 31.256904 1.319766 2.240384 0.040263 -0.003206 -1688910.000000 0 0 1
-5.601401 -22.975099 -20.462385 31.272034 1.331658 2.284099 0.039992 -0.011092 193489.000000 0 0 1
-5.134701 -21.618399 -20.161485 30.003430 1.337602 2.307666 0.045172 -0.011930 129423.000000 0 0 1
-4.018001 -21.532599 -19.076585 29.046743 1.386317 2.287303 0.031062 -0.005756 693696.000000 0 0 1
-2.777501 -22.175699 -19.500885 29.660760 1.446195 2.288245 0.031204 -0.004673 365158.000000 0 0 1
-1.939801 -22.170199 -18.408085 28.881450 1.483523 2.261873 0.035468 0.001401 -1098280.000000 0 0 1
-0.604001 -22.835399 -18.680585 29.509059 1.544352 2.256278 0.029090 0.002292 -188237.000000 0 0 1
0.233599 -22.072499 -19.569085 29.499134 -1.560213 2.296121 0.032785 -0.007301 1097940.000000 0 0 1
1.502599 -22.771699 -19.781385 30.201180 -1.504906 2.284962 0.027830 -0.009681 1277630.000000 0 0 1
2.362099 -22.047299 -20.826285 30.420340 -1.464066 2.324875 0.044071 -0.012541 -80986.800000 0 0 1
2.049899 -22.360799 -22.160885 31.548570 -1.479378 2.349612 0.030832 -0.017929 -185659.000000 0 0 1
1.522399 -21.231899 -22.784785 31.181047 -1.499215 2.390180 0.037771 -0.019154 -198368.000000 0 0 1
0.840199 -21.629199 -24.125785 32.412678 -1.531970 2.410330 0.048433 -0.019614 332727.000000 0 0 1
0.150699 -20.618999 -24.885785 32.318232 -1.563488 2.449674 0.039393 -0.021650 -163463.000000 0 0 1
-1.122201 -20.231599 -24.453385 31.757597 1.515385 2.449639 0.036517 -0.019891 -220112.000000 0 0 1
-1.770001 -19.080199 -25.307225 31.743386 1.478295 2.493512 0.035472 -0.017771 90788.200000 0 0 1
-1.235201 -17.814999 -24.955985 30.687149 1.501572 2.520493 0.037053 -0.008596 -188239.000000 0 0 1
-1.695701 -16.699799 -25.697735 30.694174 1.469603 2.562974 0.027957 -0.002403 -157998.000000 0 0 1
-1.156601 -15.296299 -25.212795 29.512701 1.495327 2.595005 0.028683 0.002257 57480.100000 0 0 1
0.230299 -15.209699 -25.502315 29.694378 -1.555656 2.603771 0.041917 -0.009929 153617.000000 0 0 1
0.896699 -13.981799 -25.105985 28.750744 -1.506751 2.632586 0.042674 -0.011412 575608.000000 0 0 1
0.410399 -12.612399 -25.726965 28.655153 -1.538268 2.685574 0.029502 -0.003450 329731.000000 0 0 1
1.235099 -11.503399 -25.302055 27.821712 -1.463838 2.712721 0.025513 -0.002685 450586.000000 0 0 1
0.879799 -10.391299 -26.116475 28.121583 -1.486331 2.761684 0.019069 -0.000212 -235893.000000 0 0 1
1.621199 -9.041999 -25.971765 27.548478 -1.393385 2.801626 0.038547 -0.003853 -670870.000000 0 0 1
2.915099 -8.897599 -26.435795 28.044899 -1.254190 2.801201 0.043745 -0.010271 -966391.000000 0 0 1
3.157399 -8.974999 -27.863095 29.442688 -1.232519 2.812544 0.035273 -0.006956 -181071.000000 0 0 1
4.647399 -8.823999 -28.256935 29.965241 -1.086035 2.802300 0.045312 -0.008780 -33249.800000 0 0 1
4.914299 -7.436299 -28.537885 29.897488 -0.986830 2.838857 0.046730 -0.007167 132432.000000 0 0 1
6.198299 -7.231999 -29.085965 30.605785 -0.862214 2.825130 0.061518 -0.012303 222724.000000 0 0 1
7.442999 -7.116999 -28.104955 29.932230 -0.763012 2.790370 0.073705 -0.019299 509414.000000 0 0 1
8.026299 -8.294999 -27.614215 29.929473 -0.801860 2.745675 0.057968 -0.014463 383045.000000 0 0 1
8.640199 -9.090899 -28.627575 31.254368 -0.810811 2.728676 0.068101 -0.020423 -770899.000000 0 0 1
9.115599 -10.463599 -28.080125 31.322109 -0.854138 2.682591 0.055741 -0.024720 -249317.000000 0 0 1
8.095599 -11.385199 -27.786485 31.100647 -0.952684 2.675737 0.058223 -0.026848 20127.900000 0 0 1
8.494799 -12.593099 -27.108585 31.074477 -0.977349 2.630835 0.047030 -0.023846 -209719.000000 0 0 1
9.195499 -13.713099 -27.957435 32.468823 -0.980101 2.608137 0.055884 -0.030010 -221523.000000 0 0 1
8.323899 -14.403199 -28.800015 33.259289 -1.046770 2.617791 0.058991 -0.029237 -392069.000000 0 0 1
8.946999 -15.448599 -29.505605 34.486066 -1.045852 2.597467 0.054065 -0.027715 -182577.000000 0 0 1
8.038999 -15.880899 -30.646925 35.440972 -1.102197 2.615412 0.038861 -0.029679 -95503.500000 0 0 1
7.699499 -14.852999 -31.614325 35.768134 -1.092553 2.654866 0.038746 -0.029051 320252.000000 0 0 1
6.815399 -15.398799 -32.582125 36.676526 -1.154119 2.664567 0.030132 -0.019032 616110.000000 0 0 1
5.815499 -14.421199 -33.315685 36.765825 -1.187482 2.704909 0.026089 -0.012399 921706.000000 0 0 1
6.574799 -13.567299 -34.158643 37.337816 -1.119539 2.725942 0.029365 -0.006855 585077.000000 0 0 1
5.694899 -12.681799 33.953989 36.689689 -1.148724 0.388610 0.015718 -0.007272 -70792.300000 0 0 1
6.461899 -11.725699 33.032227 35.642337 -1.067118 0.385077 0.031745 -0.005069 -64867.300000 0 0 1
6.788999 -12.238799 31.753402 34.700969 -1.064343 0.415144 0.023108 -0.006462 -67395.400000 0 0 1
7.135999 -11.256499 30.847062 33.603162 -1.005791 0.407837 0.034090 -0.003000 -264103.000000 0 0 1
7.437299 -11.725499 29.380632 32.496497 -1.005549 0.441488 0.026687 0.002420 291797.000000 0 0 1
6.353399 -12.355799 28.695662 31.882165 -1.095850 0.450904 0.024793 0.002151 416495.000000 0 0 1
6.651799 -12.467099 27.286922 30.728669 -1.080672 0.477829 0.021930 0.005983 -496501.000000 0 0 1
5.690599 -13.213999 26.357632 30.028611 -1.164150 0.499649 0.009865 -0.007982 -451482.000000 0 0 1
5.797299 -14.650199 26.271902 30.634129 -1.193990 0.540207 0.011251 0.005166 -173033.000000 0 0 1
5.229199 -15.308799 25.164422 29.915748 -1.241641 0.571341 -0.003261 0.000840 -104312.000000 0 0 1
3.706299 -15.526599 25.081132 29.730037 -1.336475 0.566789 -0.003786 -0.007525 40723.200000 0 0 1
3.008399 -14.294399 24.884692 28.855298 -1.363364 0.530813 -0.012869 -0.005373 115371.000000 0 0 1
1.612399 -14.480699 24.700792 28.677859 -1.459905 0.532936 -0.015127 -0.011113 340187.000000 0 0 1
0.882699 -13.131399 24.632402 27.927908 -1.503677 0.490708 -0.018723 -0.010973 -471557.000000 0 0 1
1.225299 -12.354699 23.468862 26.550470 -1.471943 0.486587 -0.021885 -0.008619 -189560.000000 0 0 1
0.366499 -11.283399 23.195162 25.796608 -1.538326 0.452960 -0.009673 -0.000684 -557620.000000 0 0 1
-1.019501 -11.583299 22.659762 25.469139 1.483008 0.474120 -0.002019 -0.011900 -1039020.000000 0 0 1
-1.057701 -12.267399 21.453162 24.735521 1.484789 0.521040 0.000466 -0.019912 -38411.900000 0 1 0
-2.244201 -13.016099 21.244362 25.015559 1.400058 0.556241 0.018140 -0.024492 338230.000000 0 0 1
-2.117001 -13.741999 19.840262 24.227262 1.417945 0.611264 0.030730 -0.027530 756237.000000 0 1 0
-1.098801 -14.768299 19.683562 24.632349 1.496530 0.645010 0.030030 -0.030904 220597.000000 0 1 0
-1.305601 -15.585299 18.604562 24.305059 1.487220 0.699040 0.034813 -0.020884 568466.000000 0 1 0
-2.417201 -16.695199 18.824762 25.277346 1.427011 0.730668 0.016869 -0.020455 637805.000000 0 0 1
-2.284001 -17.755999 17.904862 25.319484 1.442866 0.785326 0.002854 -0.005876 -399595.000000 0 0 1
-3.351701 -18.648799 18.023062 26.150380 1.392967 0.810400 0.006225 0.000761 -204315.000000 0 0 1
-3.010201 -19.988499 17.315362 26.616220 1.421323 0.862479 0.007953 0.004335 -296323.000000 0 0 1
-1.984201 -20.660599 17.949162 27.440296 1.475052 0.857782 0.013185 -0.000790 -701553.000000 0 0 1
-2.093701 -22.062499 17.716162 28.372519 1.476181 0.896417 0.005613 -0.006759 -19572.000000 0 0 1
-0.888801 -22.828399 18.344062 29.298983 1.531882 0.894256 0.020493 -0.001428 777500.000000 0 0 1
0.292199 -22.726799 17.549162 28.715255 -1.557940 0.913291 0.031841 -0.002003 -84746.000000 0 0 1
1.237899 -23.695599 17.980862 29.771215 -1.518602 0.922326 0.025522 0.003741 -669218.000000 0 0 1
2.546999 -23.559099 17.246262 29.307881 -1.463104 0.941654 0.022490 -0.000920 -891509.000000 0 0 1
3.194099 -22.369399 17.572862 28.625125 -1.428966 0.909809 0.026316 -0.007344 -559383.000000 0 0 1
4.204299 -22.047599 16.652062 27.947521 -1.382367 0.932494 0.021436 -0.008469 -29030.700000 0 0 1
4.837399 -20.685699 16.961762 27.184554 -1.341072 0.897011 0.035245 -0.008413 -875720.000000 0 0 1
5.612599 -20.691899 18.111662 28.065785 -1.305923 0.869343 0.031830 -0.003533 -254704.000000 0 0 1
6.106499 -19.395499 18.489862 27.483626 -1.265780 0.832865 0.036447 0.008933 13085.700000 0 0 1
7.168699 -18.734799 17.631562 26.706833 -1.205344 0.849726 0.040653 -0.001720 -1055670.000000 0 0 1
6.618799 -18.140199 16.490162 25.392928 -1.220937 0.864001 0.034460 -0.008501 -1092240.000000 0 0 1
7.576499 -17.610699 15.697862 24.778276 -1.164511 0.884685 0.053513 -0.005334 -1013520.000000 0 1 0
7.065999 -16.657999 14.582162 23.239121 -1.169620 0.892479 0.034811 -0.007204 306304.000000 0 1 0
6.237399 -17.322999 13.599662 22.889785 -1.225184 0.934604 0.030214 -0.011174 282302.000000 0 1 0
5.570599 -16.412899 12.792262 21.541978 -1.243592 0.934986 0.017456 -0.009723 -249121.000000 0 1 0
6.050499 -16.480899 11.366862 20.914926 -1.218950 0.996218 0.012026 -0.009771 327235.000000 0 1 0
7.410799 -16.080299 11.234762 20.969403 -1.138946 1.005378 0.030585 -0.009954 -93746.300000 0 1 0
7.987799 -16.579099 10.110662 20.997546 -1.121815 1.068412 0.035638 -0.006107 -1032630.000000 0 1 0
9.359699 -15.947899 10.023762 21.033670 -1.040071 1.074061 0.032241 -0.006668 -626652.000000 0 1 0
9.942699 -16.299999 8.769562 21.010770 -1.023070 1.140232 0.033522 -0.011847 434780.000000 0 1 0
11.297699 -15.821199 8.659462 21.282261 -0.950679 1.151753 0.027941 -0.012765 1185370.000000 0 1 0
12.213899 -16.736799 7.780162 22.132119 -0.940373 1.211589 0.025169 -0.018818 37645.200000 0 1 0
12.563999 -17.856299 8.550862 23.448214 -0.957647 1.197518 0.037004 -0.019197 -83003.900000 0 1 0
13.200899 -18.755899 7.670662 24.184428 -0.957507 1.248049 0.036192 -0.014816 21311.600000 0 1 0
13.880699 -20.048599 8.209462 25.729660 -0.965221 1.246052 0.040388 -0.015046 -206505.000000 0 0 1
13.058499 -21.076699 8.680762 26.269893 -1.016111 1.234021 0.046144 -0.010609 -264246.000000 0 0 1
13.802899 -22.188999 9.177562 27.696559 -1.014314 1.233051 0.051899 -0.009803 -20213.500000 0 0 1
12.886899 -23.236399 9.845162 28.336013 -1.064429 1.215953 0.066972 -0.015040 315617.000000 0 0 1
12.508799 -22.712899 11.136362 28.219929 -1.067389 1.165134 0.068860 -0.019308 -139379.000000 0 0 1
11.605699 -23.476599 11.951262 28.786727 -1.111677 1.142671 0.072819 -0.013782 159098.000000 0 0 1
11.992399 -24.908899 12.358862 30.282212 -1.122098 1.150399 0.041939 -0.019133 -19626.200000 0 0 1
12.951099 -25.011769 13.400862 31.191388 -1.093010 1.126710 0.015636 -0.015748 16853.700000 0 0 1
13.042099 -26.295049 13.934062 32.491292 -1.110361 1.127571 0.024493 -0.015407 -56368.100000 0 0 1
14.220799 -26.340669 14.918862 33.445993 -1.075756 1.108440 0.041072 -0.012029 -86787.100000 0 0 1
13.980799 -25.659399 16.137962 33.381152 -1.071907 1.066210 0.049299 -0.016050 -175431.000000 0 0 1
14.872799 -26.060539 17.124462 34.548503 -1.052198 1.052197 0.059866 -0.012034 -562416.000000 0 0 1
14.599199 -25.431219 18.483962 34.663242 -1.049664 1.008366 0.062122 -0.008521 -79310.900000 0 0 1
14.922899 -24.073699 18.634962 33.904243 -1.015884 0.988869 0.033356 -0.013293 11920.500000 0 0 1
16.209099 -23.869299 19.179962 34.646057 -0.974251 0.984119 0.033614 -0.007805 -199841.000000 0 0 1
16.496899 -22.385399 19.459662 33.940127 -0.935700 0.960204 0.012027 -0.007677 -83585.800000 0 0 1
16.515099 -21.607599 18.277062 32.767176 -0.918194 0.979081 0.001870 -0.003892 -1167780.000000 0 0 1
15.370999 -20.951599 18.015862 31.619747 -0.937846 0.964575 0.017432 -0.000153 -1781510.000000 0 0 1
15.717399 -19.961799 16.872462 30.499017 -0.903802 0.984580 0.005109 0.006156 56851.400000 0 0 1
16.475999 -18.839099 17.235862 30.388240 -0.852213 0.967708 0.005862 0.002367 -628630.000000 0 0 1
17.840199 -19.058199 17.044562 31.176991 -0.818396 0.992374 0.000950 0.000120 -899432.000000 0 0 1
18.731399 -17.857799 17.364262 31.165428 -0.761527 0.979829 0.008740 0.000767 -511397.000000 0 0 1
18.903199 -17.542399 18.756562 31.888483 -0.748078 0.941974 0.005301 0.006036 -2960.710000 0 0 1
19.375599 -16.233999 18.904162 31.564599 -0.697403 0.928665 0.014919 0.005892 -384274.000000 0 0 1
19.796799 -15.901799 20.384162 32.562164 -0.676720 0.894373 0.023729 0.007505 -195580.000000 0 0 1
21.016399 -16.544399 20.642962 33.786655 -0.666896 0.913499 0.025099 -0.000344 -364091.000000 0 0 1
21.466999 -16.324699 21.986362 34.795517 -0.650159 0.886828 0.039705 -0.004314 134065.000000 0 0 1
33.196094 -1.483399 -7.886585 34.152297 -0.044656 1.803824 0.047179 -0.013402 -983860.000000 0 0 1
34.349704 -1.373699 -8.639985 35.446277 -0.039970 1.817026 0.036701 -0.010719 -95508.200000 0 0 1
35.325215 -2.329999 -8.149085 36.327776 -0.065863 1.797043 0.047435 -0.018630 -190821.000000 0 0 1
-34.464329 -1.972299 -8.601385 35.576168 0.057165 1.814990 0.033765 -0.010933 -852852.000000 0 0 1
-33.512021 -2.966599 -8.358085 34.665745 0.088293 1.814301 0.048252 -0.006794 -149720.000000 0 0 1
-32.227351 -2.632299 -8.862185 33.527145 0.081498 1.838304 0.067191 -0.007279 67614.100000 0 0 1
-31.241461 -3.756699 -8.457385 32.583263 0.119673 1.833365 0.063768 -0.006802 -331354.000000 0 0 1
-30.961661 -3.787199 -7.098885 31.990022 0.121714 1.794569 0.071228 -0.012140 174393.000000 0 0 1
-29.892841 -4.645599 -6.760985 30.997975 0.154175 1.790674 0.063212 -0.016952 -16005.100000 0 0 1
-29.557481 -4.510299 -5.292285 30.364383 0.151426 1.745984 0.069943 -0.019979 -161395.000000 0 0 1
-29.154911 -3.184399 -4.910785 29.736594 0.108792 1.736699 0.066622 -0.015954 519407.000000 0 0 1
-29.470321 -2.922099 -3.601785 29.833058 0.098831 1.691823 0.074208 -0.018346 -367818.000000 0 0 1
-29.030181 -1.475399 -3.260385 29.249929 0.050779 1.682495 0.077405 -0.018516 -353821.000000 0 0 1
-27.647441 -1.235699 -3.232485 27.863182 0.044665 1.687071 0.068782 -0.010615 218085.000000 0 0 1
-27.369311 0.050801 -2.739585 27.506128 -0.001856 1.670561 0.080774 -0.020354 -156199.000000 0 0 1
-25.926441 0.255701 -2.232885 26.023672 -0.009862 1.656704 0.075996 -0.007771 -105275.000000 0 0 1
-25.581491 -0.382899 -1.007085 25.604170 0.014967 1.610139 0.062560 -0.009201 409185.000000 0 0 1
-24.203001 -0.279599 -0.715585 24.215191 0.011552 1.600352 0.048236 -0.008951 -11277.500000 0 1 0
-23.764701 -1.143599 0.455815 23.796567 0.048085 1.551641 0.041925 -0.014636 -269907.000000 0 1 0
-23.813101 -2.584499 0.316815 23.955037 0.108110 1.557571 0.035410 -0.009997 298523.000000 0 1 0
-22.818001 -3.224799 1.086415 23.070344 0.140397 1.523688 0.018135 -0.011226 -330663.000000 0 1 0
-22.956301 -4.709599 0.967615 23.454389 0.202347 1.529529 0.013888 -0.004654 138879.000000 0 1 0
-24.129101 -5.185399 1.635815 24.734142 0.211683 1.504612 0.016705 -0.006662 698021.000000 0 1 0
-24.439201 -6.584299 1.538615 25.357344 0.263167 1.510082 0.012186 -0.005517 189687.000000 0 0 1
-25.801521 -7.095199 2.079315 26.839968 0.268358 1.493248 0.021497 0.000664 161622.000000 0 0 1
-25.692431 -7.300799 3.449515 26.931428 0.276863 1.442358 0.027707 0.003284 880766.000000 0 0 1
-26.879241 -7.994099 3.881515 28.310164 0.289077 1.433256 0.029450 0.012787 417244.000000 0 0 1
-26.935971 -8.200899 5.407115 28.671208 0.295543 1.381070 0.040380 0.007301 -81525.300000 0 0 1
-26.063571 -9.237499 5.843615 28.262855 0.340609 1.362535 0.038729 0.010754 216129.000000 0 0 1
-26.150251 -9.414699 7.234515 28.719512 0.345576 1.316151 0.034234 0.004947 -120309.000000 0 0 1
-25.571851 -8.370199 8.206715 28.130588 0.316330 1.274755 0.049393 -0.000369 -60170.600000 0 0 1
-24.163001 -8.278199 8.109715 26.798259 0.330066 1.263355 0.053709 -0.001368 319774.000000 0 0 1
-23.732901 -6.922799 8.455615 26.128015 0.283821 1.241241 0.048032 -0.009080 839165.000000 0 0 1
-22.281801 -6.614899 7.951415 24.565434 0.288587 1.241177 0.054613 -0.010731 1207890.000000 0 1 0
-21.171201 -7.341399 8.470815 23.955596 0.333789 1.209374 0.047700 -0.013369 592969.000000 0 1 0
-19.966501 -6.905599 7.863715 22.542992 0.332981 1.214472 0.043494 -0.014942 803468.000000 0 1 0
-18.682701 -7.123999 8.741215 21.822088 0.364296 1.158660 0.036625 -0.011943 371979.000000 0 1 0
-18.630101 -6.271599 9.874615 21.998219 0.324722 1.105282 0.034456 -0.005183 1126510.000000 0 1 0
-17.503501 -6.446199 10.790515 21.549043 0.352867 1.046340 0.021609 -0.009479 534194.000000 0 1 0
-17.366301 -5.252799 11.719615 21.599298 0.293722 0.997276 0.013664 -0.005562 -371945.000000 0 1 0
-18.372701 -5.127699 12.680015 22.904851 0.272168 0.984121 0.023141 -0.003385 54729.800000 0 1 0
-18.331401 -3.829899 13.175315 22.897539 0.205963 0.957699 0.015708 0.006580 73014.500000 0 1 0
-19.559701 -3.615399 14.088215 24.374799 0.182776 0.954542 0.020377 0.000986 246990.000000 0 1 0
-19.392401 -4.215699 15.347815 25.087701 0.214059 0.912505 0.018136 -0.000799 667551.000000 0 0 1
-20.652401 -4.203999 16.018315 26.472281 0.200816 0.920908 0.018251 0.009103 275359.000000 0 0 1
-20.596701 -4.955799 17.319815 27.363480 0.236123 0.885434 0.009800 0.018210 -372162.000000 0 0 1
-21.541101 -4.758399 18.338215 28.687132 0.217407 0.877275 0.006706 0.015330 87454.400000 0 0 1
-21.220701 -5.620299 19.389515 29.289233 0.258905 0.847310 0.002812 0.014175 -188685.000000 0 0 1
-21.986901 -5.189499 20.662715 30.615396 0.231785 0.829950 0.013016 0.009472 -248184.000000 0 0 1
-21.584501 -3.934099 21.130915 30.461178 0.180286 0.804183 0.003525 0.003081 298219.000000 0 0 1
-22.318201 -3.632899 22.294415 31.754385 0.161362 0.792469 0.008609 -0.002380 2878.850000 0 0 1
-22.253601 -2.145599 22.673215 31.841812 0.096119 0.778371 0.012215 0.001342 340650.000000 0 0 1
-23.132701 -1.322899 21.866715 31.859459 0.057125 0.814339 0.023576 -0.001401 332553.000000 0 0 1
-23.114401 0.018301 22.278115 32.102808 -0.000792 0.803820 0.024344 -0.003634 -877309.000000 0 0 1
-24.295301 0.772601 21.725115 32.601214 -0.031790 0.841440 0.027230 -0.007159 -540720.000000 0 0 1
-25.472991 0.403801 22.425515 33.940242 -0.015851 0.848998 0.029088 -0.010243 -500807.000000 0 0 1
-26.574661 1.142101 22.012115 34.526080 -0.042951 0.879482 0.030048 -0.014972 -813797.000000 0 0 1
-27.661851 1.236101 23.047515 36.026294 -0.044656 0.876634 0.032588 -0.015596 -798978.000000 0 0 1
-27.351491 2.082901 24.159515 36.553039 -0.076006 0.848720 0.024230 -0.010730 70844.700000 0 0 1
-28.340561 2.018201 25.151915 37.945742 -0.071092 0.846192 0.021693 -0.012460 -376364.000000 0 0 1
-27.969091 3.025701 26.324715 38.528113 -0.107761 0.818578 0.027335 -0.004309 486988.000000 0 0 1
-26.883781 2.673601 27.183415 38.325238 -0.099124 0.782317 0.020881 -0.004265 581134.000000 0 0 1
-26.539651 3.654901 28.143615 38.855816 -0.136854 0.760765 0.017170 -0.004929 -497438.000000 0 0 1
-25.408371 3.262301 29.082215 38.755685 -0.127696 0.722131 0.028574 -0.004377 -358258.000000 0 0 1
-25.778441 2.241801 30.017315 39.630706 -0.086746 0.711435 0.020553 -0.006678 233195.000000 0 0 1
-24.723301 1.972501 30.903215 39.625005 -0.079614 0.676303 0.027327 -0.008126 12811.900000 0 0 1
-25.165271 0.899101 31.937515 40.670679 -0.035713 0.667662 0.020120 -0.004300 2855.920000 0 0 1
-25.198761 -0.359199 31.274215 40.164451 0.014254 0.678278 0.015538 -0.011894 -186552.000000 0 0 1
-25.497891 -1.416099 32.160615 41.066445 0.055481 0.671103 0.016611 -0.000200 -528836.000000 0 0 1
-26.160011 -2.565999 31.381215 40.935451 0.097776 0.697263 0.016228 0.009827 -262452.000000 0 0 1
-27.420881 -2.359299 30.802915 41.307270 0.085829 0.729208 0.000865 0.008685 -79926.200000 0 0 1
-27.500981 -1.451599 29.699915 40.503037 0.052735 0.747668 0.001271 0.008393 93805.300000 0 0 1
-28.995431 -1.256499 29.233615 41.193665 0.043307 0.781777 -0.000133 -0.005140 1159550.000000 0 0 1
-29.748941 -0.516999 30.154415 42.362194 0.017377 0.778705 0.001719 -0.000160 -659494.000000 0 0 1
-31.120901 -0.487099 29.884015 43.148605 0.015651 0.805732 -0.001953 -0.002318 341112.000000 0 0 1
-32.049371 -0.151799 31.123715 44.675170 0.004736 0.800055 0.002147 0.000631 165965.000000 0 0 1
-31.983121 -1.218699 32.085015 45.319460 0.038086 0.784170 -0.001487 -0.002666 93430.300000 0 0 1
-32.776171 -0.936199 33.227415 46.682062 0.028556 0.778765 0.003490 0.000650 -138101.000000 0 0 1
-32.944111 -2.085699 34.254315 47.571238 0.063226 0.766902 0.016616 -0.004542 -309078.000000 0 0 1
-33.739261 -3.077199 33.689915 47.778837 0.090954 0.788201 0.022966 -0.008593 -155233.000000 0 0 1
-33.958331 -4.143899 -34.234832 48.397974 0.121429 2.356554 0.012667 -0.000001 -498629.000000 0 0 1
-34.979507 -5.120499 33.967515 49.026294 0.145353 0.805372 0.004266 -0.003387 -272715.000000 0 0 1
34.933194 -4.655799 34.318515 49.191107 -0.132496 0.798675 0.008654 -0.013093 -1053360.000000 0 0 1
33.925604 -5.303499 33.628215 48.061737 -0.155072 0.795836 0.006995 -0.015402 -1004400.000000 0 0 1
32.535934 -4.977399 34.180315 47.451612 -0.151805 0.766534 0.029550 -0.014004 -794684.000000 0 0 1
32.063814 -5.604699 -33.436732 46.663861 -0.173050 2.369632 0.025606 -0.010713 -23272.100000 0 0 1
31.604184 -6.909999 -33.624332 46.660136 -0.215255 2.375496 0.032274 -0.017941 697663.000000 0 0 1
30.090154 -6.995999 -34.123832 46.030396 -0.228443 2.405850 0.023480 -0.023709 1152260.000000 0 0 1
29.188854 -6.841299 -33.034832 44.610456 -0.230225 2.404637 0.020070 -0.024062 1329440.000000 0 0 1
27.832514 -7.176299 -33.445632 44.099415 -0.252343 2.431673 0.034416 -0.023500 1946020.000000 0 0 1
26.642074 -6.767099 -32.495932 42.562652 -0.248740 2.439488 0.036656 -0.019752 245244.000000 0 0 1
25.392824 -7.187499 -32.939032 42.207055 -0.275837 2.466126 0.026263 -0.020364 -29129.400000 0 0 1
24.370524 -6.820699 -31.987632 40.787903 -0.272893 2.472272 0.023700 -0.019450 1758870.000000 0 0 1
22.897024 -7.337399 -32.338632 40.297621 -0.310113 2.502261 0.021505 -0.022297 1245770.000000 0 0 1
22.704024 -8.761799 -32.536432 40.630792 -0.368305 2.499397 0.039723 -0.018416 292633.000000 0 0 1
22.812624 -9.510899 -31.353632 39.923969 -0.395002 2.474031 0.035839 -0.015667 -385660.000000 0 0 1
22.805724 -11.028599 -31.471132 40.400040 -0.450433 2.463846 0.037635 -0.013618 -412974.000000 0 0 1
21.570624 -11.443199 -31.965432 40.224713 -0.487748 2.489263 0.035515 -0.012621 -206727.000000 0 0 1
21.401324 -12.861899 -31.995132 40.584894 -0.541144 2.478920 0.039388 -0.004549 69596.300000 0 0 1
20.261324 -13.366799 -32.940632 40.917940 -0.583178 2.506541 0.032932 -0.002415 644174.000000 0 0 1
18.908724 -13.046799 -32.697832 39.961320 -0.603975 2.529134 0.020593 0.001722 379916.000000 0 0 1
18.444724 -11.681699 -32.844232 39.438732 -0.564571 2.554927 0.025430 -0.003370 -699519.000000 0 0 1
17.131624 -11.402199 -32.129832 38.155325 -0.587239 2.571924 0.029618 -0.005155 -101161.000000 0 0 1
15.990924 -11.748399 -32.919932 38.437696 -0.633632 2.599148 0.039477 0.001782 182304.000000 0 0 1
14.824724 -11.534499 -32.141132 37.227268 -0.661218 2.612719 0.052064 -0.008851 839573.000000 0 0 1
13.486224 -11.689999 -32.962932 37.484520 -0.714173 2.645343 0.054606 -0.007169 -330710.000000 0 0 1
13.379724 -13.065599 -33.401932 38.280752 -0.773520 2.631198 0.055638 -0.009851 86674.500000 0 0 1
12.212124 -13.435499 -34.116732 38.647122 -0.833061 2.652534 0.046645 -0.008215 -90704.200000 0 0 1
10.956524 -13.411099 -33.247232 37.487084 -0.885791 2.661384 0.036853 -0.007803 -1096950.000000 0 0 1
10.392724 -12.147699 -32.988732 36.658311 -0.863100 2.690331 0.060678 -0.004769 -389788.000000 0 0 1
9.303424 -12.282099 -32.113032 35.618121 -0.922526 2.694233 0.056774 -0.019126 -977025.000000 0 0 1
8.193924 -11.297699 -32.260332 35.149786 -0.943309 2.733290 0.056170 -0.012012 -1003540.000000 0 0 1
8.614924 -9.967399 -32.117232 34.714299 -0.858053 2.752325 0.059431 -0.007143 670676.000000 0 0 1
7.618924 -9.183299 -32.758432 34.863963 -0.878236 2.792277 0.069515 -0.006486 491474.000000 0 0 1
8.174324 -7.718099 -32.973732 34.837561 -0.756699 2.813006 0.070494 -0.007142 130797.000000 0 0 1
8.418724 -7.052899 -31.761132 33.606366 -0.697347 2.808675 0.061132 -0.007318 270104.000000 0 0 1
8.928824 -5.775899 -32.064332 33.781745 -0.574180 2.821358 0.057574 -0.001701 -52716.900000 0 0 1
9.217024 -4.959899 -30.762032 32.493950 -0.493679 2.813629 0.061682 -0.004862 1226020.000000 0 0 1
7.965924 -4.525899 -30.146932 31.508368 -0.516677 2.846555 0.069952 -0.007356 1148290.000000 0 0 1
8.203224 -3.570099 -29.155332 30.497080 -0.410484 2.843860 0.068714 -0.010629 -18265.300000 0 0 1
6.925524 -3.016799 -28.499432 29.483582 -0.410820 2.882491 0.061008 -0.009858 -423110.000000 0 0 1
6.210824 -2.225699 -29.475832 30.205178 -0.344101 2.921392 0.053843 -0.000579 800757.000000 0 0 1
5.044524 -1.552699 -28.962832 29.439833 -0.298596 2.961335 0.046678 -0.006878 653321.000000 0 0 1
3.748224 -2.373299 -28.908932 29.247361 -0.564460 2.989319 0.029638 -0.006967 -723216.000000 0 0 1
3.892124 -3.362599 -27.907332 28.377366 -0.712537 2.959331 0.033712 -0.018545 160266.000000 0 0 1
2.823524 -4.319699 -27.891132 28.364544 -0.991867 2.958634 0.041329 -0.015793 483023.000000 0 0 1
2.994624 -5.411299 -26.747732 27.453435 -1.065345 2.914364 0.043199 -0.022034 -11311.500000 0 0 1
2.681324 -4.906499 -25.466932 26.073509 -1.070656 2.925468 0.043367 -0.027268 4660.390000 0 0 1
2.863524 -5.822599 -24.381632 25.230268 -1.113734 2.881493 0.048828 -0.029579 -128438.000000 0 0 1
2.888824 -5.110699 -23.015232 23.752168 -1.056320 2.891842 0.053743 -0.037031 26836.000000 0 1 0
4.046224 -4.325199 -22.813832 23.570113 -0.818711 2.887587 0.047883 -0.031920 -115518.000000 0 1 0
3.955424 -3.636599 -21.601732 22.259943 -0.743428 2.897805 0.046191 -0.030554 4643.810000 0 1 0
5.111524 -2.688499 -21.248432 22.019346 -0.484206 2.876199 0.067503 -0.028849 368593.000000 0 1 0
6.401724 -3.229699 -20.975932 22.167606 -0.467245 2.812211 0.059533 -0.027365 207306.000000 0 1 0
7.201224 -2.176999 -20.445432 21.785607 -0.293574 2.789009 0.074193 -0.022587 -131772.000000 0 1 0
8.657024 -2.626499 -20.266032 22.193572 -0.294569 2.721739 0.058235 -0.017953 -1275420.000000 0 1 0
9.383924 -2.803099 -21.475732 23.603442 -0.290276 2.713733 0.067349 -0.023945 1079280.000000 0 1 0
10.687124 -3.403999 -21.270832 24.046832 -0.308354 2.656343 0.068667 -0.025894 1113060.000000 0 1 0
11.751824 -2.486899 -20.648132 23.887976 -0.208541 2.614699 0.042898 -0.014709 -1305510.000000 0 1 0
11.591324 -2.469799 -19.244932 22.601463 -0.209934 2.589618 0.047793 -0.007386 388157.000000 0 1 0
12.620724 -1.796199 -18.512232 22.476916 -0.141372 2.538545 0.036884 -0.013610 148713.000000 0 1 0
12.604224 -0.236099 -18.626432 22.491469 -0.018730 2.546605 0.033624 -0.012292 -184344.000000 0 1 0
13.015824 0.367601 -19.829132 23.722169 0.028235 2.560549 0.038397 -0.014969 143378.000000 0 1 0
12.879824 1.756501 -19.700232 23.602422 0.135540 2.558330 0.045600 -0.022929 -78193.500000 0 1 0
13.125924 2.547401 -21.005732 24.900199 0.191691 2.574743 0.035097 -0.019520 -643336.000000 0 1 0
14.458824 2.619801 -21.406832 25.964850 0.179246 2.540034 0.034506 -0.016408 -415747.000000 0 0 1
14.596924 3.723001 -22.236932 26.859116 0.249729 2.546167 0.045723 -0.021275 -883796.000000 0 0 1
15.990724 3.850301 -22.803032 28.115945 0.236286 2.516717 0.034983 -0.016290 -720995.000000 0 0 1
16.324824 2.904301 -23.749332 28.964904 0.176065 2.532093 0.021920 -0.012015 178500.000000 0 0 1
17.361124 1.995401 -23.374632 29.184991 0.114433 2.499614 0.022384 -0.013730 38400.800000 0 0 1
9.082599 27.123601 3.490015 28.816029 1.247673 1.449385 -0.005271 0.003579 -58041.500000 0 0 1
9.010099 27.444201 4.811415 29.283370 1.253577 1.405743 -0.000447 -0.001884 862214.000000 0 0 1
10.303899 27.889801 5.263115 30.194564 1.216900 1.395595 0.006422 -0.002599 699353.000000 0 0 1
10.297199 28.542301 6.649115 31.062936 1.224559 1.355074 0.007243 -0.010894 -167281.000000 0 0 1
10.260799 27.614701 7.710915 30.451829 1.215036 1.314792 0.003041 -0.014896 41968.500000 0 0 1
10.192599 28.294001 8.971315 31.383500 1.225029 1.280892 0.011394 -0.011585 -591873.000000 0 0 1
10.235999 27.319801 10.224015 30.914037 1.212312 1.233726 0.024623 -0.005887 -71339.300000 0 0 1
11.461299 26.693301 10.502915 30.890207 1.165230 1.223871 0.031015 -0.011595 -260952.000000 0 0 1
11.909599 25.775901 9.533615 29.952052 1.137972 1.246865 0.030456 -0.014799 98691.000000 0 0 1
13.194799 25.002701 9.991415 29.984432 1.085208 1.231080 0.041578 -0.016986 60065.600000 0 0 1
14.323299 25.794801 10.132715 31.196162 1.063910 1.239989 0.044499 -0.021874 -1189890.000000 0 0 1
15.365999 25.112001 10.692515 31.321820 1.021674 1.222416 0.050731 -0.020348 -321841.000000 0 0 1
16.692099 25.890901 10.894015 32.674829 0.998150 1.230881 0.042071 -0.020336 -422130.000000 0 0 1
17.254899 26.449101 9.664615 33.025615 0.992749 1.273810 0.030446 -0.020692 679281.000000 0 0 1
18.672199 26.453201 9.576515 33.765848 0.956150 1.283234 0.032383 -0.029275 550067.000000 0 0 1
19.446199 27.256101 10.659215 35.137851 0.951092 1.262586 0.025573 -0.021319 -1182960.000000 0 0 1
19.464899 28.648401 10.646415 36.234780 0.974002 1.272578 0.021669 -0.022361 -1165520.000000 0 0 1
18.313699 29.272501 11.003915 36.240268 1.011745 1.262288 0.022146 -0.009024 -1248240.000000 0 0 1
18.499499 30.768801 11.296615 37.637270 1.029464 1.265952 0.018338 0.003634 -630719.000000 0 0 1
18.804499 31.633301 10.231115 38.196212 1.034466 1.299628 0.029729 -0.019143 477845.000000 0 0 1
17.810499 31.767801 9.193115 37.562220 1.059816 1.323541 0.048376 -0.024016 223003.000000 0 0 1
16.520999 32.503201 9.564615 37.694606 1.100540 1.314252 0.042860 -0.021531 -520817.000000 0 0 1
16.529899 33.919801 9.811715 38.987949 1.117342 1.316401 0.031812 -0.014545 -1096060.000000 0 0 1
15.262199 34.332001 10.143615 38.916756 1.152486 1.307102 0.038172 -0.002892 -830065.000000 0 0 1
15.183499 -33.029169 10.146815 37.741523 -1.139905 1.298597 0.037914 -0.001295 -80438.600000 0 0 1
15.334499 -32.493769 8.845415 37.003152 -1.129863 1.329414 0.031725 -0.004354 -101781.000000 0 0 1
15.531899 -31.056869 8.966815 35.863251 -1.107059 1.318087 0.038584 0.001052 68454.000000 0 0 1
16.358399 -30.615169 7.685215 35.552051 -1.080069 1.352908 0.023486 0.006966 548186.000000 0 0 1
15.613299 -30.708469 6.488315 35.055434 -1.100423 1.384636 0.023788 0.008508 -284089.000000 0 0 1
16.339999 -30.046769 5.523515 34.645536 -1.072711 1.410684 0.012551 0.013961 -27179.100000 0 0 1
15.909299 -30.366469 4.031015 34.517783 -1.088204 1.453748 0.012547 -0.005033 42997.200000 0 0 1
16.287499 -31.658669 3.611815 35.785460 -1.095638 1.469695 0.023665 -0.006269 -66639.300000 0 0 1
16.214099 -31.745169 2.210815 35.714710 -1.098579 1.508855 0.017559 -0.012655 -238206.000000 0 0 1
16.522899 -33.147369 1.731415 37.077649 -1.108375 1.524082 0.035915 -0.013841 294313.000000 0 0 1
17.911099 -33.459569 1.876415 37.998305 -1.079305 1.521395 0.041870 -0.001792 492992.000000 0 0 1
18.211799 34.131901 1.411715 38.712391 1.080654 1.534321 0.072055 -0.010112 152611.000000 0 0 1
19.678299 33.655701 1.592715 39.018949 1.041707 1.529966 0.083005 -0.012063 353407.000000 0 0 1
19.984499 33.400201 2.981915 39.036463 1.031602 1.494334 0.077663 -0.028620 -1111280.000000 0 0 1
21.299299 33.047101 3.126715 39.440428 0.998288 1.491436 0.045125 -0.020213 -1117660.000000 0 0 1
21.825799 33.076601 4.617615 39.896734 0.987524 1.454797 0.049752 -0.017051 -149179.000000 0 0 1
21.136999 32.181601 5.498315 38.892925 0.989653 1.428951 0.067339 -0.032588 152641.000000 0 0 1
21.707199 30.872201 5.637315 38.158545 0.957972 1.422520 0.044440 -0.031546 150164.000000 0 0 1
20.854499 30.011501 6.602615 37.137512 0.963512 1.392058 0.043973 -0.039763 -13430.600000 0 0 1
19.737899 29.474501 5.951215 35.968706 0.980724 1.404577 0.048865 -0.035335 -794462.000000 0 0 1
18.838999 28.888901 6.865115 35.165413 0.992933 1.374311 0.049828 -0.042263 -707512.000000 0 0 1
17.440199 28.920001 6.258915 34.346776 1.028137 1.387545 0.055868 -0.040528 -1040430.000000 0 0 1
16.966499 30.276701 6.215815 35.258716 1.060018 1.393579 0.051943 -0.046211 78012.900000 0 0 1
17.222699 30.897801 4.976815 35.722040 1.062283 1.431021 0.064161 -0.048864 -423706.000000 0 0 1
17.267699 32.468701 5.067315 37.122333 1.082013 1.433866 0.070762 -0.040626 871392.000000 0 0 1
15.986599 33.014301 5.419915 37.079521 1.119842 1.424101 0.055005 -0.033402 432065.000000 0 0 1
15.959299 -34.416669 5.499715 38.333448 -1.136601 1.426829 0.043280 -0.029120 278884.000000 0 0 1
14.519499 -33.834969 5.662915 37.251706 -1.165435 1.418187 0.038343 -0.022787 791659.000000 0 0 1
13.562099 -34.118269 4.654715 37.008826 -1.192445 1.444689 0.048745 -0.026424 -192444.000000 0 0 1
12.612199 -33.100569 4.598215 35.719166 -1.206753 1.441706 0.042520 -0.019990 -355742.000000 0 0 1
11.640599 -33.099269 3.427915 35.253592 -1.232619 1.473407 0.041955 -0.021422 705752.000000 0 0 1
10.660699 -32.001969 3.453015 33.907224 -1.249232 1.468782 0.040333 -0.023827 772216.000000 0 0 1
10.123499 -31.834369 2.160215 33.475048 -1.262904 1.506219 0.044732 -0.018686 -298343.000000 0 0 1
9.449699 -30.419969 1.917315 31.911557 -1.269606 1.510678 0.053999 -0.017532 95136.200000 0 0 1
8.734699 -30.100169 0.756715 31.351041 -1.288366 1.546657 0.053677 -0.009521 404878.000000 0 0 1
7.625499 -30.925669 0.418115 31.854671 -1.329044 1.557670 0.040912 -0.009835 -170280.000000 0 0 1
7.862299 -31.361969 -1.034285 32.349013 -1.325163 1.602774 0.051024 -0.014405 805536.000000 0 0 1
9.054599 -32.184969 -1.147985 33.454086 -1.296555 1.605118 0.040806 -0.014807 715565.000000 0 0 1
9.069899 -33.089769 -2.201685 34.380857 -1.303267 1.634878 0.026142 -0.003741 -380101.000000 0 0 1
10.323399 -33.973469 -2.192485 35.574938 -1.275796 1.632465 0.038464 -0.006402 -147898.000000 0 0 1
10.472499 34.127701 -1.024885 35.713073 1.273056 1.599498 0.038692 -0.005470 160645.000000 0 0 1
11.556699 33.229501 -1.198885 35.202192 1.236097 1.604860 0.058757 -0.016743 -194015.000000 0 0 1
11.842699 32.266701 0.018415 34.371352 1.219035 1.570261 0.050527 -0.016435 -281573.000000 0 0 1
12.166999 32.848101 1.275915 35.052269 1.216063 1.534388 0.047433 -0.019428 834705.000000 0 0 1
13.426699 33.545101 1.363315 36.158106 1.190067 1.533083 0.055062 -0.021110 -36695.700000 0 0 1
14.619599 32.672101 1.713415 35.834824 1.150053 1.522964 0.067671 -0.032579 -1018830.000000 0 0 1
15.116399 32.030101 0.599315 35.423044 1.129845 1.553877 0.071556 -0.030838 -27696.200000 0 0 1
16.030399 30.969801 0.830115 34.882536 1.093157 1.546997 0.072569 -0.030548 266078.000000 0 0 1
16.630199 30.227701 -0.404585 34.502769 1.067827 1.582523 0.062946 -0.018541 95649.000000 0 0 1
17.635099 30.838501 -1.170185 35.544046 1.051330 1.603724 0.045875 -0.010076 -148063.000000 0 0 1
17.150599 31.908801 -1.982885 36.280111 1.077610 1.625478 0.049066 -0.015377 -266071.000000 0 0 1
18.256299 32.729101 -2.647185 37.569856 1.061984 1.641315 0.039044 -0.003517 -102102.000000 0 0 1
18.951099 33.598201 -1.751185 38.614115 1.057229 1.616163 0.031045 0.002110 -410924.000000 0 0 1
19.874099 34.302801 -2.482885 39.721866 1.045682 1.633344 0.033627 0.009141 -1540930.000000 0 0 1
20.926099 -33.754969 -1.721585 39.752527 -1.015843 1.614117 0.029572 0.008856 -261477.000000 0 0 1
22.019699 -34.395269 -1.047885 40.853394 -1.001344 1.596449 0.024924 0.005405 828942.000000 0 0 1
22.866699 33.625201 -1.790485 40.703143 0.973588 1.614799 0.016995 0.009837 -182097.000000 0 0 1
23.688299 34.371501 -2.945085 41.847450 0.967366 1.641231 0.015591 0.009385 -887393.000000 0 0 1
22.953099 -34.230369 -4.115185 41.418567 -0.980112 1.670317 0.008011 0.004479 165498.000000 0 0 1
23.701599 -33.425269 -5.045085 41.285195 -0.953994 1.693303 0.017347 0.003612 352077.000000 0 0 1
22.831899 -33.026069 -6.276885 40.637620 -0.965913 1.725877 0.023302 -0.004586 177132.000000 0 0 1
21.652599 -32.313469 -5.972485 39.353093 -0.980435 1.723152 0.028819 -0.000062 -69807.700000 0 0 1
21.208899 -31.627869 -7.119685 38.740540 -0.980092 1.755626 0.026679 -0.006534 216915.000000 0 0 1
20.259499 -30.444369 -6.780385 37.192480 -0.983630 1.754127 0.041817 -0.006000 296922.000000 0 0 1
18.990099 -30.732669 -6.250085 36.663120 -1.017310 1.742106 0.026294 0.003518 -175351.000000 0 0 1
18.199799 -29.568669 -6.090485 35.250999 -1.019051 1.744442 0.032753 -0.009294 202226.000000 0 0 1
17.030599 -29.709869 -5.102985 34.623086 -1.050293 1.718722 0.034145 -0.000611 -158019.000000 0 0 1
16.096799 -30.650069 -5.535185 35.059549 -1.087208 1.729339 0.036321 -0.006252 118318.000000 0 0 1
14.995799 -30.768369 -4.603685 34.536364 -1.117298 1.704494 0.034937 -0.011076 761721.000000 0 0 1
13.844599 -31.632269 -5.139585 34.909722 -1.158240 1.718558 0.034037 -0.007887 -11068.600000 0 0 1
14.102299 -33.016069 -4.940385 36.240076 -1.167119 1.707546 0.030146 -0.004547 -214877.000000 0 0 1
13.025799 -33.767569 -5.419085 36.596266 -1.202636 1.719420 0.029034 0.000138 -211967.000000 0 0 1
13.266399 33.599301 -5.350585 36.517655 1.194745 1.717846 0.034530 0.001627 3344.110000 0 0 1
13.167899 33.103601 -3.954885 35.845266 1.192207 1.681354 0.055447 -0.010060 -865.401000 0 0 1
13.702099 31.811401 -3.856585 34.850911 1.164083 1.681683 0.054919 -0.011417 -178253.000000 0 0 1
12.786199 30.643601 -4.312485 33.483051 1.175504 1.699951 0.049672 -0.012395 34707.500000 0 0 1
11.629499 30.448001 -3.526485 32.783564 1.205950 1.678574 0.043080 -0.013327 120860.000000 0 0 1
11.635399 29.160901 -2.967785 31.536461 1.191146 1.665042 0.043558 -0.021359 -855829.000000 0 0 1
10.454199 28.911401 -2.078785 30.813645 1.223830 1.638311 0.041470 -0.017142 -868784.000000 0 0 1
10.430799 29.632401 -0.880285 31.426989 1.232335 1.598810 0.023474 -0.010799 -48444.200000 0 0 1
9.525499 29.093201 0.078115 30.612997 1.254383 1.568245 0.009520 0.006635 394041.000000 0 0 1
8.100999 29.719301 0.083115 30.803732 1.304678 1.568098 -0.000623 0.017872 240282.000000 0 0 1
7.308899 29.128201 1.079215 30.050571 1.324950 1.534875 -0.003829 0.009807 -288577.000000 0 0 1
6.002999 29.679401 1.104515 30.300541 1.371227 1.534336 0.002681 0.019939 126808.000000 0 0 1
4.979199 28.668801 1.675515 29.146182 1.398832 1.513278 0.005759 0.022145 -18510.500000 0 0 1
4.553399 27.684301 0.779715 28.067096 1.407780 1.543012 0.008527 0.013711 258059.000000 0 0 1
3.454299 26.983001 1.359415 27.237153 1.443471 1.520865 0.015873 0.005020 392608.000000 0 0 1
2.855799 25.925401 0.407615 26.085401 1.461084 1.555170 0.024117 0.002318 482931.000000 0 0 1
1.676099 25.356501 0.979615 25.430711 1.504791 1.532266 0.035613 -0.007006 365772.000000 0 0 1
1.083999 24.344401 0.176415 24.369161 1.526298 1.563557 0.032739 -0.010655 409568.000000 0 1 0
-0.238501 23.844001 0.832415 23.859719 -1.560794 1.535901 0.037633 -0.009440 290646.000000 0 1 0
-1.271401 24.815401 0.830515 24.861825 -1.519607 1.537385 0.040650 -0.009473 -392893.000000 0 1 0
-2.462501 24.094201 1.078315 24.243704 -1.468947 1.526304 0.030754 -0.009433 -496724.000000 0 1 0
-3.671501 25.045201 1.158615 25.339384 -1.425238 1.525057 0.036263 -0.016201 -62986.600000 0 0 1
-4.881601 24.293801 1.313315 24.814181 -1.372497 1.517846 0.025193 -0.014569 181486.000000 0 1 0
-5.916801 24.997901 1.934715 25.761341 -1.338382 1.495624 0.019534 -0.011696 67756.000000 0 0 1
-7.059601 25.543201 1.055715 26.521833 -1.301149 1.530980 0.018757 -0.010525 -328815.000000 0 0 1
-6.604401 26.621501 0.319615 27.430358 -1.327621 1.559144 0.018219 -0.010052 -300279.000000 0 0 1
-7.489901 26.913801 -0.716985 27.945757 -1.299372 1.596455 0.004526 -0.005182 -556314.000000 0 0 1
-7.130501 28.081101 -1.594685 29.016121 -1.322127 1.625783 -0.002100 0.001508 -121952.000000 0 0 1
-7.420401 29.368501 -1.041285 30.309330 -1.323311 1.605158 0.011717 -0.009051 23107.100000 0 0 1
-7.179601 30.374401 -2.014985 31.276366 -1.338686 1.635266 0.009268 -0.004946 -72523.400000 0 0 1
-7.361901 31.742201 -1.319985 32.611459 -1.342898 1.611284 0.015003 -0.006795 -717345.000000 0 0 1
-7.525701 32.876101 -2.187085 33.797300 -1.345762 1.635553 0.016783 0.003833 446481.000000 0 0 1
-6.444401 33.249501 -3.071185 34.007231 -1.379351 1.661229 0.014046 0.006964 1157910.000000 0 0 1
-5.128301 33.728301 -2.356985 34.197268 -1.419905 1.639774 0.014691 0.002444 -14792.200000 0 0 1
-5.279901 -33.910269 -1.735685 34.362717 1.416334 1.621329 0.020188 0.005959 201514.000000 0 0 1
-4.203001 -33.500669 -0.897185 33.775213 1.445988 1.597363 0.024004 0.005703 113312.000000 0 0 1
-4.066501 -31.946069 -0.797185 32.213713 1.444185 1.595546 0.036022 -0.006480 318849.000000 0 0 1
-5.273501 -31.282069 -0.440785 31.726518 1.403788 1.584690 0.042275 -0.014277 72593.800000 0 0 1
-5.560401 -30.281069 -1.397885 30.819074 1.389193 1.616170 0.050937 -0.012105 -416493.000000 0 0 1
-7.009901 -29.801969 -1.351785 30.645121 1.339780 1.614922 0.074591 -0.015246 -380181.000000 0 0 1
-7.336101 -29.316569 -0.075185 30.220610 1.325594 1.573284 0.061547 -0.009378 -680759.000000 0 0 1
-8.555601 -28.634769 -0.051385 29.885631 1.280456 1.572516 0.036559 -0.008613 -554429.000000 0 0 1
-8.732301 -27.925669 1.333215 29.289478 1.267731 1.525262 0.043046 -0.003967 410065.000000 0 0 1
-7.672301 -26.971169 1.578615 28.085587 1.293654 1.514559 0.040152 -0.010981 418228.000000 0 0 1
-7.375901 -26.692369 2.911115 27.845306 1.301194 1.466059 0.043186 -0.007957 275433.000000 0 0 1
-8.269501 -25.588969 3.578415 27.129044 1.258224 1.438507 0.031679 -0.003656 -52902.700000 0 0 1
-7.932401 -24.340269 3.139515 25.792019 1.255754 1.448769 0.024906 -0.000569 -23659.100000 0 0 1
-8.806901 -23.378469 3.683515 25.252378 1.210527 1.424406 0.024960 -0.000099 -163867.000000 0 0 1
-7.949801 -22.123769 3.892715 23.828842 1.225831 1.406699 0.003508 0.014467 624378.000000 0 1 0
-7.174401 -22.163469 5.095915 23.846588 1.257737 1.355440 0.002188 0.010589 -318190.000000 0 1 0
-6.637601 -20.932969 5.544915 22.649350 1.263737 1.323467 -0.014290 0.017613 -336047.000000 0 1 0
-7.612801 -19.806969 5.936315 22.034305 1.203854 1.298014 -0.003221 0.007883 -28707.300000 0 1 0
-8.208901 -20.125769 7.211415 22.900593 1.183515 1.250444 0.000237 0.003420 -131161.000000 0 1 0
-8.889401 -19.032569 7.700315 22.373086 1.133844 1.219434 0.000479 -0.003897 -669933.000000 0 1 0
-26.958001 29.123501 -5.737985 40.097838 -0.823992 1.714389 0.044117 -0.000021 -229482.000000 0 0 1
-26.310201 29.970901 -4.821485 40.171237 -0.850350 1.691110 0.041842 -0.014192 -59711.400000 0 0 1
-25.398931 29.260801 -3.998085 38.952341 -0.855934 1.673618 0.026614 -0.009039 -165088.000000 0 0 1
-24.439801 30.133001 -3.198885 38.929866 -0.889345 1.653060 0.021801 -0.015825 -824208.000000 0 0 1
-25.019801 31.023601 -2.276385 39.920373 -0.892119 1.627850 0.029718 -0.020273 431158.000000 0 0 1
-24.071501 31.974701 -1.745385 40.060767 -0.925487 1.614379 0.032987 -0.020964 1152420.000000 0 0 1
-22.833601 31.535101 -0.886785 38.943835 -0.944098 1.593569 0.031027 -0.016496 1183470.000000 0 0 1
-21.741901 31.005001 -1.668085 37.905182 -0.959240 1.614817 0.029093 -0.014111 910854.000000 0 0 1
-20.550501 30.860801 -0.892985 37.087862 -0.983318 1.594876 0.019800 -0.005674 192913.000000 0 0 1
-19.432901 30.136601 -1.636385 35.896101 -0.998066 1.616399 0.030693 -0.010818 1007280.000000 0 0 1
-18.162801 30.170101 -0.891285 35.226648 -1.028898 1.596100 0.030129 -0.006096 1442200.000000 0 0 1
-17.193501 29.417201 -1.620385 34.111784 -1.041873 1.618316 0.036914 -0.001572 852371.000000 0 0 1
-15.717101 29.710201 -1.177585 33.631979 -1.084208 1.605817 0.040540 -0.005453 584745.000000 0 0 1
-15.406201 29.140901 0.064615 32.962817 -1.084469 1.568836 0.040596 -0.005515 -240463.000000 0 0 1
-14.310401 29.760801 0.671215 33.029432 -1.122588 1.550473 0.040456 -0.007167 -388961.000000 0 0 1
-13.796101 29.135201 1.937015 32.294649 -1.128556 1.510781 0.037559 -0.008443 -237462.000000 0 0 1
-14.606401 29.274401 3.101015 32.862650 -1.107991 1.476293 0.038184 -0.007984 -2611.220000 0 0 1
-14.131701 28.557101 4.246015 32.144076 -1.111271 1.438316 0.044451 -0.016612 423348.000000 0 0 1
-12.940501 29.107701 5.088015 32.258374 -1.152465 1.412408 0.052071 -0.012930 259515.000000 0 0 1
-13.238301 30.219501 5.904815 33.516230 -1.157906 1.393694 0.053005 -0.016514 -271248.000000 0 0 1
-13.377201 31.442101 5.229015 34.567294 -1.168540 1.418943 0.040948 -0.003176 -24752.500000 0 0 1
-13.185401 32.686601 6.125015 35.774075 -1.187372 1.398735 0.050047 -0.011770 -51135.200000 0 0 1
-14.260901 32.923401 6.997215 36.555227 -1.162040 1.378193 0.055708 -0.014833 -23831.000000 0 0 1
-13.964301 34.056701 7.840315 37.634175 -1.181673 1.360929 0.072934 -0.016525 293068.000000 0 0 1
-15.169501 -34.374069 8.703815 38.567432 1.155195 1.343158 0.056799 -0.015565 129613.000000 0 0 1
-15.354301 33.693901 9.862615 38.318464 -1.143213 1.310481 0.045869 -0.021239 -535367.000000 0 0 1
-16.414601 34.059401 10.674615 39.286503 -1.121701 1.295625 0.048230 -0.022298 -1108080.000000 0 0 1
-16.646901 33.057701 11.818015 38.853524 -1.104296 1.261731 0.057277 -0.016966 315450.000000 0 0 1
-15.816701 33.105001 12.972715 38.915298 -1.125087 1.230934 0.076023 -0.026158 -329990.000000 0 0 1
-14.433201 32.994201 12.816615 38.225648 -1.158431 1.228885 0.080236 -0.027677 -1153360.000000 0 0 1
-13.707301 33.093401 14.138315 38.509158 -1.178108 1.194862 0.089150 -0.029738 -480487.000000 0 0 1
-13.983301 32.109401 15.084015 38.132320 -1.160075 1.164108 0.082534 -0.025781 519136.000000 0 0 1
-13.249601 30.862201 14.873215 36.732001 -1.165277 1.153914 0.065055 -0.024608 129786.000000 0 0 1
-14.015601 29.820201 14.038515 35.815658 -1.131433 1.168029 0.067644 -0.020474 36934.400000 0 0 1
-13.989101 30.051701 12.637815 35.475541 -1.135127 1.206555 0.068874 -0.018580 33341.800000 0 0 1
-15.182301 29.561801 12.084515 35.361530 -1.096345 1.222027 0.047297 -0.017840 -231348.000000 0 0 1
-15.165201 29.404201 10.540615 34.723118 -1.094629 1.262368 0.039857 -0.011153 -38542.600000 0 0 1
-14.324601 28.355101 10.125615 33.342675 -1.103009 1.262240 0.032047 -0.012809 33447.900000 0 0 1
-14.245101 28.214601 8.737115 32.792130 -1.103249 1.301099 0.030140 -0.011869 -504818.000000 0 0 1
-13.456101 26.978701 8.300115 31.269935 -1.108135 1.302142 0.036649 -0.006746 -311093.000000 0 0 1
-12.083501 27.179001 8.580815 30.957058 -1.152451 1.289934 0.048625 -0.013701 -206521.000000 0 0 1
-11.448601 25.995201 8.180915 29.559234 -1.155944 1.290372 0.051558 -0.012747 133336.000000 0 0 1
-10.216101 26.198101 7.235515 29.035528 -1.198979 1.318947 0.055819 -0.019850 194256.000000 0 0 1
-10.577801 26.541201 5.885715 29.171336 -1.191547 1.367638 0.058520 -0.016546 922387.000000 0 0 1
-9.431601 26.367801 5.040615 28.453889 -1.227284 1.392706 0.051200 -0.014748 298236.000000 0 0 1
-9.628901 26.686501 3.512315 28.587085 -1.224519 1.447621 0.040691 -0.012155 -179240.000000 0 0 1
-9.600901 28.019601 3.231015 29.794543 -1.240685 1.462139 0.045412 -0.011025 153581.000000 0 0 1
-9.959001 28.335801 1.910515 30.095670 -1.232818 1.507272 0.028549 -0.008835 -14673.400000 0 0 1
-9.615101 29.804701 1.523915 31.354309 -1.258734 1.522174 0.035654 -0.007444 -280839.000000 0 0 1
-10.428201 30.706101 2.154015 32.500027 -1.243404 1.504470 0.031128 -0.009308 -296172.000000 0 0 1
-10.036801 32.059401 1.830215 33.643606 -1.267393 1.516369 0.036132 -0.009212 323669.000000 0 0 1
-10.892701 33.046901 2.710615 34.901232 -1.252397 1.493053 0.042031 -0.002539 1060940.000000 0 0 1
-12.217501 33.389801 2.281015 35.627927 -1.220023 1.506729 0.045849 0.001069 374523.000000 0 0 1
-12.382501 34.329501 1.235215 36.515294 -1.224625 1.536963 0.030162 0.000906 1507440.000000 0 0 1
-13.867901 -34.277869 0.675815 36.983074 1.186354 1.552522 0.027738 0.002739 1767590.000000 0 0 1
-14.522501 33.575501 -0.018785 36.581657 -1.162563 1.571310 0.022324 0.005446 -200738.000000 0 0 1
-14.526301 33.590601 -1.441585 36.625402 -1.162631 1.610167 0.027557 -0.003666 -267561.000000 0 0 1
-13.223301 33.288001 -2.202185 35.885879 -1.192672 1.632201 0.034349 -0.001017 -332576.000000 0 0 1
-12.893801 31.922001 -2.134185 34.493753 -1.186919 1.632708 0.028185 -0.001639 272368.000000 0 0 1
-11.480301 31.843201 -2.290285 33.926865 -1.224775 1.638354 0.020799 0.000727 334405.000000 0 0 1
-11.060301 30.384801 -2.559785 32.436382 -1.221697 1.649796 0.002977 -0.003832 -120455.000000 0 0 1
-11.308501 29.768101 -3.808585 32.070662 -1.207748 1.689833 0.016877 -0.009165 -436574.000000 0 0 1
-10.254701 29.969801 -4.711285 32.024117 -1.241116 1.718449 0.011131 -0.003617 -205640.000000 0 0 1
-10.330801 29.319401 -6.105685 31.680153 -1.232026 1.764739 0.015102 -0.005417 -149209.000000 0 0 1
-10.566001 27.907701 -6.045385 30.447115 -1.208869 1.770678 0.022888 -0.006219 132866.000000 0 0 1
-10.441901 27.371601 -7.333985 30.199754 -1.206351 1.816098 0.021847 -0.003371 65520.800000 0 0 1
-11.017101 25.951801 -7.439585 29.158531 -1.169331 1.828792 0.029636 -0.012496 272945.000000 0 0 1
-10.088801 24.973801 -6.953085 27.817621 -1.186868 1.823428 -0.001158 -0.003769 392122.000000 0 0 1
-10.577801 23.649001 -7.140885 26.872985 -1.150204 1.839755 0.048297 -0.021173 -272910.000000 0 0 1
-10.147201 22.550901 -6.101685 25.470363 -1.147968 1.812709 0.014026 -0.012436 -1089130.000000 0 0 1
-8.778901 22.284801 -6.134385 24.724727 -1.195524 1.821522 0.007389 -0.015641 -542591.000000 0 1 0
-8.355001 21.080201 -5.588885 23.354155 -1.193446 1.812452 0.013552 -0.012720 -320388.000000 0 1 0
-8.344501 21.127401 -4.016185 23.067889 -1.194641 1.745791 0.005485 -0.013286 -85323.900000 0 1 0
-9.547601 21.006001 -3.260885 23.303264 -1.144192 1.711190 0.014167 -0.016048 88173.700000 0 1 0
-10.034201 19.695101 -3.187885 22.332595 -1.099596 1.714031 0.017849 -0.016606 -787946.000000 0 1 0
-11.394701 19.625901 -2.515385 22.832923 -1.044767 1.681185 0.022265 -0.017412 -706056.000000 0 1 0
-11.482301 19.536001 -1.096085 22.687000 -1.039432 1.619129 0.030341 -0.017599 91655.100000 0 1 0
-11.116201 18.329101 -0.503185 21.442459 -1.025627 1.594265 0.032484 -0.019325 -336635.000000 0 1 0
-10.924801 18.357101 1.034715 21.387030 -1.033968 1.522397 0.034387 -0.016097 537296.000000 0 1 0
-12.151701 18.373501 1.784015 22.100499 -0.986469 1.489986 0.046285 -0.018969 750991.000000 0 1 0
-11.917701 18.440501 3.202015 22.188658 -0.997042 1.425982 0.042863 -0.015106 -466660.000000 0 1 0
-13.235101 18.296301 3.952415 22.924749 -0.944554 1.397522 0.035926 -0.019090 -163628.000000 0 1 0
-13.748601 16.978501 4.137615 22.235408 -0.890129 1.383623 0.030150 -0.021456 1410440.000000 0 1 0
-15.021701 17.047101 4.845815 23.232242 -0.848472 1.360672 0.032210 -0.023453 915309.000000 0 1 0
-15.550901 15.698301 5.372515 22.740516 -0.790115 1.332288 0.027064 -0.028758 -473172.000000 0 1 0
-14.780501 15.095301 6.448915 22.088907 -0.795935 1.274529 0.029140 -0.023400 370003.000000 0 1 0
-15.108201 15.657501 7.698515 23.079909 -0.803251 1.230720 0.016054 -0.014758 -971231.000000 0 1 0
-14.008201 15.693401 8.758615 22.786528 -0.842075 1.176264 0.005503 -0.005124 85930.300000 0 1 0
-12.860601 16.466301 8.519415 22.563567 -0.907733 1.183621 0.015200 -0.015432 -104913.000000 0 1 0
-11.903101 15.959001 7.630015 21.321131 -0.929953 1.204819 0.015324 -0.016668 -591301.000000 0 1 0
-10.675401 16.845301 7.396015 21.270387 -1.005943 1.215664 0.020462 -0.028822 44660.600000 0 1 0
-9.733101 17.001001 8.438315 21.330083 -1.050842 1.164068 0.022931 -0.022193 17697.900000 0 1 0
-8.995601 18.184701 8.231515 21.894337 -1.111414 1.185358 0.022959 -0.025382 391526.000000 0 1 0
-7.776401 18.340601 9.220315 21.951407 -1.169774 1.137315 0.024037 -0.017065 -143042.000000 0 1 0
-6.788301 17.366701 8.939315 20.678362 -1.198176 1.123751 0.010995 -0.014651 971261.000000 0 1 0
-5.504001 17.546201 9.604915 20.746508 -1.266831 1.089459 0.012771 -0.019058 1439800.000000 0 1 0
-4.647101 18.713401 9.054215 21.301777 -1.327390 1.131785 0.014134 -0.019257 -1337560.000000 0 1 0
-4.979701 19.942401 9.551415 22.665531 -1.326096 1.135800 0.020618 -0.023624 -219983.000000 0 1 0
-4.538801 21.029201 8.749115 23.224448 -1.358224 1.184543 0.031805 -0.026053 -167401.000000 0 1 0
-3.094501 21.521801 8.819815 23.463865 -1.427991 1.185440 0.028449 -0.024957 -122476.000000 0 1 0
-2.018801 20.709501 8.445415 22.456269 -1.473621 1.185231 0.017623 -0.011502 394359.000000 0 1 0
-0.774901 21.379701 8.263715 22.934277 -1.534567 1.202184 0.024580 -0.018153 541614.000000 0 1 0
0.469199 20.487301 8.075015 22.026246 1.547898 1.195435 0.026097 -0.013875 206249.000000 0 1 0
1.029899 20.272201 9.380615 22.361099 1.520036 1.137895 0.019623 -0.001757 -886441.000000 0 1 0
2.043999 19.340901 9.370215 21.588175 1.465504 1.121820 0.010113 -0.017412 -849571.000000 0 1 0
3.045599 19.506301 10.499715 22.361025 1.415913 1.082010 0.005502 -0.012549 -797619.000000 0 1 0
3.635499 18.275001 10.854915 21.564361 1.374427 1.043298 0.007414 -0.012813 394966.000000 0 1 0
4.522499 18.382501 11.990715 22.408627 1.329565 1.006178 0.003372 -0.006210 800602.000000 0 1 0
5.999199 18.817901 11.736715 22.975079 1.262180 1.034628 0.011087 -0.007514 518514.000000 0 1 0
6.864299 17.879901 11.080115 22.126419 1.204236 1.046315 0.010793 -0.002561 453951.000000 0 1 0
7.584699 17.083601 12.017315 22.221452 1.152964 0.999411 0.011098 0.000949 833805.000000 0 1 0
8.879799 16.336501 11.445315 21.834086 1.072914 1.019027 0.015825 0.000945 552164.000000 0 1 0
9.912599 17.158901 11.116615 22.721501 1.046940 1.059561 0.026210 -0.004948 -1578350.000000 0 1 0
10.949099 16.599301 10.418815 22.449304 0.987694 1.088173 0.024422 -0.005438 -490795.000000 0 1 0
11.828399 17.709301 9.771115 23.430857 0.981926 1.140633 0.029796 0.002452 -273031.000000 0 1 0
12.595599 17.095401 8.778015 22.977280 0.935808 1.178804 0.019375 0.004746 86002.700000 0 1 0
13.533199 18.056301 8.248515 24.025309 0.927615 1.220340 0.030890 0.003082 201221.000000 0 1 0
14.510899 17.661601 7.164515 23.954720 0.883018 1.267062 0.034580 -0.005016 325949.000000 0 1 0
15.598399 16.859701 7.677015 24.217682 0.824238 1.248231 0.036987 -0.007712 1166670.000000 0 1 0
16.596399 16.618401 6.672215 24.415777 0.786061 1.294001 0.036919 -0.007770 -473901.000000 0 1 0
18.025499 16.502301 7.145915 25.461906 0.741312 1.286324 0.031880 -0.002596 -875395.000000 0 0 1
18.221699 15.363301 7.963415 25.129212 0.700493 1.248338 0.036673 -0.006422 483400.000000 0 0 1
19.267599 15.682101 8.879615 26.382119 0.683166 1.227517 0.036805 -0.007647 -1325.460000 0 0 1
19.438999 14.580101 9.912615 26.243360 0.643529 1.183465 0.023927 -0.011071 -256941.000000 0 0 1
19.917999 13.364001 9.362215 25.748287 0.590963 1.198661 0.025363 -0.019196 373862.000000 0 0 1
20.082099 12.447201 10.443115 25.831805 0.554863 1.154612 0.034809 -0.025609 -427784.000000 0 0 1
21.019299 11.299101 10.119115 25.920592 0.493241 1.169742 0.029562 -0.021097 -683435.000000 0 0 1
22.407499 11.541901 10.197815 27.190199 0.475647 1.186340 0.026733 -0.034301 1176230.000000 0 0 1
23.257099 10.613501 9.445515 27.253565 0.428126 1.216875 0.037055 -0.022652 571946.000000 0 0 1
23.397299 9.186501 9.997615 27.051390 0.374138 1.192241 0.048391 -0.025067 -322258.000000 0 0 1
22.213999 8.476801 9.646815 25.658896 0.364542 1.185360 0.051267 -0.025446 598538.000000 0 0 1
22.238199 7.145801 9.933015 25.382371 0.310909 1.168714 0.051343 -0.019078 290199.000000 0 0 1
23.365999 6.184601 9.336415 25.911153 0.258750 1.202181 0.048186 -0.015084 757635.000000 0 0 1
23.244899 6.128601 7.950815 25.319963 0.257787 1.251379 0.042885 -0.008372 365683.000000 0 0 1
24.291699 5.387101 7.345815 25.943564 0.218235 1.283724 0.032302 -0.004295 137055.000000 0 0 1
23.984099 5.069601 5.859015 25.204482 0.208307 1.336191 0.038535 -0.013650 -605147.000000 0 0 1
23.144599 3.987901 5.647615 24.155152 0.170628 1.334806 0.035290 -0.006383 185708.000000 0 1 0
23.014999 3.690901 4.251915 23.693706 0.159015 1.390366 0.048208 -0.013502 55389.400000 0 1 0
22.128299 2.438801 3.933915 22.607190 0.109769 1.395894 0.046707 -0.011566 138925.000000 0 1 0
22.718099 1.226401 4.360715 23.165317 0.053931 1.381423 0.050969 -0.011939 152840.000000 0 1 0
21.970999 0.191301 3.855115 22.307472 0.008707 1.397107 0.046575 -0.010354 -476709.000000 0 1 0
22.467099 -1.197999 4.267815 22.900218 -0.053272 1.383335 0.047816 -0.015443 -456671.000000 0 1 0
22.313899 -1.576299 5.628515 23.066751 -0.070525 1.324298 0.035556 -0.013439 650690.000000 0 1 0
22.397199 -3.000799 5.713115 23.308346 -0.133188 1.323163 0.029012 -0.017796 -750694.000000 0 1 0
22.139599 -3.473099 7.155815 23.525092 -0.155605 1.261721 0.052203 -0.018528 -255177.000000 0 1 0
22.269399 -4.860999 7.322015 23.940914 -0.214911 1.259979 0.046388 -0.022482 484566.000000 0 1 0
22.355799 -5.178199 8.721415 24.549105 -0.227613 1.207600 0.070264 -0.027905 -265524.000000 0 1 0
22.080399 -6.648199 9.066915 24.778045 -0.292457 1.196169 0.075484 -0.030896 -340782.000000 0 1 0
20.761699 -7.024699 8.822115 23.626770 -0.326258 1.188130 0.071877 -0.025525 -436226.000000 0 1 0
20.399599 -8.257799 9.396715 23.929754 -0.384639 1.167253 0.066382 -0.027510 -106985.000000 0 1 0
-26.326021 -33.076569 5.154615 42.587426 0.898553 1.449463 0.023781 -0.022524 -31044.900000 0 0 1
-26.862201 -34.260669 5.653015 43.901343 0.905855 1.441671 0.033427 -0.025439 -16663.600000 0 0 1
-26.961791 -34.148869 7.081115 44.082033 0.902468 1.409462 0.048812 -0.015949 -360887.000000 0 0 1
-27.708171 33.537001 7.683615 44.175911 -0.880284 1.395975 0.056240 -0.012402 -164893.000000 0 0 1
-29.069251 33.479101 7.311215 44.936905 -0.855785 1.407370 0.046318 -0.017628 -224783.000000 0 0 1
-29.658401 32.311201 7.857015 44.557459 -0.828180 1.393535 0.050168 -0.005934 428746.000000 0 0 1
-31.205961 32.391001 8.012415 45.685750 -0.804030 1.394504 0.035680 -0.003030 348418.000000 0 0 1
-31.827141 32.457601 6.747315 45.956382 -0.795205 1.423444 0.026566 0.004648 -975149.000000 0 0 1
-33.198091 32.607201 6.856615 47.035688 -0.776419 1.424500 0.008453 0.009077 -947909.000000 0 0 1
-33.867231 32.539801 5.482015 47.285098 -0.765412 1.454600 0.002239 0.013768 -363292.000000 0 0 1
-33.520661 31.438501 4.704215 46.196793 -0.753356 1.468790 -0.001857 0.009789 -43032.100000 0 0 1
-34.359621 31.294401 3.606815 46.614721 -0.738745 1.493344 0.000114 0.011573 -343836.000000 0 0 1
-33.950711 30.070101 2.731215 45.434802 -0.724857 1.510647 0.003144 0.005242 21087.700000 0 0 1
-34.128212 28.809501 3.340015 44.787028 -0.701091 1.496152 0.013174 -0.000441 432726.000000 0 0 1
-33.578541 27.786601 2.492115 43.655747 -0.691292 1.513680 0.007066 0.006171 -228090.000000 0 0 1
-33.781671 26.424101 3.147015 43.003931 -0.663794 1.497551 0.026322 0.001823 -294263.000000 0 0 1
-35.135954 26.048701 3.217715 43.856856 -0.637954 1.497362 0.025797 -0.001156 -324456.000000 0 0 1
-35.376840 24.978601 4.100215 43.500150 -0.614790 1.476399 0.031585 -0.002755 555677.000000 0 0 1
34.347304 24.467901 4.067615 42.366980 0.618978 1.474639 0.041910 -0.005097 195696.000000 0 0 1
33.877604 23.588101 3.073515 41.394892 0.608221 1.496479 0.036612 -0.008431 115430.000000 0 0 1
34.322824 22.234201 3.202515 41.020386 0.574825 1.492645 0.034723 -0.007235 -416734.000000 0 0 1
33.620314 21.196001 2.240415 39.807229 0.562510 1.514485 0.039685 -0.006781 775272.000000 0 0 1
32.192344 21.138301 2.407915 38.587211 0.581018 1.508354 0.027852 -0.017469 1239920.000000 0 0 1
31.752824 20.207601 3.430015 37.793571 0.566757 1.479915 0.016739 -0.008875 -282038.000000 0 0 1
32.035174 18.709301 3.168915 37.233484 0.528589 1.485584 0.019520 -0.008780 -1255920.000000 0 0 1
31.205654 18.169901 2.208215 36.177540 0.527276 1.509720 0.016792 -0.018827 93851.600000 0 0 1
31.461934 16.791001 2.026815 35.719728 0.490237 1.514024 0.008892 -0.008789 -481301.000000 0 0 1
30.913984 15.775301 3.099115 34.844498 0.471851 1.481737 0.019437 -0.008737 -599504.000000 0 0 1
29.517024 15.721501 3.038715 33.580561 0.489406 1.480182 0.004699 -0.004375 -347600.000000 0 0 1
29.002054 14.694101 3.885615 32.743454 0.468959 1.451848 0.008439 -0.005481 -816589.000000 0 0 1
27.495964 14.684901 3.954515 31.421530 0.490534 1.444608 -0.007743 0.007356 -885265.000000 0 0 1
26.827644 14.456801 2.724115 30.596444 0.494263 1.481645 -0.000541 -0.005035 421292.000000 0 0 1
25.427824 14.664101 2.889215 29.495045 0.523107 1.472683 -0.019873 0.005837 721422.000000 0 0 1
24.578024 14.401901 1.581815 28.530618 0.530037 1.515325 -0.006826 -0.006989 -309170.000000 0 0 1
25.012224 15.099601 0.399715 29.219327 0.543127 1.557116 0.007479 -0.012725 359133.000000 0 0 1
26.113524 14.494401 -0.241185 29.867407 0.506715 1.578872 0.013896 -0.013736 -580995.000000 0 0 1
26.708534 15.333101 -1.443385 30.830718 0.521150 1.617630 0.031301 -0.017770 341271.000000 0 0 1
27.187214 16.682201 -1.214285 31.920447 0.550363 1.608846 0.026219 -0.026555 87695.800000 0 0 1
28.029344 16.830701 -0.129385 32.694547 0.540763 1.574754 0.026044 -0.019584 -1217010.000000 0 0 1
28.873044 18.135801 -0.162085 34.096719 0.560841 1.575550 0.050030 -0.016604 -40948.300000 0 0 1
29.838144 17.966001 -1.215885 34.850687 0.541973 1.605692 0.038767 -0.009868 530912.000000 0 0 1
30.726064 19.067001 -1.347285 36.186416 0.555392 1.608037 0.042723 0.000756 250557.000000 0 0 1
30.068704 20.260701 -2.111985 36.319189 0.592934 1.628980 0.051492 0.000465 -53362.400000 0 0 1
31.009564 21.223301 -2.529985 37.661949 0.600187 1.638023 0.021867 0.007388 428751.000000 0 0 1
30.326884 22.296601 -3.130185 37.771105 0.633968 1.653764 0.041087 0.002968 -441785.000000 0 0 1
31.236614 23.514501 -3.338785 39.240353 0.645282 1.655985 0.025131 0.013631 -144700.000000 0 0 1
31.586044 24.147101 -2.153785 39.817075 0.652708 1.624915 0.023115 0.020741 378667.000000 0 0 1
32.852694 23.727701 -1.669985 40.559736 0.625500 1.611981 0.033754 0.016877 -330030.000000 0 0 1
32.986954 24.400901 -0.275485 41.031927 0.636885 1.577510 0.029009 0.001699 3150.110000 0 0 1
33.326284 25.776501 -0.468785 42.134178 0.658346 1.581923 0.043258 0.002688 398031.000000 0 0 1
34.389174 26.091301 0.429515 43.168921 0.649050 1.560847 0.035357 -0.003319 272189.000000 0 0 1
34.744214 27.655001 0.376015 44.408342 0.672273 1.562329 0.025780 0.002457 -373900.000000 0 0 1
35.322496 28.156501 -0.805485 45.178713 0.672986 1.588626 0.015819 0.003992 -52111.500000 0 0 1
34.447544 28.314501 -1.891285 44.630945 0.687988 1.613185 0.014757 0.002310 -414306.000000 0 0 1
34.962874 27.767601 -3.243085 44.765610 0.671196 1.643306 0.018935 0.001386 120804.000000 0 0 1
-35.308926 28.686801 -3.835385 45.654824 -0.682288 1.654904 0.025414 -0.000075 390722.000000 0 0 1
-34.727224 28.193701 -5.042385 45.014336 -0.681932 1.683049 0.024479 -0.004946 173914.000000 0 0 1
35.493314 28.118001 -6.259685 45.711935 0.669970 1.708166 0.006284 0.000724 -502276.000000 0 0 1
34.575414 27.118801 -6.101385 44.363448 0.665118 1.708765 0.002637 0.008211 -996059.000000 0 0 1
33.503424 27.262101 -7.000185 43.757333 0.683045 1.731464 -0.008496 0.005486 820832.000000 0 0 1
32.304304 26.266601 -6.629785 42.159891 0.682677 1.728705 0.000912 0.000761 540642.000000 0 0 1
32.263234 24.905401 -6.991785 41.353118 0.657398 1.740688 0.000568 0.006164 -720697.000000 0 0 1
33.406864 24.221001 -6.607585 41.789181 0.627328 1.729580 0.002363 0.006878 -580944.000000 0 0 1
33.382984 22.704401 -6.933385 40.963219 0.597258 1.740874 0.004573 0.007926 115254.000000 0 0 1
32.445234 21.986901 -6.126485 39.669268 0.595576 1.725856 0.015866 0.009075 459733.000000 0 0 1
32.738094 20.650401 -6.103185 39.185083 0.562742 1.727186 0.026498 -0.002921 83810.900000 0 0 1
31.534434 19.813501 -5.612885 37.662977 0.560978 1.720383 0.041436 -0.005225 -411997.000000 0 0 1
30.457674 19.619301 -6.440285 36.797611 0.572252 1.746722 0.033373 -0.009336 -79996.300000 0 0 1
29.383374 18.880901 -5.828785 35.409686 0.571135 1.736159 0.072878 -0.015158 418971.000000 0 0 1
28.159864 18.758301 -6.743585 34.501127 0.587635 1.767523 0.048413 -0.013354 -332383.000000 0 0 1
28.235774 17.654201 -7.658485 34.169901 0.558774 1.796846 0.038001 -0.012919 -46241.000000 0 0 1
27.209944 17.755901 -8.620485 33.614965 0.578167 1.830142 0.040164 -0.014716 -31153.200000 0 0 1
27.051904 16.544101 -9.608785 33.133692 0.548883 1.865024 0.045343 -0.014429 -209859.000000 0 0 1
26.144554 16.801701 -10.645485 32.850589 0.571188 1.900812 0.038212 -0.006875 23243.600000 0 0 1
26.166734 15.734201 -11.518585 32.633432 0.541379 1.931539 0.039956 -0.002137 -166390.000000 0 0 1
25.382724 15.791101 -12.847585 32.537701 0.556526 1.976703 0.036655 0.004613 157018.000000 0 0 1
23.979724 15.979901 -12.621885 31.459440 0.587813 1.983635 0.034388 0.004710 855595.000000 0 0 1
23.145224 15.903501 -13.759785 31.272263 0.602028 2.026395 0.034124 0.005043 -177336.000000 0 0 1
22.929524 14.487401 -14.389485 30.703504 0.563491 2.058569 0.039857 -0.000555 -387340.000000 0 0 1
24.116524 13.940401 -14.965685 31.621405 0.524119 2.063803 0.050363 -0.002334 660528.000000 0 0 1
24.482124 14.541901 -16.212285 32.767049 0.535982 2.088371 0.063811 -0.012940 -440741.000000 0 0 1
25.954124 14.248801 -16.565785 33.927424 0.502075 2.080904 0.066960 -0.008712 -158496.000000 0 0 1
26.186664 12.939101 -17.013485 33.802668 0.458925 2.098230 0.070563 -0.007948 795462.000000 0 0 1
27.557594 12.814101 -17.426585 35.032957 0.435252 2.091435 0.059495 0.008031 977579.000000 0 0 1
27.885744 11.352601 -17.837985 34.995571 0.386622 2.105657 0.028269 0.010452 -420347.000000 0 0 1
27.002054 10.978501 -18.855285 34.715417 0.386166 2.144967 0.034546 -0.002078 -144611.000000 0 0 1
27.273334 9.738001 -19.413085 34.864470 0.342943 2.161344 0.018052 0.009328 -54781.000000 0 0 1
28.615974 9.445701 -20.115685 36.231699 0.318824 2.159395 0.012331 0.006835 -577055.000000 0 0 1
28.779424 10.065001 -21.367085 37.230523 0.336433 2.182073 0.019595 -0.005647 142329.000000 0 0 1
29.292934 9.309901 -22.453785 38.064718 0.307725 2.201712 0.010140 -0.001619 -59762.100000 0 0 1
30.771494 8.872201 -22.388385 39.074808 0.280712 2.180912 -0.005867 0.003217 -286685.000000 0 0 1
31.734614 9.900701 -22.448585 40.112948 0.302415 2.164741 -0.005510 0.003611 744947.000000 0 0 1
33.018444 9.333501 -22.758685 41.173895 0.275488 2.156452 -0.022049 0.013365 582385.000000 0 0 1
34.198154 10.310701 -22.640985 42.289934 0.292831 2.135748 -0.010298 0.003837 -146813.000000 0 0 1
34.261044 10.897601 -21.348685 41.813194 0.307956 2.106647 -0.010672 0.007648 -38976.000000 0 0 1
35.200794 11.929801 -21.313885 42.845044 0.326759 2.091470 -0.019167 0.006497 -323288.000000 0 0 1
35.226384 12.659101 -19.970585 42.426115 0.344993 2.060897 -0.024490 0.009331 -367896.000000 0 0 1
-35.478724 11.957101 -18.864585 41.923558 -0.325066 2.037535 -0.014743 0.006845 -75733.300000 0 0 1
35.393065 12.597301 -17.658585 41.511284 0.341944 2.010192 0.001383 0.013878 -230918.000000 0 0 1
-35.390731 11.709101 -16.419785 40.733478 -0.319516 1.985701 -0.000691 0.014090 -114565.000000 0 0 1
35.030584 10.517001 -16.184885 39.996245 0.291662 1.987403 0.000721 0.010909 224550.000000 0 0 1
35.516454 9.653801 -15.167485 39.807876 0.265400 1.961693 -0.008211 0.002673 -169226.000000 0 0 1
34.633934 8.395301 -14.961585 38.650220 0.237814 1.968283 0.029241 0.004993 -231274.000000 0 0 1
33.538764 8.484301 -14.107785 37.361232 0.247772 1.958005 0.042541 0.005102 377864.000000 0 0 1
33.971624 8.342501 -12.759985 37.235545 0.240807 1.920568 0.037244 -0.001855 -675267.000000 0 0 1
32.808194 8.745101 -11.886485 35.974198 0.260496 1.907542 0.042243 -0.003134 -528932.000000 0 0 1
32.572494 10.161101 -11.791585 36.100649 0.302387 1.903533 0.063559 -0.010230 557127.000000 0 0 1
31.687464 10.574101 -10.736985 35.088315 0.322080 1.881784 0.046706 -0.000215 97437.900000 0 0 1
32.402474 10.421401 -9.379485 35.305816 0.311175 1.839689 0.057932 -0.000944 504899.000000 0 0 1
33.484394 11.320201 -9.126085 36.505302 0.326011 1.823470 0.060983 -0.002323 500714.000000 0 0 1
33.057644 12.667301 -8.823485 36.484548 0.365930 1.815060 0.060565 -0.004312 -493882.000000 0 0 1
32.617994 12.838201 -7.314685 35.808624 0.374971 1.776516 0.046901 -0.007334 -572879.000000 0 0 1
33.641824 12.668301 -6.378185 36.509443 0.360141 1.746397 0.061419 -0.004399 157147.000000 0 0 1
33.220704 13.015601 -5.065685 36.037234 0.373410 1.711832 0.045215 -0.005407 471117.000000 0 0 1
34.426554 12.790901 -4.075385 36.951367 0.355735 1.681312 0.052355 0.003015 1078400.000000 0 0 1
35.378384 13.862101 -4.146285 38.222763 0.373438 1.679487 0.051643 0.014220 -182010.000000 0 0 1
-34.578677 13.446301 -3.648785 37.280042 -0.370867 1.668828 0.041312 0.005701 -14641.300000 0 0 1
-33.494421 14.552301 -3.621385 36.698230 -0.409864 1.669637 0.033771 0.010383 202190.000000 0 0 1
-33.704071 15.480901 -2.575985 37.178736 -0.430576 1.640138 0.042309 0.009141 -265046.000000 0 0 1
-32.688001 16.426301 -2.503785 36.668756 -0.465660 1.639131 0.049834 0.010572 -348083.000000 0 0 1
-32.948641 17.462101 -1.421985 37.317019 -0.487342 1.608911 0.038923 0.011913 122704.000000 0 0 1
-34.045521 18.325901 -1.659185 38.699987 -0.493798 1.613682 0.023253 0.012301 182359.000000 0 0 1
-34.166021 19.250401 -0.619485 39.220896 -0.513101 1.586592 0.005046 0.011658 -334764.000000 0 0 1
-35.270430 20.304301 -0.733685 40.703884 -0.522341 1.588822 0.001925 0.013212 -284558.000000 0 0 1
-35.085984 21.441301 -1.583385 41.149274 -0.548547 1.609285 0.000686 0.013314 -9032.180000 0 0 1
-35.208282 21.210901 -2.972085 41.211148 -0.542212 1.642977 -0.021946 0.025839 -121029.000000 0 0 1
-35.145579 22.605101 -3.728585 41.953601 -0.571569 1.659788 0.022517 -0.002754 -93311.000000 0 0 1
-33.812181 22.979701 -3.977085 41.074900 -0.596922 1.667773 0.024272 0.004399 -292520.000000 0 0 1
-33.687931 24.194901 -4.594985 41.729891 -0.622841 1.681133 0.030778 -0.000038 52317.500000 0 0 1
-32.237741 24.441001 -5.039785 40.768050 -0.648696 1.694734 0.026902 -0.004549 95648.300000 0 0 1
-31.794491 23.482901 -5.997985 39.978896 -0.636155 1.721394 0.020217 0.002032 30501.400000 0 0 1
-30.439011 23.667301 -6.387785 39.082967 -0.660890 1.734975 0.034558 0.007687 367176.000000 0 0 1
-30.047381 22.728001 -7.601085 38.434146 -0.647588 1.769878 0.037630 -0.010246 -395522.000000 0 0 1
-30.836601 22.911701 -8.707585 39.391167 -0.639008 1.793692 0.032655 -0.016193 -183488.000000 0 0 1
-30.176501 22.453801 -9.901485 38.895164 -0.639703 1.828198 0.001475 -0.008335 328451.000000 0 0 1
-31.146491 22.392201 -11.103885 39.935083 -0.623319 1.852558 0.006127 -0.001383 -15345.700000 0 0 1
-31.652541 23.670401 -11.461585 41.152632 -0.642104 1.853043 0.010541 0.001109 233514.000000 0 0 1
-32.198581 23.633001 -12.766785 41.931589 -0.633167 1.880175 0.000235 0.003805 -339663.000000 0 0 1
-32.750261 25.030001 -13.290485 43.309555 -0.652571 1.882701 0.015831 0.005901 749152.000000 0 0 1
-31.719671 26.024101 -13.440885 43.174631 -0.687081 1.887372 0.005412 0.005421 947830.000000 0 0 1
-30.681951 25.823601 -14.390985 42.606818 -0.699629 1.915335 -0.000829 0.005669 766875.000000 0 0 1
-29.267081 26.393501 -14.092885 41.854370 -0.733817 1.914220 -0.002469 0.011732 228473.000000 0 0 1
-28.412701 25.886301 -13.078685 40.600913 -0.738904 1.898773 -0.002095 0.002436 72473.800000 0 0 1
-28.806411 25.876801 -11.687585 40.447717 -0.731875 1.863932 0.010605 -0.000810 -548618.000000 0 0 1
-28.895421 27.310201 -11.110985 41.282519 -0.757202 1.843302 0.023778 0.012680 651713.000000 0 0 1
-27.671431 28.023601 -10.858185 40.852545 -0.791721 1.839819 0.015185 0.009563 367586.000000 0 0 1
-27.885841 29.105701 -9.989385 41.527699 -0.806799 1.813726 0.012875 0.008133 102984.000000 0 0 1
-26.710371 30.085501 -9.785385 41.404529 -0.844754 1.809390 0.021742 0.007860 137139.000000 0 0 1
-27.138711 31.321601 -9.189685 42.450001 -0.856827 1.789006 0.016059 -0.006091 166149.000000 0 0 1
-26.081201 32.273001 -9.174985 42.496541 -0.891110 1.788409 0.024148 0.008894 -228552.000000 0 0 1
34.002044 -25.087429 33.895533 54.170336 -0.635661 0.894740 -0.003587 0.000835 -239709.000000 0 0 1
33.534674 -23.796899 34.219318 53.496061 -0.617154 0.876740 -0.007083 -0.001234 -205856.000000 0 0 1
32.518884 -23.861899 -33.611335 52.503237 -0.633043 2.265524 -0.014733 0.007991 -202098.000000 0 0 1
32.024374 -22.438299 -33.329265 51.379741 -0.611171 2.276652 -0.021946 0.008202 -44227.200000 0 0 1
31.439414 -21.767799 34.382988 51.424349 -0.605589 0.838454 -0.026027 0.002084 -121271.000000 0 0 1
31.190104 -20.437099 -34.076325 50.514291 -0.580052 2.311203 -0.026381 0.007948 -138310.000000 0 0 1
30.826954 -19.482999 33.551259 49.553762 -0.563626 0.827025 -0.026868 0.006581 -428746.000000 0 0 1
31.935964 -19.130399 32.790736 49.609579 -0.539701 0.848678 0.006287 -0.009510 -428467.000000 0 0 1
31.581924 -18.640799 31.487952 48.336202 -0.533209 0.861320 0.011094 -0.006131 -65990.100000 0 0 1
32.780414 -18.358199 30.558852 48.429562 -0.510515 0.887960 0.015683 -0.001316 -557372.000000 0 0 1
33.711044 -17.444899 30.967662 48.987295 -0.477536 0.886462 0.010022 -0.007778 -273444.000000 0 0 1
34.754524 -17.313899 30.030572 49.086488 -0.462188 0.912476 0.031548 -0.011222 -598167.000000 0 0 1
-35.574339 -16.088399 30.212622 49.367729 0.424721 0.912220 0.034132 -0.016610 -1238940.000000 0 0 1
-34.471471 -16.233999 29.351732 48.097289 0.440131 0.914411 0.029878 -0.011039 143218.000000 0 0 1
-33.439141 -15.297099 29.661792 47.244040 0.429041 0.892019 0.017921 -0.014463 646221.000000 0 0 1
-32.454671 -15.834599 30.770862 47.443505 0.453920 0.865080 0.034805 -0.016119 -567769.000000 0 0 1
-31.398161 -14.969499 31.091592 46.654234 0.444886 0.841392 0.022514 -0.013558 -73634.900000 0 0 1
-30.374061 -15.632399 31.792942 46.666333 0.475309 0.821284 0.017388 -0.015123 -274807.000000 0 0 1
-29.249131 -14.667599 32.113692 45.846912 0.464824 0.794762 0.021823 -0.013351 -580472.000000 0 0 1
-29.733191 -13.735599 33.036308 46.520178 0.432757 0.781085 0.033185 -0.015674 186952.000000 0 0 1
-28.747651 -12.846699 33.490038 45.967899 0.420255 0.754590 0.025998 -0.013640 -322899.000000 0 0 1
-29.047071 -12.392499 -33.877865 46.314319 0.403255 2.391282 0.022087 -0.009967 -199393.000000 0 0 1
-28.842871 -13.379199 -32.886065 45.742841 0.434324 2.373063 0.033342 -0.016641 238152.000000 0 0 1
-29.066441 -12.870799 -31.543595 44.782964 0.416855 2.352326 0.033113 -0.009912 -553841.000000 0 0 1
-29.155661 -13.921299 -30.478985 44.416480 0.445471 2.327061 0.030164 -0.015297 -657634.000000 0 0 1
-30.289361 -14.710899 -30.558645 45.471824 0.452125 2.307749 0.025774 -0.015841 -548405.000000 0 0 1
-30.487471 -15.428599 -29.354705 45.046934 0.468487 2.280550 0.034444 -0.009057 17202.100000 0 0 1
-31.731501 -16.324699 -29.303575 46.174489 0.475151 2.258322 0.032856 -0.016789 -306478.000000 0 0 1
-31.627411 -17.427999 -30.198225 47.073996 0.503642 2.267255 0.030581 -0.016018 -245260.000000 0 0 1
-32.722941 -18.273899 -30.076075 48.055141 0.509302 2.247038 0.022913 -0.012067 -681138.000000 0 0 1
-32.495781 -19.735099 -30.581435 48.792152 0.545779 2.248197 0.028129 -0.008612 467874.000000 0 0 1
-33.670591 -20.560899 -30.565865 49.907228 0.548213 2.229957 0.011554 -0.008536 536156.000000 0 0 1
-33.417681 -21.792599 -31.250845 50.678142 0.577870 2.235281 0.004772 -0.011840 -972226.000000 0 0 1
-34.616637 -22.664599 -31.393295 51.937795 0.579694 2.219859 0.004532 -0.006778 -803284.000000 0 0 1
-35.231469 -23.256499 -30.223705 51.919105 0.583447 2.192143 -0.009364 -0.003525 475210.000000 0 0 1
34.993234 -24.254299 -30.619525 52.443806 -0.606089 2.194264 -0.000677 0.002369 477458.000000 0 0 1
35.580905 -25.642049 -31.120955 53.777592 -0.624463 2.187927 0.002977 0.009181 -6679.980000 0 0 1
-35.212589 -25.784309 -32.465395 54.394475 0.632042 2.210367 0.000771 0.008058 -404678.000000 0 0 1
-34.524705 -26.990459 -32.583795 54.609009 0.663527 2.210147 -0.006575 -0.000544 -171815.000000 0 0 1
-34.773833 -27.676359 -33.962045 55.934076 0.672234 2.223303 0.002566 -0.012205 718355.000000 0 0 1
35.083464 -28.190499 -34.043565 56.431534 -0.676888 2.218394 0.013930 -0.007728 261017.000000 0 0 1
34.992624 -29.362409 33.956327 56.918073 -0.698134 0.931560 0.012602 -0.004648 -133669.000000 0 0 1
-35.450193 -30.572079 -34.322215 58.046384 0.711646 2.203453 0.018185 -0.009755 -139372.000000 0 0 1
35.303504 -31.007099 -33.052195 57.447587 -0.720696 2.183823 0.024826 -0.013614 -121646.000000 0 0 1
-35.060374 -31.992269 -32.458865 57.500548 0.739673 2.170620 0.020291 -0.018736 -148469.000000 0 0 1
-35.391817 -32.198739 -30.962155 56.991180 0.738192 2.145135 0.023295 -0.021476 -516437.000000 0 0 1
34.653104 -32.957449 -30.829335 56.898849 -0.760324 2.143406 0.038223 -0.020060 -357017.000000 0 0 1
34.322494 -33.114029 -29.450245 56.052560 -0.767480 2.123986 0.037816 -0.020846 -276186.000000 0 0 1
33.287574 -34.220259 -29.217125 55.970788 -0.799213 2.119998 0.044185 -0.015093 25933.000000 0 0 1
31.977124 -33.839359 -29.619165 55.180918 -0.813685 2.137394 0.042427 -0.012657 650228.000000 0 0 1
31.068084 33.984913 -29.189745 54.518267 0.830206 2.135792 0.049670 -0.012065 117.425000 0 0 1
29.617284 34.100646 -29.626595 54.016412 0.855645 2.151334 0.038764 -0.003470 -415053.000000 0 0 1
29.411874 33.847633 -30.962235 54.492024 0.855404 2.175110 0.031707 0.002776 66189.700000 0 0 1
28.154004 34.308791 -31.429025 54.383129 0.883616 2.186972 0.028557 -0.004436 91484.300000 0 0 1
27.988504 34.013847 -32.972015 55.022286 0.882273 2.213358 0.027299 -0.011899 -15561.300000 0 0 1
27.858404 32.589091 -33.194175 54.221700 0.863500 2.229628 0.014803 0.000592 58998.200000 0 0 1
27.597824 32.219561 34.231196 54.511602 0.862509 0.891865 0.025744 -0.011699 -24659.200000 0 0 1
27.661394 30.717061 34.023759 53.537900 0.837693 0.882130 0.017840 -0.009545 -210172.000000 0 0 1
28.944874 30.167351 34.076543 53.935940 0.806076 0.886928 0.014729 -0.004630 -995445.000000 0 0 1
28.821604 28.860971 -34.190875 53.222706 0.786081 2.268437 0.018995 -0.015442 -399025.000000 0 0 1
30.073854 28.018711 -34.026125 53.359742 0.750036 2.262271 0.025934 -0.008331 87140.500000 0 0 1
30.859514 28.392031 -32.854825 53.271536 0.743778 2.235394 0.027747 -0.010885 915772.000000 0 0 1
32.098144 27.648811 -32.828715 53.595449 0.711066 2.230051 0.044134 -0.012959 717021.000000 0 0 1
32.785154 27.785851 -31.460285 53.260392 0.703049 2.202708 0.035199 -0.015612 -407366.000000 0 0 1
33.459904 29.022921 -31.138725 54.143470 0.714506 2.183541 0.023218 -0.016568 430810.000000 0 0 1
32.714594 30.232041 -31.011305 54.276349 0.745980 2.178958 0.025052 -0.010934 -517180.000000 0 0 1
31.638704 30.345921 -29.960355 53.099015 0.764545 2.170303 0.030604 -0.005212 -328303.000000 0 0 1
32.133444 30.420061 -28.666885 52.723132 0.758014 2.145666 0.023391 -0.009780 81771.600000 0 0 1
31.035974 30.559871 -27.788025 51.665383 0.777669 2.138676 0.039148 -0.005660 -12885.900000 0 0 1
31.413174 31.063731 -26.391905 51.461399 0.779805 2.109296 0.057269 -0.007537 -31307.900000 0 0 1
32.150634 32.283511 -26.429615 52.672696 0.787460 2.096441 0.055274 -0.007748 394860.000000 0 0 1
32.527804 32.672521 -25.118215 52.502156 0.787618 2.069654 0.051596 -0.012988 185746.000000 0 0 1
33.107904 34.067925 -24.911385 53.640786 0.799688 2.053766 0.053524 -0.015183 -66380.800000 0 0 1
32.036624 -33.923859 -25.128055 52.996157 -0.814002 2.064793 0.059107 -0.008515 152057.000000 0 0 1
32.211264 -32.521639 -25.047385 52.178483 -0.790193 2.071488 0.049758 -0.010920 -1033160.000000 0 0 1
32.728074 -31.723709 -26.241885 52.594269 -0.769816 2.093183 0.041634 -0.015209 58311.300000 0 0 1
34.098614 -31.898479 -26.536955 53.706969 -0.752074 2.087603 0.052995 -0.018582 -217186.000000 0 0 1
34.966504 -31.085529 -25.756545 53.407548 -0.726709 2.074034 0.053898 -0.012600 -114263.000000 0 0 1
-34.773564 -31.412229 -26.253965 53.714054 0.734655 2.081479 0.024391 -0.010199 28047.000000 0 0 1
-34.297154 -32.732359 -26.053665 54.097094 0.762058 2.073286 0.022674 -0.009248 -193964.000000 0 0 1
-34.062951 -33.127619 -24.718485 53.560501 0.771478 2.050488 0.032146 -0.006584 -418500.000000 0 0 1
-32.811661 -32.618419 -23.980885 52.111891 0.782445 2.048995 0.007114 -0.000922 -264169.000000 0 0 1
-32.758171 -31.204399 -23.739385 51.091787 0.761111 2.054026 -0.005566 0.001089 -128295.000000 0 0 1
-32.672071 -30.908709 -22.336685 50.216930 0.757671 2.031752 -0.004215 0.005558 -376966.000000 0 0 1
-32.540441 -29.356539 -22.229585 49.141033 0.734005 2.040209 -0.002974 0.012631 -34931.800000 0 0 1
-33.575381 -28.521159 -22.722385 49.568836 0.704184 2.046991 -0.008483 0.011204 -243443.000000 0 0 1
-33.751941 -28.398969 -24.115385 50.271729 0.699482 2.071110 -0.007415 0.011765 -672046.000000 0 0 1
-34.816756 -27.376819 -24.427285 50.580520 0.666338 2.074804 -0.004283 0.004510 -493036.000000 0 0 1
-34.523795 -26.043629 -24.067085 49.491288 0.646290 2.078634 -0.012467 0.011351 -1074380.000000 0 0 1
-35.500672 -25.148069 -24.390885 49.876231 0.616330 2.081772 0.000535 0.007219 -796227.000000 0 0 1
-35.334054 -24.492099 -25.772005 50.125388 0.606120 2.110814 0.001888 0.010177 49003.900000 0 0 1
-34.162974 -23.710299 -25.896055 48.988700 0.606711 2.127762 -0.005368 0.003726 -108641.000000 0 0 1
-34.033481 -23.055499 -27.172615 49.276616 0.595421 2.154874 0.003700 -0.002933 626858.000000 0 0 1
-32.792081 -22.087299 -27.193545 47.986021 0.592757 2.173288 0.012958 -0.015359 221923.000000 0 0 1
-32.851471 -20.911099 -26.325545 47.005612 0.566851 2.165244 0.021716 -0.005970 268926.000000 0 0 1
-33.863131 -19.939899 -26.595205 47.451198 0.532172 2.165755 0.013864 -0.010742 860177.000000 0 0 1
-35.028655 -19.692399 -25.542875 47.615499 0.512146 2.137010 0.022874 -0.015842 311336.000000 0 0 1
-34.711555 -19.274199 -24.258685 46.528170 0.506878 2.119259 0.016762 -0.018082 -375126.000000 0 0 1
-34.057661 -20.215299 -23.443885 46.023889 0.535671 2.105266 -0.001835 -0.006114 -409658.000000 0 0 1
-34.883563 -21.481399 -23.137385 47.049464 0.551958 2.084915 0.014578 0.006547 -273322.000000 0 0 1
35.389981 -21.159099 -22.130585 46.796592 -0.538862 2.063387 0.011869 0.003921 -378000.000000 0 0 1
34.869144 -22.386899 -21.624485 46.740227 -0.570749 2.051781 0.015910 0.016764 -278967.000000 0 0 1
33.697514 -22.292099 -20.640285 45.370492 -0.584442 2.043087 0.002949 0.013174 284655.000000 0 0 1
32.512994 -21.745599 -21.256585 44.517506 -0.589497 2.068590 0.011199 0.011916 151772.000000 0 0 1
31.519964 -21.631699 -20.271285 43.270817 -0.601462 2.058360 0.020878 0.012483 -491246.000000 0 0 1
30.192504 -21.210999 -20.913185 42.412912 -0.612419 2.086429 0.014910 0.008731 -424244.000000 0 0 1
29.547864 -22.235299 -21.725785 42.889329 -0.645111 2.101980 0.020291 0.009855 1322380.000000 0 0 1
28.328244 -21.863299 -22.421585 42.228199 -0.657298 2.130532 0.027408 0.001560 883306.000000 0 0 1
28.332394 -20.663999 -23.464485 42.193690 -0.630148 2.160499 0.030794 -0.006336 -725080.000000 0 0 1
28.619284 -19.460199 -22.806585 41.447595 -0.597155 2.153461 0.022712 0.001591 96297.300000 0 0 1
28.731874 -18.310999 -23.686585 41.495393 -0.567400 2.178306 0.011533 0.001945 -447265.000000 0 0 1
29.316794 -17.174399 -22.846385 40.943763 -0.529929 2.162763 0.000554 0.011035 -312783.000000 0 0 1
28.535914 -16.668299 -21.759785 39.567902 -0.528659 2.153083 -0.014367 0.008711 25455.900000 0 0 1
29.278384 -15.939399 -20.814085 39.300310 -0.498540 2.128944 -0.018757 0.008537 122681.000000 0 0 1
30.306314 -16.742999 -19.954385 39.962210 -0.504729 2.093623 -0.014243 0.001117 -46383.500000 0 0 1
31.522384 -17.006499 -20.583485 41.310551 -0.494750 2.092390 -0.012604 -0.001001 -404428.000000 0 0 1
32.383694 -17.862799 -19.827285 41.963133 -0.504070 2.062914 -0.013754 0.005733 140668.000000 0 0 1
33.610844 -18.132599 -20.721285 43.449415 -0.494736 2.067928 -0.000554 -0.004074 -761302.000000 0 0 1
34.436494 -17.062399 -20.907285 43.750568 -0.460021 2.069030 0.003438 -0.003025 -29072.700000 0 0 1
35.502642 -17.446599 -21.802685 45.168335 -0.456758 2.074530 0.026596 -0.002428 132862.000000 0 0 1
-34.853566 -16.227299 -22.144985 44.367744 0.435739 2.093383 0.043077 -0.014046 -713225.000000 0 0 1
-33.960411 -15.796499 -21.164785 43.020774 0.435376 2.085144 0.055072 -0.017756 -488847.000000 0 0 1
-33.334881 -14.593699 -21.537185 42.285230 0.412654 2.105204 0.060857 -0.018411 -1049090.000000 0 0 1
-32.096311 -14.310399 -20.692785 40.781761 0.419404 2.102965 0.069370 -0.019921 -385856.000000 0 0 1
-31.045891 -15.227399 -20.913085 40.411362 0.456003 2.114729 0.070424 -0.028673 -65077.600000 0 0 1
-31.157891 -16.467499 -20.245685 40.643332 0.486201 2.092238 0.065189 -0.027759 -406100.000000 0 0 1
-29.960851 -17.477099 -20.362085 40.220842 0.528073 2.101635 0.046599 -0.036208 448877.000000 0 0 1
-30.186161 -18.637999 -19.552485 40.507765 0.553141 2.074514 0.045660 -0.030582 -20439.700000 0 0 1
-29.114181 -19.497699 -19.770185 40.232525 0.590098 2.084491 0.052841 -0.035945 -390376.000000 0 0 1
-29.467871 -20.935099 -19.398185 41.023449 0.617697 2.063326 0.038166 -0.005062 -165788.000000 0 0 1
-30.258951 -21.631999 -20.336585 42.392502 0.620653 2.071133 0.027798 0.001915 151566.000000 0 0 1
-30.584541 -22.914399 -19.895185 43.084826 0.642999 2.050783 0.013732 0.021959 -189247.000000 0 0 1
-31.531091 -23.702199 -20.821185 44.604100 0.644594 2.056465 -0.003115 0.028016 -276184.000000 0 0 1
-31.001201 -23.989599 -22.080085 44.990060 0.658577 2.083778 -0.004712 0.015566 10933.400000 0 0 1
-31.805881 -24.891899 -22.795485 46.377310 0.664053 2.084633 0.000930 0.016320 -354128.000000 0 0 1
-31.474121 -24.951199 -24.318085 46.952656 0.670306 2.115223 -0.001300 0.016987 21297.700000 0 0 1
-30.190471 -25.444309 -24.652285 46.546886 0.700295 2.128952 -0.005729 0.007700 -32191.500000 0 0 1
-30.176081 -25.829489 -25.992315 47.469557 0.707943 2.150239 0.004607 0.010568 283643.000000 0 0 1
-28.733011 -26.223539 -26.421115 47.024837 0.739767 2.167422 0.013459 0.004997 718837.000000 0 0 1
-27.922701 -25.015009 -26.428335 45.868124 0.730527 2.184845 0.026342 -0.004573 -825767.000000 0 0 1
-26.593641 -25.333799 -26.648675 45.378134 0.761141 2.198463 0.030383 -0.006636 -586757.000000 0 0 1
-25.710341 -24.087699 -26.794795 44.262850 0.752825 2.221010 0.038867 -0.002286 -86411.000000 0 0 1
-25.870111 -23.436799 -28.063145 44.789355 0.736088 2.247926 0.042433 -0.008005 -199761.000000 0 0 1
-24.816201 -22.548899 -28.325295 43.893269 0.737566 2.272241 0.040064 -0.012290 -34189.600000 0 0 1
-24.649901 -22.041499 -29.788235 44.506003 0.729591 2.304074 0.038163 -0.008143 82596.700000 0 0 1
-24.050301 -22.987399 -30.683775 45.258497 0.762805 2.315790 0.040358 -0.013320 276095.000000 0 0 1
-23.988001 -22.508999 -32.002435 45.893737 0.753600 2.342442 0.043303 -0.014778 36729.000000 0 0 1
-23.428401 -23.536799 -33.014245 46.827463 0.787706 2.353246 0.045333 -0.023289 -182517.000000 0 0 1
-24.396601 -24.514899 -33.217435 47.953857 0.787817 2.336016 0.034511 -0.025027 -232776.000000 0 0 1
-23.956301 -25.585909 -33.977395 48.816047 0.818280 2.340649 0.059417 -0.014263 -49529.500000 0 0 1
-19.895101 -14.634599 -11.850985 27.394021 0.634214 2.018184 0.030637 0.010139 12172.600000 0 0 1
-20.108701 -14.019999 -10.633385 26.720575 0.608851 1.980075 0.037740 0.006071 -91367.600000 0 0 1
-19.193401 -14.523499 -9.715685 25.955986 0.647770 1.954453 0.028070 -0.005183 -257131.000000 0 0 1
-19.567101 -14.057599 -8.278985 25.476050 0.622989 1.901778 0.039356 -0.017011 690214.000000 0 0 1
-20.744101 -14.663599 -7.710385 26.547861 0.615329 1.865476 0.056845 -0.014382 778377.000000 0 0 1
-21.040901 -14.151899 -6.406785 26.154209 0.592092 1.818277 0.056255 -0.022357 501623.000000 0 0 1
-22.317601 -14.765999 -5.728885 27.366589 0.584508 1.781695 0.063130 -0.024059 48975.400000 0 0 1
-22.217301 -16.102899 -5.237285 27.934584 0.627171 1.759396 0.057180 -0.021316 599944.000000 0 0 1
-21.398701 -16.240299 -4.052285 27.167494 0.649197 1.720514 0.053719 -0.019033 116338.000000 0 0 1
-21.249601 -17.714099 -3.585085 27.896016 0.694908 1.699669 0.033162 -0.009133 570700.000000 0 0 1
-22.457701 -18.372299 -3.178685 29.188932 0.685671 1.679913 0.030140 -0.007397 550934.000000 0 0 1
-22.110301 -19.439899 -2.363385 29.535753 0.721217 1.650900 0.013054 0.001426 8576.050000 0 0 1
-23.168701 -20.539599 -2.140085 31.036169 0.725319 1.639806 -0.002501 -0.004158 -99697.500000 0 0 1
-23.453901 -21.344499 -3.220685 31.875475 0.738346 1.672009 -0.018173 -0.005923 120314.000000 0 0 1
-24.451001 -22.312599 -2.908285 33.228928 0.739702 1.658431 -0.005517 -0.002547 51719.300000 0 0 1
-24.510601 -23.337599 -4.056585 34.086199 0.760888 1.690089 -0.012693 0.003135 -480211.000000 0 0 1
-23.455301 -24.278799 -4.114685 34.007968 0.802648 1.692085 -0.014234 0.010309 -301777.000000 0 0 1
-23.289601 -24.794899 -5.413785 34.445633 0.816693 1.728620 -0.015777 0.004368 521329.000000 0 0 1
-21.867501 -24.685499 -6.077885 33.533597 0.845858 1.753051 -0.007989 0.006377 769584.000000 0 0 1
-21.411701 -23.403099 -6.464985 32.372242 0.829805 1.771856 -0.011214 0.015896 171593.000000 0 0 1
-21.206801 -22.434399 -5.406685 31.341074 0.813520 1.744175 -0.013276 0.016595 -891911.000000 0 0 1
-21.132401 -20.950499 -5.823485 30.321853 0.781076 1.764053 0.002823 0.024543 -15126.700000 0 0 1
-19.995601 -20.586199 -6.569785 29.441089 0.799950 1.795841 0.005959 0.021782 290329.000000 0 0 1
-20.377201 -19.444899 -7.298185 29.096356 0.761991 1.824332 0.003356 0.017748 1422170.000000 0 0 1
-19.090901 -18.915999 -8.084485 28.064861 0.780796 1.863001 0.017783 0.020646 1224850.000000 0 0 1
-18.745801 -19.705699 -9.206285 28.713678 0.810357 1.897184 0.013850 0.016069 840653.000000 0 0 1
-17.438801 -19.429999 -9.770285 27.876426 0.839353 1.928886 0.025827 0.017907 797770.000000 0 0 1
-17.276601 -18.090699 -10.591085 27.164783 0.808412 1.971301 0.027210 0.018186 -409188.000000 0 0 1
-17.061001 -16.907099 -9.851585 25.961153 0.780867 1.960024 0.037186 0.001105 914215.000000 0 0 1
-15.646801 -16.895299 -9.581085 24.941345 0.823745 1.965078 0.042349 0.008972 514882.000000 0 1 0
-15.201301 -15.791499 -8.575485 23.536991 0.804439 1.943721 0.030664 -0.000408 139179.000000 0 1 0
-15.728601 -16.150299 -7.286785 23.692157 0.798626 1.883425 0.000952 0.004746 340187.000000 0 1 0
-15.970801 -15.040199 -6.431885 22.861392 0.755398 1.855989 0.017534 -0.004064 -319275.000000 0 1 0
-16.584501 -15.406699 -5.084685 23.200562 0.748598 1.791752 0.013664 -0.004162 -129457.000000 0 1 0
-17.096701 -14.291399 -4.424185 22.718158 0.696260 1.766791 0.026010 -0.005539 126434.000000 0 1 0
-17.712001 -14.527099 -3.192985 23.128916 0.686928 1.709290 0.030305 -0.008157 -136801.000000 0 1 0
-18.488101 -13.338299 -2.577185 22.942580 0.624979 1.683366 0.035349 -0.009371 276410.000000 0 1 0
-19.752401 -13.081399 -3.190885 23.905273 0.584952 1.704676 0.054177 -0.020222 491776.000000 0 1 0
-20.498201 -12.294999 -2.311785 24.014321 0.540279 1.667213 0.051915 -0.014845 977609.000000 0 1 0
-22.070101 -12.438099 -2.512585 25.457980 0.513204 1.669653 0.040149 -0.015415 1426180.000000 0 0 1
-22.587701 -11.791599 -3.692185 25.746423 0.481121 1.714698 0.052172 -0.021984 -53716.100000 0 0 1
-23.940601 -12.067599 -3.933785 27.097121 0.466894 1.716485 0.042211 -0.018739 -756414.000000 0 0 1
-24.470501 -11.262999 -5.129685 27.422149 0.431360 1.758968 0.050607 -0.027215 -99231.300000 0 0 1
-24.014301 -11.737599 -6.380485 27.480329 0.454628 1.805118 0.055412 -0.034081 551405.000000 0 0 1
-24.708801 -11.038399 -7.435385 28.065211 0.420139 1.838930 0.060364 -0.038061 -172431.000000 0 0 1
-24.096501 -11.349899 -8.823785 28.059237 0.440195 1.890694 0.079593 -0.037088 -366001.000000 0 0 1
-22.899301 -10.623299 -8.903085 26.767469 0.434364 1.909864 0.071962 -0.032974 -308819.000000 0 0 1
-22.090101 -11.152499 -9.932685 26.664753 0.467531 1.952500 0.048354 -0.028693 185598.000000 0 0 1
-20.680401 -10.495799 -9.986485 25.250162 0.469649 1.977410 0.048345 -0.024848 -443.084000 0 0 1
-20.785901 -9.127799 -10.320285 24.937496 0.413781 1.997471 0.041484 -0.030242 316530.000000 0 1 0
-19.750301 -8.367899 -9.751885 23.562585 0.400756 1.997499 0.047104 -0.024069 -331407.000000 0 1 0
-19.567101 -6.998899 -10.519785 23.292100 0.343507 2.039406 0.048666 -0.031047 -270105.000000 0 1 0
-19.100201 -7.225699 -11.788185 23.579434 0.361665 2.094320 0.054935 -0.027315 186657.000000 0 1 0
-18.806301 -5.997699 -12.436985 23.330837 0.308723 2.133022 0.051020 -0.037083 -567941.000000 0 1 0
-18.148201 -6.191099 -13.774285 23.609698 0.328761 2.193725 0.054817 -0.026550 -924817.000000 0 1 0
-18.897901 -6.681599 -14.833885 24.936290 0.339845 2.207902 0.060332 -0.024925 52492.400000 0 1 0
-18.206701 -6.633599 -16.102785 25.195005 0.349401 2.264158 0.060589 -0.023081 22884.000000 0 0 1
-18.747901 -7.533499 -17.275885 26.583709 0.382084 2.278206 0.054912 -0.013813 40158.700000 0 0 1
-20.040701 -7.181699 -17.729585 27.704597 0.344099 2.265231 0.044495 -0.013563 454469.000000 0 0 1
-20.543801 -8.067699 -18.706985 28.932453 0.374204 2.273882 0.050778 -0.014555 367648.000000 0 0 1
-21.988101 -7.720399 -19.190885 30.188925 0.337670 2.259702 0.035454 -0.014848 -122745.000000 0 0 1
-22.080101 -6.571799 -20.057585 30.545476 0.289285 2.287160 0.039360 -0.018959 698188.000000 0 0 1
-23.304301 -6.426899 -20.789785 31.884332 0.269093 2.281065 0.029059 -0.017452 201581.000000 0 0 1
-24.528101 -5.975799 -20.021285 32.220952 0.238975 2.241292 0.047510 -0.017514 -920793.000000 0 0 1
-24.437501 -4.630599 -19.609085 31.672545 0.187267 2.238417 0.044910 -0.011337 641037.000000 0 0 1
-25.490461 -4.322699 -18.667785 31.889427 0.167983 2.196159 0.051255 -0.004859 325141.000000 0 0 1
-25.491841 -2.784899 -18.477985 31.607365 0.108815 2.195196 0.034254 -0.006658 33215.100000 0 0 1
-25.898631 -1.981099 -19.584585 32.530291 0.076346 2.216852 0.046850 -0.009448 145993.000000 0 0 1
-27.291761 -2.004899 -19.838685 33.799900 0.073330 2.198077 0.064446 -0.002576 39752.800000 0 0 1
-27.651571 -0.790099 -20.751085 34.580936 0.028566 2.214389 0.061360 -0.007847 -470929.000000 0 0 1
-27.163691 -0.800899 -22.067385 35.006814 0.029476 2.252831 0.050035 -0.004644 -180808.000000 0 0 1
-27.771281 -1.655699 -22.991285 36.091337 0.059549 2.261436 0.048112 0.001973 -276296.000000 0 0 1
-27.115721 -1.525599 -24.388685 36.502024 0.056203 2.302511 0.041962 -0.000289 -575610.000000 0 0 1
-27.321441 -0.390499 -25.211395 37.178328 0.014292 2.315999 0.034969 0.005917 -73730.300000 0 0 1
-26.950441 0.840901 -24.700685 36.567161 -0.031192 2.312423 0.038049 0.007394 -796765.000000 0 0 1
-25.524671 1.051201 -24.211885 35.197006 -0.041160 2.329383 0.037932 -0.001315 -803846.000000 0 0 1
-24.538101 0.707101 -25.161865 35.153063 -0.028808 2.368537 0.033357 -0.001305 -656473.000000 0 0 1
-23.251901 0.905401 -24.658985 33.904811 -0.038919 2.385177 0.036249 -0.003770 -566356.000000 0 0 1
-22.160801 0.422101 -25.609755 33.869438 -0.019045 2.428178 0.035903 -0.006916 -375668.000000 0 0 1
-22.077101 1.177301 -26.818035 34.756171 -0.053276 2.452157 0.024407 -0.002279 -256943.000000 0 0 1
-21.228601 0.539301 -27.712425 34.913076 -0.025399 2.487754 0.008628 -0.007225 -318810.000000 0 0 1
-21.009201 1.260201 -29.095615 35.910019 -0.059911 2.515352 0.019414 0.008074 11191.800000 0 0 1
-20.095401 2.371101 -29.019495 35.377653 -0.117449 2.532692 0.029288 0.008459 631524.000000 0 0 1
-20.065101 3.241101 -30.144885 36.356940 -0.160146 2.548359 0.016578 0.006224 -123396.000000 0 0 1
-19.536301 2.616001 -31.474455 37.136934 -0.133113 2.582100 0.015950 0.004789 -610625.000000 0 0 1
-18.144301 2.520201 -31.436605 36.384436 -0.138015 2.613982 0.004123 0.006413 -416850.000000 0 0 1
-17.684701 1.911001 -32.673155 37.201285 -0.107642 2.643050 -0.000597 0.009278 640071.000000 0 0 1
-16.136301 1.760101 -32.757295 36.558427 -0.108648 2.681533 0.002642 -0.002911 633864.000000 0 0 1
-15.474001 3.010401 -32.819705 36.409343 -0.192146 2.693809 0.005907 -0.001880 257377.000000 0 0 1
-14.056301 2.987701 -32.821525 35.829575 -0.209436 2.728904 0.002656 0.000641 343245.000000 0 0 1
-13.441101 4.356901 -33.171615 36.055538 -0.313461 2.738914 0.013845 0.012587 -386718.000000 0 0 1
-13.210201 5.184501 -32.036925 35.039307 -0.373991 2.724607 0.025219 -0.003071 236148.000000 0 0 1
-12.785101 6.466301 -32.493335 35.511810 -0.468252 2.726306 0.033563 0.010700 -179131.000000 0 0 1
-12.485001 7.434701 -31.308635 34.516382 -0.537097 2.707058 0.045722 -0.004841 385088.000000 0 0 1
-11.291801 7.151401 -30.556985 33.352311 -0.564565 2.729259 0.063057 -0.012180 851134.000000 0 0 1
-11.424101 6.019001 -29.657755 32.346884 -0.484911 2.730954 0.052923 -0.009335 -167047.000000 0 0 1
-10.103401 5.206801 -29.542495 31.653570 -0.475853 2.774311 0.069479 -0.023658 109612.000000 0 0 1
-9.656301 4.468301 -30.669055 32.462298 -0.433393 2.807656 0.054688 -0.023259 465096.000000 0 0 1
-10.458601 3.326301 -30.925045 32.814708 -0.307928 2.800573 0.060369 -0.023971 -200395.000000 0 0 1
-9.771101 2.378401 -31.919905 33.466574 -0.238768 2.836385 0.052194 -0.021269 110508.000000 0 0 1
-10.653201 1.303601 -32.286425 34.023570 -0.121762 2.820664 0.054328 -0.024970 514294.000000 0 0 1
-10.186601 0.411901 -33.285595 34.811885 -0.040414 2.844379 0.049751 -0.021140 -679225.000000 0 0 1
-10.646101 0.782301 34.056059 35.689867 -0.073351 0.303748 0.040991 -0.010404 856499.000000 0 0 1
-12.057701 0.755801 33.796004 35.890518 -0.062600 0.343322 -0.001689 -0.000154 540512.000000 0 0 1
-12.346501 1.185201 32.500632 34.786950 -0.095702 0.364572 -0.000229 0.005075 225965.000000 0 0 1
-13.854201 1.190201 32.145352 35.023979 -0.085699 0.408268 -0.004321 0.018894 264010.000000 0 0 1
-14.548901 2.379201 32.446452 35.638510 -0.162097 0.426468 -0.005624 0.023183 246693.000000 0 0 1
-15.777401 2.364601 31.736832 35.521039 -0.148765 0.465793 -0.005262 0.018931 349076.000000 0 0 1
-16.558301 3.696201 31.580122 35.848896 -0.219623 0.492987 0.006075 0.012219 56253.300000 0 0 1
-17.269301 4.233001 32.660962 37.187168 -0.240378 0.498531 0.008594 0.012002 627923.000000 0 0 1
-16.451501 5.180801 33.395382 37.586488 -0.305082 0.476743 -0.000367 0.022602 209356.000000 0 0 1
-17.163501 5.775801 -34.162907 38.665875 -0.324613 2.654167 0.002331 0.021824 90329.100000 0 0 1
-18.377501 6.449001 34.347254 39.484883 -0.337493 0.515830 0.000821 0.010700 -873620.000000 0 0 1
-19.361001 5.890201 -33.657485 39.273008 -0.295333 2.600241 0.003131 0.014152 -286410.000000 0 0 1
-20.742701 6.602501 -33.821205 40.220972 -0.308164 2.569712 0.005442 0.008103 313478.000000 0 0 1
-20.776001 7.921301 -33.248645 39.998270 -0.364258 2.552153 0.005236 0.003505 41056.900000 0 0 1
-20.244801 8.796601 -34.200080 40.704762 -0.409899 2.568446 -0.001606 0.005410 -378699.000000 0 0 1
-20.167801 10.299901 -33.834355 40.713533 -0.472179 2.551762 -0.002586 0.007629 349528.000000 0 0 1
-19.233801 10.531101 -32.706395 39.377042 -0.500946 2.550973 0.000697 0.008805 1108610.000000 0 0 1
-19.037701 11.944301 -32.449075 39.472052 -0.560325 2.535846 0.021850 0.006549 232549.000000 0 0 1
-18.194601 12.697301 -33.567735 40.237517 -0.609289 2.557549 0.019263 -0.000019 -161508.000000 0 0 1
-18.849901 12.860201 33.954679 40.909947 -0.598708 0.591714 0.024362 -0.005666 264156.000000 0 0 1
-17.987301 13.065101 32.869017 39.681383 -0.628193 0.594688 0.033152 -0.008191 -59124.600000 0 0 1
-18.725301 12.525301 31.622212 38.826336 -0.589545 0.619011 0.038748 -0.012954 -48326.600000 0 0 1
-18.852401 11.115301 31.555622 38.402086 -0.532734 0.606380 0.013942 -0.002045 587886.000000 0 0 1
-17.688101 10.389601 31.121562 37.274178 -0.531087 0.582779 0.017176 -0.004517 568139.000000 0 0 1
-17.760601 8.884201 31.252922 37.028544 -0.463823 0.566057 0.013890 0.007122 96279.100000 0 0 1
-18.509401 8.185801 30.259622 36.403983 -0.416391 0.589503 0.019980 -0.000551 260958.000000 0 0 1
-18.619101 6.832301 30.550152 36.423386 -0.351696 0.575811 0.016225 0.002474 -140982.000000 0 0 1
-19.105601 5.995201 29.367582 35.544638 -0.304062 0.598437 0.018510 0.003329 806022.000000 0 0 1
-20.495301 6.180101 29.038602 36.076189 -0.292867 0.635248 0.035461 -0.005642 659787.000000 0 0 1
-20.832001 5.182801 28.044082 35.317194 -0.243840 0.653332 0.020648 -0.003819 -1013930.000000 0 0 1
-22.256601 5.212001 27.561192 35.806990 -0.230033 0.692401 0.009555 0.001536 -1017380.000000 0 0 1
-22.582401 6.180301 26.579032 35.420416 -0.267137 0.722148 0.021740 -0.000955 1213890.000000 0 0 1
-24.008801 6.375101 26.684172 36.456954 -0.259543 0.749637 0.010863 -0.002181 693263.000000 0 0 1
-24.681901 7.187901 25.551552 36.245606 -0.283384 0.788435 0.011877 -0.004880 -250781.000000 0 0 1
-24.698201 6.590001 24.295072 35.265844 -0.260747 0.810809 0.014968 -0.005510 856311.000000 0 0 1
-25.814771 5.693101 24.124112 35.788079 -0.217062 0.831075 0.008495 -0.002532 76883.200000 0 0 1
-25.849671 4.831401 22.889862 34.863931 -0.184772 0.854563 0.014007 -0.004690 -180574.000000 0 0 1
-26.333401 5.588301 21.793062 34.635454 -0.209111 0.890257 0.020229 -0.005215 -145744.000000 0 0 1
-26.501551 4.801001 20.660362 33.944548 -0.179216 0.916438 0.028506 -0.002894 -310634.000000 0 0 1
-27.257321 5.501601 19.529962 33.980120 -0.199164 0.958502 0.043021 -0.009053 -933380.000000 0 0 1
-28.625771 5.489401 19.729262 35.196762 -0.189464 0.975756 0.039518 -0.009451 -949679.000000 0 0 1
-29.348581 5.914601 18.602162 35.247158 -0.198866 1.014831 0.037999 -0.009640 -25700.600000 0 0 1
-30.877061 5.917401 18.794662 36.628511 -0.189348 1.031986 0.034850 -0.011691 79993.300000 0 0 1
-31.340111 6.902801 19.749162 37.681303 -0.216793 1.019126 0.042972 -0.018506 70451.300000 0 0 1
-32.667541 6.638801 20.155862 38.955111 -0.200493 1.026972 0.051957 -0.016996 -218753.000000 0 0 1
-33.150731 7.819701 21.044962 40.037596 -0.231649 1.017341 0.046703 -0.014464 -235294.000000 0 0 1
-32.566751 7.863301 22.318562 40.255968 -0.236917 0.983135 0.035551 -0.012868 -23309.400000 0 0 1
-33.034331 8.913201 23.122762 41.296178 -0.263541 0.976501 0.032705 -0.005240 -11637.800000 0 0 1
-0.516301 32.114801 11.302715 34.049645 -1.554721 1.232428 -0.004488 0.000047 -96395.000000 0 0 1
-1.055301 32.568601 12.531715 34.912337 -1.538405 1.203656 -0.016844 -0.000505 30035.600000 0 0 1
-0.519101 33.856001 12.851615 36.216878 -1.555465 1.208041 -0.021350 -0.009561 -747372.000000 0 0 1
-0.076201 33.972701 14.304715 36.861566 -1.568553 1.172264 -0.028445 0.002509 -880999.000000 0 0 1
-1.110801 34.051801 15.226215 37.317511 -1.538187 1.150514 -0.021397 0.022205 -465532.000000 0 0 1
-0.619101 34.325601 16.516815 38.097708 -1.552762 1.122381 -0.030747 0.007885 185050.000000 0 0 1
-1.731601 -34.362569 17.565315 38.630621 1.520447 1.098762 -0.012659 0.014763 -246651.000000 0 0 1
-2.540301 33.477501 18.032915 38.110133 -1.495061 1.077900 -0.021016 0.014888 -264806.000000 0 0 1
-3.244001 34.013201 19.128815 39.157795 -1.475709 1.060420 -0.006355 0.012892 -213125.000000 0 0 1
-4.363701 33.117301 19.682815 38.771261 -1.439786 1.038324 -0.011773 0.008273 232131.000000 0 0 1
-5.485801 33.018201 18.832615 38.405247 -1.406155 1.058287 -0.004917 0.003155 280427.000000 0 0 1
-6.605201 32.326801 19.382415 38.266548 -1.369245 1.039663 0.019113 -0.018005 577317.000000 0 0 1
-7.674001 32.126301 18.254115 37.738604 -1.336320 1.065921 0.004803 -0.021716 80360.600000 0 0 1
-8.359401 33.351701 17.927015 38.776196 -1.325212 1.090186 0.028999 -0.017779 271287.000000 0 0 1
-9.120201 33.093101 16.721515 38.182986 -1.301880 1.117500 0.054903 -0.017470 507905.000000 0 0 1
-10.180801 34.213801 16.461615 39.309256 -1.281576 1.138704 0.106648 -0.030025 169729.000000 0 0 1
-11.213101 34.244801 17.419115 40.023313 -1.254360 1.120509 0.098122 -0.030392 234075.000000 0 0 1
-12.242401 -33.719369 17.020715 39.706133 1.222528 1.127779 0.077948 -0.033366 -221794.000000 0 0 1
-13.515701 -33.882669 17.847415 40.610832 1.191241 1.115783 0.105149 -0.034860 -403247.000000 0 0 1
-13.540601 -33.302069 19.172415 40.742572 1.184614 1.080855 0.092773 -0.026532 19201.500000 0 0 1
-14.763101 -33.493269 19.869515 41.647879 1.155638 1.073463 0.072573 -0.037544 251956.000000 0 0 1
-14.770301 -33.005169 21.390615 42.012634 1.150011 1.036603 0.072087 -0.045241 -99316.400000 0 0 1
-14.643501 -31.601869 21.582015 40.974305 1.136876 1.016058 0.102614 -0.039413 54933.500000 0 0 1
-14.687001 -31.206169 22.920715 41.411257 1.130908 0.984248 0.062062 -0.035912 97539.700000 0 0 1
-14.369501 -29.702569 23.199215 40.335205 1.120209 0.957996 0.081802 -0.035908 -397336.000000 0 0 1
-14.654501 -29.263969 24.511715 40.889589 1.106533 0.927969 0.066469 -0.033918 -46181.000000 0 0 1
-14.693701 -27.904769 24.729115 40.076304 1.086123 0.905807 0.052284 -0.019274 565485.000000 0 0 1
-16.013201 -27.247469 24.183715 39.795719 1.039474 0.917640 0.077094 -0.016727 527989.000000 0 0 1
-17.189701 -27.660069 24.864315 40.973155 1.014745 0.918712 0.096173 -0.012102 354295.000000 0 0 1
-18.271201 -26.775669 24.562115 40.670268 0.971994 0.922370 0.111722 -0.015674 -341997.000000 0 0 1
-19.191701 -26.628069 25.778515 41.736163 0.946291 0.905040 0.103421 -0.012824 -46693.200000 0 0 1
-20.043201 -27.711769 26.202615 43.084209 0.944620 0.917040 0.107909 -0.013193 1480320.000000 0 0 1
-21.015801 -28.178969 25.200115 43.252329 0.929990 0.948835 0.098416 -0.015841 579083.000000 0 0 1
-22.316101 -27.343669 25.036515 43.272528 0.886295 0.953813 0.078859 -0.009881 -203177.000000 0 0 1
-22.178401 -26.095569 24.302415 41.993661 0.866365 0.953643 0.081021 -0.008889 410082.000000 0 0 1
-23.201201 -25.942969 23.310715 41.889412 0.841131 0.980650 0.045981 -0.005847 58001.200000 0 0 1
-23.733101 -24.500269 23.109615 41.201670 0.801302 0.975336 0.047546 0.003007 -128437.000000 0 0 1
-24.261501 -23.997869 24.312215 41.899904 0.779935 0.951767 0.044953 -0.002741 42473.500000 0 0 1
-24.796701 -22.735969 24.082815 41.373695 0.742071 0.949512 0.023714 0.002842 -17726.800000 0 0 1
-25.239331 -22.061069 25.427915 42.074855 0.718306 0.921847 0.028363 -0.001212 -121738.000000 0 0 1
-26.363741 -22.622869 26.059915 43.427643 0.709181 0.927199 0.005406 0.000381 116875.000000 0 0 1
-26.661881 -21.988069 27.290815 44.035436 0.689622 0.902376 -0.005248 -0.005674 -1192750.000000 0 0 1
-27.886641 -22.610869 28.004915 45.532312 0.681300 0.908340 -0.008326 -0.000452 218519.000000 0 0 1
-29.203901 -22.224969 27.656315 45.953116 0.650521 0.924996 -0.006427 -0.001579 455784.000000 0 0 1
-29.552011 -22.506169 26.344015 45.539611 0.650870 0.953925 -0.011753 0.002414 -1240310.000000 0 0 1
-31.069471 -22.811769 26.249015 46.633675 0.633324 0.972934 -0.011653 0.000006 -53826.600000 0 0 1
-31.506731 -23.363069 25.042515 46.536380 0.638056 1.002582 -0.016019 -0.002564 99935.200000 0 0 1
-31.016671 -24.654169 24.661215 46.669449 0.671604 1.014054 -0.026347 -0.001607 -706291.000000 0 0 1
-31.507161 -25.081069 23.313815 46.532732 0.672324 1.046020 -0.013965 -0.004759 1064670.000000 0 0 1
-32.876051 -25.588769 23.343915 47.755190 0.661394 1.060054 0.005956 -0.006389 1313970.000000 0 0 1
-33.075351 -26.204369 22.071815 47.621558 0.670005 1.088874 0.007090 -0.007099 370963.000000 0 0 1
-34.433927 -26.981369 22.119515 49.020022 0.664642 1.102648 0.022066 -0.010975 384286.000000 0 0 1
-34.429231 -28.009369 23.068515 50.020527 0.682939 1.091471 0.020956 -0.005685 435526.000000 0 0 1
-33.658851 -29.209269 22.777215 50.048988 0.714740 1.098314 0.001372 0.000991 -1077960.000000 0 0 1
-34.075988 -30.109469 21.595215 50.339909 0.723679 1.127424 0.012350 -0.005951 -529619.000000 0 0 1
-33.916781 -29.614869 20.290915 49.387344 0.717788 1.147407 -0.007416 -0.001313 608051.000000 0 0 1
-34.295827 -30.646469 19.352415 49.899156 0.729263 1.172520 -0.000090 -0.006716 -130432.000000 0 0 1
-34.804984 -30.226369 17.948315 49.468801 0.715108 1.199503 -0.007943 -0.001885 407480.000000 0 0 1
-33.727661 -29.801369 17.048415 48.128216 0.723674 1.208707 0.005983 -0.004486 1041830.000000 0 0 1
-34.061701 -29.363769 15.723615 47.640975 0.711463 1.234446 -0.005891 0.008698 -396804.000000 0 0 1
-34.814622 -30.284169 14.798415 48.458043 0.715917 1.260452 -0.003475 0.002509 -64020.900000 0 0 1
-33.968001 -31.281569 14.276815 48.334140 0.744250 1.270946 0.015650 -0.012637 214854.000000 0 0 1
-34.630257 -32.140769 13.313515 49.086999 0.748131 1.296133 0.019237 -0.010857 252939.000000 0 0 1
-34.671445 -31.634469 11.873615 48.413133 0.739628 1.323013 0.023183 -0.014583 80072.800000 0 0 1
35.476107 -30.703069 11.694215 48.352738 -0.713400 1.326522 0.010750 -0.013824 158882.000000 0 0 1
35.555644 -29.987569 10.533415 47.690785 -0.700649 1.348091 0.005852 -0.001456 -990788.000000 0 0 1
34.347144 -29.125569 10.496215 46.240628 -0.703318 1.341809 0.017469 0.006060 -812590.000000 0 0 1
34.513954 -28.161069 9.443215 45.534967 -0.684381 1.361896 0.019785 -0.023750 329799.000000 0 0 1
33.399294 -27.289069 9.425915 44.148092 -0.685054 1.355633 0.026224 -0.021259 930.567000 0 0 1
33.410034 -26.311769 8.236515 43.317200 -0.667098 1.379487 0.024552 -0.019037 189924.000000 0 0 1
34.292514 -25.202769 8.385415 43.375930 -0.633790 1.376252 0.027838 -0.023174 322597.000000 0 0 1
34.219884 -24.439969 7.195115 42.662422 -0.620195 1.401334 0.039829 -0.029940 -177056.000000 0 0 1
34.681064 -22.968169 7.292215 42.231380 -0.584951 1.397254 0.051573 -0.033346 -500881.000000 0 0 1
33.960784 -22.036469 8.051015 41.276624 -0.575587 1.374488 0.027691 -0.019379 -500451.000000 0 0 1
34.310304 -20.703369 7.773815 40.819832 -0.542927 1.379184 0.041048 -0.021039 315101.000000 0 0 1
33.526024 -19.668869 8.687815 39.828845 -0.530564 1.350900 0.049597 -0.015533 482611.000000 0 0 1
33.956094 -19.804169 10.045615 40.572600 -0.527996 1.320598 0.039319 -0.017498 171268.000000 0 0 1
33.221854 -18.899169 10.862715 39.734982 -0.517221 1.293892 0.034993 -0.009583 18895.700000 0 0 1
33.692014 -18.991769 12.347715 40.599325 -0.513291 1.261765 0.027340 -0.017365 422085.000000 0 0 1
34.867394 -18.220969 12.581215 41.304066 -0.481547 1.261278 0.001035 -0.015478 328158.000000 0 0 1
35.319882 -18.413469 13.910815 42.190766 -0.480569 1.234797 0.004965 -0.004552 -361089.000000 0 0 1
-34.724221 -17.467069 14.321915 41.424477 0.466063 1.217774 0.013228 -0.010516 -89634.200000 0 0 1
-33.523901 -17.935369 13.743115 40.427746 0.491256 1.223940 0.015992 -0.016793 -211835.000000 0 0 1
-32.386671 -17.307569 14.303715 39.408688 0.490791 1.199355 0.008802 -0.012142 554491.000000 0 0 1
-31.101641 -17.599869 13.454315 38.184893 0.514955 1.210719 0.022864 -0.013949 155041.000000 0 0 1
-30.643241 -18.909969 13.535915 38.468379 0.552899 1.211227 0.013470 -0.009231 -415532.000000 0 0 1
-29.387121 -19.015769 12.945115 37.319946 0.574319 1.216566 -0.007678 -0.006119 -325452.000000 0 0 1
-28.770661 -20.447769 12.803115 37.547063 0.617882 1.222828 -0.015956 -0.004204 82096.500000 0 0 1
-29.354161 -21.194869 11.740315 38.062110 0.625365 1.257232 -0.006004 0.000062 481145.000000 0 0 1
-28.418201 -22.137169 11.175615 37.716611 0.661791 1.269975 0.003690 -0.002345 214100.000000 0 0 1
-29.003311 -22.623469 9.811315 38.069349 0.662445 1.310132 0.018629 -0.006552 448969.000000 0 0 1
-29.898981 -23.701969 9.820615 39.397676 0.670295 1.318871 0.016986 -0.009690 -143528.000000 0 0 1
-31.239811 -23.351969 10.107215 40.291389 0.641904 1.317235 0.021411 -0.013451 -239655.000000 0 0 1
-32.159701 -24.570569 10.307715 41.763719 0.652412 1.321409 0.034178 -0.018615 -298411.000000 0 0 1
-32.348731 -25.312169 9.137015 42.078871 0.663965 1.351913 0.038533 -0.011074 440461.000000 0 0 1
-33.359111 -26.341569 9.209315 43.491609 0.668390 1.357432 0.043036 -0.013225 792044.000000 0 0 1
-33.420871 -27.183269 7.894915 43.797425 0.682836 1.389546 0.035910 -0.020165 -325709.000000 0 0 1
-32.226641 -27.872369 7.736315 43.304456 0.713073 1.391183 0.028495 -0.017216 -754178.000000 0 0 1
-32.161921 -28.534069 6.482815 43.481136 0.725698 1.421143 0.026588 -0.012801 -172867.000000 0 0 1
-30.779681 -28.942569 5.933515 42.664595 0.754647 1.431271 0.041677 -0.011348 -52254.100000 0 0 1
-30.094011 -27.883869 5.319015 41.369694 0.747296 1.441867 0.053155 -0.008950 -883357.000000 0 0 1
-28.962231 -28.314069 4.650715 40.769186 0.774082 1.456473 0.044993 -0.011484 -359476.000000 0 0 1
-28.174501 -27.162169 3.962215 39.335545 0.767106 1.469897 0.043520 -0.009488 299860.000000 0 0 1
-28.778541 -26.803369 2.746515 39.422942 0.749877 1.501072 0.045007 -0.008119 -30875.900000 0 0 1
-28.215671 -25.566269 2.408215 38.151772 0.736176 1.507632 0.036700 -0.004258 -51947.700000 0 0 1
-28.515831 -25.032269 0.965915 37.956556 0.720435 1.545346 0.044237 -0.003996 -37130.900000 0 0 1
-27.825251 -25.677769 -0.117585 37.862993 0.745282 1.573902 0.036112 -0.003884 79662.100000 0 0 1
-27.889311 -25.036169 -1.417685 37.505110 0.731542 1.608605 0.034538 -0.012607 643785.000000 0 0 1
-29.297191 -24.972469 -2.125985 38.554759 0.705877 1.625966 0.059268 -0.017158 183026.000000 0 0 1
-30.091141 -23.932469 -1.742385 38.487345 0.671889 1.616083 0.051363 -0.008030 -1047440.000000 0 0 1
-31.359541 -24.150969 -2.309285 39.648744 0.656261 1.629073 0.057179 -0.016933 -384069.000000 0 0 1
-32.204621 -22.876969 -2.192385 39.563871 0.617647 1.626239 0.043636 -0.017563 -370656.000000 0 0 1
-32.519701 -22.464769 -0.854585 39.533873 0.604528 1.592415 0.050982 -0.023852 245202.000000 0 0 1
-33.347121 -21.329169 -0.787385 39.592726 0.569037 1.590685 0.058927 -0.009197 -400716.000000 0 0 1
-33.540151 -20.792669 0.646715 39.467646 0.554948 1.554410 0.047555 -0.016052 -49448.300000 0 0 1
-34.441900 -21.669469 1.328415 40.713328 0.561585 1.538162 0.052814 -0.020337 435290.000000 0 0 1
-34.551174 -21.336269 2.669115 40.695751 0.553207 1.505162 0.054943 -0.022325 -628689.000000 0 0 1
35.561972 -22.205969 3.396315 42.062975 -0.558189 1.489965 0.067797 -0.017884 850597.000000 0 0 1
34.230234 -21.987869 2.925215 40.788874 -0.570980 1.499019 0.045255 -0.017365 239015.000000 0 0 1
33.674454 -20.894669 3.642215 39.797259 -0.555350 1.479149 0.037030 -0.016002 -98497.800000 0 0 1
32.322574 -20.478869 2.946815 38.377293 -0.564744 1.493935 0.029555 -0.007813 -28351.300000 0 0 1
31.313824 -21.409269 3.066815 38.056770 -0.599703 1.490124 0.022699 -0.008313 -1609410.000000 0 0 1
30.219734 -20.942269 2.362715 36.842820 -0.606012 1.506623 0.021317 -0.010663 -978077.000000 0 0 1
28.956404 -21.766869 2.583115 36.317247 -0.644596 1.499610 0.012955 0.001102 -805135.000000 0 0 1
28.909174 -23.096369 2.063315 37.059950 -0.674087 1.515092 0.012495 -0.011602 -23203.400000 0 0 1
27.596694 -23.522069 2.374715 36.338747 -0.705857 1.505400 0.003212 -0.006032 -149047.000000 0 0 1
27.073734 -24.729069 1.599515 36.702485 -0.740168 1.527202 0.009628 -0.007117 -55081.700000 0 0 1
26.919084 -24.463869 0.173415 36.375102 -0.737652 1.566029 0.001121 -0.008582 186837.000000 0 0 1
26.554684 -25.601769 -0.624085 36.891616 -0.767130 1.587714 0.001624 -0.006692 -486654.000000 0 0 1
25.683024 -25.374569 -1.832085 36.150284 -0.779357 1.621498 0.000207 -0.010773 -163263.000000 0 0 1
26.410764 -24.777569 -2.917885 36.331398 -0.753503 1.651196 0.002911 -0.026005 264851.000000 0 0 1
26.570234 -25.603969 -4.032385 37.118738 -0.766880 1.679646 0.009898 -0.021715 142457.000000 0 0 1
25.361024 -25.788769 -5.045185 36.519804 -0.793761 1.709389 0.015546 -0.021570 495205.000000 0 0 1
25.136724 -24.735169 -5.953985 35.764975 -0.777347 1.738050 0.007041 -0.029848 331757.000000 0 0 1
24.308824 -23.761169 -5.288585 34.401762 -0.774006 1.725138 0.013003 -0.039701 -315170.000000 0 0 1
23.708724 -22.709669 -6.270285 33.423781 -0.763879 1.759514 0.016960 -0.038529 -363273.000000 0 0 1
22.978824 -23.432969 -7.230085 33.606615 -0.795183 1.787630 0.031244 -0.032232 -114072.000000 0 0 1
21.827624 -22.854969 -7.795585 32.550975 -0.808386 1.812635 0.030914 -0.035689 -55627.900000 0 0 1
21.974924 -21.538569 -8.619785 31.954780 -0.775370 1.843929 0.035895 -0.035864 -538552.000000 0 0 1
22.700724 -21.563469 -9.830285 32.816773 -0.759711 1.875018 0.045369 -0.035429 98900.100000 0 0 1
22.507424 -20.367769 -10.520585 32.126514 -0.735535 1.904425 0.045322 -0.040472 -375498.000000 0 0 1
23.288924 -20.205469 -11.807085 33.015788 -0.714623 1.936514 0.040057 -0.036202 -76114.300000 0 0 1
24.684124 -20.003969 -11.667385 33.846605 -0.681049 1.922730 0.040123 -0.028964 30503.000000 0 0 1
25.192224 -19.583369 -12.923785 34.426454 -0.660781 1.955628 0.036200 -0.024688 432515.000000 0 0 1
26.759304 -19.608869 -12.958285 35.615801 -0.632393 1.943178 0.017089 -0.023996 644730.000000 0 0 1
27.421104 -20.841469 -13.183685 36.879444 -0.649904 1.936365 0.022197 -0.020179 338234.000000 0 0 1
27.395174 -21.763869 -12.042485 37.002473 -0.671343 1.902285 0.029642 -0.037704 -472409.000000 0 0 1
27.574734 -23.201869 -12.467685 38.133134 -0.699490 1.903872 0.030011 -0.017148 -461133.000000 0 0 1
28.889264 -23.489269 -12.857985 39.391156 -0.682666 1.903308 0.028065 -0.018537 -25116.900000 0 0 1
28.937544 -24.822869 -13.353785 40.396533 -0.709010 1.907701 0.028227 -0.009460 -269317.000000 0 0 1
-3.872501 -9.304999 -27.376045 29.172369 1.176425 2.788836 0.010985 -0.002944 116472.000000 0 0 1
-3.889301 -7.950899 -26.925775 28.343268 1.115854 2.823995 0.008240 -0.001447 252793.000000 0 0 1
-4.536701 -7.084499 -27.864695 29.106924 1.001221 2.848386 0.010745 -0.000604 -16883.800000 0 0 1
-4.482801 -5.608999 -27.350425 28.277237 0.896534 2.884857 0.011895 -0.007633 63176.800000 0 0 1
-5.242601 -5.445199 -26.147935 27.218552 0.804352 2.860187 0.011833 -0.009447 333791.000000 0 0 1
-5.093001 -4.175399 -25.607965 26.441265 0.686716 2.889870 0.019425 -0.009757 490994.000000 0 0 1
-5.858901 -4.109699 -24.213585 25.249041 0.611695 2.854214 0.020385 -0.004447 360552.000000 0 0 1
-5.215401 -4.926099 -23.255985 24.337373 0.756879 2.842373 0.023219 -0.016708 309056.000000 0 1 0
-5.801501 -4.838099 -21.985985 23.247541 0.695096 2.810642 0.029181 -0.006297 -614977.000000 0 1 0
-5.097801 -5.694499 -20.928285 22.280216 0.840631 2.791443 0.026979 -0.008008 -430673.000000 0 1 0
-5.324801 -7.069999 -21.017585 22.805203 0.925279 2.743014 0.015142 -0.006746 5558.180000 0 1 0
-4.546501 -7.789499 -20.133385 22.061282 1.042470 2.720424 0.024070 -0.018225 -1133660.000000 0 1 0
-5.028101 -9.305199 -20.025785 22.647309 1.075389 2.655673 0.020151 -0.020580 220807.000000 0 1 0
-6.219101 -9.532399 -19.300185 22.406271 0.992724 2.608765 0.020577 -0.010165 551274.000000 0 1 0
-7.417801 -9.045599 -19.927085 23.107041 0.883952 2.610751 0.014318 0.000798 -821790.000000 0 1 0
-8.596801 -9.305599 -19.020885 22.853736 0.824970 2.554018 0.021263 0.003588 -953463.000000 0 1 0
-8.979801 -10.676699 -18.779685 23.394557 0.871512 2.502668 0.027356 -0.002361 620077.000000 0 1 0
-9.995101 -10.668399 -17.761285 23.003913 0.817971 2.452933 0.036053 0.003875 283291.000000 0 1 0
-10.786701 -12.002699 -17.664285 23.925816 0.838706 2.401334 0.040957 0.003778 215865.000000 0 1 0
-11.945901 -12.119999 -18.505885 25.140937 0.792632 2.398066 0.049872 -0.006486 634538.000000 0 0 1
-11.604901 -12.389999 -19.860885 26.127391 0.818106 2.434349 0.042509 -0.002780 -1241560.000000 0 0 1
-12.753401 -12.287199 -20.878985 27.378030 0.766782 2.438148 0.049841 -0.011257 435470.000000 0 0 1
-13.767801 -13.291499 -20.744585 28.223290 0.767798 2.396487 0.047136 -0.001576 378402.000000 0 0 1
-14.613701 -13.242699 -19.600485 27.804826 0.736221 2.353122 0.035243 0.004583 -1330570.000000 0 0 1
-15.786301 -14.196099 -19.753085 28.998636 0.732410 2.320160 0.035103 0.007079 -382656.000000 0 0 1
-15.381301 -15.568599 -19.851185 29.547170 0.791450 2.307496 0.037027 0.000760 -112958.000000 0 0 1
-15.847701 -16.127599 -21.035685 30.882829 0.794152 2.320122 0.047779 -0.004066 31835.400000 0 0 1
-15.357401 -17.571099 -21.345285 31.626168 0.852525 2.311659 0.026553 0.000206 74453.600000 0 0 1
-15.791501 -18.700399 -20.507385 31.931634 0.869535 2.268198 0.022132 0.013232 263673.000000 0 0 1
-15.330501 -19.885199 -21.103785 32.799621 0.914021 2.269748 0.024544 0.011130 -187246.000000 0 0 1
-15.999301 -21.162299 -20.538585 33.550768 0.923448 2.229591 0.023217 0.011834 -134562.000000 0 0 1
-15.464301 -22.334299 -21.090085 34.391238 0.965188 2.230952 0.025973 0.004791 382003.000000 0 0 1
-16.031301 -23.479899 -20.389485 34.986274 0.971730 2.192948 0.035541 0.010414 408855.000000 0 0 1
-15.434401 -24.850199 -20.829285 35.911172 1.015008 2.189553 0.046543 0.001943 -60974.700000 0 0 1
-15.946101 -25.230919 -22.110185 37.144821 1.007175 2.208364 0.029362 -0.001058 615783.000000 0 0 1
-15.277201 -26.411159 -22.619185 37.981176 1.046383 2.208730 0.029504 0.000004 77774.200000 0 0 1
-15.725901 -26.665769 -24.050485 39.201952 1.037954 2.231284 0.026518 0.000250 -67391.300000 0 0 1
-16.958601 -27.315549 -24.260285 40.277721 1.015194 2.217207 0.042796 -0.001516 -134042.000000 0 0 1
-16.861201 -28.703429 -24.216885 41.166060 1.039672 2.199718 0.042815 0.006331 -160350.000000 0 0 1
-17.681501 -29.572869 -25.200895 42.688115 1.031925 2.202288 0.049728 0.001716 -248385.000000 0 0 1
-17.219101 -29.492719 -26.580355 43.276243 1.042342 2.232171 0.041473 0.003568 101050.000000 0 0 1
-17.505301 -28.301809 -27.281925 43.031749 1.016869 2.257505 0.071476 -0.005057 -355877.000000 0 0 1
-16.471301 -27.752179 -28.273255 42.905293 1.035160 2.290243 0.067606 -0.006348 -358483.000000 0 0 1
-16.371101 -28.571389 -29.416415 44.154985 1.050474 2.299909 0.072551 -0.009653 308210.000000 0 0 1
-15.172201 -28.299529 -30.123025 44.027897 1.078665 2.324276 0.028741 0.007131 -50616.800000 0 0 1
-15.449801 -28.393479 -31.619695 45.218261 1.072469 2.345170 0.041377 0.000892 -132994.000000 0 0 1
-15.545001 -29.733639 -32.000515 46.365605 1.089069 2.332531 0.023826 0.008483 184045.000000 0 0 1
-16.164201 -29.803249 -33.266985 47.499551 1.073835 2.346704 0.032188 0.000137 15403.700000 0 0 1
-16.294601 -31.273699 -33.811865 48.854892 1.090465 2.335174 0.026200 -0.001200 1045990.000000 0 0 1
-15.031201 -31.650609 34.374120 49.084399 1.127421 0.794970 0.021359 0.009644 771088.000000 0 0 1
-15.126101 -32.760779 33.495831 49.234523 1.138244 0.822581 0.017325 0.003988 712331.000000 0 0 1
-13.749501 -33.260479 32.903200 48.764012 1.178802 0.830179 0.013201 0.001363 762748.000000 0 0 1
-12.939801 -33.963999 33.816375 49.644123 1.206788 0.821429 0.018204 0.008620 -611216.000000 0 0 1
-11.937501 34.272935 33.120414 49.133490 -1.235631 0.831064 0.023757 0.002334 -414792.000000 0 0 1
-11.088701 33.250273 33.944257 48.792956 -1.248903 0.801431 0.027795 -0.003505 179592.000000 0 0 1
-10.405001 33.857676 -33.783015 48.947915 -1.272641 2.332538 0.025227 0.003914 -454839.000000 0 0 1
-9.727201 32.971067 -32.983415 47.640480 -1.283912 2.335523 0.024589 -0.006971 -775146.000000 0 0 1
-8.900001 33.651416 -31.893985 47.210741 -1.312240 2.312529 0.008709 -0.003247 -575427.000000 0 0 1
-9.595301 34.133924 -30.812185 46.974305 -1.296761 2.286220 0.019401 0.005671 -387109.000000 0 0 1
-8.978601 -33.566919 -30.301785 46.103704 1.309431 2.287964 0.010114 0.008968 16451.800000 0 0 1
-9.825601 -32.802539 -29.231325 45.022432 1.279764 2.277409 0.011817 0.024127 -86082.800000 0 0 1
-9.797301 -33.347659 -27.914485 44.578829 1.285044 2.247444 0.036969 0.016954 -289834.000000 0 0 1
-10.525001 34.327422 -27.716445 45.358008 -1.273290 2.228195 0.044634 0.005655 -218629.000000 0 0 1
-10.879301 34.252427 -26.238035 44.497443 -1.263253 2.201425 0.041252 -0.009359 369473.000000 0 0 1
-9.761001 34.094810 -25.365615 43.602152 -1.291965 2.191677 0.054152 -0.014600 130215.000000 0 0 1
-10.194101 33.689682 -24.126985 42.673479 -1.276967 2.171697 0.055771 -0.021192 12201.200000 0 0 1
-9.097601 33.774726 -23.046785 41.888575 -1.307680 2.153391 0.070169 -0.016114 200884.000000 0 0 1
-8.160801 32.718061 -23.163485 40.909867 -1.326356 2.172694 0.053523 -0.033705 40013.800000 0 0 1
-7.207101 32.788591 -22.129885 40.209026 -1.354432 2.153605 0.057923 -0.027946 -34975.600000 0 0 1
-6.129001 31.669661 -22.045785 39.071073 -1.379630 2.170319 0.052052 -0.036960 434559.000000 0 0 1
-5.199101 31.723151 -23.148885 39.613884 -1.408351 2.194891 0.035481 -0.041322 207325.000000 0 0 1
-4.343801 30.603611 -23.033985 38.548853 -1.429801 2.211210 0.036482 -0.032024 -847473.000000 0 0 1
-2.926101 30.877411 -23.501485 38.913961 -1.476313 2.219225 0.037423 -0.032333 -872313.000000 0 0 1
-2.571301 30.819501 -24.839485 39.666778 -1.487558 2.247471 0.047001 -0.031801 101077.000000 0 0 1
-3.231901 31.803001 -25.648905 40.984660 -1.469521 2.246975 0.044876 -0.032761 -702793.000000 0 0 1
-2.463901 32.167931 -26.883805 41.995066 -1.494351 2.265510 0.045763 -0.027098 114736.000000 0 0 1
-1.337001 33.058434 -26.767895 42.557818 -1.530375 2.251033 0.044546 -0.028993 734765.000000 0 0 1
-1.743701 34.409589 -26.643405 43.553775 -1.520165 2.229049 0.021774 -0.020392 392687.000000 0 0 1
-0.555201 -33.571909 -27.111205 43.155519 1.554260 2.250061 0.008144 -0.010537 265846.000000 0 0 1
0.472699 -33.299859 -26.202955 42.375688 -1.556602 2.237436 0.005678 -0.013402 -327739.000000 0 0 1
1.422799 -32.437189 -26.779455 42.087229 -1.526961 2.260469 0.001380 -0.003846 688695.000000 0 0 1
2.612399 -32.110919 -25.784525 41.264725 -1.489620 2.245744 0.003332 -0.002173 68248.400000 0 0 1
2.165099 -31.386989 -24.685485 39.990048 -1.501925 2.236091 -0.006480 0.002699 -82483.400000 0 0 1
3.150499 -30.624739 -24.052985 39.068483 -1.468283 2.234022 -0.013529 0.005585 -707103.000000 0 0 1
2.799799 -30.013699 -22.676485 37.721135 -1.477781 2.215750 -0.004316 0.005447 -314665.000000 0 0 1
2.957299 -30.851129 -21.554185 37.750771 -1.475231 2.178471 0.004128 0.008410 395483.000000 0 0 1
2.793999 -30.053409 -20.395785 36.428037 -1.478095 2.165052 0.012250 0.007600 -563162.000000 0 0 1
2.701599 -30.906459 -19.070285 36.416804 -1.483606 2.121946 0.018980 0.010784 173791.000000 0 0 1
1.527499 -31.717509 -19.010785 37.010047 -1.522674 2.110248 0.024068 -0.000052 368553.000000 0 0 1
1.667699 -33.037139 -19.515485 38.406874 -1.520360 2.103803 0.014585 0.006564 -329440.000000 0 0 1
2.221399 -34.153794 -18.610085 38.958331 -1.505847 2.068822 0.010093 -0.006311 550940.000000 0 0 1
3.619499 -33.945019 -18.355085 38.759183 -1.464569 2.064133 0.010882 -0.000611 685600.000000 0 0 1
4.131199 33.728331 -17.707385 38.317341 1.448919 2.051186 0.020674 -0.012137 382181.000000 0 0 1
5.097599 32.915191 -18.606785 38.152428 1.417146 2.080245 0.027731 -0.011665 -450857.000000 0 0 1
6.247999 33.604333 -18.966085 39.089654 1.386967 2.077382 0.047412 -0.009126 -304790.000000 0 0 1
7.172899 32.781491 -19.690085 38.907275 1.355382 2.101427 0.035125 -0.008751 1754650.000000 0 0 1
8.633599 33.359203 -19.923185 39.803376 1.317546 2.095019 0.027876 -0.009742 1343300.000000 0 0 1
9.433899 33.523792 -18.739585 39.547631 1.296481 2.064452 0.033032 -0.006129 152789.000000 0 0 1
10.679999 34.090705 -19.075985 40.498540 1.267199 2.061253 0.037528 0.000288 -204015.000000 0 0 1
11.530899 34.317507 -17.833285 40.356895 1.246642 2.028500 0.030380 -0.001394 -259790.000000 0 0 1
11.857899 33.095222 -17.150785 39.115891 1.226750 2.024682 0.028213 -0.004078 37591.500000 0 0 1
12.797399 33.312494 -16.124285 39.159778 1.204017 1.995177 0.033242 -0.008431 873585.000000 0 0 1
13.932499 32.237811 -15.834285 38.524221 1.162861 1.994371 0.031464 -0.011547 1093340.000000 0 0 1
13.521099 31.095451 -15.171085 37.147127 1.160633 1.991503 0.037096 -0.014408 15001.300000 0 0 1
14.709899 30.413131 -14.786285 36.877824 1.120298 1.983354 0.027560 -0.005219 433536.000000 0 0 1
14.550999 29.224061 -13.760585 35.427828 1.108821 1.969704 0.033046 -0.015934 -525106.000000 0 0 1
14.374099 29.757351 -12.435385 35.309396 1.120806 1.930699 0.037562 -0.023067 846514.000000 0 0 1
13.043599 29.527841 -11.912085 34.408235 1.154833 1.924312 0.065644 -0.021616 1027260.000000 0 0 1
12.773399 28.084541 -11.594785 32.959675 1.143942 1.930276 0.050155 -0.022765 -790942.000000 0 0 1
12.177999 27.303831 -12.642885 32.459904 1.151259 1.970877 0.028231 -0.021814 104260.000000 0 0 1
11.804999 25.963111 -12.313785 31.065583 1.144054 1.978367 0.038092 -0.020444 -321428.000000 0 0 1
10.914699 25.718451 -11.124885 30.072121 1.169441 1.949741 0.035200 -0.018059 -763568.000000 0 0 1
9.675699 26.368781 -11.323285 30.284460 1.219113 1.954004 0.029167 -0.015463 89021.700000 0 0 1
8.973199 26.654701 -10.121285 29.890329 1.246067 1.916240 0.015274 -0.005150 255566.000000 0 0 1
7.873199 27.744741 -10.193385 30.588609 1.294293 1.910536 0.018298 -0.011708 276700.000000 0 0 1
8.431699 28.994731 -10.515285 31.974352 1.287800 1.905899 0.027906 -0.017113 309640.000000 0 0 1
7.436099 30.017181 -10.425585 32.634637 1.327957 1.895960 0.017794 -0.017966 85703.200000 0 0 1
7.892299 31.374781 -10.976885 34.163683 1.324360 1.897901 0.038989 -0.024036 206398.000000 0 0 1
8.820999 32.050061 -10.109685 34.745103 1.302220 1.866034 0.031055 -0.019260 147094.000000 0 0 1
9.310699 33.262365 -10.656485 36.147403 1.297865 1.870049 0.041591 -0.018434 350376.000000 0 0 1
10.474599 33.186117 -11.672985 36.705506 1.265061 1.894434 0.053439 -0.025874 -575784.000000 0 0 1
11.756899 32.920381 -11.200185 36.707224 1.227783 1.880863 0.053057 -0.015681 -962061.000000 0 0 1
12.677999 33.378928 -12.140985 37.713234 1.207806 1.898563 0.069148 -0.012434 32179.900000 0 0 1
14.141899 33.249035 -11.644485 37.961634 1.168644 1.882566 0.056545 -0.016129 302512.000000 0 0 1
14.582899 34.204575 -10.720485 38.698097 1.167788 1.851497 0.064817 -0.013269 -209654.000000 0 0 1
15.970799 34.130586 -10.485585 39.114074 1.133130 1.842193 0.037687 -0.018681 -39613.700000 0 0 1
16.447599 -33.801059 -9.374985 38.741779 -1.117926 1.815209 0.039392 -0.018501 -87737.300000 0 0 1
16.338799 -34.282283 -8.050185 38.820572 -1.126047 1.779681 0.035448 -0.018148 258625.000000 0 0 1
16.953399 -33.360219 -7.143085 38.096530 -1.100617 1.759412 0.033977 -0.007852 -823874.000000 0 0 1
17.214599 -34.092222 -5.752485 38.622702 -1.103203 1.720293 0.031961 -0.003836 550969.000000 0 0 1
18.158399 33.704545 -5.761385 38.715854 1.076630 1.720163 0.019720 -0.013255 1361900.000000 0 0 1
19.488099 34.114327 -6.193685 39.773547 1.051778 1.727156 0.025816 -0.004920 277209.000000 0 0 1
20.276799 32.984442 -6.977885 39.342253 1.019610 1.749103 0.020993 -0.006816 286462.000000 0 0 1
20.536199 31.814541 -6.222885 38.374794 0.997593 1.733676 0.028305 0.000978 -518087.000000 0 0 1
21.468099 31.937831 -5.190685 38.831012 0.978984 1.704871 0.020882 0.008704 -996851.000000 0 0 1
21.839199 30.539971 -4.657185 37.832920 0.950006 1.694208 0.007181 0.007864 -166288.000000 0 0 1
22.525999 29.764551 -5.619085 37.748155 0.922953 1.720209 0.002346 0.008150 -55562.300000 0 0 1
22.886599 28.527401 -5.051185 36.920502 0.894674 1.708039 0.011482 0.014030 256427.000000 0 0 1
23.819299 27.725731 -6.051885 37.049973 0.861040 1.734875 -0.000583 0.020945 -882597.000000 0 0 1
25.007699 28.402551 -6.309885 38.365408 0.848875 1.736015 0.002613 0.019772 -432944.000000 0 0 1
25.945899 27.624191 -7.042285 38.547106 0.816717 1.754521 -0.005755 0.021610 66089.700000 0 0 1
26.651499 26.532491 -6.192385 38.113267 0.783160 1.733993 0.002929 0.021039 -1445380.000000 0 0 1
27.608799 27.116761 -5.370685 39.069282 0.776407 1.708699 0.008019 0.014044 -385618.000000 0 0 1
28.367399 26.203761 -4.609885 38.892126 0.745771 1.689606 0.015657 0.025829 -403201.000000 0 0 1
29.480599 26.912511 -3.842385 40.101782 0.739891 1.666759 0.014530 0.014440 -586137.000000 0 0 1
29.222799 27.795971 -2.746785 40.424409 0.760380 1.638797 0.023126 -0.000666 -20367.400000 0 0 1
30.384699 28.039591 -1.971485 41.392455 0.745280 1.618443 0.028892 -0.009037 119954.000000 0 0 1
30.237399 29.271931 -1.031585 42.097629 0.769176 1.595303 0.032758 -0.013953 21622.000000 0 0 1
30.273299 30.488721 -1.750085 43.001134 0.788943 1.611506 0.027893 -0.002770 166823.000000 0 0 1
29.835299 31.590411 -0.971685 43.463126 0.813963 1.593155 0.033213 -0.010939 -342359.000000 0 0 1
32.799834 22.648401 19.396562 44.328386 0.604324 1.117907 0.049991 -0.013513 -23174.500000 0 0 1
33.035574 22.620001 20.801162 45.118754 0.600395 1.091639 0.053055 -0.021920 -21208.100000 0 0 1
33.737284 23.785401 21.100562 46.359286 0.614086 1.098252 0.062017 -0.020390 -196952.000000 0 0 1
33.872594 24.032501 22.642562 47.303270 0.617071 1.071659 0.061817 -0.016199 149649.000000 0 0 1
32.668374 24.520701 23.224362 46.987854 0.643881 1.053809 0.040047 -0.018152 406303.000000 0 0 1
32.603814 24.397401 24.609552 47.580163 0.642412 1.027193 0.042116 -0.017432 -642829.000000 0 0 1
31.213084 24.717701 25.155882 47.096069 0.669784 1.007306 0.055436 -0.020909 -294475.000000 0 0 1
30.936574 26.096501 25.134372 47.642792 0.700737 1.015072 0.042368 -0.028691 -372504.000000 0 0 1
29.588704 26.446101 25.147872 46.981945 0.729374 1.005973 0.023342 -0.028455 -540330.000000 0 0 1
29.364824 27.983601 25.409422 47.864533 0.761318 1.011180 0.008282 -0.013039 -278601.000000 0 0 1
29.591704 28.862701 24.305622 47.952974 0.772927 1.039254 0.003715 -0.016263 133895.000000 0 0 1
29.189404 30.161701 24.576392 48.638961 0.801779 1.041088 -0.008047 -0.012604 -232618.000000 0 0 1
29.455544 31.082401 23.352762 48.775980 0.812265 1.071536 0.001394 -0.010131 -43459.300000 0 0 1
30.785614 31.286901 22.931862 49.522667 0.793474 1.089354 -0.011976 -0.004460 -255135.000000 0 0 1
30.823464 32.485001 22.175162 49.970982 0.811637 1.111005 -0.006768 -0.007310 181666.000000 0 0 1
32.234274 32.921901 21.698062 50.928439 0.795951 1.130674 -0.000336 -0.019016 383023.000000 0 0 1
33.022854 33.371001 22.792462 52.188398 0.790642 1.118831 -0.001716 -0.007532 -695278.000000 0 0 1
34.267864 33.829401 22.404762 53.110152 0.778959 1.135306 0.006552 -0.003460 -665675.000000 0 0 1
34.756964 -33.791669 23.162462 53.725442 -0.771317 1.125055 0.005543 -0.001911 -129919.000000 0 0 1
34.007354 -32.622469 22.858262 52.375813 -0.764616 1.119172 -0.001443 -0.001967 67817.800000 0 0 1
34.339334 -31.467269 23.566762 52.199341 -0.741782 1.102377 0.020362 -0.003951 -1251660.000000 0 0 1
33.555554 -30.189769 23.266562 50.781200 -0.732647 1.094858 0.012291 0.004904 242114.000000 0 0 1
32.183404 -30.294669 23.620562 50.114563 -0.755177 1.079997 0.004421 0.013477 1142840.000000 0 0 1
31.196264 -30.796469 22.688262 49.359768 -0.778949 1.093194 0.004782 0.021866 374484.000000 0 0 1
30.755314 -32.268669 22.927762 50.128222 -0.809406 1.095747 -0.011070 0.017242 399136.000000 0 0 1
29.819974 -32.332569 24.060092 50.134957 -0.825802 1.070248 -0.018873 0.017504 774638.000000 0 0 1
29.168744 -33.571569 24.162862 50.613336 -0.855459 1.073102 -0.024221 0.014191 -289227.000000 0 0 1
28.347434 -33.719069 25.446932 50.873363 -0.871729 1.046965 -0.031125 0.015766 -192196.000000 0 0 1
28.035894 33.786001 25.531442 50.787398 0.878142 1.044063 -0.027784 0.005158 -133654.000000 0 0 1
27.347484 33.514201 26.709242 50.837684 0.886377 1.017631 -0.023025 0.007236 -900124.000000 0 0 1
27.076584 32.066001 26.980052 49.892815 0.869561 0.999456 -0.017847 -0.008816 359651.000000 0 0 1
26.270484 31.372901 26.035112 48.499735 0.873685 1.004145 -0.023531 0.003923 713595.000000 0 0 1
24.914124 31.815601 25.901402 47.998215 0.906459 1.000796 -0.016422 0.006896 168673.000000 0 0 1
24.378324 31.731501 24.396172 46.865382 0.915705 1.023291 0.009686 -0.002260 126853.000000 0 0 1
24.692524 32.744501 23.458862 47.246601 0.924678 1.051212 0.025015 -0.007041 -87973.300000 0 0 1
25.918624 32.630401 22.786362 47.494594 0.899535 1.070407 0.003484 0.000895 -339067.000000 0 0 1
26.078324 33.629101 21.616362 47.731148 0.911193 1.100806 0.015321 0.003395 1369270.000000 0 0 1
27.466574 33.831401 21.220662 48.469505 0.888862 1.117630 0.020041 0.001388 1496150.000000 0 0 1
27.519514 34.426901 19.926462 48.369402 0.896445 1.146188 0.005640 -0.004674 -497862.000000 0 0 1
28.921494 -34.152869 19.416362 48.783875 -0.868149 1.161452 0.016521 -0.012249 -62976.400000 0 0 1
29.689974 33.627601 18.894262 48.675489 0.847507 1.172154 0.025793 -0.019379 94538.200000 0 0 1
30.793294 34.051301 18.136462 49.362428 0.835599 1.194569 0.030877 -0.014403 -683218.000000 0 0 1
31.591404 32.897901 17.604362 48.889695 0.805655 1.202439 0.017614 -0.015782 -568249.000000 0 0 1
32.321234 32.306201 18.648462 49.357045 0.785166 1.183347 0.015885 -0.013978 103922.000000 0 0 1
33.224124 31.307201 18.152962 49.127521 0.755702 1.192318 0.026382 -0.018719 274182.000000 0 0 1
34.205954 30.851501 19.239962 49.920322 0.733882 1.175141 0.039112 -0.027969 -114886.000000 0 0 1
35.211902 31.771901 19.626862 51.327823 0.734088 1.178423 0.056434 -0.023874 -37200.600000 0 0 1
-34.959486 31.051301 20.280562 50.967148 -0.726262 1.161554 0.056922 -0.018915 -468537.000000 0 0 1
-33.956791 32.017701 20.872462 51.125889 -0.756015 1.150253 0.030504 -0.014829 -161760.000000 0 0 1
-33.114771 32.590901 19.829462 50.516952 -0.777425 1.167415 0.031948 -0.017683 1393650.000000 0 0 1
-31.939861 33.322401 20.285562 50.418659 -0.806579 1.156722 0.030397 0.000488 972919.000000 0 0 1
-32.119921 -34.242869 21.099062 51.472651 0.817377 1.148443 0.011275 -0.005429 -730466.000000 0 0 1
-32.333631 34.357301 22.434162 52.241549 -0.815733 1.126933 0.025511 -0.004224 229760.000000 0 0 1
-32.324611 -33.333569 23.177362 51.896025 0.800764 1.107822 0.018753 -0.002828 -233902.000000 0 0 1
-32.407251 -33.484969 24.657732 52.720744 0.801752 1.084104 0.017426 -0.006213 -217678.000000 0 0 1
-33.632231 -34.085969 25.030802 54.032595 0.792098 1.089133 0.027196 -0.007867 62774.100000 0 0 1
-33.602611 -34.410469 26.425232 54.877215 0.797276 1.068392 0.036989 -0.009327 609545.000000 0 0 1
-35.023507 34.020601 26.890472 55.741769 -0.770874 1.067391 0.024920 -0.016981 644832.000000 0 0 1
-35.019635 33.274401 28.101262 55.885969 -0.759849 1.043924 0.041215 -0.019032 -354621.000000 0 0 1
34.857854 33.281001 28.592782 56.037864 0.762261 1.035332 0.034503 -0.021831 -307727.000000 0 0 1
34.726174 32.326601 29.862152 56.059472 0.749627 1.009024 0.032160 -0.012938 -130534.000000 0 0 1
34.728494 30.881901 29.717312 55.162295 0.726837 1.001873 0.025227 -0.006337 626121.000000 0 0 1
-35.451178 30.302501 28.871432 54.850589 -0.707255 1.016477 0.031723 -0.010147 184271.000000 0 0 1
35.435116 28.814101 28.459372 53.812970 0.682709 1.013543 0.036917 -0.010805 -526012.000000 0 0 1
34.258534 28.689101 27.703622 52.575682 0.697151 1.015814 0.035488 -0.005250 30697.700000 0 0 1
34.075364 27.387601 27.131582 51.452248 0.677015 1.015358 0.052454 -0.014408 114183.000000 0 0 1
33.758004 26.237901 28.146892 51.188649 0.660705 0.988593 0.039295 -0.011404 -779095.000000 0 0 1
34.930844 25.847001 28.829252 52.147455 0.637037 0.985027 0.014437 0.000116 45059.000000 0 0 1
34.787484 24.518201 29.278282 51.657807 0.613940 0.968212 0.007794 0.002351 27785.500000 0 0 1
35.306009 23.435101 28.269132 50.939789 0.585995 0.982491 0.019649 -0.006234 -240626.000000 0 0 1
34.593684 23.284701 27.033982 49.696443 0.592437 0.995621 0.029858 -0.001006 290657.000000 0 0 1
35.154347 22.402201 25.990562 49.124292 0.567362 1.013283 0.019358 -0.009494 -367213.000000 0 0 1
34.982664 20.854901 26.295172 48.478343 0.537584 0.997492 0.026360 -0.006819 487743.000000 0 0 1
33.586304 20.529901 26.158232 47.262774 0.548656 0.984279 0.058037 -0.007008 1093570.000000 0 0 1
33.305124 19.279501 26.804082 46.897647 0.524741 0.962410 0.053735 -0.004289 -361943.000000 0 0 1
33.072214 19.369001 28.331112 47.661111 0.529807 0.934242 0.036481 0.009577 -57672.400000 0 0 1
31.948154 20.008201 28.921902 47.513041 0.559513 0.916356 0.023530 0.007185 409563.000000 0 0 1
31.930014 21.424601 28.603302 47.923775 0.590987 0.931227 0.034409 -0.008286 -1510540.000000 0 0 1
31.040174 22.168901 29.546402 48.248756 0.620193 0.911733 0.036446 -0.013509 -433754.000000 0 0 1
29.633884 21.997301 29.460732 47.222697 0.638556 0.897114 0.044527 -0.019619 668554.000000 0 0 1
29.079674 22.714401 28.289362 46.495800 0.663116 0.916718 0.047110 -0.023559 -318897.000000 0 0 1
28.884764 24.213401 28.509932 47.259228 0.697648 0.923205 0.039415 -0.018383 -158835.000000 0 0 1
30.102754 24.932801 28.302892 48.258409 0.691735 0.944083 0.037439 -0.019982 384758.000000 0 0 1
30.140394 26.303501 28.801462 49.293425 0.717525 0.946796 0.018190 -0.012824 -371675.000000 0 0 1
30.538434 26.468401 30.293572 50.506165 0.714124 0.927546 0.012975 -0.009502 -793829.000000 0 0 1
31.845484 26.079801 30.536972 51.252293 0.686188 0.932514 0.000219 0.000878 -1036590.000000 0 0 1
32.179024 25.890901 31.912282 52.194081 0.677533 0.912948 0.013382 -0.004133 -61964.500000 0 0 1
31.556094 24.743701 32.778771 51.792718 0.664981 0.885524 0.018643 -0.003434 -54977.400000 0 0 1
31.906924 24.844701 34.152168 52.930913 0.661594 0.869483 0.018172 -0.009442 -176131.000000 0 0 1
31.353994 23.818901 -33.841835 51.919965 0.649666 2.280762 0.006398 -0.008693 -504766.000000 0 0 1
31.878874 23.543101 -32.374055 51.172450 0.636112 2.255762 -0.002645 -0.012997 -288820.000000 0 0 1
31.526714 24.466701 -31.384315 50.769365 0.659974 2.237214 -0.006493 -0.016914 188729.000000 0 0 1
31.802244 23.979501 -30.071625 49.906932 0.646068 2.217494 0.009009 -0.017004 -31966.200000 0 0 1
33.175104 24.510101 -29.551055 50.740491 0.636301 2.192469 0.019061 -0.005058 395435.000000 0 0 1
33.728094 23.785501 -28.497795 50.154349 0.614216 2.175115 0.012927 -0.010763 406440.000000 0 0 1
34.838784 24.447501 -27.853015 50.864640 0.611888 2.150279 0.025086 -0.001668 542611.000000 0 0 1
35.374433 23.626601 -26.665585 50.205779 0.588856 2.130725 0.018862 -0.002350 -534911.000000 0 0 1
-35.208551 22.423801 -27.127135 49.783033 -0.567100 2.147075 0.012841 0.002260 116065.000000 0 0 1
-35.369092 21.279101 -26.303145 48.945155 -0.541617 2.138148 0.000299 0.010116 -288914.000000 0 0 1
-34.414501 20.069901 -26.579645 47.891923 -0.527961 2.159150 0.005058 0.020996 866848.000000 0 0 1
-33.050841 20.289501 -26.174575 46.788143 -0.550568 2.164491 0.002003 0.015224 -55417.500000 0 0 1
-32.280731 19.154101 -26.336965 45.853690 -0.535523 2.182630 -0.009755 0.004825 1064870.000000 0 0 1
-30.838911 19.456401 -25.719745 44.621690 -0.562834 2.185107 0.004700 -0.000209 1157210.000000 0 0 1
-30.945381 19.744801 -24.325085 44.036162 -0.567931 2.156024 0.010602 -0.000956 153324.000000 0 0 1
-29.679771 19.634401 -23.699285 42.755755 -0.584446 2.158312 0.021013 0.005667 233941.000000 0 0 1
-29.849701 19.838501 -22.151085 42.133613 -0.586580 2.124374 0.010147 0.008666 -172611.000000 0 0 1
-30.589731 18.886901 -21.489885 41.883909 -0.553134 2.109568 0.000702 0.004840 -347815.000000 0 0 1
-30.823741 19.197101 -20.120985 41.514886 -0.557017 2.076781 0.002028 0.004428 845452.000000 0 0 1
-32.087481 18.433301 -19.476485 41.817777 -0.521436 2.055274 -0.000591 0.001054 1396880.000000 0 0 1
-32.703651 19.029901 -18.323385 42.040604 -0.526996 2.021778 -0.002218 -0.001739 511624.000000 0 0 1
-33.605891 20.081801 -18.645285 43.362210 -0.538629 2.015277 -0.008764 0.001461 -240420.000000 0 0 1
-34.680589 20.318401 -17.569885 43.866633 -0.529967 1.982891 0.001029 -0.006950 -19298.900000 0 0 1
-34.152324 20.938101 -16.462285 43.310416 -0.549982 1.960701 0.008533 -0.009129 329058.000000 0 0 1
-35.196788 20.899301 -15.511885 43.774573 -0.535837 1.933024 0.011289 -0.001137 30890.800000 0 0 1
-34.965014 21.887601 -14.385085 43.686954 -0.559308 1.906334 0.009165 -0.004243 -146019.000000 0 0 1
-35.066082 23.232501 -14.788585 44.587907 -0.585137 1.908872 0.010671 -0.007773 541471.000000 0 0 1
34.756684 23.579601 -14.630285 44.475498 0.596095 1.905989 0.004998 -0.000753 249642.000000 0 0 1
34.490464 25.055801 -14.802585 45.127617 0.628262 1.904999 0.001086 -0.005718 -35982.300000 0 0 1
34.983294 25.838101 -13.694185 45.595713 0.636155 1.875845 0.006670 -0.001705 94179.900000 0 0 1
34.900514 27.238501 -13.862785 46.391364 0.662713 1.874255 0.011019 0.004786 -116177.000000 0 0 1
-35.242504 27.977001 -14.716885 47.342722 -0.670975 1.886892 0.012627 0.012119 -120013.000000 0 0 1
-35.136461 27.608001 -16.075385 47.488847 -0.665983 1.916128 0.021827 0.010385 -168342.000000 0 0 1
-34.053431 28.150601 -16.781985 47.262326 -0.690787 1.933798 0.027150 0.007373 -839786.000000 0 0 1
-33.939311 27.763701 -18.250385 47.495015 -0.685644 1.965201 0.023994 0.002894 -181900.000000 0 0 1
-33.655781 26.402501 -18.499285 46.605012 -0.665210 1.978974 0.020982 0.004587 521387.000000 0 0 1
-32.334281 26.002001 -18.148785 45.287837 -0.677274 1.983124 0.019572 0.008547 24817.600000 0 0 1
-31.786881 24.653801 -18.696085 44.359433 -0.659683 2.005860 0.010466 0.011049 -239021.000000 0 0 1
-31.415081 24.941901 -20.034785 44.837466 -0.671039 2.034017 0.008351 0.011883 324524.000000 0 0 1
-30.613621 23.945701 -20.668485 44.020185 -0.663787 2.059547 0.005866 0.014481 136274.000000 0 0 1
-30.497651 24.001201 -22.177885 44.699250 -0.666755 2.089964 -0.000384 0.013658 -238314.000000 0 0 1
-31.716831 23.715101 -22.799885 45.696807 -0.642036 2.093170 0.012637 0.009076 40000.500000 0 0 1
-31.429951 23.407901 -24.180585 46.048587 -0.640142 2.123641 0.017506 0.004372 533992.000000 0 0 1
-32.485121 23.976901 -25.185205 47.586441 -0.635834 2.128515 0.000532 0.015182 45230.600000 0 0 1
-32.203191 25.332501 -25.338695 48.174999 -0.666545 2.124654 -0.004666 0.012830 416236.000000 0 0 1
-33.154791 25.947101 -26.204915 49.590219 -0.664044 2.127545 0.011779 0.001848 -137839.000000 0 0 1
-32.839001 27.448201 -26.446135 50.311050 -0.696217 2.124278 0.013918 0.008967 107118.000000 0 0 1
-31.586461 27.594001 -27.078855 49.923920 -0.718038 2.144090 -0.004247 0.001783 -333616.000000 0 0 1
-31.321781 28.949801 -27.402115 50.695373 -0.746064 2.141857 0.001422 -0.003740 487255.000000 0 0 1
-29.923001 29.052601 -28.072725 50.274422 -0.770641 2.163240 0.003867 0.002654 1005870.000000 0 0 1
-28.819801 28.930001 -27.159015 49.042206 -0.787306 2.157704 -0.033668 0.008064 -60731.900000 0 0 1
-27.581271 28.878001 -27.798005 48.655879 -0.808362 2.178908 0.012719 0.010152 46337.500000 0 0 1
-26.603261 30.061201 -27.562675 48.694048 -0.846347 2.172488 0.002895 0.002038 -51469.700000 0 0 1
-25.983821 30.328901 -26.318225 47.829386 -0.862405 2.153463 -0.006149 0.002508 636236.000000 0 0 1
-26.881231 30.654101 -25.206605 47.933782 -0.850879 2.124526 -0.013135 0.006740 491593.000000 0 0 1
-26.181781 31.242601 -23.952385 47.278986 -0.873301 2.102054 -0.032608 0.001518 173649.000000 0 0 1
-25.690221 32.582401 -24.025685 47.946156 -0.903126 2.095663 -0.021284 0.001842 -463479.000000 0 0 1
-24.765701 32.888701 -23.054785 47.186118 -0.925368 2.081272 -0.011219 0.017147 -773002.000000 0 0 1
-24.084701 34.193901 -23.477185 47.963256 -0.957152 2.082293 -0.014210 0.023000 -454946.000000 0 0 1
-24.665301 -33.497069 -22.993885 47.530511 0.936094 2.075755 -0.029374 0.008795 229559.000000 0 0 1
-24.176001 -32.470069 -23.838785 46.979486 0.930784 2.102996 -0.006370 0.002629 137227.000000 0 0 1
16.501599 8.401101 -25.365325 31.405111 0.470908 2.511005 0.017821 -0.009713 773176.000000 0 0 1
15.139799 8.023601 -25.070785 30.366692 0.487333 2.542064 0.024062 -0.014087 980518.000000 0 0 1
14.881499 6.639301 -25.320335 30.110774 0.419643 2.569752 0.028078 -0.020105 -890607.000000 0 0 1
13.442299 6.220801 -25.166575 29.201888 0.433429 2.609630 0.025621 -0.017179 -983290.000000 0 0 1
12.890599 6.275501 -23.863885 27.839441 0.453054 2.600598 0.054606 -0.031459 -504461.000000 0 0 1
11.639799 5.670801 -23.927785 27.206282 0.453348 2.645596 0.060586 -0.027532 -765288.000000 0 0 1
10.851899 5.883501 -22.635985 25.783078 0.496807 2.642338 0.070847 -0.033885 -581035.000000 0 0 1
11.470099 5.194101 -21.606085 25.007294 0.425212 2.613940 0.056807 -0.027010 -193839.000000 0 0 1
10.989699 5.366001 -20.319985 23.716434 0.454224 2.599807 0.058973 -0.022887 -419577.000000 0 1 0
11.494499 6.660501 -19.660785 23.728301 0.525173 2.547362 0.056685 -0.034925 -336327.000000 0 1 0
10.796499 7.038501 -18.495885 22.543351 0.577727 2.533009 0.032013 -0.022684 -280616.000000 0 1 0
11.059399 8.397001 -18.099285 22.812366 0.649404 2.487168 0.033374 -0.018836 1136390.000000 0 1 0
12.538299 8.770101 -17.673885 23.377122 0.610367 2.428028 0.027453 -0.017554 907448.000000 0 1 0
12.928199 7.955001 -16.557985 22.463019 0.551609 2.399598 0.023383 -0.023351 232712.000000 0 1 0
14.306299 8.166801 -16.277685 23.158797 0.518712 2.350224 0.015057 -0.020216 261381.000000 0 1 0
14.816299 7.556301 -14.936485 22.354395 0.471615 2.302540 0.018058 -0.025110 413161.000000 0 1 0
16.247899 7.557101 -14.879985 23.292015 0.435350 2.263792 0.010786 -0.026615 1089200.000000 0 1 0
16.716199 7.783601 -13.528585 22.870032 0.435777 2.203766 0.003511 -0.027378 -193135.000000 0 1 0
17.112999 9.277701 -13.235985 23.539791 0.496791 2.167938 0.018791 -0.032125 -407540.000000 0 1 0
16.068099 10.228601 -13.119785 23.128702 0.566882 2.173961 0.015819 -0.022257 555500.000000 0 1 0
16.588599 11.533701 -13.061085 24.058259 0.607550 2.144676 0.037541 -0.025090 -221886.000000 0 1 0
15.390399 12.455501 -12.804185 23.578614 0.680388 2.144852 0.042578 -0.018671 -170992.000000 0 1 0
14.958099 12.400801 -11.439485 22.547426 0.692197 2.102906 0.065370 -0.018278 374570.000000 0 1 0
15.649599 13.303901 -10.542385 23.087781 0.704559 2.044991 0.074228 -0.014230 -76824.400000 0 1 0
15.392399 14.765401 -10.736885 23.879357 0.764611 2.037148 0.082598 -0.011420 282981.000000 0 1 0
14.045899 15.117701 -10.438885 23.125797 0.822133 2.039125 0.080386 -0.015979 514793.000000 0 1 0
13.722599 16.499801 -10.554385 23.915438 0.877033 2.027867 0.060747 -0.010451 -660247.000000 0 1 0
12.492699 16.955901 -9.823485 23.239427 0.935812 2.007227 0.050585 -0.012417 -665307.000000 0 1 0
12.646399 16.871601 -8.383685 22.690714 0.927572 1.949242 0.057338 -0.012341 113398.000000 0 1 0
11.710999 17.656001 -7.689185 22.538976 0.985137 1.918937 0.054104 0.004451 -153127.000000 0 1 0
11.747599 17.474501 -6.142585 21.933892 0.978924 1.854642 0.037602 0.000899 -189205.000000 0 1 0
12.822199 18.161801 -5.588485 22.923590 0.956056 1.817066 0.038718 -0.006393 -248744.000000 0 1 0
13.323199 17.503701 -4.442185 22.441484 0.920188 1.770058 0.039748 -0.016952 -151422.000000 0 1 0
14.459299 18.337001 -3.828985 23.663855 0.903088 1.733318 0.028118 -0.021526 -202783.000000 0 1 0
15.572999 18.546601 -4.670485 24.663903 0.872331 1.761312 0.026371 -0.022048 13087.900000 0 1 0
16.296299 19.675201 -4.243985 25.897766 0.879056 1.735413 0.012611 -0.016545 1008100.000000 0 0 1
17.701299 19.893801 -4.980285 27.090636 0.843651 1.755686 0.013885 -0.015363 1298000.000000 0 0 1
18.716899 19.018401 -4.526785 27.064990 0.793388 1.738842 0.016459 -0.026371 48438.300000 0 0 1
18.880799 17.888601 -5.347685 26.553424 0.758420 1.773577 0.017326 -0.018789 -704976.000000 0 0 1
19.858999 16.888501 -4.765185 26.501100 0.704738 1.751590 0.033794 -0.026396 -138707.000000 0 0 1
21.194799 17.304201 -4.984985 27.811957 0.684683 1.751009 0.030974 -0.028526 -226091.000000 0 0 1
22.080699 16.526801 -4.256485 27.907169 0.642523 1.723917 0.036853 -0.032722 -352864.000000 0 0 1
23.601799 16.616501 -4.478785 29.209802 0.613429 1.724735 0.050430 -0.026177 -14007.400000 0 0 1
24.096799 17.932701 -4.257185 30.337454 0.639775 1.711589 0.057635 -0.029053 -584329.000000 0 0 1
25.483599 17.797401 -4.330785 31.383387 0.609642 1.709234 0.045929 -0.018695 -956316.000000 0 0 1
26.157099 18.990401 -3.666885 32.531142 0.627972 1.683756 0.062740 -0.018900 -533479.000000 0 0 1
26.045399 20.201601 -4.379885 33.251329 0.659704 1.702901 0.061493 -0.020462 174146.000000 0 0 1
26.363199 21.286701 -3.565385 34.071306 0.679261 1.675633 0.076048 0.001379 -340433.000000 0 0 1
26.145599 22.695201 -4.218285 34.877764 0.714870 1.692038 0.050703 0.004286 205380.000000 0 0 1
27.155699 23.256001 -5.074885 36.111328 0.708195 1.711798 0.044469 0.009862 576138.000000 0 0 1
27.639199 22.518701 -6.199085 36.186266 0.683663 1.742956 0.050220 0.002245 449545.000000 0 0 1
28.688499 23.289701 -7.080885 37.624182 0.681903 1.760126 0.031811 0.003740 295290.000000 0 0 1
28.183599 24.244001 -8.020685 38.031805 0.710396 1.783286 0.004918 0.009352 -433780.000000 0 0 1
29.129499 25.067201 -8.592485 39.379221 0.710583 1.790764 -0.000789 0.009195 -451301.000000 0 0 1
30.202099 24.640801 -9.642685 40.153670 0.684339 1.813311 0.011235 -0.000943 347742.000000 0 0 1
29.677399 24.114701 -10.857285 39.751069 0.682353 1.847444 0.004755 0.002163 101952.000000 0 0 1
30.731199 23.736801 -11.727085 40.563122 0.657684 1.864090 0.004902 -0.003865 139715.000000 0 0 1
30.269399 23.066701 -13.057485 40.234402 0.651167 1.901317 -0.008231 -0.001697 107807.000000 0 0 1
29.703599 23.951801 -14.022985 40.652634 0.678607 1.922978 0.009806 -0.003634 210028.000000 0 0 1
29.302099 23.196101 -15.159785 40.329780 0.669610 1.956159 0.016195 -0.006828 -87452.800000 0 0 1
29.444099 24.055301 -16.497585 41.446143 0.685010 1.980185 0.024702 -0.012518 -874269.000000 0 0 1
30.767699 24.354501 -16.803885 42.686808 0.669574 1.975401 0.021160 -0.004707 -663138.000000 0 0 1
30.806299 25.121001 -18.012785 43.641187 0.684091 1.996265 0.033352 -0.016914 307167.000000 0 0 1
32.244199 25.532201 -18.419985 45.065258 0.669745 1.991870 0.024141 -0.014894 438690.000000 0 0 1
33.095099 24.388601 -18.514885 45.087586 0.635080 1.993955 0.026000 -0.009149 1162640.000000 0 0 1
34.466699 24.798101 -18.786185 46.430808 0.623681 1.987344 0.029296 -0.005017 1272670.000000 0 0 1
35.514199 23.664501 -18.765685 46.619930 0.587776 1.985070 0.018016 -0.010636 -93576.500000 0 0 1
35.469899 22.896901 -19.903985 46.674944 0.573227 2.011348 0.017024 -0.005579 123478.000000 0 0 1
-34.768426 23.324701 -20.849285 46.771549 -0.590899 2.032829 0.023533 -0.005245 -173910.000000 0 0 1
-34.926926 22.496201 -22.148185 47.079840 -0.572212 2.060584 0.022026 -0.006338 119164.000000 0 0 1
-34.564726 21.127501 -21.996585 46.097086 -0.548647 2.068239 0.008226 -0.004587 108273.000000 0 0 1
-34.273426 20.481701 -23.199585 46.177793 -0.538651 2.097165 0.005737 -0.002912 149797.000000 0 0 1
-33.955326 18.989401 -23.068585 45.229649 -0.509915 2.106019 -0.007708 -0.002395 125265.000000 0 0 1
-35.168926 18.353301 -22.738885 45.724763 -0.480983 2.091279 -0.010548 0.004003 65386.900000 0 0 1
-34.955926 16.998201 -22.493885 44.909136 -0.452608 2.095406 -0.017167 -0.000901 -566791.000000 0 0 1
35.000499 16.170001 -22.163285 44.471509 0.432783 2.092514 -0.011105 -0.001591 -429217.000000 0 0 1
34.132899 16.193601 -23.284685 44.378644 0.442981 2.123138 0.017029 0.004996 -348169.000000 0 0 1
33.089699 15.268101 -23.240385 43.222200 0.432306 2.138498 0.026946 0.007441 -528405.000000 0 0 1
33.317999 13.854001 -23.812885 43.232810 0.394062 2.154126 0.000434 0.005129 -505720.000000 0 0 1
33.347799 13.810201 -25.206715 44.024718 0.392625 2.180419 0.003176 0.014377 285830.000000 0 0 1
33.821999 12.575401 -25.767555 44.339996 0.355972 2.190920 0.001115 0.010980 -175150.000000 0 0 1
33.651399 12.483101 -27.339065 45.118388 0.355218 2.221744 0.018721 0.013228 138170.000000 0 0 1
32.276199 12.499401 -27.689005 44.324587 0.369479 2.245527 0.017557 0.016053 168361.000000 0 0 1
31.760899 13.644101 -28.347595 44.704612 0.405750 2.257652 0.023869 0.016960 -75068.700000 0 0 1
32.063899 13.825301 -29.898815 45.969247 0.407093 2.278919 0.022854 0.012942 768902.000000 0 0 1
33.463399 14.107101 -30.115875 47.178123 0.398960 2.263141 0.018306 0.019115 955870.000000 0 0 1
33.792499 14.011601 -31.475655 48.259453 0.393060 2.281302 0.019330 0.012486 548300.000000 0 0 1
35.315199 14.223501 -31.777855 49.591364 0.382882 2.266329 0.031054 0.011086 1714170.000000 0 0 1
-34.807326 13.370601 -31.292725 48.678102 -0.366752 2.269010 0.020624 0.010903 1093950.000000 0 0 1
-34.608126 13.243101 -29.889555 47.607642 -0.365468 2.249560 0.008842 0.013503 -203329.000000 0 0 1
-33.537926 12.211701 -29.428265 46.259495 -0.349195 2.260302 0.006244 0.005025 350771.000000 0 0 1
-33.962626 10.879501 -29.685455 46.400967 -0.310009 2.264982 0.003793 -0.000994 152123.000000 0 0 1
-32.869026 10.012201 -29.705875 45.420877 -0.295680 2.283674 0.006496 -0.003920 -124822.000000 0 0 1
-33.274126 8.556801 -30.241715 45.770598 -0.251707 2.292579 0.004542 0.003631 -499108.000000 0 0 1
-33.574826 8.526301 -31.612705 46.897014 -0.248692 2.310525 0.006948 -0.000392 280843.000000 0 0 1
-33.967626 7.219001 -32.107945 47.295177 -0.209410 2.317038 0.000113 0.001865 336914.000000 0 0 1
-35.288426 6.533601 -31.630585 47.837798 -0.183075 2.293220 0.003451 0.009073 130631.000000 0 0 1
-34.983526 5.898701 -30.453865 46.755531 -0.167042 2.280149 0.008015 0.001560 -22551.000000 0 0 1
35.123699 5.225901 -29.915785 46.432085 0.147702 2.270892 0.005038 0.003955 -598571.000000 0 0 1
35.479099 4.435901 -28.622955 45.800843 0.124383 2.245856 -0.006221 0.011383 192703.000000 0 0 1
-34.735226 3.442401 -28.864535 45.294011 -0.098781 2.261747 0.003874 0.014803 405733.000000 0 0 1
-35.081326 2.347101 -28.003745 44.949061 -0.066805 2.243382 0.003907 0.016437 -280544.000000 0 0 1
-34.108726 1.140501 -27.971845 44.126297 -0.033425 2.257387 0.014385 0.011268 523505.000000 0 0 1
-32.879726 1.498401 -27.314465 42.771505 -0.045541 2.263492 0.026401 0.002545 554397.000000 0 0 1
-32.094626 0.339701 -27.096595 42.004832 -0.010584 2.271928 0.023465 0.003775 -98586.000000 0 0 1
-31.107426 0.510101 -25.941735 40.508095 -0.016397 2.265827 0.033651 -0.000416 7180.510000 0 0 1
-31.701826 0.418601 -24.652885 40.161496 -0.013204 2.231717 0.030040 -0.000247 801585.000000 0 0 1
-30.714426 0.780501 -23.692885 38.798685 -0.025406 2.227693 0.037182 0.005441 198022.000000 0 0 1
-31.243326 0.490101 -22.288785 38.381969 -0.015685 2.190397 0.048914 0.011004 -375481.000000 0 0 1
-31.516526 -0.890999 -22.069485 38.485679 0.028263 2.181503 0.070195 -0.001528 238466.000000 0 0 1
-31.995126 -1.071199 -20.745885 38.147442 0.033468 2.145796 0.048282 0.000110 902566.000000 0 0 1
-33.561726 -0.962299 -20.623085 39.403390 0.028665 2.121613 0.036789 0.004911 766287.000000 0 0 1
-34.252226 -2.192499 -20.892385 40.181013 0.063923 2.117597 0.034744 -0.004483 423931.000000 0 0 1
-35.592926 -2.149399 -20.425185 41.093363 0.060315 2.090984 0.031726 -0.003815 193050.000000 0 0 1
34.935299 -3.532199 -20.126085 40.472347 -0.100764 2.091257 0.019598 -0.008662 -187677.000000 0 0 1
34.369099 -4.229499 -21.194485 40.599629 -0.122445 2.120033 0.015411 0.003431 -88001.600000 0 0 1
35.343199 -4.868999 -21.967785 41.897881 -0.136902 2.122710 0.023637 -0.000790 -332601.000000 0 0 1
34.701999 -5.648399 -23.151285 42.096498 -0.161354 2.153110 0.022911 -0.008337 -147783.000000 0 0 1
34.029899 -6.887499 -22.866685 41.573513 -0.199698 2.153197 0.029613 -0.003942 542370.000000 0 0 1
33.526399 -7.572299 -24.015685 41.929850 -0.222134 2.180664 0.041809 -0.003615 46276.700000 0 0 1
32.206199 -7.077099 -24.641685 41.164757 -0.216306 2.212563 0.007059 0.006426 -731744.000000 0 0 1
32.193299 -5.932199 -25.395875 41.431268 -0.182224 2.230603 -0.004727 0.006002 532081.000000 0 0 1
30.846299 -5.624999 -25.778515 40.591460 -0.180374 2.258899 -0.036462 0.012177 634252.000000 0 0 1
30.745799 -4.472499 -26.732925 40.987275 -0.144454 2.281312 -0.019642 -0.010232 -7770.910000 0 0 1
31.048099 -4.811599 -28.069285 42.130995 -0.153749 2.299950 -0.001004 -0.017280 55908.300000 0 0 1
30.544199 -3.791299 -28.828775 42.171321 -0.123493 2.323495 -0.006360 -0.005116 -260200.000000 0 0 1
30.564499 -4.098299 -30.353345 43.270200 -0.133292 2.348274 -0.001616 -0.000128 -68080.700000 0 0 1
30.326099 -2.999899 -31.207405 43.618503 -0.098601 2.368082 -0.004977 -0.012711 753.122000 0 0 1
29.801699 -3.456999 -32.425765 44.176038 -0.115484 2.395008 0.011956 -0.018086 -807713.000000 0 0 1
29.376599 -2.241899 -33.269175 44.439270 -0.076168 2.416810 0.027414 -0.011650 -93862.800000 0 0 1
28.374699 -1.341699 -32.746395 43.350318 -0.047250 2.427045 0.025818 -0.014531 1726960.000000 0 0 1
27.064399 -1.890199 -32.442785 42.291711 -0.069728 2.445135 0.030320 -0.020014 913263.000000 0 0 1
26.193899 -2.277599 -33.675725 42.724259 -0.086733 2.478693 0.044920 -0.028080 -717200.000000 0 0 1
26.555899 -3.518399 -34.315156 43.533032 -0.131723 2.478765 0.049948 -0.033939 122472.000000 0 0 1
25.781699 -3.662699 33.319736 42.288488 -0.141122 0.663381 0.049854 -0.027530 -209043.000000 0 0 1
26.454199 -4.825899 32.545052 42.217228 -0.180441 0.690551 0.030437 -0.036302 210402.000000 0 0 1
27.737299 -4.563099 32.022842 42.610351 -0.163051 0.720422 0.037209 -0.032805 -228824.000000 0 0 1
27.847499 -3.703199 30.888932 41.753120 -0.132206 0.738024 0.055402 -0.033606 -503230.000000 0 0 1
28.526699 -2.350599 31.317372 42.427299 -0.082214 0.740484 0.046658 -0.033495 1387930.000000 0 0 1
29.857799 -2.495499 31.912652 43.773657 -0.083386 0.753881 0.044601 -0.032858 995279.000000 0 0 1
30.427299 -1.290299 32.218602 44.334227 -0.042381 0.757260 0.046557 -0.026685 -75664.500000 0 0 1
31.822399 -1.425499 32.887981 45.785548 -0.044766 0.769434 0.036870 -0.022751 71649.400000 0 0 1
32.764999 -1.857699 31.925372 45.784556 -0.056637 0.799179 0.044636 -0.021090 -894688.000000 0 0 1
34.047999 -1.639099 32.424292 47.045591 -0.048104 0.810398 0.028161 -0.015585 3100.590000 0 0 1
35.191499 -2.199499 31.496062 47.278762 -0.062420 0.841724 0.011199 -0.006960 360904.000000 0 0 1
35.300999 -1.582499 30.248262 46.514752 -0.044799 0.862825 0.010936 -0.004406 -460035.000000 0 0 1
-34.984826 -2.291699 29.496642 45.817484 0.065412 0.871361 0.005434 -0.002505 -499601.000000 0 0 1
-34.550426 -1.529999 28.215952 44.634211 0.044254 0.886459 0.007410 -0.004162 414055.000000 0 0 1
35.576999 -1.295699 27.286242 44.854662 -0.036403 0.916847 0.024168 -0.010451 685025.000000 0 0 1
-34.988126 -0.986699 26.016092 43.611691 0.028194 0.931614 0.020887 -0.014163 272399.000000 0 0 1
-26.216671 15.098901 12.379515 32.688576 -0.522531 1.182393 0.057431 -0.000538 -949281.000000 0 0 1
-27.418111 14.483801 12.611415 33.475081 -0.485997 1.184521 0.032061 -0.001311 -511088.000000 0 0 1
-28.187751 15.153801 13.617815 34.779762 -0.493275 1.168487 0.042994 -0.007132 318246.000000 0 0 1
-29.677471 14.751901 13.714215 35.867123 -0.461304 1.178445 0.044486 -0.003141 -17009.100000 0 0 1
-30.407161 15.659101 14.477015 37.140097 -0.475560 1.170388 0.049256 -0.009825 -1330950.000000 0 0 1
-31.647141 15.127401 14.741915 38.048703 -0.445895 1.172934 0.049518 -0.008288 -792407.000000 0 0 1
-32.535651 15.940001 15.741515 39.502500 -0.455554 1.160922 0.046797 -0.008698 194513.000000 0 0 1
-31.972691 15.872401 17.019815 39.545672 -0.460792 1.125878 0.036657 -0.001852 208659.000000 0 0 1
-32.885581 16.375801 17.977415 40.900070 -0.462017 1.115704 0.029147 -0.009352 391140.000000 0 0 1
-32.141711 16.731001 19.301515 41.055626 -0.479943 1.081357 0.019174 -0.009876 202907.000000 0 0 1
-31.502561 15.584501 19.862215 40.370727 -0.459403 1.056416 0.022637 -0.008979 -468782.000000 0 0 1
-30.357211 15.942001 20.569615 39.985206 -0.483562 1.030453 0.023572 -0.012883 -528666.000000 0 0 1
-30.543821 16.388601 22.046815 41.080084 -0.492466 1.004300 0.026539 -0.016160 -656191.000000 0 0 1
-31.166191 17.626401 22.109615 42.081546 -0.514712 1.017612 0.009982 -0.011326 7551.250000 0 0 1
-31.440391 18.198701 23.356015 43.187896 -0.524709 0.999408 0.001121 -0.012303 -1281590.000000 0 0 1
-32.231701 17.459201 24.432415 44.052799 -0.496431 0.982894 -0.005077 -0.016173 490898.000000 0 0 1
-33.575291 17.051701 24.155415 44.738627 -0.469919 1.000451 0.027890 -0.013663 621740.000000 0 0 1
-34.501343 18.058401 23.815515 45.646766 -0.482201 1.021913 0.042679 -0.019724 -1382870.000000 0 0 1
35.344833 17.400701 23.511615 45.878510 0.457479 1.032731 0.016369 -0.024632 -313121.000000 0 0 1
34.761454 16.875701 24.723615 45.873795 0.451958 1.001608 0.031391 -0.014944 -216597.000000 0 0 1
33.841304 15.869201 24.401815 44.637585 0.438484 0.992420 0.044992 -0.009581 -111867.000000 0 0 1
33.243814 15.173401 25.627615 44.633596 0.428186 0.959197 0.059220 -0.014073 374687.000000 0 0 1
32.396754 16.015301 26.522615 44.827320 0.459117 0.937678 0.046849 -0.013501 879397.000000 0 0 1
32.132364 15.425201 27.751515 45.172693 0.447562 0.909244 0.039459 -0.001376 -39104.500000 0 0 1
31.274334 14.135901 27.865115 44.208283 0.424513 0.888838 0.045104 0.005718 -200586.000000 0 0 1
31.879294 12.996901 27.305815 43.941056 0.387119 0.900244 0.043360 -0.006525 596003.000000 0 0 1
30.966784 11.858801 27.381415 43.003660 0.365724 0.880556 0.042132 0.000788 763904.000000 0 0 1
31.640994 10.515501 27.006615 42.907872 0.320854 0.890003 0.037416 -0.007776 519894.000000 0 0 1
32.744714 10.147301 27.851615 44.168954 0.300506 0.888509 0.037249 -0.007363 626535.000000 0 0 1
33.278074 8.848501 27.563815 44.107710 0.259883 0.895767 0.033906 -0.001618 -439874.000000 0 0 1
34.309094 8.303301 28.535215 45.390718 0.237449 0.890971 0.034151 -0.003694 -1579310.000000 0 0 1
35.384909 9.130901 28.564515 46.383151 0.252536 0.907347 0.033432 -0.004999 -402486.000000 0 0 1
-34.637591 8.303401 28.792615 45.800915 -0.235282 0.890984 0.037794 -0.007420 405800.000000 0 0 1
-33.300291 9.021301 28.962215 45.045567 -0.264558 0.872448 0.052717 -0.009540 -497119.000000 0 0 1
-32.694301 9.275301 27.734815 43.865345 -0.276434 0.886314 0.049701 -0.007727 -174802.000000 0 0 1
-31.520261 10.012601 28.020015 43.346283 -0.307575 0.867910 0.034626 -0.005573 -218361.000000 0 0 1
-30.824801 10.454301 26.709115 42.105078 -0.326978 0.883636 0.012806 -0.004931 -192313.000000 0 0 1
-30.184811 9.427801 25.986915 40.930746 -0.302735 0.882918 0.015707 -0.009145 -22156.500000 0 0 1
-29.477201 9.994701 24.916315 39.870066 -0.326901 0.895744 0.014914 -0.009952 -543778.000000 0 0 1
-28.780361 8.879201 24.162915 38.613415 -0.299251 0.894685 0.010387 -0.007520 -145405.000000 0 0 1
-28.043981 9.403701 23.078715 37.516950 -0.323537 0.908215 0.007723 -0.006047 -121556.000000 0 0 1
-27.230021 8.458501 22.414715 36.268991 -0.301182 0.904583 -0.005788 -0.005013 -62310.100000 0 0 1
-26.487371 9.133501 21.231215 35.153466 -0.332057 0.922339 0.010712 0.003122 -1645510.000000 0 0 1
-25.500031 9.918501 21.776715 34.969323 -0.370953 0.898560 0.010850 -0.009442 9067.100000 0 0 1
-24.513501 10.456601 20.868515 33.848887 -0.403195 0.906481 0.012152 -0.012196 1328570.000000 0 0 1
-23.810601 9.465501 19.766215 32.361144 -0.378378 0.913725 0.017416 -0.009985 -441435.000000 0 0 1
-24.717701 9.119901 18.734015 32.328016 -0.353467 0.952684 0.020085 -0.004467 205046.000000 0 0 1
-24.215801 8.241301 17.750615 31.135324 -0.328032 0.964154 0.031109 -0.008270 -326328.000000 0 0 1
-24.052601 6.769401 18.139315 30.876968 -0.274345 0.942867 0.024594 -0.005372 -64901.800000 0 0 1
-22.920201 6.606601 19.007715 30.500426 -0.280636 0.897975 0.032764 -0.002611 851571.000000 0 0 1
-22.872901 5.350101 19.698315 30.656431 -0.229775 0.872974 0.030871 0.000816 -186359.000000 0 0 1
-22.708301 4.029801 18.875815 29.802728 -0.175631 0.884911 0.026705 0.000536 -71379.700000 0 0 1
-23.955401 3.729601 18.256915 30.349400 -0.154449 0.925347 0.042549 -0.002176 668444.000000 0 0 1
-23.876501 2.864301 17.102915 29.509341 -0.119393 0.952588 0.041976 0.003054 -234601.000000 0 0 1
-23.824401 1.333501 17.355515 29.505833 -0.055914 0.941957 0.041648 0.002050 -410526.000000 0 0 1
-22.605801 0.896101 17.899615 28.848249 -0.039620 0.901448 0.018442 0.010593 206843.000000 0 0 1
-22.752301 -0.402399 18.430915 29.283575 0.017684 0.890023 0.022899 0.004519 1229150.000000 0 0 1
-21.330701 -1.056999 18.791215 28.446894 0.049512 0.849216 0.026101 0.015639 1212430.000000 0 0 1
-20.655101 -0.444299 19.863715 28.660038 0.021507 0.805043 0.010988 0.016006 -43911.800000 0 0 1
-19.550701 -1.302799 20.136515 28.096377 0.066539 0.771746 -0.003551 0.016595 110213.000000 0 0 1
-18.630201 -0.838199 21.296815 28.307972 0.044961 0.719211 -0.000283 0.015230 335882.000000 0 0 1
-19.128201 -0.932799 22.652315 29.662865 0.048727 0.701835 0.002121 0.010215 -363345.000000 0 0 1
-18.165901 -0.463099 23.551715 29.747230 0.025487 0.657164 0.005444 0.004097 -1076940.000000 0 0 1
-18.487701 -0.715099 25.042815 31.135976 0.038660 0.636292 0.006791 0.012463 205122.000000 0 0 1
-19.326001 0.247701 25.650115 32.116726 -0.012816 0.645743 0.013456 0.004153 247806.000000 0 0 1
-20.700701 0.246301 25.302115 32.692150 -0.011898 0.685740 0.024773 -0.005258 -13536.800000 0 0 1
-21.510801 1.455701 25.871415 33.677347 -0.067570 0.694749 0.025913 -0.007880 -240148.000000 0 0 1
-21.218701 2.684301 25.238415 33.081964 -0.125838 0.703001 0.024098 -0.002587 -37399.600000 0 0 1
-22.302901 3.180201 24.501015 33.284122 -0.141637 0.743481 0.022266 -0.001050 -848118.000000 0 0 1
-22.014401 4.186601 23.362615 32.372415 -0.187931 0.764566 0.024597 0.001419 -64397.800000 0 0 1
-21.356401 3.749501 22.158415 31.002419 -0.173797 0.774556 0.024358 0.000453 54220.800000 0 0 1
-19.972201 3.582401 22.281115 30.135867 -0.177482 0.738684 0.013544 0.004881 -676510.000000 0 0 1
-19.483301 2.784301 20.997515 28.779280 -0.141946 0.753052 0.010135 0.008557 -91685.600000 0 0 1
-19.104601 3.575701 19.890315 27.809999 -0.185024 0.773855 0.017722 0.010194 176508.000000 0 0 1
-18.627801 2.737401 18.869815 26.656298 -0.145908 0.784285 0.006502 0.011403 -155233.000000 0 0 1
-18.230101 3.388601 17.576715 25.549170 -0.183782 0.812127 0.005540 0.009430 1502080.000000 0 0 1
-16.847201 3.891401 17.704415 24.747070 -0.227001 0.773579 0.008947 0.001005 1760420.000000 0 1 0
-16.516101 4.769301 16.633915 23.921015 -0.281119 0.801864 0.009387 0.007229 -267967.000000 0 1 0
-15.115401 5.374801 16.726415 23.176212 -0.341641 0.764532 0.006750 0.009171 -751327.000000 0 1 0
-14.871601 6.275301 17.761115 24.000023 -0.399297 0.737658 0.008867 0.015834 91250.600000 0 1 0
-15.366401 7.658601 17.607415 24.592712 -0.462366 0.772797 0.007058 0.006585 -93217.700000 0 1 0
-14.876001 8.534801 16.406715 23.734332 -0.520879 0.807558 -0.013654 0.008959 173640.000000 0 1 0
-15.382101 8.240001 15.060515 23.050504 -0.491788 0.858768 -0.005288 0.010564 -911040.000000 0 1 0
-16.713901 8.523701 14.871415 23.940905 -0.471597 0.900559 0.008795 0.011503 -826600.000000 0 1 0
-17.428701 7.938501 13.589115 23.482833 -0.427405 0.953683 0.008678 0.005573 129131.000000 0 1 0
-17.370001 6.521001 13.580415 22.992783 -0.359137 0.938947 0.020019 0.002802 722005.000000 0 1 0
-18.128801 5.898701 12.504815 22.799528 -0.314573 0.990265 0.040863 0.005524 187029.000000 0 1 0
-17.805901 4.356501 12.444415 22.156098 -0.239952 0.974393 0.030973 -0.002155 -24913.400000 0 1 0
-18.256401 3.590201 13.506315 22.991439 -0.194177 0.942892 0.020057 0.003750 -51777.700000 0 1 0
-17.857501 2.253601 13.385315 22.430687 -0.125535 0.931363 0.015802 -0.003276 -256343.000000 0 1 0
-18.593301 1.323801 14.379315 23.542047 -0.071078 0.913735 0.024752 -0.001093 -157254.000000 0 1 0
-19.868601 0.975901 13.900915 24.268274 -0.049078 0.960876 0.032539 0.002344 -123750.000000 0 1 0
-20.553001 0.270101 14.917515 25.397461 -0.013141 0.943000 0.024792 0.003584 404757.000000 0 0 1
-22.041701 -0.068099 14.588715 26.432401 0.003090 0.986125 0.040635 0.001083 242783.000000 0 0 1
-22.127901 -1.072199 13.610415 26.000712 0.048417 1.019886 0.043399 -0.000959 75374.800000 0 0 1
-23.419801 -1.374699 13.148615 26.893548 0.058631 1.059953 0.066531 -0.007038 -300697.000000 0 0 1
-23.438401 -2.574199 12.172015 26.535695 0.109390 1.094261 0.060301 -0.009131 -197618.000000 0 0 1
-23.098801 -3.758999 12.863915 26.705149 0.161322 1.068201 0.060599 -0.007429 317948.000000 0 0 1
-22.904701 -4.838399 11.989415 26.301739 0.208180 1.097479 0.071691 -0.014323 -166709.000000 0 0 1
-22.832601 -6.336099 12.507815 26.794015 0.270691 1.085112 0.067945 -0.017123 759840.000000 0 0 1
-24.052401 -6.663799 13.200215 28.234197 0.270274 1.084307 0.060971 -0.014656 960100.000000 0 0 1
-24.093701 -7.998599 13.583315 28.792194 0.320531 1.079498 0.065334 -0.025514 38572.400000 0 0 1
-24.900301 -8.225599 14.902815 30.162549 0.319055 1.054016 0.062001 -0.019427 45916.100000 0 0 1
-26.274321 -7.961099 14.762815 31.171457 0.294206 1.077422 0.066669 -0.021541 91895.200000 0 0 1
-27.074441 -8.605799 15.740815 32.478583 0.307758 1.064831 0.055662 -0.018721 -285736.000000 0 0 1
-28.447611 -7.866599 15.945315 33.547027 0.269787 1.075477 0.048569 -0.018917 891872.000000 0 0 1
-29.545041 -8.279699 15.114515 34.203968 0.273231 1.113088 0.043829 -0.019825 906952.000000 0 0 1
-29.906471 -9.684699 15.014515 34.837136 0.313176 1.125205 0.044928 -0.026868 -839242.000000 0 0 1
-30.283391 -10.446999 16.330915 35.957229 0.332191 1.099349 0.039616 -0.023312 -794557.000000 0 0 1
-29.177391 -10.633399 17.181915 35.490950 0.349480 1.065438 0.045712 -0.014677 -269475.000000 0 0 1
-29.387281 -10.976999 18.499915 36.419138 0.357480 1.037967 0.047599 -0.007636 -374501.000000 0 0 1
-28.114701 -10.952299 19.368815 35.854431 0.371472 1.000113 0.045283 0.003304 326032.000000 0 0 1
-27.191711 -11.944499 18.921715 35.214933 0.413895 1.003539 0.039803 0.000159 1371250.000000 0 0 1
-25.850451 -11.786499 19.478515 34.446769 0.427790 0.969797 0.033157 -0.007168 1517510.000000 0 0 1
-24.853501 -12.833199 18.925515 33.772217 0.476645 0.975943 0.036690 -0.002955 -71975.200000 0 0 1
-24.420501 -12.475999 17.613115 32.591920 0.472315 0.999868 0.026077 -0.001083 1819980.000000 0 0 1
-23.103301 -13.107699 17.375815 31.741034 0.516067 0.991513 0.022765 -0.007801 1749410.000000 0 0 1
-22.885901 -13.137799 15.875215 30.795920 0.521125 1.029208 0.025212 -0.013620 -311549.000000 0 0 1
-22.632601 -11.887399 15.313315 29.800042 0.483630 1.031108 0.022013 -0.012518 -151406.000000 0 0 1
-22.288101 -12.035299 13.959315 28.921797 0.495124 1.067110 0.033367 -0.017733 -252210.000000 0 0 1
-21.016101 -11.345499 13.503515 27.436140 0.495016 1.056204 0.038948 -0.025552 -694096.000000 0 0 1
-21.189001 -9.931099 13.423715 26.977706 0.438288 1.049983 0.041234 -0.027153 306656.000000 0 0 1
-19.956201 -9.246499 13.295115 25.700346 0.433892 1.027089 0.039491 -0.023869 505161.000000 0 0 1
-19.075401 -9.340699 11.998715 24.394441 0.455352 1.056569 0.038540 -0.007567 -225543.000000 0 1 0
-18.438701 -10.529699 11.708915 24.247865 0.518872 1.066851 0.027770 -0.015908 -71007.000000 0 1 0
-18.225101 -10.564099 10.302215 23.449736 0.525319 1.115942 0.035758 -0.008975 -1014590.000000 0 1 0
-17.598001 -11.863099 9.785515 23.370474 0.593142 1.138769 0.023341 -0.007608 1611600.000000 0 1 0
-16.155001 -12.012399 9.883515 22.426896 0.639374 1.114419 0.033370 -0.015505 1430430.000000 0 1 0
-15.541701 -11.869199 11.128415 22.500311 0.652212 1.053434 0.037375 -0.016038 85132.800000 0 1 0
-13.993301 -12.155199 11.167615 21.639708 0.715219 1.028539 0.030830 -0.010518 914570.000000 0 1 0
-13.748601 -13.460999 10.716815 22.024365 0.774829 1.062615 0.039107 -0.018921 -437999.000000 0 1 0
-12.380901 -13.736999 10.765515 21.398322 0.837274 1.043613 0.033985 -0.018192 -352563.000000 0 1 0
-12.066501 -15.228799 10.714715 22.188328 0.900739 1.066834 0.035558 -0.015712 -104017.000000 0 1 0
-12.485301 -15.811999 9.523315 22.284425 0.902423 1.129233 0.034703 -0.013014 54150.700000 0 1 0
-12.209201 -17.193199 9.508515 23.131851 0.953312 1.147183 0.029669 -0.014328 -93473.400000 0 1 0
-12.643601 -17.845399 8.165115 23.344978 0.954383 1.213483 0.023335 -0.012237 -507845.000000 0 1 0
-11.778901 -17.844999 7.061915 22.517929 0.987376 1.251801 0.018519 -0.013110 -358719.000000 0 1 0
-12.317701 -18.569699 6.006115 23.078841 0.985112 1.307522 0.016930 -0.003587 279427.000000 0 1 0
-11.289301 -18.644899 4.791415 22.316770 1.026350 1.354411 0.015532 0.003784 339285.000000 0 1 0
-11.636801 -19.372999 3.614315 22.886492 1.029884 1.412209 0.020112 0.000715 -661555.000000 0 1 0
-10.725401 -19.306699 2.574315 22.235331 1.063719 1.454760 0.021322 -0.005010 -632885.000000 0 1 0
-10.873501 -20.304499 1.421215 23.076515 1.079137 1.509170 0.024438 -0.006438 -42177.100000 0 1 0
-10.436001 -21.613499 1.720815 24.062724 1.120966 1.499222 0.003968 -0.008117 -230300.000000 0 1 0
-10.970101 -22.584299 0.826715 25.121249 1.118622 1.537881 0.008435 -0.009112 17250.900000 0 0 1
-10.235701 -22.782099 -0.538385 24.981663 1.148535 1.592349 0.020893 0.002605 -45814.800000 0 1 0
-10.391701 -21.721299 -1.442185 24.122234 1.124569 1.630619 0.026002 -0.010079 -1049680.000000 0 1 0
-11.386201 -21.903199 -2.338985 24.796503 1.091401 1.665264 0.037204 -0.002338 -154501.000000 0 1 0
-12.544601 -20.810799 -2.284785 24.406487 1.028326 1.664547 0.046518 -0.000762 663986.000000 0 1 0
-13.347201 -20.840299 -1.120385 24.773395 1.001163 1.616037 0.051681 -0.003764 485486.000000 0 1 0
-14.373101 -19.848299 -1.189785 24.534804 0.944047 1.619309 0.058823 0.002354 323225.000000 0 1 0
25.888799 -20.653599 -4.014085 33.360365 -0.673387 1.691414 0.024143 -0.029839 -868454.000000 0 0 1
24.773299 -20.706399 -3.172985 32.442860 -0.696213 1.668755 0.018145 -0.032299 -345564.000000 0 0 1
24.778299 -21.862899 -2.379085 33.130205 -0.722972 1.642668 0.004325 -0.028347 -558319.000000 0 0 1
23.427999 -22.083599 -1.682785 32.239545 -0.755867 1.623016 -0.003104 -0.026222 -637865.000000 0 0 1
22.446599 -22.380499 -2.616985 31.805427 -0.783924 1.653171 0.002978 -0.029991 -873841.000000 0 0 1
21.338699 -22.924699 -1.924685 31.378119 -0.821214 1.632173 0.007644 -0.027845 389655.000000 0 0 1
20.372699 -23.662799 -2.959985 31.364573 -0.859974 1.665310 0.022644 -0.024908 647524.000000 0 0 1
19.619799 -22.787999 -3.828085 30.313094 -0.859968 1.697419 0.024530 -0.031315 -464420.000000 0 0 1
18.719599 -23.606199 -4.524685 30.465535 -0.900341 1.719866 0.035487 -0.028225 -814430.000000 0 0 1
17.766799 -22.730699 -5.297985 29.332789 -0.907363 1.752410 0.032016 -0.008823 -809586.000000 0 0 1
16.767199 -22.071099 -4.536485 28.086511 -0.921122 1.733025 0.030252 -0.010174 199660.000000 0 0 1
17.213499 -20.920599 -3.824485 27.360605 -0.882306 1.711036 0.022023 -0.020127 -292651.000000 0 0 1
16.258499 -20.374999 -2.721185 26.208476 -0.897299 1.674812 0.039671 -0.004426 123742.000000 0 0 1
15.897499 -21.332899 -1.785585 26.664797 -0.930368 1.637811 0.033223 -0.009054 311204.000000 0 0 1
15.032899 -20.729099 -0.819685 25.619436 -0.943352 1.602796 0.042992 0.001846 11028.200000 0 0 1
14.544099 -21.459699 0.421515 25.927344 -0.975167 1.554538 0.029712 0.001487 -19952.400000 0 0 1
13.633999 -22.512499 0.129715 26.319487 -1.026255 1.565868 0.041283 -0.008800 70799.400000 0 0 1
12.954099 -22.841599 1.348415 26.293831 -1.054899 1.519491 0.051001 -0.004949 545691.000000 0 0 1
12.058499 -24.149299 1.234415 27.020730 -1.107684 1.525096 0.049543 -0.002937 496411.000000 0 0 1
12.747399 -25.346749 1.489715 28.410793 -1.104815 1.518337 0.026147 -0.005745 319920.000000 0 0 1
11.821099 -26.415249 1.319315 28.969715 -1.150015 1.525239 0.036675 -0.013564 423716.000000 0 0 1
12.285699 -27.707609 2.029015 30.377079 -1.153440 1.503952 0.030390 -0.008173 67591.100000 0 0 1
11.989999 -27.711249 3.417415 30.386710 -1.162442 1.458094 0.047569 -0.012781 116416.000000 0 0 1
12.186599 -28.994729 3.943515 31.697931 -1.172910 1.446064 0.052223 -0.013380 -128848.000000 0 0 1
12.028399 -28.978009 5.465915 31.847820 -1.177352 1.398316 0.056098 -0.006219 19442.700000 0 0 1
12.262699 -30.230889 6.067415 33.182736 -1.185442 1.386913 0.045751 -0.008966 -202412.000000 0 0 1
12.251999 -30.198519 7.441715 33.428149 -1.185373 1.346297 0.051885 -0.004101 -15213.400000 0 0 1
11.982699 -31.587939 8.025715 34.724560 -1.208223 1.337562 0.030230 -0.002547 -150749.000000 0 0 1
11.770999 -31.621639 9.413715 35.030023 -1.214443 1.298719 0.028366 0.001285 -89630.200000 0 0 1
11.160899 -32.847059 9.753415 36.036427 -1.243252 1.296724 0.028891 -0.001257 205862.000000 0 0 1
10.873899 -33.178459 11.291915 36.695493 -1.254088 1.258001 0.029670 -0.002391 23243.600000 0 0 1
12.025299 -33.617159 11.970315 37.656469 -1.227267 1.247302 0.032070 -0.000977 94169.900000 0 0 1
11.753399 -33.908819 13.391815 38.305236 -1.237138 1.213644 0.042382 -0.002154 937631.000000 0 0 1
10.741299 33.775103 13.747415 38.014793 1.262887 1.200777 0.039441 -0.007315 816946.000000 0 0 1
11.259999 32.606761 13.222115 36.943372 1.238290 1.204776 0.039068 -0.008083 -161532.000000 0 0 1
10.283199 31.596041 13.259715 35.775327 1.256150 1.191100 0.038491 -0.007419 -45403.800000 0 0 1
10.355599 30.429231 12.181615 34.373947 1.242773 1.208540 0.037947 -0.011083 -65325.500000 0 0 1
9.898299 30.874901 10.871315 34.196803 1.260555 1.247278 0.034270 -0.011151 -260678.000000 0 0 1
10.734399 31.762891 10.221015 35.051073 1.244893 1.274894 0.017373 -0.012585 -492435.000000 0 0 1
10.294199 32.080711 8.817115 34.826485 1.260291 1.314838 0.006418 -0.009468 -372079.000000 0 0 1
9.010899 32.663081 8.853615 35.020846 1.301618 1.315213 0.014229 -0.011255 -275579.000000 0 0 1
8.445499 32.783071 7.554415 34.686098 1.318661 1.351243 0.006446 -0.006356 -265182.000000 0 0 1
8.950299 33.913980 6.644315 35.698918 1.312768 1.383584 0.013252 -0.005038 -424157.000000 0 0 1
8.450799 -33.706889 6.941315 35.436595 -1.325145 1.373642 0.010263 -0.001680 -575170.000000 0 0 1
9.036399 -32.701029 6.241915 34.496019 -1.301191 1.388848 0.028793 -0.009665 -627012.000000 0 0 1
8.344899 -31.334089 6.369215 33.045868 -1.310517 1.376844 0.032969 -0.006963 52311.400000 0 0 1
8.202199 -30.786649 7.708215 32.779726 -1.310424 1.333421 0.028642 -0.006686 -257797.000000 0 0 1
7.593399 -29.529429 7.759415 31.461968 -1.319103 1.321597 0.038757 -0.006886 151851.000000 0 0 1
8.431599 -28.228999 7.394415 30.375082 -1.280546 1.324889 0.061512 -0.011406 -28592.000000 0 0 1
9.240999 -27.751109 8.443215 30.443522 -1.249350 1.289772 0.056738 -0.008672 353671.000000 0 0 1
10.131599 -26.658369 8.074615 29.639793 -1.207603 1.294884 0.054854 -0.008778 365726.000000 0 0 1
9.687899 -25.409809 7.221015 28.136397 -1.206543 1.311249 0.053744 -0.008698 -555542.000000 0 0 1
9.444399 -25.753509 5.853915 28.048320 -1.219302 1.360542 0.063923 -0.009273 -414209.000000 0 0 1
8.659799 -24.783799 5.232215 26.769477 -1.234644 1.374075 0.048756 -0.009111 -73807.700000 0 0 1
8.356199 -25.239759 3.791715 26.856072 -1.251082 1.429137 0.047798 -0.007456 505602.000000 0 0 1
7.259599 -26.137839 3.667915 27.374112 -1.299882 1.436400 0.044871 -0.009007 -8198.390000 0 0 1
7.656599 -27.463319 3.886015 28.774268 -1.298907 1.435331 0.044482 -0.008057 -164529.000000 0 0 1
6.651599 -28.459449 3.314515 29.413773 -1.341196 1.457871 0.041307 -0.005383 369429.000000 0 0 1
5.373399 -28.438409 3.950315 29.209956 -1.384049 1.435142 0.025869 0.000260 250218.000000 0 0 1
4.360099 -29.310319 3.503115 29.839187 -1.423123 1.453125 0.025587 0.006907 275110.000000 0 0 1
4.458099 -30.727529 4.136215 31.323537 -1.426717 1.438361 0.023853 -0.000713 -372214.000000 0 0 1
5.271999 -31.541489 3.340315 32.153028 -1.405182 1.466721 0.030309 -0.003748 -295472.000000 0 0 1
5.136999 -32.939659 3.678215 33.540113 -1.416091 1.460909 0.014502 0.000609 -164878.000000 0 0 1
6.291599 -33.821419 3.207315 34.550825 -1.386875 1.477834 0.010294 -0.006293 -240342.000000 0 0 1
6.336599 -34.083044 1.833315 34.715522 -1.386979 1.517962 0.021356 -0.001983 552825.000000 0 0 1
7.449999 33.961735 1.433515 34.798806 1.354852 1.529590 0.007807 0.001529 368724.000000 0 0 1
7.276999 33.461756 -0.035385 34.243906 1.356658 1.571830 0.018166 0.004695 603192.000000 0 0 1
6.136199 32.627571 -0.178785 33.200049 1.384900 1.576181 0.007143 0.011614 1079530.000000 0 0 1
4.849199 33.275465 -0.372185 33.629003 1.426086 1.581864 0.006657 0.008315 1782880.000000 0 0 1
3.615799 32.300071 -0.126285 32.502070 1.459316 1.574682 0.015446 0.011749 832029.000000 0 0 1
3.568199 31.270191 -1.111685 31.492741 1.457179 1.606103 0.018588 0.016989 84177.600000 0 0 1
2.468599 30.405761 -0.882885 30.518581 1.489785 1.599730 0.020022 0.007431 265418.000000 0 0 1
2.283999 29.338801 -1.951485 29.492205 1.493104 1.637014 0.022564 0.004805 15730.000000 0 0 1
1.885999 29.834961 -3.211585 30.066529 1.507666 1.677816 0.030180 -0.003944 25643.600000 0 0 1
1.858099 28.834911 -4.264285 29.207683 1.506446 1.717319 0.028144 -0.012087 -104721.000000 0 0 1
1.616299 29.440331 -5.634585 30.018229 1.515951 1.759622 0.026234 -0.015726 444374.000000 0 0 1
0.281099 29.937451 -5.830085 30.501145 1.561407 1.763123 0.035703 -0.011155 725392.000000 0 0 1
0.151699 30.739431 -6.973485 31.520868 1.565861 1.793876 0.024374 -0.014702 -103139.000000 0 0 1
0.186799 29.999491 -8.367885 31.145238 1.564570 1.842811 0.028909 -0.021718 -932271.000000 0 0 1
-1.080201 29.532891 -8.706385 30.808434 -1.534236 1.857297 0.032751 -0.017951 -413048.000000 0 0 1
-1.211001 29.098511 -10.051585 30.809483 -1.529203 1.903130 0.036026 -0.022536 -59089.000000 0 0 1
-1.440801 30.224631 -11.081685 32.224338 -1.523163 1.921855 0.033213 -0.029718 -477712.000000 0 0 1
-0.279401 30.967551 -11.343585 32.980967 -1.561774 1.921910 0.027308 -0.023866 -329903.000000 0 0 1
-0.498401 32.297021 -11.727185 34.363830 -1.555366 1.919059 0.023528 -0.031192 -206946.000000 0 0 1
-0.759101 33.232713 -10.530385 34.869449 -1.547958 1.877581 0.019512 -0.024858 -68695.800000 0 0 1
0.362099 33.640046 -9.778285 35.034250 1.560033 1.853660 0.020144 -0.032131 -361185.000000 0 0 1
0.025999 -34.289714 -8.796385 35.400022 -1.570038 1.821913 0.018790 -0.018213 -401767.000000 0 0 1
1.109899 -34.058020 -7.723185 34.940352 -1.538219 1.793676 0.017466 -0.023337 207690.000000 0 0 1
2.169099 -33.205889 -8.129985 34.255404 -1.505566 1.810417 0.013400 -0.022300 -494196.000000 0 0 1
2.974799 -32.870779 -7.027785 33.745034 -1.480542 1.780593 0.009620 -0.027774 -1316210.000000 0 0 1
4.108299 -31.986319 -7.586685 33.129451 -1.443056 1.801848 -0.002619 -0.024897 -151075.000000 0 0 1
5.095699 -32.598339 -8.399785 34.046648 -1.415733 1.820084 0.014540 -0.017950 116762.000000 0 0 1
5.898199 -33.509119 -7.705085 34.885787 -1.396563 1.793499 0.024273 -0.003064 -2035650.000000 0 0 1
6.245699 34.104676 -8.494185 35.697183 1.389670 1.811052 0.018809 -0.005095 -671423.000000 0 0 1
5.298399 33.124221 -8.685885 34.651575 1.412185 1.824162 0.013904 -0.010100 -852706.000000 0 0 1
4.276299 33.399466 -9.618485 35.018942 1.443454 1.849038 0.022098 -0.016144 58097.100000 0 0 1
3.416499 32.151001 -9.852785 33.799951 1.464929 1.866594 0.023556 -0.026963 68806.200000 0 0 1
4.107499 31.226581 -10.662585 33.251491 1.440009 1.897228 0.004234 -0.019377 345188.000000 0 0 1
3.317999 30.037151 -10.747285 32.074034 1.460779 1.912484 0.003857 -0.027425 320617.000000 0 0 1
4.035399 28.979291 -11.576385 31.465798 1.432435 1.947550 0.007902 -0.024671 -203157.000000 0 0 1
4.000199 29.234001 -12.974885 32.233151 1.434807 1.985078 0.015979 -0.028035 349157.000000 0 0 1
5.145499 28.760241 -13.699185 32.269107 1.393759 2.009238 0.021312 -0.028380 222393.000000 0 0 1
5.060299 29.195931 -15.179785 33.293166 1.399179 2.044228 0.021183 -0.023691 -157341.000000 0 0 1
4.211399 28.423041 -16.004385 32.889899 1.423698 2.078996 0.024857 -0.018777 -142359.000000 0 0 1
3.969899 29.145041 -17.191985 34.069897 1.435418 2.099726 0.036697 -0.016800 -599685.000000 0 0 1
2.834099 28.468221 -17.914385 33.754954 1.471570 2.130245 0.030370 -0.014431 -488882.000000 0 0 1
3.118799 27.162211 -18.287785 32.893095 1.456476 2.160334 0.046336 -0.008229 -338738.000000 0 0 1
2.047699 26.684531 -19.053085 32.852356 1.494209 2.189477 0.033710 -0.014937 -28613.300000 0 0 1
2.419299 25.495371 -19.957785 32.468140 1.476188 2.232787 0.051777 -0.009218 -29029.600000 0 0 1
2.909999 24.405771 -19.233085 31.209314 1.452123 2.234783 0.054215 -0.014362 -342443.000000 0 0 1
3.500699 23.536171 -20.101585 31.149317 1.423142 2.272251 0.067442 -0.007110 -432916.000000 0 0 1
4.212099 22.417071 -19.311485 29.886457 1.385065 2.273341 0.067143 -0.011231 -109526.000000 0 0 1
3.379499 21.371871 -18.820685 28.677449 1.413967 2.286686 0.061797 -0.001760 198197.000000 0 0 1
4.082699 20.390471 -18.000585 27.503832 1.373184 2.284285 0.047973 0.004887 423854.000000 0 0 1
3.167299 19.223171 -17.631785 26.276262 1.407499 2.306374 0.044245 -0.004861 271840.000000 0 0 1
2.441199 19.200271 -16.410785 25.375652 1.444331 2.274064 0.046596 -0.010520 -132522.000000 0 0 1
1.706999 18.036271 -16.212085 24.311574 1.476435 2.300765 0.031827 -0.006523 -79397.700000 0 1 0
2.450599 16.984071 -15.345385 23.020533 1.427497 2.300429 0.019944 -0.006332 773433.000000 0 1 0
3.561699 16.276971 -15.944185 23.061711 1.355373 2.334180 0.023304 -0.009070 373927.000000 0 1 0
3.277599 15.165371 -16.817185 22.881190 1.357946 2.396431 0.025275 -0.017821 50120.800000 0 1 0
2.967899 15.505971 -18.346285 24.203920 1.381680 2.431020 0.025207 -0.013979 744994.000000 0 1 0
4.245399 15.909671 -18.896685 25.064432 1.310028 2.424812 0.030026 -0.014975 766380.000000 0 0 1
4.167299 16.485971 -20.166585 26.378870 1.323204 2.441058 0.034841 -0.014404 -46158.900000 0 0 1
4.586899 15.375871 -21.228685 26.610414 1.280883 2.494365 0.022448 -0.019379 62051.500000 0 0 1
3.611299 14.396871 -21.374285 26.022518 1.325028 2.534616 0.020703 -0.019405 487523.000000 0 0 1
2.445899 14.732171 -22.159385 26.721857 1.406273 2.548580 0.030195 -0.019313 492352.000000 0 0 1
1.629699 13.571971 -22.672685 26.474610 1.451290 2.599040 0.035580 -0.011181 -406141.000000 0 0 1
0.840599 12.934871 -21.712085 25.286995 1.505901 2.603381 0.026132 -0.007588 348427.000000 0 0 1
-0.034901 11.973871 -22.342385 25.348708 -1.567882 2.649617 0.013457 -0.005469 66956.900000 0 0 1
-0.513301 10.889071 -21.350785 23.972721 -1.523692 2.669521 0.008748 -0.007489 -827443.000000 0 1 0
-1.454601 11.581171 -20.516185 23.604094 -1.445850 2.624336 0.013814 -0.007353 139072.000000 0 1 0
-2.012601 10.770571 -19.481785 22.351638 -1.386066 2.629262 0.005464 -0.002276 447249.000000 0 1 0
-3.018701 9.622871 -19.917285 22.325108 -1.266818 2.672873 0.000098 -0.005532 -141293.000000 0 1 0
-2.517801 8.583771 -20.691485 22.542360 -1.285478 2.733535 0.001517 -0.003672 -1258980.000000 0 1 0
-3.550701 7.749771 -20.996385 22.660861 -1.141170 2.755928 0.001208 0.008909 -707413.000000 0 1 0
-3.118101 6.577471 -21.919185 23.096241 -1.128117 2.820962 0.001358 0.008642 75325.300000 0 1 0
-2.475801 5.559871 -21.213785 22.069582 -1.151859 2.862199 0.005581 0.008833 -107217.000000 0 1 0
-1.955801 4.555671 -22.031285 22.582224 -1.165280 2.920247 0.011286 0.006043 -642543.000000 0 1 0
-1.322201 3.398371 -21.273085 21.583357 -1.199749 2.971828 0.010209 0.006080 322171.000000 0 1 0
-0.112101 3.718371 -20.582785 20.916259 -1.540658 2.962786 0.012399 -0.013066 262016.000000 0 1 0
0.435799 2.518271 -20.066885 20.228976 1.399439 3.014915 0.015159 -0.006738 176091.000000 0 1 0
1.973999 2.413171 -19.973585 20.215444 0.885169 2.986751 0.013832 -0.014595 38010.300000 0 1 0
2.648299 2.281371 -21.182085 21.468555 0.711103 2.978048 0.021946 -0.012308 644971.000000 0 1 0
4.041899 1.985571 -20.937085 21.415905 0.456621 2.929734 0.034317 -0.021203 1195790.000000 0 1 0
4.642299 1.064671 -22.046185 22.554794 0.225443 2.928824 0.037805 -0.018677 -1055170.000000 0 1 0
5.994599 0.869671 -21.908585 22.730544 0.144071 2.871848 0.046418 -0.018926 -1001230.000000 0 1 0
6.539599 0.482071 -23.188085 24.097428 0.073583 2.865999 0.049204 -0.016306 -196480.000000 0 1 0
8.071999 0.333171 -23.176685 24.544386 0.041251 2.806186 0.032103 -0.018659 -72671.700000 0 1 0
8.650999 1.612871 -23.372585 24.974364 0.184321 2.781497 0.036515 -0.024124 873825.000000 0 1 0
10.087399 1.617971 -23.423485 25.554512 0.159041 2.730309 0.036776 -0.016289 812606.000000 0 0 1
13.200499 -21.111999 22.280662 33.412536 -1.012010 0.840842 0.037513 0.005292 -576365.000000 0 0 1
12.179999 -22.038999 22.586462 33.826293 -1.065916 0.839656 0.032771 0.010598 651552.000000 0 0 1
10.835799 -21.643399 22.291962 32.905666 -1.106628 0.826505 0.024480 0.007319 376526.000000 0 0 1
10.463999 -21.468199 20.804862 31.673666 -1.117264 0.854162 0.054163 -0.005383 -864244.000000 0 0 1
11.010599 -20.281199 20.196962 30.667207 -1.073423 0.851860 0.054108 -0.002381 -39166.400000 0 0 1
10.561899 -20.158099 18.860862 29.557314 -1.088170 0.878753 0.069509 -0.010146 392074.000000 0 0 1
11.167599 -18.904999 18.111362 28.462883 -1.037227 0.881084 0.063903 -0.009337 374430.000000 0 0 1
10.397799 -17.777599 18.473662 27.666468 -1.041567 0.839644 0.069376 -0.007177 107959.000000 0 0 1
10.790599 -16.594699 17.778762 26.606493 -0.994250 0.838994 0.065015 -0.004981 12887.200000 0 0 1
9.890199 -15.437399 18.227462 25.852847 -1.001012 0.788307 0.057458 0.001793 145313.000000 0 0 1
8.523399 -15.634699 17.913562 25.258421 -1.071677 0.782417 0.039882 -0.000026 -713999.000000 0 0 1
7.848399 -14.608099 18.576862 24.901681 -1.077784 0.728749 0.028470 -0.002013 -1311150.000000 0 1 0
6.378299 -14.769199 18.306762 24.371079 -1.163125 0.720967 0.011833 0.000895 -1507650.000000 0 1 0
5.916099 -14.541399 16.993662 23.135191 -1.184403 0.745812 0.006082 -0.004639 87939.500000 0 1 0
4.509699 -14.735399 16.920662 22.886201 -1.273803 0.738708 -0.014918 0.003928 176088.000000 0 1 0
3.992899 -16.153399 16.787562 23.636789 -1.328468 0.780971 -0.026306 0.005133 -875045.000000 0 1 0
2.633199 -16.235899 16.445262 23.259080 -1.410013 0.785483 -0.015142 0.006733 -188690.000000 0 1 0
2.151299 -17.571399 16.486262 24.190473 -1.448971 0.820960 -0.012522 0.001848 103809.000000 0 1 0
0.660499 -17.707599 16.146762 23.973178 -1.533513 0.831816 -0.010223 0.009981 -63877.700000 0 1 0
0.420399 -17.742899 14.732362 23.065769 -1.547107 0.877974 -0.010566 0.014012 -344734.000000 0 1 0
-0.988101 -17.827199 14.643262 23.091351 1.515426 0.883894 -0.003956 0.019328 -25523.700000 0 1 0
-1.465201 -18.438599 13.282962 22.772041 1.491499 0.948009 -0.006229 0.016418 224314.000000 0 1 0
-2.884501 -18.597299 13.287162 23.037547 1.416919 0.956038 -0.010495 0.015966 379373.000000 0 1 0
-3.259401 -19.680299 12.445062 23.512070 1.406669 1.013015 0.008096 0.004362 589974.000000 0 1 0
-4.803901 -19.749499 12.238062 23.725310 1.332189 1.028828 0.008108 -0.003930 616260.000000 0 1 0
-5.640001 -20.195199 13.318262 24.840125 1.298461 1.004916 0.009492 -0.006808 215207.000000 0 1 0
-5.760201 -21.594399 13.465062 26.092257 1.310121 1.028556 -0.012670 -0.000382 -308152.000000 0 0 1
-6.402501 -21.977899 14.792862 27.255253 1.287326 0.997085 -0.008868 -0.007906 696807.000000 0 0 1
-7.829501 -21.918499 14.806362 27.585323 1.227713 1.004218 0.002062 -0.001495 611822.000000 0 0 1
-8.416201 -22.649399 15.871862 28.909233 1.215022 0.989600 -0.003375 -0.005686 180329.000000 0 0 1
-9.948601 -22.497699 16.016062 29.353626 1.154443 0.993662 0.010964 -0.004516 153501.000000 0 0 1
-10.201101 -21.230199 16.510962 28.764487 1.122870 0.959408 0.000818 -0.003046 -810722.000000 0 0 1
-11.460901 -20.814099 16.091862 28.697160 1.067468 0.975508 0.025501 -0.006833 -635679.000000 0 0 1
-11.700001 -19.443199 16.742662 28.200084 1.029089 0.935135 0.031950 -0.004041 -368701.000000 0 0 1
-11.937901 -19.616599 18.112562 29.247040 1.024106 0.902951 0.035140 -0.007526 9879.090000 0 0 1
-12.020001 -18.435599 18.880962 28.997284 0.993017 0.861726 0.032190 -0.010378 -156184.000000 0 0 1
-12.455701 -18.792399 20.304462 30.340895 0.985472 0.837650 0.030131 -0.004348 245386.000000 0 0 1
-13.773701 -19.324599 20.364062 31.270593 0.951561 0.861604 0.049161 -0.002059 353224.000000 0 0 1
-13.952501 -20.125699 21.506962 32.592414 0.964603 0.850142 0.032447 0.005138 121378.000000 0 0 1
-15.347101 -20.785999 21.403662 33.551573 0.934801 0.878985 0.040779 -0.003431 -289456.000000 0 0 1
-15.263001 -21.917899 20.535262 33.690510 0.962510 0.915333 0.036646 -0.004593 343903.000000 0 0 1
-16.476101 -22.091399 19.827162 33.950084 0.929979 0.947137 0.051844 -0.001071 983341.000000 0 0 1
-17.663001 -22.790599 20.602862 35.438269 0.911478 0.950381 0.064476 -0.005182 552344.000000 0 0 1
-18.346001 -22.102299 21.650462 35.969847 0.877999 0.924911 0.054051 -0.003736 477883.000000 0 0 1
-19.266501 -22.906199 22.385562 37.376536 0.871489 0.928644 0.068494 -0.001221 538132.000000 0 0 1
-20.122501 -22.204499 23.481462 38.070118 0.834547 0.906132 0.066218 0.000649 88426.500000 0 0 1
-20.926901 -21.147599 23.049562 37.635601 0.790644 0.911652 0.057177 0.000059 -45358.600000 0 0 1
-21.254501 -20.295699 24.163862 38.046832 0.762327 0.882648 0.053275 -0.000474 227351.000000 0 0 1
-22.214801 -19.125799 23.809902 37.765130 0.710816 0.888634 0.044371 0.002273 195548.000000 0 0 1
-21.706801 -18.352099 22.753562 36.410292 0.701849 0.895766 0.059228 0.002235 -22602.000000 0 0 1
-22.565001 -17.267299 22.442962 36.208085 0.653174 0.902267 0.039453 0.003662 79268.100000 0 0 1
-22.119201 -16.625099 21.119762 34.809443 0.644533 0.918862 0.040032 0.000947 339257.000000 0 0 1
-20.953601 -15.792799 21.159362 33.707336 0.645867 0.892153 0.038763 0.000570 6803.960000 0 0 1
-20.855901 -15.420299 19.810162 32.637352 0.636665 0.918544 0.036675 0.004642 99893.500000 0 0 1
-19.744601 -14.408899 19.477362 31.254332 0.630424 0.897982 0.023783 -0.007065 22218.400000 0 0 1
-19.662101 -14.176299 18.097362 30.250292 0.624679 0.929476 0.025416 -0.007170 94904.100000 0 0 1
-18.882001 -13.034999 17.743062 29.004438 0.604213 0.912543 0.037124 -0.015842 -263764.000000 0 0 1
-18.958201 -12.844999 16.193062 28.046794 0.595495 0.955306 0.036711 -0.022353 -67494.000000 0 0 1
-18.409601 -11.696599 15.595562 26.813157 0.566010 0.950055 0.032721 -0.021553 -293797.000000 0 0 1
-17.015501 -11.558799 15.725462 25.892533 0.596705 0.918094 0.052625 -0.026451 -233570.000000 0 0 1
-16.470001 -10.299199 14.933262 24.501770 0.558837 0.915396 0.035576 -0.031480 12440.300000 0 1 0
-16.926501 -9.063799 15.417762 24.624506 0.491627 0.894236 0.029052 -0.019546 -107537.000000 0 1 0
-16.451101 -7.969299 14.699862 23.457076 0.451109 0.893523 0.020261 -0.012129 -809259.000000 0 1 0
-16.629401 -6.617299 15.429262 23.630230 0.378719 0.859329 0.019406 -0.003591 74684.600000 0 1 0
-15.840801 -6.366599 16.562362 23.786055 0.382153 0.800559 0.012548 -0.001578 -861274.000000 0 1 0
-14.476701 -6.250899 16.331862 22.701945 0.407608 0.767853 0.015921 -0.004339 -1069930.000000 0 1 0
-13.694801 -6.260299 17.669562 23.215347 0.428767 0.705765 0.017605 -0.005802 -131686.000000 0 1 0
-13.802701 -7.418299 18.480662 24.229746 0.493159 0.703278 0.028777 -0.014179 119087.000000 0 1 0
-13.224501 -8.602499 17.955862 23.901954 0.576725 0.720873 0.037971 -0.012650 -391303.000000 0 1 0
-13.259601 -9.809599 18.895562 25.081617 0.636948 0.717635 0.036879 -0.012548 1079400.000000 0 0 1
-14.595701 -10.302399 19.159362 26.196471 0.614642 0.750465 0.041451 -0.016522 766661.000000 0 0 1
-15.202401 -9.780899 20.285562 27.171364 0.571706 0.727892 0.032581 -0.014762 -203177.000000 0 0 1
-16.664401 -10.269199 20.583862 28.405177 0.552272 0.760267 0.020680 -0.002791 1161730.000000 0 0 1
-17.669201 -10.249099 19.567762 28.286781 0.525625 0.806868 0.027770 -0.005377 483983.000000 0 0 1
-17.826301 -9.025699 18.839162 27.461869 0.468686 0.814803 0.022710 -0.006785 -526026.000000 0 0 1
-18.981301 -9.009999 17.796862 27.535398 0.443185 0.868036 0.030359 -0.011118 451910.000000 0 0 1
-20.281701 -9.190399 18.327362 28.839262 0.425460 0.882140 0.020109 -0.001335 -48765.600000 0 0 1
-21.253401 -9.098999 17.323362 28.889405 0.404510 0.927740 0.030741 -0.008026 -594543.000000 0 0 1
-22.700401 -9.305099 17.727762 30.268244 0.389019 0.945067 0.031721 -0.003225 -499266.000000 0 0 1
-23.117401 -8.381899 18.762962 30.930878 0.347837 0.919008 0.037591 0.001247 779275.000000 0 0 1
-24.519501 -8.441299 19.017862 32.158055 0.331560 0.938018 0.039469 0.005511 454733.000000 0 0 1
-25.138281 -7.250699 19.789862 32.804641 0.280811 0.923209 0.055157 -0.002683 -95682.800000 0 0 1
-24.929301 -7.385599 21.166262 33.526523 0.288024 0.887531 0.060387 -0.012494 601270.000000 0 0 1
-25.669601 -6.320399 21.781762 34.253774 0.241419 0.881630 0.058800 -0.015956 -367572.000000 0 0 1
-25.748361 -6.371999 23.366862 35.349550 0.242598 0.848615 0.049995 -0.013570 107903.000000 0 0 1
-24.627101 -6.019299 24.155712 35.017488 0.239718 0.809558 0.032402 -0.013054 598466.000000 0 0 1
-23.472701 -6.870999 24.004332 34.269320 0.284767 0.794753 0.032786 -0.009343 -26031.200000 0 0 1
-22.465401 -6.670999 25.115292 34.350755 0.288652 0.750801 0.023305 -0.000230 -561356.000000 0 0 1
-21.835901 -5.431799 25.044842 33.668310 0.243807 0.731954 0.012946 0.002044 -6909.060000 0 0 1
-21.116801 -5.048699 26.201912 34.028647 0.234679 0.691962 0.021822 -0.002815 3312.040000 0 0 1
-20.576401 -3.648399 26.167052 33.487516 0.175486 0.673895 0.016312 -0.002888 -93031.800000 0 0 1
-19.638001 -3.327799 27.181322 33.697917 0.167862 0.632390 0.015540 0.001653 -112516.000000 0 0 1
-20.118401 -3.268899 28.555362 35.083393 0.161075 0.619914 0.017495 0.002623 -357476.000000 0 0 1
-21.025701 -2.114699 28.870182 35.777639 0.100240 0.631854 0.030256 -0.004751 646300.000000 0 0 1
-22.382801 -2.279199 28.413632 36.242503 0.101478 0.669735 0.040677 -0.009991 377544.000000 0 0 1
-23.109201 -1.126399 28.801502 36.943612 0.048704 0.676758 0.040206 -0.011132 727184.000000 0 0 1
-24.351101 -0.893499 27.868712 37.019448 0.036676 0.718471 0.046290 -0.017553 -78857.000000 0 0 1
-23.973201 -0.233899 26.658732 35.853271 0.009756 0.732431 0.032165 -0.019830 573078.000000 0 0 1
-25.057801 0.093601 25.757272 35.935208 -0.003735 0.771637 0.035388 -0.019204 155261.000000 0 0 1
-25.905021 -1.042199 25.158042 36.125938 0.040210 0.800430 0.032775 -0.018559 -308177.000000 0 0 1
-26.866701 -1.533399 26.075942 37.471665 0.057012 0.801146 0.023624 -0.013929 284184.000000 0 0 1
-27.432511 -2.808199 25.715662 37.705754 0.102012 0.820290 0.024704 -0.011230 238122.000000 0 0 1
-26.455061 -4.009999 25.950652 37.274478 0.150433 0.800700 0.030277 -0.012698 361440.000000 0 0 1
-26.145811 -4.318499 27.279772 38.032076 0.163692 0.770901 0.027271 -0.009810 500661.000000 0 0 1
-25.077601 -5.300199 27.306972 37.451955 0.208287 0.753761 0.027351 -0.005509 579282.000000 0 0 1
-24.765201 -5.764199 28.793182 38.413390 0.228682 0.723398 0.022976 0.003020 75084.900000 0 0 1
-25.827521 -6.389799 29.502472 39.727651 0.242533 0.733825 0.027694 0.006811 174200.000000 0 0 1
-25.492221 -6.794899 30.816832 40.567242 0.260492 0.708024 0.041547 0.007656 -296662.000000 0 0 1
-26.644761 -7.494299 31.559502 41.977494 0.274183 0.719979 0.015603 0.009494 -373146.000000 0 0 1
-27.160631 -8.581099 30.861962 41.997569 0.306015 0.745349 0.011359 0.006198 -32621.600000 0 0 1
-28.117191 -9.243699 31.670202 43.347712 0.317625 0.751584 0.012997 0.009938 35728.100000 0 0 1
-29.150241 -10.046099 30.823402 43.597509 0.331884 0.785550 0.001580 -0.001578 -287723.000000 0 0 1
-28.660371 -11.160599 30.140652 43.063148 0.371343 0.795514 0.006639 -0.005119 -806997.000000 0 0 1
-29.637691 -11.889799 29.533152 43.496748 0.381516 0.824432 -0.002252 0.003318 -679819.000000 0 0 1
-29.030411 -13.133099 28.818602 42.962249 0.424841 0.835524 -0.004951 -0.001654 -64645.400000 0 0 1
-28.414001 -12.898699 27.556022 41.630112 0.426139 0.847412 0.004370 0.002691 -651804.000000 0 0 1
-27.500301 -13.911099 27.318552 41.183595 0.468319 0.845529 0.006183 0.000883 -1300780.000000 0 0 1
-26.292301 -13.197599 26.705132 39.731924 0.465212 0.833711 0.023614 -0.006386 -652729.000000 0 0 1
-25.440931 -12.552799 27.665772 39.625859 0.458361 0.797952 0.019552 -0.007178 193265.000000 0 0 1
-25.826691 -11.261699 28.128982 39.813107 0.411192 0.786220 0.021405 -0.013250 -983144.000000 0 0 1
-25.630331 -9.985399 27.291982 38.748862 0.371503 0.789318 0.020952 -0.002267 1014810.000000 0 0 1
-24.287401 -9.711299 26.811632 37.457320 0.380376 0.773039 0.026835 0.000024 1257880.000000 0 0 1
-23.733601 -10.585099 25.789022 36.611498 0.419519 0.789223 0.028035 -0.014286 -292421.000000 0 0 1
-24.417001 -10.448899 24.437412 36.090948 0.404354 0.826973 0.034836 -0.008634 576806.000000 0 0 1
-25.810611 -10.819699 24.437192 37.154137 0.396944 0.853002 0.023575 -0.006831 466430.000000 0 0 1
-26.295171 -10.752799 23.141762 36.641505 0.388178 0.887217 0.036942 -0.002170 589514.000000 0 0 1
-27.681311 -11.509599 23.110262 37.852478 0.394044 0.914060 0.035373 -0.011667 871816.000000 0 0 1
-28.901671 -11.046099 23.624362 38.928568 0.365064 0.918687 0.026322 -0.010020 65193.700000 0 0 1
-28.877531 -10.756999 25.006722 39.685778 0.356581 0.889091 0.023623 -0.006015 -297298.000000 0 0 1
-30.332491 -10.563699 25.529532 41.029364 0.335127 0.899213 0.001536 -0.001077 166736.000000 0 0 1
-30.988521 -9.363499 25.073002 40.946538 0.293437 0.911786 0.013336 -0.002844 547849.000000 0 0 1
-32.324731 -9.161699 25.532652 42.198830 0.276184 0.920960 0.010060 0.002557 218065.000000 0 0 1
-32.580281 -9.080999 27.061602 43.315927 0.271828 0.895986 -0.000015 0.007480 -676027.000000 0 0 1
-32.585851 -10.266699 27.735862 44.005918 0.305221 0.888888 -0.007324 -0.003705 107675.000000 0 0 1
-33.299121 -10.131999 28.942962 45.267913 0.295372 0.877117 0.001048 -0.004769 -944269.000000 0 0 1
-33.833871 -11.401099 29.557122 46.350182 0.325023 0.879299 0.011907 -0.004592 15834.200000 0 0 1
-35.005779 -11.954299 28.978792 46.990214 0.329078 0.906255 0.003006 -0.006241 -41148.800000 0 0 1
35.025024 -11.322999 29.466712 47.151349 -0.312678 0.895743 0.013115 -0.005731 -781753.000000 0 0 1
33.776594 -11.913599 28.780002 45.946498 -0.339094 0.893895 0.015539 -0.006233 -131109.000000 0 0 1
33.565544 -11.508099 27.445242 44.858928 -0.330295 0.912447 0.021295 -0.005657 363095.000000 0 0 1
32.475154 -12.227699 26.836542 43.867440 -0.360107 0.912507 0.028947 -0.004958 516406.000000 0 0 1
32.295474 -11.951699 25.308582 42.735993 -0.354445 0.937000 0.034641 -0.008523 127395.000000 0 0 1
31.731724 -10.684999 25.060992 41.822540 -0.324804 0.928267 0.043281 -0.015997 36986.800000 0 0 1
31.936734 -10.300499 23.689762 41.076272 -0.311995 0.956081 0.036570 -0.014482 -86109.100000 0 0 1
31.674354 -8.774799 23.491662 40.399505 -0.270254 0.950245 0.030079 0.005285 1028150.000000 0 0 1
30.328434 -8.325499 23.774112 39.425072 -0.267912 0.923515 0.040453 -0.003719 726473.000000 0 0 1
30.145154 -7.075199 23.259862 38.727380 -0.230532 0.926539 0.043308 0.002534 566408.000000 0 0 1
28.619644 -6.794599 23.094862 37.398172 -0.233095 0.905185 0.046305 0.004878 187816.000000 0 0 1
27.989864 -7.458699 22.051862 36.405347 -0.260427 0.920112 0.042138 0.013502 80606.700000 0 0 1
26.586464 -7.357299 22.269762 35.452958 -0.269975 0.891624 0.046578 -0.000896 321933.000000 0 0 1
14.403699 -17.190399 26.886122 35.011997 -0.873374 0.695222 0.039095 -0.005083 -269450.000000 0 0 1
13.662099 -18.312499 26.555652 35.031461 -0.929826 0.710476 0.015045 0.003904 723638.000000 0 0 1
14.609199 -19.395299 26.316632 35.807422 -0.925229 0.745205 0.030303 -0.004916 389359.000000 0 0 1
13.919599 -20.807899 26.239372 36.266080 -0.981209 0.761903 0.011192 -0.009982 90707.800000 0 0 1
13.177499 -21.310299 27.279972 37.040143 -1.016984 0.742919 0.012272 -0.009701 -441671.000000 0 0 1
11.962199 -20.642499 27.499522 36.406465 -1.045591 0.714613 0.016944 -0.003714 -541704.000000 0 0 1
11.208599 -21.151299 28.804562 37.452810 -1.083496 0.693381 0.008030 0.000866 261972.000000 0 0 1
11.755899 -20.704799 30.050852 38.339843 -1.054400 0.670031 0.017003 0.000587 156024.000000 0 0 1
11.043299 -19.670999 30.767592 38.151637 -1.059243 0.632664 0.018587 0.000596 39875.000000 0 0 1
10.955399 -18.266499 30.027902 36.815223 -1.030558 0.616965 0.019621 0.000172 626037.000000 0 0 1
12.070699 -17.368199 30.144472 36.824521 -0.963442 0.611831 0.021042 0.004056 199555.000000 0 0 1
11.901199 -16.244399 29.349162 35.593431 -0.938502 0.601360 0.025327 0.000728 97102.600000 0 0 1
12.666299 -14.932099 29.768172 35.630700 -0.867313 0.581820 0.035690 -0.006226 172325.000000 0 0 1
12.120799 -13.685199 29.413892 34.632001 -0.845946 0.556087 0.048828 -0.003201 -182920.000000 0 0 1
12.774499 -12.695499 30.123202 35.096593 -0.782296 0.538860 0.055371 -0.000821 -272389.000000 0 0 1
12.221899 -11.305899 29.766242 34.106119 -0.746485 0.509981 0.059627 -0.002191 43141.700000 0 0 1
12.577099 -10.756699 28.466452 32.927631 -0.707540 0.526610 0.058015 -0.004652 828497.000000 0 0 1
13.975199 -10.521499 28.256892 33.233418 -0.645335 0.554326 0.063509 -0.008894 315343.000000 0 0 1
14.260799 -9.423799 27.143362 32.077102 -0.583943 0.562000 0.059472 -0.010362 148581.000000 0 0 1
14.512599 -8.081299 27.689932 32.290173 -0.508085 0.540339 0.051354 -0.014655 1688560.000000 0 0 1
15.865599 -7.984999 28.263402 33.381093 -0.466276 0.561065 0.060789 -0.018581 981015.000000 0 0 1
16.220799 -6.521299 28.456892 33.398149 -0.382258 0.550907 0.048573 -0.025760 -342224.000000 0 0 1
17.620499 -6.367599 28.408642 34.030563 -0.346772 0.583031 0.049123 -0.027532 -334747.000000 0 0 1
17.879099 -5.069499 27.925522 33.543953 -0.276291 0.587182 0.039095 -0.020229 1050800.000000 0 0 1
19.388499 -4.860999 27.496152 33.993846 -0.245652 0.628591 0.043419 -0.022552 253721.000000 0 0 1
19.729299 -5.619499 26.340792 33.386544 -0.277482 0.661675 0.043705 -0.019529 855276.000000 0 0 1
21.039799 -5.308999 25.834522 33.738422 -0.247172 0.698621 0.040444 -0.009134 1024020.000000 0 0 1
22.270399 -5.773699 26.670012 35.222093 -0.253670 0.711787 0.047585 -0.022469 -576539.000000 0 0 1
22.762699 -4.741999 27.524092 36.030580 -0.205386 0.701447 0.047579 -0.022965 -171373.000000 0 0 1
23.729899 -5.259399 28.395552 37.377490 -0.218110 0.707950 0.057947 -0.034872 -446020.000000 0 0 1
24.395099 -4.134399 29.211652 38.282303 -0.167881 0.702764 0.057085 -0.028721 -12321.200000 0 0 1
25.189999 -3.265999 28.401932 38.103445 -0.128935 0.729676 0.055006 -0.020842 224834.000000 0 0 1
25.060799 -1.896499 28.823442 38.241746 -0.075532 0.717097 0.057762 -0.024972 -359251.000000 0 0 1
25.981299 -0.940799 28.025072 38.227185 -0.036195 0.747900 0.063966 -0.021134 -164180.000000 0 0 1
27.320799 -1.166999 28.383312 39.413200 -0.042689 0.766782 0.063071 -0.020021 -307928.000000 0 0 1
28.187199 -0.696499 27.328792 39.266604 -0.024705 0.801012 0.059018 -0.011499 363851.000000 0 0 1
29.673199 -0.884699 27.692082 40.597202 -0.029806 0.820141 0.054696 -0.016064 -155811.000000 0 0 1
30.169599 0.110301 28.571332 41.551629 0.003656 0.812604 0.040670 -0.011539 -42545.900000 0 0 1
31.578599 -0.037599 28.630282 42.625138 -0.001191 0.834328 0.045142 -0.017264 194495.000000 0 0 1
32.172199 1.046201 29.543112 43.691422 0.032507 0.828236 0.044746 -0.019364 -220537.000000 0 0 1
32.069399 2.332101 28.963902 43.275775 0.072593 0.837548 0.039719 -0.013577 -4327.140000 0 0 1
32.234099 3.324101 29.943022 44.121099 0.102760 0.824866 0.039258 -0.011901 -101375.000000 0 0 1
32.656799 4.669001 29.359302 44.161462 0.142009 0.843547 0.032223 -0.007279 -16095.400000 0 0 1
32.698899 5.787401 30.309012 44.959406 0.175177 0.830994 0.033994 -0.003334 460217.000000 0 0 1
31.399699 6.210401 30.711822 44.359060 0.195265 0.806061 0.033561 -0.007851 291689.000000 0 0 1
31.424599 7.433801 31.654672 45.219300 0.232290 0.795363 0.033809 -0.005581 -108700.000000 0 0 1
31.901299 6.981801 32.901472 46.356718 0.215459 0.781659 0.023890 0.001192 48789.800000 0 0 1
31.624099 7.922701 33.928631 47.053213 0.245475 0.765452 0.032856 -0.001160 -253380.000000 0 0 1
31.918599 7.278301 -33.477685 46.824417 0.224194 2.367366 0.037459 0.001684 511886.000000 0 0 1
30.916399 6.394801 -32.913985 45.607539 0.203965 2.377021 0.034363 -0.004932 397953.000000 0 0 1
30.975299 5.080001 -33.405795 45.839096 0.162555 2.387309 0.038505 -0.005933 -225807.000000 0 0 1
31.950299 4.145201 -32.653835 45.872402 0.129018 2.362912 0.030948 -0.014012 39487.800000 0 0 1
31.704099 2.767701 -32.916785 45.785640 0.087077 2.373062 0.038187 -0.016963 -24042.500000 0 0 1
32.308499 1.976101 -31.931165 45.468048 0.061087 2.349387 0.028048 -0.012024 -169326.000000 0 0 1
32.246899 0.463301 -32.070515 45.481811 0.014366 2.353401 0.024627 -0.010562 -646954.000000 0 0 1
33.231899 -0.023699 -32.965345 46.808906 -0.000713 2.352168 0.026375 -0.008203 -104351.000000 0 0 1
33.632899 -1.333199 -32.567045 46.835475 -0.039619 2.339703 0.016430 -0.006637 91145.100000 0 0 1
34.412599 -1.536599 -31.244865 46.506233 -0.044623 2.307490 0.011714 -0.007917 -766415.000000 0 0 1
33.805499 -1.070299 -30.042435 45.238316 -0.031650 2.297076 0.015003 -0.010224 -242889.000000 0 0 1
34.434299 -1.444199 -28.833705 44.935389 -0.041916 2.267470 0.022332 -0.006865 -246440.000000 0 0 1
33.503499 -1.001199 -27.707415 43.487788 -0.029875 2.261566 0.027142 -0.008728 -174654.000000 0 0 1
33.575499 0.370501 -27.401465 43.339263 0.011034 2.255257 0.015768 -0.004646 179762.000000 0 0 1
32.654899 0.771301 -26.417635 42.009865 0.023615 2.250861 0.012102 -0.002602 -341082.000000 0 0 1
32.169999 2.238401 -26.537645 41.763212 0.069468 2.259363 0.008909 -0.003434 -338075.000000 0 0 1
31.362099 2.429001 -27.638885 41.873491 0.077296 2.291691 0.015641 -0.012219 -146489.000000 0 0 1
30.696699 3.654701 -27.568005 41.420274 0.118501 2.299051 0.006874 0.003349 -2171.050000 0 0 1
29.847099 4.014201 -28.828925 41.690167 0.133690 2.334366 0.021456 -0.002955 -302183.000000 0 0 1
28.680799 4.662201 -28.442015 40.660455 0.161145 2.345495 0.026137 -0.003799 -457090.000000 0 0 1
27.962999 5.227601 -29.514065 40.991916 0.184814 2.374595 0.029170 -0.004418 -878601.000000 0 0 1
26.920499 6.118901 -28.943315 39.998371 0.223498 2.379818 0.022401 -0.011005 -1467020.000000 0 0 1
25.813999 5.426201 -28.456275 38.801621 0.207187 2.394075 0.027488 -0.008535 -97058.900000 0 0 1
24.893199 6.255501 -27.774335 37.818201 0.246196 2.395604 0.026999 -0.012396 154051.000000 0 0 1
23.527299 5.572701 -27.523415 36.635054 0.232575 2.420805 0.033195 -0.010405 8022.330000 0 0 1
22.639299 5.497501 -28.618315 36.902145 0.238219 2.458333 0.031866 -0.010938 -313410.000000 0 0 1
21.517999 4.744201 -28.272765 35.845236 0.217004 2.479562 0.029536 -0.002693 -146451.000000 0 0 1
20.605199 4.439201 -29.507095 36.262231 0.212197 2.521310 0.021990 0.002629 157996.000000 0 0 1
21.009999 3.276101 -30.191435 36.927979 0.154685 2.527985 0.027285 -0.002533 -159586.000000 0 0 1
20.183699 2.906701 -31.254025 37.318155 0.143029 2.563492 0.017438 -0.006379 -246147.000000 0 0 1
20.526199 3.540801 -32.630435 38.711851 0.170820 2.573457 0.029429 -0.007250 1332520.000000 0 0 1
21.771199 3.135401 -33.306535 39.914172 0.143033 2.557937 0.021168 -0.006700 1209270.000000 0 0 1
21.827099 3.695901 34.204592 40.743540 0.167735 0.574416 0.031087 -0.012239 -1082660.000000 0 0 1
23.031299 3.234201 33.458582 40.747730 0.139514 0.607434 0.041403 -0.006356 -884997.000000 0 0 1
23.216699 1.891501 33.206917 40.562202 0.081292 0.611711 0.050718 -0.018524 341226.000000 0 0 1
24.558399 1.661401 32.769513 40.984341 0.067548 0.644231 0.051846 -0.024582 254730.000000 0 0 1
24.761899 0.142201 32.518202 40.873039 0.005743 0.650815 0.048899 -0.025627 72522.700000 0 0 1
23.972699 -0.504999 31.507692 39.593939 -0.021062 0.650517 0.054400 -0.025052 1589670.000000 0 0 1
22.529399 -0.619699 31.602932 38.816274 -0.027499 0.619503 0.058807 -0.029178 1237010.000000 0 0 1
22.012499 -1.679599 32.596382 39.368710 -0.076155 0.595306 0.051396 -0.031189 -463297.000000 0 0 1
22.058199 -2.976399 32.099692 39.061661 -0.134124 0.606286 0.043643 -0.032176 181896.000000 0 0 1
21.660099 -3.846899 33.113121 39.754714 -0.175770 0.586404 0.049282 -0.029398 -102625.000000 0 0 1
21.709099 -5.305499 32.562112 39.493347 -0.239692 0.601485 0.043791 -0.021208 46364.000000 0 0 1
23.030499 -5.801599 32.513532 40.264031 -0.246775 0.630881 0.039535 -0.017827 -55755.200000 0 0 1
23.026799 -7.143799 32.121102 40.162576 -0.300823 0.643873 0.052233 -0.023654 764260.000000 0 0 1
24.491999 -7.717399 31.948352 40.989187 -0.305251 0.677035 0.035235 -0.019600 899324.000000 0 0 1
25.066899 -7.287199 30.754872 40.339991 -0.282912 0.703795 0.051259 -0.019919 687095.000000 0 0 1
26.293899 -7.987399 30.394852 40.975782 -0.294915 0.735082 0.033637 -0.012477 1312490.000000 0 0 1
26.716699 -7.678499 28.961222 40.143415 -0.279862 0.764911 0.035553 -0.017511 -204723.000000 0 0 1
25.763699 -8.275699 28.139072 39.039246 -0.310805 0.765856 0.033281 -0.012983 -420719.000000 0 0 1
26.021799 -8.071599 26.777382 38.200955 -0.300775 0.794052 0.039717 -0.009064 286029.000000 0 0 1
25.170899 -8.927999 25.775902 37.117118 -0.340852 0.803144 0.034438 -0.011673 -6514.850000 0 0 1
23.836199 -8.523399 25.581722 35.989404 -0.343413 0.780144 0.045873 -0.018407 -496240.000000 0 0 1
23.309599 -9.440799 24.638612 35.206921 -0.384824 0.795647 0.060989 -0.019376 -261307.000000 0 0 1
21.857799 -9.081499 24.337382 33.949156 -0.393780 0.771483 0.037482 -0.010528 206843.000000 0 0 1
20.790199 -9.379899 25.255572 34.030263 -0.423826 0.734523 0.039615 -0.012615 -299829.000000 0 0 1
19.651999 -8.712399 24.839572 32.849830 -0.417297 0.713379 0.047844 -0.011055 -74545.100000 0 0 1
18.563499 -8.702199 25.987852 33.101363 -0.438361 0.667940 0.048139 -0.021330 375963.000000 0 0 1
17.907399 -9.933099 26.291782 33.325654 -0.506439 0.661722 0.058389 -0.020210 236614.000000 0 0 1
18.676599 -10.788199 27.138342 34.665404 -0.523810 0.671539 0.059916 -0.015591 454022.000000 0 0 1
17.802499 -11.886399 27.850592 35.126499 -0.588705 0.655299 0.060654 -0.015109 471507.000000 0 0 1
17.222899 -12.955999 27.081422 34.610542 -0.644942 0.672187 0.058856 -0.014566 465497.000000 0 0 1
16.375699 -13.824999 27.832142 35.127230 -0.701140 0.656188 0.066236 -0.010350 125332.000000 0 0 1
17.113499 -14.809499 28.794442 36.623940 -0.713349 0.666130 0.065890 -0.005545 -392045.000000 0 0 1
16.289799 -15.839699 29.320312 37.093589 -0.771390 0.659267 0.056994 -0.000919 51224.100000 0 0 1
16.972099 -16.931899 29.928532 38.346556 -0.784212 0.675371 0.058520 -0.006462 -354584.000000 0 0 1
17.297899 -18.089899 29.040342 38.338013 -0.807775 0.711349 0.050899 -0.004557 -558217.000000 0 0 1
18.273199 -17.844799 28.088302 37.964449 -0.773538 0.737937 0.048773 -0.011229 27092.700000 0 0 1
18.644499 -19.033499 27.327002 38.166169 -0.795722 0.772740 0.036403 -0.005584 -500253.000000 0 0 1
19.637099 -18.801799 26.222492 37.772244 -0.763671 0.803452 0.042625 -0.014514 -297871.000000 0 0 1
20.883899 -18.325399 26.726262 38.551921 -0.720238 0.804802 0.051452 -0.021075 198735.000000 0 0 1
21.637199 -17.753499 25.661962 37.972245 -0.687121 0.828735 0.033458 -0.018209 556808.000000 0 0 1
23.149799 -17.517299 25.962812 38.946586 -0.647771 0.841123 0.038930 -0.019895 241284.000000 0 0 1
23.852799 -18.741399 26.035742 39.975692 -0.665967 0.861514 0.035742 -0.027297 -646234.000000 0 0 1
25.147099 -18.419699 26.424522 40.864621 -0.632192 0.867631 0.027991 -0.024638 -265825.000000 0 0 1
26.164199 -19.592299 26.659922 42.180267 -0.642746 0.886604 0.017421 -0.015519 166212.000000 0 0 1
25.836099 -20.379599 27.772492 43.059765 -0.667876 0.869805 0.020279 -0.013703 -512431.000000 0 0 1
26.689299 -21.431799 28.043822 44.250386 -0.676574 0.884401 0.012970 -0.011675 -453698.000000 0 0 1
26.150199 -22.374899 29.116882 45.080615 -0.707754 0.868615 0.016925 -0.004692 -148835.000000 0 0 1
25.995199 -21.956699 30.485342 45.685918 -0.701377 0.840244 0.028123 -0.010310 -215225.000000 0 0 1
25.624899 -23.111399 31.174602 46.504065 -0.733870 0.836099 0.043489 -0.001948 -356666.000000 0 0 1
24.952799 -22.850699 32.572512 46.965574 -0.741453 0.804405 0.033254 -0.007448 -52365.200000 0 0 1
24.628999 -24.038099 33.217402 47.831095 -0.773257 0.803109 0.023871 -0.005407 -168249.000000 0 0 1
24.144599 -23.709699 -34.312031 48.191566 -0.776310 2.363128 0.035027 -0.001175 -635849.000000 0 0 1
23.766199 -24.990699 -33.496135 48.076588 -0.810507 2.341617 0.024566 0.002009 444453.000000 0 0 1
22.497599 -25.582679 -33.718015 47.932452 -0.849476 2.351034 0.041436 -0.008925 -194662.000000 0 0 1
22.222399 -26.016429 33.734838 48.049234 -0.863888 0.792469 0.039274 -0.014942 22532.800000 0 0 1
20.975399 -26.946509 33.722066 47.992286 -0.909360 0.791673 0.051536 -0.019833 440969.000000 0 0 1
21.324499 -28.260599 34.079215 49.140499 -0.924379 0.804453 0.049583 -0.014704 -99917.000000 0 0 1
20.220299 -29.150869 34.008938 49.145107 -0.964349 0.806526 0.067359 -0.015795 -22814.400000 0 0 1
20.521999 -30.613799 33.998437 50.142306 -0.980247 0.825705 0.054620 -0.013405 -49855.800000 0 0 1
21.077199 -31.003409 -33.491635 50.270760 -0.973733 2.299932 0.049082 -0.014989 337528.000000 0 0 1
21.555099 -32.279439 -33.600695 51.338009 -0.982033 2.284317 0.018473 -0.004387 -180026.000000 0 0 1
22.105599 -32.833339 -32.257625 51.061140 -0.978238 2.254599 0.015313 0.004378 -452088.000000 0 0 1
23.016599 -33.907029 -32.319415 52.191906 -0.974430 2.238573 0.001170 0.005482 306516.000000 0 0 1
23.600799 -34.085900 -31.033405 51.787243 -0.965195 2.213358 -0.005666 0.014706 181331.000000 0 0 1
24.826899 -33.313439 -30.512225 51.547609 -0.930341 2.204239 -0.002593 0.010600 -424818.000000 0 0 1
25.145499 -33.501569 -29.100975 51.005078 -0.926926 2.177972 0.007030 0.010889 -326406.000000 0 0 1
26.100799 -32.580179 -28.661865 50.638151 -0.895370 2.172458 0.013756 0.013744 -193424.000000 0 0 1
26.673999 -32.647149 -27.208485 50.176092 -0.885752 2.143921 0.016664 0.010865 648208.000000 0 0 1
27.468099 -33.816559 -26.903785 51.204197 -0.888620 2.124007 0.016798 0.014994 295501.000000 0 0 1
27.915099 -33.834459 -25.527765 50.751258 -0.880967 2.097860 0.021777 0.009255 391432.000000 0 0 1
-26.638251 -30.917369 9.055215 41.802836 0.859609 1.352448 0.045235 -0.016005 -73845.000000 0 0 1
-26.678661 -32.143269 9.787915 42.903892 0.878033 1.340634 0.049172 -0.021894 39498.300000 0 0 1
-25.588431 -32.306469 10.671915 42.571887 0.900920 1.317414 0.039418 -0.025726 31647.600000 0 0 1
-25.608121 -33.540769 11.549415 43.750978 0.918716 1.303649 0.036012 -0.019576 44246.200000 0 0 1
-25.697851 34.148601 10.835615 44.089874 -0.925678 1.322491 0.037544 -0.010855 15646.100000 0 0 1
-25.592211 32.980801 11.615415 43.331424 -0.910879 1.299418 0.031979 -0.006278 39134.600000 0 0 1
-25.312631 31.713001 10.706615 41.965168 -0.897167 1.312813 0.034785 -0.002297 -483712.000000 0 0 1
-26.356571 31.571101 9.793815 42.276732 -0.875174 1.337013 0.040498 -0.012624 -375359.000000 0 0 1
-26.425271 30.383801 9.006015 41.262314 -0.854967 1.350763 0.041246 -0.013013 -440372.000000 0 0 1
-25.426491 30.271201 7.857115 40.306157 -0.872162 1.374604 0.037730 -0.006844 -931888.000000 0 0 1
-24.163601 29.794501 8.167315 39.221128 -0.889379 1.361024 0.024205 -0.008438 -1054860.000000 0 0 1
-23.440001 29.734301 6.974215 38.499376 -0.903221 1.388639 0.006265 -0.006695 -850963.000000 0 0 1
-22.228001 28.833001 7.144815 37.100867 -0.914039 1.377008 0.040271 -0.001911 -836653.000000 0 0 1
-22.416201 27.368601 7.229315 36.108024 -0.884548 1.369220 0.032411 -0.008591 123307.000000 0 0 1
-22.904301 26.764601 6.041115 35.741375 -0.862963 1.400958 0.015191 -0.010789 -630286.000000 0 0 1
-23.135001 25.298001 6.305715 34.856551 -0.830028 1.388890 0.021765 -0.001061 -136007.000000 0 0 1
-24.233601 24.900501 7.118415 35.467932 -0.798970 1.368724 0.020156 -0.001877 374917.000000 0 0 1
-24.433401 23.489101 7.342815 34.679185 -0.765696 1.357446 0.024175 -0.017902 270479.000000 0 0 1
-25.144161 22.599401 6.225415 34.376119 -0.732148 1.388694 0.018987 -0.025380 918345.000000 0 0 1
-26.470731 23.003901 5.827815 35.550562 -0.715440 1.406123 0.026816 -0.025538 903929.000000 0 0 1
-26.791711 22.504001 4.559715 35.284796 -0.698637 1.441208 0.027586 -0.025670 -63030.200000 0 0 1
-26.463631 23.506501 3.403515 35.559292 -0.726289 1.474936 0.015681 -0.018951 -183879.000000 0 0 1
-25.100711 23.878501 3.312515 34.802317 -0.760450 1.475471 0.011842 -0.017678 200887.000000 0 0 1
-24.835801 24.692601 2.200815 35.091098 -0.782507 1.508038 0.006668 -0.011109 990937.000000 0 0 1
-23.387201 25.331701 2.215215 34.547987 -0.825290 1.506632 0.018991 -0.008377 1020250.000000 0 0 1
-22.992001 25.973801 1.010915 34.702916 -0.846219 1.541662 0.013553 -0.014770 -1379560.000000 0 0 1
-21.771301 26.577901 1.165415 34.376337 -0.884487 1.536888 0.023351 -0.016880 -1719360.000000 0 0 1
-21.317901 27.306901 -0.096485 34.642879 -0.907949 1.573581 0.033581 -0.013529 -112573.000000 0 0 1
-21.075001 26.523301 -1.236285 33.899403 -0.899366 1.607274 0.031176 -0.003684 184329.000000 0 0 1
-19.988401 25.619901 -1.095685 32.513321 -0.908252 1.604502 0.033533 -0.011544 -386038.000000 0 0 1
-19.749701 24.669201 -2.326885 31.686504 -0.895701 1.644297 0.034574 -0.020232 12251.700000 0 0 1
-20.853801 23.869101 -2.723685 31.812473 -0.852718 1.656518 0.012995 -0.020843 119989.000000 0 0 1
-20.482501 22.685701 -3.515585 30.765780 -0.836391 1.685316 0.011962 -0.014015 80254.700000 0 0 1
-21.673601 22.176501 -4.354485 31.312996 -0.796866 1.710312 0.016929 -0.006805 169575.000000 0 0 1
-21.791401 22.976601 -5.485685 32.138483 -0.811866 1.742325 0.007867 -0.002218 213848.000000 0 0 1
-22.947101 22.673301 -6.257485 32.860373 -0.779397 1.762393 -0.002807 0.009115 253413.000000 0 0 1
-22.978201 23.433701 -7.602385 33.688756 -0.795212 1.798422 -0.005848 0.007132 -5061.820000 0 0 1
-22.347201 22.764501 -8.668785 33.057037 -0.794648 1.836136 -0.006805 0.005733 62951.600000 0 0 1
-21.970901 23.658101 -9.665585 33.702370 -0.822358 1.861673 -0.000892 0.002500 -352851.000000 0 0 1
-21.489501 22.932501 -10.905285 33.265951 -0.817871 1.904793 0.009275 0.002698 61705.500000 0 0 1
-22.481901 22.283501 -11.698385 33.746740 -0.780966 1.924796 -0.016464 0.001451 221721.000000 0 0 1
-21.877501 21.644201 -12.803585 33.332091 -0.780038 1.965053 -0.013928 0.001205 -209387.000000 0 0 1
-22.846601 21.232301 -13.893785 34.144034 -0.748792 1.989873 -0.027988 -0.009561 -427826.000000 0 0 1
-23.637501 20.137401 -13.586785 33.894647 -0.705611 1.983245 -0.022707 0.002779 -93636.900000 0 0 1
-24.713501 19.943401 -14.470385 34.898258 -0.678985 1.998349 -0.005773 -0.006661 -150199.000000 0 0 1
-25.278571 18.551901 -14.563485 34.572739 -0.633116 2.005610 0.040413 -0.010387 -387653.000000 0 0 1
-24.517101 17.688201 -15.380085 33.919135 -0.624986 2.041411 0.034448 -0.013556 -17306.900000 0 0 1
-25.249821 16.551301 -15.756585 34.055381 -0.580233 2.051807 0.050804 -0.035119 -121813.000000 0 0 1
-24.637001 15.784101 -16.981885 33.830520 -0.569786 2.096671 0.057958 -0.022426 417085.000000 0 0 1
-23.630301 14.811401 -16.734985 32.524275 -0.559890 2.111265 0.062520 -0.016849 270002.000000 0 0 1
-23.101701 14.406301 -17.996385 32.635869 -0.557594 2.154873 0.068339 -0.024186 -77384.000000 0 0 1
-22.202901 13.165401 -17.866685 31.392914 -0.535226 2.176245 0.069844 -0.019959 688761.000000 0 0 1
-21.036801 13.395101 -17.050085 30.210613 -0.567001 2.170471 0.064843 -0.026257 1026840.000000 0 0 1
-20.255301 12.192001 -16.793085 28.998790 -0.541828 2.188416 0.054711 -0.029363 -81007.700000 0 0 1
-19.115601 12.471801 -15.820285 27.771090 -0.578089 2.176897 0.041710 -0.024944 -731124.000000 0 0 1
-18.107901 13.255401 -16.400685 27.795399 -0.631896 2.201918 0.029756 -0.014391 49455.100000 0 0 1
-17.071301 13.446801 -15.434685 26.654742 -0.667186 2.188371 0.022309 -0.005510 152562.000000 0 0 1
-16.168601 14.656601 -15.809585 26.947775 -0.736387 2.197743 -0.003444 0.004058 -313868.000000 0 0 1
-15.436901 14.398901 -17.008085 27.109061 -0.750622 2.248999 0.016135 -0.001008 210722.000000 0 0 1
-14.815801 15.570601 -17.515885 27.726482 -0.810233 2.254590 0.008876 0.009500 -342231.000000 0 0 1
-13.995101 15.435401 -18.767285 28.041495 -0.834298 2.304020 0.009707 0.008550 -708586.000000 0 0 1
-13.083101 14.428701 -18.655285 26.969883 -0.834269 2.334648 0.013736 0.005228 -437158.000000 0 0 1
-12.136301 14.363301 -19.735885 27.259849 -0.869240 2.380367 0.024277 -0.000503 761675.000000 0 0 1
-11.205601 13.128201 -19.586885 26.106727 -0.864244 2.419255 0.023505 -0.012550 356283.000000 0 0 1
-11.876301 11.924801 -20.021985 26.155827 -0.787436 2.442597 0.030125 -0.011155 -198125.000000 0 0 1
-11.023801 10.851201 -20.074185 25.342566 -0.777508 2.485060 0.020496 0.004688 -726926.000000 0 0 1
-11.487301 9.655101 -20.927185 25.751236 -0.698954 2.519511 0.028694 -0.000678 -136658.000000 0 0 1
-11.157801 9.863801 -22.290085 26.807443 -0.723920 2.552578 0.037675 -0.001949 3817.590000 0 0 1
-11.445601 8.772401 -23.133985 27.260559 -0.653942 2.584176 0.033841 0.012308 -132735.000000 0 0 1
-11.119401 8.931501 -24.590785 28.427443 -0.676711 2.616020 0.039504 -0.001109 -1392110.000000 0 0 1
-9.798501 9.008101 -24.932985 28.263231 -0.743395 2.651247 0.045306 -0.001695 -1390400.000000 0 0 1
-9.550001 8.436701 -26.261185 29.189558 -0.723581 2.689826 0.030168 -0.005716 -280753.000000 0 0 1
-9.219001 9.391501 -27.454685 30.445854 -0.794667 2.694608 0.052579 -0.008625 -1226210.000000 0 0 1
-7.951001 9.892201 -27.443375 30.235954 -0.893764 2.708424 0.043919 -0.005443 -1099040.000000 0 0 1
-7.769601 11.024701 -26.600485 29.824429 -0.956893 2.672331 0.029680 -0.007891 398665.000000 0 0 1
-6.318601 11.615901 -26.709715 29.803737 -1.072601 2.681895 0.024943 -0.006082 562270.000000 0 0 1
-6.034001 12.144101 -28.018645 31.127686 -1.109658 2.690841 0.023909 -0.011478 -16895.500000 0 0 1
-4.684201 12.520101 -28.030375 31.054735 -1.212785 2.696596 0.034133 -0.012749 -448383.000000 0 0 1
-4.053701 12.693101 -29.426875 32.303069 -1.261672 2.716407 0.044165 -0.012722 84334.500000 0 0 1
-2.644201 12.820201 -29.337625 32.125466 -1.367396 2.721915 0.044675 -0.017713 201889.000000 0 0 1
-2.052501 12.774001 -30.642515 33.261864 -1.411480 2.742080 0.041879 -0.012006 724296.000000 0 0 1
-0.502601 12.604801 -30.567655 33.068341 -1.530944 2.750199 0.037497 -0.014176 261563.000000 0 0 1
-0.130901 11.412601 -29.866595 31.973084 -1.559327 2.776573 0.029423 0.000559 -220162.000000 0 0 1
1.254599 11.190201 -29.789395 31.846549 1.459147 2.780197 0.031200 0.002502 75849.400000 0 0 1
1.883799 10.460001 -31.018275 32.788622 1.392611 2.811485 0.038885 0.000726 -348866.000000 0 0 1
1.905899 11.245301 -32.211285 34.170984 1.402908 2.801280 0.039723 -0.008104 172817.000000 0 0 1
1.980099 10.387501 -33.322215 34.959848 1.382433 2.834303 0.036359 -0.009663 -117626.000000 0 0 1
1.794899 11.205201 34.163711 35.999130 1.411961 0.320700 0.039492 -0.015988 141212.000000 0 0 1
2.897999 12.095701 33.998463 36.202208 1.335640 0.350717 0.032502 -0.015740 166724.000000 0 0 1
2.833399 12.815501 32.754442 35.286239 1.353205 0.381117 0.038218 -0.014183 -305565.000000 0 0 1
4.214999 13.310701 32.292992 35.182074 1.264124 0.408086 0.050800 -0.007546 10552.400000 0 0 1
5.011599 12.206301 31.894152 34.515892 1.181207 0.392273 0.040090 -0.010983 -919388.000000 0 0 1
6.287199 12.597101 31.541062 34.540620 1.107870 0.419829 0.054162 -0.001753 -257510.000000 0 0 1
7.217799 11.445301 31.029262 33.851243 1.008156 0.411215 0.050419 -0.000334 604996.000000 0 0 1
6.603199 10.904301 29.879552 32.485283 1.026299 0.403258 0.042827 -0.006047 552135.000000 0 0 1
7.537599 9.984001 29.325572 31.882359 0.924123 0.403212 0.042599 -0.004813 660315.000000 0 0 1
6.936499 9.108001 28.167672 30.405402 0.919923 0.386050 0.035788 -0.004389 375815.000000 0 0 1
5.999499 8.131401 28.588802 30.322158 0.935137 0.339758 0.043231 -0.010598 -108169.000000 0 0 1
5.711799 7.257601 27.511382 29.020227 0.904027 0.323882 0.039512 -0.012437 -385960.000000 0 0 1
4.754999 6.127801 27.928062 28.985110 0.910880 0.270897 0.049982 -0.021634 -314483.000000 0 0 1
5.371299 5.028701 28.562542 29.495042 0.752468 0.252125 0.054053 -0.023552 -323537.000000 0 0 1
4.581499 4.409301 29.524652 30.201608 0.766248 0.212126 0.059793 -0.020348 -347236.000000 0 0 1
5.349299 3.286201 30.351662 30.994153 0.550885 0.203968 0.056942 -0.018344 344709.000000 0 0 1
5.524799 2.080201 29.575452 30.158879 0.360103 0.197017 0.052730 -0.020911 886931.000000 0 0 1
6.784599 2.039301 28.853362 29.710369 0.291987 0.240770 0.066981 -0.019972 748605.000000 0 0 1
6.863899 0.789601 27.965822 28.806662 0.114533 0.242207 0.062092 -0.018873 18466.800000 0 0 1
7.236199 -0.347599 28.710022 29.609944 -0.047999 0.247175 0.032186 -0.004553 -18582.600000 0 0 1
7.301499 -1.538799 27.904662 28.885116 -0.207711 0.261293 0.044450 0.003049 -266054.000000 0 0 1
7.980299 -2.705999 28.665472 29.878368 -0.326918 0.285910 0.028939 0.014816 -894706.000000 0 0 1
9.337399 -2.446299 28.649072 30.231453 -0.256231 0.324978 0.021087 0.006933 -958494.000000 0 0 1
10.117699 -3.651899 28.605432 30.561004 -0.346389 0.359676 0.017587 0.007497 755667.000000 0 0 1
11.664499 -3.495799 28.708832 31.184583 -0.291178 0.401157 0.015448 0.000695 1015770.000000 0 0 1
12.572199 -4.592099 28.512842 31.498091 -0.350203 0.438889 0.027789 -0.006244 406233.000000 0 0 1
12.546499 -5.681699 29.466542 32.526504 -0.425223 0.437239 0.034427 -0.005934 -739286.000000 0 0 1
11.839999 -6.973899 29.041402 32.128241 -0.532301 0.441945 0.041378 -0.002957 447384.000000 0 0 1
10.431499 -6.802599 28.849382 31.422577 -0.577865 0.407511 0.028361 0.001859 267713.000000 0 0 1
9.818599 -8.015099 28.507312 31.197973 -0.684612 0.418363 0.034926 -0.000376 843454.000000 0 0 1
8.270999 -7.881699 28.309982 30.528441 -0.761302 0.383578 0.045015 0.005274 1030040.000000 0 0 1
7.507099 -7.414899 29.424792 31.259489 -0.779219 0.344313 0.044155 0.009830 -65058.000000 0 0 1
6.123299 -7.455799 29.194292 30.747202 -0.883214 0.319176 0.035799 0.021920 287554.000000 0 0 1
5.312899 -6.922399 30.477742 31.702354 -0.916193 0.278854 0.034680 0.012659 352562.000000 0 0 1
5.444599 -7.727899 31.667952 33.048801 -0.957031 0.290091 0.032358 0.002661 258381.000000 0 0 1
4.917099 -7.113699 32.870786 33.989280 -0.965990 0.257252 0.027463 0.004008 234710.000000 0 0 1
5.755399 -5.915599 33.445690 34.448993 -0.799124 0.241937 0.038807 0.011167 140781.000000 0 0 1
5.804499 -4.715399 32.699042 33.543323 -0.682238 0.224839 0.043031 0.009227 -346349.000000 0 0 1
6.417499 -3.693499 33.407042 34.217783 -0.522237 0.218118 0.034862 0.009456 -489150.000000 0 0 1
6.442599 -2.376699 32.529712 33.246623 -0.353415 0.208045 0.033165 0.004256 -114944.000000 0 0 1
5.160499 -1.867399 32.275972 32.739217 -0.347205 0.168422 0.053660 -0.001499 -415466.000000 0 0 1
5.285199 -0.722999 31.548172 31.995987 -0.135953 0.167504 0.051268 -0.008598 -160987.000000 0 0 1
3.997199 0.043401 31.223222 31.478073 0.010857 0.127335 0.058291 -0.010296 -35852.700000 0 0 1
3.199199 0.508901 32.331992 32.493870 0.157750 0.099859 0.046169 -0.005798 -858120.000000 0 0 1
2.178399 1.280901 31.856702 31.956777 0.531550 0.079161 0.041782 -0.010606 -795661.000000 0 0 1
0.968199 1.313101 32.820003 32.860527 0.935448 0.049668 0.032570 -0.009669 -74959.000000 0 0 1
1.225899 2.039201 34.003194 34.086337 1.029520 0.069860 0.033487 -0.005495 242756.000000 0 0 1
0.445599 1.546701 -33.677665 33.716109 1.290296 3.093834 0.024666 -0.012915 130835.000000 0 0 1
0.597599 2.446601 -32.456605 32.554173 1.331230 3.064151 0.032432 -0.007537 -161889.000000 0 0 1
1.696999 2.260101 -31.609955 31.736054 0.926751 3.052419 0.018856 -0.007695 -366655.000000 0 0 1
2.213099 3.492601 -31.175505 31.448501 1.005998 3.009734 0.018232 -0.001388 292239.000000 0 0 1
3.451799 3.419201 -30.214645 30.602788 0.780654 2.982155 0.016084 0.003388 334944.000000 0 0 1
3.239599 2.877001 -28.913105 29.235933 0.726186 2.992848 0.019073 0.000895 -623464.000000 0 0 1
4.392399 2.787501 -28.151975 28.628605 0.565487 2.958863 0.036375 -0.005916 -602174.000000 0 0 1
4.118299 2.142201 -26.781775 27.181113 0.479650 2.969966 0.034020 -0.008873 60652.000000 0 0 1
4.083499 0.743901 -26.803365 27.122845 0.180196 2.987955 0.038358 -0.012605 -68269.900000 0 0 1
3.564599 0.207701 -25.635035 25.882514 0.058202 3.003195 0.050708 -0.019664 -581451.000000 0 0 1
3.832299 -1.285899 -25.527455 25.845522 -0.323737 2.984546 0.051265 -0.020992 -326266.000000 0 0 1
5.130299 -1.470099 -25.046085 25.608349 -0.279074 2.931654 0.052046 -0.025273 -547681.000000 0 0 1
5.474499 -2.842899 -25.020785 25.769981 -0.478967 2.899872 0.057240 -0.027212 1141260.000000 0 0 1
6.932599 -3.153699 -24.456985 25.615442 -0.426928 2.839699 0.055561 -0.032134 1489920.000000 0 0 1
7.986599 -2.584699 -25.193675 26.555371 -0.312992 2.819966 0.057581 -0.027343 -1147250.000000 0 0 1
9.218099 -3.022499 -24.764785 26.597057 -0.316841 2.768241 0.050259 -0.023617 -784905.000000 0 0 1
-28.903651 -4.074799 18.013462 34.300289 0.140056 1.017882 0.062132 -0.016827 -512955.000000 0 0 1
-30.269191 -3.941599 18.229562 35.553861 0.129490 1.032434 0.048730 -0.001456 -785586.000000 0 0 1
-30.870081 -4.916999 19.031462 36.596931 0.157954 1.023912 0.041831 -0.012726 198180.000000 0 0 1
-32.396191 -4.799899 19.212062 37.969139 0.147092 1.040265 0.037059 -0.014312 -60927.900000 0 0 1
-33.177831 -4.911299 18.065462 38.095278 0.146962 1.076721 0.028820 -0.014002 -225065.000000 0 0 1
-34.523002 -4.630999 18.352662 39.371360 0.133346 1.085871 0.011846 -0.004637 -154333.000000 0 0 1
-35.512194 -4.820899 17.167362 39.737581 0.134929 1.124067 0.004587 -0.007992 345124.000000 0 0 1
34.356894 -4.897999 17.651362 38.935295 -0.141608 1.100275 0.010333 -0.003639 -89678.700000 0 0 1
33.409124 -5.247799 16.658462 37.698983 -0.155804 1.113102 0.007403 -0.005182 500171.000000 0 0 1
32.055044 -5.705199 17.263362 36.852392 -0.176137 1.083265 0.009796 0.001245 438095.000000 0 0 1
31.361244 -4.720999 18.074762 36.503596 -0.149414 1.052789 0.022983 -0.001223 361640.000000 0 0 1
30.217834 -5.285999 18.671562 35.912206 -0.173178 1.024036 0.030976 -0.006647 -63584.400000 0 0 1
29.813674 -4.708699 20.024662 36.221735 -0.156644 0.985033 0.030068 -0.003017 133139.000000 0 0 1
28.845964 -3.652399 20.013662 35.298390 -0.125947 0.967955 0.040977 -0.009214 336695.000000 0 0 1
29.349114 -2.363599 19.661462 35.405228 -0.080360 0.982041 0.039650 -0.012593 -184197.000000 0 0 1
28.413754 -1.171999 19.938762 34.731387 -0.041224 0.959310 0.036783 -0.008927 -136765.000000 0 0 1
29.110074 0.010401 19.721862 35.161746 0.000357 0.975336 0.038510 -0.014842 604335.000000 0 0 1
28.191184 1.108601 19.938162 34.547101 0.039304 0.955587 0.042472 -0.018512 895884.000000 0 0 1
28.704814 2.482801 19.310862 34.684868 0.086279 0.980326 0.021797 -0.023480 -62428.500000 0 0 1
28.692174 2.366901 17.892362 33.896603 0.082307 1.014728 0.008118 -0.020843 -48934.400000 0 0 1
28.558704 3.625501 17.248662 33.559800 0.126274 1.030992 0.001699 -0.018499 391.621000 0 0 1
28.319454 3.402501 15.761862 32.588415 0.119574 1.065960 -0.000094 -0.020932 -50691.800000 0 0 1
28.120954 4.657601 15.141462 32.276078 0.164137 1.082498 -0.003859 -0.011311 25194.900000 0 0 1
27.760654 4.470701 13.770562 31.309255 0.159674 1.115394 0.009672 -0.007128 -286790.000000 0 0 1
27.313844 5.738501 13.022862 30.798887 0.207083 1.134224 0.013154 -0.007043 8209.270000 0 0 1
26.093824 6.236001 13.515162 30.040556 0.234584 1.104146 0.024120 -0.014596 -9302.080000 0 0 1
25.560024 7.395201 12.846162 29.547042 0.281636 1.121014 0.037277 -0.025510 -298236.000000 0 0 1
24.611124 8.263401 13.725462 29.366299 0.323932 1.084462 0.038521 -0.030918 530381.000000 0 0 1
23.275324 7.773701 13.744162 28.126022 0.322340 1.060239 0.031606 -0.017625 589239.000000 0 0 1
22.904924 6.553201 14.368362 27.821391 0.278660 1.028096 0.040512 -0.014260 -213461.000000 0 0 1
21.448824 6.084601 14.053662 26.354883 0.276418 1.008362 0.059240 -0.006299 333800.000000 0 0 1
21.237724 5.595701 12.692862 25.366544 0.257624 1.046761 0.073755 -0.007467 429174.000000 0 0 1
20.148124 4.708801 12.549662 24.199457 0.229588 1.025592 0.080443 -0.005396 -180974.000000 0 1 0
19.811624 4.422401 11.031662 23.103152 0.219622 1.072994 0.081346 -0.007773 -320398.000000 0 1 0
20.773424 3.661401 10.347862 23.495090 0.174462 1.114723 0.083776 -0.017266 50635.300000 0 1 0
20.412624 3.401101 9.022462 22.575375 0.165101 1.159651 0.088595 -0.018277 -432468.000000 0 1 0
21.288224 2.529801 8.148462 22.934381 0.118281 1.207567 0.063419 -0.014226 -1355370.000000 0 1 0
21.521424 1.166601 8.378962 23.124439 0.054153 1.200017 0.058647 -0.015564 965228.000000 0 1 0
22.602824 0.620801 7.611462 23.858068 0.027459 1.246090 0.054660 -0.004648 244531.000000 0 1 0
24.068024 1.086701 7.704762 25.294546 0.045121 1.261276 0.046744 -0.005730 -630978.000000 0 0 1
24.836624 0.547601 8.779762 26.348472 0.022045 1.231083 0.024051 0.001721 524001.000000 0 0 1
24.687224 1.331001 9.948162 26.649513 0.053862 1.188237 0.031681 -0.003059 -610859.000000 0 0 1
25.328824 0.748701 11.245362 27.723060 0.029551 1.153126 0.015815 -0.004379 -505609.000000 0 0 1
26.721124 0.636301 11.264262 29.005292 0.023808 1.171954 0.003911 -0.008079 -376597.000000 0 0 1
27.258254 -0.063099 12.356762 29.928347 -0.002315 1.145184 0.011934 -0.016469 312155.000000 0 0 1
28.806904 -0.065799 12.426662 31.372982 -0.002284 1.163537 0.014897 -0.021102 346489.000000 0 0 1
29.405124 1.167501 12.678762 32.043336 0.039683 1.163993 0.010350 -0.012209 -558228.000000 0 0 1
30.786184 1.012201 12.855162 33.377670 0.032867 1.175434 0.013484 -0.013644 -301925.000000 0 0 1
31.490384 2.256001 13.384362 34.291034 0.071519 1.169821 0.007411 -0.010375 -470018.000000 0 0 1
31.372954 3.285301 12.430262 33.905263 0.104337 1.195426 0.005258 -0.019458 245783.000000 0 0 1
31.988594 4.542801 12.810562 34.756549 0.141070 1.193316 0.001959 -0.018117 177949.000000 0 0 1
33.412714 4.706501 12.232662 35.891484 0.139939 1.223004 0.006488 -0.012117 -190076.000000 0 0 1
34.279644 3.751601 12.797462 36.782381 0.109007 1.215441 0.012090 -0.016206 451564.000000 0 0 1
-35.592326 3.838401 12.240862 37.833658 -0.107428 1.241324 0.011755 -0.008285 558954.000000 0 0 1
-34.611492 2.874901 12.912262 37.053299 -0.082872 1.214849 0.026244 -0.002445 -850362.000000 0 0 1
-34.710495 1.490901 12.546562 36.938563 -0.042926 1.224241 0.019242 0.000170 509991.000000 0 0 1
35.298281 0.758701 12.887862 37.585120 0.021491 1.220796 0.029447 -0.007622 366379.000000 0 0 1
35.011214 0.603001 14.396962 37.860550 0.017221 1.180716 0.020967 -0.006428 -488025.000000 0 0 1
-35.230682 -0.189799 15.064162 38.316654 0.005387 1.166742 0.029702 -0.009002 230103.000000 0 0 1
35.570076 -0.227599 16.435562 39.184306 -0.006399 1.137965 0.034800 -0.015322 13236.800000 0 0 1
-34.629275 -0.980199 17.336362 38.738830 0.028298 1.106807 0.033085 -0.014015 434778.000000 0 0 1
-33.296461 -0.465299 17.382262 37.563464 0.013974 1.089708 0.037077 -0.011849 516715.000000 0 0 1
-32.405011 -1.112199 18.266662 37.215490 0.034308 1.057749 0.045711 -0.014693 75243.500000 0 0 1
-32.589621 -0.930799 19.791562 38.139949 0.028553 1.025210 0.042835 -0.020417 -621183.000000 0 0 1
-33.697121 -1.622299 20.316462 39.381296 0.048106 1.028749 0.032907 -0.022093 -44558.200000 0 0 1
-33.928911 -1.386099 21.691262 40.293959 0.040830 1.002348 0.031881 -0.018787 684940.000000 0 0 1
-34.610044 -2.628099 22.387162 41.303112 0.075789 0.997956 0.018364 -0.010664 98208.000000 0 0 1
-33.588821 -3.592499 22.350362 40.504983 0.106550 0.986284 0.026692 -0.014219 165260.000000 0 0 1
-33.840831 -4.832799 22.939162 41.167499 0.141851 0.979768 0.013944 -0.005550 -252822.000000 0 0 1
-33.964471 -4.828799 24.473012 42.140609 0.141226 0.951151 0.009439 -0.011236 -886681.000000 0 0 1
-32.814581 -4.464699 25.120162 41.566246 0.135228 0.921859 0.016730 -0.018474 -1321110.000000 0 0 1
-32.899431 -4.504499 26.500112 42.484338 0.136071 0.897250 0.013313 -0.014618 -43354.800000 0 0 1
-31.758161 -3.729499 27.173232 41.962775 0.116899 0.866424 0.014787 -0.015247 -237167.000000 0 0 1
-31.721101 -2.314399 26.850062 41.623437 0.072832 0.869680 0.009871 -0.010312 41701.800000 0 0 1
-31.035541 -1.966399 25.624832 40.295205 0.063275 0.881586 0.020961 -0.014149 -246825.000000 0 0 1
-30.966821 -0.427499 25.344312 40.018257 0.013804 0.884962 0.014319 -0.011967 -668680.000000 0 0 1
-32.194291 0.161601 25.058172 40.797187 -0.005020 0.909408 0.029882 -0.019789 -705574.000000 0 0 1
-32.168621 1.528401 24.844582 40.674432 -0.047476 0.913706 0.029567 -0.018932 -183454.000000 0 0 1
-33.489831 2.194201 24.392142 41.489274 -0.065425 0.942318 0.034834 -0.013002 109275.000000 0 0 1
-34.056231 1.578101 23.203862 41.239986 -0.046305 0.973203 0.038507 -0.016607 418620.000000 0 0 1
-35.248272 2.243901 22.767062 42.021600 -0.063574 0.998226 0.032709 -0.010740 615372.000000 0 0 1
-35.064760 3.674801 22.158362 41.641741 -0.104419 1.009695 0.030379 -0.008815 -33371.200000 0 0 1
-34.287454 3.662701 20.949162 40.347395 -0.106420 1.024859 0.041682 -0.018834 75904.500000 0 0 1
-35.084225 3.319701 19.825362 40.434741 -0.094340 1.058356 0.039177 -0.025351 -291949.000000 0 0 1
-34.291027 2.493301 18.879662 39.224134 -0.072582 1.068628 0.044592 -0.022663 -492474.000000 0 0 1
-33.421691 3.270701 18.100262 38.148740 -0.097551 1.076440 0.042688 -0.014427 -26907.900000 0 0 1
-33.170421 2.674601 16.818562 37.286651 -0.080458 1.102842 0.044630 -0.007444 -249086.000000 0 0 1
-32.303771 3.474101 15.828562 36.140647 -0.107133 1.117456 0.044664 -0.003832 46323.700000 0 0 1
-32.950601 4.665701 15.405662 36.672132 -0.140662 1.137250 0.047582 -0.011703 -39534.000000 0 0 1
-32.129061 5.388801 14.525362 35.669341 -0.166177 1.151385 0.041392 -0.007464 -326416.000000 0 0 1
-32.634371 6.801701 14.104662 36.196779 -0.205480 1.170527 0.043759 -0.017674 -361907.000000 0 0 1
-31.875071 7.432301 13.144862 35.271045 -0.229077 1.188899 0.048655 -0.012508 -325404.000000 0 0 1
-32.188001 8.778301 13.005962 35.808952 -0.266245 1.199092 0.040847 -0.014554 -295651.000000 0 0 1
-31.358001 9.396801 11.868662 34.820816 -0.291147 1.222976 0.049954 -0.013726 -109251.000000 0 0 1
-31.563471 10.759801 11.758562 35.359437 -0.328540 1.231797 0.046406 -0.008417 16697.900000 0 0 1
-30.950891 11.266301 10.618362 34.606889 -0.349097 1.258938 0.050463 -0.018202 -367704.000000 0 0 1
-31.074201 12.795001 10.402062 35.178415 -0.390600 1.270614 0.049736 -0.013234 83344.500000 0 0 1
-30.256661 13.298701 9.364962 34.351470 -0.414113 1.294679 0.053184 -0.017682 -23540.000000 0 0 1
-30.277851 14.765701 9.271862 34.939113 -0.453738 1.302207 0.053487 -0.011801 135426.000000 0 0 1
-29.250281 15.408301 8.289162 34.083792 -0.484837 1.325133 0.056204 -0.019371 1115150.000000 0 0 1
-27.879861 15.368801 8.738162 33.012757 -0.503803 1.302913 0.064686 -0.011437 900090.000000 0 0 1
-27.095611 16.323001 8.048962 32.640439 -0.542199 1.321631 0.042685 -0.023039 611218.000000 0 0 1
-25.704851 16.554701 8.747162 31.801106 -0.572167 1.292146 0.053118 -0.014880 248764.000000 0 0 1
-25.698511 17.174001 10.069362 32.507719 -0.589124 1.255863 0.052178 -0.010890 92522.200000 0 0 1
-26.144821 18.498501 10.179862 33.606187 -0.615768 1.263045 0.046872 -0.016856 -139805.000000 0 0 1
-26.105661 18.939201 11.624762 34.283144 -0.627624 1.224856 0.054882 -0.009101 771678.000000 0 0 1
-24.740301 18.975401 12.082662 33.438586 -0.654282 1.201093 0.042867 0.001184 1050790.000000 0 0 1
-24.520201 19.487001 13.400862 34.067089 -0.671521 1.166506 0.050578 -0.004091 -37302.600000 0 0 1
-25.143491 18.661901 14.574562 34.538088 -0.638501 1.135162 0.041866 0.003019 177831.000000 0 0 1
-24.473301 17.406301 14.721162 33.445992 -0.618227 1.115034 0.051811 -0.003995 627203.000000 0 0 1
-24.997801 16.713601 15.881662 34.006789 -0.589342 1.084885 0.050856 -0.003225 -294367.000000 0 0 1
-24.021801 15.630601 16.320562 32.980651 -0.576856 1.053131 0.053895 -0.003396 -541096.000000 0 0 1
-22.863301 16.222501 16.848862 32.707556 -0.617102 1.029629 0.048751 -0.006265 287483.000000 0 0 1
-21.730701 15.339801 17.003662 31.569881 -0.614678 1.002017 0.043655 -0.020860 505313.000000 0 0 1
-21.831501 14.134201 17.974262 31.614303 -0.574561 0.966056 0.046970 -0.009206 -665167.000000 0 0 1
-21.812801 14.340501 19.357762 32.498788 -0.581584 0.932727 0.039726 -0.001323 -3553.310000 0 0 1
-22.190001 13.235601 20.137362 32.758062 -0.537818 0.908753 0.029731 -0.007897 -622370.000000 0 0 1
-22.213601 13.534801 21.672062 33.857247 -0.547231 0.876166 0.017857 -0.002024 -229237.000000 0 0 1
-20.969701 13.825401 22.257162 33.559668 -0.582888 0.845695 0.023449 0.004576 -324264.000000 0 0 1
-20.686801 15.220401 22.156862 33.919476 -0.634321 0.858968 0.024995 0.012788 -87898.800000 0 0 1
-19.186501 15.418301 22.500962 33.348750 -0.676933 0.830215 0.037827 0.006539 496419.000000 0 0 1
-18.221201 14.741801 21.730662 31.961767 -0.680233 0.823176 0.028423 -0.003651 -110178.000000 0 0 1
-17.662201 15.584401 20.710062 31.364527 -0.722983 0.849575 0.025502 0.001119 -2048040.000000 0 0 1
-16.478501 14.931601 20.042662 29.936633 -0.736189 0.837257 0.015133 0.006741 323361.000000 0 0 1
-15.310801 14.687301 20.852562 29.748391 -0.764617 0.794048 0.013757 0.006080 636612.000000 0 0 1
-14.725501 15.910401 21.332262 30.414579 -0.824056 0.793461 0.010029 0.002320 -1389430.000000 0 0 1
-13.570901 15.687601 22.345562 30.489249 -0.857617 0.748222 0.011923 -0.002812 103040.000000 0 0 1
-12.395201 15.258201 21.673262 29.260622 -0.888562 0.736689 -0.005364 0.012661 -317525.000000 0 0 1
-11.503501 14.755601 22.641062 29.371346 -0.908617 0.690613 0.012797 0.008212 -419035.000000 0 0 1
-10.414601 13.936001 21.977862 28.030384 -0.929015 0.669595 0.010710 0.007899 -1525050.000000 0 0 1
-10.007001 12.780701 22.720562 27.923293 -0.906521 0.620345 0.020441 0.009555 490656.000000 0 0 1
-8.820401 12.155801 22.269862 26.860933 -0.943087 0.593336 0.017528 0.017549 -268552.000000 0 0 1
-7.491601 12.868001 22.401962 26.899023 -1.043577 0.586619 0.020518 0.017186 -1278200.000000 0 0 1
-7.184301 13.804201 21.444562 26.496026 -1.090928 0.627752 0.014085 0.012030 -275129.000000 0 0 1
-6.321901 14.836701 21.844762 27.153043 -1.167995 0.635955 0.032242 0.011710 -39390.100000 0 0 1
-7.037601 15.994201 22.647962 28.605462 -1.156281 0.657151 0.039161 0.002800 901461.000000 0 0 1
-8.094401 16.702301 21.947662 28.743452 -1.119522 0.701971 0.006849 -0.000176 513639.000000 0 0 1
-7.627301 17.579401 20.885062 28.344256 -1.161431 0.742418 0.021100 0.007096 -831975.000000 0 0 1
-8.733701 17.973701 19.885462 28.191542 -1.118480 0.787852 0.016301 0.006700 302905.000000 0 0 1
-9.734501 18.849901 20.327762 29.381919 -1.094098 0.806754 -0.001591 0.013142 -243188.000000 0 0 1
-10.706801 18.253601 21.162362 29.927831 -1.040319 0.785389 0.002100 0.000158 -820544.000000 0 0 1
-11.991701 19.098001 21.267762 30.997616 -1.010112 0.814669 0.007411 -0.004389 269527.000000 0 0 1
-12.828601 19.046701 20.116962 30.529362 -0.978054 0.851390 0.007907 0.000784 485604.000000 0 0 1
-14.135401 19.564801 20.284662 31.528693 -0.945134 0.871902 0.007290 -0.008476 368494.000000 0 0 1
-14.978601 19.655101 18.997962 31.170564 -0.919614 0.915387 0.019087 -0.002742 -183031.000000 0 0 1
-15.440701 18.411501 18.494962 30.322635 -0.872932 0.914813 0.020163 0.003957 229109.000000 0 0 1
-16.304901 18.673701 17.394062 30.283829 -0.853016 0.958964 0.031912 -0.007001 -728747.000000 0 0 1
-17.093401 17.468001 16.809862 29.662887 -0.796236 0.968305 0.027891 -0.003952 185020.000000 0 0 1
-18.072801 16.936101 17.654562 30.416134 -0.752941 0.951535 0.026272 -0.005086 589132.000000 0 0 1
-19.282901 17.742201 17.701362 31.622052 -0.743810 0.976677 0.040767 -0.008212 -110809.000000 0 0 1
33.939304 -9.450299 12.031515 37.228240 -0.271568 1.241706 -0.013597 -0.009751 -797206.000000 0 0 1
32.704734 -10.016699 11.732415 36.160524 -0.297205 1.240362 -0.003423 -0.003074 -272055.000000 0 0 1
32.692484 -11.346799 12.280115 36.719880 -0.334068 1.229799 -0.009719 -0.007862 -512932.000000 0 0 1
31.352544 -12.085999 12.159915 35.733975 -0.367933 1.223571 0.028340 0.000821 -406652.000000 0 0 1
30.545544 -11.765099 13.262015 35.317543 -0.367653 1.185852 0.026397 0.017844 625057.000000 0 0 1
29.174744 -12.103799 12.962715 34.142344 -0.393261 1.181360 0.040083 0.006110 1053950.000000 0 0 1
28.391394 -12.534599 14.241315 34.146779 -0.415757 1.140586 0.047588 -0.009171 -201459.000000 0 0 1
28.126334 -11.566199 15.297215 34.042215 -0.390144 1.104747 0.050548 -0.013619 244270.000000 0 0 1
27.284844 -12.105299 16.310815 34.015345 -0.417572 1.070696 0.049812 -0.018943 1002130.000000 0 0 1
25.728524 -12.051199 16.108415 32.659905 -0.438048 1.055013 0.052854 -0.024211 637545.000000 0 0 1
25.105424 -10.807099 16.311915 31.830085 -0.406494 1.032739 0.050642 -0.022570 -13401.100000 0 0 1
25.159224 -9.925099 15.159615 31.004969 -0.375749 1.059920 0.055310 -0.021214 -157069.000000 0 0 1
24.790724 -8.455299 15.435515 30.402750 -0.328695 1.038282 0.082941 -0.023118 82103.600000 0 0 1
25.818024 -7.818099 16.160415 31.446018 -0.294038 1.031060 0.055283 -0.007796 -189429.000000 0 0 1
25.518924 -6.497699 16.460415 31.054482 -0.249325 1.012137 0.058017 -0.013211 -452465.000000 0 0 1
26.695404 -5.543199 16.348615 31.790704 -0.204737 1.030654 0.050219 -0.012101 -381728.000000 0 0 1
27.114614 -5.307199 15.030915 31.453093 -0.193288 1.072553 0.059626 -0.009732 844741.000000 0 0 1
28.294334 -4.470499 15.056915 32.361480 -0.156704 1.086854 0.046849 -0.015187 700373.000000 0 0 1
28.518734 -3.618599 13.791715 31.884540 -0.126211 1.123475 0.042342 -0.013308 -192782.000000 0 0 1
28.738094 -4.469099 12.684915 31.729450 -0.154276 1.159516 0.030303 -0.008871 236354.000000 0 0 1
29.135604 -3.681199 11.636415 31.588618 -0.125681 1.193537 0.022829 -0.016323 -275076.000000 0 0 1
29.551414 -4.431699 10.342015 31.620932 -0.148856 1.237603 0.033995 -0.010354 -191386.000000 0 0 1
30.800224 -5.061899 10.481315 32.926199 -0.162890 1.246832 0.041666 -0.012737 -33379.400000 0 0 1
31.116274 -5.765799 9.265115 32.974374 -0.183220 1.285982 0.047268 -0.011529 456081.000000 0 0 1
32.473694 -6.537699 9.320815 34.411625 -0.198667 1.296508 0.031639 -0.010081 561505.000000 0 0 1
33.632054 -5.695799 9.341315 35.366897 -0.167764 1.303499 0.029207 -0.011587 555941.000000 0 0 1
34.737874 -6.576299 9.052215 36.495345 -0.187098 1.320142 0.032975 -0.015884 -462580.000000 0 0 1
-35.241610 -5.811999 8.650715 36.750310 0.163447 1.333175 0.038224 -0.006825 -1104060.000000 0 0 1
-35.426524 -5.097299 7.426015 36.553615 0.142903 1.366218 0.040934 -0.007789 187216.000000 0 0 1
-34.318590 -4.257899 7.153315 35.313811 0.123439 1.366821 0.046784 0.006210 -47133.400000 0 0 1
-34.479579 -3.433599 5.873415 35.144387 0.099256 1.402886 0.042656 -0.000060 -313510.000000 0 0 1
-33.877831 -4.037799 4.749115 34.446558 0.118627 1.432487 0.047238 0.001105 146224.000000 0 0 1
-33.876981 -3.143699 3.652615 34.218040 0.092533 1.463847 0.046662 0.000522 -18963.500000 0 0 1
-33.107541 -3.725199 2.428515 33.404851 0.112047 1.498033 0.063023 0.001152 -24788.500000 0 0 1
-33.581321 -4.920499 1.815115 33.988396 0.145490 1.517367 0.058808 0.001247 99640.600000 0 0 1
-34.489821 -4.746399 0.713115 34.822185 0.136758 1.550316 0.047206 -0.002014 -179771.000000 0 0 1
-33.932311 -5.021799 -0.670885 34.308458 0.146928 1.590352 0.064451 -0.005520 -828966.000000 0 0 1
-33.758611 -6.393099 -0.952585 34.371834 0.187160 1.598514 0.063911 -0.023928 238076.000000 0 0 1
-33.056951 -6.666999 -2.180485 33.792979 0.199013 1.635366 0.063490 -0.027521 -805539.000000 0 0 1
-31.581561 -6.365099 -2.219385 32.292958 0.198880 1.639577 0.067518 -0.022437 -1508370.000000 0 0 1
-30.882981 -7.267299 -1.397185 31.757271 0.231113 1.614806 0.075450 -0.020738 -222419.000000 0 0 1
-29.802581 -6.684799 -0.709285 30.551325 0.220651 1.594015 0.058009 -0.022524 -203831.000000 0 0 1
-29.138461 -7.627199 0.295915 30.121614 0.256013 1.560972 0.035161 -0.014832 -150519.000000 0 0 1
-28.616311 -8.833199 -0.268885 29.949807 0.299398 1.579774 0.030101 -0.011959 546964.000000 0 0 1
-28.183731 -9.806299 0.655415 29.848212 0.334840 1.548836 0.034619 -0.004287 -137695.000000 0 0 1
-27.885591 -11.096499 -0.084685 30.012425 0.378720 1.573618 0.022285 -0.003011 93223.900000 0 0 1
-26.841531 -10.964599 -1.046185 29.013527 0.387807 1.606863 0.024452 -0.008489 339961.000000 0 0 1
-26.468521 -12.198399 -1.671085 29.192055 0.431852 1.628072 0.026625 0.005780 -138410.000000 0 0 1
-27.504311 -13.019799 -2.527185 30.535045 0.442120 1.653655 0.020579 -0.000166 -611378.000000 0 0 1
-28.539551 -13.676399 -1.928685 31.705988 0.446877 1.631664 0.032978 -0.007247 -304147.000000 0 0 1
-28.927061 -14.807499 -2.669985 32.606222 0.473115 1.652774 0.031888 -0.006563 -153610.000000 0 0 1
-29.677481 -15.886799 -1.819785 33.711346 0.491499 1.624804 0.035801 -0.001051 59115.500000 0 0 1
-28.939461 -16.711599 -0.913485 33.430591 0.523687 1.598125 0.019757 0.007532 -105905.000000 0 0 1
-29.740991 -17.429399 -0.020685 34.471886 0.530091 1.571396 0.028668 0.013967 -187382.000000 0 0 1
-29.949631 -18.946199 -0.300585 35.440502 0.564047 1.579278 0.029850 0.003972 558072.000000 0 0 1
-28.769491 -19.715199 -0.005485 34.876535 0.600779 1.570954 0.039158 -0.004207 789282.000000 0 0 1
-28.975361 -21.138499 -0.056985 35.866571 0.630273 1.572385 0.054817 -0.009113 284089.000000 0 0 1
-29.911631 -21.739199 1.052315 36.991970 0.628474 1.542345 0.058821 -0.005885 75830.900000 0 0 1
-29.317791 -21.866899 2.352715 36.650094 0.640845 1.506558 0.061764 -0.010361 -251515.000000 0 0 1
-30.207751 -22.339599 3.316715 37.716926 0.636768 1.482746 0.069550 -0.017454 -370337.000000 0 0 1
-29.581311 -22.551099 4.711415 37.494046 0.651354 1.444806 0.050176 -0.016243 -264278.000000 0 0 1
-29.213491 -21.281599 5.286115 36.527764 0.629589 1.425571 0.038790 -0.014827 51769.200000 0 0 1
-28.472321 -21.473299 6.467215 36.243627 0.646172 1.391398 0.031349 -0.017157 4161.240000 0 0 1
-27.963291 -20.170299 7.088915 35.199990 0.624888 1.368020 0.030132 -0.011718 37284.300000 0 0 1
-27.256101 -20.361699 8.302815 35.020431 0.641611 1.331432 0.016709 -0.017963 -58443.700000 0 0 1
-26.633371 -19.110199 8.671215 33.907612 0.622393 1.312193 0.029088 -0.015550 -114059.000000 0 0 1
-25.648301 -19.330999 9.831115 33.588297 0.645862 1.273753 0.024932 -0.011069 -564434.000000 0 0 1
-26.039061 -19.948799 11.023015 34.604828 0.653732 1.246608 0.021560 -0.005723 -497272.000000 0 0 1
-24.964701 -20.031199 11.938715 34.161647 0.676191 1.213783 0.028893 0.000722 -71437.500000 0 0 1
-24.644301 -18.695699 12.675615 33.429657 0.648996 1.181894 0.021835 -0.003425 -423175.000000 0 0 1
-24.018301 -17.709499 11.842615 32.105337 0.635345 1.193006 0.020361 -0.009678 167387.000000 0 0 1
-23.644001 -16.489399 12.497815 31.418696 0.608981 1.161697 0.012320 -0.003848 326860.000000 0 0 1
-22.769601 -16.489499 13.799715 31.317574 0.626777 1.114487 0.027063 0.004020 152792.000000 0 0 1
-23.426801 -17.079299 14.923715 32.607280 0.629957 1.095412 0.013242 -0.009372 187950.000000 0 0 1
-22.414001 -17.233199 15.897215 32.435968 0.655462 1.058580 0.032007 -0.010215 -2771.830000 0 0 1
-22.928401 -17.988999 17.127315 33.803263 0.665263 1.039471 0.022020 0.013127 -363517.000000 0 0 1
-23.783201 -17.298399 17.923115 34.439996 0.628838 1.023459 0.017677 0.008369 -169453.000000 0 0 1
-24.750801 -18.115799 18.617015 35.880044 0.631834 1.025270 0.009893 0.012074 553392.000000 0 0 1
-25.856121 -17.309199 19.322215 36.626430 0.589922 1.015084 0.015120 0.008491 -272008.000000 0 0 1
-25.425901 -16.709899 20.522115 36.699515 0.581420 0.977384 0.024947 0.006943 70954.100000 0 0 1
-26.373951 -15.844599 21.117615 37.317426 0.540983 0.969282 0.030398 -0.003844 -34095.100000 0 0 1
-25.745521 -15.030599 22.280615 37.217960 0.528433 0.928979 0.032908 -0.005307 235478.000000 0 0 1
-24.637201 -14.296699 21.797815 35.868259 0.525800 0.917611 0.028236 -0.006476 -410844.000000 0 0 1
-23.736801 -13.910299 22.755715 35.703707 0.530079 0.879744 0.031398 -0.006926 -476732.000000 0 0 1
-22.567001 -13.096399 22.186515 34.249477 0.525834 0.866115 0.030303 -0.003442 -91849.500000 0 0 1
-23.014801 -11.799799 21.806315 33.829450 0.473760 0.870302 0.033891 -0.002510 827335.000000 0 0 1
-21.951901 -11.096399 21.142915 32.435149 0.468028 0.860772 0.026169 0.002196 82120.500000 0 0 1
-21.656701 -9.779999 21.846715 32.279096 0.424177 0.827380 0.022527 -0.009718 -239397.000000 0 0 1
-21.178001 -9.843899 23.131715 32.870752 0.435107 0.790180 0.027369 -0.015555 383426.000000 0 0 1
-19.755601 -9.921599 23.172915 32.026643 0.465420 0.761863 0.010247 -0.007284 18468.000000 0 0 1
-19.244301 -10.050299 24.579515 32.794880 0.481287 0.723501 0.012525 -0.008927 -76929.200000 0 0 1
-19.435201 -11.299799 25.181615 33.756869 0.526637 0.728806 0.019016 -0.006809 61147.500000 0 0 1
-18.702701 -11.206999 26.381915 34.225623 0.539844 0.690663 0.018402 -0.006049 -584899.000000 0 0 1
-18.747701 -12.506299 27.280715 35.385325 0.588292 0.690447 0.023497 -0.019999 952862.000000 0 0 1
-20.005601 -12.724899 27.976415 36.671882 0.566518 0.703033 0.029324 -0.011660 1037140.000000 0 0 1
-21.065901 -13.176599 27.148015 36.802305 0.558955 0.741181 0.020324 -0.009132 -142220.000000 0 0 1
-22.300101 -13.727799 27.878315 38.248496 0.551807 0.754121 0.009729 -0.011900 -130442.000000 0 0 1
-22.198101 -15.004699 28.564915 39.164410 0.594399 0.753412 0.007451 -0.011366 -595307.000000 0 0 1
-21.393701 -14.999999 29.692115 39.551386 0.611491 0.721641 0.012172 -0.013258 -301835.000000 0 0 1
-21.839401 -15.921299 30.879815 41.036693 0.629936 0.718957 0.003083 -0.008612 -548481.000000 0 0 1
-21.695901 -17.297299 30.700615 41.381595 0.673069 0.734911 0.009408 -0.004560 -44389.100000 0 0 1
-21.938901 -18.218799 31.781715 42.700321 0.693024 0.731315 0.017175 -0.003068 971367.000000 0 0 1
-23.419501 -18.190899 32.341915 43.879167 0.660397 0.742075 0.015209 -0.005186 496227.000000 0 0 1
-23.745601 -17.157899 33.274815 44.333513 0.625715 0.721892 0.026945 0.000924 700657.000000 0 0 1
-25.095141 -17.285099 33.765315 45.482274 0.603158 0.734175 0.029312 -0.009332 824249.000000 0 0 1
-25.658961 -16.107799 -34.170832 45.667157 0.560585 2.416229 0.025906 -0.004014 -65018.400000 0 0 1
-25.036701 -15.969799 -32.913432 44.330181 0.567790 2.407533 0.038153 -0.015440 -70441.000000 0 0 1
-25.554881 -14.815799 -32.265932 43.745288 0.525407 2.400285 0.054688 -0.018086 -312707.000000 0 0 1
-25.146421 -14.622599 -30.789832 42.357723 0.526704 2.384593 0.042951 -0.007344 102117.000000 0 0 1
-25.847601 -15.449599 -29.859432 42.407243 0.538741 2.351968 0.032001 0.000058 155633.000000 0 0 1
-25.351601 -15.185299 -28.578132 41.109690 0.539675 2.339450 0.031175 0.005693 -290262.000000 0 0 1
-26.107731 -15.864699 -27.375732 41.021129 0.546035 2.301450 0.018102 0.007432 571337.000000 0 0 1
-27.319441 -15.166099 -27.025132 41.312470 0.506780 2.283873 0.040785 0.001528 542441.000000 0 0 1
-27.213741 -13.884599 -26.454932 40.413280 0.471779 2.284463 0.024262 -0.002711 -891062.000000 0 0 1
-26.460891 -14.024099 -25.065732 39.053105 0.487353 2.267688 0.023135 -0.001759 -712158.000000 0 0 1
-25.083271 -13.879699 -25.253732 38.204287 0.505408 2.292971 0.010002 -0.005410 -542482.000000 0 0 1
-24.376001 -14.272399 -24.099832 37.130752 0.529697 2.277135 -0.000278 -0.007845 -263845.000000 0 0 1
-23.709801 -15.629999 -24.207232 37.315434 0.582830 2.276696 0.001837 -0.003097 -1076050.000000 0 0 1
-22.654101 -15.685899 -25.108032 37.278265 0.605613 2.309771 0.024459 0.000246 -238401.000000 0 0 1
-22.199301 -16.998799 -25.276132 37.691524 0.653496 2.305821 0.028630 -0.001868 -216364.000000 0 0 1
-21.227001 -17.318899 -26.435332 38.070417 0.684355 2.338354 0.034547 0.001450 -135617.000000 0 0 1
-21.691001 -17.363399 -27.795432 39.301059 0.675039 2.356388 0.036102 -0.002745 191254.000000 0 0 1
-22.692301 -18.342999 -28.017832 40.452504 0.679803 2.335898 0.034271 -0.008040 -44252.800000 0 0 1
-23.287501 -18.318599 -29.464632 41.785683 0.666534 2.353413 0.024939 -0.009647 402512.000000 0 0 1
-22.407201 -18.793899 -30.497732 42.254053 0.697923 2.377153 0.030216 -0.004230 803984.000000 0 0 1
-23.104401 -18.670599 -31.707832 43.448720 0.679659 2.388791 0.022951 -0.003497 -134038.000000 0 0 1
-22.293201 -19.216099 -32.913732 44.153811 0.711403 2.411981 0.024199 -0.007443 44286.400000 0 0 1
-21.168401 -18.430199 -33.342132 43.582924 0.716359 2.441880 0.025935 -0.004512 1727880.000000 0 0 1
-19.855801 -18.873099 -32.922332 42.829040 0.760030 2.447590 0.027257 -0.008544 892280.000000 0 0 1
-19.352701 -20.087699 -33.742332 43.778850 0.804032 2.450806 0.025626 -0.009671 -895990.000000 0 0 1
-19.023801 -19.808099 33.693215 43.468362 0.805593 0.683891 0.025090 -0.008405 164201.000000 0 0 1
-18.823601 -20.964199 32.894315 43.311217 0.839147 0.708272 0.035834 -0.011738 174848.000000 0 0 1
-20.075601 -21.482599 32.114315 43.541486 0.819241 0.741351 0.047061 -0.011576 453437.000000 0 0 1
-21.050401 -22.103699 32.952915 44.917563 0.809801 0.747146 0.040256 -0.010529 268513.000000 0 0 1
-22.235701 -22.502999 32.294915 45.208107 0.791373 0.775086 0.046563 -0.008867 -335628.000000 0 0 1
-22.162201 -23.741099 31.360615 45.147437 0.819781 0.802896 0.063808 -0.007528 -815980.000000 0 0 1
-21.844001 -24.869099 32.107715 46.114399 0.850067 0.800619 0.070403 -0.005859 246167.000000 0 0 1
-21.740901 -26.013099 31.324815 46.158338 0.874623 0.824889 0.070305 -0.000390 -126092.000000 0 0 1
-21.110901 -27.198619 32.118415 47.085323 0.910752 0.820122 0.086360 0.000353 -556849.000000 0 0 1
-21.941301 -27.750439 33.092915 48.442219 0.901773 0.818740 0.067902 -0.008159 -304214.000000 0 0 1
-21.404601 -28.885189 33.708115 49.282331 0.933065 0.817592 0.068648 -0.017885 -1121130.000000 0 0 1
-22.403801 -29.676249 -34.234132 50.542911 0.924141 2.314921 0.062330 -0.021891 -320511.000000 0 0 1
-23.432201 -30.280299 33.783815 51.061832 0.912209 0.847812 0.051888 -0.021291 995802.000000 0 0 1
-24.610001 -29.502749 33.501815 50.974856 0.875571 0.853669 0.037629 -0.016410 403176.000000 0 0 1
-25.690221 -29.258179 -34.175632 51.807358 0.850240 2.291173 0.017463 -0.015448 313562.000000 0 0 1
-26.761041 -28.548339 33.972915 51.820073 0.817701 0.855828 0.014532 -0.008295 -99307.800000 0 0 1
-27.795021 -28.232669 -33.958932 52.180992 0.793209 2.279422 0.019858 0.001928 -135142.000000 0 0 1
-28.925291 -27.285199 34.365915 52.556357 0.756229 0.858086 0.008320 -0.002703 282309.000000 0 0 1
-29.887091 -27.733879 33.446115 52.735651 0.748047 0.883794 -0.005986 -0.000433 -381611.000000 0 0 1
-30.832131 -26.774459 33.125215 52.581098 0.715077 0.889265 -0.005983 -0.001857 -361803.000000 0 0 1
