# x y z rho theta phi s1 s2 stress_xx np intf bulk
-0.651004 -10.772904 -14.378681 17.978480 1.510440 2.497711 0.011532 0.002936 -803999.000000 1 0 0
2.226896 -13.438604 -12.978881 18.815060 -1.406580 2.332028 0.011876 -0.001165 315163.000000 1 0 0
2.203296 -11.162104 -14.693481 18.583473 -1.375911 2.482706 0.017871 0.001103 683345.000000 1 0 0
-5.618704 -6.285104 -16.643281 18.656665 0.841322 2.672729 0.015943 0.006246 368104.000000 1 0 0
4.559896 -14.032804 -11.473181 18.690803 -1.256614 2.231713 0.006707 -0.000524 -108126.000000 1 0 0
14.068496 -10.642604 -7.881281 19.321030 -0.647639 1.990962 0.045585 -0.016447 484411.000000 1 0 0
7.082696 10.770596 -10.809981 16.823376 0.989100 2.268627 0.020573 -0.013772 724777.000000 1 0 0
5.735296 -4.222304 -12.620581 14.491395 -0.634608 2.627830 0.000716 0.001057 2796750.000000 1 0 0
13.705396 0.478396 -10.091281 17.026470 0.034891 2.205181 0.019423 0.003745 771539.000000 1 0 0
14.166796 5.079696 -10.456581 18.325979 0.344283 2.178018 0.005763 -0.001433 -1087710.000000 1 0 0
4.143796 4.329596 -13.428581 14.705211 0.807322 2.721829 0.007858 0.003020 805130.000000 1 0 0
10.308496 -5.130704 -13.646881 17.855715 -0.461819 2.440730 0.026369 -0.003342 -1176590.000000 1 0 0
2.527696 -7.531604 -12.114481 14.487062 -1.246996 2.561164 -0.000366 0.003483 1053330.000000 1 0 0
-5.488304 -2.020304 -15.149681 16.239333 0.352717 2.773181 0.008425 -0.005658 1049610.000000 1 0 0
10.674696 0.060096 -9.711281 14.431276 0.005630 2.308963 0.014379 -0.000385 2596610.000000 1 0 0
-1.580904 -9.516504 -16.906481 19.465154 1.406177 2.623068 0.022223 -0.005975 705537.000000 1 0 0
8.746496 1.511896 -17.881681 19.963505 0.171166 2.680841 0.027838 0.001490 235831.000000 1 0 0
16.642996 -5.775104 -8.942581 19.756288 -0.333999 2.040525 0.060037 -0.007354 -1412530.000000 1 0 0
10.105796 7.505596 -9.885881 16.005990 0.638814 2.236530 0.012907 -0.007843 1146110.000000 1 0 0
13.795896 -2.334504 -10.721081 17.627201 -0.167629 2.224603 0.034996 0.000799 202728.000000 1 0 0
7.156396 -1.837604 -13.778181 15.634227 -0.251348 2.649367 0.009160 -0.001824 555728.000000 1 0 0
-2.800804 6.638796 -13.825981 15.590890 -1.171568 2.661168 0.004592 -0.002684 1341310.000000 1 0 0
11.244696 1.702296 -13.920681 17.975716 0.150246 2.456588 0.012669 -0.000563 1103740.000000 1 0 0
-2.339604 10.660196 -12.886181 16.886893 -1.354751 2.438874 -0.001613 -0.000494 -3778620.000000 1 0 0
2.848696 -0.917804 -15.279081 15.569449 -0.311683 2.948160 0.014375 -0.004766 1004910.000000 1 0 0
-9.062904 0.437396 -15.205081 17.706553 -0.048225 2.603575 0.014255 -0.004231 -143291.000000 1 0 0
2.388996 -1.644804 -18.034781 18.266527 -0.602961 2.982132 0.025018 -0.011927 1900060.000000 1 0 0
1.130296 7.873096 -13.102681 15.327865 1.428206 2.596015 0.005154 -0.001901 -855841.000000 1 0 0
9.346096 -9.211304 -9.810981 16.384535 -0.778135 2.212792 0.028073 -0.002353 296263.000000 1 0 0
3.935596 7.318496 -13.520881 15.870208 1.077399 2.590525 0.005911 0.002520 327770.000000 1 0 0
-2.739604 9.147496 -15.436181 18.150972 -1.279805 2.587604 0.000035 0.001114 -794313.000000 1 0 0
5.493496 -7.597404 -15.359581 17.994882 -0.944751 2.593563 0.013102 0.002653 -1788180.000000 1 0 0
4.286696 7.166396 -16.373781 18.380252 1.031726 2.669977 0.022471 0.000886 -1222120.000000 1 0 0
-0.203204 5.131696 -13.456681 14.403397 -1.531219 2.777006 0.007815 -0.006857 2335590.000000 1 0 0
8.772796 4.151196 -16.660781 19.281493 0.441970 2.614119 0.020917 0.000948 -425929.000000 1 0 0
5.320996 0.419096 -14.381781 15.340282 0.078600 2.786221 0.007085 0.001291 -258573.000000 1 0 0
6.240896 7.931996 -11.527381 15.321418 0.904156 2.422449 0.006821 -0.002952 323374.000000 1 0 0
2.781896 -8.380504 -15.038281 17.439085 -1.250293 2.610654 0.008642 0.001060 697105.000000 1 0 0
3.965596 11.650796 -13.794481 18.486608 1.242725 2.413114 0.023198 -0.010139 -2419540.000000 1 0 0
0.623396 -4.489004 -13.768581 14.495296 -1.432807 2.823602 0.004247 0.000369 594528.000000 1 0 0
8.500696 -0.094904 -11.754381 14.506423 -0.011164 2.515440 0.002965 0.002283 1266480.000000 1 0 0
-1.015704 -4.947604 -16.287081 17.052256 1.368317 2.840887 0.006370 -0.004963 382103.000000 1 0 0
4.477596 0.866996 -11.679781 12.538653 0.191263 2.769317 0.002580 -0.002205 -488055.000000 1 0 0
-2.936004 -7.176004 -15.646181 17.461905 1.182434 2.681515 0.007863 0.002448 2206490.000000 1 0 0
11.336596 -3.788404 -11.375981 16.501011 -0.322508 2.331472 0.029464 -0.003533 1145890.000000 1 0 0
6.510596 -7.104904 -12.587781 15.853068 -0.829020 2.488203 0.006696 0.004525 -765964.000000 1 0 0
3.420896 -3.869004 -14.637181 15.521559 -0.846791 2.802397 0.012151 -0.002463 2954680.000000 1 0 0
-0.579204 -1.410604 -18.258381 18.321947 1.181180 3.058269 0.025670 -0.017170 1413910.000000 1 0 0
14.920296 2.928896 -8.562481 17.450207 0.193838 2.083667 0.006746 0.003942 -828978.000000 1 0 0
6.939996 4.286096 -14.338781 16.496508 0.553255 2.624380 0.010178 0.004481 1981290.000000 1 0 0
10.184996 -9.756104 -13.988981 19.864725 -0.763894 2.352109 0.037751 -0.007977 -518264.000000 1 0 0
8.963796 -3.336604 -15.589381 18.289652 -0.356341 2.591279 0.026469 -0.008258 379360.000000 1 0 0
-5.222704 -2.015104 -18.011181 18.861069 0.368236 2.840252 -0.003279 -0.002210 -1106190.000000 1 0 0
4.984696 -9.068404 -11.192681 15.243335 -1.068201 2.395383 -0.006816 0.005611 1495590.000000 1 0 0
-2.500504 3.999496 -17.202781 17.837717 -1.012050 2.873980 0.004117 0.000282 760230.000000 1 0 0
9.683396 9.200296 -14.430181 19.663258 0.759821 2.394791 0.045570 -0.017818 -15474.600000 1 0 0
9.778596 9.885096 -11.578281 18.093995 0.790814 2.265160 0.020199 -0.013839 -376093.000000 1 0 0
11.992496 -5.919904 -9.572481 16.446812 -0.458542 2.192015 0.039469 -0.006920 1932320.000000 1 0 0
8.186696 6.858896 -13.630781 17.316600 0.697374 2.476973 0.013970 0.003004 -51554.400000 1 0 0
4.069596 -4.081804 -17.547381 18.469794 -0.786896 2.824219 0.031856 -0.012759 1504350.000000 1 0 0
9.314796 -7.609004 -12.325781 17.221708 -0.684945 2.368439 0.026944 -0.000926 151055.000000 1 0 0
11.984496 -8.704304 -8.808881 17.233382 -0.628158 2.107321 0.042543 -0.009787 322561.000000 1 0 0
-2.860204 -2.435104 -13.796481 14.298720 0.705291 2.875764 0.001798 -0.005524 -2018420.000000 1 0 0
-0.373904 6.136596 -17.571281 18.615787 -1.509941 2.805018 0.010447 -0.001083 1513100.000000 1 0 0
1.080796 -8.365304 -17.477581 19.406501 -1.442308 2.691955 0.021836 -0.008265 2148440.000000 1 0 0
0.036796 8.626596 -15.901481 18.090788 1.566531 2.644520 0.001715 0.003234 -119050.000000 1 0 0
1.859296 3.511596 -14.919481 15.439533 1.083849 2.881308 0.015506 -0.002087 316609.000000 1 0 0
-1.917104 -0.342404 -15.706381 15.826652 0.176741 3.018232 0.010519 -0.006964 908330.000000 1 0 0
14.172196 -4.285704 -8.540381 17.092586 -0.293659 2.093996 0.037850 -0.005484 2767170.000000 1 0 0
0.580696 0.865596 -14.548581 14.585872 0.979894 3.070070 0.009163 -0.004215 2226980.000000 1 0 0
8.801896 2.723396 -12.539581 15.560570 0.300067 2.507916 0.006813 -0.000369 702303.000000 1 0 0
5.974796 0.990696 -17.199181 18.234349 0.164317 2.803020 0.025643 0.003936 -509734.000000 1 0 0
15.302996 1.543496 -12.447581 19.786519 0.100522 2.251183 0.024564 -0.001635 -456772.000000 1 0 0
8.861196 -11.347704 -11.911181 18.686022 -0.907823 2.261965 0.029645 -0.001006 1426280.000000 1 0 0
-4.662604 0.800896 -15.057781 15.783475 -0.170110 2.837176 0.011274 -0.004848 1529280.000000 1 0 0
2.390396 5.104996 -17.283781 18.179770 1.132873 2.826330 0.021379 -0.000115 1495010.000000 1 0 0
6.010696 -11.635104 -12.437981 18.061215 -1.093957 2.330431 0.010182 -0.002851 849782.000000 1 0 0
12.817096 7.084096 -8.649281 17.008010 0.504919 2.104286 0.001027 -0.006850 -450426.000000 1 0 0
-5.075204 3.618596 -15.722081 16.912591 -0.619394 2.764144 0.006557 -0.001680 1998250.000000 1 0 0
-0.665304 -4.248304 -19.076481 19.555123 1.415453 2.919885 0.019842 -0.013234 -845378.000000 1 0 0
9.798696 4.345196 -10.180081 14.782734 0.417391 2.330417 0.003130 -0.000420 209866.000000 1 0 0
13.269396 3.582796 -12.885081 18.839814 0.263716 2.323930 0.016030 -0.005092 420704.000000 1 0 0
-6.194604 5.867896 -17.082081 19.094575 -0.758320 2.678340 0.002342 0.003081 920902.000000 1 0 0
-10.384304 3.072696 -15.410881 18.835352 -0.287689 2.529051 0.026910 0.004220 -1290250.000000 1 0 0
10.835596 13.312896 -8.254681 19.046865 0.887627 2.019045 0.037859 -0.015129 668382.000000 1 0 0
7.527796 13.385896 -12.239581 19.638158 1.058507 2.243695 0.039156 -0.021586 -1356610.000000 1 0 0
5.400796 15.169196 -11.341681 19.695350 1.228753 2.184447 0.025353 -0.016044 -348877.000000 1 0 0
14.182896 9.433196 -9.800381 19.651646 0.586925 2.092901 0.028303 -0.015850 -1301970.000000 1 0 0
8.246796 -17.229404 -2.042881 19.210294 -1.124377 1.677341 0.024036 -0.001028 -136900.000000 1 0 0
0.716096 -16.022304 0.038219 16.038345 -1.526132 1.568413 0.001138 -0.006325 1742010.000000 1 0 0
-9.083904 -11.659804 7.568219 16.605610 0.908943 1.097567 0.016262 -0.010053 831774.000000 1 0 0
2.130496 -15.909304 -2.486981 16.242846 -1.437673 1.724513 0.001194 -0.002444 1802370.000000 1 0 0
-1.466504 -11.068104 -9.463581 14.636015 1.439065 2.273909 0.007960 -0.000494 254525.000000 1 0 0
-4.867904 -12.590104 -13.016681 18.752098 1.201855 2.338028 0.020464 0.003588 371366.000000 1 0 0
-8.325004 -18.052604 -1.834681 19.964175 1.138707 1.662825 0.023437 -0.011005 1399490.000000 1 0 0
-11.301704 -7.150604 -8.877581 16.052137 0.564118 2.156813 0.018808 -0.008961 1910960.000000 1 0 0
-13.474604 -11.558404 -4.536181 18.323171 0.709000 1.820963 0.008741 -0.003759 -822767.000000 1 0 0
-5.714404 -13.439604 9.812619 17.594456 1.168764 0.979171 0.011745 -0.008929 -25162.500000 1 0 0
0.196496 -14.043904 -3.693681 14.522849 -1.556806 1.827957 0.005254 -0.000014 721500.000000 1 0 0
-14.719404 -11.626804 2.018919 18.865828 0.668550 1.463576 0.009832 -0.004750 -734752.000000 1 0 0
-3.928904 -16.437004 -7.529581 18.501513 1.336171 1.989932 0.011698 -0.007107 6759.650000 1 0 0
0.526896 -15.294504 -9.272881 17.893736 -1.536360 2.115564 0.005411 0.005859 965528.000000 1 0 0
4.556096 -14.198404 -2.470581 15.114777 -1.260288 1.734988 -0.002173 0.003981 36199.900000 1 0 0
-3.663004 -18.104804 -2.532881 18.644491 1.371169 1.707069 0.010276 -0.013764 1643220.000000 1 0 0
-0.938904 -13.522904 0.681019 13.572556 1.501477 1.520599 0.007857 -0.002323 2530260.000000 1 0 0
-8.524604 -11.307004 -10.464081 17.607220 0.924790 2.207199 0.021532 -0.004030 2592950.000000 1 0 0
-3.717004 -14.229404 -0.421881 14.712921 1.315286 1.599474 0.003581 -0.002382 4665720.000000 1 0 0
-1.516104 -14.954604 -7.294481 16.707729 1.469761 2.022605 0.002013 0.000579 53621.000000 1 0 0
-14.203404 -7.890104 -1.866781 16.354672 0.507062 1.685189 0.007898 -0.002991 1507450.000000 1 0 0
-10.736804 -7.313704 -11.653081 17.451748 0.597984 2.301953 0.019047 -0.006143 -171544.000000 1 0 0
-9.424204 -14.669504 6.800219 18.715046 0.999758 1.198929 0.007532 -0.005581 -775097.000000 1 0 0
-2.458704 -14.300704 -12.427981 19.105237 1.400532 2.279041 0.023228 0.004453 517445.000000 1 0 0
2.409396 -17.878204 -4.686481 18.638629 -1.436836 1.824963 0.005537 -0.004244 -792999.000000 1 0 0
-6.645504 -9.670304 -9.207381 14.914871 0.968708 2.236139 0.009272 -0.004641 1475940.000000 1 0 0
-10.950304 -15.493004 0.469219 18.977948 0.955528 1.546069 0.010753 -0.008278 -79488.200000 1 0 0
-12.635604 -11.072004 4.020619 17.274639 0.719540 1.335895 0.020751 -0.007645 2449830.000000 1 0 0
-17.065504 -8.912804 -1.561881 19.316029 0.481305 1.651744 0.020172 -0.007080 754954.000000 1 0 0
-1.460904 -19.246504 -4.031181 19.718331 1.495037 1.776686 0.002245 -0.005917 -299291.000000 1 0 0
3.213796 -14.286704 -8.805981 17.087531 -1.349529 2.112207 -0.004427 0.002528 1153160.000000 1 0 0
-4.359504 -8.004404 -13.129681 15.983250 1.072079 2.534772 0.004874 0.005167 1005760.000000 1 0 0
5.548596 -16.596804 1.301019 17.548034 -1.248161 1.496588 0.013048 -0.002506 4324430.000000 1 0 0
-2.741504 -13.870504 -3.169981 14.489842 1.375661 1.791353 0.006434 -0.000861 -922040.000000 1 0 0
-0.380304 -14.039704 3.694819 14.522728 1.543715 1.313552 0.003970 -0.001968 -3019620.000000 1 0 0
1.254496 -16.136004 7.071619 17.662169 -1.493207 1.158862 0.016557 -0.010890 1306640.000000 1 0 0
-5.590204 -10.264704 -14.763481 18.830159 1.072105 2.471934 0.015056 0.005263 953572.000000 1 0 0
-0.218104 -17.320704 -5.921581 18.306269 1.558205 1.900194 0.006301 -0.002781 -207728.000000 1 0 0
-6.498704 -13.483104 -1.288881 15.022932 1.121661 1.656696 0.005690 -0.004138 2859490.000000 1 0 0
-1.720004 -17.761404 -0.273681 17.846591 1.474258 1.586132 0.005425 -0.009810 4243270.000000 1 0 0
-9.441904 -9.869304 -4.831281 14.487719 0.807527 1.910783 0.007694 -0.005763 1505630.000000 1 0 0
-0.762704 -16.671304 4.935519 17.403260 1.525079 1.283253 0.015066 -0.008195 2811700.000000 1 0 0
-6.846304 -9.931904 -6.300881 13.609398 0.967271 2.052151 0.008355 -0.005766 1451290.000000 1 0 0
-6.129404 -14.550004 -8.540781 17.950408 1.172094 2.066668 0.019226 -0.007441 62151.500000 1 0 0
-5.824104 -12.198104 -10.253181 16.965897 1.125343 2.219734 0.017130 -0.004416 577873.000000 1 0 0
-10.810604 -12.114004 -8.680181 18.410970 0.842193 2.061751 0.028664 -0.015590 -549350.000000 1 0 0
4.032996 -17.090804 6.594519 18.757621 -1.339061 1.211554 0.028649 -0.011492 1157940.000000 1 0 0
-6.675104 -14.477504 -4.069081 16.453345 1.138777 1.820700 0.013368 -0.009294 -668701.000000 1 0 0
-2.873104 -12.239004 -7.084081 14.430251 1.340221 2.083940 0.009383 -0.001854 3502840.000000 1 0 0
-6.940304 -12.819604 4.384719 15.222872 1.074594 1.278622 -0.001612 -0.000118 3967380.000000 1 0 0
2.555396 -16.311004 2.365119 16.678510 -1.415393 1.428510 0.010515 -0.008268 2671310.000000 1 0 0
-6.129104 -11.954904 7.236319 15.259422 1.097052 1.076719 0.001529 -0.001402 792154.000000 1 0 0
-11.210704 -12.938404 -0.886881 17.142601 0.856820 1.622555 0.010655 0.000270 -526840.000000 1 0 0
-14.212004 -8.685204 4.630019 17.287305 0.548554 1.299659 0.015797 -0.006406 -876020.000000 1 0 0
-7.915704 -15.523504 4.379319 17.967081 1.099246 1.324575 0.003316 -0.003437 -296495.000000 1 0 0
-16.409504 -9.225404 1.193319 18.862765 0.512161 1.507491 -0.000932 -0.000587 -199738.000000 1 0 0
-6.632304 -17.188504 2.286119 18.564980 1.202541 1.447341 0.005012 -0.001758 1626820.000000 1 0 0
-11.570904 -14.971304 -4.546581 19.460143 0.912817 1.806611 0.027817 -0.008376 -209363.000000 1 0 0
-10.100604 -9.974704 -12.650081 19.014244 0.779127 2.298685 0.020459 0.001291 -42993.200000 1 0 0
-4.280404 -15.989304 -4.533281 17.161887 1.309226 1.838117 0.006329 -0.012122 -596603.000000 1 0 0
-11.810404 -8.264804 -0.060081 14.415139 0.610585 1.574964 -0.000861 0.001356 1288200.000000 1 0 0
-9.601704 -11.185404 3.493119 15.149517 0.861438 1.338126 0.004679 -0.000048 2756600.000000 1 0 0
-14.158304 -12.983304 -0.571781 19.218499 0.742134 1.600552 0.010159 0.000234 545150.000000 1 0 0
5.516196 -14.895804 -7.119081 17.406743 -1.216136 1.992137 -0.004252 -0.004581 -619839.000000 1 0 0
-7.483704 -10.628904 -1.286181 13.062683 0.957331 1.669418 0.001673 -0.001130 460055.000000 1 0 0
-11.617504 -8.281404 -6.061381 15.501239 0.619291 1.972542 0.009958 -0.007355 -664536.000000 1 0 0
-14.339204 -6.670504 -9.163581 18.277845 0.435417 2.095954 0.017661 -0.010595 3368330.000000 1 0 0
-3.870704 -16.534304 1.462019 17.044151 1.340836 1.484912 -0.000435 -0.004967 1880550.000000 1 0 0
-7.975004 -15.750904 0.040919 17.654839 1.102105 1.568479 0.014779 -0.008525 1430370.000000 1 0 0
1.069996 -18.525004 3.755019 18.932006 -1.513101 1.371130 0.014884 -0.016667 -546632.000000 1 0 0
-14.118604 -8.773404 -4.559681 17.236539 0.556012 1.838519 0.012572 -0.008143 -890675.000000 1 0 0
-3.313704 -14.506004 11.175419 18.608998 1.346213 0.926622 0.005838 -0.007377 1151630.000000 1 0 0
-10.730804 -12.175004 -3.695281 16.644398 0.848364 1.794675 0.017202 -0.007397 881731.000000 1 0 0
-9.997004 -10.727204 0.523719 14.672671 0.820618 1.535095 0.002374 0.001838 1581130.000000 1 0 0
-0.082204 -13.195304 -11.191481 17.302371 1.564567 2.274201 0.013379 0.001366 2275270.000000 1 0 0
-5.951304 -12.689104 -6.266681 15.352611 1.132247 1.991260 0.006418 -0.008134 2924320.000000 1 0 0
1.776396 -15.863504 9.951419 18.810558 -1.459281 1.013335 0.021677 -0.005281 89291.100000 1 0 0
-9.001204 -15.882404 -5.332181 19.018533 1.055191 1.854973 0.030379 -0.011958 -510114.000000 1 0 0
-3.302504 -15.475404 5.937619 16.901183 1.360547 1.211822 0.000642 -0.000998 -341384.000000 1 0 0
-17.466804 -5.491904 -6.516381 19.434852 0.304633 1.912713 0.025782 -0.005832 1313500.000000 1 0 0
18.759096 5.647296 -2.743981 19.781938 0.292413 1.709956 0.004597 0.010910 -496611.000000 1 0 0
12.750996 -12.472304 -5.863881 18.775819 -0.774350 1.888420 0.041916 -0.011542 311885.000000 1 0 0
10.983096 -13.629304 -1.639181 17.580479 -0.892502 1.664171 0.033060 -0.004176 3378590.000000 1 0 0
18.808796 -2.694704 4.431019 19.510668 -0.142300 1.341690 0.048392 -0.012080 -302512.000000 1 0 0
8.635796 -16.881704 5.073419 19.629277 -1.097953 1.309367 0.034240 -0.011612 -510114.000000 1 0 0
18.159196 -0.993404 6.638019 19.359921 -0.054651 1.220821 0.057434 -0.017347 -1349270.000000 1 0 0
18.099696 -4.109004 -5.122881 19.254268 -0.223237 1.840105 0.051676 -0.006271 443069.000000 1 0 0
5.462396 -11.756904 14.762819 19.646969 -1.135858 0.720608 0.013027 0.002525 657608.000000 1 0 0
15.945296 -8.954704 -0.822581 18.306169 -0.511697 1.615746 0.046220 -0.006395 -398442.000000 1 0 0
13.884396 -12.713604 -1.470981 18.883219 -0.741409 1.648774 0.048062 -0.002112 2006320.000000 1 0 0
10.831196 -1.752004 13.778319 17.613245 -0.160366 0.672494 -0.001999 -0.013673 1296210.000000 1 0 0
16.895896 -6.149904 -1.497981 18.042632 -0.349082 1.653917 0.035660 -0.009194 -2308230.000000 1 0 0
17.733096 3.670196 -0.844581 18.128606 0.204087 1.617401 0.010526 0.008498 1399710.000000 1 0 0
9.755296 -11.046404 9.598419 17.587453 -0.847386 0.993508 0.020884 -0.002181 -617870.000000 1 0 0
9.089396 -11.074304 4.254319 14.945119 -0.883522 1.282142 0.012925 -0.001287 -582996.000000 1 0 0
14.086496 -10.041304 6.869519 18.613099 -0.619286 1.192789 0.031878 -0.005678 51426.000000 1 0 0
16.251696 -0.538604 -4.796781 16.953372 -0.033129 1.857654 0.018342 0.004389 -540654.000000 1 0 0
15.813996 -0.415404 -1.783481 15.919668 -0.026262 1.683062 0.017798 0.000636 1837880.000000 1 0 0
12.889296 -5.102004 -0.336381 13.866418 -0.376909 1.595057 0.017062 -0.006572 1382820.000000 1 0 0
14.265196 -7.455204 1.030419 16.128783 -0.481575 1.506866 0.037688 -0.005334 2044350.000000 1 0 0
15.349396 2.450896 3.741719 15.987849 0.158337 1.334570 0.018274 -0.008062 2081930.000000 1 0 0
15.957396 -6.936704 5.012819 18.107587 -0.410059 1.290297 0.046036 -0.011813 -1373590.000000 1 0 0
13.705596 -11.980204 3.387119 18.515972 -0.718326 1.386831 0.033303 -0.004164 1530810.000000 1 0 0
14.044996 -0.895704 9.217319 16.823293 -0.063688 0.990956 0.027306 -0.011622 986427.000000 1 0 0
14.299996 -2.830604 -1.686781 14.674721 -0.195418 1.685996 0.014001 -0.002862 -675127.000000 1 0 0
15.092996 1.902896 9.095619 17.724272 0.125416 1.031919 0.034580 -0.014963 -985455.000000 1 0 0
14.373496 -10.226404 -3.029781 17.898500 -0.618387 1.740891 0.049861 -0.006417 101697.000000 1 0 0
7.393296 -12.604804 6.080819 15.827769 -1.040328 1.176470 0.010251 -0.004441 519558.000000 1 0 0
12.456896 -4.573804 6.922319 14.967045 -0.351889 1.089979 0.015493 -0.003369 2353380.000000 1 0 0
14.963596 -9.053304 -5.610081 18.366941 -0.544104 1.881202 0.058251 -0.012161 853702.000000 1 0 0
14.334196 -4.423404 4.559519 15.678804 -0.299320 1.275725 0.025063 -0.008400 308393.000000 1 0 0
17.114696 -4.213504 0.876919 17.647533 -0.241392 1.521085 0.035697 -0.011980 -2077200.000000 1 0 0
10.219796 -14.564804 1.094919 17.826290 -0.958945 1.509336 0.035200 -0.002792 560753.000000 1 0 0
16.451396 -2.539704 8.511719 18.696200 -0.153167 1.098127 0.051630 -0.013350 71208.500000 1 0 0
16.112396 -2.566604 3.150819 16.616992 -0.157967 1.380027 0.032790 -0.009113 2110080.000000 1 0 0
7.835396 -15.254204 2.702819 17.360571 -1.096285 1.414473 0.016264 -0.003939 2390200.000000 1 0 0
16.615496 -6.950404 7.911719 19.671760 -0.396189 1.156892 0.046784 -0.010089 382898.000000 1 0 0
10.241196 -8.548704 5.120219 14.289125 -0.695566 1.204318 0.009703 0.000581 199139.000000 1 0 0
10.945796 -11.900204 2.137719 16.309358 -0.827150 1.439345 0.025571 0.000674 1019030.000000 1 0 0
12.228896 -7.326604 12.081919 18.686835 -0.539774 0.867747 0.005011 -0.009397 -26881.700000 1 0 0
15.339896 -9.793904 4.356019 18.713842 -0.568220 1.335871 0.042966 -0.006206 -845912.000000 1 0 0
7.413296 -10.246604 7.798019 14.857960 -0.944480 1.018272 0.010225 -0.003040 2641350.000000 1 0 0
15.273496 -3.324404 -4.482281 16.261063 -0.214316 1.850057 0.034131 -0.001732 1945370.000000 1 0 0
11.898796 -9.049404 9.818519 17.885088 -0.650207 0.989655 0.012934 -0.006420 -663127.000000 1 0 0
16.931296 -6.579204 2.357919 18.317055 -0.370625 1.441710 0.042616 -0.010568 1402380.000000 1 0 0
17.433296 3.952296 2.080819 17.996396 0.222941 1.454913 0.019050 -0.000844 115768.000000 1 0 0
14.701396 -4.809604 8.771619 17.782144 -0.316178 1.054937 0.040181 -0.010445 -929120.000000 1 0 0
12.927796 -12.536104 6.201819 19.045850 -0.770017 1.239123 0.034780 -0.002476 -237842.000000 1 0 0
18.223296 0.842896 -0.838181 18.262024 0.046221 1.616710 0.030821 -0.000055 -363594.000000 1 0 0
11.730396 -2.024504 11.015419 16.218516 -0.170903 0.824141 0.011389 -0.007423 1698180.000000 1 0 0
5.789696 -12.400904 10.521719 17.262954 -1.133997 0.915370 0.010922 -0.001321 -1010920.000000 1 0 0
10.786596 -4.921004 11.106719 16.245804 -0.428010 0.818021 0.005830 -0.001801 540416.000000 1 0 0
17.770796 1.385896 5.100419 18.540123 0.077830 1.292101 0.035706 -0.006504 -702214.000000 1 0 0
12.278596 -7.709104 7.181619 16.179304 -0.560645 1.110876 0.022339 -0.006342 -1116710.000000 1 0 0
10.559796 -7.840204 14.343119 19.460297 -0.638657 0.742108 0.009766 -0.009705 -1224720.000000 1 0 0
14.076796 -0.331004 3.702719 14.559391 -0.023510 1.313654 0.013965 -0.007464 1973480.000000 1 0 0
11.652196 -7.672804 2.521519 14.177576 -0.582317 1.391992 0.012896 -0.000877 2367990.000000 1 0 0
9.211396 6.036496 3.553519 11.572234 0.580112 1.258681 0.002325 -0.001760 1437330.000000 1 0 0
-3.866204 14.820096 -9.906181 18.240482 -1.315608 2.144906 -0.005002 -0.000274 754489.000000 1 0 0
8.908296 -6.377604 9.304419 14.373719 -0.621329 0.866731 0.004097 -0.001737 -104360.000000 1 0 0
5.788296 -10.550304 -8.542481 14.757617 -1.069000 2.188117 -0.006380 -0.001138 154590.000000 1 0 0
5.357796 1.022796 0.556619 5.482875 0.188629 1.469102 0.000069 -0.001577 3715230.000000 1 0 0
-0.488804 9.901896 10.968919 14.785251 -1.521472 0.734923 0.003944 -0.000999 630693.000000 1 0 0
-6.306104 -5.234004 0.960819 8.251359 0.692762 1.454088 0.003464 -0.002423 1668570.000000 1 0 0
-1.049304 3.872896 -10.782681 11.505067 -1.306213 2.785343 0.010761 -0.006635 240307.000000 1 0 0
10.849596 5.742396 1.271219 12.341185 0.486791 1.467607 -0.002555 0.001359 1294220.000000 1 0 0
-10.098604 -1.840304 -13.601581 17.040291 0.180256 2.495099 0.015156 -0.008796 2413370.000000 1 0 0
7.413596 10.869696 -6.037181 14.476161 0.972224 2.000986 -0.003547 -0.002421 389443.000000 1 0 0
-12.397304 -2.973404 -9.637281 15.981598 0.235396 2.218082 0.007732 -0.006085 291417.000000 1 0 0
-3.941004 -8.617004 2.419319 9.779437 1.141845 1.320812 0.004249 0.002217 -720943.000000 1 0 0
8.010996 -6.599804 -5.903581 11.940927 -0.689111 2.087939 0.003491 -0.003882 2021590.000000 1 0 0
14.333196 3.155096 -4.132881 15.247158 0.216670 1.845289 0.006137 0.003838 544272.000000 1 0 0
-2.566504 -4.961204 9.818919 11.296533 1.093393 0.517219 0.001922 0.000843 3098430.000000 1 0 0
3.442796 -1.929604 -4.551381 6.024225 -0.510851 2.427233 0.000230 -0.003879 -1764820.000000 1 0 0
-3.959804 8.384596 -3.483381 9.905323 -1.129577 1.930148 0.003549 -0.001219 448692.000000 1 0 0
5.866696 0.144996 11.654819 13.048906 0.024710 0.466463 -0.001974 -0.005373 1843060.000000 1 0 0
7.182996 4.726296 12.393119 15.083856 0.581967 0.606558 0.007857 -0.004686 1418220.000000 1 0 0
1.241796 -14.395704 12.482719 19.094414 -1.484748 0.858284 0.003098 -0.003701 609241.000000 1 0 0
3.087596 8.732396 -9.056481 12.954066 1.230936 2.344966 0.004250 -0.000593 2424190.000000 1 0 0
-4.472004 -8.997104 -4.649781 11.071006 1.109512 2.004237 0.006773 -0.003247 251087.000000 1 0 0
5.683196 -6.565804 -4.095781 9.601246 -0.857329 2.011514 -0.000266 -0.002730 2132950.000000 1 0 0
-3.135904 3.477596 8.742719 9.917797 -0.837018 0.491728 -0.005487 -0.000383 1912950.000000 1 0 0
-3.772904 3.102196 -11.053381 12.084521 -0.688150 2.725494 0.006240 -0.009186 -355423.000000 1 0 0
3.065896 -6.155804 8.483219 10.920561 -1.108710 0.681209 0.004173 0.000199 -30118.000000 1 0 0
-5.272704 -8.681704 10.501419 14.610038 1.025001 0.768749 0.005308 -0.004972 345343.000000 1 0 0
-13.251904 -2.510004 6.547219 14.992637 0.187190 1.118874 0.008000 -0.006618 860785.000000 1 0 0
3.857996 -5.917504 -8.368381 10.951292 -0.993042 2.440512 -0.002643 -0.000292 3040920.000000 1 0 0
2.982296 -0.454204 12.407219 12.768691 -0.151139 0.238511 0.002210 -0.000993 1588890.000000 1 0 0
1.430396 -1.448704 -7.511081 7.782102 -0.791757 2.876903 0.002961 -0.005028 680944.000000 1 0 0
3.594196 -3.416104 3.493019 6.065410 -0.759999 0.957102 0.000472 -0.003580 2113950.000000 1 0 0
1.565196 0.431896 -11.804381 11.915527 0.269237 3.004901 0.007903 -0.006612 461793.000000 1 0 0
4.094796 3.526096 -10.534381 11.839505 0.710912 2.667627 -0.000273 -0.000519 2694360.000000 1 0 0
2.707496 3.236796 3.422619 5.433388 0.874207 0.889341 -0.003416 -0.000025 -828272.000000 1 0 0
-5.329704 0.937996 2.566819 5.989503 -0.174210 1.127906 -0.003809 -0.002183 2212660.000000 1 0 0
-9.483204 -9.281104 5.690819 14.437987 0.774628 1.165647 0.006461 -0.002418 -1373420.000000 1 0 0
-3.111004 3.849196 -0.507181 4.975127 -0.891062 1.672917 -0.003508 -0.003212 -451113.000000 1 0 0
-15.850804 -6.418704 4.920119 17.794812 0.384762 1.290655 0.026051 -0.010247 976159.000000 1 0 0
1.025196 6.698696 -8.061881 10.531736 1.418931 2.442590 0.004389 -0.001834 14440.100000 1 0 0
-1.545204 6.473796 -9.473181 11.577514 -1.336494 2.529138 0.005011 -0.002900 858398.000000 1 0 0
2.079096 -0.377304 5.292019 5.698286 -0.179522 0.379895 0.000228 -0.001715 2406210.000000 1 0 0
-3.464604 -0.570704 -6.342681 7.249744 0.163258 2.635991 0.006663 -0.010266 270923.000000 1 0 0
1.910696 -1.145704 -2.378681 3.259067 -0.540145 2.388921 0.003001 -0.004169 1091780.000000 1 0 0
2.422296 -8.619204 -7.731481 11.829370 -1.296828 2.283106 -0.004701 0.001240 2008650.000000 1 0 0
-2.481204 13.991996 -5.579681 15.266471 -1.395291 1.944951 0.001721 0.001222 2410460.000000 1 0 0
6.821896 -5.049204 -8.228281 11.821055 -0.637165 2.340705 0.002653 -0.003270 2750790.000000 1 0 0
-14.082204 -4.951804 -2.201781 15.088959 0.338131 1.717239 0.003751 -0.006772 835145.000000 1 0 0
-2.716904 6.877696 -6.816081 10.056999 -1.194581 2.315488 0.006924 -0.003582 -4431760.000000 1 0 0
-5.740604 -1.119104 -8.064881 9.962391 0.192531 2.514152 0.003795 -0.011722 686945.000000 1 0 0
-5.686004 -10.551004 3.502719 12.486928 1.076510 1.286470 0.001460 0.001119 -3344090.000000 1 0 0
8.125196 -7.548204 6.713519 12.964009 -0.748601 1.026451 0.007194 -0.003153 260119.000000 1 0 0
8.835696 -5.866704 13.185619 16.921829 -0.586139 0.677396 0.005619 -0.000873 -220849.000000 1 0 0
-4.755204 9.547696 -0.794181 10.695849 -1.108712 1.645116 0.000127 0.000047 2357010.000000 1 0 0
2.769396 6.672496 12.204419 14.182369 1.177386 0.534478 0.010710 -0.003098 510051.000000 1 0 0
6.010296 -2.825704 10.937519 12.795999 -0.439479 0.545706 -0.003685 -0.002555 -653019.000000 1 0 0
-9.685104 -6.490904 -1.146281 11.715248 0.590441 1.668798 -0.000500 -0.001939 116736.000000 1 0 0
0.859996 -13.379804 6.295319 14.811813 -1.506609 1.131812 0.005718 -0.004378 -615592.000000 1 0 0
-0.532404 -3.114104 8.827819 9.376113 1.401468 0.343676 -0.000923 0.000263 2095710.000000 1 0 0
4.191596 0.691996 3.426919 5.458215 0.163615 0.892013 -0.002869 -0.000143 1043000.000000 1 0 0
-10.298104 5.494096 8.311619 14.328958 -0.490091 0.951997 -0.003257 -0.006862 1946400.000000 1 0 0
9.369996 7.969396 -0.000281 12.300735 0.704798 1.570819 -0.000923 0.003611 -63527.100000 1 0 0
4.271996 2.886596 8.247619 9.726541 0.594232 0.558691 0.001146 -0.000636 3642890.000000 1 0 0
1.311196 2.594396 -9.675681 10.102916 1.102842 2.849737 0.009165 -0.005904 1743120.000000 1 0 0
-1.402404 -10.116804 3.041019 10.656654 1.433053 1.281411 0.002602 -0.000385 -2938990.000000 1 0 0
-9.929504 9.524996 9.012619 16.448340 -0.764609 0.990903 0.002590 -0.013065 929238.000000 1 0 0
9.783896 -1.938504 -7.624081 12.554243 -0.195599 2.223443 0.016667 -0.002354 1980610.000000 1 0 0
-5.241704 -1.936604 6.702519 8.726377 0.353906 0.694965 -0.003118 -0.000656 323694.000000 1 0 0
3.087396 -7.804104 -4.988181 9.763094 -1.194079 2.107053 -0.005565 -0.000421 1258200.000000 1 0 0
-5.067704 4.851896 -13.053781 14.819707 -0.763646 2.648429 0.004480 -0.009475 2093240.000000 1 0 0
-5.722304 9.576096 5.450419 12.415854 -1.032172 1.116324 -0.000567 -0.005568 924229.000000 1 0 0
-0.468904 -1.775204 -9.333681 9.512561 1.312554 2.947356 0.005107 -0.006037 120116.000000 1 0 0
-16.709604 0.160096 6.324519 17.867178 -0.009581 1.208979 0.028498 -0.014774 -251356.000000 1 0 0
-5.996004 -2.934704 4.073219 7.820209 0.455167 1.022940 -0.005216 -0.002356 1668760.000000 1 0 0
0.921896 -5.705504 -5.204681 7.777620 -1.410601 2.303910 -0.001541 -0.001178 1148610.000000 1 0 0
-7.117404 1.414996 -8.499281 11.175752 -0.196249 2.434896 -0.000681 -0.005838 4425.670000 1 0 0
7.964996 1.992196 4.758919 9.489853 0.245091 1.045494 0.001039 -0.003004 101962.000000 1 0 0
0.536696 -8.041104 -0.518281 8.075644 -1.504151 1.635019 0.000465 0.002118 746164.000000 1 0 0
5.429296 5.478196 -3.341381 8.405516 0.789881 1.979611 0.000344 0.000003 140741.000000 1 0 0
-0.724404 -0.328604 -1.201981 1.441353 0.425861 2.556978 0.001910 -0.005158 720296.000000 1 0 0
9.075896 6.397796 -6.266281 12.750292 0.614021 2.084564 -0.000047 -0.001921 -335725.000000 1 0 0
-14.951104 -7.098204 2.418319 16.726275 0.443253 1.425706 0.002952 -0.004743 1713860.000000 1 0 0
-6.397204 6.798296 8.943019 12.927437 -0.815785 0.806837 -0.001352 -0.002586 -232314.000000 1 0 0
-9.456504 -3.229304 -9.719081 13.939670 0.329074 2.342315 0.007329 -0.005996 207382.000000 1 0 0
14.819296 3.459896 -1.192281 15.264467 0.229364 1.648984 0.001070 0.004397 1786160.000000 1 0 0
12.072096 1.646796 -5.729381 13.463775 0.135577 2.010355 0.007970 0.000750 -274155.000000 1 0 0
1.643696 -9.386504 12.699719 15.877376 -1.397441 0.643730 -0.003457 -0.000895 -237295.000000 1 0 0
-3.647304 6.349296 7.925819 10.790505 -1.049381 0.745840 -0.002938 -0.002030 196879.000000 1 0 0
-4.032404 13.046896 -12.295781 18.375745 -1.271039 2.303835 -0.009002 -0.003939 187165.000000 1 0 0
-10.262904 7.671296 6.484619 14.360580 -0.641885 1.102287 -0.003403 -0.009039 725371.000000 1 0 0
7.892396 -9.262404 -7.076781 14.077034 -0.865091 2.097537 0.003608 -0.002148 698328.000000 1 0 0
5.832796 -3.814604 -0.332981 6.977363 -0.579177 1.618537 0.002516 -0.003845 515225.000000 1 0 0
-1.644804 -4.440404 4.154619 6.299479 1.216049 0.850619 0.001804 -0.002349 258012.000000 1 0 0
9.825596 -1.985004 -2.673981 10.374621 -0.199341 1.831481 0.005318 -0.005382 -2471910.000000 1 0 0
13.444596 7.065096 1.400919 15.252387 0.483837 1.478818 -0.006392 0.002156 55809.300000 1 0 0
5.385496 -3.752204 -3.256281 7.327071 -0.608524 2.031321 0.003131 -0.005703 -2217190.000000 1 0 0
-12.200104 -5.921104 1.846419 13.686171 0.451845 1.435472 -0.004628 -0.000662 1316730.000000 1 0 0
3.726896 -5.725604 -0.245281 6.836115 -0.993776 1.606684 0.000401 -0.002056 -1208120.000000 1 0 0
-5.293704 3.695396 -8.703281 10.836344 -0.609432 2.503371 0.003622 -0.006103 -355499.000000 1 0 0
-1.776604 -9.209604 7.238619 11.847816 1.380229 0.913515 0.002047 -0.000929 2495200.000000 1 0 0
-7.449504 -7.358804 2.593519 10.787653 0.779273 1.328002 0.006143 -0.002218 -2866060.000000 1 0 0
-5.722104 13.108796 -8.507781 16.642275 -1.159218 2.107394 -0.002716 -0.008022 1694040.000000 1 0 0
9.180796 -13.957804 -4.161281 17.216956 -0.988990 1.814910 0.021119 -0.002795 948133.000000 1 0 0
-6.489904 -5.176304 -6.822981 10.745513 0.673272 2.258754 0.005284 -0.005540 1069370.000000 1 0 0
3.446496 0.336696 -6.125381 7.036475 0.097383 2.627051 0.002751 -0.007791 1555300.000000 1 0 0
-3.678004 5.793696 5.020319 8.502836 -1.005160 0.939206 -0.003194 -0.001131 38790.300000 1 0 0
-2.613104 -10.781504 -2.874081 11.459908 1.333012 1.824297 0.006468 0.000833 1821720.000000 1 0 0
-12.503504 -0.410004 1.803919 12.639614 0.032779 1.427588 -0.002344 -0.005082 -28080.500000 1 0 0
8.315096 -11.982904 -6.010881 15.775345 -0.964167 1.961706 0.011276 -0.004527 -1506460.000000 1 0 0
6.037496 3.915996 1.033719 7.270141 0.575399 1.428126 -0.000389 0.000165 309144.000000 1 0 0
3.440096 -4.834304 -10.960181 12.463159 -0.952327 2.645410 -0.001929 0.001748 -872527.000000 1 0 0
-7.635504 4.194696 8.623119 12.257837 -0.502357 0.790517 -0.003051 -0.000659 1309720.000000 1 0 0
8.145296 8.709096 4.164419 12.630779 0.818837 1.234806 0.003064 -0.001343 6890.790000 1 0 0
0.333896 10.510996 -6.365581 12.292808 1.539041 2.115108 0.004745 0.002746 1566320.000000 1 0 0
5.423196 8.135096 3.368219 10.340974 0.982811 1.239028 0.003060 -0.000046 3202060.000000 1 0 0
8.091996 6.637696 -3.695581 11.099402 0.686985 1.910230 -0.002075 0.000329 914029.000000 1 0 0
10.591096 2.563296 -8.236881 13.659722 0.237458 2.218059 0.004088 0.000235 321521.000000 1 0 0
3.269496 -12.460604 -0.255781 12.884940 -1.314194 1.590649 -0.001275 0.000150 -2175520.000000 1 0 0
0.557996 2.080496 5.325919 5.745018 1.308760 0.384330 -0.001171 -0.000345 257652.000000 1 0 0
-4.874204 13.453896 1.419919 14.379894 -1.223215 1.471892 -0.000312 -0.002022 2073470.000000 1 0 0
8.263096 4.061096 -7.979281 12.183603 0.456803 2.284873 -0.000398 0.000921 937573.000000 1 0 0
-13.763404 -0.599304 -3.638081 14.248722 0.043516 1.828982 -0.005070 -0.006844 -782180.000000 1 0 0
-8.555204 -0.071304 -0.532781 8.572074 0.008334 1.632989 -0.007801 -0.003733 -196650.000000 1 0 0
1.837396 -3.816004 -1.074681 4.369537 -1.122060 1.819294 0.001566 -0.003151 -1131490.000000 1 0 0
8.089096 -5.604804 -0.240381 9.844038 -0.605934 1.595218 0.005926 -0.004107 2650250.000000 1 0 0
-2.389004 -1.242804 7.387719 7.863225 0.479691 0.349547 -0.001480 0.000713 1499020.000000 1 0 0
-5.808404 8.737096 -11.640281 15.670690 -0.984089 2.408048 -0.000732 -0.003735 -1022610.000000 1 0 0
-6.128004 9.146396 -8.794781 14.091031 -0.980496 2.244827 -0.004543 -0.005126 889614.000000 1 0 0
-1.482804 13.943796 -8.420081 16.356219 -1.464853 2.111563 0.008829 -0.002158 -1455550.000000 1 0 0
-1.497204 7.253796 9.723819 12.223413 -1.367252 0.650951 -0.001743 -0.003557 34328.600000 1 0 0
10.052496 2.245896 -3.976381 11.041210 0.219807 1.939214 0.003919 -0.001307 -2317670.000000 1 0 0
-3.056404 -7.616004 -7.033581 10.808163 1.189158 2.279389 0.006397 -0.001507 2113290.000000 1 0 0
-5.471604 -5.006604 -1.630981 7.593724 0.741049 1.787263 0.005669 -0.001320 561363.000000 1 0 0
5.683396 7.342096 -8.713881 12.733384 0.912059 2.324486 -0.000734 -0.000009 -448368.000000 1 0 0
-9.592204 5.214696 -7.550181 13.274361 -0.497946 2.175817 -0.004872 -0.002198 393240.000000 1 0 0
-0.492404 6.072996 -5.288581 8.068012 -1.489892 2.285641 0.005379 -0.001946 -1244680.000000 1 0 0
-8.275904 2.814096 -6.312381 10.782202 -0.327770 2.196225 -0.002972 -0.002889 597500.000000 1 0 0
3.640896 1.370596 -1.983181 4.366653 0.360037 2.042231 0.002556 -0.003091 1411630.000000 1 0 0
-6.780104 12.420396 -3.563881 14.592371 -1.071118 1.817521 0.000749 -0.002072 2487210.000000 1 0 0
-6.599504 3.116496 -2.427181 7.691372 -0.441187 1.891856 -0.003055 -0.002520 -1368710.000000 1 0 0
12.062996 4.009796 -0.705081 12.731515 0.320914 1.626205 -0.003406 0.000974 -1151070.000000 1 0 0
2.363096 12.372996 -5.564981 13.771138 1.382081 1.986796 0.002836 -0.000305 1505790.000000 1 0 0
-9.169804 -1.472104 -4.266081 10.220168 0.159180 2.001398 -0.005981 -0.002403 462727.000000 1 0 0
-1.241504 5.702796 3.502219 6.806523 -1.356440 1.030327 -0.001485 -0.001220 1012400.000000 1 0 0
11.552496 2.719896 11.917719 16.819335 0.231227 0.783323 0.016647 -0.008156 776643.000000 1 0 0
-7.103604 -2.430804 -5.759081 9.462400 0.329703 2.225127 -0.000039 -0.006822 47270.500000 1 0 0
7.576296 -7.366804 10.871619 15.161206 -0.771380 0.771209 0.010455 -0.002028 -598911.000000 1 0 0
-5.473604 -1.965704 -10.819981 12.283986 0.344780 2.648388 0.007781 -0.005516 -898232.000000 1 0 0
0.789996 -6.129604 4.567519 7.684945 -1.442621 0.934344 0.000543 -0.001939 1914650.000000 1 0 0
-4.844004 -9.333104 7.398719 12.857382 1.092054 0.957648 -0.000647 -0.002208 878065.000000 1 0 0
-8.795604 9.316496 1.616219 12.914020 -0.814150 1.445315 -0.005039 -0.001632 1305880.000000 1 0 0
-8.078104 7.165296 -9.048181 14.087824 -0.725587 2.268252 -0.001792 -0.003858 1293430.000000 1 0 0
-1.282004 -10.619904 -0.080081 10.697304 1.450661 1.578282 0.003411 0.001318 798406.000000 1 0 0
-3.888504 10.181696 7.684219 13.335465 -1.205980 0.956695 0.004509 -0.007087 1892480.000000 1 0 0
-7.453104 12.072996 1.919319 14.317464 -1.017727 1.436337 -0.005631 -0.004557 496756.000000 1 0 0
-8.094504 -8.255804 -2.841481 11.906020 0.795263 1.811781 0.009855 -0.003418 952416.000000 1 0 0
5.411296 4.522396 -7.950781 10.627751 0.696152 2.416013 0.001338 0.001384 1435440.000000 1 0 0
-8.952004 -0.167904 -10.217481 13.585414 0.018754 2.422027 0.005385 -0.008392 -1035040.000000 1 0 0
-15.123504 -2.231104 -1.529581 15.363522 0.146469 1.670521 0.004609 -0.009270 -45434.200000 1 0 0
-7.188304 -5.787504 8.769319 12.730588 0.677860 0.810911 0.002816 -0.003665 -262860.000000 1 0 0
8.119696 3.438296 -0.934881 8.867093 0.400558 1.676425 -0.001046 0.001050 1482120.000000 1 0 0
11.882996 7.197496 -5.859681 15.077977 0.544598 1.969935 -0.005686 -0.002619 -429874.000000 1 0 0
3.902496 13.375096 -9.609181 16.925100 1.286904 2.174563 0.005165 -0.007327 292393.000000 1 0 0
-9.735504 5.382096 -0.555381 11.138018 -0.505015 1.620681 -0.003995 -0.002064 561585.000000 1 0 0
11.265896 -1.336204 -5.150581 12.459307 -0.118055 1.996973 0.016608 -0.004471 -1238850.000000 1 0 0
10.604596 1.690796 -1.179381 10.803110 0.158109 1.680185 0.002765 -0.001028 1109470.000000 1 0 0
14.499996 5.015496 4.910019 16.109419 0.333014 1.261076 0.003779 -0.008255 3015450.000000 1 0 0
0.827096 -0.754704 10.420519 10.480500 -0.739665 0.107038 0.002278 0.001004 1956100.000000 1 0 0
-7.942104 1.352896 -12.542081 14.906748 -0.168725 2.570608 0.005008 -0.007816 -700606.000000 1 0 0
3.112696 -11.546504 -7.848081 14.303951 -1.307477 2.151563 -0.007557 0.002483 946731.000000 1 0 0
2.901496 4.998496 -6.689981 8.840785 1.044858 2.429074 0.002092 0.000142 -1195670.000000 1 0 0
6.450696 8.044596 0.562619 10.326836 0.894918 1.516288 0.005001 -0.001795 -505875.000000 1 0 0
-9.125204 -5.495004 6.765019 12.618633 0.542020 1.004970 0.000109 -0.002064 -1469290.000000 1 0 0
-0.312104 -6.791204 -11.894281 13.700065 1.524872 2.622343 0.001677 0.003334 3051770.000000 1 0 0
6.365796 -13.418904 -4.590981 15.545657 -1.127846 1.870589 -0.001004 -0.001049 1490960.000000 1 0 0
-3.282004 -0.323204 10.074719 10.600754 0.098161 0.316349 -0.002772 0.003047 -542989.000000 1 0 0
8.563696 8.475496 6.997719 13.933377 0.780222 1.044624 -0.001162 0.000693 -1216810.000000 1 0 0
-7.906704 5.779596 -2.682681 10.154628 -0.631213 1.838153 -0.003060 -0.003353 147393.000000 1 0 0
-5.340904 5.760796 -6.411981 10.140292 -0.823202 2.255350 0.003247 -0.003828 -587606.000000 1 0 0
3.277696 -13.565104 2.631319 14.201380 -1.333713 1.384433 0.005454 -0.005667 -3090760.000000 1 0 0
-11.305404 -7.049804 6.513719 14.830389 0.557576 1.116072 0.012661 -0.005882 -1015340.000000 1 0 0
-12.839004 -3.803604 -6.835081 15.034153 0.288016 2.042761 0.003005 -0.008295 445140.000000 1 0 0
6.097096 0.366896 -7.321981 9.535229 0.060103 2.446333 0.000378 -0.000693 -58711.900000 1 0 0
-1.504304 2.178996 -2.450481 3.607743 -0.966566 2.317507 0.002412 -0.005546 3332900.000000 1 0 0
7.570796 0.945296 -4.981581 9.111898 0.124218 2.149228 0.003607 -0.001280 272234.000000 1 0 0
3.624496 -4.507104 10.910919 12.349053 -0.893515 0.487423 -0.000376 0.000320 776760.000000 1 0 0
6.080496 -2.588804 2.112019 6.937937 -0.402510 1.261471 0.003478 -0.003217 -771186.000000 1 0 0
-6.362604 7.669996 1.103819 10.026464 -0.878298 1.460482 -0.005230 -0.001510 1813190.000000 1 0 0
6.090996 -3.455504 7.961119 10.602838 -0.516039 0.721451 0.003399 -0.002992 386704.000000 1 0 0
6.724096 -2.260504 -7.826981 10.563379 -0.324310 2.405287 0.002405 -0.002885 629132.000000 1 0 0
12.032496 -8.219504 -5.814681 15.689223 -0.599299 1.950469 0.036449 -0.008139 1949720.000000 1 0 0
5.584396 -9.576804 9.983119 14.918557 -1.042883 0.837699 0.005077 -0.000876 2652240.000000 1 0 0
-6.620504 7.585896 -4.462481 11.013202 -0.853249 1.987987 0.000204 -0.003744 1500290.000000 1 0 0
-1.328704 -7.561804 9.752319 12.411852 1.396859 0.666927 0.002024 -0.001170 -1027990.000000 1 0 0
10.126396 -9.308704 0.761719 13.775924 -0.743350 1.515475 0.010005 -0.001039 420357.000000 1 0 0
11.047896 6.131596 9.699819 15.929186 0.506675 0.916081 0.002972 -0.003637 444051.000000 1 0 0
-15.238704 -4.269604 -4.960681 16.584812 0.273177 1.874556 0.012611 -0.011952 1897520.000000 1 0 0
-4.743404 -4.651504 7.819019 10.260285 0.775617 0.704298 0.000333 -0.002256 -207045.000000 1 0 0
2.976996 10.898696 -11.116981 15.850279 1.304149 2.348120 0.008225 -0.001725 -1801080.000000 1 0 0
9.854696 -1.372004 1.529519 10.066621 -0.138334 1.418266 0.004357 -0.005314 -1647500.000000 1 0 0
-1.627904 -2.542704 0.685319 3.095978 1.001323 1.347590 0.001566 -0.005027 1023550.000000 1 0 0
1.550696 2.998996 0.880119 3.489017 1.093585 1.315787 -0.000511 -0.003172 -317402.000000 1 0 0
-8.957004 -2.420704 4.284219 10.219700 0.263953 1.138219 -0.003831 -0.002193 3811170.000000 1 0 0
10.005396 4.825996 -2.660281 11.422577 0.449419 1.805852 0.000634 0.000381 -17933.500000 1 0 0
2.543896 8.416996 2.527619 9.149103 1.277292 1.290886 0.000254 -0.002641 1504980.000000 1 0 0
-8.106104 -0.108504 2.366619 8.445211 0.013385 1.286760 -0.006739 -0.004189 1415780.000000 1 0 0
7.000796 2.047596 13.695719 15.516975 0.284544 0.489372 0.000664 -0.003896 -1007810.000000 1 0 0
6.771596 4.379896 3.779919 8.906503 0.574125 1.132497 -0.002416 -0.001566 824724.000000 1 0 0
-0.379404 3.473996 7.764419 8.514623 -1.462015 0.422925 -0.005223 -0.000406 -653419.000000 1 0 0
2.696896 -10.253004 9.178619 14.022995 -1.313588 0.857222 0.004062 -0.004519 2297740.000000 1 0 0
1.327596 -4.519804 6.879419 8.337719 -1.285103 0.600424 0.001070 -0.001149 1158370.000000 1 0 0
-0.165804 10.719596 -1.999381 10.905721 -1.555330 1.755172 0.003884 -0.001498 2533830.000000 1 0 0
8.805396 5.543196 7.977619 13.111233 0.561845 0.916682 0.001373 -0.003565 -333593.000000 1 0 0
2.660396 11.415596 -2.905381 12.076207 1.341834 1.813767 0.005213 -0.005892 3326700.000000 1 0 0
1.496496 2.413196 -6.552781 7.141565 1.015706 2.732684 0.005121 -0.005229 1984990.000000 1 0 0
-13.604404 -2.232204 3.611619 14.251538 0.162630 1.314583 0.001967 -0.005052 893028.000000 1 0 0
-0.906104 -10.658904 -5.302781 11.939546 1.485991 2.031006 0.002140 0.002246 1945770.000000 1 0 0
-5.757704 2.892896 0.383219 6.454987 -0.465597 1.511393 -0.002812 -0.003374 851575.000000 1 0 0
3.785596 7.254696 -5.054781 9.618324 1.089851 2.124142 0.001501 -0.000105 -1403800.000000 1 0 0
3.099296 9.791796 -6.501981 12.155684 1.264254 2.135177 0.004834 -0.000044 725708.000000 1 0 0
-12.160604 1.668196 -2.607481 12.548391 -0.136329 1.780116 -0.004158 -0.002938 1104570.000000 1 0 0
-2.507004 9.609196 -5.724081 11.462408 -1.315589 2.093678 0.003882 0.000262 1973160.000000 1 0 0
-1.332204 3.330096 1.750719 3.991155 -1.190247 1.116701 -0.003547 -0.003113 -157891.000000 1 0 0
12.909096 3.796196 9.582619 16.519154 0.286009 0.951955 0.015793 -0.008928 898837.000000 1 0 0
-2.685004 -9.598504 11.588519 15.285101 1.298037 0.710313 0.002043 -0.005856 1000750.000000 1 0 0
-0.505304 -8.966104 -7.574681 11.748283 1.514499 2.271490 0.002102 0.000801 1635380.000000 1 0 0
2.353996 7.617696 -0.483381 7.987756 1.271088 1.631349 0.001457 -0.000753 1116940.000000 1 0 0
-11.814004 -1.402504 -5.606881 13.151989 0.118162 2.011211 -0.004095 -0.001850 -1075030.000000 1 0 0
-6.173404 -7.189104 -10.942281 14.475070 0.861263 2.427885 0.006214 -0.000321 1146250.000000 1 0 0
-4.723604 -2.248304 -1.396881 5.414664 0.444241 1.831728 0.000779 -0.002560 -1037200.000000 1 0 0
-10.479904 3.724296 4.471019 11.987025 -0.341455 1.188569 -0.004993 -0.005737 3403840.000000 1 0 0
6.768796 9.325296 -3.567381 12.062501 0.942929 1.871028 0.000278 0.000960 530273.000000 1 0 0
1.309496 -2.671204 -11.522481 11.900322 -1.114998 2.888927 0.004831 -0.003126 837586.000000 1 0 0
1.315496 8.836096 7.551319 11.697416 1.423004 0.869047 -0.002184 0.000201 911991.000000 1 0 0
10.351796 0.527096 10.346719 14.645549 0.050874 0.786291 0.008317 -0.009542 1439110.000000 1 0 0
-5.311404 -0.934504 -4.008381 6.719481 0.174161 2.209969 -0.000265 -0.007937 -1244600.000000 1 0 0
11.618996 5.653596 5.430919 14.016387 0.452856 1.172911 -0.000681 -0.004315 1892520.000000 1 0 0
9.903096 -3.446104 3.623619 11.094033 -0.334876 1.238063 0.013309 -0.006934 -2317200.000000 1 0 0
7.253996 -1.653004 -3.417581 8.187352 -0.224049 2.001403 0.005243 -0.004311 -2739120.000000 1 0 0
2.410496 9.308396 10.445419 14.197306 1.317403 0.744049 0.002538 -0.000788 1898680.000000 1 0 0
2.335996 -10.868104 6.319119 12.786862 -1.359077 1.053895 0.000302 -0.002429 1871810.000000 1 0 0
5.874096 -7.478904 -1.295181 9.597735 -0.905008 1.706156 -0.000272 -0.002511 794954.000000 1 0 0
-0.273404 -5.565804 -2.329781 6.039934 1.521714 1.966795 0.001291 0.000927 1392340.000000 1 0 0
7.670996 -5.084404 2.716619 9.595591 -0.585327 1.283760 0.004189 -0.004968 706804.000000 1 0 0
-2.630904 -12.510404 4.627119 13.595665 1.363519 1.223520 0.000712 -0.001982 -1135970.000000 1 0 0
4.835496 -10.239404 -1.153481 11.382352 -1.129599 1.672310 -0.001326 -0.002261 1598120.000000 1 0 0
1.001596 0.173696 1.120419 1.512846 0.171711 0.736828 -0.000825 -0.003378 -2742670.000000 1 0 0
-1.681204 8.509596 2.438219 9.010248 -1.375743 1.296775 -0.002774 -0.001839 504158.000000 1 0 0
-7.509004 0.599496 -3.146781 8.163747 -0.079668 1.966500 -0.006141 -0.002130 -1545360.000000 1 0 0
4.426396 -6.356104 12.921819 15.065406 -0.962490 0.539988 0.003503 -0.001278 272006.000000 1 0 0
-5.086704 12.884496 8.342319 16.170315 -1.194787 1.028735 0.012558 -0.013172 3821710.000000 1 0 0
0.574096 6.194796 8.136519 10.242462 1.478386 0.652792 -0.002801 0.001312 22262.400000 1 0 0
7.892396 -0.514604 -0.731481 7.942909 -0.065110 1.663019 0.002394 -0.003819 1870750.000000 1 0 0
2.383196 -9.200204 -2.427681 9.809027 -1.317330 1.820890 -0.004679 0.001329 -373774.000000 1 0 0
-7.185104 12.063396 4.783919 14.833648 -1.033609 1.242422 0.002483 -0.009182 395731.000000 1 0 0
-14.894704 0.246396 0.168519 14.897695 -0.016541 1.559484 0.008974 -0.009710 1613000.000000 1 0 0
6.851596 -0.468604 3.978119 7.936586 -0.068287 1.045767 0.000661 -0.003070 1351450.000000 1 0 0
-4.140204 -5.025204 5.096919 8.268770 0.881658 0.906626 0.002914 -0.003663 -458300.000000 1 0 0
2.875296 5.115396 6.899819 9.057710 1.058721 0.704768 -0.003511 0.000606 -600057.000000 1 0 0
2.063496 -7.159804 1.815919 7.669314 -1.290195 1.331749 0.000203 -0.001389 2488380.000000 1 0 0
-2.498404 6.419996 -1.761281 7.110589 -1.199670 1.821100 0.002884 -0.000581 1712660.000000 1 0 0
2.657396 -3.847304 -6.519581 8.022994 -0.966328 2.519416 -0.001308 -0.002668 -1383400.000000 1 0 0
-5.110804 0.909396 -12.133481 13.197298 -0.176093 2.737326 0.008638 -0.007778 729841.000000 1 0 0
-7.446804 6.408396 -11.899581 15.431217 -0.710591 2.451421 0.000451 -0.004367 2781710.000000 1 0 0
-0.936704 11.190496 -9.021081 14.404322 -1.487286 2.247563 0.002813 0.001029 2107590.000000 1 0 0
4.616896 5.938196 -0.612381 7.546715 0.909932 1.652031 0.002043 -0.000034 1263210.000000 1 0 0
-2.698404 13.350296 3.562119 14.078369 -1.371360 1.314995 0.001236 -0.004668 274492.000000 1 0 0
1.452396 -7.927904 10.138819 12.952096 -1.389605 0.671654 0.001133 -0.000288 -360517.000000 1 0 0
13.004996 -0.332504 -1.081381 13.054113 -0.025562 1.653730 0.008206 -0.003640 403640.000000 1 0 0
-1.135804 3.134796 -5.359581 6.312060 -1.223187 2.585079 0.007893 -0.008269 1585510.000000 1 0 0
6.495296 1.105396 7.249219 9.796017 0.168569 0.737701 0.004012 -0.003481 1489520.000000 1 0 0
5.490696 -6.169504 6.884819 10.752268 -0.843548 0.875890 0.001788 -0.001849 1486100.000000 1 0 0
12.189096 -4.813204 2.546719 13.350160 -0.376083 1.378857 0.013808 -0.004721 656931.000000 1 0 0
4.369896 -9.192804 13.898119 17.226763 -1.127054 0.632123 0.005612 0.001199 676729.000000 1 0 0
-2.729304 -4.240504 -1.402281 5.234250 0.998914 1.842014 0.004677 -0.003962 1446550.000000 1 0 0
-9.253004 -5.223004 -7.590181 13.057898 0.513882 2.191086 0.007522 -0.007826 152664.000000 1 0 0
-10.562704 -3.152604 7.856419 13.536357 0.290049 0.951584 0.000849 -0.003361 453405.000000 1 0 0
12.009296 -0.608704 1.635219 12.135388 -0.050643 1.435637 0.010008 -0.007216 418205.000000 1 0 0
-7.561004 4.694696 4.362119 9.911460 -0.555652 1.115077 -0.005084 -0.003864 2164650.000000 1 0 0
-1.043704 10.538396 6.900019 12.639516 -1.472080 0.993323 -0.001948 -0.001571 79315.800000 1 0 0
7.388396 -9.889704 1.874019 12.486256 -0.929167 1.420141 0.006535 -0.002857 2748140.000000 1 0 0
-4.377804 -1.673704 1.655619 4.970667 0.365169 1.231230 -0.004157 -0.002492 1372560.000000 1 0 0
6.719496 -14.920104 -0.844781 16.385201 -1.147639 1.622377 0.013248 -0.000635 -1579720.000000 1 0 0
-10.359804 1.689196 2.325119 10.751051 -0.161630 1.352805 -0.007788 -0.002439 -1336310.000000 1 0 0
-2.952004 8.261896 -11.390481 14.377632 -1.227630 2.485261 0.000237 -0.001123 90849.300000 1 0 0
-1.365804 -5.197204 -6.936481 8.774458 1.313811 2.482472 -0.000131 -0.003158 -238695.000000 1 0 0
12.849196 -0.473904 6.496219 14.405807 -0.036865 1.102973 0.016711 -0.012305 3338560.000000 1 0 0
5.974396 -13.274504 3.726219 15.026330 -1.147888 1.320202 0.007065 -0.001440 1560290.000000 1 0 0
-5.606804 3.423996 -5.021881 8.269177 -0.548240 2.223455 0.001420 -0.005910 970982.000000 1 0 0
-4.506304 8.056696 3.353419 9.821534 -1.060823 1.222353 -0.002035 -0.002566 -755183.000000 1 0 0
13.999396 6.131296 -4.030281 15.805665 0.412804 1.828633 0.002688 0.001085 553863.000000 1 0 0
-6.708104 -8.467204 5.286919 12.026792 0.900802 1.115648 0.005155 -0.001537 1426730.000000 1 0 0
1.629796 11.335296 2.654819 11.755561 1.427994 1.342996 0.000197 -0.004191 1725660.000000 1 0 0
-7.368604 7.161996 5.998019 11.898182 -0.771180 1.042443 -0.001418 -0.007562 -104615.000000 1 0 0
-17.476704 -4.040404 5.184219 18.671802 0.227196 1.289450 0.037487 -0.009695 -1610520.000000 1 0 0
7.465896 -13.024104 -8.492181 17.247725 -1.050288 2.085601 0.013006 -0.004074 -1253130.000000 1 0 0
-2.306804 12.810996 -2.751981 13.304749 -1.392641 1.779142 0.001476 0.002292 251435.000000 1 0 0
-5.513404 13.894596 -5.801481 16.034793 -1.193050 1.941000 0.009154 -0.002198 3056540.000000 1 0 0
-5.592804 2.433396 7.387919 9.580304 -0.410389 0.690140 -0.004842 -0.001676 1641070.000000 1 0 0
-7.458304 5.045296 1.449019 9.120360 -0.594757 1.411243 -0.005726 -0.001869 1822040.000000 1 0 0
10.728496 -5.701704 -5.025581 13.147871 -0.488493 1.963010 0.021958 -0.005039 3443180.000000 1 0 0
-9.439204 -0.837804 6.792619 11.659338 0.088526 0.948884 -0.005506 -0.002698 1501930.000000 1 0 0
-11.206104 -4.575504 -2.615581 12.383589 0.387645 1.783613 -0.005806 -0.005484 1250680.000000 1 0 0
6.533696 -4.305904 13.551119 15.648094 -0.582697 0.523666 0.001955 -0.004665 209986.000000 1 0 0
0.274296 10.305896 -11.698181 15.592760 1.544187 2.419209 0.003716 0.001764 -554585.000000 1 0 0
-11.737004 -3.124704 1.492219 12.237147 0.260192 1.448550 -0.004273 -0.003043 2951880.000000 1 0 0
5.205496 5.907496 5.420619 9.559226 0.848484 0.967869 -0.000100 0.000228 -4240760.000000 1 0 0
-7.058504 0.001796 8.129319 10.766072 -0.000254 0.715010 -0.003801 0.000089 -148919.000000 1 0 0
1.632996 2.210296 9.695819 10.077747 0.934493 0.276188 0.001600 -0.000680 2711420.000000 1 0 0
10.477196 -4.880804 -2.081681 11.744245 -0.435957 1.748989 0.008531 -0.005102 1451270.000000 1 0 0
-9.667304 -2.324704 -1.668681 10.081940 0.235990 1.737073 -0.005184 -0.002241 765822.000000 1 0 0
-1.983404 -5.160604 -9.967981 11.398525 1.203866 2.635195 0.004965 -0.003555 -1318130.000000 1 0 0
7.659196 -1.564004 6.591819 10.225531 -0.201430 0.870240 0.005835 -0.005115 3067950.000000 1 0 0
1.485896 -11.893004 -2.570281 12.257968 -1.446502 1.782046 -0.001755 0.003214 -2924370.000000 1 0 0
-0.729904 -1.504604 4.833919 5.115014 1.119129 0.333064 -0.000206 -0.001441 2080150.000000 1 0 0
7.611996 1.565296 9.850119 12.546612 0.202808 0.667968 0.001916 -0.005651 1657090.000000 1 0 0
-3.792704 10.765596 -7.991381 13.933586 -1.232075 2.181609 0.001869 0.000422 3619850.000000 1 0 0
-9.560904 12.639596 6.288819 17.050499 -0.923196 1.193041 -0.000576 -0.011071 69288.600000 1 0 0
-2.513004 -2.298104 -11.089581 11.600658 0.740760 2.843656 0.007431 -0.008017 -638476.000000 1 0 0
1.097996 -11.899304 11.052219 16.277303 -1.478783 0.824403 -0.004355 0.002773 1949800.000000 1 0 0
1.384496 3.415296 -1.977281 4.182190 1.185660 2.063246 0.001845 -0.002252 2459940.000000 1 0 0
-1.965904 -9.397304 -12.114081 15.457201 1.364572 2.471425 0.008024 0.004629 1995020.000000 1 0 0
1.300596 -2.649904 1.585419 3.350686 -1.114529 1.077919 0.003875 -0.003752 2442140.000000 1 0 0
-1.098104 -2.268304 -6.586981 7.052613 1.119943 2.776183 0.004083 -0.008325 -200178.000000 1 0 0
1.733996 5.837996 4.134019 7.360642 1.282077 0.974432 -0.005920 0.001090 -479754.000000 1 0 0
-10.916204 8.546696 3.627319 14.330630 -0.664249 1.314896 -0.010863 -0.008728 1955630.000000 1 0 0
-16.336104 -1.487904 3.972719 16.877934 0.090830 1.333187 0.023966 -0.008200 -70746.200000 1 0 0
-12.173804 0.256396 6.714219 13.904963 -0.021058 1.066873 -0.002067 -0.004707 588033.000000 1 0 0
-5.069304 3.035796 4.625319 7.503831 -0.539580 0.906641 -0.005979 -0.000998 1485730.000000 1 0 0
5.151596 -6.012504 4.022419 8.880822 -0.862360 1.100744 0.002057 -0.004148 1882040.000000 1 0 0
9.889596 3.383596 6.292819 12.200508 0.329653 1.028875 0.001414 -0.001640 -223967.000000 1 0 0
-12.098504 5.859596 3.162019 13.809671 -0.451028 1.339775 -0.002756 -0.006083 1069670.000000 1 0 0
-4.940304 12.364196 -1.342681 13.382179 -1.190665 1.671299 -0.001244 0.002394 2285790.000000 1 0 0
-1.784504 -12.182504 10.298419 16.051645 1.425350 0.874240 0.009360 -0.003572 1296530.000000 1 0 0
5.217396 6.367296 13.947419 16.195499 0.884334 0.533188 0.012072 -0.001276 1256950.000000 1 0 0
12.926496 -3.728604 -5.965981 14.716987 -0.280824 1.988191 0.018972 -0.002492 1720800.000000 1 0 0
3.560396 -2.509504 6.474619 7.803507 -0.613966 0.592215 0.000586 -0.000070 845456.000000 1 0 0
7.198896 -11.803504 -0.617281 13.839359 -1.023133 1.615414 0.006091 0.000378 -579482.000000 1 0 0
-6.008804 -6.582004 -4.152281 9.832087 0.830892 2.006799 0.007424 -0.003546 434001.000000 1 0 0
0.262896 -8.858704 5.086019 10.218285 -1.541128 1.049809 0.003297 -0.003262 1456630.000000 1 0 0
-10.218804 2.412996 -0.526081 10.513005 -0.231885 1.620858 -0.006977 -0.001912 -1618000.000000 1 0 0
-1.871104 8.926096 -0.347681 9.126724 -1.364166 1.608900 0.002480 -0.000634 1378890.000000 1 0 0
-3.533404 2.297396 -6.707981 7.922119 -0.576511 2.580625 0.008403 -0.010492 -542328.000000 1 0 0
-12.737104 3.043296 6.341819 14.550400 -0.234534 1.119812 0.001067 -0.007202 -325525.000000 1 0 0
11.413396 1.677596 7.906719 13.985569 0.145940 0.969941 0.011267 -0.012984 -3375110.000000 1 0 0
6.007196 2.619096 -3.135781 7.264928 0.411145 2.017098 0.002186 -0.001955 2120660.000000 1 0 0
10.446896 -2.382304 6.387419 12.474459 -0.224206 1.033239 0.015312 -0.007701 3080490.000000 1 0 0
-1.006704 10.900496 4.036319 11.667310 -1.478704 1.217544 0.000835 -0.002850 998541.000000 1 0 0
-1.588504 -12.226504 7.397519 14.378249 1.441597 1.030379 -0.001893 -0.000784 -1214970.000000 1 0 0
8.122196 8.588096 -7.696281 14.105254 0.813272 2.147940 0.000488 -0.003757 2360480.000000 1 0 0
-4.658204 -5.952804 -8.793781 11.595918 0.906804 2.431577 0.003537 -0.003544 647154.000000 1 0 0
-8.473804 -5.339904 -11.658381 15.370028 0.562306 2.431826 0.008967 -0.001638 3152040.000000 1 0 0
6.069896 -0.717204 -9.963881 11.689180 -0.117612 2.591358 0.001176 -0.000035 475366.000000 1 0 0
-11.123704 -5.552004 -5.409681 13.558252 0.462939 1.981217 -0.001746 -0.009793 -196208.000000 1 0 0
3.886796 8.878496 -2.792881 10.086379 1.158154 1.851359 0.004907 -0.002757 1313450.000000 1 0 0
11.639596 -10.443304 -3.934881 16.125324 -0.731278 1.817304 0.030198 -0.007708 3453.850000 1 0 0
4.046596 -11.265504 3.951519 12.605595 -1.225947 1.251948 0.000494 -0.003104 233312.000000 1 0 0
-1.013904 0.832896 3.174519 3.435009 -0.687698 0.391949 -0.000063 -0.002115 -2053010.000000 1 0 0
-10.624404 -5.139004 4.510919 12.634703 0.450521 1.205714 0.003835 -0.005094 2991350.000000 1 0 0
4.577196 -8.621104 2.766319 10.145279 -1.082713 1.294629 0.001397 -0.003126 4428930.000000 1 0 0
-3.717104 -5.733704 2.521319 7.283494 0.995624 1.217312 0.002309 -0.000699 3774040.000000 1 0 0
10.062896 5.111296 12.262319 16.665884 0.469975 0.743988 0.014393 -0.002691 -773756.000000 1 0 0
1.710296 -12.318604 -5.270181 13.507329 -1.432840 1.971615 -0.003857 0.002549 1918300.000000 1 0 0
9.853596 -10.825504 -1.666681 14.733049 -0.832363 1.684164 0.012962 -0.004621 995681.000000 1 0 0
9.572396 -4.455604 -9.152281 13.973096 -0.435639 2.284970 0.022559 -0.004478 1492540.000000 1 0 0
-7.347904 -3.097504 -13.060781 15.302621 0.398944 2.593461 0.007409 -0.003307 3282960.000000 1 0 0
0.378196 6.203996 -2.447681 6.680100 1.509912 1.945948 0.002469 -0.001202 1259890.000000 1 0 0
-6.061604 -9.493804 1.040119 11.311817 1.002562 1.478716 0.000365 0.001108 88002.800000 1 0 0
-8.954504 -4.072304 0.561719 9.853037 0.426820 1.513756 -0.005190 -0.001609 1878130.000000 1 0 0
1.783296 3.932296 12.128619 12.874257 1.145036 0.342008 0.004647 -0.002252 958063.000000 1 0 0
6.703596 4.343196 9.573519 12.468112 0.574891 0.695333 0.003932 -0.000226 3372470.000000 1 0 0
-8.346904 9.822796 -3.676181 13.404194 -0.866448 1.848612 -0.003437 -0.002661 2683290.000000 1 0 0
16.364296 2.127196 -6.042781 17.573569 0.129265 1.921817 0.005034 0.009218 -1654750.000000 1 0 0
-10.909604 2.659896 -5.079581 12.324636 -0.239147 1.995607 -0.006674 0.000467 952050.000000 1 0 0
-13.625004 4.040096 1.490619 14.289334 -0.288262 1.466289 0.000921 -0.003553 -628124.000000 1 0 0
-17.482804 10.496096 3.367119 20.667703 -0.540689 1.407150 0.053771 -0.016433 -305575.000000 1 0 0
-14.301004 2.877596 -1.193581 14.636390 -0.198565 1.652436 0.005073 -0.005313 617050.000000 1 0 0
-14.382104 5.164996 5.083519 16.104790 -0.344782 1.249652 0.010159 -0.008885 119132.000000 1 0 0
-17.417004 7.614296 3.154719 19.268674 -0.412138 1.406333 0.035149 -0.013592 -2937630.000000 1 0 0
-15.022204 12.530796 -3.454181 19.865015 -0.695221 1.745567 0.047087 -0.012332 -1971080.000000 1 0 0
-8.445204 12.447096 -9.557781 17.821415 -0.974654 2.136854 0.002382 -0.017773 -234436.000000 1 0 0
-12.285304 8.842696 -9.873281 18.072178 -0.623877 2.148766 0.014022 -0.009504 -1293500.000000 1 0 0
-13.861004 -3.626604 -12.186381 18.809242 0.255904 2.275612 0.014055 -0.002950 -974710.000000 1 0 0
-14.801504 5.685996 -7.651081 17.605513 -0.366768 2.020373 0.025474 -0.002905 768349.000000 1 0 0
-10.692304 13.515496 -8.242381 19.103163 -0.901497 2.016914 0.012892 -0.022036 507042.000000 1 0 0
-10.938504 13.489696 3.842519 17.787291 -0.889457 1.353054 0.001626 -0.008789 -738380.000000 1 0 0
-15.130904 3.316596 3.037219 15.785080 -0.215781 1.377178 0.010492 -0.006380 1098750.000000 1 0 0
-10.974504 9.383196 -12.464981 19.075111 -0.707389 2.282954 0.004081 -0.005145 -1041070.000000 1 0 0
-12.853604 11.625396 -9.096581 19.573266 -0.735266 2.054143 0.019092 -0.019874 -187362.000000 1 0 0
-8.849604 14.610996 -3.563081 17.449706 -1.026210 1.776434 0.000360 -0.010366 294056.000000 1 0 0
-16.739204 8.104096 -4.077681 19.039559 -0.450878 1.786637 0.038025 -0.005358 -130151.000000 1 0 0
-16.954904 6.638396 0.343419 18.211398 -0.373186 1.551938 0.029034 -0.003172 201874.000000 1 0 0
-10.489504 2.789096 -12.477681 16.537874 -0.259881 2.425675 0.005295 -0.003305 1455920.000000 1 0 0
-16.851004 0.942596 2.320419 17.036114 -0.055879 1.434166 0.025318 -0.011391 181795.000000 1 0 0
-12.595504 1.142996 -6.952881 14.432453 -0.090498 2.073451 -0.003363 -0.003342 1605130.000000 1 0 0
-12.486304 9.118196 -5.421981 16.384357 -0.630745 1.908079 0.014165 -0.006599 -1266790.000000 1 0 0
-9.670704 13.954796 1.148919 17.017016 -0.964782 1.503229 0.001219 -0.006636 1618690.000000 1 0 0
-12.190804 11.052996 2.663719 16.669727 -0.736486 1.410315 -0.000449 -0.008610 -678152.000000 1 0 0
-12.577304 6.819696 -3.700081 14.777937 -0.496852 1.823868 0.001703 -0.002303 217336.000000 1 0 0
-15.842004 3.644396 -9.302381 18.729255 -0.226112 2.090562 0.020219 -0.004090 -2166040.000000 1 0 0
-15.104404 5.769096 -4.739381 16.848953 -0.364848 1.855931 0.015770 -0.001511 1546520.000000 1 0 0
-17.818904 5.289396 7.423919 20.015135 -0.288557 1.190802 0.027635 -0.018841 -628804.000000 1 0 0
-15.660004 10.059396 -2.086681 18.729159 -0.570987 1.682442 0.030856 -0.007598 -989287.000000 1 0 0
-8.771004 9.887296 -8.314381 15.614674 -0.845155 2.132315 0.002123 -0.007078 1122890.000000 1 0 0
-16.991304 4.135996 -1.263481 17.533033 -0.238775 1.642922 0.019213 -0.003244 -759558.000000 1 0 0
-10.221004 5.452496 -4.601381 12.464804 -0.490056 1.948890 -0.002739 -0.000321 879393.000000 1 0 0
-18.250404 2.717696 6.166819 19.454891 -0.147825 1.248252 0.048207 -0.018960 -221386.000000 1 0 0
-10.456504 10.062496 -5.789081 15.623884 -0.766198 1.950373 0.002838 -0.009019 909064.000000 1 0 0
-15.295604 0.360896 -5.841581 16.377112 -0.023590 1.935521 -0.000486 -0.001700 -258897.000000 1 0 0
-16.335404 -4.182604 -8.817881 19.028784 0.250660 2.052621 0.017917 -0.013869 -1713820.000000 1 0 0
-10.033104 9.595696 -1.149581 13.930617 -0.763118 1.653412 -0.006671 -0.000260 1199830.000000 1 0 0
-17.313504 -3.044904 -3.204181 17.868845 0.174088 1.751088 0.021592 -0.012661 -1188080.000000 1 0 0
-11.950904 5.115796 -11.595281 17.419702 -0.404466 2.299150 0.012190 0.001247 -128340.000000 1 0 0
-16.247304 7.153896 5.886919 18.703180 -0.414769 1.250598 0.022748 -0.013892 298467.000000 1 0 0
-12.155804 6.063696 -8.882281 16.230431 -0.462712 2.149884 0.010991 -0.000204 1865560.000000 1 0 0
-14.483904 8.290896 -0.025581 16.689011 -0.519894 1.572329 0.019231 -0.004257 2761210.000000 1 0 0
-14.902504 11.817096 3.829319 19.400826 -0.670434 1.372113 0.014560 -0.019407 810175.000000 1 0 0
-17.288204 4.078696 -4.054381 18.219653 -0.231687 1.795203 0.023178 -0.003418 -1306870.000000 1 0 0
-13.747104 13.459396 -0.970181 19.263423 -0.774824 1.621182 0.028734 -0.003937 -1051580.000000 1 0 0
-10.026204 6.734496 -13.130381 17.840546 -0.591472 2.397917 -0.000771 -0.003029 1430850.000000 1 0 0
-15.763404 -1.214704 -8.337581 17.873882 0.076907 2.056089 -0.001464 -0.005543 -264043.000000 1 0 0
-11.507604 11.916096 -0.145781 16.566217 -0.802836 1.579596 0.007372 -0.005630 215853.000000 1 0 0
-11.932604 7.316396 -0.946181 14.028968 -0.550028 1.638292 -0.002397 0.001239 909444.000000 1 0 0
-11.477104 0.115196 -11.722181 16.405691 -0.010037 2.366733 0.005957 -0.005833 -194284.000000 1 0 0
-19.046804 -1.300104 -4.795881 19.684295 0.068153 1.816913 0.025939 -0.012758 -2233560.000000 1 0 0
-17.903304 1.388396 -5.094181 18.665653 -0.077395 1.847221 0.016156 -0.008332 -1364890.000000 1 0 0
-13.243804 -0.181104 -9.531381 16.318038 0.013674 2.194568 0.001462 -0.006718 -376852.000000 1 0 0
-6.019204 11.118996 -13.104481 18.209621 -1.074623 2.374089 -0.018812 -0.002850 -3979940.000000 1 0 0
16.247496 5.840796 7.123619 18.677312 0.345103 1.179481 0.018314 -0.010968 -186682.000000 1 0 0
14.781696 10.132396 -5.407781 18.719190 0.600907 1.863863 0.021810 -0.010037 1367420.000000 1 0 0
2.408096 16.848196 4.345219 17.565351 1.428829 1.320827 0.014464 -0.012605 2075570.000000 1 0 0
-3.755404 18.202896 -5.825881 19.477920 -1.367343 1.874548 0.000129 -0.009582 678704.000000 1 0 0
5.396096 14.582896 5.654319 16.545393 1.216391 1.222022 0.010589 -0.008302 -139930.000000 1 0 0
10.029996 6.015696 15.049919 19.060154 0.540251 0.660638 0.027181 0.000968 -1064490.000000 1 0 0
4.702896 12.730996 -1.057981 13.613038 1.216940 1.648593 0.002202 -0.005549 1919510.000000 1 0 0
3.574596 13.782896 13.008319 19.286325 1.317037 0.830531 0.015497 -0.006787 -605783.000000 1 0 0
-0.728104 12.363196 9.047619 15.337475 -1.511971 0.939858 0.004494 -0.005103 256429.000000 1 0 0
-7.796504 13.815396 8.282119 17.895366 -1.057014 1.089636 0.012711 -0.020011 1620300.000000 1 0 0
11.413496 12.773296 -4.211481 17.639772 0.841560 1.811874 0.017270 -0.008739 1398970.000000 1 0 0
-5.816504 16.199796 0.914319 17.236620 -1.226084 1.517726 0.000999 0.001005 2267240.000000 1 0 0
3.320296 10.595696 6.677719 12.957047 1.267126 1.029353 -0.003306 0.002097 345395.000000 1 0 0
-1.207404 15.510496 2.485219 15.754670 -1.493109 1.412390 0.003715 -0.008635 -1548880.000000 1 0 0
9.881296 8.854996 9.520719 16.330801 0.730677 0.948390 0.002993 0.001811 2018150.000000 1 0 0
7.252396 12.272496 6.234119 15.558780 1.037060 1.158536 0.009781 -0.004195 1518990.000000 1 0 0
11.788596 13.914596 -1.566781 18.304146 0.867924 1.656498 0.016101 -0.001844 -1524340.000000 1 0 0
9.697896 15.894396 -1.255781 18.661671 1.022950 1.638139 0.009781 -0.002823 784162.000000 1 0 0
10.145996 13.758296 2.985119 17.353468 0.935379 1.397918 0.012447 -0.002979 1676280.000000 1 0 0
-6.048404 14.439996 6.179719 16.831090 -1.174134 1.194841 0.000581 -0.013217 572397.000000 1 0 0
-0.814904 18.139096 -6.261181 19.206594 -1.525901 1.902856 0.019083 -0.003150 1728020.000000 1 0 0
-3.534604 15.692296 5.371019 16.958461 -1.349249 1.248531 0.003055 -0.008880 2905020.000000 1 0 0
7.113596 12.261196 10.662519 17.737798 1.045084 0.925896 0.007846 0.001976 3754660.000000 1 0 0
1.472396 14.573496 6.124119 15.876384 1.470106 1.174789 0.001944 -0.006667 329535.000000 1 0 0
17.335896 7.771896 -1.302581 19.042909 0.421450 1.639252 0.012292 0.007952 -437646.000000 1 0 0
2.183396 16.189396 -3.418581 16.689830 1.436739 1.777087 0.002015 -0.008417 1389000.000000 1 0 0
6.724396 11.171296 0.637919 13.054589 1.028955 1.521911 0.006646 -0.002173 2136500.000000 1 0 0
12.745196 9.289696 3.237919 16.100391 0.629846 1.368307 0.001559 0.001606 -2498590.000000 1 0 0
6.057496 14.333496 -3.370781 15.921825 1.170951 1.784119 -0.000524 -0.002829 263927.000000 1 0 0
3.066896 16.515596 1.422119 16.858030 1.387191 1.486337 0.009839 -0.014888 -1161220.000000 1 0 0
2.789996 18.870996 -2.563181 19.247557 1.424014 1.704362 0.008372 -0.016123 162973.000000 1 0 0
3.972096 12.000696 10.663919 16.538241 1.251157 0.870030 0.007994 -0.004206 2841390.000000 1 0 0
8.125696 11.554596 3.409119 14.531267 0.957897 1.333983 0.005708 -0.001017 1872830.000000 1 0 0
0.727496 12.457996 0.121719 12.479812 1.512467 1.561043 0.004305 -0.004504 -2417330.000000 1 0 0
11.880996 9.852496 -4.677681 16.127939 0.692333 1.865061 0.003826 -0.002234 -206648.000000 1 0 0
-1.278004 16.410396 9.903819 19.209894 -1.493075 1.029137 0.012308 -0.001351 369369.000000 1 0 0
8.260996 14.777396 -8.049181 18.745794 1.061047 2.014609 0.015241 -0.005538 1933260.000000 1 0 0
14.401296 7.627696 -1.363081 16.353503 0.487088 1.654244 -0.004087 0.004999 1813190.000000 1 0 0
12.482696 8.340596 6.040019 16.182245 0.589044 1.188287 -0.000768 -0.002763 -1660830.000000 1 0 0
-3.053704 14.199696 10.028119 17.649919 -1.358968 0.966518 0.016697 -0.011029 2363380.000000 1 0 0
-4.564604 17.176796 -3.153981 18.050637 -1.311057 1.746427 0.005421 -0.006585 4199.410000 1 0 0
-7.027504 16.409296 -1.792381 17.940552 -1.166165 1.670870 -0.000874 -0.006091 1392740.000000 1 0 0
8.331296 11.284996 -1.836181 14.146843 0.934849 1.700958 0.005500 -0.001043 -1239650.000000 1 0 0
8.555796 12.926496 -4.150781 16.047583 0.986115 1.832425 0.010322 -0.004103 2444880.000000 1 0 0
2.675196 14.820596 -7.388981 16.775093 1.392214 2.026922 -0.000101 -0.004139 258110.000000 1 0 0
11.325696 11.376296 9.747419 18.780407 0.787627 1.025092 0.015585 -0.001119 184670.000000 1 0 0
8.616996 15.737496 1.388219 17.995792 1.069839 1.493578 0.009364 -0.004130 828149.000000 1 0 0
6.057896 9.939596 7.756919 13.987976 1.023442 0.982984 0.001977 0.005183 1535810.000000 1 0 0
14.416096 11.409996 2.708819 18.583582 0.669522 1.424511 0.015491 -0.000994 1309960.000000 1 0 0
12.152596 12.647796 1.127519 17.576223 0.805363 1.506602 0.013630 0.000816 1953070.000000 1 0 0
5.147496 15.937496 8.177419 18.637883 1.258392 1.116586 0.015392 -0.001975 -1934810.000000 1 0 0
11.611596 15.081096 5.100219 19.704843 0.914653 1.308985 0.026188 -0.001362 -58757.300000 1 0 0
5.945096 16.864496 1.672919 17.959789 1.231877 1.477513 0.006209 -0.015570 1048200.000000 1 0 0
-0.616304 16.035396 -4.218281 16.592397 -1.532381 1.827848 0.008566 -0.009109 727889.000000 1 0 0
15.921096 6.493696 2.639419 17.395859 0.387270 1.418481 -0.001703 0.000326 -511951.000000 1 0 0
7.661696 16.751996 -3.160681 18.690127 1.141839 1.740723 0.005384 -0.004709 -798779.000000 1 0 0
14.766496 8.246496 7.458619 18.484726 0.509315 1.155456 0.013109 -0.005720 -309468.000000 1 0 0
2.130196 12.923996 8.488719 15.608515 1.407440 0.995776 0.003962 -0.003845 1565530.000000 1 0 0
15.979596 7.429996 -5.753581 18.537961 0.435231 1.886376 0.008757 0.003754 -913491.000000 1 0 0
-2.975804 17.028396 0.674919 17.299629 -1.397788 1.531773 0.004366 -0.005500 -172393.000000 1 0 0
-2.953004 18.521496 4.438919 19.273558 -1.412690 1.338399 0.006489 -0.011225 396341.000000 1 0 0
-0.763404 19.016596 0.798019 19.048636 -1.530674 1.528890 0.007193 -0.012943 -89670.400000 1 0 0
7.048896 16.688296 -6.089181 19.111888 1.171142 1.895056 0.008447 -0.005522 1317000.000000 1 0 0
10.987596 10.055796 0.850319 14.918758 0.741147 1.513769 -0.002598 0.002496 -1227040.000000 1 0 0
9.264196 8.785296 14.259619 19.140102 0.758872 0.730242 0.029476 -0.000712 1166970.000000 1 0 0
6.479596 12.395996 -8.401081 16.316373 1.089141 2.111672 0.013869 -0.009578 2022250.000000 1 0 0
6.424696 9.012896 13.373319 17.359570 0.951509 0.691373 0.019502 -0.003969 709041.000000 1 0 0
16.645596 9.471696 2.961219 19.379311 0.517329 1.417392 0.018616 0.000060 -551004.000000 1 0 0
2.520196 14.645896 -0.811381 14.883279 1.400390 1.625340 0.000627 -0.009914 540194.000000 1 0 0
9.132896 12.868196 8.302719 17.830743 0.953572 1.086438 0.014327 -0.006944 923750.000000 1 0 0
7.251796 9.420596 10.547819 15.893164 0.914755 0.845082 0.006465 -0.000235 1285050.000000 1 0 0
4.411096 15.747996 -5.305181 17.193082 1.297690 1.884480 0.002990 -0.008846 839785.000000 1 0 0
0.300496 16.268796 -8.247281 18.242304 1.552328 2.039911 0.008563 -0.002214 -217353.000000 1 0 0
-2.332004 15.663596 -1.995381 15.961454 -1.423001 1.696137 -0.000127 -0.002653 -964770.000000 1 0 0
13.267696 10.531896 7.616719 18.573287 0.670949 1.148244 0.016090 -0.006969 1411450.000000 1 0 0
-1.005804 15.899796 6.978519 17.392955 -1.507622 1.157941 0.007697 -0.006604 3083210.000000 1 0 0
13.319296 13.324296 6.641219 19.976143 0.785586 1.231888 0.023479 -0.010346 -1636120.000000 1 0 0
5.416496 17.370596 4.483819 18.739815 1.268531 1.329185 0.018000 -0.011329 1070590.000000 1 0 0
10.788396 9.526196 -1.850481 14.510760 0.723345 1.698669 -0.003774 0.004822 -21581.000000 1 0 0
3.202996 12.758896 4.656719 13.954699 1.324839 1.230568 0.000256 -0.001463 -107120.000000 1 0 0
-0.186504 17.969196 3.544319 18.316358 -1.560418 1.376062 0.006939 -0.012994 3022210.000000 1 0 0
-7.614904 15.921496 -5.921381 18.615680 -1.124677 1.894506 0.017710 -0.015512 300151.000000 1 0 0
-12.547104 -9.109104 8.186219 17.533391 0.627958 1.085022 0.026608 -0.011284 -134726.000000 1 0 0
-13.297804 -11.734104 6.761219 18.979855 0.723011 1.206565 0.028389 -0.010732 -708464.000000 1 0 0
-6.481604 -12.195404 12.405019 18.564040 1.082284 0.838971 0.018358 -0.008836 -1214930.000000 1 0 0
-1.878004 -10.685704 14.344719 17.985610 1.396824 0.647546 0.002083 -0.005655 658234.000000 1 0 0
-8.822504 2.818896 11.023119 14.397636 -0.309260 0.698792 -0.000218 -0.002321 2651450.000000 1 0 0
0.427796 10.063296 15.110119 18.159533 1.528311 0.587955 0.014936 -0.012311 -396351.000000 1 0 0
0.987596 -6.747504 16.633319 17.976971 -1.425464 0.389084 0.005384 -0.008303 1402910.000000 1 0 0
6.097496 2.375996 17.644419 18.818883 0.371567 0.355159 0.011232 -0.012196 1162690.000000 1 0 0
-5.189104 -2.943004 17.739419 18.715637 0.515915 0.324408 0.023043 -0.012509 940382.000000 1 0 0
-4.411104 8.178296 12.961819 15.948389 -1.076153 0.621965 0.001995 -0.000841 563127.000000 1 0 0
0.022296 -4.846004 18.633419 19.253274 -1.566195 0.254437 0.009962 -0.017322 718587.000000 1 0 0
-11.630504 2.055996 11.135319 16.232408 -0.174969 0.814829 0.007746 -0.004579 75755.100000 1 0 0
-3.443304 -6.068204 14.380219 15.983434 1.054667 0.451725 0.009989 -0.005320 2103270.000000 1 0 0
-7.470904 -2.187604 14.597119 16.543153 0.284854 0.489929 0.012868 -0.005273 1341700.000000 1 0 0
-6.097204 -1.073004 10.625719 12.297689 0.174199 0.527552 0.000460 -0.001149 867396.000000 1 0 0
-3.989004 2.455896 11.200019 12.140182 -0.551859 0.396139 -0.004406 0.003091 153830.000000 1 0 0
-6.526104 6.288396 13.516619 16.273689 -0.766850 0.590646 -0.003569 0.001705 1365190.000000 1 0 0
-9.060104 5.468396 12.490919 16.371069 -0.543039 0.702874 0.000788 -0.002440 157248.000000 1 0 0
-12.309104 -2.182104 15.804119 20.150578 0.175453 0.669228 0.024552 -0.007343 396804.000000 1 0 0
-3.414204 -7.619104 16.996319 18.936272 1.149514 0.456607 0.018551 -0.007304 312484.000000 1 0 0
-0.577804 -5.241604 14.517119 15.445227 1.461005 0.348430 0.001383 0.000330 2235290.000000 1 0 0
-14.291804 -2.120304 13.589619 19.835047 0.147284 0.816012 0.017614 -0.005576 -345718.000000 1 0 0
-6.483604 1.465696 12.215319 13.906812 -0.222325 0.498356 0.001876 -0.001780 1042980.000000 1 0 0
2.221796 -2.201504 14.566419 14.898442 -0.780811 0.211514 0.002767 -0.001537 142502.000000 1 0 0
-12.653204 3.922896 9.062219 16.050436 -0.300635 0.970837 0.002203 -0.004577 -104779.000000 1 0 0
-9.091804 -2.919704 12.577419 15.791677 0.310733 0.649380 0.003075 -0.000537 2148090.000000 1 0 0
-7.121304 -7.220104 15.331819 18.382262 0.792287 0.584379 0.027777 -0.009540 80396.900000 1 0 0
-3.166604 6.255496 19.392519 20.621067 -1.102192 0.346925 0.016369 -0.008283 220786.000000 1 0 0
0.599096 5.484096 16.248219 17.159221 1.461985 0.327315 0.014946 -0.008745 834225.000000 1 0 0
3.372596 1.461896 16.774619 17.172635 0.409017 0.215719 0.002740 -0.008176 3876530.000000 1 0 0
-11.722504 11.314596 7.692619 18.017035 -0.767693 1.129664 0.007249 -0.022369 -601815.000000 1 0 0
0.540296 -9.431504 15.418919 18.082817 -1.513573 0.549696 -0.006456 0.001458 -421490.000000 1 0 0
-2.544004 -3.542604 18.925919 19.421957 0.948015 0.226493 0.026696 -0.019585 1754680.000000 1 0 0
-12.926704 2.259396 13.727719 18.990914 -0.173037 0.762868 0.007907 -0.002856 -504422.000000 1 0 0
-5.375704 -0.553804 15.947019 16.837824 0.102658 0.326736 0.009752 -0.001357 1908390.000000 1 0 0
-4.471604 -6.010704 11.717319 13.907530 0.931185 0.568859 0.004603 -0.000156 1131230.000000 1 0 0
2.431096 1.944496 13.993319 14.335420 0.674645 0.218904 0.001364 -0.000761 -355890.000000 1 0 0
0.015296 3.342296 14.331919 14.716490 1.566220 0.229114 0.009485 -0.002957 1118060.000000 1 0 0
-12.976304 7.203196 12.185819 19.203247 -0.506753 0.883343 0.005036 0.000429 872651.000000 1 0 0
0.857596 1.398996 18.330419 18.403721 1.020867 0.089282 0.015825 -0.007026 392919.000000 1 0 0
-2.051504 6.480796 12.451719 14.186426 -1.264225 0.499712 -0.002207 0.000394 422908.000000 1 0 0
-13.516804 -2.680004 10.834019 17.528902 0.195734 0.904516 0.017982 -0.007353 820927.000000 1 0 0
-2.651104 3.641796 13.512119 14.243188 -0.941547 0.321785 -0.000505 0.002169 -32050.500000 1 0 0
3.512496 6.120996 16.374619 17.830658 1.049831 0.406929 0.012167 -0.005780 474474.000000 1 0 0
-3.827504 12.443596 12.142319 17.802493 -1.272392 0.820224 0.018516 -0.007243 1510100.000000 1 0 0
3.686696 -1.464804 17.030019 17.485964 -0.378195 0.228862 0.009056 -0.009043 1207820.000000 1 0 0
-15.645104 0.510996 9.088019 18.100345 -0.032650 1.044781 0.018213 -0.008639 -1502740.000000 1 0 0
-4.725304 4.632596 15.246219 16.620368 -0.775492 0.409497 0.002867 0.001174 -241638.000000 1 0 0
-8.126804 -8.125604 10.513619 15.575833 0.785324 0.829838 0.013980 -0.008934 4077900.000000 1 0 0
-2.620604 -0.440904 14.839719 15.075783 0.166684 0.177198 0.009386 0.000263 1321730.000000 1 0 0
-1.898004 1.042696 17.333619 17.468371 -0.502355 0.124290 0.013632 -0.006693 1483530.000000 1 0 0
-0.660104 -2.425504 14.458919 14.675802 1.305081 0.172132 0.009860 0.000651 -1144800.000000 1 0 0
4.918696 -8.285604 16.570419 19.168297 -1.035064 0.526701 0.005179 -0.000159 475746.000000 1 0 0
-4.486204 9.978196 10.566419 15.209853 -1.148274 0.802781 0.005997 -0.006930 -2365970.000000 1 0 0
-6.265904 2.125396 15.245719 16.619591 -0.327021 0.409464 0.009313 -0.000149 436424.000000 1 0 0
-5.001504 6.921396 17.252119 19.249841 -0.945053 0.459619 0.006594 0.005630 -268801.000000 1 0 0
-4.262204 9.240896 15.610919 18.634949 -1.138641 0.577697 0.011919 -0.003161 803160.000000 1 0 0
-4.529904 -9.839804 18.463719 21.406791 1.139356 0.530574 0.026368 -0.009330 62228.800000 1 0 0
-6.768504 -4.060204 11.072819 13.597986 0.540322 0.619277 0.004966 -0.000373 1068980.000000 1 0 0
-2.395804 -0.746904 19.738919 19.897806 0.302206 0.126458 0.024233 -0.008122 1338600.000000 1 0 0
-5.803604 -4.501404 15.276519 16.950413 0.659699 0.448156 0.016971 -0.007940 2048730.000000 1 0 0
-12.828704 0.014196 9.672019 16.066232 -0.001107 0.924781 0.003289 -0.004102 -240379.000000 1 0 0
-14.441004 8.855696 10.319419 19.835734 -0.550093 1.023660 0.007697 -0.011402 -704100.000000 1 0 0
-8.475504 10.573196 12.825719 18.658127 -0.895079 0.812884 0.007549 -0.010770 -1225370.000000 1 0 0
-10.482904 7.193696 10.683019 16.606247 -0.601425 0.871978 0.007683 -0.004190 -358384.000000 1 0 0
-9.907804 -6.501304 14.823919 18.978412 0.580708 0.674381 0.027817 -0.010515 -427684.000000 1 0 0
-0.732404 -13.372204 14.494419 19.734246 1.516080 0.745895 0.000156 -0.009628 322780.000000 1 0 0
3.802996 -5.595804 16.856519 18.163646 -0.973883 0.381691 0.009334 -0.010600 1041710.000000 1 0 0
-7.320204 9.323896 10.393619 15.765397 -0.905206 0.850952 0.000555 -0.005921 453851.000000 1 0 0
-10.361504 -6.625904 11.868219 17.091460 0.568939 0.803218 0.023324 -0.016469 1850260.000000 1 0 0
-10.945204 -3.941004 10.714419 15.815429 0.345615 0.826484 0.010547 -0.003280 -779083.000000 1 0 0
-10.194404 -10.196904 9.778119 17.421663 0.785521 0.974886 0.027254 -0.015110 2611470.000000 1 0 0
-9.886504 -3.549404 15.308419 18.565800 0.344683 0.601391 0.025753 -0.014723 2881340.000000 1 0 0
5.620696 -3.345004 16.092819 17.371244 -0.536826 0.386044 0.003533 -0.007783 -119157.000000 1 0 0
-11.292404 0.430696 15.265419 18.993075 -0.038122 0.637248 0.013041 -0.003086 -1036320.000000 1 0 0
-3.116404 3.386396 18.833019 19.387168 -0.826894 0.239668 0.014433 -0.008548 720967.000000 1 0 0
0.407496 7.362296 14.003219 15.825915 1.515504 0.484671 0.008619 -0.005109 2571830.000000 1 0 0
-13.288204 -7.340804 12.192119 19.470787 0.504707 0.894159 0.029714 -0.014706 2004410.000000 1 0 0
-1.570304 -1.065904 12.178519 12.325516 0.596348 0.154596 0.002301 0.001535 1081500.000000 1 0 0
2.055196 -4.837204 13.191919 14.200321 -1.169034 0.379129 -0.001559 -0.001255 2859290.000000 1 0 0
-14.659304 -4.101604 8.565519 17.466725 0.272819 1.058258 0.020642 -0.013390 -2155620.000000 1 0 0
8.047596 0.882596 16.089319 18.011357 0.109235 0.466190 0.003169 -0.009058 -1146140.000000 1 0 0
-1.346704 11.427196 13.334819 17.612831 -1.453487 0.711921 0.011575 -0.004744 556010.000000 1 0 0
2.911996 -12.275104 -13.822381 18.714062 -1.337874 2.401801 0.017046 0.002001 -490000.000000 1 0 0
0.847796 -10.730104 -13.958181 17.626251 -1.491949 2.484706 0.014296 0.004242 -2659830.000000 1 0 0
3.293196 -14.390704 -12.326181 19.232063 -1.345828 2.266490 0.013243 -0.001312 -1825320.000000 1 0 0
-5.023304 -10.231204 -16.242281 19.842450 1.114392 2.529700 0.011557 -0.004309 -717467.000000 1 0 0
-0.952304 -12.194204 -15.037181 19.383558 1.492860 2.458731 0.020500 -0.002015 -277313.000000 1 0 0
5.779796 -14.928304 -11.991381 20.001338 -1.201399 2.213709 0.017318 -0.006485 -257976.000000 1 0 0
2.054396 -11.821304 -16.157381 20.125226 -1.398727 2.502844 0.025652 -0.002635 -510696.000000 1 0 0
1.278496 -14.373804 -13.952481 20.072681 -1.482084 2.339353 0.026498 0.000025 198991.000000 1 0 0
-1.031904 -10.646804 -15.926081 19.184872 1.474177 2.550150 0.018684 -0.005085 -461245.000000 1 0 0
-5.895304 -5.484204 -15.284481 17.275603 0.749288 2.656740 0.014743 0.006692 -178561.000000 1 0 0
-6.522204 -7.602304 -16.890181 19.637016 0.861720 2.606300 0.014994 0.015888 457469.000000 1 0 0
4.950696 -12.457204 -11.513981 17.670967 -1.192519 2.280457 -0.000596 0.000472 163487.000000 1 0 0
-1.943604 -15.552504 -13.319981 20.568906 1.446470 2.275199 0.021802 0.005983 123106.000000 1 0 0
16.138696 -7.253304 -8.659581 19.699144 -0.422384 2.025940 0.054402 -0.007558 825995.000000 1 0 0
19.308296 -3.598504 -4.180981 20.080840 -0.184257 1.780538 0.039319 -0.008967 738917.000000 1 0 0
14.845696 -11.707704 -8.812481 20.859646 -0.667767 2.006960 0.045170 -0.015271 288234.000000 1 0 0
18.131596 -3.351804 -6.528481 19.560430 -0.182796 1.911085 0.073104 -0.002868 650141.000000 1 0 0
9.602596 -9.330404 -15.403881 20.409455 -0.771023 2.426058 0.042491 -0.008997 57403.900000 1 0 0
1.266696 2.095996 -15.298281 15.493066 1.027191 2.982855 0.013568 -0.005712 171108.000000 1 0 0
4.811296 -4.323404 -13.962081 15.387660 -0.732038 2.707746 0.003855 0.002905 502497.000000 1 0 0
13.234396 -5.600204 -8.649581 16.772799 -0.400307 2.112610 0.039761 -0.004601 -339195.000000 1 0 0
3.004196 0.949696 -12.187381 12.588064 0.306182 2.888607 0.004699 -0.003900 -3887490.000000 1 0 0
0.718096 6.338996 -12.966481 14.450887 1.457995 2.684364 0.011760 -0.003358 278009.000000 1 0 0
3.213296 -0.974604 -16.849381 17.180709 -0.294485 2.944884 0.023430 -0.005504 -241948.000000 1 0 0
13.248496 4.326296 -11.518581 18.080851 0.315633 2.261474 0.009360 -0.002124 614351.000000 1 0 0
-3.825204 9.532596 -16.555881 19.483320 -1.189190 2.586300 0.000628 0.004002 -280533.000000 1 0 0
-0.382204 -5.043104 -17.730481 18.437704 1.495153 2.863725 0.015189 -0.007190 -87008.200000 1 0 0
-0.515304 -8.558504 -17.588081 19.566658 1.510659 2.688003 0.023463 -0.005718 -916782.000000 1 0 0
5.651296 -10.068004 -12.275781 16.852200 -1.059309 2.386835 0.005447 0.001604 738460.000000 1 0 0
1.860196 -9.645704 -18.110781 20.603406 -1.380283 2.644597 0.034767 -0.007829 119509.000000 1 0 0
11.169096 8.550296 -14.226981 20.006580 0.653367 2.361879 0.057165 -0.030397 779389.000000 1 0 0
10.926796 -3.902104 -12.927581 17.370769 -0.342998 2.410155 0.024895 -0.004155 138475.000000 1 0 0
4.930996 7.432896 -12.278281 15.176259 0.985057 2.513322 0.001255 0.001525 -296622.000000 1 0 0
9.655596 -6.085204 -12.519281 16.940857 -0.562348 2.402380 0.024746 -0.005399 -1009220.000000 1 0 0
-3.323904 0.367696 -15.843681 16.192769 -0.110174 2.933573 0.012267 -0.003788 -1672150.000000 1 0 0
-0.792504 10.712796 -12.867081 16.761677 -1.496954 2.445961 0.000522 -0.000760 -1983470.000000 1 0 0
6.702696 -5.516604 -12.491381 15.211629 -0.688634 2.534260 0.005522 0.001920 275068.000000 1 0 0
18.120196 -5.688204 -8.340481 20.742729 -0.304174 1.984597 0.053617 -0.010684 -41928.100000 1 0 0
13.090096 4.658496 -14.052881 19.761975 0.341903 2.361868 0.013570 -0.009971 391589.000000 1 0 0
14.233796 0.744796 -11.555681 18.349099 0.052278 2.252051 0.023881 0.002173 215773.000000 1 0 0
15.149296 6.105996 -11.103881 19.750456 0.383137 2.167851 0.018988 -0.010291 -269420.000000 1 0 0
8.234196 1.493596 -11.684381 14.372111 0.179438 2.520065 -0.000393 0.001492 696572.000000 1 0 0
9.970896 1.297596 -9.015781 13.505067 0.129411 2.301757 0.003170 0.000681 361766.000000 1 0 0
-0.177604 -5.716004 -13.073581 14.269645 1.539735 2.729242 0.000162 0.001529 383967.000000 1 0 0
10.516096 -5.685004 -8.886381 14.895480 -0.495598 2.210032 0.027676 -0.006492 1134810.000000 1 0 0
10.327696 8.472296 -11.080781 17.355829 0.687025 2.263275 0.022586 -0.015850 1115750.000000 1 0 0
8.537596 8.129996 -14.608481 18.772189 0.760948 2.462588 0.031676 -0.006347 353773.000000 1 0 0
8.647896 10.487196 -10.631381 17.256698 0.881226 2.234543 0.026486 -0.015477 -584610.000000 1 0 0
7.167596 1.631496 -18.051781 19.491100 0.223808 2.754883 0.030705 0.008354 -1226100.000000 1 0 0
12.170296 2.441196 -12.903481 17.904618 0.197959 2.375577 0.014032 -0.003599 -1772090.000000 1 0 0
2.646396 -0.795704 -19.413081 19.608780 -0.292076 3.000194 0.035877 -0.011813 -376787.000000 1 0 0
10.310696 -2.437504 -15.682281 18.925797 -0.232143 2.547433 0.028199 -0.000996 561854.000000 1 0 0
8.231596 -0.854704 -13.111381 15.504773 -0.103461 2.578550 0.005493 -0.000047 218806.000000 1 0 0
0.617196 4.488996 -14.695781 15.378491 1.434162 2.842507 0.010085 -0.004458 382971.000000 1 0 0
4.006096 -7.680104 -15.785081 18.005599 -1.090003 2.639706 0.018476 -0.001652 -2981670.000000 1 0 0
11.465796 -5.913504 -14.384481 19.322197 -0.476169 2.410513 0.036668 -0.008194 -1046220.000000 1 0 0
-5.967304 4.319396 -16.851381 18.391164 -0.626550 2.729478 0.008286 0.000163 388723.000000 1 0 0
11.406996 7.704996 -9.004881 16.449146 0.594067 2.150096 0.014789 -0.010301 -1589330.000000 1 0 0
9.587796 6.123596 -13.354381 17.543196 0.568381 2.436002 0.017812 -0.002205 -120673.000000 1 0 0
12.124096 0.583796 -10.215281 15.864630 0.048115 2.270385 0.014118 0.003775 -661590.000000 1 0 0
5.551496 -7.258904 -13.840381 16.585142 -0.917900 2.558030 0.008201 0.005374 -722261.000000 1 0 0
8.690896 -10.360504 -10.649381 17.212816 -0.872812 2.237869 0.022826 -0.000480 -264163.000000 1 0 0
10.020396 4.834896 -15.929781 19.430452 0.449554 2.531921 0.029891 -0.002905 -20561.600000 1 0 0
9.937596 -0.421004 -11.058981 14.873941 -0.042340 2.409106 0.006898 0.002017 275946.000000 1 0 0
-1.673304 5.544096 -13.994981 15.145839 -1.277673 2.749247 0.007373 -0.004484 615410.000000 1 0 0
1.340896 -0.475004 -14.985981 15.053347 -0.340451 3.046951 0.010295 -0.004237 -719301.000000 1 0 0
11.528296 -10.592204 -14.222981 21.151586 -0.743106 2.308285 0.048203 -0.010843 -356284.000000 1 0 0
9.305096 -7.937004 -10.739881 16.276544 -0.706218 2.291399 0.029171 -0.003193 -266935.000000 1 0 0
14.107196 -1.025004 -9.832681 17.226295 -0.072531 2.178270 0.027034 0.004155 916347.000000 1 0 0
3.998496 11.095196 -12.304681 17.043958 1.224904 2.377395 0.017182 -0.009843 -882081.000000 1 0 0
-1.401904 2.860696 -17.112481 17.406490 -1.115135 2.957535 0.008187 -0.004377 -220494.000000 1 0 0
6.005196 -0.571104 -17.610181 18.614699 -0.094817 2.811574 0.019344 0.000068 -319830.000000 1 0 0
6.253596 -6.477104 -16.142681 18.483682 -0.802953 2.632830 0.016952 -0.000818 -373393.000000 1 0 0
-1.782504 -5.049004 -19.865681 20.574621 1.231415 2.878318 0.023258 -0.016477 -882642.000000 1 0 0
-0.078304 -4.201004 -15.176181 15.747096 1.552159 2.871495 0.004457 -0.002704 88808.100000 1 0 0
0.581496 0.959396 -12.961681 13.010140 1.025899 3.055256 0.009004 -0.007325 673615.000000 1 0 0
15.721696 0.662496 -13.730081 20.883624 0.042114 2.288235 0.032286 -0.002920 700369.000000 1 0 0
-0.086904 7.118796 -16.384981 17.864837 -1.558589 2.731700 0.005054 0.003386 67110.500000 1 0 0
-4.836604 -0.468004 -18.101181 18.742052 0.096463 2.879330 0.003032 -0.007994 -442734.000000 1 0 0
10.410596 -8.455204 -13.106681 18.752495 -0.682120 2.344697 0.029550 -0.010312 274203.000000 1 0 0
4.247396 8.512196 -17.219981 19.672966 1.107967 2.636877 0.031670 -0.014788 -107893.000000 1 0 0
9.154096 0.310396 -16.891081 19.214641 0.033895 2.644711 0.018449 -0.001759 -338630.000000 1 0 0
3.314596 4.990396 -18.604181 19.544977 0.984507 2.830060 0.032217 0.000595 -341118.000000 1 0 0
1.471396 -8.222004 -15.947081 18.002104 -1.393713 2.659109 0.014272 -0.004628 245902.000000 1 0 0
4.605096 7.753096 -14.913081 17.427489 1.034823 2.597740 0.013711 0.004373 791564.000000 1 0 0
-5.669604 -0.433204 -15.250981 16.276501 0.076260 2.784720 0.006408 -0.004947 -292028.000000 1 0 0
2.873096 3.442596 -13.750281 14.462931 0.875327 2.826365 0.009508 -0.001820 -1217590.000000 1 0 0
-2.384504 -10.212404 -18.107981 20.925535 1.341415 2.616651 0.027875 -0.006656 -89705.300000 1 0 0
6.205596 -8.980304 -15.597781 19.038016 -0.966121 2.530979 0.011227 0.003411 -41647.000000 1 0 0
-1.758904 5.409496 -17.161881 18.080004 -1.256428 2.821540 0.005696 -0.007349 881345.000000 1 0 0
10.066396 -12.418904 -11.646181 19.778651 -0.889643 2.200402 0.045611 -0.003056 706345.000000 1 0 0
11.005996 3.681296 -9.297881 14.870591 0.322783 2.246252 0.007319 -0.001091 -151265.000000 1 0 0
4.893096 -0.504804 -11.016481 12.064828 -0.102803 2.721637 0.002618 -0.003383 28575.800000 1 0 0
6.204796 9.527496 -11.384681 16.089861 0.993542 2.356848 0.014013 -0.008901 658191.000000 1 0 0
10.848496 -9.659004 -9.379281 17.290377 -0.727460 2.144155 0.042186 -0.007913 -11039.400000 1 0 0
3.195596 -2.267104 -14.473181 14.994151 -0.617038 2.877214 0.012347 -0.004326 -230236.000000 1 0 0
9.189196 -4.599104 -14.626881 17.875646 -0.464040 2.529169 0.024848 -0.007478 -109439.000000 1 0 0
-4.065804 -6.661204 -16.672681 18.408712 1.022786 2.703813 0.008090 -0.000196 -377160.000000 1 0 0
5.828996 -7.726504 -11.248281 14.839134 -0.924475 2.431060 -0.001320 0.002570 117250.000000 1 0 0
5.505596 6.285196 -16.875681 18.830929 0.851421 2.681854 0.027972 -0.005844 -1248080.000000 1 0 0
9.381996 1.293296 -19.314181 21.511207 0.136985 2.685694 0.047932 -0.008244 340288.000000 1 0 0
13.163496 5.735996 -9.411481 17.168437 0.410941 2.150989 0.000066 -0.004093 310202.000000 1 0 0
-1.565304 -0.600904 -17.269181 17.350385 0.366542 3.044805 0.017351 -0.008874 776256.000000 1 0 0
-0.462904 -0.515504 -19.572581 19.584840 0.839108 3.106209 0.026788 -0.016753 -252300.000000 1 0 0
2.915896 6.400196 -16.520481 17.955256 1.143299 2.739111 0.018345 0.001388 -1052260.000000 1 0 0
7.590896 3.702396 -15.673581 17.804229 0.453793 2.647352 0.017198 0.003650 -16453.500000 1 0 0
3.157996 -9.886704 -14.746081 18.032381 -1.261621 2.528297 0.016989 -0.000671 251616.000000 1 0 0
9.038596 -10.659304 -13.307081 19.297549 -0.867491 2.331696 0.029832 -0.003811 128838.000000 1 0 0
3.793896 0.268996 -14.755681 15.237983 0.070784 2.889324 0.014442 -0.002796 -2129780.000000 1 0 0
-1.232504 -2.756104 -18.826281 19.066830 1.150281 2.982578 0.029152 -0.011732 -51378.800000 1 0 0
9.305996 10.043796 -13.119981 18.963472 0.823509 2.334852 0.038535 -0.016150 340173.000000 1 0 0
4.596796 2.018796 -10.602981 11.731550 0.413815 2.699365 0.000261 0.000615 -141367.000000 1 0 0
-0.450104 7.086796 -18.900281 20.190242 -1.507368 2.782197 0.018131 -0.002880 35822.800000 1 0 0
0.838496 -1.808304 -17.666781 17.778869 -1.136615 3.029243 0.024326 -0.012040 -1527980.000000 1 0 0
-4.391104 -2.216704 -14.025381 14.862936 0.467494 2.804282 0.008627 -0.007831 -3616190.000000 1 0 0
9.984196 5.942996 -10.412681 15.602156 0.536912 2.301491 0.007265 -0.000382 362465.000000 1 0 0
8.213496 5.168996 -17.809281 20.281778 0.561707 2.642658 0.041547 -0.007221 -9995.680000 1 0 0
11.248596 0.136996 -13.621881 17.666503 0.012178 2.451296 0.011061 0.007288 136810.000000 1 0 0
6.911296 11.939296 -11.863581 18.194981 1.046059 2.281048 0.034654 -0.017639 83301.300000 1 0 0
-0.940004 0.717796 -15.056981 15.103361 -0.652154 3.063204 0.010037 -0.006274 47450.500000 1 0 0
-4.188704 -2.785804 -18.983281 19.638505 0.586900 2.882550 0.002304 -0.003663 -171047.000000 1 0 0
5.871396 -11.941704 -13.981381 19.301725 -1.113834 2.380901 0.014963 -0.004028 43257.400000 1 0 0
2.161696 -4.711304 -14.107481 15.029648 -1.140622 2.789472 0.004852 0.002758 -940444.000000 1 0 0
11.772596 1.985596 -15.395981 19.482629 0.167090 2.481999 0.025800 -0.001510 315143.000000 1 0 0
9.701796 2.216196 -13.744081 16.968681 0.224578 2.514893 0.008832 0.001662 1067620.000000 1 0 0
-2.297204 -4.028604 -16.367681 17.011989 1.052559 2.865494 0.004185 -0.004258 -1774310.000000 1 0 0
-2.997304 10.031196 -14.177681 17.624283 -1.280442 2.505529 -0.001832 -0.004944 -620685.000000 1 0 0
3.543896 5.787196 -13.589581 15.189718 1.021332 2.678458 0.007226 0.001786 -459940.000000 1 0 0
-5.015404 -2.596504 -16.540481 17.478090 0.477712 2.812559 0.006738 -0.002738 118332.000000 1 0 0
-4.327404 6.147396 -13.633881 15.569188 -0.957430 2.637672 0.003477 -0.001440 459401.000000 1 0 0
5.850196 -1.050404 -14.208781 15.401870 -0.177657 2.745398 0.007025 0.002405 -1606310.000000 1 0 0
6.693696 -2.890804 -12.649681 14.600573 -0.407675 2.618708 0.003810 -0.001072 1416370.000000 1 0 0
2.987296 -3.097604 -18.228381 18.729468 -0.803524 2.909756 0.029138 -0.017151 414315.000000 1 0 0
7.469496 -12.091504 -11.978081 18.586884 -1.017429 2.271083 0.019568 -0.001044 -1432910.000000 1 0 0
-6.019104 -5.343004 -17.890481 19.617508 0.725963 2.718845 0.021205 0.007040 313736.000000 1 0 0
0.592296 8.729096 -11.858281 14.736578 1.503047 2.505938 0.003420 -0.000145 248822.000000 1 0 0
0.300296 8.455596 -14.335481 16.646119 1.535297 2.608404 0.001181 -0.003029 219648.000000 1 0 0
7.730796 -2.471604 -15.099481 17.142589 -0.309439 2.648381 0.014584 -0.007537 -286042.000000 1 0 0
14.354996 1.447296 -9.000381 17.004924 0.100482 2.128549 0.011857 0.002994 618945.000000 1 0 0
2.796496 11.117796 -14.714181 18.652959 1.324375 2.479714 0.017174 0.004460 -667264.000000 1 0 0
6.072696 1.136996 -15.590681 16.770203 0.185088 2.764300 0.013419 0.004282 139806.000000 1 0 0
16.769696 -5.496604 -10.514981 20.542643 -0.316735 2.108146 0.061634 -0.010394 616157.000000 1 0 0
4.915596 -4.370204 -11.262281 13.042267 -0.726732 2.613008 -0.000343 0.002668 -1841860.000000 1 0 0
8.704496 -3.920504 -17.041181 19.533060 -0.423186 2.630944 0.016080 -0.009407 -31343.700000 1 0 0
13.324996 -9.557804 -8.787981 18.604724 -0.622232 2.062754 0.050622 -0.014905 -335562.000000 1 0 0
2.298596 -7.745304 -13.683581 15.890679 -1.282303 2.608240 0.001338 0.004383 430118.000000 1 0 0
-6.724104 -2.145704 -18.476581 19.778818 0.308892 2.776694 -0.002565 -0.000683 -1434820.000000 1 0 0
-1.563804 -6.378004 -15.807581 17.117361 1.330353 2.747857 0.005694 -0.000201 222454.000000 1 0 0
1.518196 -7.060604 -18.285581 19.660100 -1.358998 2.765443 0.027580 -0.015157 -510379.000000 1 0 0
5.336596 11.185296 -14.445881 19.033485 1.125629 2.432529 0.032210 -0.016097 -701203.000000 1 0 0
5.576296 -3.471804 -17.420981 18.618246 -0.556872 2.781017 0.032722 -0.010669 694130.000000 1 0 0
3.992196 13.290896 -13.812681 19.579982 1.278999 2.353853 0.026020 -0.019004 54334.000000 1 0 0
9.691796 10.276296 -15.684381 21.107652 0.814661 2.408437 0.064471 -0.028873 282273.000000 1 0 0
2.586396 3.866796 -16.276381 16.928146 0.981268 2.863199 0.019082 0.000626 8791.880000 1 0 0
16.638296 1.792396 -11.584681 20.353142 0.107313 2.176309 0.023321 0.002792 256274.000000 1 0 0
9.996396 -3.687204 -10.480681 14.945504 -0.353371 2.347959 0.025989 -0.002342 155009.000000 1 0 0
14.653896 -2.222804 -12.067581 19.112928 -0.150539 2.254132 0.042843 -0.001370 478481.000000 1 0 0
-2.590704 -8.682704 -15.989581 18.378460 1.280831 2.626034 0.011565 0.001181 -395261.000000 1 0 0
13.863796 8.267596 -8.770681 18.370705 0.537727 2.068521 0.013824 -0.008969 19293.300000 1 0 0
-8.316804 0.103596 -16.606081 18.572611 -0.012456 2.677251 0.004038 -0.001566 -136829.000000 1 0 0
-3.487404 3.829796 -15.961381 16.780792 -0.832157 2.827800 0.009481 -0.002499 247831.000000 1 0 0
15.107196 3.959096 -9.792281 18.433409 0.256303 2.130842 0.009649 0.003568 648188.000000 1 0 0
5.424596 1.090196 -12.940081 14.073395 0.198331 2.737530 0.003330 0.000111 51249.600000 1 0 0
7.873496 -7.819004 -12.942981 17.048446 -0.781926 2.432861 0.019595 0.001789 -2695350.000000 1 0 0
3.248996 -6.125504 -11.897781 13.770801 -1.083122 2.613930 -0.000419 0.001947 -757645.000000 1 0 0
-3.343604 3.753896 -18.540681 19.210108 -0.843142 2.876821 0.008149 -0.001044 -141365.000000 1 0 0
0.870896 5.168796 -17.756881 18.514365 1.403873 2.854555 0.019465 -0.007870 -969944.000000 1 0 0
6.390996 7.152396 -10.164081 13.975340 0.841558 2.385157 0.001364 0.000438 350428.000000 1 0 0
9.726796 3.636196 -11.614081 15.579453 0.357747 2.412042 0.008913 -0.001207 229352.000000 1 0 0
4.617596 1.739896 -17.584381 18.263622 0.360345 2.868010 0.025679 0.000364 -565806.000000 1 0 0
2.657396 8.188596 -13.323081 15.862513 1.256995 2.567913 0.007292 0.001904 -2478980.000000 1 0 0
14.345896 -3.621804 -9.989981 17.852784 -0.247295 2.164670 0.037179 0.002488 -67131.400000 1 0 0
-1.332904 9.381496 -16.066481 18.652638 -1.429663 2.608721 0.003579 -0.001569 -2909590.000000 1 0 0
-5.410004 2.036196 -15.782981 16.808234 -0.359976 2.790516 0.009376 -0.002882 1047440.000000 1 0 0
4.567096 4.250296 -11.875281 13.414383 0.749485 2.657859 0.001326 0.000399 689665.000000 1 0 0
9.394596 2.874196 -17.311881 19.905292 0.296899 2.625416 0.029427 -0.007182 826528.000000 1 0 0
-4.260304 14.148496 -13.453481 19.983149 -1.278318 2.309380 -0.007578 -0.004885 -329182.000000 1 0 0
15.684596 -4.779504 -8.195681 18.330832 -0.295787 2.034315 0.047585 -0.005830 850534.000000 1 0 0
1.295996 9.309096 -16.691481 19.155793 1.432467 2.628752 0.011896 -0.001075 748573.000000 1 0 0
0.490796 -3.197604 -12.820781 13.222631 -1.418496 2.894423 0.003173 -0.002125 408443.000000 1 0 0
7.557496 3.566796 -13.034781 15.483646 0.440961 2.571483 0.004594 0.003157 -238943.000000 1 0 0
-2.898804 7.592996 -15.099081 17.147562 -1.206101 2.647793 0.000193 0.001388 86406.900000 1 0 0
12.089496 -5.152604 -10.984081 17.127617 -0.402891 2.266998 0.040445 -0.006090 -1259340.000000 1 0 0
0.704996 -4.271104 -19.921481 20.386386 -1.407210 2.927621 0.035091 -0.017411 -296245.000000 1 0 0
3.483296 -4.358304 -16.156081 17.092311 -0.896524 2.809080 0.020656 -0.007606 191831.000000 1 0 0
-5.614004 4.024096 -14.290281 15.872067 -0.621910 2.691350 0.003289 -0.005546 368354.000000 1 0 0
12.131296 -7.496804 -9.852681 17.333371 -0.553530 2.175384 0.031829 -0.005445 20755.600000 1 0 0
-1.952104 -1.691204 -14.870381 15.093015 0.713910 2.969620 0.008305 -0.003919 500307.000000 1 0 0
7.144796 5.857496 -14.233881 16.969435 0.686714 2.565863 0.012261 0.003217 -439809.000000 1 0 0
4.165596 -5.488704 -18.363681 19.613843 -0.921598 2.782629 0.039803 -0.017296 26027.700000 1 0 0
7.568396 7.586696 -12.383681 16.376633 0.786606 2.428252 0.008692 -0.005679 67419.700000 1 0 0
12.219496 -2.479604 -11.064981 16.670282 -0.200204 2.296624 0.026796 -0.001854 68053.700000 1 0 0
7.500196 -0.741404 -10.694881 13.083696 -0.098531 2.527715 0.001110 0.000453 -385107.000000 1 0 0
5.372596 4.016296 -14.349281 15.839737 0.641933 2.704306 0.009842 0.003366 -1520230.000000 1 0 0
14.721196 2.912096 -13.038181 19.879338 0.195295 2.286126 0.018284 -0.008134 298106.000000 1 0 0
-6.350204 6.734496 -15.733981 18.254771 -0.814759 2.609822 -0.001190 0.002842 246964.000000 1 0 0
-11.692804 3.578596 -16.133981 20.244341 -0.296999 2.493046 0.052027 -0.007888 -838799.000000 1 0 0
-4.876004 6.377796 -17.866081 19.586948 -0.918062 2.719277 0.006302 0.004916 272567.000000 1 0 0
-10.203604 1.498796 -15.481781 18.602297 -0.145846 2.553952 0.027116 -0.009572 -367766.000000 1 0 0
-7.584804 5.926796 -17.956081 20.373438 -0.663299 2.649503 0.001382 0.005273 1297270.000000 1 0 0
-9.110704 3.836896 -15.998381 18.806246 -0.398598 2.588103 0.012879 0.018118 -559691.000000 1 0 0
9.047796 13.464996 -11.899481 20.118806 0.979145 2.203665 0.048616 -0.026018 -2647160.000000 1 0 0
13.957696 8.808196 -11.279681 19.990817 0.562948 2.170313 0.026145 -0.021320 306711.000000 1 0 0
8.332896 15.944796 -9.133481 20.176574 1.089225 2.040562 0.031276 -0.014271 -48402.200000 1 0 0
7.370696 13.680296 -13.805481 20.786268 1.076607 2.297171 0.041724 -0.019646 53533.900000 1 0 0
5.077196 16.005396 -12.691881 21.048383 1.263619 2.218035 0.035934 -0.020045 -42523.300000 1 0 0
11.067896 10.812096 -11.432381 19.237959 0.773708 2.207144 0.041293 -0.021911 -257266.000000 1 0 0
15.698196 9.871996 -9.499181 20.835645 0.561372 2.044191 0.033587 -0.009562 -4692.980000 1 0 0
13.222796 10.672396 -9.470781 19.453484 0.679068 2.079267 0.048754 -0.017840 -6920.700000 1 0 0
10.310096 11.825796 -8.027881 17.623688 0.853764 2.043749 0.017038 -0.009797 -11087.100000 1 0 0
5.488096 16.134696 -10.124781 19.823188 1.242930 2.106858 0.021660 -0.017609 -295284.000000 1 0 0
6.857596 14.591396 -11.470281 19.786429 1.131456 2.189162 0.033148 -0.012839 -1471840.000000 1 0 0
10.954196 13.560996 -9.814081 20.005279 0.891334 2.083545 0.050365 -0.016745 -80508.100000 1 0 0
8.312196 -18.578604 -1.199281 20.388610 -1.150101 1.629651 0.043017 -0.000914 -165535.000000 1 0 0
7.205396 -17.412004 -3.253981 19.122866 -1.178435 1.741790 0.024595 -0.005288 -64955.100000 1 0 0
4.528796 -18.432104 5.837119 19.857604 -1.329867 1.272441 0.031258 0.003444 227844.000000 1 0 0
9.757896 -17.110104 -2.584281 19.865818 -1.052501 1.701253 0.039269 -0.007469 -183492.000000 1 0 0
-9.819404 -12.045004 -9.929781 18.441892 0.886840 2.139376 0.025752 -0.008175 -518726.000000 1 0 0
-5.218504 -7.008504 -12.236281 15.035907 0.930763 2.521465 0.005278 0.003820 462976.000000 1 0 0
-10.814504 -9.572404 -5.592881 15.487567 0.724547 1.940266 0.009355 -0.007471 -804393.000000 1 0 0
-4.697704 -11.357704 -13.973481 18.609783 1.178609 2.420171 0.021354 -0.000221 823436.000000 1 0 0
-3.083604 -15.461704 7.531719 17.472828 1.373944 1.125137 0.006856 -0.000786 268150.000000 1 0 0
-4.905904 -12.022604 -11.527181 17.363375 1.183364 2.296790 0.013700 0.002085 383569.000000 1 0 0
-14.175604 -12.882404 -3.954181 19.558621 0.737641 1.774370 0.018206 -0.008433 -374754.000000 1 0 0
-3.124604 -12.291504 -3.291681 13.102648 1.321861 1.824739 0.006495 -0.000776 981889.000000 1 0 0
-2.474304 -17.448904 -1.666881 17.702117 1.429933 1.665099 0.000958 -0.007917 94687.800000 1 0 0
-5.649504 -12.111204 3.728519 13.874438 1.134331 1.298719 -0.001375 0.000902 552505.000000 1 0 0
-8.894404 -10.743704 -11.919181 18.346784 0.879290 2.277934 0.020010 0.003674 711327.000000 1 0 0
-9.974904 -12.161304 -7.327081 17.351719 0.883849 2.006743 0.024244 -0.010754 -65425.600000 1 0 0
-10.805604 -15.118004 6.132419 19.568385 0.950239 1.252042 0.021715 -0.012460 -1048450.000000 1 0 0
-9.443604 -15.959104 0.638719 18.554855 1.036474 1.536366 0.013295 -0.001645 -1597950.000000 1 0 0
-14.678104 -7.633204 -7.909281 18.337646 0.479551 2.016745 0.007376 -0.010306 116497.000000 1 0 0
-2.345304 -16.575004 5.280519 17.553208 1.430233 1.265234 0.005819 -0.004473 392221.000000 1 0 0
4.463096 -15.843404 5.682619 17.413353 -1.296211 1.238371 0.024064 -0.004161 -89665.300000 1 0 0
4.230396 -14.500404 -10.010581 18.120974 -1.286932 2.156074 0.000774 -0.002441 -152244.000000 1 0 0
-7.613104 -14.236204 -0.387781 16.148661 1.079721 1.594812 0.003889 0.000940 1235080.000000 1 0 0
3.030396 -14.893604 9.669119 18.013734 -1.370067 1.004200 0.018371 -0.006925 -407480.000000 1 0 0
2.334896 -17.378004 10.227419 20.298938 -1.437237 1.042758 0.036215 -0.004772 -188916.000000 1 0 0
-8.439604 -17.330604 -5.714681 20.105580 1.117621 1.859003 0.040360 -0.006638 -393645.000000 1 0 0
-6.604904 -9.176304 -7.705381 13.682186 0.946919 2.169012 0.007735 -0.006174 313600.000000 1 0 0
-6.254504 -13.072204 -4.774381 15.257656 1.124530 1.889059 0.006730 -0.009249 656881.000000 1 0 0
2.244696 -19.464304 -4.678781 20.144200 -1.455980 1.805201 0.002112 -0.007336 -95608.500000 1 0 0
-5.496904 -12.856504 8.342019 16.281737 1.166761 1.032872 0.007057 -0.002993 727939.000000 1 0 0
2.155496 -17.413104 3.409019 17.874109 -1.447637 1.378897 0.013567 -0.014679 -161552.000000 1 0 0
-17.606804 -10.099204 -2.492981 20.450145 0.520779 1.693006 0.028744 -0.010191 527759.000000 1 0 0
-3.485204 -15.546904 2.627619 16.147980 1.350269 1.407348 0.000102 -0.000337 -45459.500000 1 0 0
-10.049704 -10.259904 -14.211881 20.204944 0.795748 2.350947 0.010212 -0.000262 -322878.000000 1 0 0
5.826396 -14.469604 -5.642181 16.587662 -1.187995 1.917866 -0.010930 -0.002488 603476.000000 1 0 0
-7.350404 -12.424104 -10.660981 17.945565 1.036558 2.206909 0.018387 -0.005387 -608716.000000 1 0 0
-6.962304 -14.329104 3.942119 16.411496 1.118504 1.328220 -0.005092 -0.000383 598866.000000 1 0 0
3.225296 -14.891304 -3.000681 15.529249 -1.357502 1.765247 -0.000776 -0.000648 -1412450.000000 1 0 0
-7.511004 -11.437704 7.843819 15.772183 0.989734 1.050290 0.004794 -0.008895 -617197.000000 1 0 0
-12.692404 -12.434604 -0.944381 17.793492 0.775139 1.623896 0.008995 0.002690 -1925110.000000 1 0 0
-1.925904 -13.734504 3.957819 14.422554 1.431481 1.292811 -0.001890 0.001018 -1900160.000000 1 0 0
-3.130604 -13.966204 5.253819 15.246579 1.350286 1.218994 -0.002848 0.000342 97806.200000 1 0 0
-14.436204 -10.336304 -4.412581 18.295192 0.621383 1.814386 0.013486 -0.004383 84120.800000 1 0 0
-6.084504 -8.676804 -10.326981 14.797116 0.959240 2.343264 0.006746 -0.003005 224219.000000 1 0 0
0.881796 -19.483504 2.502119 19.663294 -1.525569 1.443202 0.016449 -0.015304 220511.000000 1 0 0
6.282296 -13.967204 -8.116181 17.332698 -1.148118 2.058115 0.007111 -0.006530 -3119170.000000 1 0 0
-3.863204 -16.613704 -5.951881 18.065559 1.342325 1.906528 0.007669 -0.012603 -621283.000000 1 0 0
-3.612004 -13.528404 -13.249281 19.277130 1.309888 2.328570 0.028136 0.002174 -418576.000000 1 0 0
-8.195304 -14.870404 -4.327681 17.522008 1.067097 1.820364 0.013078 -0.008518 -863887.000000 1 0 0
-4.489004 -14.416904 10.090319 18.160750 1.268940 0.981698 0.011942 -0.003255 -557392.000000 1 0 0
-0.458704 -12.177904 -9.971581 15.746244 1.533147 2.256564 0.007285 0.000140 430711.000000 1 0 0
2.456996 -17.147104 6.835819 18.622257 -1.428476 1.194931 0.019140 -0.013172 -1305320.000000 1 0 0
-2.958004 -19.154804 -3.501181 19.695547 1.417580 1.749511 0.002872 -0.010170 -473363.000000 1 0 0
0.739296 -15.395704 -3.072381 15.716673 -1.522814 1.767549 -0.002063 -0.000695 -410463.000000 1 0 0
6.014496 -17.955704 0.586519 18.945329 -1.247580 1.539833 0.017423 -0.004849 -406623.000000 1 0 0
-7.085504 -16.793704 3.797419 18.618627 1.171542 1.365397 0.003503 -0.001782 622275.000000 1 0 0
-5.332204 -13.532104 -9.465581 17.353601 1.195438 2.147726 0.015238 -0.004977 292703.000000 1 0 0
5.713396 -15.174604 -2.038481 16.342182 -1.210702 1.695859 0.005548 0.001368 -1276560.000000 1 0 0
-8.871004 -10.340604 -0.539081 13.635007 0.861745 1.610343 0.000236 -0.000569 -905893.000000 1 0 0
-7.494204 -18.427104 -3.189381 20.146797 1.184532 1.729772 0.026159 -0.015265 539734.000000 1 0 0
7.927896 -15.959604 -1.114181 17.855025 -1.109754 1.633238 0.018020 -0.000778 -131720.000000 1 0 0
-8.187204 -10.117304 -9.444581 16.080742 0.890454 2.198543 0.018638 -0.005674 224497.000000 1 0 0
-9.101704 -15.190904 -6.753181 18.952837 1.030998 1.935117 0.031809 -0.014662 -59646.700000 1 0 0
-11.533004 -10.463004 -12.083981 19.710587 0.736791 2.230738 0.027320 0.006902 169906.000000 1 0 0
6.595196 -16.242604 2.468619 17.703471 -1.185091 1.430898 0.017787 -0.005182 253297.000000 1 0 0
-2.213004 -11.274704 -6.058581 12.989332 1.376980 2.056044 0.007575 -0.002059 498761.000000 1 0 0
-12.260804 -15.454104 -3.163681 19.979127 0.900112 1.729815 0.015633 -0.009656 -70738.200000 1 0 0
-0.407704 -19.530904 -2.851681 19.742202 1.549925 1.715749 0.012938 -0.014069 130332.000000 1 0 0
-5.779004 -15.570804 -4.773881 17.281110 1.215411 1.850685 0.008829 -0.013060 -2308910.000000 1 0 0
1.966096 -15.912304 -0.905781 16.058873 -1.447861 1.627230 0.002601 -0.005133 -433638.000000 1 0 0
-13.197804 -12.032004 5.196019 18.599725 0.739224 1.287669 0.023649 -0.011405 207491.000000 1 0 0
2.055596 -15.408104 -8.869181 17.896858 -1.438169 2.089290 -0.001358 0.007391 -989361.000000 1 0 0
-11.837004 -16.789204 0.253819 20.544013 0.956698 1.558441 0.027717 -0.016327 3389.630000 1 0 0
-7.706804 -16.723904 -1.150781 18.450152 1.138976 1.633209 0.019778 -0.009137 579511.000000 1 0 0
-2.922904 -14.552604 -1.754181 14.946532 1.372583 1.688431 0.004593 -0.003373 173020.000000 1 0 0
-1.788504 -10.476404 -13.284981 17.013069 1.401709 2.466852 0.013640 0.005979 423924.000000 1 0 0
1.464196 -19.485804 4.957019 20.159675 -1.495796 1.322361 0.024278 -0.018879 -362146.000000 1 0 0
-17.427104 -9.399704 2.439819 19.950216 0.494647 1.448194 0.029563 -0.008515 354176.000000 1 0 0
-2.731104 -15.600604 -8.121481 17.798771 1.397489 2.044623 0.006045 -0.002203 -666836.000000 1 0 0
-10.347504 -12.264404 0.268319 16.048628 0.869970 1.554076 0.002350 0.002458 540894.000000 1 0 0
-6.912804 -11.479604 -6.556381 14.918254 1.028774 2.025824 0.008185 -0.007121 259099.000000 1 0 0
-2.088404 -13.573804 -6.698781 15.280159 1.418138 2.024611 0.004224 -0.002451 816067.000000 1 0 0
-14.362904 -14.501004 -1.060281 20.437621 0.790183 1.622698 0.034992 -0.006908 140341.000000 1 0 0
-9.479804 -11.358404 -4.274281 15.399659 0.875307 1.852046 0.006899 -0.009640 572330.000000 1 0 0
9.450096 -15.212904 -5.099981 18.621133 -1.014942 1.848223 0.027831 -0.007327 392697.000000 1 0 0
-5.670304 -10.921804 -9.286281 15.416652 1.091928 2.217243 0.012645 -0.003851 -825239.000000 1 0 0
-10.451204 -16.073304 -4.785981 19.760678 0.994266 1.815426 0.030628 -0.009542 -2282700.000000 1 0 0
2.393896 -17.377404 -3.145281 17.821271 -1.433899 1.748216 0.005196 -0.003449 439059.000000 1 0 0
-0.293004 -14.540104 -8.150581 16.671306 1.550648 2.081623 0.007516 0.002000 -1457530.000000 1 0 0
-0.437504 -18.333404 -7.122781 19.673310 1.546937 1.941266 0.010420 0.000109 178273.000000 1 0 0
-1.732604 -9.976304 -10.593281 14.654220 1.398840 2.378761 0.009156 0.001094 227443.000000 1 0 0
-5.040304 -17.413704 2.208919 18.262560 1.289051 1.449546 0.002725 -0.004807 440529.000000 1 0 0
0.198796 -12.797204 -2.708881 13.082278 -1.555263 1.779370 0.002740 0.000243 -2016790.000000 1 0 0
2.669096 -14.903504 3.119419 15.458632 -1.393583 1.367610 0.010350 -0.004121 -1364130.000000 1 0 0
-9.401104 -13.062604 6.814919 17.477286 0.946974 1.170241 0.009012 -0.008233 -48240.100000 1 0 0
-0.922304 -17.850804 -4.599381 18.456873 1.519175 1.822646 0.003905 -0.006779 282968.000000 1 0 0
-9.915504 -17.826304 -2.175381 20.514059 1.063184 1.677039 0.035044 -0.014889 1203270.000000 1 0 0
1.235196 -16.202604 1.510919 16.319711 -1.494709 1.478081 0.007612 -0.008930 -429220.000000 1 0 0
-0.371404 -18.007504 4.164719 18.486564 1.550174 1.343562 0.014410 -0.016174 -447902.000000 1 0 0
-17.388904 -9.302604 -0.050481 19.720927 0.491233 1.573356 0.014798 -0.006103 953866.000000 1 0 0
-14.979604 -7.388604 -10.444481 19.699421 0.458228 2.129624 0.036987 -0.012406 928373.000000 1 0 0
2.741496 -12.726104 -8.877681 15.756991 -1.358616 2.169306 -0.007714 0.003908 433886.000000 1 0 0
-11.489504 -14.728104 1.764319 18.762691 0.908303 1.476624 0.007944 -0.008234 90323.100000 1 0 0
-2.167004 -15.551204 10.748219 19.027877 1.432342 0.970524 0.011094 -0.000513 281917.000000 1 0 0
-7.046304 -16.043104 1.289919 17.569732 1.156951 1.497313 0.009846 -0.002056 -1270920.000000 1 0 0
-12.681204 -14.981204 -5.735881 20.448710 0.868353 1.855112 0.030320 -0.012551 762342.000000 1 0 0
0.952496 -13.737104 -5.087881 14.679980 -1.501570 1.924726 -0.000115 0.001416 640597.000000 1 0 0
5.916796 -16.431704 -7.315981 18.934967 -1.225166 1.967493 0.014936 -0.014462 -94193.600000 1 0 0
-6.479304 -12.792504 5.918719 15.513246 1.101968 1.179349 0.004358 -0.002720 245358.000000 1 0 0
-2.555304 -13.679904 0.603819 13.929607 1.386132 1.527435 0.003939 -0.004066 2012830.000000 1 0 0
-4.249604 -15.631704 0.204819 16.200348 1.305354 1.558153 0.005083 -0.002570 -8309.100000 1 0 0
-17.733604 -7.479204 -1.906681 19.340492 0.399117 1.669542 0.018720 -0.008755 679560.000000 1 0 0
1.320596 -12.774304 -11.893881 17.504035 -1.467783 2.317869 0.010670 0.003874 355535.000000 1 0 0
1.305296 -17.133704 -5.582381 18.067391 -1.494760 1.884912 0.005123 -0.003843 -1651630.000000 1 0 0
-12.707504 -6.442004 -9.232581 16.977062 0.469188 2.145787 0.013092 -0.004399 2253790.000000 1 0 0
-11.630204 -13.466404 -8.886781 19.889207 0.858433 2.033997 0.034324 -0.012929 269488.000000 1 0 0
-4.259104 -9.822404 3.480519 11.257602 1.161655 1.256476 0.003344 0.001797 -4467190.000000 1 0 0
-7.035704 -14.359404 9.826519 18.768434 1.115203 1.019765 0.010027 -0.007181 -552824.000000 1 0 0
-5.327704 -15.859904 -8.071181 18.575924 1.246717 2.020276 0.013996 -0.009981 17673.000000 1 0 0
-0.229604 -13.572104 2.158019 13.744518 1.553881 1.413135 0.003714 -0.003404 722903.000000 1 0 0
-11.009404 -13.485304 -4.473881 17.974316 0.886135 1.822345 0.025366 -0.006799 -1039660.000000 1 0 0
-9.698404 -10.536004 6.651219 15.789400 0.826769 1.135978 0.016328 -0.006328 -104052.000000 1 0 0
-15.453104 -7.962904 -4.897381 18.060748 0.475808 1.845396 0.017027 -0.006538 -333085.000000 1 0 0
-14.543704 -7.265504 5.383719 17.125750 0.463298 1.251010 0.020566 -0.007369 -271112.000000 1 0 0
-1.639304 -19.359304 -0.134881 19.429055 1.486320 1.577739 0.010781 -0.011326 -204442.000000 1 0 0
-15.118904 -12.003304 -1.416481 19.356317 0.671027 1.644041 0.006762 -0.002652 448607.000000 1 0 0
-4.378104 -12.246904 -6.423081 14.505531 1.227468 2.029518 0.007539 -0.003076 2546500.000000 1 0 0
-7.393904 -18.494004 1.849019 20.002922 1.190462 1.478227 0.011040 -0.004630 -236231.000000 1 0 0
-2.699304 -11.657404 -8.616881 14.745574 1.343254 2.194901 0.010067 -0.000768 32597.500000 1 0 0
-1.231504 -20.357404 -5.140781 21.032550 1.510376 1.817718 0.001660 -0.003652 -74121.200000 1 0 0
-5.427204 -8.838204 -13.972381 17.401029 1.020101 2.503046 0.011012 0.005794 253903.000000 1 0 0
-8.272904 -19.372504 -0.971481 21.087405 1.167196 1.616882 0.020388 0.001440 73994.200000 1 0 0
-17.099204 -7.283104 5.496719 19.381442 0.402660 1.283243 0.037324 -0.013191 152335.000000 1 0 0
-3.587304 -14.612704 -4.232681 15.630594 1.330065 1.845015 0.007524 -0.006387 -3081440.000000 1 0 0
-2.945104 -14.737504 -10.972281 18.608026 1.373557 2.201426 0.014232 0.000419 -567637.000000 1 0 0
-0.014904 -16.671404 6.315519 17.827555 1.569902 1.208678 0.022363 -0.012981 -1456080.000000 1 0 0
-11.104904 -11.586204 3.865719 16.507659 0.806606 1.334424 0.012461 -0.006920 215813.000000 1 0 0
-0.252504 -14.731504 -0.162181 14.734561 1.553658 1.581803 0.000921 -0.001244 917271.000000 1 0 0
-7.220604 -9.554004 -2.437981 12.221288 0.923614 1.771630 0.007728 -0.001568 5194.580000 1 0 0
-11.075904 -14.489204 -0.743681 18.252829 0.918127 1.611551 0.010402 -0.009559 265097.000000 1 0 0
0.258296 -14.640704 -10.726481 18.151428 -1.553156 2.203025 0.007447 0.005847 -194476.000000 1 0 0
-1.368104 -14.127704 -3.930481 14.727947 1.474259 1.840942 0.001607 -0.000358 -2006390.000000 1 0 0
-11.388604 -8.122204 -7.651281 15.944046 0.619522 2.071318 0.013459 -0.007935 459304.000000 1 0 0
-0.136604 -17.314504 -0.283681 17.317367 1.562907 1.587178 0.005040 -0.009286 1790430.000000 1 0 0
-12.845304 -9.516004 4.465919 16.598211 0.637597 1.298379 0.018713 -0.008172 -296264.000000 1 0 0
3.954996 -16.737104 1.606419 17.272905 -1.338752 1.477659 0.011458 -0.009881 2584000.000000 1 0 0
-3.808304 -17.909004 -8.175381 20.051745 1.361270 1.990746 0.016187 -0.008580 181653.000000 1 0 0
-13.293604 -11.254404 2.580519 17.607970 0.702519 1.423713 0.006408 -0.006716 -718421.000000 1 0 0
-8.456304 -12.180904 4.131719 15.393330 0.963956 1.299055 0.009437 -0.004031 2596920.000000 1 0 0
-8.329404 -9.547304 -5.929781 13.989006 0.853421 2.008531 0.005452 -0.008113 -1443040.000000 1 0 0
3.810196 -17.546904 -5.315281 18.726016 -1.356972 1.858598 -0.004212 0.006433 -1635820.000000 1 0 0
-2.567304 -13.063704 11.355619 17.498615 1.376747 0.864601 0.005421 -0.004004 703261.000000 1 0 0
-0.086004 -16.781504 -9.553181 19.310348 1.565671 2.088307 0.006537 0.006354 172139.000000 1 0 0
-7.158504 -10.679204 -14.881781 19.666138 0.980267 2.429079 0.019412 0.015969 140274.000000 1 0 0
-4.681104 -18.904904 -1.619381 19.543043 1.328065 1.653754 0.022035 -0.014560 -725302.000000 1 0 0
-2.517204 -17.298704 1.068819 17.513534 1.426297 1.509730 0.007278 -0.010455 556088.000000 1 0 0
4.007896 -14.613704 -7.463281 16.891541 -1.303122 2.028440 -0.002789 0.002211 -1456150.000000 1 0 0
-1.030204 -15.965704 -6.175981 17.149571 1.506360 1.939198 0.003913 0.001420 -470194.000000 1 0 0
-9.375704 -15.237004 8.279819 19.713588 1.019185 1.137345 0.015797 -0.008123 -342071.000000 1 0 0
-7.220404 -12.147204 -1.792681 14.244385 1.034498 1.696983 0.002815 -0.002318 784157.000000 1 0 0
-7.436004 -15.114704 -9.320581 19.251537 1.113592 2.076185 0.028642 -0.007718 139906.000000 1 0 0
-5.027304 -13.267704 -0.628681 14.202148 1.208600 1.615077 0.006018 -0.001976 2466140.000000 1 0 0
-6.584604 -13.709404 -7.272981 16.858263 1.123034 2.016862 0.012892 -0.007597 510524.000000 1 0 0
5.768496 -15.349504 0.371719 16.401860 -1.211316 1.548131 0.006338 0.001194 169573.000000 1 0 0
-14.464004 -12.829204 0.977419 19.358493 0.725572 1.520284 0.010701 -0.011842 1070570.000000 1 0 0
0.966796 -15.329004 11.217019 19.019322 -1.507810 0.940023 0.019643 -0.001992 -24941.500000 1 0 0
-9.338704 -10.693804 1.985719 14.335687 0.852940 1.431834 0.004312 0.001326 218349.000000 1 0 0
-9.382004 -8.892604 -3.546381 13.404374 0.758624 1.838553 0.005366 -0.005647 -397753.000000 1 0 0
-12.249204 -7.219704 -12.204381 18.738037 0.532590 2.280114 0.023746 -0.008248 -31597.000000 1 0 0
-13.309904 -8.243904 -0.591481 15.667334 0.554549 1.608558 0.000398 -0.002977 -865576.000000 1 0 0
-11.272304 -9.778104 0.258419 14.924575 0.714535 1.553480 0.001922 0.000530 751473.000000 1 0 0
-15.769604 -12.177104 3.070919 20.159187 0.657551 1.417867 0.028144 -0.007912 -277385.000000 1 0 0
-10.431504 -12.611304 -2.183681 16.511503 0.879715 1.703437 0.015685 -0.005959 129715.000000 1 0 0
-3.489204 -8.919304 -12.190281 15.502628 1.197902 2.475653 0.006441 0.005267 -946271.000000 1 0 0
-0.184504 -15.537304 3.975219 16.038835 1.558922 1.320336 0.012421 -0.008059 -942899.000000 1 0 0
-15.710904 -7.755504 1.177919 17.560406 0.458545 1.503668 0.001327 -0.002829 500559.000000 1 0 0
-6.206804 -13.373704 -13.442181 19.951757 1.136275 2.310047 0.016570 0.004071 -85731.500000 1 0 0
-15.255204 -10.354904 1.210819 18.477321 0.596341 1.505219 0.003722 -0.003925 617309.000000 1 0 0
-9.956404 -8.401504 -12.567881 18.101571 0.700901 2.338240 0.020367 -0.000352 684970.000000 1 0 0
-13.306504 -11.786604 -6.123681 18.801238 0.724902 1.902555 0.025042 -0.005443 -201078.000000 1 0 0
-12.084004 -11.356304 -3.765781 17.004997 0.754363 1.794099 0.010592 -0.002645 -1690530.000000 1 0 0
-11.778204 -10.825904 -8.716481 18.218214 0.743294 2.069684 0.021441 -0.018144 225087.000000 1 0 0
-13.116504 -8.533204 -5.732381 16.664887 0.576776 1.921948 0.006477 -0.008970 -3007240.000000 1 0 0
-13.500304 -8.115804 -3.287281 16.091324 0.541270 1.776534 0.009831 -0.008260 97601.700000 1 0 0
-4.477904 -16.988604 -3.336081 17.882778 1.313075 1.758448 0.011665 -0.016801 451703.000000 1 0 0
-15.472504 -8.871204 -1.774081 17.923281 0.520596 1.669941 0.012733 -0.003993 -543432.000000 1 0 0
-9.237604 -15.394504 3.547319 18.300480 1.030334 1.375724 0.007621 -0.013482 -2084660.000000 1 0 0
4.844796 -16.975704 8.003319 19.382975 -1.292791 1.145155 0.035534 -0.031244 564507.000000 1 0 0
-8.287804 -15.390204 5.942119 18.462255 1.076816 1.243111 0.007446 -0.002872 -530692.000000 1 0 0
0.874396 -15.944004 8.628019 18.149892 -1.516010 1.075405 0.016831 -0.009139 313226.000000 1 0 0
-10.708804 -7.873004 -10.165181 16.733009 0.633955 2.223697 0.017905 -0.007542 955549.000000 1 0 0
-4.788004 -16.026404 5.642419 17.652408 1.280480 1.245447 0.000936 -0.004348 -574654.000000 1 0 0
-1.268604 -13.287904 -12.253781 18.119959 1.475614 2.313468 0.014324 0.006004 -1172900.000000 1 0 0
-6.297904 -14.396704 -2.525381 15.915597 1.158424 1.730143 0.007286 -0.007840 81577.700000 1 0 0
-17.741904 -6.934104 -7.208981 20.367287 0.372578 1.932586 0.037203 -0.010338 255357.000000 1 0 0
-17.255504 -4.074304 -10.119681 20.414708 0.231870 2.089443 0.032972 -0.013052 590297.000000 1 0 0
-15.231104 -5.358204 -8.961281 18.466224 0.338272 2.077479 0.013513 -0.014434 662247.000000 1 0 0
-16.050304 -5.449004 -5.688381 17.879082 0.327286 1.894583 0.013694 -0.007973 1378540.000000 1 0 0
-15.179904 -4.539404 -12.272281 20.041072 0.290576 2.229834 0.034296 -0.010960 -385063.000000 1 0 0
-18.603104 -5.143004 -5.423781 20.048525 0.269723 1.844743 0.026432 -0.012942 -371141.000000 1 0 0
-17.369004 -4.376304 -7.637581 19.472210 0.246823 1.973851 0.023926 -0.011333 686811.000000 1 0 0
12.232596 -7.854504 8.760619 16.972864 -0.570799 1.028441 0.018624 -0.006868 78334.300000 1 0 0
16.050696 -3.393104 1.766419 16.500250 -0.208332 1.463537 0.033786 -0.010802 99865.100000 1 0 0
11.860796 -1.970104 12.613019 17.425500 -0.164599 0.761466 0.005373 -0.006328 -688594.000000 1 0 0
9.735896 -10.033204 5.232419 14.927527 -0.800436 1.212668 0.012454 -0.000434 55024.100000 1 0 0
17.135896 -2.039804 7.166819 18.685905 -0.118479 1.177168 0.051977 -0.016842 -532379.000000 1 0 0
5.119796 -12.743904 9.066119 16.456425 -1.188787 0.987334 0.013475 -0.002930 125249.000000 1 0 0
15.144496 -9.112404 -2.205881 17.811726 -0.541667 1.694959 0.043322 -0.003753 240503.000000 1 0 0
11.174896 -8.491804 6.413519 15.431211 -0.649807 1.142172 0.019650 -0.004594 -2581240.000000 1 0 0
20.065996 -2.835204 3.434119 20.554215 -0.140365 1.402933 0.060335 -0.012268 347439.000000 1 0 0
13.636996 -8.475004 6.844319 17.453884 -0.556058 1.167842 0.025827 -0.006592 -1137160.000000 1 0 0
8.358296 -10.993104 8.886819 16.422089 -0.920722 0.998992 0.015630 -0.003018 -1653370.000000 1 0 0
16.780096 0.237596 -0.662381 16.794845 0.014158 1.610246 0.022514 -0.002478 -1461590.000000 1 0 0
12.409396 -12.425204 2.515919 17.740030 -0.786035 1.428495 0.027165 -0.001310 25385.800000 1 0 0
10.354296 -11.647104 3.561519 15.985960 -0.844091 1.346120 0.018933 0.000098 -1304590.000000 1 0 0
16.167096 3.009996 2.474919 16.630102 0.184073 1.421420 0.011539 -0.005264 729746.000000 1 0 0
18.285896 -3.201004 0.501719 18.570734 -0.173297 1.543776 0.032698 -0.009597 -163174.000000 1 0 0
13.521796 -11.769304 -0.166481 17.927164 -0.716216 1.580083 0.046533 -0.002163 12444.100000 1 0 0
16.895096 -7.645004 -0.880381 18.565167 -0.424930 1.618235 0.038205 -0.007954 554704.000000 1 0 0
10.199396 -5.555504 9.764419 15.173503 -0.498757 0.871711 0.005806 -0.005245 5816.050000 1 0 0
11.430696 -13.111204 6.188819 18.462556 -0.853767 1.228969 0.037148 -0.005584 -534490.000000 1 0 0
13.195796 -1.715404 10.333719 16.848068 -0.129271 0.910504 0.024297 -0.007164 1836520.000000 1 0 0
15.646696 -1.999104 -1.501481 15.845187 -0.127077 1.665698 0.017563 -0.004835 -567929.000000 1 0 0
10.484296 -12.406704 9.263819 18.699335 -0.869183 1.052491 0.029141 -0.008577 -12765.800000 1 0 0
14.356496 1.246996 3.356219 14.796222 0.086642 1.341975 0.013532 -0.009329 1115380.000000 1 0 0
14.915496 -5.767004 5.146019 16.799163 -0.368941 1.259465 0.035866 -0.010210 -869833.000000 1 0 0
14.447596 -3.445004 -3.125681 15.177976 -0.234077 1.778216 0.022539 -0.003183 804509.000000 1 0 0
14.181496 0.675596 9.516819 17.092136 0.047603 0.980274 0.030503 -0.015054 174913.000000 1 0 0
15.509796 -3.392204 4.370119 16.466899 -0.215323 1.302190 0.035311 -0.012277 -820149.000000 1 0 0
18.355596 4.876296 -4.094481 19.428611 0.259660 1.783133 -0.003046 0.003102 314443.000000 1 0 0
18.257096 -5.700904 -5.222781 19.826732 -0.302663 1.837363 0.060263 -0.007787 841143.000000 1 0 0
17.280796 0.089596 5.886019 18.255935 0.005185 1.242515 0.042730 -0.010035 910229.000000 1 0 0
17.040896 -6.522204 3.924519 18.663685 -0.365538 1.358939 0.053621 -0.017836 183355.000000 1 0 0
9.767396 -6.497304 14.282319 18.482468 -0.586989 0.687635 0.006012 -0.004612 -1050260.000000 1 0 0
8.655096 -12.341104 5.110119 15.916245 -0.959183 1.243945 0.016803 -0.004139 -1204060.000000 1 0 0
16.901396 -10.182404 -0.583181 19.740280 -0.542226 1.600343 0.057283 -0.007136 -97720.700000 1 0 0
14.940596 -8.761304 0.362419 17.323776 -0.530366 1.549874 0.048439 -0.009138 -242101.000000 1 0 0
10.056396 -12.998204 1.398519 16.493643 -0.912314 1.485903 0.025169 -0.000819 124457.000000 1 0 0
16.860896 -8.229104 8.831419 20.736488 -0.454049 1.130853 0.050930 -0.011827 353751.000000 1 0 0
19.060496 -0.058004 -1.878681 19.152945 -0.003043 1.669043 0.034998 0.001125 -367709.000000 1 0 0
13.478696 -1.171804 7.766719 15.600330 -0.086719 1.049671 0.021617 -0.012624 -116139.000000 1 0 0
12.819796 -9.868304 -3.039581 16.461156 -0.656035 1.756514 0.031666 -0.003075 -1543770.000000 1 0 0
8.898296 -15.382104 1.495219 17.833241 -1.046348 1.486853 0.027899 0.003866 -148106.000000 1 0 0
11.402296 -8.319404 11.137619 17.979750 -0.630333 0.902750 0.011399 -0.008066 -101435.000000 1 0 0
14.020896 -3.975404 -0.575481 14.584942 -0.276283 1.610264 0.016278 -0.007030 -790241.000000 1 0 0
7.201296 -13.168904 10.692719 18.428591 -1.070382 0.951792 0.022650 0.002234 370213.000000 1 0 0
15.396996 -6.615404 1.814519 16.855965 -0.405807 1.462939 0.036976 -0.010575 334800.000000 1 0 0
15.725796 -6.150504 -2.578281 17.081478 -0.372819 1.722316 0.044170 -0.007858 -216271.000000 1 0 0
11.076196 -8.525904 3.755519 14.473323 -0.656022 1.308314 0.015280 -0.000660 312718.000000 1 0 0
10.569096 -14.636704 -0.475681 18.060044 -0.945395 1.597138 0.034990 -0.004147 520493.000000 1 0 0
13.583996 -12.728404 4.768619 19.216580 -0.752893 1.320025 0.035400 -0.002474 380801.000000 1 0 0
12.890196 -10.995704 6.543619 18.162644 -0.706250 1.202229 0.023444 -0.004719 -664054.000000 1 0 0
11.004296 -10.513904 1.370719 15.281217 -0.762612 1.480976 0.015940 -0.002626 663922.000000 1 0 0
13.831096 -7.581104 11.999019 19.817892 -0.501399 0.920448 0.020432 -0.012226 477046.000000 1 0 0
15.338296 -1.841604 -5.010881 16.240805 -0.119494 1.884450 0.019310 0.002559 -363568.000000 1 0 0
12.917996 -11.358504 -6.987181 18.566393 -0.721248 1.956633 0.049033 -0.012927 645846.000000 1 0 0
17.686496 -5.304804 1.894719 18.561871 -0.291397 1.468542 0.050544 -0.012938 246593.000000 1 0 0
10.701396 -9.876604 9.138119 17.192220 -0.745338 1.010395 0.013999 -0.004849 -586630.000000 1 0 0
16.529696 1.903896 9.884619 19.353588 0.114675 1.034753 0.046502 -0.012675 1338240.000000 1 0 0
18.061896 3.594796 0.709919 18.429830 0.196459 1.532267 0.009897 0.002921 281993.000000 1 0 0
13.318796 -3.974504 5.677619 15.014073 -0.290000 1.182996 0.024496 -0.009931 -1164900.000000 1 0 0
12.136796 -6.142004 6.680119 15.154208 -0.468488 1.114296 0.018132 -0.004578 93952.400000 1 0 0
16.717296 -10.111104 3.615719 19.868967 -0.543963 1.387798 0.043152 -0.009648 -119101.000000 1 0 0
16.282596 -8.117404 -5.380881 18.972851 -0.462473 1.858352 0.060498 -0.012113 1239370.000000 1 0 0
14.003496 -0.456304 5.330819 14.990789 -0.032574 1.207234 0.017559 -0.010843 1277680.000000 1 0 0
18.412996 -4.132404 5.007919 19.524201 -0.220771 1.311399 0.064695 -0.015214 231678.000000 1 0 0
13.745696 -13.458504 7.278219 20.568130 -0.774842 1.209102 0.047097 -0.004293 261173.000000 1 0 0
15.095996 -13.732104 -1.171281 20.440932 -0.738122 1.628128 0.053509 -0.002169 771984.000000 1 0 0
17.811896 -5.857204 8.059519 20.408977 -0.317698 1.164837 0.059157 -0.009223 -129911.000000 1 0 0
14.390096 3.320296 9.231519 17.416089 0.226766 1.012129 0.019444 -0.013751 -513859.000000 1 0 0
18.588196 3.914596 3.145619 19.254610 0.207563 1.406691 0.029478 -0.002515 -661252.000000 1 0 0
14.797696 -10.468604 8.253219 19.916805 -0.615707 1.143530 0.026804 -0.013071 -227403.000000 1 0 0
14.815396 -4.681504 10.380219 18.685861 -0.306060 0.981818 0.040747 -0.013223 185574.000000 1 0 0
17.810496 -7.847904 1.906919 19.556066 -0.415038 1.473131 0.060793 -0.014344 375356.000000 1 0 0
18.309096 -5.875704 -2.178781 19.351847 -0.310535 1.683623 0.031365 -0.007365 -481822.000000 1 0 0
14.233596 -12.943904 -5.386081 19.978733 -0.737979 1.843764 0.054157 -0.017232 185899.000000 1 0 0
15.549796 -1.410504 9.218619 18.131978 -0.090461 1.037450 0.049086 -0.015194 -207271.000000 1 0 0
13.063596 -10.048304 10.324019 19.447656 -0.655666 1.011179 0.010904 -0.007618 -1284820.000000 1 0 0
16.434696 2.190096 4.888619 17.285669 0.132480 1.284070 0.026934 -0.007445 -944922.000000 1 0 0
14.976396 2.385796 -0.009381 15.165241 0.157976 1.571415 0.003717 0.001746 -1399440.000000 1 0 0
15.091496 -9.843604 -6.965881 19.317694 -0.577964 1.939703 0.056300 -0.014741 605188.000000 1 0 0
16.207596 -0.085304 -3.290181 16.538402 -0.005263 1.771074 0.016024 0.004509 125666.000000 1 0 0
11.917796 2.585296 13.492019 18.186594 0.213618 0.734947 0.028785 -0.010519 -232059.000000 1 0 0
17.495896 -3.173904 9.525919 20.172337 -0.179457 1.078981 0.040035 -0.014578 -479377.000000 1 0 0
7.825696 -18.171204 4.658519 20.325747 -1.164137 1.339548 0.041620 -0.010113 -349793.000000 1 0 0
6.899896 -11.154304 6.604219 14.684781 -1.016823 1.104331 0.010677 -0.004607 273546.000000 1 0 0
18.099496 2.296796 -1.457781 18.302791 0.126224 1.650529 0.030648 0.004902 478752.000000 1 0 0
17.622596 -2.162004 3.499919 18.096397 -0.122074 1.376166 0.037706 -0.009764 -579559.000000 1 0 0
12.582096 -13.577804 -1.995181 18.618449 -0.823442 1.678164 0.041655 -0.003755 2341070.000000 1 0 0
15.137696 -8.207304 4.385919 17.769242 -0.496817 1.321392 0.035847 -0.007041 361089.000000 1 0 0
10.974896 -2.952204 14.848919 18.699044 -0.262776 0.653270 -0.002415 -0.011977 269941.000000 1 0 0
12.010096 -13.720504 -6.518981 19.364704 -0.851774 1.914145 0.042138 -0.014128 -417614.000000 1 0 0
10.613996 -12.118104 -1.211881 16.154690 -0.851469 1.645884 0.026489 -0.005124 -729816.000000 1 0 0
13.199996 -7.988004 2.109119 15.572299 -0.544199 1.434938 0.027886 -0.003311 798095.000000 1 0 0
8.803696 -7.841304 9.975819 15.443707 -0.727644 0.868533 0.012249 -0.003669 -1636100.000000 1 0 0
15.577296 -3.765704 8.056919 17.937297 -0.237193 1.104959 0.046466 -0.012550 -1644620.000000 1 0 0
10.166396 -17.206304 5.444119 20.713545 -1.037130 1.304843 0.046375 -0.014561 15441.900000 1 0 0
15.225596 -6.237304 8.372319 18.461269 -0.388805 1.100100 0.041290 -0.005585 570611.000000 1 0 0
16.545296 -5.031304 -0.402981 17.298070 -0.295207 1.594095 0.031410 -0.008419 -895450.000000 1 0 0
14.103996 -10.452004 3.608819 17.921793 -0.637759 1.368045 0.037930 -0.005899 -8030.870000 1 0 0
14.939396 -10.202604 -4.498181 18.641682 -0.599179 1.814498 0.056043 -0.010267 240013.000000 1 0 0
13.548696 -6.541204 -0.080581 15.045299 -0.449787 1.576152 0.029461 -0.006593 214899.000000 1 0 0
17.793796 -0.928604 -5.034881 18.515710 -0.052140 1.846189 0.025303 0.002705 107005.000000 1 0 0
14.358296 0.229896 -1.602881 14.449316 0.016010 1.681956 0.005911 0.000727 -2128020.000000 1 0 0
4.842896 -12.858604 11.754219 18.082008 -1.210600 0.863145 0.009843 0.002535 -260281.000000 1 0 0
11.956596 -7.621604 13.629719 19.667697 -0.567494 0.805154 0.005769 -0.007343 -387554.000000 1 0 0
11.975996 -5.795604 11.664819 17.694110 -0.450713 0.850977 0.008163 -0.004717 -246428.000000 1 0 0
13.212396 -4.593904 8.328919 16.280119 -0.334621 1.033750 0.024823 -0.007922 -1984980.000000 1 0 0
15.292196 -1.163304 3.056319 15.637955 -0.075926 1.374088 0.029269 -0.008152 790476.000000 1 0 0
15.322896 -10.208304 5.836419 19.314875 -0.587688 1.263826 0.042054 -0.008608 967942.000000 1 0 0
13.652196 -8.140704 -5.613781 16.857285 -0.537689 1.910299 0.048011 -0.009449 583159.000000 1 0 0
9.242396 -1.774704 13.306819 16.298555 -0.189709 0.615575 -0.015321 -0.016895 1719820.000000 1 0 0
9.763196 -8.994404 13.669019 19.054170 -0.744435 0.770767 0.015386 -0.007829 -954561.000000 1 0 0
20.243296 6.169396 -3.020581 21.377006 0.295820 1.712571 0.044156 0.004715 -161351.000000 1 0 0
11.196996 -3.462304 10.643619 15.831832 -0.299891 0.833495 0.011143 -0.004395 484983.000000 1 0 0
10.147596 -14.129004 -2.905381 17.636431 -0.947953 1.736288 0.026672 -0.003615 350610.000000 1 0 0
14.951296 -12.741904 2.727919 19.832774 -0.705786 1.432813 0.040604 0.000338 25646.300000 1 0 0
11.207996 -0.383304 14.521419 18.347690 -0.034186 0.657606 0.016460 -0.008206 171048.000000 1 0 0
19.166996 -1.743604 5.693119 20.070513 -0.090719 1.283192 0.064751 -0.016901 453505.000000 1 0 0
18.991896 -0.349904 7.848919 20.552861 -0.018422 1.178957 0.060025 -0.011893 281853.000000 1 0 0
18.939596 0.740396 0.605619 18.963735 0.039073 1.538855 0.035238 -0.007519 69754.700000 1 0 0
18.500996 1.028096 3.724119 18.900077 0.055513 1.372456 0.035138 -0.009369 468526.000000 1 0 0
16.766296 -3.907204 -4.243981 17.730942 -0.228953 1.812497 0.037883 -0.004089 382650.000000 1 0 0
10.954796 -8.181504 15.867819 20.945937 -0.641477 0.711228 0.019385 -0.011304 524573.000000 1 0 0
16.644596 -7.346604 6.358519 19.272933 -0.415663 1.234578 0.049072 -0.013122 173739.000000 1 0 0
18.805796 2.236696 5.969619 19.856916 0.118380 1.265441 0.041182 -0.007266 447837.000000 1 0 0
15.332096 1.789296 7.537319 17.178065 0.116177 1.116560 0.032095 -0.010760 -113488.000000 1 0 0
8.707096 -15.748704 3.952519 18.424376 -1.065747 1.354589 0.026091 -0.008602 835103.000000 1 0 0
11.494196 -15.195704 1.874119 19.145190 -0.923205 1.472749 0.045561 0.000708 375287.000000 1 0 0
7.869196 -16.120604 6.222019 18.987145 -1.116677 1.236932 0.029020 -0.010084 -397178.000000 1 0 0
14.589396 -11.729004 -2.525781 18.889139 -0.677139 1.704914 0.047045 -0.004888 1109410.000000 1 0 0
13.683296 -4.767404 3.156019 14.829740 -0.335258 1.356339 0.018858 -0.005322 -695271.000000 1 0 0
-0.988104 10.121396 -5.600881 11.609861 -1.473479 2.074217 0.003068 0.003959 -537699.000000 1 0 0
8.244196 -1.788604 -8.023081 11.641980 -0.213642 2.331113 0.003558 -0.002934 -2192930.000000 1 0 0
2.837696 -10.106804 7.642819 12.985095 -1.297073 0.941490 0.003552 -0.002513 867946.000000 1 0 0
-6.192904 1.320196 8.309919 10.447475 -0.210035 0.651129 -0.005883 0.000025 -314474.000000 1 0 0
7.258396 -6.236404 -7.291381 12.030847 -0.709810 2.221891 0.001229 -0.002871 361742.000000 1 0 0
-11.359904 -4.584404 -4.173181 12.941392 0.383572 1.899132 -0.002089 -0.006982 -131877.000000 1 0 0
2.107096 -3.144104 2.908319 4.773214 -0.980370 0.915619 0.000714 -0.002999 884075.000000 1 0 0
-3.737704 -4.244104 8.970319 10.604220 0.848758 0.562509 -0.001985 -0.000309 -934645.000000 1 0 0
-4.928104 -1.140704 -2.499781 5.642368 0.227463 2.029780 -0.002070 -0.003164 -712775.000000 1 0 0
4.936096 -5.204104 -3.684881 8.063876 -0.811822 2.045372 0.002167 -0.003133 379950.000000 1 0 0
2.784696 14.232396 -8.888581 17.009482 1.377578 2.120654 0.007364 -0.008227 -533656.000000 1 0 0
5.533996 -5.565504 13.714819 15.801779 -0.788237 0.519779 -0.000233 -0.000080 -771739.000000 1 0 0
-4.745304 -0.860004 9.866119 10.981704 0.179287 0.454651 0.000252 0.000962 -4499030.000000 1 0 0
-1.022704 11.905296 -2.637481 12.236760 -1.485103 1.788039 -0.000295 -0.000050 -447729.000000 1 0 0
3.103896 9.441096 -10.456781 14.426112 1.253163 2.381614 0.008352 0.000437 -428275.000000 1 0 0
-10.541804 2.605296 1.034719 10.908155 -0.242285 1.475796 -0.008646 -0.001753 133539.000000 1 0 0
5.663596 -8.948804 -0.740481 10.616296 -1.006544 1.640602 -0.001127 -0.001932 797518.000000 1 0 0
-6.957804 5.405296 9.415219 12.894751 -0.660476 0.752242 -0.001791 -0.001184 160814.000000 1 0 0
-5.622704 -1.898104 5.162419 7.865632 0.325566 0.854858 -0.003337 -0.002547 313958.000000 1 0 0
6.621896 -3.739204 -7.305581 10.545267 -0.514038 2.336137 0.001994 -0.002850 584380.000000 1 0 0
6.294496 4.729196 11.082419 13.594337 0.644347 0.617682 0.005029 0.001647 391517.000000 1 0 0
3.814596 -9.882004 3.267219 11.085120 -1.202404 1.271614 -0.000867 -0.003150 986411.000000 1 0 0
-6.558204 6.596096 -5.733781 10.926791 -0.788279 2.123212 0.000493 -0.004488 355513.000000 1 0 0
-11.076504 8.310696 5.252819 14.810426 -0.643693 1.208235 -0.006489 -0.010295 301908.000000 1 0 0
-9.196804 -5.572104 5.130219 11.914223 0.544727 1.125643 0.000293 -0.004089 -1312010.000000 1 0 0
3.379496 9.883596 -8.051381 13.188297 1.241329 2.227481 0.004946 -0.001208 546035.000000 1 0 0
-8.113904 -8.540604 6.042219 13.239554 0.811013 1.096878 0.001164 -0.002319 -1167250.000000 1 0 0
-7.756504 -5.769704 -7.648381 12.326823 0.639556 2.240134 0.007475 -0.007136 -583863.000000 1 0 0
9.233496 -1.553804 7.034819 11.711552 -0.166717 0.926453 0.008936 -0.009115 1570750.000000 1 0 0
-4.147604 -0.481704 -4.934281 6.463883 0.115622 2.439298 0.006368 -0.009382 -1656610.000000 1 0 0
9.032996 1.134896 -4.432281 10.125617 0.124984 2.023868 0.003569 -0.001441 -3038500.000000 1 0 0
-1.899804 -10.664804 10.651319 15.192035 1.394508 0.793840 -0.000853 -0.003513 235300.000000 1 0 0
-12.770404 0.246396 -2.782181 13.072278 -0.019292 1.785267 -0.005353 -0.005870 -1216180.000000 1 0 0
-9.706004 -5.300204 -6.086981 12.623392 0.499825 2.073959 0.004629 -0.007519 -880660.000000 1 0 0
-5.569704 8.299196 -0.161781 9.996220 -0.979721 1.586981 -0.002592 0.000342 1037680.000000 1 0 0
6.204396 9.634096 0.546319 11.472087 0.998648 1.523157 0.007079 -0.002585 623931.000000 1 0 0
-0.581704 -12.074504 0.044119 12.088589 1.522657 1.567147 0.005552 0.000210 -65983.600000 1 0 0
6.046896 4.735096 2.401819 8.047038 0.664327 1.267705 0.001364 -0.001637 389371.000000 1 0 0
3.471396 -7.512804 -8.349381 11.756061 -1.137955 2.360606 -0.001144 -0.002429 1164720.000000 1 0 0
-6.581604 -9.881004 4.606519 12.734668 0.983195 1.200673 0.003470 0.000823 -2308930.000000 1 0 0
0.014096 6.329996 -9.177681 11.148940 1.568569 2.537801 0.005754 -0.001535 -1555900.000000 1 0 0
-17.371404 -2.644104 4.382519 18.109761 0.151051 1.326372 0.041458 -0.010858 708939.000000 1 0 0
-8.433304 0.870196 -9.126681 12.456892 -0.102822 2.393020 -0.000995 -0.005659 -518997.000000 1 0 0
-9.992304 -5.903904 -11.810181 16.558460 0.533661 2.364908 0.011235 -0.000459 536701.000000 1 0 0
2.266696 9.455496 6.427319 11.655674 1.335514 0.986716 -0.003023 0.000614 -374118.000000 1 0 0
-11.316104 1.561996 -1.259781 11.492654 -0.137166 1.680633 -0.005196 -0.003607 -1840160.000000 1 0 0
-5.862204 -5.392404 -3.115581 8.552795 0.743680 1.943652 0.008818 -0.002826 535231.000000 1 0 0
-6.958104 -8.259304 1.397719 10.889671 0.870698 1.442089 0.004434 0.000847 -931409.000000 1 0 0
0.136696 10.848796 -7.889481 13.414878 1.558197 2.199522 0.002880 0.001948 797328.000000 1 0 0
-2.878604 9.241496 -4.242781 10.568481 -1.268835 1.983902 0.003761 -0.001864 -449553.000000 1 0 0
3.411096 -4.868404 9.357819 11.086285 -0.959628 0.565931 0.004024 -0.002171 -822184.000000 1 0 0
-8.903904 1.515496 -0.522181 9.047039 -0.168590 1.628547 -0.009290 -0.002046 -1816350.000000 1 0 0
2.477096 3.572396 -10.300981 11.180707 0.964514 2.742252 0.004263 -0.003033 1978220.000000 1 0 0
-13.593604 0.509596 1.096219 13.647251 -0.037470 1.490384 0.005181 -0.008093 169689.000000 1 0 0
9.383996 -12.690604 -5.089981 16.583689 -0.934085 1.882759 0.024816 -0.004507 -2298560.000000 1 0 0
-4.674304 9.418896 -8.216981 13.344792 -1.110138 2.234127 -0.001395 -0.002137 -856095.000000 1 0 0
-2.390704 7.191596 8.380119 11.298713 -1.249859 0.735213 -0.002777 -0.002513 -1667810.000000 1 0 0
-10.741504 -1.258904 -4.463881 11.700042 0.116668 1.962244 -0.003513 -0.003860 -2328510.000000 1 0 0
2.715196 -7.198704 9.604319 12.305957 -1.210117 0.675394 0.001920 0.000905 -1609250.000000 1 0 0
-16.100204 -6.441704 3.300019 17.652259 0.380593 1.382744 0.018001 -0.007804 75065.000000 1 0 0
-10.747504 -0.190104 6.131519 12.374995 0.017686 1.052413 -0.002912 -0.004758 -593130.000000 1 0 0
-8.410904 9.877896 9.378719 16.008638 -0.865439 0.944863 0.000730 -0.010523 53659.900000 1 0 0
0.131396 -6.025404 -3.822581 7.136868 -1.548993 2.136027 -0.002251 -0.000085 787181.000000 1 0 0
4.895596 1.404596 -2.984181 5.902972 0.279405 2.100802 0.001955 -0.001579 1262500.000000 1 0 0
0.234096 5.346996 3.953919 6.654220 1.527043 0.934529 -0.004204 0.000056 -1980340.000000 1 0 0
6.030796 -11.198104 -1.524981 12.809903 -1.076782 1.690126 -0.002879 -0.000540 -1664630.000000 1 0 0
6.230996 -13.355204 5.286719 15.656826 -1.134257 1.226364 0.009118 -0.006128 -230116.000000 1 0 0
8.082496 -8.195104 -5.892581 12.930931 -0.792316 2.043951 0.002037 -0.003635 429760.000000 1 0 0
-13.103704 -1.456204 -4.743481 14.011717 0.110675 1.916158 -0.005337 -0.004962 -3813470.000000 1 0 0
-6.834504 -1.559504 -7.012881 9.915795 0.224340 2.356388 0.001071 -0.007801 -516880.000000 1 0 0
-5.666604 12.820796 -4.644481 14.766665 -1.154627 1.890752 0.005332 -0.000784 656610.000000 1 0 0
-4.225604 6.839596 -6.739681 10.490905 -1.017381 2.268462 0.005438 -0.003215 -4715580.000000 1 0 0
-9.460404 -3.715004 -8.163381 13.036153 0.374189 2.247480 0.002768 -0.005836 366011.000000 1 0 0
-2.209504 -6.386104 9.149819 11.374684 1.237702 0.636128 0.000692 0.000719 -166719.000000 1 0 0
7.510896 -6.030004 10.018319 13.897526 -0.676467 0.765739 0.001658 -0.000421 -67409.600000 1 0 0
9.619396 -4.874204 12.214419 16.293639 -0.468998 0.723273 0.000783 -0.001510 -550360.000000 1 0 0
-6.545304 2.803496 -9.071281 11.532074 -0.404681 2.476101 0.001874 -0.006226 -767250.000000 1 0 0
7.452396 5.592496 8.885519 12.875040 0.643776 0.809120 0.001722 -0.004329 798967.000000 1 0 0
12.727196 3.467196 11.121919 17.253987 0.265970 0.870296 0.023550 -0.008265 -277959.000000 1 0 0
-7.419304 -7.266104 -3.938981 11.106661 0.774966 1.933336 0.008174 -0.007157 -781409.000000 1 0 0
2.410396 1.433496 -5.656781 6.313801 0.536523 2.681337 0.002033 -0.004358 49265.700000 1 0 0
12.827396 6.806696 -7.050981 16.142785 0.487856 2.022822 -0.002335 -0.003627 141094.000000 1 0 0
0.770496 -7.599204 0.976419 7.700323 -1.469750 1.443652 0.001152 0.001248 781058.000000 1 0 0
-10.165904 -6.133604 -8.536881 14.623441 0.542880 2.194174 0.010075 -0.005428 -659314.000000 1 0 0
-6.713804 0.267196 3.113819 7.405567 -0.039777 1.136833 -0.004184 -0.002874 845033.000000 1 0 0
10.829796 -7.917904 1.220619 13.470991 -0.631309 1.480061 0.008803 -0.001709 -228322.000000 1 0 0
6.189196 1.142796 10.482119 12.226486 0.182587 0.540738 0.004154 -0.004531 109653.000000 1 0 0
-12.872904 5.381196 1.845119 14.073855 -0.395948 1.439315 -0.000462 -0.003424 -141873.000000 1 0 0
2.020596 7.358896 3.700919 8.481330 1.302822 1.119246 -0.003967 -0.000094 487542.000000 1 0 0
10.176096 -9.551104 -0.828581 13.980811 -0.753727 1.630097 0.009093 -0.002010 690241.000000 1 0 0
6.810196 -11.677904 -9.020881 16.252031 -1.042844 2.159234 0.001328 -0.002148 -508729.000000 1 0 0
10.242196 3.626696 11.812619 16.049719 0.340317 0.743651 0.009045 -0.006130 -1405440.000000 1 0 0
-11.059504 -3.082604 -2.065881 11.665459 0.271830 1.748829 -0.007201 -0.002181 759363.000000 1 0 0
12.424196 1.005296 6.863119 14.229324 0.080738 1.067493 0.012596 -0.009687 -192954.000000 1 0 0
-9.486404 9.117296 3.054019 13.507182 -0.765560 1.342721 -0.005728 -0.006364 1099670.000000 1 0 0
-6.547004 7.626196 -8.775881 13.343096 -0.861395 2.288570 0.001407 -0.006363 149108.000000 1 0 0
8.554796 5.507896 12.153819 15.850450 0.572031 0.696986 0.013809 -0.000231 -2547070.000000 1 0 0
1.299596 4.901396 -2.628581 5.711573 1.311612 2.049039 0.001672 -0.002252 589108.000000 1 0 0
1.251196 0.630896 9.680919 9.781806 0.467029 0.143746 0.002279 0.000396 807936.000000 1 0 0
2.580496 12.571396 -4.016981 13.447493 1.368341 1.874143 0.003970 -0.004108 511370.000000 1 0 0
2.089996 0.736196 12.987819 13.175489 0.338676 0.168984 0.002058 -0.002926 30252.100000 1 0 0
-12.297204 -1.764304 0.881419 12.454353 0.142500 1.499965 -0.007354 -0.003222 -450011.000000 1 0 0
3.268096 8.711296 -1.274181 9.390988 1.211889 1.706897 0.004407 -0.001132 174118.000000 1 0 0
3.622396 -2.872904 -5.818181 7.431457 -0.670516 2.470130 -0.000676 -0.003865 -1876670.000000 1 0 0
-7.886904 -7.072304 9.402619 14.164392 0.730997 0.844880 0.006109 -0.003853 -314449.000000 1 0 0
-7.097404 10.838196 -3.553681 13.433848 -0.991018 1.838515 0.000503 0.000154 817065.000000 1 0 0
0.349396 0.453896 2.547019 2.610633 0.914761 0.221210 -0.001102 -0.001934 -3085730.000000 1 0 0
-7.163204 4.505496 -2.057281 8.708811 -0.561455 1.809280 -0.002242 -0.002915 -1431110.000000 1 0 0
-6.862104 -3.972204 -5.922681 9.896718 0.524731 2.212360 0.000252 -0.005588 -270152.000000 1 0 0
2.966096 -6.115604 13.532119 15.143203 -1.119217 0.465471 -0.003087 -0.001000 -661251.000000 1 0 0
-5.539404 -0.560304 -11.596081 12.863438 0.100806 2.693964 0.009286 -0.008458 -825968.000000 1 0 0
11.849996 2.410696 -0.497581 12.102952 0.200696 1.611920 -0.000568 0.000816 -1042220.000000 1 0 0
6.155096 -10.864804 10.739719 16.470299 -1.055361 0.860490 0.011075 -0.001534 596234.000000 1 0 0
-8.188104 6.393396 -10.452181 14.736643 -0.662933 2.359251 0.000947 -0.003842 627361.000000 1 0 0
2.890996 8.027496 11.285719 14.148003 1.225120 0.647341 0.008646 -0.000618 813700.000000 1 0 0
-6.338404 -10.295904 -0.291981 12.094059 1.018968 1.594941 0.007110 -0.002168 -828427.000000 1 0 0
11.184696 4.270496 6.106119 13.439466 0.364733 1.099162 0.001643 -0.005115 -775732.000000 1 0 0
-7.834904 10.616096 1.386419 13.266852 -0.935006 1.466103 -0.005713 -0.001530 1129880.000000 1 0 0
4.251096 -2.758304 -3.521881 6.171200 -0.575563 2.178150 0.000755 -0.004985 -4937080.000000 1 0 0
6.337696 6.435996 6.371419 11.053661 0.793093 0.956470 0.002494 -0.001378 -4560480.000000 1 0 0
-0.317504 10.407696 -10.218681 14.589118 -1.540299 2.346798 -0.000898 0.001550 -334790.000000 1 0 0
14.089296 6.504996 -2.470981 15.713974 0.432539 1.728699 -0.002344 0.005668 734111.000000 1 0 0
1.537596 9.525896 -6.190081 11.464030 1.410764 2.141182 0.001865 -0.000061 -855411.000000 1 0 0
0.606896 7.454696 7.143419 10.342594 1.489564 0.808368 -0.005481 0.000619 672135.000000 1 0 0
12.164296 6.316596 1.956619 13.845499 0.478947 1.429004 -0.004437 -0.000436 -1126210.000000 1 0 0
-6.835904 6.835196 -3.062081 10.140307 -0.785346 1.877556 -0.002267 -0.001986 -642427.000000 1 0 0
1.110196 9.936196 11.116019 14.950799 1.459525 0.732497 0.004142 -0.001481 -524316.000000 1 0 0
-3.485104 13.682496 -10.955181 17.870999 -1.321387 2.230667 -0.005789 0.002478 -39687.700000 1 0 0
-9.923804 -5.480204 -2.344081 11.576236 0.504552 1.774697 -0.000767 -0.003295 -156969.000000 1 0 0
-3.957504 3.904496 -12.398081 13.587470 -0.778656 2.720063 0.005487 -0.010578 -283709.000000 1 0 0
-3.269104 8.482096 2.487119 9.424370 -1.202928 1.303730 -0.002842 0.000154 -2584060.000000 1 0 0
7.038196 8.839596 7.161619 13.377722 0.898369 1.005887 0.003749 0.001685 -1611790.000000 1 0 0
-1.406104 -2.269004 -8.145381 8.571624 1.016017 2.824907 0.004884 -0.007392 -1124890.000000 1 0 0
0.875996 -1.367404 4.907719 5.169417 -1.001039 0.319554 0.000867 -0.001911 -395263.000000 1 0 0
2.787096 -8.813204 -6.169181 11.113022 -1.264507 2.159317 -0.005099 0.000615 528638.000000 1 0 0
5.351096 3.923896 8.753819 10.984559 0.632719 0.648616 0.001912 -0.001977 745301.000000 1 0 0
6.147096 -7.457104 -2.868981 10.080984 -0.881397 1.859378 -0.000487 -0.003682 714765.000000 1 0 0
1.715096 2.254296 -8.166181 8.643489 0.920411 2.807714 0.005768 -0.003258 298566.000000 1 0 0
-5.500904 10.970596 -0.710981 12.293063 -1.106011 1.628665 0.000410 0.000081 842515.000000 1 0 0
-5.394604 3.241696 -3.430281 7.167787 -0.541092 2.069821 -0.000827 -0.002507 27017.200000 1 0 0
2.106996 13.714796 -6.400181 15.280620 1.418359 2.002967 -0.001248 -0.001783 486693.000000 1 0 0
-5.345404 -2.536704 2.637319 6.477937 0.443088 1.151494 -0.007036 -0.002644 381812.000000 1 0 0
10.248996 -3.280704 -1.879981 10.924251 -0.309794 1.743750 0.005042 -0.004644 188044.000000 1 0 0
2.336396 -3.294604 7.082219 8.152975 -0.953950 0.518291 0.001987 -0.001256 -1354880.000000 1 0 0
-2.852304 9.844196 -11.604481 15.482500 -1.288774 2.418137 -0.002030 0.000176 -2308520.000000 1 0 0
0.425596 -1.904604 9.346819 9.548386 -1.350952 0.205839 0.000157 -0.000218 421601.000000 1 0 0
9.365896 2.710196 4.970619 10.944050 0.281675 1.099340 0.000547 -0.005185 -1000770.000000 1 0 0
13.447896 2.156996 -5.040481 14.522568 0.159042 1.925251 0.006846 0.000189 -1157230.000000 1 0 0
-6.507904 3.712596 7.626819 10.691331 -0.518427 0.776508 -0.005644 -0.000675 -189787.000000 1 0 0
10.535496 0.069396 1.774619 10.684136 0.006587 1.403924 0.004809 -0.004190 1919300.000000 1 0 0
15.424496 6.529096 -4.599981 17.369628 0.400425 1.838823 0.006947 0.000558 -289493.000000 1 0 0
8.003796 -4.784704 -9.276281 13.153081 -0.538804 2.353580 0.006579 -0.002419 447594.000000 1 0 0
4.439296 5.604796 -2.135381 7.461966 0.900920 1.861022 0.001951 -0.001383 -292009.000000 1 0 0
-1.578504 -10.444004 1.476519 10.665318 1.420792 1.431909 0.002144 0.001669 -612399.000000 1 0 0
-2.810704 12.150596 -12.855081 17.910615 -1.343472 2.371341 -0.002383 -0.003280 312868.000000 1 0 0
8.350196 4.244196 -9.589781 13.405330 0.470246 2.367951 0.002090 0.000985 -1696230.000000 1 0 0
4.160696 7.583196 -8.991281 12.476353 1.068972 2.375559 0.003123 -0.001250 -2636420.000000 1 0 0
-1.737904 -4.925504 -2.420381 5.756661 1.231596 2.004736 0.003053 -0.000813 -550711.000000 1 0 0
-3.361104 -9.000104 7.050419 11.916682 1.213384 0.937701 0.000894 -0.001131 -1706610.000000 1 0 0
1.028096 7.245096 -1.343181 7.439928 1.429835 1.752329 0.002358 -0.001130 1121810.000000 1 0 0
0.348596 -1.013504 -2.129581 2.384077 -1.239520 2.675323 0.004976 -0.002444 -1541150.000000 1 0 0
4.226696 -6.814604 7.601919 11.049569 -1.015627 0.812090 0.002962 -0.001921 -818275.000000 1 0 0
-14.009904 3.859996 5.920719 15.691778 -0.268849 1.183903 0.002080 -0.004097 -965895.000000 1 0 0
4.209396 6.325096 12.716119 14.813019 0.983597 0.538572 0.011111 0.000037 -2076210.000000 1 0 0
8.267096 10.062196 -7.124581 14.844268 0.883023 2.071400 0.005781 -0.007097 -244103.000000 1 0 0
12.444996 5.397596 9.445919 16.529893 0.409230 0.962531 0.010557 -0.003453 -156385.000000 1 0 0
7.496996 4.028196 0.416319 8.520835 0.493047 1.521918 0.001341 0.001408 -962688.000000 1 0 0
-10.924004 -7.469504 -1.055881 13.275626 0.599750 1.650416 -0.001724 -0.002433 -1770070.000000 1 0 0
10.386496 6.773096 0.171319 12.400946 0.577854 1.556981 -0.002196 0.002781 -780284.000000 1 0 0
14.391396 3.540296 4.350519 15.445808 0.241211 1.285269 0.010093 -0.007471 601016.000000 1 0 0
2.095096 5.621796 8.220619 10.177062 1.214067 0.630455 -0.001580 0.001754 721969.000000 1 0 0
4.278896 0.188696 11.774219 12.529038 0.044071 0.348885 0.001797 -0.001776 -1626320.000000 1 0 0
-1.579804 -1.391804 -0.401481 2.143382 0.722217 1.759221 0.006138 -0.008072 -934561.000000 1 0 0
3.033296 -5.281704 -9.537681 11.316565 -1.049486 2.573274 -0.001942 0.000423 90346.400000 1 0 0
-3.924404 -5.279004 -1.301381 6.705403 0.931534 1.766115 0.004475 -0.002570 -1296430.000000 1 0 0
-1.272504 -8.709604 8.627319 12.325060 1.425719 0.795424 0.001876 -0.001279 -498039.000000 1 0 0
3.945996 8.550496 -5.978881 11.154769 1.138426 2.136480 0.002241 0.000884 -486470.000000 1 0 0
-14.125004 -1.792204 -2.687581 14.489680 0.126207 1.757359 -0.002118 -0.008436 -396329.000000 1 0 0
8.692696 -10.503504 -6.468281 15.090567 -0.879451 2.013773 0.003771 -0.005235 328442.000000 1 0 0
14.717496 6.151796 1.672019 16.038857 0.395920 1.466359 -0.004650 0.001551 -1370960.000000 1 0 0
-5.857804 0.383496 -8.484481 10.317332 -0.065374 2.536329 0.004484 -0.010296 476463.000000 1 0 0
-7.897204 -4.612104 -13.021181 15.911898 0.528585 2.529295 0.007768 -0.001900 843720.000000 1 0 0
0.811596 -10.539904 11.908819 15.923827 -1.493946 0.725961 -0.002889 0.000868 -12705.700000 1 0 0
0.133496 11.604196 3.193019 12.036218 1.559293 1.302298 0.000086 -0.002830 -479342.000000 1 0 0
5.196396 -13.246504 -3.576981 14.671987 -1.196959 1.817075 -0.005197 0.000441 -347805.000000 1 0 0
-7.556904 1.619396 -6.991681 10.421748 -0.211101 2.306183 -0.004036 -0.005087 330250.000000 1 0 0
1.384996 2.715996 4.110319 5.117575 1.099228 0.638187 -0.002790 -0.000721 -1966900.000000 1 0 0
17.071396 5.512896 2.065919 18.058034 0.312360 1.456141 0.003644 -0.002827 440509.000000 1 0 0
2.540596 -8.154904 -3.563081 9.254871 -1.268784 1.965999 -0.005687 0.001768 447664.000000 1 0 0
-0.240004 -9.472404 -0.613581 9.495290 1.545465 1.635461 0.005761 0.003158 -142755.000000 1 0 0
0.849396 11.820596 -5.643481 13.126189 1.499062 2.015223 0.005716 0.001593 316457.000000 1 0 0
6.004196 -5.044904 7.914119 11.141576 -0.698795 0.780839 0.001877 -0.002185 -1339420.000000 1 0 0
-6.109004 -2.002504 -9.380981 11.372456 0.316758 2.540797 0.005811 -0.009596 -615232.000000 1 0 0
2.086096 -1.211504 11.314619 11.568930 -0.526146 0.210063 -0.001390 -0.001943 96831.400000 1 0 0
17.932796 2.253296 -5.842081 18.994537 0.124997 1.883431 0.007621 0.009760 -1184710.000000 1 0 0
-8.912904 4.752096 7.839119 12.785698 -0.489830 0.910797 -0.002093 -0.006189 691177.000000 1 0 0
11.391396 -7.118604 -4.897181 14.297581 -0.558535 1.920392 0.026451 -0.005792 169548.000000 1 0 0
10.803596 0.654296 8.872019 13.994946 0.060489 0.884153 0.007972 -0.011211 -108916.000000 1 0 0
-8.393004 -7.366004 -1.563081 11.275804 0.720321 1.709867 0.003959 -0.002491 -73032.100000 1 0 0
10.250396 -10.571204 -3.182481 15.064832 -0.800804 1.783652 0.019356 -0.006177 49342.400000 1 0 0
7.627596 -14.015804 -3.789281 16.400660 -1.072406 1.803947 0.010301 -0.001804 -1360750.000000 1 0 0
1.730796 -1.144504 -11.753781 11.935531 -0.584250 2.966856 0.005927 -0.005768 214430.000000 1 0 0
-11.785004 -2.685204 -6.457081 13.703669 0.224025 2.061440 0.001951 -0.006985 -258644.000000 1 0 0
2.841596 -12.086904 -6.371881 13.955959 -1.339892 2.044933 -0.006934 0.002467 659303.000000 1 0 0
-5.585704 1.473996 1.063219 5.873941 -0.258006 1.388787 -0.004762 -0.002226 414022.000000 1 0 0
0.020796 6.840996 -3.887081 7.868230 1.567756 2.087506 0.006489 -0.002807 1143180.000000 1 0 0
5.515296 -11.774004 3.557719 13.479727 -1.132722 1.303701 -0.000333 -0.004481 -2290700.000000 1 0 0
-4.490204 -9.144304 1.037619 10.239965 1.114344 1.469292 0.003132 0.002682 -7791.200000 1 0 0
6.996096 -6.071704 -4.807581 10.436656 -0.714778 2.049517 0.002375 -0.004078 -910384.000000 1 0 0
-7.012604 -5.960104 2.148919 9.450784 0.704444 1.341410 0.001952 -0.000730 -213883.000000 1 0 0
-6.118804 -0.729004 7.147919 9.437370 0.118583 0.711465 -0.003658 0.000345 -1357880.000000 1 0 0
4.156996 -4.935504 3.301819 7.248574 -0.870811 1.097848 -0.000833 -0.002105 -32572.100000 1 0 0
-2.432604 10.571396 -8.862481 14.007695 -1.344622 2.255814 0.000571 0.000757 1475760.000000 1 0 0
-2.321404 -4.834704 2.747219 6.025819 1.123151 1.097404 0.001337 -0.001013 1671540.000000 1 0 0
14.948896 5.120296 6.489619 17.082215 0.329996 1.181103 0.009551 -0.012677 687087.000000 1 0 0
6.789796 0.319896 0.141219 6.798794 0.047079 1.550024 0.000400 -0.003138 2681660.000000 1 0 0
-9.769804 9.221896 0.364319 13.439686 -0.756556 1.543685 -0.010118 -0.000783 -1956030.000000 1 0 0
7.194596 10.444296 -2.510181 12.928516 0.967590 1.766196 0.000551 -0.000838 -483460.000000 1 0 0
1.622296 -4.274204 -5.372881 7.054680 -1.208038 2.436583 -0.001770 -0.002199 -532795.000000 1 0 0
0.869896 -8.258404 -7.872581 11.442705 -1.465849 2.329526 -0.002772 0.002236 -826433.000000 1 0 0
-10.446304 0.238596 -10.537181 14.839622 -0.022836 2.360395 0.000533 -0.005512 -4333440.000000 1 0 0
5.826496 -2.513004 0.528419 6.367297 -0.407200 1.487711 0.001883 -0.003023 197493.000000 1 0 0
-3.388804 5.200896 -1.213381 6.324998 -0.993311 1.763832 -0.000683 -0.003082 953973.000000 1 0 0
-0.386304 4.477996 -5.066981 6.773180 -1.484742 2.415983 0.005719 -0.004057 -1386380.000000 1 0 0
3.980396 -9.710304 9.963119 14.470567 -1.181772 0.811365 0.001283 -0.001178 -1093000.000000 1 0 0
7.336596 -13.421004 -0.660581 15.309650 -1.070529 1.613958 0.010782 -0.000621 423878.000000 1 0 0
13.041196 -0.299804 0.504719 13.054402 -0.022985 1.532124 0.004452 -0.002705 -86195.600000 1 0 0
9.306696 2.442896 -0.609581 9.641261 0.256697 1.634065 0.001076 -0.000826 -626255.000000 1 0 0
-0.804304 -5.769604 4.552419 7.393224 1.432285 0.907452 0.000922 -0.000560 1050430.000000 1 0 0
11.405696 -3.716304 3.334519 12.450696 -0.314981 1.299669 0.014050 -0.007356 -2856130.000000 1 0 0
1.629496 -8.120804 11.726219 14.356425 -1.372769 0.614967 -0.000396 -0.000377 437441.000000 1 0 0
9.411796 -5.865204 -5.922181 12.571983 -0.557287 2.061290 0.008975 -0.006083 -1103040.000000 1 0 0
3.139296 6.294896 -0.090481 7.034847 1.108185 1.583658 -0.000828 0.000036 -275776.000000 1 0 0
6.344496 -1.337104 11.327319 13.051768 -0.207711 0.519885 -0.002748 -0.005354 191540.000000 1 0 0
-4.782704 -7.602404 -3.970981 9.820361 1.009251 1.987077 0.008966 -0.001423 371167.000000 1 0 0
-3.555104 -8.741304 -5.949681 11.155621 1.184526 2.133334 0.006895 -0.003043 -256228.000000 1 0 0
9.649096 5.344696 2.206719 11.249019 0.505837 1.373346 0.000214 -0.001864 -615230.000000 1 0 0
8.833696 -1.345404 0.292219 8.940341 -0.151142 1.538105 0.004342 -0.004720 306462.000000 1 0 0
-3.844204 9.579696 9.176919 13.811746 -1.189181 0.844067 0.003814 -0.005232 -61771.900000 1 0 0
-14.312904 -3.636304 -6.140281 15.993279 0.248794 1.964844 0.002494 -0.008929 1088880.000000 1 0 0
10.608096 6.211896 -5.913781 13.641560 0.529750 2.019183 -0.002525 -0.002372 -1101720.000000 1 0 0
-1.794104 4.348096 2.871919 5.511140 -1.179460 1.022643 -0.002684 -0.005061 436933.000000 1 0 0
6.917496 -3.704104 2.757819 8.317314 -0.491619 1.232823 0.002974 -0.003512 -2906500.000000 1 0 0
8.290396 -11.137804 -1.592181 13.975564 -0.930923 1.684970 0.010579 -0.004062 -1363200.000000 1 0 0
4.458596 0.443496 1.800919 4.828983 0.099144 1.188621 -0.000939 -0.001455 418707.000000 1 0 0
-10.691104 2.332496 3.736519 11.562950 -0.214806 1.241745 -0.007490 -0.004852 231554.000000 1 0 0
-0.871604 -3.048104 4.354819 5.386565 1.292279 0.629267 0.000750 -0.002541 91826.700000 1 0 0
8.608596 -8.792804 -8.472481 14.940022 -0.795984 2.173776 0.015025 -0.003643 -486310.000000 1 0 0
12.099596 -4.635704 0.966319 12.993219 -0.365878 1.496357 0.011400 -0.003935 186458.000000 1 0 0
2.832596 4.834296 3.552119 6.634121 1.040781 1.005777 -0.002556 -0.001173 -386518.000000 1 0 0
6.048696 7.510796 2.004019 9.849612 0.892812 1.365904 0.001747 -0.000971 -110008.000000 1 0 0
-1.636404 -1.236204 -10.278281 10.480891 0.646973 2.944646 0.007279 -0.005931 975493.000000 1 0 0
-0.981204 -8.545104 6.035819 10.507744 1.456471 0.958905 -0.000031 -0.002332 -490774.000000 1 0 0
-4.241904 -0.209404 2.345319 4.851610 0.049326 1.066250 -0.003831 -0.002602 586672.000000 1 0 0
-8.406104 6.133496 -7.923081 13.078898 -0.630348 2.221556 -0.002650 -0.002976 -1611030.000000 1 0 0
6.453096 11.123296 -9.356781 15.903443 1.045106 2.199812 0.010249 -0.009559 283651.000000 1 0 0
-11.091104 -5.735304 3.079619 12.860418 0.477241 1.328982 -0.000121 -0.001967 953561.000000 1 0 0
1.533996 -6.305504 3.142519 7.210268 -1.332153 1.119826 -0.000586 -0.002883 783317.000000 1 0 0
10.133096 2.178396 7.283219 12.667688 0.211755 0.958260 0.006057 -0.006639 -2959500.000000 1 0 0
-3.993904 -2.334804 -10.474881 11.451013 0.529013 2.725699 0.006352 -0.006352 -2259660.000000 1 0 0
-8.334604 11.763396 5.808319 15.542833 -0.954375 1.187804 0.002800 -0.009695 -1186140.000000 1 0 0
6.899096 5.937396 -2.943381 9.566278 0.710619 1.883553 -0.000107 0.001116 -2717450.000000 1 0 0
3.831096 -9.808404 -2.322781 10.783200 -1.198425 1.787905 -0.005310 -0.001175 -1752290.000000 1 0 0
8.473296 -12.898904 -7.292381 17.069191 -0.989585 2.012217 0.015516 -0.004789 321963.000000 1 0 0
-1.199104 9.317196 3.703119 10.097578 -1.442802 1.195301 -0.002638 -0.002856 -96326.100000 1 0 0
0.475996 -13.230904 4.743619 14.063617 -1.534836 1.226752 0.003542 -0.003888 -1871930.000000 1 0 0
-11.232404 -7.099604 -5.150881 14.251416 0.563663 1.940597 0.000393 -0.009566 -42591.700000 1 0 0
3.580796 10.263596 -3.416981 11.394703 1.235117 1.875357 0.004329 -0.003570 -586970.000000 1 0 0
11.612896 -8.199404 -7.341381 15.999546 -0.614782 2.047496 0.041509 -0.006773 160966.000000 1 0 0
11.769796 -4.863104 -5.951481 14.056956 -0.391821 2.007973 0.021119 -0.004156 751102.000000 1 0 0
1.289796 -10.303704 -2.715181 10.733224 -1.446266 1.826545 -0.003757 0.003196 -1459250.000000 1 0 0
2.430696 -12.046504 -3.869981 12.884227 -1.371694 1.875872 -0.006380 0.003675 -1180040.000000 1 0 0
-7.668104 -5.692604 7.266919 12.000570 0.638603 0.920342 -0.000144 -0.001432 -2856690.000000 1 0 0
-7.270504 -0.762004 9.543419 12.021553 0.104426 0.653667 -0.001089 -0.001317 803790.000000 1 0 0
16.154496 2.709396 -7.543581 18.033696 0.166171 2.002374 0.006858 0.007890 -99102.500000 1 0 0
-2.038804 6.213196 -5.544281 8.573189 -1.253726 2.274046 0.005573 -0.001768 -1662030.000000 1 0 0
7.632396 1.321796 8.315919 11.364644 0.171481 0.749931 0.006563 -0.005525 -934950.000000 1 0 0
7.931496 8.245696 -3.610581 11.997350 0.804818 1.876483 0.000963 0.002256 -325575.000000 1 0 0
8.031896 0.617796 3.966919 8.979392 0.076767 1.113214 0.000085 -0.004983 730797.000000 1 0 0
-6.940704 5.747796 5.409919 10.510840 -0.691659 1.030140 -0.000186 -0.007218 -416902.000000 1 0 0
-6.109004 -2.181904 -4.541081 7.918463 0.343041 2.181544 -0.001249 -0.005369 -1411020.000000 1 0 0
-15.120504 -2.198704 3.212919 15.613673 0.144400 1.363540 0.011040 -0.006748 -1865360.000000 1 0 0
1.169596 1.165696 -10.439381 10.569175 0.783728 2.984712 0.008529 -0.007897 384283.000000 1 0 0
1.415096 -9.289204 9.352119 13.257223 -1.419621 0.787759 0.004801 -0.002777 -270594.000000 1 0 0
-0.294904 -6.788704 -1.226881 6.904977 1.527383 1.749425 0.001511 0.002130 1223240.000000 1 0 0
-0.552104 -10.277204 -8.433881 13.306243 1.517127 2.257290 0.002640 -0.000107 -77679.000000 1 0 0
-4.482104 6.534196 3.818319 8.795711 -0.969565 1.121745 -0.004486 -0.002374 85804.300000 1 0 0
10.778796 -1.087404 -8.602681 13.833691 -0.100543 2.241918 0.020144 -0.001550 1068830.000000 1 0 0
3.028496 -1.062504 6.365619 7.128942 -0.337419 0.466993 0.000306 0.000488 273862.000000 1 0 0
1.941796 -12.337504 6.733119 14.188710 -1.414687 1.076354 0.003489 -0.004122 -172773.000000 1 0 0
2.905196 -4.950904 -1.305581 5.886948 -1.040138 1.794431 0.001550 -0.002352 -2383690.000000 1 0 0
-1.028304 9.440296 -1.658081 9.639804 -1.462297 1.743660 0.003252 -0.001989 235409.000000 1 0 0
4.552596 -2.516004 2.596319 5.813543 -0.504878 1.107836 -0.000210 -0.002033 -566075.000000 1 0 0
17.699296 6.859496 -2.533881 19.150413 0.369734 1.703500 0.010129 0.011058 629456.000000 1 0 0
-7.121504 3.551196 -5.471181 9.657154 -0.462573 2.173099 -0.000509 -0.006489 -1494180.000000 1 0 0
-13.732104 -6.020704 2.268319 15.164592 0.413199 1.420653 -0.002180 -0.005559 545575.000000 1 0 0
6.663096 -6.035704 3.435519 9.624415 -0.736033 1.205786 0.002741 -0.003690 41334.600000 1 0 0
-4.574204 2.016996 3.503719 6.104725 -0.415303 0.959492 -0.004234 -0.002149 755929.000000 1 0 0
6.868396 -12.099904 -5.402281 14.925387 -1.054510 1.941158 0.001685 -0.001873 -1375140.000000 1 0 0
2.929596 -12.273104 3.473319 13.087229 -1.336480 1.302180 0.002981 -0.005742 -824918.000000 1 0 0
3.472596 11.336996 -6.142381 13.353473 1.273564 2.048773 0.003683 0.001423 274123.000000 1 0 0
-5.522704 -8.339904 6.364619 11.855912 0.985891 1.004120 0.003615 0.000077 -381118.000000 1 0 0
-4.049004 6.568896 6.369519 10.005778 -1.018412 0.880735 -0.001357 -0.003920 -1615.520000 1 0 0
4.271996 4.200996 -6.952081 9.177676 0.777019 2.430270 0.003267 0.000886 -1659310.000000 1 0 0
-0.296004 -2.656404 1.638219 3.134943 1.459824 1.020937 0.002118 -0.003604 80973.200000 1 0 0
-13.167704 -0.939804 6.561019 14.741731 0.071251 1.109550 0.003997 -0.006236 -740504.000000 1 0 0
-0.525904 -9.260904 -5.985881 11.039551 1.514070 2.143875 -0.000482 0.003550 374277.000000 1 0 0
2.014396 -1.669704 -3.876281 4.676671 -0.692108 2.547854 0.003092 -0.003544 -645290.000000 1 0 0
11.291996 -1.954804 1.109319 11.513515 -0.171415 1.474297 0.007930 -0.005859 225341.000000 1 0 0
0.545996 -4.273704 -1.902481 4.709787 -1.443728 1.986618 0.001644 -0.002580 -1061720.000000 1 0 0
1.101496 -7.448404 -11.432481 13.689180 -1.423977 2.559197 -0.000571 0.000777 -435764.000000 1 0 0
-4.425304 4.047196 -9.970681 11.635187 -0.740800 2.600103 0.005626 -0.006773 -255922.000000 1 0 0
-1.077004 5.741096 -2.077481 6.199681 -1.385356 1.912502 0.003078 -0.002070 -1845620.000000 1 0 0
-11.211804 1.749196 -3.860981 11.986301 -0.154766 1.898760 -0.005223 -0.001650 -262172.000000 1 0 0
-1.670004 -11.303704 4.126019 12.148526 1.424118 1.224271 0.007591 -0.000924 -286910.000000 1 0 0
-3.478904 -5.377004 -9.723881 11.643402 0.996535 2.559185 0.001802 -0.000396 -3175740.000000 1 0 0
-12.796804 -3.808004 -8.359581 15.752513 0.289230 2.130202 0.007108 -0.005644 -126395.000000 1 0 0
11.317196 4.409596 0.600519 12.160760 0.371541 1.521395 0.000600 0.001521 -172956.000000 1 0 0
-8.823904 -2.399404 -3.014981 9.628527 0.265501 1.889283 -0.002049 -0.003813 -312912.000000 1 0 0
-2.540204 -6.195204 -6.423481 9.278701 1.181676 2.335443 0.002238 -0.002574 445749.000000 1 0 0
-0.025704 2.657796 -1.945981 3.294143 -1.561125 2.202771 0.001606 -0.003700 785179.000000 1 0 0
8.020896 6.079096 -5.194781 11.325896 0.648543 2.047287 -0.000723 -0.000382 -974857.000000 1 0 0
-9.833204 -0.902004 -0.944081 9.919516 0.091474 1.666115 -0.007984 -0.001380 -787694.000000 1 0 0
6.207996 0.503496 -8.936081 10.892486 0.080927 2.532888 0.000699 -0.000257 324609.000000 1 0 0
-4.094604 2.471196 7.928719 9.259437 -0.543007 0.542762 -0.008387 0.001651 -526071.000000 1 0 0
-10.107004 -3.299604 1.410919 10.725186 0.315558 1.438862 -0.005589 -0.002327 1710220.000000 1 0 0
-1.835904 -8.141504 -7.950781 11.526906 1.349007 2.331952 0.003029 -0.001713 348488.000000 1 0 0
-9.445004 -9.794404 4.197819 14.239387 0.803557 1.271547 0.003004 0.000170 -200042.000000 1 0 0
-1.268004 -10.715604 7.196919 12.970261 1.453012 0.982579 0.002077 -0.002492 -22654.000000 1 0 0
9.522596 3.688296 -3.673981 10.852718 0.369528 1.916152 0.000688 -0.000065 -639842.000000 1 0 0
12.703996 -0.873304 3.064519 13.097536 -0.068635 1.334630 0.011368 -0.007471 -83161.600000 1 0 0
6.474196 11.832396 -6.882081 15.142121 1.070137 2.042606 0.001324 -0.002573 -198900.000000 1 0 0
-11.744804 -0.097404 -6.472881 13.410745 0.008293 2.074490 -0.003096 -0.001472 599380.000000 1 0 0
-7.631804 -6.693904 -11.318081 15.203675 0.720022 2.410478 0.010966 -0.003720 -1773850.000000 1 0 0
4.030896 6.048696 6.448019 9.716573 0.982973 0.845162 -0.002459 0.000794 -3885780.000000 1 0 0
-4.284304 -1.435604 -7.455681 8.717993 0.323326 2.596745 0.004509 -0.011167 -6431.390000 1 0 0
9.604896 9.270596 0.865619 13.377117 0.767689 1.506042 0.002837 0.001473 -1477170.000000 1 0 0
-8.935404 4.002196 4.865619 10.933127 -0.421109 1.109583 -0.004872 -0.004545 1071280.000000 1 0 0
-7.006904 7.910196 -12.188781 16.131778 -0.845878 2.427329 -0.000583 -0.003025 -1212190.000000 1 0 0
11.145996 -3.642404 7.164519 13.741567 -0.315850 1.022334 0.012674 -0.004838 866702.000000 1 0 0
11.789896 6.908696 6.445719 15.108905 0.530050 1.130047 -0.000606 -0.005363 225153.000000 1 0 0
-9.867604 -0.871604 -14.774881 17.788378 0.088101 2.550966 0.009184 -0.003961 524439.000000 1 0 0
1.738996 -12.950304 12.079219 17.794438 -1.437313 0.824642 -0.001163 0.002328 114522.000000 1 0 0
2.906496 3.164096 13.035319 13.725115 0.827807 0.318385 0.003421 -0.001311 -313718.000000 1 0 0
-2.559304 -1.413804 10.968719 11.351726 0.504697 0.260505 0.001561 0.001161 -532952.000000 1 0 0
2.561696 -10.086104 -8.276881 13.296561 -1.322073 2.242707 -0.008889 0.002994 -1091490.000000 1 0 0
13.884096 3.592596 -7.581381 16.221967 0.253203 2.057090 0.007097 0.000851 -2700250.000000 1 0 0
7.434096 -1.527104 5.018419 9.098481 -0.202601 0.986555 0.003699 -0.004090 280292.000000 1 0 0
-1.207104 8.747396 10.149819 13.453359 -1.433667 0.715988 0.002961 -0.002873 18067.800000 1 0 0
-12.185004 -4.596904 0.941919 13.057299 0.360750 1.498596 -0.004856 -0.002244 -27844.300000 1 0 0
-4.893304 4.820896 -5.216281 8.625256 -0.777944 2.220271 0.004987 -0.005064 97310.500000 1 0 0
-11.194204 0.363096 2.116319 11.398283 -0.032425 1.384043 -0.008485 0.000107 -3451730.000000 1 0 0
-1.670204 2.383696 -4.002081 4.948559 -0.959615 2.512797 0.004627 -0.007968 1108840.000000 1 0 0
3.093396 -9.777804 13.121319 16.653636 -1.264390 0.663413 0.003062 0.001799 -2202900.000000 1 0 0
8.945996 4.641896 -1.512481 10.191449 0.478637 1.719753 0.001731 -0.000946 -1105190.000000 1 0 0
3.922496 2.228496 3.764119 5.875437 0.516657 0.875447 -0.004359 0.000607 521655.000000 1 0 0
-5.591404 -3.311004 7.405119 9.852022 0.534635 0.720260 -0.000969 -0.001762 43910.200000 1 0 0
1.782896 -5.832904 7.648919 9.783019 -1.274153 0.673158 0.003510 -0.001646 -1093240.000000 1 0 0
-5.784204 -6.143804 -9.864781 12.981419 0.815537 2.433979 0.009457 -0.002225 -1158490.000000 1 0 0
-11.783604 -5.868504 5.420219 14.236272 0.462065 1.180207 0.008109 -0.004154 -247814.000000 1 0 0
10.441396 6.202696 4.519519 12.958481 0.536032 1.214539 0.001041 -0.002675 -1583480.000000 1 0 0
1.408696 -3.709404 0.453219 3.993684 -1.207856 1.457067 0.006184 -0.002901 -649410.000000 1 0 0
8.764596 4.266996 6.993619 11.997337 0.453068 0.948465 0.001900 0.000046 -363837.000000 1 0 0
-7.962304 12.086196 3.393419 14.865722 -0.988264 1.340494 -0.005297 -0.005608 -113106.000000 1 0 0
-6.245804 13.197096 -7.031681 16.205491 -1.128760 2.019621 0.004675 -0.007920 185132.000000 1 0 0
4.413696 -6.953404 -0.941581 8.289579 -1.005214 1.684628 0.000897 -0.002468 -863014.000000 1 0 0
-1.990704 -8.209004 11.074019 13.927834 1.332886 0.651624 -0.000163 -0.001689 139415.000000 1 0 0
11.563696 8.747396 -5.779481 15.608920 0.647618 1.950094 -0.000116 -0.006072 -17718.900000 1 0 0
-3.316804 -2.836204 -1.913181 4.765029 0.707448 1.983955 0.004930 -0.003244 -1618020.000000 1 0 0
-2.099104 5.988496 4.808219 7.961613 -1.233656 0.922380 -0.001916 -0.001189 -226419.000000 1 0 0
0.500796 -11.359204 -5.589481 12.669831 -1.526738 2.027692 -0.001383 0.002690 -308944.000000 1 0 0
-8.785404 6.241496 -1.460081 10.875267 -0.617698 1.705460 -0.001360 -0.001127 -1293860.000000 1 0 0
2.920196 -0.092404 3.968319 4.927843 -0.031633 0.634640 -0.002626 -0.001257 -833635.000000 1 0 0
-10.043304 3.880996 -1.134781 10.826717 -0.368750 1.675802 -0.000362 -0.002847 -39239.200000 1 0 0
6.437296 5.439796 13.597819 15.997839 0.701610 0.554852 0.013320 -0.001984 -911243.000000 1 0 0
-8.740204 -1.742004 5.707419 10.583023 0.196731 1.001191 -0.004186 -0.002578 -605118.000000 1 0 0
13.048096 -1.870804 -1.630881 13.282036 -0.142407 1.693895 0.011237 -0.004548 -1572720.000000 1 0 0
5.162296 -5.450904 5.500219 9.306668 -0.812585 0.938501 0.002467 -0.003841 -115052.000000 1 0 0
-9.013604 -1.173604 3.233919 9.647831 0.129475 1.228983 -0.008003 -0.000642 519168.000000 1 0 0
1.919296 5.337496 5.618419 7.983683 1.225606 0.790151 -0.002573 0.000388 -1228530.000000 1 0 0
9.333996 3.032296 -7.398781 12.290657 0.314110 2.216780 0.000870 -0.000511 -1399110.000000 1 0 0
2.348196 -2.368204 -1.493281 3.654080 -0.789640 1.991783 0.000851 -0.003041 -231045.000000 1 0 0
-6.235904 0.335296 -4.038381 7.436897 -0.053717 2.144825 -0.004183 -0.002565 -2517240.000000 1 0 0
-4.005404 4.208296 5.077319 7.715710 -0.810095 0.852571 -0.004894 -0.001196 713826.000000 1 0 0
-6.457704 1.782696 -12.251281 13.963303 -0.269349 2.641194 0.007318 -0.008655 -1905930.000000 1 0 0
-0.277704 3.024496 6.272019 6.968710 -1.479235 0.450967 -0.003244 -0.000086 1251810.000000 1 0 0
-8.839204 9.356796 -2.207181 13.059586 -0.813836 1.740620 -0.004321 -0.001905 234423.000000 1 0 0
-1.418204 -3.782304 -6.150381 7.358282 1.212063 2.560466 0.002711 -0.004060 424313.000000 1 0 0
-3.232104 7.076196 -3.019081 8.344692 -1.142337 1.940991 0.004470 -0.000812 509758.000000 1 0 0
6.927596 -0.431704 -4.400381 8.218352 -0.062236 2.135817 0.003996 -0.002189 -1566.570000 1 0 0
-5.050804 -10.842004 6.953019 13.834889 1.134836 1.044226 -0.000781 -0.001719 90970.200000 1 0 0
9.764896 8.380096 -1.469381 12.951381 0.709227 1.684495 0.000344 0.002686 -257207.000000 1 0 0
13.718496 4.579696 -4.258181 15.076566 0.322201 1.857130 -0.004319 -0.000625 712775.000000 1 0 0
4.737696 1.019996 -6.822481 8.368536 0.212057 2.523964 0.000611 -0.002283 -201085.000000 1 0 0
8.971596 -4.746104 3.524519 10.744174 -0.486589 1.236568 0.006049 -0.004207 -990399.000000 1 0 0
-8.773404 -3.250104 -0.753581 9.386356 0.354775 1.651168 -0.005862 -0.001292 289462.000000 1 0 0
-8.498304 -4.298704 -10.448181 14.137345 0.468301 2.402453 0.007213 -0.003974 57998.500000 1 0 0
10.607196 -1.015404 10.579719 15.015795 -0.095437 0.788976 0.009898 -0.007359 74991.700000 1 0 0
2.179696 -11.623604 9.855019 15.394176 -1.385426 0.876066 0.000414 -0.005436 1074290.000000 1 0 0
-6.419004 -10.515804 2.123519 12.501803 1.022754 1.400112 0.003928 0.000881 -1186110.000000 1 0 0
-3.733604 -1.494904 6.643419 7.765923 0.380844 0.544362 0.000035 -0.001004 -3284030.000000 1 0 0
4.689096 -7.546404 3.930519 9.715185 -1.014813 1.154282 0.000235 -0.002961 240025.000000 1 0 0
11.351296 -9.470304 -5.153481 15.655573 -0.695304 1.906230 0.029994 -0.009069 640846.000000 1 0 0
11.338796 1.243496 11.374519 16.108826 0.109231 0.786814 0.009793 -0.009377 47401.800000 1 0 0
-10.238504 -3.508704 4.420119 11.690827 0.330154 1.183070 0.001741 -0.002366 1465260.000000 1 0 0
2.136996 8.761896 8.934319 12.694866 1.331570 0.790100 -0.002106 0.000855 -20681.400000 1 0 0
6.575596 8.842096 4.236319 11.805402 0.931359 1.203765 0.003336 -0.000716 -1461300.000000 1 0 0
-4.381904 3.677796 0.486619 5.741434 -0.698258 1.485939 -0.002900 -0.003640 -212919.000000 1 0 0
4.957996 6.884796 4.179619 9.457872 0.946683 1.113059 0.000344 -0.001242 -974345.000000 1 0 0
-8.235504 13.174896 1.057919 15.573073 -1.012132 1.502811 -0.005121 -0.001639 1282930.000000 1 0 0
8.828896 8.096796 -9.068081 15.024566 0.742171 2.218743 0.001971 -0.008039 -454030.000000 1 0 0
6.950496 1.965896 6.007019 9.394595 0.275643 0.877063 0.000215 -0.002415 -403994.000000 1 0 0
11.514396 -6.188404 2.958419 13.402608 -0.493156 1.348229 0.012611 -0.004259 141302.000000 1 0 0
11.427596 4.735996 -1.993881 12.529771 0.392888 1.730607 -0.004391 0.001762 -907972.000000 1 0 0
-3.970304 14.328796 -6.011281 16.037867 -1.300492 1.954997 -0.002246 0.000998 -668473.000000 1 0 0
7.085396 -3.007004 6.891919 10.331673 -0.401358 0.840531 0.003741 -0.005039 -1693310.000000 1 0 0
-7.925304 -0.587504 0.864919 7.993978 0.073995 1.462388 -0.004185 -0.002699 377907.000000 1 0 0
-3.253704 1.133596 10.751219 11.289834 -0.335250 0.310136 -0.002497 0.003153 -340434.000000 1 0 0
7.098696 -1.304204 -1.876181 7.457378 -0.181698 1.825116 0.004654 -0.003555 -3078830.000000 1 0 0
-7.709304 5.443796 2.971519 9.894352 -0.614830 1.265763 -0.003456 -0.002825 677720.000000 1 0 0
9.375196 -2.197104 2.807819 10.030225 -0.230199 1.287069 0.002991 -0.005227 -2081220.000000 1 0 0
0.216296 3.462996 1.584019 3.814215 1.508418 1.142531 -0.000047 -0.002140 -4278660.000000 1 0 0
-7.567704 -3.124304 3.921719 9.078067 0.391532 1.124088 -0.004367 -0.002262 -786381.000000 1 0 0
-2.310304 8.409696 -6.703081 10.999626 -1.302691 2.226089 0.000914 -0.001722 -303224.000000 1 0 0
4.546396 9.795396 7.327719 13.050477 1.136249 0.974610 -0.000320 0.003469 -1313240.000000 1 0 0
-11.852204 -3.191704 6.897819 14.079831 0.263052 1.058812 0.007135 -0.006681 -766794.000000 1 0 0
-4.732104 2.277396 -5.713481 7.760361 -0.448548 2.398292 0.005439 -0.008835 -682620.000000 1 0 0
-2.774504 2.767196 -1.663381 4.257004 -0.784079 1.972231 0.000535 -0.004183 1088860.000000 1 0 0
2.191096 5.374896 11.505619 12.886803 1.183709 0.467224 0.009282 -0.003057 219358.000000 1 0 0
-0.682804 1.602496 4.542119 4.864675 -1.168005 0.366201 -0.001427 -0.002832 -938847.000000 1 0 0
5.046896 1.580396 7.731319 9.367076 0.303470 0.599936 0.000798 -0.000044 107126.000000 1 0 0
3.303296 -8.214104 1.888219 9.052549 -1.188439 1.360669 0.002295 -0.001491 2225480.000000 1 0 0
5.056896 6.380296 -4.633481 9.367471 0.900596 2.088211 0.003230 -0.000572 -1889480.000000 1 0 0
-4.271604 2.745696 -7.981081 9.459550 -0.571282 2.574947 0.005064 -0.009050 -1008070.000000 1 0 0
-8.673504 -2.211504 -12.933981 15.729217 0.249653 2.536220 0.009597 -0.006585 537808.000000 1 0 0
-7.885804 8.112396 1.163319 11.373222 -0.799561 1.468331 -0.001943 -0.002103 -1278750.000000 1 0 0
7.395596 0.911296 -6.572881 9.936199 0.122603 2.293625 0.002207 -0.000817 170424.000000 1 0 0
8.940896 8.866196 5.525519 13.750651 0.781203 1.157274 0.000896 0.000953 475516.000000 1 0 0
9.291696 -1.041004 -1.416381 9.456502 -0.111571 1.721141 0.003281 -0.004617 -325322.000000 1 0 0
5.392996 0.111496 4.326819 6.915071 0.020671 0.894757 -0.003357 -0.000499 -816471.000000 1 0 0
-4.272804 -7.305604 -8.034381 11.669618 1.041579 2.330197 0.007295 -0.004700 -297136.000000 1 0 0
-2.243704 7.386896 -0.531781 7.738425 -1.275911 1.639570 0.000145 -0.001458 265113.000000 1 0 0
13.426296 -3.386004 -7.422781 15.710765 -0.247041 2.062881 0.026661 -0.003768 1245020.000000 1 0 0
-4.844904 -5.010904 1.586119 7.148289 0.802239 1.347046 0.002238 -0.002103 436492.000000 1 0 0
-8.876604 1.266896 2.416119 9.286375 -0.141766 1.307589 -0.007782 -0.002233 -2972840.000000 1 0 0
-0.972604 11.128296 10.084719 15.049468 -1.483619 0.836446 0.005564 -0.006068 740086.000000 1 0 0
-8.449504 0.287496 7.400319 11.235724 -0.034012 0.851784 -0.004572 -0.003432 -5719.340000 1 0 0
-6.182604 13.000196 -2.176781 14.559123 -1.126877 1.720872 0.002130 0.000128 1141650.000000 1 0 0
-12.978404 -0.798804 3.288819 13.412434 0.061471 1.323063 0.001240 -0.005997 331536.000000 1 0 0
-6.710104 12.618196 8.540519 16.648869 -1.082049 1.032145 0.012808 -0.014955 2806120.000000 1 0 0
-8.016404 0.916096 -14.065281 16.215242 -0.113784 2.620772 0.004996 -0.005215 250102.000000 1 0 0
7.343296 2.910996 3.706119 8.725435 0.377412 1.132112 -0.000879 -0.001878 -722653.000000 1 0 0
-1.646404 0.623096 -2.146381 2.775940 -0.361799 2.454682 0.001801 -0.007081 1385940.000000 1 0 0
-6.186904 9.546096 -10.329081 15.365404 -0.995752 2.308013 -0.003252 -0.002983 -175216.000000 1 0 0
-10.017004 13.704196 5.165519 17.743391 -0.939603 1.275395 -0.008934 -0.006941 571264.000000 1 0 0
-5.716704 8.315296 2.389219 10.369822 -0.968514 1.338306 -0.004104 -0.002076 -1487910.000000 1 0 0
-2.461004 -10.747804 -1.225481 11.093856 1.345699 1.681487 0.004983 0.002926 763365.000000 1 0 0
-2.306404 -12.457604 8.798119 15.424601 1.387729 0.963809 0.002235 0.000587 460451.000000 1 0 0
-14.704704 -6.379004 -1.745681 16.123505 0.409307 1.679278 0.010780 -0.005870 732400.000000 1 0 0
-2.799604 -9.379404 3.238119 10.310016 1.280731 1.251314 0.002442 0.000223 -745823.000000 1 0 0
4.691696 -2.707304 7.593119 9.327217 -0.523367 0.619650 0.003340 -0.001031 -494850.000000 1 0 0
-14.979104 -1.262404 -0.271381 15.034656 0.084079 1.588848 0.004346 -0.012008 38860.000000 1 0 0
5.474196 8.708396 -2.883081 10.682468 1.009604 1.844074 0.001200 -0.001284 -1486440.000000 1 0 0
-5.626404 -5.821304 8.470619 11.717312 0.802422 0.762785 0.001686 -0.003081 -1821580.000000 1 0 0
3.363596 3.545696 7.041719 8.571554 0.811748 0.606721 -0.001089 0.000484 952416.000000 1 0 0
3.205796 2.493696 9.384419 10.225604 0.661101 0.408450 0.003611 -0.001778 1278050.000000 1 0 0
9.907896 -3.206304 5.164119 11.623894 -0.312975 1.110440 0.015132 -0.006586 -514730.000000 1 0 0
6.566396 9.968896 -5.001881 12.942768 0.988337 1.967588 0.002748 -0.002230 130304.000000 1 0 0
-4.457204 12.127996 -8.418681 15.421710 -1.218605 2.148257 -0.004659 -0.004547 -582537.000000 1 0 0
-3.308004 -7.188104 2.073819 8.180004 1.139488 1.314476 0.004715 -0.000011 1026960.000000 1 0 0
-7.440104 -4.101504 1.094019 8.565884 0.503818 1.442728 -0.001592 -0.002211 1391810.000000 1 0 0
-1.971304 -3.846704 -10.906181 11.731494 1.097226 2.764257 0.006087 -0.003042 -1326980.000000 1 0 0
-5.242704 8.378696 -4.433681 10.832636 -1.011681 1.992471 0.004396 -0.004005 -986562.000000 1 0 0
-10.946304 -3.265204 -10.249181 15.346949 0.289890 2.302088 0.011960 -0.004480 -1095040.000000 1 0 0
4.696496 -11.340604 -7.712381 14.496455 -1.178168 2.131779 -0.005556 -0.000294 -1352280.000000 1 0 0
-9.403504 -4.033404 7.273619 12.553875 0.405191 0.952813 -0.000983 -0.003359 -1149260.000000 1 0 0
-5.798704 -9.690404 -5.121481 12.399938 1.031557 1.996569 0.009466 -0.008351 -1357930.000000 1 0 0
4.919696 4.277596 -9.421281 11.456953 0.715697 2.536272 -0.001625 0.003371 115146.000000 1 0 0
-3.474904 -7.103504 -14.133381 16.195283 1.115841 2.631471 0.004226 0.005628 43739.600000 1 0 0
0.614096 -0.800804 -8.746081 8.804109 -0.916599 3.026717 0.005563 -0.008880 -265718.000000 1 0 0
-7.747304 2.155096 -2.977181 8.574891 -0.271314 1.925377 -0.005220 -0.002845 -705094.000000 1 0 0
-2.311604 7.481496 -12.599681 14.834697 -1.271125 2.585527 0.003361 -0.004401 9373.200000 1 0 0
-9.869304 8.751296 7.621219 15.233887 -0.725429 1.046873 -0.001252 -0.012818 -228913.000000 1 0 0
-10.573304 -3.219704 -14.274181 18.053074 0.295592 2.482713 0.015784 -0.002740 -369560.000000 1 0 0
-3.320704 4.841796 7.987519 9.913149 -0.969636 0.633856 -0.003323 -0.001579 -247248.000000 1 0 0
8.679596 -2.263904 -3.680281 9.695624 -0.255146 1.960140 0.006112 -0.003787 -5130320.000000 1 0 0
1.907896 -8.327004 -1.238381 8.632071 -1.345562 1.714756 -0.001524 0.002936 -1771620.000000 1 0 0
-13.552704 -2.862604 5.041319 14.740597 0.208161 1.221749 0.011387 -0.008721 349967.000000 1 0 0
7.106096 2.642596 -1.937381 7.825174 0.356030 1.820981 -0.000315 -0.000801 1020640.000000 1 0 0
-11.163904 4.348196 8.777519 14.852084 -0.371411 0.938504 -0.002863 -0.003032 -2995990.000000 1 0 0
-1.772704 -2.568404 7.954919 8.545170 0.966680 0.373856 -0.000295 -0.000236 -164761.000000 1 0 0
3.241296 11.969596 -9.943481 15.894969 1.306344 2.246664 0.005425 -0.006082 749225.000000 1 0 0
3.544696 -5.062904 -7.056181 9.380168 -0.959982 2.422258 -0.003346 -0.002852 -371949.000000 1 0 0
8.126096 -13.931104 -9.657181 18.798145 -1.042742 2.110324 0.020700 -0.001168 262094.000000 1 0 0
-6.264804 -5.810504 -0.502481 8.559335 0.747794 1.629536 0.006142 -0.000987 -561276.000000 1 0 0
-1.208204 -4.057204 9.878619 10.747455 1.281366 0.404856 0.000846 0.000671 1281320.000000 1 0 0
2.766696 3.347096 1.832319 4.713284 0.880047 1.171515 -0.003853 -0.000539 -293821.000000 1 0 0
-9.161204 13.248996 7.703119 17.855016 -0.965822 1.124723 0.000944 -0.020423 -368570.000000 1 0 0
3.971896 -11.038504 -0.047781 11.731446 -1.225398 1.574869 -0.001822 -0.001272 272254.000000 1 0 0
-12.393004 -1.469204 -9.087181 15.437680 0.118000 2.200167 0.003068 -0.006785 194366.000000 1 0 0
-4.354804 0.911596 -13.530181 14.242932 -0.206351 2.823896 0.008560 -0.008622 265835.000000 1 0 0
3.960396 -3.080904 5.014619 7.093879 -0.661137 0.785699 -0.000304 -0.000210 -287643.000000 1 0 0
1.727496 -1.210504 0.995919 2.332685 -0.611214 1.129689 0.001320 -0.002634 -143493.000000 1 0 0
8.201196 -8.935404 7.384119 14.199517 -0.828216 1.023915 0.012289 -0.003464 -1049650.000000 1 0 0
-0.043504 2.178696 -6.135181 6.510687 -1.550831 2.800305 0.005980 -0.006816 1066370.000000 1 0 0
-3.785004 -9.802604 -3.424081 11.051771 1.202310 1.885802 0.007821 -0.000027 747253.000000 1 0 0
-9.396504 2.307496 -5.361181 11.061694 -0.240805 2.076773 -0.004370 -0.000834 -2298120.000000 1 0 0
8.978296 -7.619504 5.338419 12.929245 -0.703715 1.145166 0.007307 -0.001897 124752.000000 1 0 0
-5.487304 -4.303704 4.677519 8.397116 0.665096 0.979980 -0.001585 -0.002868 -772235.000000 1 0 0
-0.210404 -12.486304 10.332419 16.208361 1.553947 0.879580 0.005800 -0.000317 -695349.000000 1 0 0
-14.252004 -8.332304 3.109919 16.799361 0.529049 1.384601 0.008654 -0.007827 -1315960.000000 1 0 0
10.926096 -1.308104 -3.627681 11.586664 -0.119156 1.889242 0.014477 -0.003527 -575302.000000 1 0 0
-13.555704 3.026496 2.750819 14.159230 -0.219661 1.375276 0.002210 -0.005294 -370588.000000 1 0 0
-6.348304 6.085896 0.917319 8.841977 -0.764298 1.466863 -0.004305 -0.000147 759014.000000 1 0 0
7.068196 -6.837004 -0.503281 9.846691 -0.768773 1.621930 0.002715 -0.003274 -285194.000000 1 0 0
-6.934404 7.803496 10.047419 14.489001 -0.844300 0.804528 0.000472 -0.005191 437885.000000 1 0 0
-12.517404 -5.085704 -1.847481 13.636824 0.385918 1.706692 -0.004019 -0.006303 -1021440.000000 1 0 0
-9.400904 -5.563504 0.100819 10.924273 0.534372 1.561567 -0.000711 -0.001809 -1154560.000000 1 0 0
-1.803404 1.800496 2.120419 3.315151 -0.784591 0.876799 -0.000656 -0.002819 322381.000000 1 0 0
-7.029404 7.335896 7.552919 12.659956 -0.806730 0.931539 -0.000193 -0.008434 -14172.800000 1 0 0
5.560496 7.221696 -0.470881 9.126540 0.914636 1.622414 0.004099 -0.001694 -1792510.000000 1 0 0
-0.038604 -4.037104 7.565419 8.575271 1.561234 0.490204 0.000408 -0.000570 -475223.000000 1 0 0
6.563396 0.645296 13.026219 14.600581 0.098002 0.468667 -0.000801 -0.004300 702254.000000 1 0 0
5.756196 6.039496 -7.854381 11.458647 0.809411 2.326024 -0.003965 0.000487 -333169.000000 1 0 0
9.982496 5.241296 8.991219 14.420937 0.483485 0.897606 0.007607 -0.003399 -3002350.000000 1 0 0
-1.246904 -4.983404 -8.539781 9.965789 1.325619 2.600041 0.002182 -0.002822 779219.000000 1 0 0
10.008596 -3.522304 -7.960381 13.264474 -0.338391 2.214457 0.022936 -0.006699 647550.000000 1 0 0
8.283496 -5.617304 1.347419 10.098810 -0.595898 1.436974 0.006323 -0.004342 1195930.000000 1 0 0
15.756596 3.071696 -4.863281 16.773704 0.192532 1.864955 0.006772 0.005846 -346962.000000 1 0 0
-7.008104 3.564996 1.138319 7.944714 -0.470580 1.427021 -0.006700 -0.002895 373215.000000 1 0 0
-1.865104 3.927396 0.366619 4.363194 -1.127433 1.486672 -0.001644 -0.002372 -2025970.000000 1 0 0
-2.500004 9.954496 6.914019 12.375204 -1.324742 0.977979 0.002059 -0.003084 -994726.000000 1 0 0
5.441596 -5.706004 -8.676381 11.723866 -0.809113 2.403958 -0.000692 -0.001108 87575.500000 1 0 0
-1.353304 -0.935104 6.182219 6.397319 0.604646 0.260052 -0.000055 -0.001529 534684.000000 1 0 0
-5.686004 4.970396 -7.784881 10.846190 -0.718346 2.371366 0.001906 -0.005136 -140156.000000 1 0 0
6.728196 -1.259104 2.609819 7.325648 -0.184999 1.206536 0.000194 -0.001673 -1653150.000000 1 0 0
8.728596 7.514296 3.247419 11.966568 0.710778 1.295976 0.001961 -0.001642 -151315.000000 1 0 0
-5.254204 -4.861704 -7.768881 10.564011 0.746617 2.397068 0.004342 -0.007551 359403.000000 1 0 0
-2.080004 7.854896 -10.095881 12.959653 -1.311934 2.463904 0.000669 -0.002957 822730.000000 1 0 0
-2.914304 -2.302504 1.608119 4.047313 0.668657 1.162191 -0.001904 -0.000872 -444319.000000 1 0 0
5.905796 -2.100804 -9.195381 11.128649 -0.341761 2.543267 0.001258 0.000507 1121060.000000 1 0 0
1.075096 -7.520104 5.246419 9.232157 -1.428796 0.966386 0.000342 -0.002515 49994.900000 1 0 0
1.764096 11.794796 1.132319 11.979624 1.422331 1.476135 0.003448 -0.004124 301918.000000 1 0 0
-1.238804 6.946396 2.434319 7.464111 -1.394314 1.238583 -0.001474 -0.000531 720931.000000 1 0 0
8.876196 7.943296 -6.520881 13.579569 0.729989 2.071677 -0.000762 -0.005953 -1203760.000000 1 0 0
3.668196 -11.038104 5.478019 12.857064 -1.249957 1.130651 0.005343 -0.002549 175612.000000 1 0 0
7.963196 -6.978804 12.386619 16.295537 -0.719612 0.707293 0.007115 0.000199 -60554.200000 1 0 0
-8.610604 -0.019004 -4.057781 9.518847 0.002207 2.011183 -0.006503 -0.001489 -1925260.000000 1 0 0
-3.247104 -5.044504 11.236219 12.737478 0.998869 0.490413 0.003952 -0.000865 930203.000000 1 0 0
-8.245104 0.105196 -11.613781 14.243339 -0.012758 2.524187 0.008347 -0.009382 -2085920.000000 1 0 0
1.417696 -4.916004 5.367419 7.415265 -1.290030 0.761454 0.001202 -0.002593 -717937.000000 1 0 0
6.764196 3.693796 -7.612381 10.832673 0.499829 2.350015 -0.000544 -0.000267 103206.000000 1 0 0
16.250596 4.205196 -1.240381 16.831639 0.253217 1.644557 0.006944 0.009531 590829.000000 1 0 0
7.874696 7.568496 0.198519 10.923936 0.765573 1.552622 0.003338 -0.000977 -3924570.000000 1 0 0
5.468696 -10.333904 14.010219 18.247807 -1.084063 0.695434 0.012286 -0.001889 -102795.000000 1 0 0
-5.384304 -9.072804 8.943619 13.830938 1.035203 0.867627 0.001814 -0.005551 577520.000000 1 0 0
-12.513904 -3.183304 2.863319 13.226104 0.249098 1.352579 -0.000475 -0.002978 216722.000000 1 0 0
-2.230604 -1.410104 -5.864381 6.430781 0.563733 2.718744 0.004921 -0.008536 -821717.000000 1 0 0
-2.461904 12.996796 -4.320581 13.915642 -1.383590 1.886498 0.003069 0.003417 572549.000000 1 0 0
3.976496 -0.491304 -4.906381 6.334546 -0.122929 2.456789 0.001707 -0.003742 -615470.000000 1 0 0
-8.987904 3.749796 -7.376581 12.217092 -0.395249 2.219046 -0.003515 -0.004042 50934.900000 1 0 0
-4.503304 7.867996 -11.271381 14.464755 -1.050950 2.464234 0.001371 -0.004327 -509832.000000 1 0 0
-10.104604 -6.529204 7.418019 14.133667 0.573672 1.018260 0.002314 -0.002024 -1919920.000000 1 0 0
8.022396 5.258096 4.235419 10.485475 0.580181 1.154985 -0.002219 -0.001688 -2101680.000000 1 0 0
-6.685904 -7.475104 4.028019 10.807564 0.841071 1.188875 0.005930 -0.001205 -526753.000000 1 0 0
-4.058504 11.732996 7.927219 14.730086 -1.237774 1.002538 0.004559 -0.008342 73909.200000 1 0 0
-7.213804 9.916096 -7.897481 14.585545 -0.941862 2.142968 0.002155 -0.007917 -175241.000000 1 0 0
12.977496 5.486496 4.625519 14.829446 0.399980 1.253589 -0.004271 -0.005543 177760.000000 1 0 0
5.335496 3.948396 -3.632181 7.566378 0.637086 2.071499 0.002976 -0.000781 475130.000000 1 0 0
-2.846604 -4.128604 5.089819 7.145263 0.967163 0.777977 0.000922 -0.002211 -2636230.000000 1 0 0
12.436196 -2.400104 -5.227481 13.702045 -0.190650 1.962227 0.016678 -0.002317 -1788700.000000 1 0 0
-5.208004 9.636696 6.954119 12.974937 -1.075327 1.005145 0.000629 -0.005354 124439.000000 1 0 0
1.702496 3.786996 -0.494181 4.181392 1.148305 1.689259 0.000855 -0.001828 662627.000000 1 0 0
-0.038304 9.650896 7.709019 12.351932 -1.566827 0.896799 -0.002893 -0.001388 -802993.000000 1 0 0
-5.444604 2.101696 5.857919 8.268982 -0.368392 0.783538 -0.004717 -0.001136 668857.000000 1 0 0
8.821796 0.926396 10.659519 13.867503 0.104629 0.694039 0.008754 -0.007144 -754777.000000 1 0 0
0.400996 -2.870004 -10.178981 10.583448 -1.431975 2.864238 0.003738 -0.004298 -1771670.000000 1 0 0
1.207296 10.618896 -2.839681 11.058132 1.457589 1.830502 0.004775 -0.002619 1743940.000000 1 0 0
2.228596 -4.332604 11.645319 12.623453 -1.095713 0.396251 0.000314 -0.001245 -310423.000000 1 0 0
6.577496 -3.109204 9.478619 11.948842 -0.441573 0.654641 0.000586 -0.003218 283570.000000 1 0 0
-10.638104 -8.207704 5.656619 14.578512 0.657144 1.172324 0.007118 -0.004562 -1307600.000000 1 0 0
-2.901504 0.822896 -6.911481 7.540852 -0.276353 2.730134 0.008105 -0.010095 1274450.000000 1 0 0
10.997996 2.547296 -5.111281 12.392329 0.227601 1.995944 0.001378 -0.000606 -3683740.000000 1 0 0
-1.923304 -3.955704 -0.016581 4.398519 1.118241 1.574566 0.001502 -0.002838 1273600.000000 1 0 0
-1.256804 -6.414604 -10.665481 12.509164 1.377319 2.591763 0.002125 0.001225 933045.000000 1 0 0
0.296496 6.759996 -6.602381 9.453935 1.526964 2.343919 0.005020 0.000197 -2558340.000000 1 0 0
1.976496 3.865396 -6.153681 7.530976 1.098125 2.527186 0.003654 -0.003159 -1999780.000000 1 0 0
1.698396 -14.697704 6.510919 16.164750 -1.455751 1.156239 0.010162 -0.006723 189149.000000 1 0 0
-1.657104 5.270496 -10.476781 11.844283 -1.266171 2.656310 0.006746 -0.004376 -604115.000000 1 0 0
13.608496 4.294796 -0.594781 14.282514 0.305704 1.612452 -0.002436 0.001686 -1501240.000000 1 0 0
-2.385504 3.306796 -6.315381 7.517284 -0.945855 2.568291 0.008312 -0.009077 -511807.000000 1 0 0
5.806796 7.835196 14.222119 17.244647 0.933005 0.601078 0.019987 -0.003680 421524.000000 1 0 0
15.853996 0.596796 -5.842781 16.906905 0.037625 1.923659 0.008072 0.004337 301651.000000 1 0 0
6.252296 -8.235904 10.605319 14.811959 -0.921464 0.772745 0.006632 -0.000636 375570.000000 1 0 0
-0.051904 -5.941504 -6.454681 8.773088 1.562061 2.397550 -0.001628 -0.000819 -950582.000000 1 0 0
8.684496 5.540996 -7.512481 12.749920 0.567917 2.200887 0.000131 0.000179 -191110.000000 1 0 0
-15.870104 -0.638104 5.254319 16.729472 0.040186 1.251313 0.016332 -0.014459 -525629.000000 1 0 0
-0.349804 4.057396 -12.214581 12.875589 -1.484795 2.819774 0.008379 -0.007569 723556.000000 1 0 0
-11.391204 3.688196 5.805619 13.306672 -0.313124 1.119321 -0.002739 -0.005010 -629634.000000 1 0 0
5.008096 -9.806904 -9.780081 14.727742 -1.098649 2.297030 -0.011737 0.002735 276374.000000 1 0 0
1.568096 11.163796 -11.735581 16.273079 1.431247 2.376279 0.006584 0.000728 -3813500.000000 1 0 0
5.799696 2.363196 1.250519 6.386311 0.386928 1.373710 -0.001601 -0.000235 -338234.000000 1 0 0
5.675296 4.470896 4.961719 8.764505 0.667246 0.969011 -0.002161 0.000062 -3160.670000 1 0 0
0.323296 -1.623004 -6.324981 6.537893 -1.374174 2.885686 0.003989 -0.006664 -777664.000000 1 0 0
12.651896 6.827696 -4.538581 15.076028 0.494868 1.876586 -0.005859 -0.002594 280039.000000 1 0 0
7.602696 3.192596 12.806319 15.231397 0.397568 0.572066 0.004744 -0.002070 -468522.000000 1 0 0
-2.575104 -0.238904 8.634319 9.013307 0.092510 0.291018 -0.003925 0.001440 621506.000000 1 0 0
2.408996 -15.105604 13.378319 20.321466 -1.412651 0.852193 0.014483 -0.000439 347877.000000 1 0 0
18.801996 4.705696 -1.454281 19.436398 0.245239 1.645689 0.007179 0.009295 987610.000000 1 0 0
-0.382404 -13.253704 7.233819 15.104140 1.541952 1.071361 0.001939 -0.003261 -2046820.000000 1 0 0
4.340696 1.593796 -0.602281 4.663107 0.351893 1.700317 0.000792 -0.002921 540847.000000 1 0 0
2.683096 -0.494004 -7.221981 7.720107 -0.182078 2.780402 0.002584 -0.003839 14066.400000 1 0 0
7.218096 -11.207904 0.919419 13.362760 -0.998638 1.501937 0.004295 -0.001774 462129.000000 1 0 0
-11.843404 -7.353404 1.233219 13.994985 0.555636 1.482563 -0.000364 0.000300 278557.000000 1 0 0
0.130096 -7.033104 9.945319 12.181579 -1.552301 0.615607 0.000998 -0.000411 -1844840.000000 1 0 0
-4.712404 -7.231604 10.671719 13.725467 0.993269 0.680096 0.003971 0.000328 -1056190.000000 1 0 0
11.810996 0.640196 -1.637881 11.941195 0.054150 1.708392 0.002632 -0.000296 1724580.000000 1 0 0
6.381196 -9.612204 -7.406581 13.710273 -0.984737 2.141496 -0.006140 -0.002243 -929316.000000 1 0 0
-10.867404 4.963296 3.529119 12.457506 -0.428423 1.283571 -0.006056 -0.006797 -322619.000000 1 0 0
6.020396 -9.008104 2.074219 11.031478 -0.981642 1.381643 0.001812 -0.003721 2984960.000000 1 0 0
11.565996 -1.322404 5.928819 13.064146 -0.113841 1.099745 0.016453 -0.010385 798022.000000 1 0 0
-6.457304 3.585996 4.124019 8.459532 -0.506933 1.061572 -0.006887 -0.002951 -1454910.000000 1 0 0
9.518196 6.245696 -3.072381 11.791704 0.580711 1.834393 0.001767 0.001184 397894.000000 1 0 0
-2.338104 6.600596 10.932719 12.983025 -1.230361 0.569672 -0.002732 -0.001780 378674.000000 1 0 0
1.799296 9.747496 2.899419 10.327525 1.388260 1.286224 -0.001803 -0.002694 -415673.000000 1 0 0
2.795896 6.142396 -5.591681 8.764300 1.143643 2.262703 0.000937 -0.000371 -1979720.000000 1 0 0
11.976096 0.065296 -5.515681 13.185366 0.005452 2.002389 0.011440 -0.002426 553611.000000 1 0 0
-2.596204 -12.478704 6.223619 14.184209 1.365672 1.116566 0.002283 -0.000008 -573213.000000 1 0 0
10.865096 1.797996 -2.727181 11.345511 0.163997 1.813549 0.001307 -0.000925 -29127.000000 1 0 0
-8.934904 5.248896 0.863119 10.398480 -0.531148 1.487696 -0.005083 -0.002254 592773.000000 1 0 0
1.117996 -10.168204 5.481219 11.605432 -1.461286 1.078901 -0.000480 -0.003089 467006.000000 1 0 0
9.431296 -5.664104 -1.127781 11.059083 -0.540835 1.672952 0.007093 -0.004337 856315.000000 1 0 0
-7.789404 8.684296 -4.608081 12.542975 -0.839667 1.946990 -0.004003 -0.002827 -29576.500000 1 0 0
-7.457304 -0.112604 -1.689081 7.647029 0.015099 1.793514 -0.006642 -0.002362 -1846530.000000 1 0 0
4.082396 8.866196 2.850619 10.168648 1.139290 1.286654 0.003320 -0.002366 1176800.000000 1 0 0
-1.297404 -10.440604 -3.752081 11.169941 1.447165 1.913366 0.006453 0.003189 -602989.000000 1 0 0
3.105796 7.873896 -3.734981 9.251718 1.195090 1.986361 0.006900 -0.002079 385579.000000 1 0 0
-4.184404 1.592796 -11.034781 11.908510 -0.363715 2.756144 0.008535 -0.008830 -224060.000000 1 0 0
1.162196 2.957096 11.015219 11.464300 1.196322 0.280822 0.002947 0.000186 585657.000000 1 0 0
2.148996 5.568296 -7.986581 9.970435 1.202474 2.499804 0.002081 -0.000897 58897.600000 1 0 0
15.486496 6.046296 4.134119 17.131264 0.372224 1.327070 0.007004 -0.007089 533115.000000 1 0 0
-4.536404 9.035396 4.596419 11.106053 -1.105494 1.144099 0.000088 -0.002743 -821820.000000 1 0 0
-1.037304 -8.120504 -12.554981 14.988200 1.443746 2.563777 0.004893 0.004487 647184.000000 1 0 0
14.277496 -4.283604 -5.326081 15.829191 -0.291480 1.913964 0.030310 -0.001137 963776.000000 1 0 0
-5.970704 -6.194404 -5.664081 10.300571 0.803785 2.153017 0.005757 -0.004914 673746.000000 1 0 0
-8.905204 2.571496 -12.196381 15.318843 -0.281116 2.491733 0.004885 -0.006258 517449.000000 1 0 0
10.594496 5.371096 13.723719 18.150275 0.469208 0.713438 0.022913 -0.003329 270428.000000 1 0 0
-0.447404 10.959696 5.500319 12.270640 -1.529996 1.105989 -0.001403 -0.000811 466813.000000 1 0 0
0.378796 11.130096 -0.617181 11.153628 1.536776 1.626159 0.003829 -0.002076 -316268.000000 1 0 0
-1.452704 -0.611804 3.708519 4.029612 0.398604 0.401907 -0.000003 -0.001764 287900.000000 1 0 0
-4.823204 6.741796 8.905319 12.166339 -0.949797 0.749597 -0.000338 -0.005068 -2264110.000000 1 0 0
3.439596 -8.720004 -11.504881 14.840201 -1.195085 2.457909 -0.006617 0.005629 768107.000000 1 0 0
6.733296 -3.714104 12.052419 14.296596 -0.504073 0.567910 0.002703 -0.000264 -240160.000000 1 0 0
-2.471004 -1.666104 -12.518081 12.867949 0.593243 2.907870 0.005011 -0.009148 922191.000000 1 0 0
-16.122504 -4.860204 5.180619 17.618046 0.292791 1.272333 0.024797 -0.010110 -305000.000000 1 0 0
-8.947104 7.152796 5.791619 12.835732 -0.674408 1.102675 -0.006012 -0.007293 -2677410.000000 1 0 0
-12.762604 1.505796 5.894919 14.138655 -0.117442 1.140724 -0.001149 -0.006341 239852.000000 1 0 0
-3.558904 3.669296 10.297319 11.496274 -0.800669 0.460772 -0.001884 -0.000736 413590.000000 1 0 0
1.991196 -12.282504 -1.107181 12.492023 -1.410078 1.659544 -0.002255 0.002840 -3014220.000000 1 0 0
10.187696 -5.122804 -3.621581 11.964452 -0.465919 1.878315 0.017541 -0.004288 804002.000000 1 0 0
2.944296 -13.343804 1.081719 13.707520 -1.353627 1.491800 -0.003449 -0.000980 596582.000000 1 0 0
10.068796 -1.621604 -6.134381 11.901297 -0.159681 2.112315 0.015351 -0.003842 -663005.000000 1 0 0
11.985796 -5.128204 -1.672581 13.143642 -0.404288 1.698396 0.016167 -0.004214 -1276040.000000 1 0 0
1.473696 0.939996 5.970519 6.221131 0.567786 0.284806 -0.000955 -0.001828 484387.000000 1 0 0
-10.727004 11.595096 6.472519 17.070687 -0.824268 1.181908 -0.004262 -0.015672 -560236.000000 1 0 0
4.724096 -14.004704 3.014919 15.084382 -1.245460 1.369571 0.003916 -0.003682 -3358930.000000 1 0 0
5.251296 -3.431704 -1.713981 6.503110 -0.578829 1.837511 0.003823 -0.004234 -1660700.000000 1 0 0
2.002996 -2.972804 -7.715781 8.507810 -0.977890 2.706677 -0.000983 -0.002012 -187677.000000 1 0 0
-2.753604 14.776496 -8.796081 17.415458 -1.386559 2.100263 0.005178 -0.003743 -2417810.000000 1 0 0
-2.369504 6.158396 -8.180581 10.510104 -1.203497 2.462836 0.009292 -0.005680 -317701.000000 1 0 0
2.665296 -3.537904 -11.349781 12.183517 -0.925152 2.769500 0.000890 0.001224 -616518.000000 1 0 0
14.462796 2.763696 -2.625181 14.956673 0.188814 1.747229 0.000596 0.004174 615386.000000 1 0 0
-3.519304 13.192496 2.242119 13.836710 -1.310102 1.408037 -0.001814 -0.004119 -855440.000000 1 0 0
7.954896 -4.856504 14.028119 16.842035 -0.548108 0.586427 0.001938 -0.000755 -1130640.000000 1 0 0
-11.351904 7.243096 2.849319 13.763967 -0.567929 1.362276 -0.007728 -0.006045 1108960.000000 1 0 0
-2.325304 11.824496 4.055419 12.715037 -1.376623 1.246178 -0.000570 -0.003623 339615.000000 1 0 0
1.810296 1.437696 0.711519 2.418760 0.671180 1.272213 -0.002638 -0.003355 -1644690.000000 1 0 0
-6.892304 8.484096 5.269819 12.134856 -0.888552 1.121567 -0.001880 -0.005729 -968498.000000 1 0 0
-1.147704 9.163596 1.074219 9.297454 -1.446199 1.454999 0.000055 -0.001563 420094.000000 1 0 0
5.120196 13.200296 -8.629781 16.581234 1.200777 2.118180 0.008587 -0.010082 -2151090.000000 1 0 0
8.885696 6.909196 7.127919 13.322905 0.660910 1.006274 -0.002917 -0.001630 -1799930.000000 1 0 0
7.249396 -13.786804 2.891419 15.842665 -1.086706 1.387259 0.013355 -0.002109 166148.000000 1 0 0
4.212596 -13.363304 -1.133081 14.057302 -1.265421 1.651488 -0.004575 0.006947 -3123760.000000 1 0 0
11.985296 -11.854504 -4.577581 17.467995 -0.779912 1.835948 0.029034 -0.007102 -1098420.000000 1 0 0
2.850696 0.024096 -1.784781 3.363405 0.008452 2.130160 0.002893 -0.005370 569375.000000 1 0 0
-13.569604 -3.191804 -10.707481 17.577597 0.231018 2.225791 0.009174 -0.006878 90767.600000 1 0 0
-6.639304 13.545696 4.989319 15.888975 -1.115067 1.251381 0.003465 -0.011472 175454.000000 1 0 0
7.364596 -4.285404 -0.610881 8.542549 -0.526999 1.642368 0.005900 -0.003404 120730.000000 1 0 0
11.764296 1.984396 -7.308981 13.991343 0.167106 2.120451 0.009902 -0.000130 -806676.000000 1 0 0
-7.398304 -4.470604 9.668719 12.969400 0.543556 0.729508 0.006124 -0.003111 174233.000000 1 0 0
0.893096 2.819996 8.466119 8.968008 1.264089 0.336138 0.001546 0.000060 -1557130.000000 1 0 0
1.620796 8.075796 -8.654381 11.947542 1.372730 2.380909 0.004332 -0.001243 1709590.000000 1 0 0
-8.670304 -2.258504 -5.579381 10.554833 0.254824 2.127757 -0.002085 -0.006337 -907974.000000 1 0 0
6.595896 -0.454904 7.123419 9.718842 -0.068859 0.748149 0.004518 -0.003391 749104.000000 1 0 0
-11.006104 6.413196 7.157119 14.611220 -0.527598 1.058893 -0.001224 -0.007826 861585.000000 1 0 0
-5.980804 10.979596 4.807419 13.395253 -1.072016 1.203718 -0.002093 -0.003902 640116.000000 1 0 0
6.038296 -1.177504 -6.912381 9.253569 -0.192589 2.414329 0.001776 -0.002426 -756068.000000 1 0 0
4.525796 -5.734604 11.450919 13.582786 -0.902671 0.567874 0.001057 -0.000582 -808973.000000 1 0 0
-9.033004 -7.379504 2.742919 11.982314 0.684991 1.339834 0.002347 -0.001471 -2125090.000000 1 0 0
-1.073804 12.699296 -9.358381 15.811529 -1.486441 2.204174 0.008265 -0.000604 904922.000000 1 0 0
-4.549604 9.294596 -2.331981 10.607853 -1.115593 1.792442 -0.000175 -0.001077 627649.000000 1 0 0
-3.267804 9.708596 -0.171481 10.245232 -1.246119 1.587535 0.001197 0.000177 189576.000000 1 0 0
-3.409804 10.747396 -6.444981 12.987342 -1.263574 2.090071 0.002946 -0.000362 590493.000000 1 0 0
4.831496 -4.801904 0.371919 6.822021 -0.782326 1.516252 0.000090 -0.003531 -1815840.000000 1 0 0
-2.230704 2.854596 -10.816681 11.407249 -0.907473 2.818407 0.010675 -0.006544 -2170480.000000 1 0 0
-3.643004 12.145796 -2.258981 12.880016 -1.279395 1.747095 0.001666 0.001110 -969289.000000 1 0 0
-0.086804 0.346596 0.033019 0.358823 -1.325396 1.478645 -0.003732 -0.003577 -2613620.000000 1 0 0
-4.843704 -1.648004 0.121619 5.117829 0.327950 1.547030 -0.003196 -0.002997 59781.600000 1 0 0
2.657896 2.537796 -2.426181 4.403541 0.762287 2.154312 -0.005439 -0.002651 617189.000000 1 0 0
6.033696 -9.710904 8.479019 14.233795 -1.014839 0.932664 0.004931 -0.001905 822081.000000 1 0 0
-4.157304 -5.472604 6.606819 9.533239 0.921143 0.805113 0.004057 -0.002727 -67176.800000 1 0 0
-6.203004 5.354496 -12.046181 14.569089 -0.712113 2.544247 0.000648 -0.006702 647710.000000 1 0 0
-13.033604 2.978396 7.890019 15.524113 -0.224659 1.037653 0.000620 -0.006106 509684.000000 1 0 0
4.621596 -7.367104 -5.019781 10.041493 -1.010524 2.094284 -0.002880 -0.002797 280872.000000 1 0 0
-6.078704 2.482596 -1.068981 6.652567 -0.387734 1.732183 -0.001346 -0.003401 -618132.000000 1 0 0
-6.766904 -2.811304 -14.552481 16.293223 0.393753 2.675123 0.007594 -0.005043 328052.000000 1 0 0
2.801596 -6.064904 0.976319 6.751682 -1.138061 1.425684 0.000421 -0.001954 -499314.000000 1 0 0
4.778796 -7.914804 13.026419 15.973998 -1.027602 0.617244 0.005747 0.000421 -2235.310000 1 0 0
-9.933104 -1.714604 8.045619 12.897225 0.170931 0.897168 0.001550 -0.004555 -12093.400000 1 0 0
-4.485604 13.302196 -0.138081 14.038807 -1.245563 1.580632 0.000621 0.000756 559411.000000 1 0 0
6.778996 2.182996 -4.433881 8.389252 0.311537 2.127652 0.001388 -0.000079 -1130430.000000 1 0 0
4.982096 4.559496 0.036819 6.753639 0.741137 1.565345 -0.001185 -0.000036 -663129.000000 1 0 0
-5.902804 12.326096 1.929719 13.802157 -1.124182 1.430524 -0.002447 -0.001103 -1478500.000000 1 0 0
6.592796 -7.250004 6.510219 11.764798 -0.832839 0.984398 0.002648 -0.002879 -2072310.000000 1 0 0
-0.325004 5.043496 7.570019 9.102069 -1.506445 0.588668 -0.004667 0.000243 -1323330.000000 1 0 0
-5.802104 -3.426704 -1.568981 6.918700 0.533477 1.799560 0.000264 -0.001776 -376818.000000 1 0 0
2.184996 -6.604004 -5.344181 8.771964 -1.251274 2.225891 -0.004486 0.000127 -1985610.000000 1 0 0
-14.331304 -4.873304 -3.809681 15.609261 0.327780 1.817352 0.007530 -0.012829 -368514.000000 1 0 0
-12.278604 -5.202904 -6.428781 14.804173 0.400801 2.020007 0.006291 -0.012819 -1378140.000000 1 0 0
-14.742004 -3.791504 -1.266481 15.274363 0.251735 1.653807 0.003198 -0.007804 439709.000000 1 0 0
11.929896 2.944696 8.672519 15.040154 0.241996 0.956205 0.011775 -0.010471 -1645530.000000 1 0 0
8.835696 -6.565204 7.706019 13.437045 -0.639027 0.960036 0.009041 -0.004925 -29396.200000 1 0 0
-8.895804 -1.723904 -9.753881 13.313353 0.191416 2.392987 0.003885 -0.006535 -273326.000000 1 0 0
-8.779404 5.263596 -3.898581 10.953643 -0.540080 1.934691 -0.002365 -0.000695 -698281.000000 1 0 0
-4.131504 -6.263604 4.036319 8.520208 0.987699 1.077269 0.003099 -0.001766 -1205150.000000 1 0 0
-0.227404 -9.179404 3.572419 9.852683 1.546028 1.199758 0.001343 -0.002048 131343.000000 1 0 0
7.934096 -10.366004 3.331219 13.472229 -0.917515 1.320939 0.008148 -0.001768 744723.000000 1 0 0
-0.090004 6.555896 9.483119 11.528982 -1.557068 0.604923 -0.001237 -0.002133 -700039.000000 1 0 0
-0.038604 3.391096 -9.636681 10.215999 -1.559413 2.803211 0.011191 -0.005204 -1222010.000000 1 0 0
4.474796 -3.152704 10.997119 12.284135 -0.613771 0.461851 0.001182 -0.002186 -2093790.000000 1 0 0
8.622196 -9.180204 1.190019 12.650477 -0.816732 1.476588 0.005814 -0.001872 -1707750.000000 1 0 0
-0.276004 -0.362004 11.520519 11.529510 0.919386 0.039493 0.004073 0.001361 -1210430.000000 1 0 0
10.884596 6.080696 11.294719 16.823197 0.509461 0.834730 0.011109 -0.001970 153473.000000 1 0 0
-6.172504 -2.955004 -11.875081 13.705816 0.446493 2.618796 0.004917 -0.005855 1681950.000000 1 0 0
-1.658704 2.958496 8.517019 9.167530 -1.059807 0.378982 -0.002692 -0.002344 -2043780.000000 1 0 0
-1.650304 13.521396 -6.892581 15.266280 -1.449346 2.039231 0.004498 0.001089 951504.000000 1 0 0
7.780796 3.164696 9.810319 12.915047 0.386296 0.708093 0.006674 -0.004687 627053.000000 1 0 0
6.511096 8.361496 -7.820081 13.170522 0.909179 2.206515 0.003128 -0.001873 1189020.000000 1 0 0
6.581796 -2.987104 -3.948181 8.235955 -0.426045 2.070748 0.006053 -0.005163 -1807780.000000 1 0 0
2.011496 8.214896 1.040319 8.521320 1.330662 1.448407 0.000704 0.000482 753486.000000 1 0 0
-17.610404 6.406796 6.290019 19.767086 -0.348922 1.246959 0.037712 -0.014782 526006.000000 1 0 0
-14.605304 3.058496 -10.073981 18.004288 -0.206427 2.164618 0.014932 -0.004735 -1126580.000000 1 0 0
-18.294904 0.012096 -4.383581 18.812747 -0.000661 1.805969 0.030686 -0.012371 131330.000000 1 0 0
-12.954504 7.796396 0.155619 15.120422 -0.541763 1.560504 -0.000450 -0.001197 -24345.300000 1 0 0
-12.755404 -4.510604 -12.928481 18.713404 0.339899 2.333484 0.024025 0.002944 -714691.000000 1 0 0
-17.223604 -0.581804 -8.601881 19.260929 0.033767 2.033755 0.013474 -0.005773 -7181.470000 1 0 0
-16.595604 -2.107104 -2.108081 16.861138 0.126292 1.696150 0.018285 -0.013639 -588070.000000 1 0 0
-15.202604 4.176496 1.700419 15.857292 -0.268108 1.463357 0.013137 -0.005438 -1379620.000000 1 0 0
-13.195604 5.902796 4.335619 15.091870 -0.420632 1.279409 0.000250 -0.006339 -280316.000000 1 0 0
-10.179304 14.242496 2.626819 17.702178 -0.950264 1.421857 0.008087 -0.005405 510921.000000 1 0 0
-11.752004 2.392696 -6.464581 13.624441 -0.200854 2.065174 -0.005169 -0.000200 428244.000000 1 0 0
-15.960704 10.679696 3.803819 19.577257 -0.589702 1.375255 0.023385 -0.013905 -875888.000000 1 0 0
-12.769204 0.996396 -8.513981 15.379637 -0.077873 2.157463 -0.000237 -0.003055 837708.000000 1 0 0
-12.330704 14.241096 4.041919 19.266348 -0.857170 1.359434 0.013969 -0.015134 -530969.000000 1 0 0
-10.565504 11.119296 -1.163281 15.382517 -0.810931 1.646492 -0.002569 -0.003310 104956.000000 1 0 0
-16.957904 5.520696 8.747819 19.863860 -0.314732 1.114765 0.021931 -0.018078 179671.000000 1 0 0
-11.568604 12.589296 -9.194081 19.412730 -0.827624 2.064182 0.014939 -0.017863 -1231090.000000 1 0 0
-17.088104 -0.514804 2.988019 17.355016 0.030117 1.397764 0.023666 -0.008999 641612.000000 1 0 0
-12.997504 14.922896 -0.843481 19.807559 -0.854249 1.613393 0.017987 -0.003619 -26939.800000 1 0 0
-16.516004 4.766496 -10.279281 20.029016 -0.280964 2.109728 0.033940 -0.005072 619641.000000 1 0 0
-11.853604 7.626796 -8.932981 16.687543 -0.571733 2.135669 0.009848 -0.004564 -209688.000000 1 0 0
-14.722404 13.443596 -2.236981 20.061992 -0.740027 1.682532 0.039604 -0.013270 456979.000000 1 0 0
-11.926404 10.627296 -5.428381 16.871450 -0.727861 1.898373 0.018332 -0.011970 872602.000000 1 0 0
-17.580204 2.718696 -0.936181 17.813796 -0.153430 1.623374 0.020363 -0.006393 -720612.000000 1 0 0
-9.602704 15.370596 0.470719 18.129774 -1.012380 1.544830 0.010557 -0.009153 147694.000000 1 0 0
-8.203004 13.156996 -3.733981 15.947991 -1.013297 1.807125 -0.001426 -0.006608 309588.000000 1 0 0
-17.901204 11.528996 2.232219 21.409195 -0.572170 1.466342 0.075434 -0.004792 4029.240000 1 0 0
-7.984104 15.663596 -7.510581 19.118132 -1.099400 1.974526 0.027921 -0.023323 -417546.000000 1 0 0
-6.190204 15.311096 -5.503881 17.408072 -1.186593 1.892484 0.006426 -0.007091 -636286.000000 1 0 0
-17.374904 5.147996 -0.117581 18.121892 -0.288049 1.577285 0.037012 -0.003078 882933.000000 1 0 0
-5.336604 12.200596 -12.117681 18.004779 -1.158465 2.309089 -0.021065 -0.005090 -1236100.000000 1 0 0
-11.202404 3.709596 -11.415581 16.418600 -0.319778 2.339610 0.005544 -0.002200 201989.000000 1 0 0
-11.879504 10.999396 1.125819 16.228887 -0.746949 1.501369 0.002751 -0.004191 249530.000000 1 0 0
-12.959104 0.177996 -11.085781 17.054753 -0.013734 2.278396 0.008341 -0.005952 826709.000000 1 0 0
-14.147704 -2.265404 -13.008981 19.352601 0.158777 2.307984 0.023770 -0.004598 181845.000000 1 0 0
-18.651804 -2.373404 -3.660781 19.155264 0.126568 1.763090 0.018666 -0.012360 -191579.000000 1 0 0
-18.252504 4.787796 -5.118581 19.551899 -0.256530 1.835677 0.031776 -0.008652 -158616.000000 1 0 0
-8.197304 15.392296 -2.326281 17.593469 -1.081442 1.703409 0.006460 -0.011094 614018.000000 1 0 0
-16.318804 8.996196 -5.382681 19.396086 -0.503824 1.852002 0.045473 -0.006368 3440.510000 1 0 0
-18.251904 1.723196 2.211119 18.465927 -0.094133 1.450768 0.046556 -0.013727 -70930.700000 1 0 0
-15.599604 -2.791604 -8.602181 18.031589 0.177079 2.068105 0.000447 -0.009086 -533815.000000 1 0 0
-9.806304 10.460996 -7.201381 16.045433 -0.817690 2.036232 0.005898 -0.013163 755469.000000 1 0 0
-13.635504 12.024596 -7.765881 19.769339 -0.722702 1.974497 0.031397 -0.023020 112025.000000 1 0 0
-11.007004 6.584296 -3.887181 13.402136 -0.539089 1.865067 -0.001772 -0.001283 -943347.000000 1 0 0
-13.103404 4.909496 -12.710981 18.904269 -0.358484 2.308225 0.025098 -0.000717 472740.000000 1 0 0
-17.438404 9.095496 2.652419 19.845939 -0.480761 1.436745 0.032865 -0.017462 1008860.000000 1 0 0
-13.583504 8.901996 -6.562181 17.516259 -0.580129 1.954798 0.026306 -0.006833 -734973.000000 1 0 0
-15.731204 6.878196 -3.772281 17.578693 -0.412186 1.787072 0.015551 -0.000299 -923947.000000 1 0 0
-14.814904 -0.452504 -9.362681 17.531284 0.030534 2.134187 0.007215 -0.007146 -427213.000000 1 0 0
-10.127804 5.824296 -6.172281 13.213322 -0.521894 2.056833 -0.003798 -0.001298 416927.000000 1 0 0
-12.839204 12.200396 -0.950681 17.736928 -0.759892 1.624421 0.019260 -0.007673 -1860280.000000 1 0 0
-10.549504 3.527196 -13.867581 17.777597 -0.322663 2.465557 0.005221 -0.002017 413350.000000 1 0 0
-10.893904 6.219396 -11.916081 17.301763 -0.518752 2.330519 0.002504 -0.001994 -1256400.000000 1 0 0
-5.748204 11.440996 -14.667481 19.469803 -1.105213 2.423930 -0.007975 -0.012078 -294376.000000 1 0 0
-15.474404 13.196396 3.334419 20.608745 -0.706111 1.408286 0.017772 -0.019861 36234.600000 1 0 0
-14.879804 10.997796 -3.097781 18.760499 -0.636494 1.736679 0.034159 -0.008738 634339.000000 1 0 0
-18.255804 7.592296 -4.241881 20.221545 -0.394124 1.782136 0.046421 -0.005667 208605.000000 1 0 0
-3.844404 16.334596 -10.466481 19.777403 -1.339649 2.128470 0.003711 -0.001267 -144425.000000 1 0 0
-15.778304 4.355796 -4.456581 16.964343 -0.269354 1.836619 0.015210 -0.002355 -589571.000000 1 0 0
-18.534004 -1.925804 -6.189881 19.634985 0.103535 1.891514 0.021294 -0.011008 365933.000000 1 0 0
-11.060204 8.570996 -5.920881 15.193647 -0.659273 1.971096 0.006036 -0.004917 408588.000000 1 0 0
-11.090704 13.518496 -6.686181 18.720536 -0.883734 1.936019 0.013216 -0.017717 114671.000000 1 0 0
-9.517804 10.472196 -4.555681 14.866395 -0.833105 1.882249 -0.006646 -0.004574 -449758.000000 1 0 0
-11.097704 6.130596 -0.322781 12.682564 -0.504699 1.596250 -0.007228 0.001051 -1870620.000000 1 0 0
-14.590804 9.192396 -1.335081 17.296651 -0.562196 1.648060 0.023897 -0.006362 -274907.000000 1 0 0
-18.887804 3.389796 4.849519 19.792870 -0.177580 1.323263 0.058179 -0.019864 436557.000000 1 0 0
-14.648104 13.342296 0.368419 19.817153 -0.738780 1.552204 0.022604 0.000528 -257911.000000 1 0 0
-16.854504 2.482396 -8.946081 19.242374 -0.146232 2.054336 0.017177 -0.006145 -219626.000000 1 0 0
-9.143104 8.383296 -8.781581 15.198426 -0.742073 2.186821 0.004581 -0.005191 -1135160.000000 1 0 0
-17.628804 4.634996 -2.595881 18.411858 -0.257103 1.712257 0.023161 -0.001612 699825.000000 1 0 0
-13.520404 5.751996 -4.474381 15.359260 -0.402235 1.866397 0.007549 -0.001333 -264664.000000 1 0 0
-12.091004 9.552596 3.252919 15.748839 -0.668649 1.362749 -0.004694 -0.007184 633324.000000 1 0 0
-17.622604 2.497996 -4.021981 18.247534 -0.140811 1.793033 0.028939 -0.003224 993990.000000 1 0 0
-11.298204 1.387896 -12.656781 17.022625 -0.122230 2.409126 0.009505 -0.000888 445844.000000 1 0 0
-11.117104 11.970896 3.373419 16.681496 -0.822361 1.367167 -0.001273 -0.011310 -149795.000000 1 0 0
-16.361304 12.865996 -4.216081 21.236795 -0.666373 1.770651 0.060713 -0.013956 -734067.000000 1 0 0
-11.067004 4.109996 -4.480981 12.627345 -0.355588 1.933564 -0.007260 -0.002411 -207867.000000 1 0 0
-10.911704 15.014096 -8.753081 20.520837 -0.942333 2.011467 0.022642 -0.024960 313420.000000 1 0 0
-15.526804 7.079296 -0.279081 17.066809 -0.427783 1.587149 0.023370 -0.000715 604898.000000 1 0 0
-12.860304 8.347696 -4.049681 15.857848 -0.575746 1.829031 0.009040 -0.004374 654335.000000 1 0 0
-19.091004 1.820696 -6.085381 20.119971 -0.095082 1.878063 0.035498 -0.008881 520430.000000 1 0 0
-12.397304 10.107196 -8.982681 18.344948 -0.683985 2.082489 0.016064 -0.015575 541465.000000 1 0 0
-16.511404 10.929096 -1.007381 19.826407 -0.584704 1.621628 0.032221 -0.008061 721754.000000 1 0 0
-10.814304 6.337596 -14.462181 19.138155 -0.530090 2.427477 0.013484 -0.006166 -160404.000000 1 0 0
-13.832304 12.771396 -4.495581 19.355914 -0.745541 1.805196 0.036468 -0.015039 56097.500000 1 0 0
-18.089604 7.550096 -0.280381 19.603988 -0.395392 1.585099 0.051238 -0.004613 -148934.000000 1 0 0
-12.742104 6.583896 -2.121681 14.498635 -0.476921 1.717660 -0.002743 0.000377 266055.000000 1 0 0
-13.672104 8.567396 -10.589481 19.299321 -0.559773 2.151601 0.020730 -0.007461 -1055950.000000 1 0 0
-14.868704 1.389296 -0.911281 14.961248 -0.093167 1.631743 0.006495 -0.005757 -673685.000000 1 0 0
-13.369704 2.742196 -2.465781 13.868983 -0.202300 1.749538 -0.000890 -0.003252 477303.000000 1 0 0
-11.123004 9.216196 -10.934881 18.117149 -0.691921 2.218761 0.010669 -0.010230 346701.000000 1 0 0
-15.324604 4.202996 -7.929381 17.759047 -0.267682 2.033644 0.015254 -0.001809 520044.000000 1 0 0
-18.597604 10.537196 4.535819 21.851248 -0.515490 1.361699 0.078755 -0.025110 758856.000000 1 0 0
-15.371204 6.071696 -6.253681 17.670538 -0.376193 1.932539 0.021553 -0.000671 668190.000000 1 0 0
-7.549504 11.204596 -12.870581 18.659845 -0.977881 2.331937 -0.012016 -0.004291 -2953800.000000 1 0 0
-16.701404 9.096596 -2.843181 19.229369 -0.498735 1.719197 0.035857 -0.006863 1004890.000000 1 0 0
-20.614204 -1.121004 -4.707981 21.174682 0.054327 1.795010 0.042664 -0.012402 -704528.000000 1 0 0
-15.475704 4.412196 4.177019 16.625654 -0.277736 1.316836 0.020783 -0.009783 388180.000000 1 0 0
-6.864604 12.447796 -9.400981 17.042560 -1.066824 2.155099 -0.004619 -0.012279 -951648.000000 1 0 0
-17.305604 1.503696 5.703519 18.283193 -0.086673 1.253547 0.039553 -0.019249 369674.000000 1 0 0
-10.382604 14.434896 -3.194581 18.065714 -0.947253 1.748562 0.012572 -0.013850 -1002690.000000 1 0 0
-9.990004 8.324496 -13.113781 18.468044 -0.694708 2.360408 -0.004520 -0.000181 -77515.600000 1 0 0
-13.703704 11.494796 2.815119 18.106538 -0.697961 1.414688 0.011503 -0.015248 -489121.000000 1 0 0
-16.967204 6.688596 1.956619 18.342619 -0.375503 1.463922 0.033453 -0.006489 808102.000000 1 0 0
-9.110104 13.242896 -8.373381 18.124066 -0.968221 2.051049 0.009464 -0.022408 -486376.000000 1 0 0
-5.465804 9.710696 -12.824481 16.989406 -1.058130 2.426224 -0.008663 -0.000763 -1811820.000000 1 0 0
-15.853304 1.881796 3.140219 16.270506 -0.118148 1.376577 0.014580 -0.009152 -349110.000000 1 0 0
-18.722804 -4.816404 4.556619 19.862123 0.251789 1.339322 0.051327 -0.009066 -1122.170000 1 0 0
-5.210804 14.482096 -9.097981 17.878949 -1.225409 2.104663 -0.003334 -0.005160 -116237.000000 1 0 0
-15.310304 -0.940904 -6.802481 16.779882 0.061378 1.988207 -0.000289 -0.007347 554068.000000 1 0 0
-8.909404 10.911496 -9.550381 17.019048 -0.886066 2.166581 -0.000871 -0.011923 298638.000000 1 0 0
-16.628804 1.181196 -5.954981 17.702377 -0.070914 1.913882 0.004989 -0.006716 -2581840.000000 1 0 0
-11.167404 8.580296 -1.554381 14.168574 -0.655132 1.680724 -0.002244 -0.003299 -1747340.000000 1 0 0
-10.549104 10.869896 -12.718681 19.778854 -0.800374 2.269263 0.003843 -0.008707 -547040.000000 1 0 0
-13.840304 11.843196 -10.342681 20.947227 -0.707796 2.087192 0.031542 -0.015647 204472.000000 1 0 0
-13.184104 5.696796 -7.709981 16.300855 -0.407865 2.063466 0.012157 -0.001629 539958.000000 1 0 0
-8.774704 15.384896 -4.971381 18.395789 -1.052467 1.844444 0.012309 -0.017292 86950.700000 1 0 0
-8.566804 6.078396 -12.959081 16.681571 -0.617093 2.460444 -0.002282 -0.005221 -280373.000000 1 0 0
-16.372804 7.493196 4.346919 18.523293 -0.429207 1.333914 0.028521 -0.009212 -27727.000000 1 0 0
-12.749604 5.429196 -10.238381 17.229423 -0.402576 2.207114 0.010684 -0.000467 921751.000000 1 0 0
-12.389904 9.333896 -13.183481 20.357689 -0.645640 2.275217 0.016951 -0.005918 -1153050.000000 1 0 0
-10.793604 5.250196 -8.611081 14.772175 -0.452723 2.193121 -0.004396 0.002865 -125317.000000 1 0 0
-17.500504 -4.528504 -2.613881 18.264922 0.253210 1.714399 0.009075 -0.016103 -59906.500000 1 0 0
-8.856404 13.171996 -10.893081 19.250885 -0.978858 2.172258 0.015336 -0.020816 -13550.700000 1 0 0
-14.996004 6.182196 6.041519 17.308947 -0.391027 1.214250 0.020206 -0.012525 -1139460.000000 1 0 0
-16.330904 -3.211204 -4.459381 17.230680 0.194157 1.832581 0.014232 -0.013246 -338011.000000 1 0 0
-11.229804 -1.209704 -12.586781 16.911503 0.107309 2.410242 0.012262 -0.003961 1122550.000000 1 0 0
-15.417804 6.852996 -8.602181 18.938578 -0.418259 2.042287 0.025534 -0.002464 166938.000000 1 0 0
-14.880204 9.293696 1.156419 17.582109 -0.558288 1.504976 0.019840 -0.009152 -306312.000000 1 0 0
-19.394604 5.331296 7.758919 21.558623 -0.268260 1.202637 0.065913 -0.029906 214009.000000 1 0 0
-16.260104 0.610096 0.899119 16.296368 -0.037503 1.515595 0.017404 -0.009237 -31200.400000 1 0 0
-17.388404 3.862596 6.845819 19.082491 -0.218587 1.203869 0.025953 -0.017037 494373.000000 1 0 0
-15.413704 4.002396 -1.432681 15.989184 -0.254054 1.660520 0.008297 -0.003123 -1352060.000000 1 0 0
-10.810704 13.272496 0.280919 17.120437 -0.887265 1.554387 0.004795 -0.008811 -1101070.000000 1 0 0
-13.385504 3.381096 0.028819 13.805954 -0.247418 1.568709 0.003446 -0.003169 -164974.000000 1 0 0
-15.038304 0.107896 -4.266981 15.632318 -0.007175 1.847264 0.001011 -0.004405 -386579.000000 1 0 0
-18.870004 7.176796 3.588319 20.505109 -0.363434 1.394894 0.058357 -0.012737 -563717.000000 1 0 0
-14.099604 1.275596 -6.385481 15.530626 -0.090225 1.994516 0.000328 -0.000192 432484.000000 1 0 0
-14.215504 12.116896 5.277919 19.410207 -0.705869 1.295414 0.010536 -0.018355 339462.000000 1 0 0
17.515396 5.355396 6.262319 19.356808 0.296727 1.241349 0.016318 -0.013209 -417481.000000 1 0 0
18.382596 7.788896 -0.080081 19.964798 0.400778 1.574807 0.015365 0.009028 382907.000000 1 0 0
16.495696 5.224796 8.587719 19.317231 0.306740 1.110110 0.024281 -0.010626 221851.000000 1 0 0
11.514996 12.414296 10.978419 20.180078 0.822962 0.995572 0.007997 0.006672 482128.000000 1 0 0
-2.289304 16.257196 -0.538681 16.426427 -1.430898 1.603596 0.001544 -0.004254 354727.000000 1 0 0
15.086996 12.644596 3.519719 19.997292 0.697552 1.393865 0.031990 -0.007145 329839.000000 1 0 0
13.537696 11.785296 6.690119 19.155159 0.716306 1.214016 0.014415 -0.001860 684184.000000 1 0 0
-0.626804 15.905996 8.504819 18.047868 -1.531410 1.080104 0.007122 -0.001725 383824.000000 1 0 0
0.738196 12.888996 9.294019 15.907543 1.513585 0.946838 0.001444 -0.004314 -1035010.000000 1 0 0
0.843596 15.489996 -3.992981 16.018599 1.516389 1.822724 0.002088 -0.006594 -256678.000000 1 0 0
5.481196 10.298196 13.607019 17.923373 1.081684 0.708748 0.017675 -0.008217 287790.000000 1 0 0
-1.205604 16.377396 -2.795681 16.657983 -1.497315 1.739423 0.007125 -0.008855 -1214280.000000 1 0 0
8.649696 10.045796 3.448419 13.697695 0.859936 1.316306 0.005043 -0.002717 937643.000000 1 0 0
12.604196 13.668796 -4.891981 19.225847 0.825897 1.828073 0.034934 -0.014957 765752.000000 1 0 0
2.513496 11.606096 7.640719 14.120896 1.357523 0.999060 0.004983 -0.000696 469164.000000 1 0 0
-0.251804 14.859096 -8.632281 17.186401 -1.553852 2.097023 0.007918 -0.005176 -2369730.000000 1 0 0
2.281396 15.884196 0.178419 16.048186 1.428145 1.559678 0.005131 -0.012753 -612990.000000 1 0 0
1.857796 13.373496 5.198219 14.468009 1.432763 1.203289 0.003155 -0.001651 -529734.000000 1 0 0
17.338296 9.318296 -1.767081 19.762837 0.493149 1.660330 -0.000109 0.002242 258190.000000 1 0 0
-7.249704 14.773096 7.130319 17.934437 -1.114587 1.161922 0.007236 -0.019054 -1411070.000000 1 0 0
8.511696 15.850196 -0.193081 17.992080 1.077982 1.581528 0.006918 -0.007259 102386.000000 1 0 0
15.578196 10.430496 2.210819 18.877583 0.590001 1.453413 0.013441 -0.000243 -753095.000000 1 0 0
14.060796 7.527496 8.728119 18.181013 0.491529 1.070064 0.010332 -0.008768 -1313660.000000 1 0 0
4.292896 18.461296 -2.154081 19.075860 1.342322 1.683960 0.011927 -0.018924 -674348.000000 1 0 0
-0.331904 17.454996 -4.911581 18.135894 -1.551784 1.845042 0.011052 -0.008204 379245.000000 1 0 0
1.251696 13.618996 -0.865081 13.703727 1.479146 1.633966 0.000055 -0.007762 440661.000000 1 0 0
10.269296 14.720996 4.296319 18.456016 0.961686 1.335854 0.015549 -0.007675 446844.000000 1 0 0
-1.670104 15.324196 -5.214281 16.272951 -1.462240 1.896976 0.005847 -0.002871 488802.000000 1 0 0
15.084896 8.713596 -6.013381 18.429367 0.523814 1.903176 0.016534 -0.005434 -90821.400000 1 0 0
-2.245704 18.410596 0.806519 18.564582 -1.449417 1.527339 0.000929 -0.011476 -495238.000000 1 0 0
-3.817004 19.298496 3.311219 19.949076 -1.375529 1.404041 0.016300 -0.015926 125547.000000 1 0 0
1.844396 17.560696 -2.677081 17.859076 1.466150 1.721264 0.002377 -0.012102 142124.000000 1 0 0
2.841896 12.194496 3.220219 12.928724 1.341836 1.319072 0.002080 -0.001992 528867.000000 1 0 0
-2.597004 16.090096 1.916419 16.410614 -1.410773 1.453750 0.004850 -0.008722 -275239.000000 1 0 0
11.779096 12.711296 -2.660681 17.532922 0.823444 1.723138 0.003156 -0.000078 222212.000000 1 0 0
7.228696 11.757096 4.721919 14.586976 1.019539 1.241151 0.004342 -0.001166 358194.000000 1 0 0
7.102196 15.795696 1.836419 17.416016 1.148251 1.465156 0.007028 -0.010050 -1515730.000000 1 0 0
5.519196 12.312796 10.293619 16.971301 1.149400 0.919106 0.007512 0.005214 1695090.000000 1 0 0
-1.368004 14.090096 3.155219 14.503711 -1.474010 1.351497 0.000058 -0.006287 -901895.000000 1 0 0
4.582796 16.057996 1.470619 16.763769 1.292796 1.482957 0.004999 -0.015893 -1754390.000000 1 0 0
7.451896 13.242196 11.898819 19.299440 1.058226 0.906460 0.019872 0.000818 438367.000000 1 0 0
0.692696 17.022096 -9.614881 19.562144 1.530125 2.084613 0.008265 -0.004462 332891.000000 1 0 0
9.832996 9.664796 15.510619 20.752720 0.776772 0.726654 0.034145 -0.001685 -162704.000000 1 0 0
13.384296 7.456196 -0.129081 15.321583 0.508267 1.579221 -0.011186 0.005259 34734.400000 1 0 0
12.407796 13.562996 -0.139381 18.382809 0.829850 1.578379 0.018493 -0.001138 424258.000000 1 0 0
9.518196 12.344096 3.439819 15.962616 0.913944 1.353600 0.004758 0.000197 811483.000000 1 0 0
-0.643304 12.928196 0.717819 12.964079 -1.521078 1.515398 0.002644 -0.005814 -1399020.000000 1 0 0
15.907196 7.370796 -0.792481 17.549802 0.433910 1.615968 0.000803 0.007030 -980394.000000 1 0 0
-4.290204 18.455196 -2.229281 19.077992 -1.342387 1.687915 0.011681 -0.008597 -121367.000000 1 0 0
11.406396 9.197496 -3.293781 15.018282 0.678598 1.791912 -0.001743 0.002553 -31334.300000 1 0 0
14.670296 9.774596 7.778519 19.268255 0.587738 1.155243 0.015851 -0.005325 -390905.000000 1 0 0
4.390996 13.758496 4.705019 15.189281 1.261866 1.255857 0.006500 -0.003695 -987080.000000 1 0 0
2.181596 15.923796 5.615719 17.025361 1.434642 1.234658 0.006708 -0.005079 164268.000000 1 0 0
6.202796 18.505096 5.242919 20.208945 1.247372 1.308359 0.029826 -0.014028 -330397.000000 1 0 0
10.734496 17.054596 -0.831281 20.168779 1.009025 1.612024 0.032598 -0.008951 -644848.000000 1 0 0
10.017096 13.552896 -4.448781 17.430285 0.934301 1.828885 0.016758 -0.008190 811819.000000 1 0 0
16.508096 7.948696 2.442019 18.484114 0.448741 1.438294 0.005659 0.002750 -13806.600000 1 0 0
3.836096 13.887696 -0.418581 14.413845 1.301294 1.599841 -0.000028 -0.010512 -760545.000000 1 0 0
5.665396 13.246496 -2.258381 14.583094 1.166649 1.726285 0.002435 -0.004637 -224154.000000 1 0 0
-6.047504 16.643496 -3.019281 17.963694 -1.222273 1.739675 0.003576 -0.016359 -1689890.000000 1 0 0
18.131796 10.013796 2.592419 20.874836 0.504591 1.446286 0.029511 -0.004749 863077.000000 1 0 0
7.944896 12.820196 9.413919 17.779220 1.016005 1.012797 0.013947 -0.000010 636300.000000 1 0 0
-2.607504 15.784196 6.680919 17.337087 -1.407078 1.175205 0.004544 -0.005730 1186020.000000 1 0 0
11.312396 16.175096 6.245319 20.702851 0.960493 1.264358 0.026488 -0.001356 294347.000000 1 0 0
13.554296 11.986696 1.465019 18.153404 0.724099 1.490006 0.020530 0.000322 -480560.000000 1 0 0
17.495596 7.851496 -5.424581 19.929073 0.421830 1.846469 0.016134 0.010729 43733.700000 1 0 0
9.480296 9.324896 8.018019 15.527985 0.777135 1.028202 0.002895 0.001400 -207589.000000 1 0 0
-2.019704 14.122696 -1.864881 14.387756 -1.428748 1.700778 0.001149 -0.001400 544455.000000 1 0 0
10.932996 11.617996 0.847519 15.975810 0.815764 1.517721 0.003504 0.004156 706607.000000 1 0 0
11.734896 9.780896 -0.583181 15.287701 0.694830 1.608953 -0.005161 0.007126 -1361840.000000 1 0 0
-0.219304 15.916796 11.036419 19.369952 -1.557019 0.964570 0.013360 -0.010773 352646.000000 1 0 0
2.214096 19.961296 -1.483681 20.138442 1.460328 1.644537 0.017875 -0.023204 -619995.000000 1 0 0
9.211296 14.360696 1.825319 17.158361 1.000474 1.464214 0.007190 -0.002099 -120025.000000 1 0 0
8.438596 11.672796 -5.093081 15.277550 0.944847 1.910672 0.005493 -0.004490 -877154.000000 1 0 0
10.620896 10.075796 10.309219 17.905449 0.759067 0.957264 0.004564 0.002052 475763.000000 1 0 0
-5.114904 15.732196 5.812919 17.534373 -1.256453 1.232887 -0.003123 -0.007791 2124720.000000 1 0 0
14.327496 9.093296 -2.012581 17.088465 0.565526 1.688845 0.003374 0.004900 -732890.000000 1 0 0
12.134996 9.557396 6.976219 16.949029 0.667128 1.146587 0.003306 -0.003882 -1836560.000000 1 0 0
3.152096 12.968096 9.689019 16.491947 1.332355 0.942830 0.003923 -0.001726 -687840.000000 1 0 0
8.504696 12.617596 -2.573081 15.432249 0.977710 1.738313 0.002915 -0.001128 -877007.000000 1 0 0
9.393696 16.985896 2.087419 19.522282 1.065630 1.463667 0.014904 -0.007881 -17155.100000 1 0 0
9.758696 14.346696 -7.599081 18.942171 0.973479 1.983593 0.027453 -0.011875 1226180.000000 1 0 0
6.375496 11.384796 7.240619 14.922704 1.060307 1.064195 0.003344 0.001021 -926140.000000 1 0 0
5.499696 16.840496 -5.657481 18.597205 1.255140 1.879907 0.008242 -0.007872 -859988.000000 1 0 0
-3.955304 17.244096 -4.577481 18.274479 -1.345325 1.823977 0.000537 -0.007252 -83681.100000 1 0 0
-0.049104 18.475296 -0.500681 18.482144 -1.568139 1.597890 0.008061 -0.014782 -967256.000000 1 0 0
6.477996 15.747696 -2.749181 17.248546 1.180534 1.730865 0.003867 -0.000655 258085.000000 1 0 0
-0.736304 20.637296 0.725219 20.663157 -1.535133 1.535692 0.012219 -0.012484 17701.400000 1 0 0
-1.383704 18.803496 4.270519 19.331927 -1.497341 1.348054 0.009010 -0.011118 306487.000000 1 0 0
7.222096 13.774696 -4.319481 16.141834 1.087897 1.841693 0.007326 -0.003176 -708120.000000 1 0 0
-0.939904 11.937196 7.578219 14.170726 -1.492221 1.006549 0.002673 -0.001917 512109.000000 1 0 0
7.749896 10.844196 11.016419 17.292165 0.950300 0.880098 0.011609 0.002155 64719.200000 1 0 0
1.587596 16.001496 -7.354481 17.682101 1.471904 1.999759 0.003204 -0.003822 -326439.000000 1 0 0
9.089396 7.275596 14.725019 18.771723 0.675015 0.669027 0.027418 -0.002355 383489.000000 1 0 0
11.280396 11.332896 -4.962881 16.742522 0.787720 1.871742 0.013375 -0.008565 -254343.000000 1 0 0
-3.319704 16.997996 4.423019 17.874993 -1.377924 1.320757 0.002538 -0.007549 -811919.000000 1 0 0
4.066396 15.231496 -6.713081 17.134745 1.309908 1.973364 0.007390 -0.012493 -481165.000000 1 0 0
-4.482704 14.030296 9.287219 17.412532 -1.261545 1.008224 0.015975 -0.014697 368814.000000 1 0 0
6.157896 17.806596 0.393619 18.845410 1.237849 1.549908 0.005489 -0.013544 -8565.740000 1 0 0
9.783096 10.709296 -2.073981 14.652623 0.830565 1.712817 -0.000914 0.003330 -1491950.000000 1 0 0
7.249396 18.159196 -2.541181 19.717194 1.190968 1.700037 0.005808 -0.006410 -12228.800000 1 0 0
3.548696 10.462696 10.340719 15.132472 1.243797 0.818460 0.005033 -0.001531 702560.000000 1 0 0
0.078596 18.521596 2.063419 18.636346 1.566553 1.459849 0.008528 -0.015099 305581.000000 1 0 0
-0.795704 17.105596 -7.478381 18.685843 -1.524313 1.982549 0.017499 -0.001082 -364513.000000 1 0 0
10.356496 8.759796 13.057419 18.827831 0.702066 0.804437 0.021558 0.003054 -123876.000000 1 0 0
3.672296 11.434696 5.387619 13.162996 1.260047 1.149109 -0.001438 -0.000943 521898.000000 1 0 0
12.999196 13.826496 8.079519 20.625947 0.816228 1.168300 0.020843 -0.011639 -127789.000000 1 0 0
-0.554504 17.391496 6.691019 18.642460 -1.538923 1.203693 0.008169 -0.005289 -520984.000000 1 0 0
12.107196 13.724596 5.713619 19.172745 0.847929 1.268192 0.017783 -0.005145 -570395.000000 1 0 0
4.934296 14.494396 -4.480381 15.953325 1.242674 1.855469 0.000286 -0.005644 -1269500.000000 1 0 0
3.821896 17.571996 4.695319 18.585692 1.356633 1.315398 0.016034 -0.013529 1087140.000000 1 0 0
7.101696 11.674396 2.119819 13.828204 1.024286 1.416893 0.008994 -0.002541 1540130.000000 1 0 0
6.457796 8.786096 11.796419 16.064063 0.936963 0.746108 0.011547 -0.000981 674105.000000 1 0 0
-5.479504 14.900496 1.817319 15.979749 -1.218406 1.456823 0.001253 0.001557 383067.000000 1 0 0
6.663396 13.727096 6.158219 16.454716 1.118881 1.187206 0.011713 -0.006240 24461.500000 1 0 0
5.918696 15.938896 4.931019 17.702946 1.215241 1.288520 0.015485 -0.011992 642923.000000 1 0 0
1.233596 17.925296 4.315519 18.478682 1.502086 1.335079 0.014098 -0.013612 342747.000000 1 0 0
7.407296 17.957996 -7.020681 20.655450 1.179579 1.917601 0.009857 -0.006803 282497.000000 1 0 0
-2.275004 18.773796 -6.014081 19.844400 -1.450205 1.878700 0.016464 -0.004634 -380582.000000 1 0 0
13.430496 10.035996 -4.587981 17.382434 0.641742 1.837905 0.001472 -0.004241 -3139700.000000 1 0 0
-1.540004 18.001696 9.949119 20.625655 -1.485456 1.067442 0.018912 0.002671 -20154.400000 1 0 0
3.527596 11.748996 -1.553481 12.365118 1.279113 1.696763 0.006360 -0.006108 1238020.000000 1 0 0
4.308196 14.035196 -10.999581 18.344973 1.272970 2.213793 0.015766 -0.016413 287667.000000 1 0 0
11.581996 13.539296 2.343319 17.970707 0.863155 1.440027 0.018526 -0.000888 -332423.000000 1 0 0
16.006696 6.470896 -7.049481 18.648914 0.384175 1.958442 0.004677 0.005982 271339.000000 1 0 0
2.549196 16.109596 2.872519 16.561064 1.413857 1.396464 0.008720 -0.011586 -141050.000000 1 0 0
13.537196 10.549696 3.691619 17.555051 0.661998 1.358927 0.009524 0.004422 -1509670.000000 1 0 0
-4.830604 19.371996 -5.750181 20.776754 -1.326420 1.851217 0.009551 -0.015867 -87425.500000 1 0 0
5.451496 12.051396 0.195319 13.228495 1.145987 1.556031 0.004854 -0.003660 486962.000000 1 0 0
4.657896 15.434296 9.613819 18.770695 1.277699 1.033085 0.010495 0.000496 -172537.000000 1 0 0
7.863296 9.420696 13.872819 18.521232 0.875262 0.724211 0.027505 -0.007905 -1859310.000000 1 0 0
-4.977404 13.435296 6.901719 15.903316 -1.216001 1.121891 0.002421 -0.010088 188382.000000 1 0 0
-4.524404 17.113696 0.616019 17.712377 -1.312336 1.536010 0.003249 -0.005001 -2218630.000000 1 0 0
-0.664904 16.479196 3.560219 16.872497 -1.530470 1.358191 0.006948 -0.011739 -1742090.000000 1 0 0
7.935896 16.746996 -4.740381 19.128814 1.128271 1.821219 0.011873 -0.009269 918294.000000 1 0 0
3.154796 16.457296 -4.665381 17.394283 1.381398 1.842334 -0.001081 -0.007513 -703077.000000 1 0 0
9.535996 14.386796 8.154019 19.089346 0.985455 1.129458 0.022005 -0.005069 271394.000000 1 0 0
12.740996 11.059596 9.077919 19.158712 0.714870 1.077165 0.014835 -0.006967 222515.000000 1 0 0
3.703596 12.421596 12.166019 17.777083 1.281030 0.817063 0.013408 -0.004454 721784.000000 1 0 0
-3.432804 19.083396 5.843619 20.251124 -1.392815 1.278076 0.019089 -0.008622 11909.500000 1 0 0
-2.704204 15.712096 10.020019 18.830386 -1.400356 1.009694 0.017570 -0.011851 -316791.000000 1 0 0
2.003996 14.240496 7.587719 16.259803 1.430989 1.085291 0.007034 -0.005271 -199790.000000 1 0 0
4.320696 17.274496 7.833019 19.453349 1.325705 1.156379 0.022091 -0.006858 368071.000000 1 0 0
-1.905004 13.391396 9.275319 16.400917 -1.429489 0.969713 0.010257 -0.007693 -802010.000000 1 0 0
5.777696 17.747396 2.996419 18.903184 1.256065 1.411611 0.004497 -0.017286 536078.000000 1 0 0
7.363096 15.332996 -6.851781 18.337471 1.123104 1.953736 0.011636 -0.007032 -154106.000000 1 0 0
10.944296 7.664296 9.379719 16.324772 0.610928 0.958718 0.005180 -0.003804 60096.900000 1 0 0
9.029396 16.182296 -2.655881 18.720320 1.061847 1.713148 0.015756 -0.012198 -938583.000000 1 0 0
14.622796 11.249296 -6.583481 19.588645 0.655738 1.913555 0.045454 -0.012829 460368.000000 1 0 0
11.184096 6.423996 16.067119 20.603496 0.521373 0.676410 0.047648 -0.010907 -576493.000000 1 0 0
8.497496 8.473396 10.260019 15.788409 0.783978 0.863416 0.003977 -0.000643 -294311.000000 1 0 0
16.414896 9.378596 4.559919 19.447358 0.519084 1.334118 0.026432 -0.002943 115160.000000 1 0 0
-3.366404 14.226096 4.688219 15.352325 -1.338435 1.260464 -0.000882 -0.006448 -1563130.000000 1 0 0
4.912296 14.661796 12.874919 20.121194 1.247510 0.876469 0.018122 0.001151 -504622.000000 1 0 0
15.926496 10.640596 -4.321881 19.635534 0.588999 1.792719 0.019944 -0.013695 1061990.000000 1 0 0
14.687396 14.009096 6.240219 21.234752 0.761766 1.272525 0.036610 -0.005799 -1008870.000000 1 0 0
6.175996 9.608696 9.330019 14.748533 0.999534 0.885882 0.001786 0.001567 1015670.000000 1 0 0
10.425596 12.044896 8.618919 18.112381 0.857337 1.074857 0.015969 -0.006065 -1153400.000000 1 0 0
8.001296 11.470496 -0.302381 13.988725 0.961714 1.592414 0.005283 -0.001999 406786.000000 1 0 0
7.621196 13.504896 -8.696781 17.779168 1.057019 2.081918 0.016822 -0.011001 -1082390.000000 1 0 0
2.830096 15.245996 -2.282681 15.673559 1.387257 1.716955 -0.000996 -0.008507 478933.000000 1 0 0
12.331396 13.413596 -7.676481 19.771602 0.827409 1.969537 0.046732 -0.026701 188794.000000 1 0 0
-8.254304 14.612096 9.607119 19.337622 -1.056589 1.050877 0.026668 -0.019110 649560.000000 1 0 0
11.583896 9.647196 2.251119 15.242131 0.694430 1.422563 0.004308 0.003660 -2241350.000000 1 0 0
12.154296 8.594596 4.500619 15.551513 0.615491 1.277196 0.000596 -0.001657 -31496.300000 1 0 0
14.013796 7.995496 6.085419 17.243745 0.518479 1.210121 0.000990 -0.005841 -3322640.000000 1 0 0
16.168996 7.452396 7.276719 19.233442 0.431887 1.182797 0.026766 -0.009165 360128.000000 1 0 0
13.633196 8.363096 2.319019 16.161165 0.550241 1.426806 -0.004581 0.004045 -3247210.000000 1 0 0
-4.107504 17.378696 -7.154181 19.237280 -1.338703 1.951842 0.001004 -0.009455 60045.800000 1 0 0
2.740796 19.551096 -3.993281 20.142085 1.431518 1.770374 -0.001574 -0.010352 349313.000000 1 0 0
-0.112904 14.841596 6.160419 16.069738 -1.563189 1.177370 0.003979 -0.005114 204891.000000 1 0 0
6.714096 16.113896 8.245619 19.306138 1.176007 1.129515 0.022844 -0.000689 -1582800.000000 1 0 0
12.727796 15.124196 -2.075081 19.875715 0.871227 1.675390 0.039950 -0.009834 -518652.000000 1 0 0
12.680996 15.683196 4.074119 20.575926 0.890850 1.371475 0.037304 -0.007770 -756740.000000 1 0 0
2.938096 18.085996 1.182319 18.361196 1.409752 1.506359 0.014240 -0.016383 -615046.000000 1 0 0
10.363296 14.467596 -1.301081 17.843823 0.949207 1.643776 0.006610 0.003298 -2632290.000000 1 0 0
-6.267904 15.795496 -0.538881 17.002197 -1.193038 1.602496 -0.002219 -0.004126 -190151.000000 1 0 0
-3.783004 15.899196 -2.569881 16.543876 -1.337203 1.726765 0.000539 -0.004616 -1209040.000000 1 0 0
-6.946404 17.135896 1.663819 18.565014 -1.185668 1.481055 0.010447 -0.002182 927305.000000 1 0 0
0.277996 19.261596 -6.606981 20.365130 1.556365 1.901201 0.022022 -0.007986 119494.000000 1 0 0
4.706696 14.912696 7.027319 17.144232 1.265075 1.148458 0.014425 -0.004498 -920507.000000 1 0 0
8.736896 12.383896 6.863519 16.637371 0.956386 1.145560 0.015118 -0.005650 194227.000000 1 0 0
-7.675604 17.559396 -5.760981 20.010901 -1.158703 1.862821 0.028996 -0.016109 202588.000000 1 0 0
-7.712004 17.823996 -1.403881 19.471536 -1.162443 1.642958 0.016544 -0.007019 293387.000000 1 0 0
-13.917404 -9.047604 9.011219 18.887969 0.576440 1.073458 0.039063 -0.021932 -104487.000000 1 0 0
-12.656604 -12.994704 7.559619 19.651967 0.798578 1.175941 0.030653 -0.011125 260651.000000 1 0 0
-3.941704 -14.973104 12.549319 19.930286 1.313384 0.889680 0.012486 -0.008308 -67429.500000 1 0 0
-2.088804 -14.073004 14.981419 20.660481 1.423446 0.759581 0.024379 -0.007195 -488360.000000 1 0 0
-7.156304 -13.605704 12.782619 19.993080 1.086583 0.877141 0.023696 -0.016741 70476.100000 1 0 0
-9.888204 -11.520704 8.921319 17.609462 0.861504 1.039536 0.019991 -0.013782 558151.000000 1 0 0
-10.655304 -10.629504 11.253819 18.792826 0.784186 0.928750 0.036873 -0.018797 409288.000000 1 0 0
-5.895304 -12.312104 10.937519 17.492051 1.124234 0.895299 0.015982 -0.004207 511283.000000 1 0 0
-12.502604 -10.394404 7.264719 17.808282 0.693584 1.150599 0.020312 -0.009875 66026.700000 1 0 0
-7.620304 -11.076804 12.479119 18.343747 0.968202 0.822634 0.018747 -0.015584 -149906.000000 1 0 0
-14.830804 -11.558704 7.188819 20.130462 0.662035 1.205623 0.042025 -0.012291 -297119.000000 1 0 0
-11.292804 -9.123504 9.175819 17.174441 0.679542 1.007150 0.023783 -0.013104 872461.000000 1 0 0
-5.327904 -11.796704 13.449419 18.666432 1.146577 0.766254 0.019606 -0.013504 -304384.000000 1 0 0
3.982496 -12.426504 14.840219 19.761336 -1.260654 0.721263 0.005153 0.001616 240293.000000 1 0 0
6.484696 -12.787204 14.053119 20.076206 -1.101466 0.795415 0.014198 0.000070 111766.000000 1 0 0
6.464896 -8.704404 16.297419 19.574663 -0.931974 0.587052 -0.002773 0.004429 269375.000000 1 0 0
0.729796 -1.714304 14.434019 14.553775 -1.168325 0.128373 0.005774 -0.000851 -3503420.000000 1 0 0
-0.134704 -6.272204 15.629119 16.841261 1.549323 0.381719 0.002745 -0.004029 -360209.000000 1 0 0
-1.532604 -4.610504 18.442519 19.071763 1.249872 0.257591 0.017128 -0.018827 -2553190.000000 1 0 0
-5.321704 12.709696 12.665619 18.715630 -1.174264 0.827470 0.019539 -0.009439 91450.400000 1 0 0
-4.055004 8.889996 11.606019 15.171512 -1.142855 0.699774 0.004102 0.001560 -213350.000000 1 0 0
-0.587604 -3.813304 15.217919 15.699415 1.417906 0.248305 0.006164 0.001374 -143069.000000 1 0 0
-4.632404 9.249196 14.096219 17.484570 -1.106474 0.633080 0.013043 -0.007358 422500.000000 1 0 0
-13.500804 -2.251904 16.852319 21.710446 0.165276 0.682131 0.025247 -0.001971 -629554.000000 1 0 0
-0.313804 0.823196 17.419519 17.441782 -1.206599 0.050531 0.016885 -0.004509 -633803.000000 1 0 0
-3.314204 -7.256804 15.417719 17.359471 1.142382 0.477504 0.010552 -0.008478 363984.000000 1 0 0
-7.466104 5.476796 12.580619 15.620819 -0.632893 0.634488 -0.003453 0.000547 -1391660.000000 1 0 0
-9.937504 10.117196 13.345219 19.473225 -0.794358 0.815765 0.012581 -0.009675 658112.000000 1 0 0
-5.562204 2.245196 11.152519 12.663242 -0.383651 0.493458 -0.003318 0.001505 -1568960.000000 1 0 0
-7.006504 -7.405304 16.912919 19.747822 0.813063 0.542453 0.024840 -0.013709 -446840.000000 1 0 0
-4.727604 3.124896 18.776519 19.613080 -0.584062 0.293121 0.006342 0.000888 513886.000000 1 0 0
0.912596 -8.337804 16.522019 18.529137 -1.461777 0.469758 0.002550 -0.003013 430880.000000 1 0 0
-14.993204 -3.528604 13.886219 20.738233 0.231141 0.837133 0.028711 -0.012378 338547.000000 1 0 0
-14.257504 1.846296 13.005119 19.386035 -0.128780 0.835442 0.007123 -0.000163 -1745070.000000 1 0 0
-5.448004 1.040196 16.148819 17.074751 -0.188661 0.330834 0.010213 -0.002975 723991.000000 1 0 0
4.634296 5.790296 15.317919 17.018898 0.895839 0.450904 0.015123 -0.002187 -265185.000000 1 0 0
-1.016504 -11.934404 13.843419 18.305834 1.485827 0.713265 -0.001248 -0.007823 -27563.800000 1 0 0
-5.975404 -4.023304 16.791519 18.271496 0.592588 0.405258 0.023826 -0.011197 523660.000000 1 0 0
-12.976304 -1.568804 9.823419 16.350694 0.120314 0.926301 0.006560 -0.004282 -979067.000000 1 0 0
-14.546504 10.458696 10.089919 20.561896 -0.623353 1.057892 0.009884 -0.012279 512313.000000 1 0 0
-3.641104 -3.269504 17.775519 18.436821 0.731678 0.268645 0.020035 -0.012605 -1040660.000000 1 0 0
-7.929104 9.459896 11.846519 17.108487 -0.873204 0.805937 -0.001767 -0.001552 252050.000000 1 0 0
-4.335704 10.702996 16.261119 19.944334 -1.185908 0.617506 0.015940 -0.006970 283602.000000 1 0 0
-12.619604 12.568796 8.097619 19.565287 -0.783381 1.144088 0.011666 -0.025297 271083.000000 1 0 0
-12.547604 3.162896 10.469519 16.645033 -0.246928 0.890546 0.002113 -0.001171 64605.600000 1 0 0
-10.144704 -3.392604 13.705619 17.385879 0.322729 0.662724 0.016390 -0.006709 -628571.000000 1 0 0
-4.145504 -6.365404 17.691919 19.253768 0.993539 0.405562 0.021376 -0.011787 -405873.000000 1 0 0
0.791296 -3.616004 17.905419 18.284028 -1.355361 0.203857 0.012182 -0.015366 -445389.000000 1 0 0
-5.989404 1.792596 13.694719 15.054292 -0.290809 0.428262 0.003843 0.000541 -1045470.000000 1 0 0
-10.595304 8.688296 10.193219 17.077724 -0.686826 0.931199 0.009585 -0.011660 -210164.000000 1 0 0
4.559696 2.447896 17.260719 18.019863 0.492695 0.291298 0.007257 -0.008492 -572840.000000 1 0 0
0.503396 -5.318004 13.351319 14.380275 -1.476419 0.380587 0.003335 -0.000868 607004.000000 1 0 0
-4.107204 5.932996 20.629419 21.855034 -0.965281 0.336486 0.023667 -0.010594 -655139.000000 1 0 0
-10.849304 10.759896 8.861819 17.663935 -0.781261 1.045245 0.006306 -0.018321 -588221.000000 1 0 0
0.581896 4.233396 13.120219 13.798565 1.434199 0.314861 0.009124 -0.002108 -2442400.000000 1 0 0
-3.191104 7.151896 13.312319 15.445083 -1.151115 0.531766 0.001352 0.002142 43802.400000 1 0 0
0.686296 8.925496 14.043719 16.654174 1.494056 0.567486 0.010209 -0.007019 378676.000000 1 0 0
-4.251804 -6.632504 13.155519 15.334133 1.000735 0.539581 0.008815 -0.004736 -354999.000000 1 0 0
-5.270604 8.251996 16.377119 19.081005 -1.002401 0.538860 0.015322 -0.000066 456046.000000 1 0 0
1.516096 -10.688004 15.629719 18.995266 -1.429886 0.604438 -0.001953 0.000569 -312208.000000 1 0 0
-15.255304 -1.030904 14.310019 20.941913 0.067474 0.818497 0.020212 0.006294 726745.000000 1 0 0
-13.555804 -5.218104 8.393819 16.776312 0.367452 1.046808 0.024301 -0.010123 -1493150.000000 1 0 0
-14.263704 -1.933004 12.037019 18.763784 0.134699 0.874341 0.022282 -0.008222 440034.000000 1 0 0
9.306796 1.142796 16.964619 19.383517 0.122180 0.504930 0.012647 -0.007468 -2095780.000000 1 0 0
4.895796 -6.717904 16.739819 18.690121 -0.941023 0.460904 0.006945 -0.010805 -296300.000000 1 0 0
-6.005004 -2.653004 10.911719 12.734368 0.416013 0.541626 0.003404 -0.000670 455606.000000 1 0 0
0.570796 -6.280404 18.086219 19.154128 -1.480160 0.335498 0.010983 -0.013877 -114632.000000 1 0 0
-8.695904 11.938296 11.965519 19.008296 -0.941260 0.889901 0.012833 -0.010789 36512.300000 1 0 0
-6.732404 -5.734804 14.869619 17.300833 0.705550 0.536556 0.026531 -0.008336 -1020150.000000 1 0 0
-4.414304 -8.872204 17.204319 19.854236 1.109116 0.522586 0.024159 -0.010454 491122.000000 1 0 0
2.439196 -6.152204 16.256019 17.551566 -1.193332 0.386627 0.004167 -0.008187 -649001.000000 1 0 0
2.166896 5.343496 16.051019 17.055310 1.185540 0.344881 0.013276 -0.007548 -1797960.000000 1 0 0
0.801996 -8.836304 13.959219 16.540353 -1.480283 0.566193 -0.001985 -0.001525 114252.000000 1 0 0
-10.018204 -2.728804 11.246119 15.306403 0.265933 0.745523 -0.000003 -0.002569 668919.000000 1 0 0
-1.249704 10.161596 12.359719 16.049375 -1.448428 0.691789 0.007239 -0.003889 -159312.000000 1 0 0
-12.403804 -3.781304 11.310119 17.206726 0.295901 0.853555 0.014849 -0.003582 -1020400.000000 1 0 0
-1.790004 6.933096 19.883719 21.133722 -1.318131 0.345658 0.020330 -0.008655 28052.500000 1 0 0
0.181096 -13.242804 15.790919 20.609653 -1.557122 0.697905 -0.006114 -0.010176 -762398.000000 1 0 0
3.994396 -8.722704 15.362119 18.111750 -1.141367 0.558246 0.006374 -0.001996 -570895.000000 1 0 0
4.382796 -4.341904 16.110519 17.251373 -0.780711 0.365714 0.001643 -0.005581 -1259820.000000 1 0 0
8.077496 1.771396 14.793819 16.948182 0.215883 0.509711 0.004352 -0.003138 -247538.000000 1 0 0
-6.216404 -0.123804 11.918319 13.442669 0.019913 0.480847 0.002969 0.001133 167496.000000 1 0 0
-3.358104 -10.918704 18.418719 21.673583 1.272423 0.555146 0.028462 -0.009780 -316778.000000 1 0 0
3.273696 -1.456004 13.589019 14.053415 -0.418487 0.257793 0.002205 -0.003109 749608.000000 1 0 0
-2.694704 8.801396 15.802119 18.287509 -1.273691 0.527450 0.016035 -0.005415 329364.000000 1 0 0
-3.383304 3.963596 14.876119 15.762480 -0.864219 0.336949 0.003720 0.000744 -1877940.000000 1 0 0
-4.467704 -9.016704 19.867719 22.270779 1.110762 0.468829 0.032463 -0.010641 -127540.000000 1 0 0
-5.883304 -3.018404 19.215419 20.321328 0.474030 0.331427 0.029307 -0.016108 -450251.000000 1 0 0
-6.704404 -8.613804 11.120319 15.582303 0.909408 0.776100 0.011562 -0.009608 -1356350.000000 1 0 0
-11.674304 2.370996 12.711219 17.420852 -0.200370 0.752978 0.010219 -0.004914 282269.000000 1 0 0
-11.736104 -7.448704 11.657819 18.141777 0.565532 0.872916 0.025004 -0.014162 1371480.000000 1 0 0
-11.138104 -7.167104 15.553719 20.428973 0.571775 0.705394 0.041636 -0.022765 -879347.000000 1 0 0
0.266396 5.749796 17.783419 18.691739 1.524498 0.313029 0.017863 -0.010263 -151330.000000 1 0 0
-2.242804 -0.147504 13.298019 13.486632 0.065673 0.167439 0.002365 0.002604 -230498.000000 1 0 0
-5.985804 -10.579304 18.481619 22.120619 1.055901 0.581767 0.029920 -0.002672 866202.000000 1 0 0
0.242396 2.602496 19.172119 19.349468 1.477924 0.135496 0.021769 -0.011893 -853183.000000 1 0 0
-0.910104 10.889796 14.752119 18.358675 -1.487416 0.637560 0.016665 -0.010599 519637.000000 1 0 0
-12.848104 -2.119404 14.260219 19.311124 0.163486 0.740034 0.019893 -0.007942 -816140.000000 1 0 0
-13.527004 8.572696 11.578719 19.762026 -0.564864 0.944797 -0.001058 -0.011296 241247.000000 1 0 0
-17.945404 -0.740004 6.812619 19.209292 0.041213 1.208254 0.048789 -0.019240 -71839.300000 1 0 0
-1.980504 -7.827204 17.746319 19.496650 1.322970 0.426972 0.007363 -0.008786 -766284.000000 1 0 0
5.677796 2.536396 14.413519 15.697777 0.420124 0.407313 0.004486 -0.002714 -2615320.000000 1 0 0
-14.110204 -6.796104 10.946319 19.107768 0.448856 0.960790 0.030334 -0.018861 256772.000000 1 0 0
3.138596 7.694296 16.257419 18.258057 1.183488 0.472520 0.016602 -0.021769 42529.600000 1 0 0
0.986796 2.135896 14.595219 14.783648 1.138003 0.159831 0.007321 -0.003021 -2307610.000000 1 0 0
-14.219004 0.675996 9.679419 17.214186 -0.047506 0.973640 0.009644 -0.005654 -5113990.000000 1 0 0
-9.495304 -5.116104 15.506219 18.888572 0.494207 0.607756 0.024245 -0.008313 -478238.000000 1 0 0
-2.672304 0.024396 18.381419 18.574670 -0.009129 0.144375 0.019673 -0.008269 692473.000000 1 0 0
6.758296 3.813496 17.240119 18.906058 0.513732 0.422947 0.022785 -0.018011 -619205.000000 1 0 0
-4.142104 -0.886904 14.935619 15.524701 0.210934 0.276359 0.009950 0.001359 -227731.000000 1 0 0
4.335596 -8.927704 17.909519 20.475648 -1.118708 0.506033 0.007637 -0.002356 -253570.000000 1 0 0
1.896896 6.969196 13.514819 15.323780 1.305051 0.490811 0.013722 -0.002519 51028.700000 1 0 0
-3.829304 -0.917804 20.487219 20.862217 0.235242 0.189890 0.029975 -0.012546 107876.000000 1 0 0
-10.525204 1.536996 16.152719 19.340440 -0.145005 0.582339 0.007655 -0.005681 -762707.000000 1 0 0
-3.894604 7.223996 18.340819 20.093275 -1.076344 0.420747 0.012239 0.000437 -312963.000000 1 0 0
-12.661404 1.065896 14.803519 19.508754 -0.083987 0.709306 0.014247 -0.000513 -668762.000000 1 0 0
-15.964904 -4.912504 8.238319 18.624735 0.298512 1.112599 0.033024 -0.014092 -2450650.000000 1 0 0
-2.331104 0.805096 15.810219 16.001414 -0.332545 0.154742 0.011972 -0.001611 29510.100000 1 0 0
-13.806504 -8.791804 12.669619 20.698663 0.567031 0.912085 0.026701 -0.021303 438536.000000 1 0 0
6.093596 -3.195404 14.602419 16.142279 -0.482967 0.440339 0.001577 -0.005193 472162.000000 1 0 0
-15.718104 0.575596 7.519519 17.433682 -0.036604 1.124839 0.020350 -0.011362 656144.000000 1 0 0
-14.189204 6.189596 12.405519 19.837881 -0.411334 0.895223 0.020989 -0.002471 -330482.000000 1 0 0
0.224496 9.467696 16.590419 19.103132 1.547089 0.518697 0.017068 -0.021761 -228585.000000 1 0 0
-10.367204 -5.415504 10.859019 15.960104 0.481382 0.822508 0.014237 -0.009969 -30282.500000 1 0 0
-3.121504 -11.140604 15.250619 19.142577 1.297610 0.649005 0.019006 -0.004301 -892090.000000 1 0 0
-3.625304 2.705896 12.713219 13.494097 -0.641188 0.341862 0.001757 0.003542 -2201780.000000 1 0 0
-12.445204 -7.740804 7.397419 16.417216 0.556433 1.103371 0.022831 -0.009683 30008.800000 1 0 0
-8.201604 -1.771004 13.244619 15.678734 0.212669 0.564697 0.007599 -0.002690 -457019.000000 1 0 0
-9.817804 6.333396 9.558819 15.095436 -0.572918 0.885082 -0.001585 -0.004804 -530145.000000 1 0 0
-17.929504 -3.692304 6.720119 19.500262 0.203095 1.218966 0.044571 -0.010521 109893.000000 1 0 0
-1.320704 0.089596 20.651219 20.693602 -0.067735 0.064012 0.024183 -0.008604 -46023.800000 1 0 0
-2.724904 2.786396 20.281519 20.652582 -0.796555 0.189847 0.023481 -0.007197 -687132.000000 1 0 0
-3.782104 11.310396 11.023119 16.240028 -1.248093 0.824720 0.009264 -0.009395 -544322.000000 1 0 0
-4.225504 -4.777904 14.989019 16.289689 0.846676 0.402323 0.015089 -0.005335 1447100.000000 1 0 0
-0.065804 -14.335404 13.422119 19.638265 1.566206 0.818294 0.011443 -0.005617 -162136.000000 1 0 0
-12.060404 0.350796 8.300019 14.644682 -0.029078 0.968228 0.000297 -0.004851 -588553.000000 1 0 0
-7.847904 2.046696 15.469619 17.466759 -0.255113 0.482882 0.006626 0.001819 -1280470.000000 1 0 0
3.471996 -2.193704 18.467419 18.918580 -0.563494 0.218828 0.012439 -0.007408 -316429.000000 1 0 0
-2.161004 4.897696 12.649119 13.735268 -1.155260 0.400355 -0.002597 0.000521 -426428.000000 1 0 0
-10.236304 -6.096404 13.335319 17.882360 0.537154 0.729174 0.010294 -0.013870 213925.000000 1 0 0
2.327096 -3.744504 14.260219 14.926170 -1.014740 0.299840 -0.001009 -0.002180 -859598.000000 1 0 0
6.770396 1.115096 17.005219 18.337371 0.163236 0.383520 0.001509 -0.006567 -1386070.000000 1 0 0
-1.975204 -5.647104 13.876019 15.110762 1.234324 0.407064 0.004553 -0.001403 -897092.000000 1 0 0
-13.135304 3.645596 14.450519 19.865651 -0.270728 0.756253 0.012548 0.001795 224883.000000 1 0 0
-13.402604 -6.343204 13.445619 20.016261 0.442045 0.834248 0.028391 -0.021397 -32414.500000 1 0 0
-9.510704 6.909296 11.920719 16.742025 -0.628275 0.778420 0.000714 0.001014 -290160.000000 1 0 0
-1.160904 -2.457804 12.909819 13.192874 1.129526 0.207520 0.004073 0.002439 512916.000000 1 0 0
0.046296 6.722296 15.394119 16.797926 1.563910 0.411730 0.012263 -0.005550 332297.000000 1 0 0
-16.255304 -0.824504 9.681819 18.938119 0.050679 1.034176 0.028204 -0.007673 -286427.000000 1 0 0
-1.380004 2.748296 13.828919 14.166741 -1.105445 0.218822 0.003002 0.000911 -1189540.000000 1 0 0
-11.307904 -3.373004 16.116519 19.974685 0.289885 0.632001 0.031937 -0.016129 1420570.000000 1 0 0
-5.206104 -1.397204 17.288719 18.109542 0.262200 0.302232 0.021211 -0.004233 416275.000000 1 0 0
-11.900304 6.614196 11.132519 17.586865 -0.507286 0.885372 0.008686 -0.002382 -855509.000000 1 0 0
-2.741204 4.910496 18.677219 19.505530 -1.061654 0.292470 0.017683 -0.006676 85834.800000 1 0 0
5.133796 -1.895804 16.427519 17.315118 -0.353746 0.321576 -0.000098 -0.007078 308260.000000 1 0 0
-8.045904 -4.019904 12.033419 15.023295 0.463345 0.641859 0.010278 -0.005039 -1127800.000000 1 0 0
-11.530804 -0.861004 16.123819 19.841329 0.074532 0.622132 0.024909 -0.007785 -262276.000000 1 0 0
1.956196 1.991896 17.384719 17.607465 0.794440 0.159232 0.007981 -0.008857 -446417.000000 1 0 0
-9.070404 -7.511404 11.680319 16.586841 0.691655 0.789512 0.020882 -0.010432 -114158.000000 1 0 0
-7.335104 6.794196 14.858019 17.908813 -0.747134 0.592319 -0.001868 0.004495 -257988.000000 1 0 0
-5.769104 3.573896 15.803519 17.199027 -0.554626 0.405612 0.006967 0.001616 170830.000000 1 0 0
-9.340904 4.223196 11.563619 15.453322 -0.424614 0.725311 -0.003556 -0.004561 -22492.500000 1 0 0
-10.410204 0.061296 13.961019 17.415113 -0.005888 0.640727 0.011723 -0.006832 -508207.000000 1 0 0
8.008196 -0.681404 15.789919 17.717705 -0.084884 0.470825 -0.005782 -0.007435 -345285.000000 1 0 0
-8.640804 -7.460704 14.863919 18.741977 0.712238 0.654945 0.028191 -0.007127 -952529.000000 1 0 0
-0.094504 4.149496 15.710419 16.249447 -1.548025 0.258291 0.010533 -0.005785 275093.000000 1 0 0
-7.999304 3.069196 9.628319 12.888497 -0.366361 0.727187 -0.004679 0.000005 -308498.000000 1 0 0
-2.432604 -9.760704 13.148319 16.554976 1.326548 0.653071 0.004728 -0.003120 660243.000000 1 0 0
-6.014204 10.187596 10.465419 15.795023 -1.037506 0.846542 0.009878 -0.008418 -3748880.000000 1 0 0
-8.618504 -2.652804 15.665619 18.075608 0.298600 0.522305 0.023318 -0.013462 523551.000000 1 0 0
4.020996 5.671896 17.812619 19.121407 0.954100 0.372133 0.015718 -0.016384 184224.000000 1 0 0
-6.699104 -0.925204 15.155419 16.595805 0.137241 0.419708 0.007505 -0.003737 -545007.000000 1 0 0
-0.988604 -9.833404 15.384419 18.285337 1.470598 0.571015 -0.005958 -0.004507 -1062090.000000 1 0 0
-4.393804 5.809396 16.307019 17.859828 -0.923258 0.420081 0.003717 0.002695 170364.000000 1 0 0
3.713396 0.060196 17.464819 17.855331 0.016209 0.209528 0.008293 -0.008543 -433377.000000 1 0 0
1.391196 0.303596 19.381319 19.433557 0.214858 0.073338 0.016831 -0.005628 -458787.000000 1 0 0
-6.408904 6.414296 17.860519 20.030362 -0.785819 0.469770 0.004098 0.008205 -298160.000000 1 0 0
-12.104904 0.597596 10.948519 16.332663 -0.049328 0.836123 0.008500 -0.003913 -727094.000000 1 0 0
-5.409804 5.240096 13.950719 15.853932 -0.769464 0.495032 -0.000450 0.002941 -937997.000000 1 0 0
-8.770104 -9.473104 9.916319 16.278447 0.823914 0.915784 0.020678 -0.010938 -36537.000000 1 0 0
6.828596 -3.858404 17.020619 18.740824 -0.514314 0.431807 0.001483 -0.006492 -455776.000000 1 0 0
-16.511804 1.691896 9.661619 19.205444 -0.102109 1.043653 0.029726 -0.010417 -227477.000000 1 0 0
-4.229004 -9.683804 11.218719 15.411691 1.159050 0.755490 0.005249 -0.006579 -268967.000000 1 0 0
-11.019004 -3.932204 9.163619 14.861110 0.342770 0.906358 0.004043 -0.002678 -126698.000000 1 0 0
3.560796 -5.323004 18.408219 19.490413 -0.981218 0.334801 0.002253 -0.014185 -290000.000000 1 0 0
2.469096 -1.782104 16.066919 16.352927 -0.625184 0.187301 0.006315 -0.006842 -481389.000000 1 0 0
-3.228704 -4.266604 20.188019 20.885032 0.922996 0.259080 0.027867 -0.019281 -950564.000000 1 0 0
-6.394304 -3.333704 14.351819 16.061613 0.480586 0.465610 0.013814 -0.003271 -65015.100000 1 0 0
-9.738904 5.165496 13.897519 17.738930 -0.487669 0.670602 0.012496 0.002744 732.973000 1 0 0
-5.841004 -5.179104 11.726619 14.087372 0.725407 0.587335 0.008603 0.000131 -274260.000000 1 0 0
6.199996 2.217296 19.247519 20.342649 0.343455 0.329619 0.021652 -0.017729 96680.800000 1 0 0
-2.802604 12.058696 13.352819 18.208913 -1.342437 0.747615 0.021500 -0.010705 136719.000000 1 0 0
3.289796 1.410696 15.203919 15.619602 0.405093 0.231222 0.001612 -0.004885 -1271320.000000 1 0 0
-5.755204 7.418796 12.720819 15.810760 -0.911012 0.635850 -0.004875 -0.005013 -1248380.000000 1 0 0
-1.634704 -1.566204 15.340419 15.506570 0.764001 0.146520 0.014575 -0.000718 -616114.000000 1 0 0
-7.400604 10.786596 13.932619 19.111187 -0.969465 0.753893 0.020452 -0.010860 -574476.000000 1 0 0
-10.166704 2.112796 10.492819 14.762284 -0.204899 0.780182 -0.000812 -0.002192 -650600.000000 1 0 0
-13.714404 5.127596 9.000119 17.186601 -0.357792 1.019642 0.007381 -0.007765 75828.500000 1 0 0
0.362096 -4.807704 20.185119 20.752932 -1.495622 0.234462 0.018423 -0.019544 -322209.000000 1 0 0
-14.492204 -2.971004 7.456819 16.566683 0.202205 1.103909 0.015459 -0.006773 702208.000000 1 0 0
-2.330504 2.534296 17.730319 18.061509 -0.827265 0.191797 0.011059 -0.005609 -30907.600000 1 0 0
-6.261804 -8.285804 14.516219 17.848960 0.923640 0.621028 0.020350 -0.010925 -344454.000000 1 0 0
-8.026104 1.845596 12.053119 14.598022 -0.226020 0.599411 -0.001760 -0.001079 59244.000000 1 0 0
-14.597104 -3.556004 10.081619 18.093083 0.238956 0.979776 0.019303 -0.010033 -134310.000000 1 0 0
-0.592904 7.017396 12.777219 14.589473 -1.486506 0.503740 0.004882 -0.002615 -642855.000000 1 0 0
-1.805404 -2.188704 19.390919 19.597389 0.881072 0.145287 0.026580 -0.014301 198846.000000 1 0 0
-12.757604 10.204396 7.151319 17.833326 -0.674660 1.158179 0.003914 -0.024416 314738.000000 1 0 0
-19.468904 2.186796 7.097619 20.837382 -0.111854 1.223221 0.061635 -0.025206 1161300.000000 1 0 0
-16.174404 8.516396 6.688619 19.464788 -0.484650 1.220020 0.026670 -0.012046 295522.000000 1 0 0
-12.223804 7.447696 13.566919 19.721837 -0.547214 0.812186 0.004512 0.002047 62602.000000 1 0 0
-15.971904 8.382596 10.486519 20.864724 -0.483317 1.044198 0.021390 -0.004601 290856.000000 1 0 0
1.745396 10.926596 15.052719 18.682111 1.412396 0.633891 0.016825 -0.014364 -921310.000000 1 0 0
2.321196 14.616996 12.462219 19.348163 1.413310 0.870946 0.013391 -0.005766 -597281.000000 1 0 0
-3.144504 13.759096 11.569519 18.249778 -1.346115 0.884141 0.009434 -0.009137 529653.000000 1 0 0
9.145996 4.806196 15.697919 18.792909 0.483837 0.582099 0.025114 -0.006627 -157620.000000 1 0 0
-0.221904 12.471896 12.860719 17.916348 -1.553006 0.770130 0.013367 -0.012465 345246.000000 1 0 0
3.498196 13.323896 14.518419 20.013697 1.314041 0.759146 0.018309 -0.011967 -201580.000000 1 0 0
-2.702904 -4.030004 -13.657181 14.493627 0.980010 2.800198 0.000019 -0.003691 -793805.000000 1 0 0
5.828196 -11.560204 16.324119 20.834660 -1.103826 0.670505 0.006375 0.001382 129177.000000 1 0 0
7.666796 -13.590004 7.344819 17.245705 -1.057155 1.130848 0.005129 -0.005189 -293356.000000 1 0 0
-0.100804 15.557996 1.361219 15.617756 -1.564317 1.483527 0.002247 -0.010059 -2739270.000000 1 0 0
-13.733504 8.153296 9.040719 18.352656 -0.535759 1.055709 0.005764 -0.008683 803137.000000 1 0 0
-15.400404 -9.710604 4.926919 18.861146 0.562575 1.306510 0.027172 -0.010402 -1131660.000000 1 0 0
9.483796 -11.008904 11.211019 18.352801 -0.859683 0.913648 0.016486 -0.002829 -59347.000000 1 0 0
-5.647404 -10.331404 -16.951481 20.639375 1.070548 2.534513 0.018895 0.001540 132574.000000 1 0 0
-1.816604 -12.574304 -14.932081 19.605617 1.427319 2.436610 0.024249 0.001407 42635.500000 1 0 0
5.593996 -15.695704 -12.519681 20.842033 -1.228429 2.215165 0.036489 -0.011861 102991.000000 1 0 0
2.942696 -11.752404 -16.487081 20.459773 -1.325450 2.507871 0.036370 -0.014477 323358.000000 1 0 0
0.343796 -14.211804 -14.002681 19.954164 -1.546610 2.348636 0.030974 0.002431 324829.000000 1 0 0
-6.178004 -6.042004 -14.569281 16.939229 0.774269 2.606245 0.005738 0.003663 20219.600000 1 0 0
-6.164204 -8.084404 -17.626281 20.347992 0.919355 2.618427 0.010418 0.006458 165097.000000 1 0 0
-2.639804 -16.177304 -13.485681 21.225865 1.409043 2.259247 0.026186 0.003752 318271.000000 1 0 0
16.697296 -7.759304 -9.237881 20.599634 -0.435014 2.035825 0.065532 -0.012177 -36240.500000 1 0 0
18.923196 -2.922604 -3.635681 19.489667 -0.153235 1.758440 0.021317 -0.009798 85523.800000 1 0 0
15.743296 -11.408104 -8.896381 21.380875 -0.627067 1.999938 0.044372 -0.016722 108424.000000 1 0 0
19.008096 -3.060004 -6.749981 20.401803 -0.159615 1.908003 0.179526 -0.002463 -356811.000000 1 0 0
8.776496 -9.773304 -15.558081 20.361686 -0.839083 2.440420 0.037791 -0.005779 200015.000000 1 0 0
-4.698004 9.576996 -16.183581 19.382940 -1.114737 2.558819 -0.000013 -0.001183 452016.000000 1 0 0
2.630496 -9.475304 -18.639981 21.074861 -1.300000 2.656143 0.040189 0.002796 415313.000000 1 0 0
11.515996 7.977696 -14.900981 20.452409 0.605843 2.387026 0.063199 -0.043594 295628.000000 1 0 0
18.622796 -6.436804 -8.639781 21.514804 -0.332786 1.984031 0.050178 -0.005490 88217.900000 1 0 0
12.683596 5.486096 -13.823981 19.546695 0.408235 2.356367 0.029830 -0.010757 73271.400000 1 0 0
15.894496 6.430896 -10.612281 20.164621 0.384465 2.125019 0.010390 -0.013936 235253.000000 1 0 0
3.243696 -0.067504 -19.288781 19.559734 -0.020808 2.974951 0.039653 -0.008150 185302.000000 1 0 0
10.490996 -1.875904 -14.937581 18.349696 -0.176941 2.521889 0.025262 0.001290 302183.000000 1 0 0
12.194596 -6.173704 -13.833481 19.447056 -0.468648 2.362200 0.036238 -0.005349 409493.000000 1 0 0
10.220896 6.512596 -12.762481 17.600043 0.567313 2.382033 0.024675 -0.008925 490460.000000 1 0 0
10.493196 5.391796 -16.537081 20.313878 0.474656 2.521936 0.026089 -0.007397 291593.000000 1 0 0
12.076196 -10.178804 -14.879781 21.699089 -0.700347 2.326407 0.052877 -0.015479 344778.000000 1 0 0
-1.657304 2.011296 -17.452681 17.646190 -0.881593 2.993362 0.002772 -0.010365 301391.000000 1 0 0
6.759896 -1.074804 -17.328881 18.631734 -0.157677 2.765409 0.029141 0.012326 113533.000000 1 0 0
7.128196 -6.292304 -15.820981 18.458269 -0.723194 2.600452 0.017607 0.001037 286525.000000 1 0 0
-1.979004 -4.610904 -20.685381 21.285250 1.165373 2.903619 0.025109 -0.015002 422209.000000 1 0 0
16.287596 -0.075804 -13.537281 21.178987 -0.004654 2.264234 0.036846 0.004101 7127.310000 1 0 0
-4.052904 -0.344704 -18.623781 19.062793 0.084847 2.926564 0.006099 -0.005053 207206.000000 1 0 0
3.655496 8.575096 -17.960381 20.235370 1.167832 2.662847 0.032015 -0.017984 99450.100000 1 0 0
10.088796 0.198296 -16.763881 19.566574 0.019652 2.599753 0.036563 -0.017844 -53241.700000 1 0 0
4.180496 4.630596 -18.451481 19.477579 0.836437 2.815555 0.037463 0.000683 476436.000000 1 0 0
-2.216804 -11.136404 -18.251581 21.495440 1.374306 2.585058 0.035638 -0.007862 139043.000000 1 0 0
6.002896 -9.396104 -16.427581 19.854142 -1.002285 2.545282 0.021123 0.002748 119984.000000 1 0 0
10.124496 -12.495404 -10.701081 19.317186 -0.889832 2.157918 0.031228 -0.002771 372617.000000 1 0 0
6.327696 6.750796 -16.776981 19.159333 0.817738 2.637588 0.040731 -0.018386 282108.000000 1 0 0
8.826996 1.664496 -19.989981 21.915422 0.186380 2.719277 0.051923 -0.013091 201598.000000 1 0 0
-1.244004 -0.645404 -20.097381 20.146186 0.478584 3.071972 0.027345 -0.018006 278002.000000 1 0 0
-1.233804 6.948996 -19.419281 20.662025 -1.395076 2.792998 0.008130 -0.008286 31973.900000 1 0 0
8.768096 5.855196 -18.161381 20.999966 0.588776 2.615606 0.052777 -0.017689 105215.000000 1 0 0
11.870396 -0.168904 -12.971981 17.584286 -0.014228 2.400458 -0.004920 0.000484 -8897.100000 1 0 0
-4.230604 -2.358204 -19.830581 20.413502 0.508519 2.902040 -0.003841 -0.008011 517624.000000 1 0 0
5.649796 -11.239404 -14.581481 19.257829 -1.105009 2.429768 0.006134 -0.007095 46317.200000 1 0 0
11.650196 2.865296 -15.733181 19.785600 0.241158 2.490106 0.036300 0.000860 -41384.900000 1 0 0
-2.985704 -4.280904 -16.971781 17.756180 0.961786 2.843246 0.007733 -0.006461 413913.000000 1 0 0
-6.864004 -4.983504 -17.646581 19.579369 0.627986 2.693522 0.021091 0.002798 8593.760000 1 0 0
3.126196 10.319396 -15.109781 18.562556 1.276641 2.521789 0.016024 -0.017029 200490.000000 1 0 0
17.170196 -6.161504 -11.062681 21.334542 -0.344536 2.115932 0.059219 -0.012303 -101271.000000 1 0 0
9.369196 -3.681304 -17.676381 20.341786 -0.374384 2.623911 0.002816 -0.012323 200105.000000 1 0 0
-7.173904 -1.313304 -18.391781 19.785026 0.181062 2.764070 -0.002840 -0.003744 524384.000000 1 0 0
2.001996 -7.122404 -19.100781 20.483566 -1.296782 2.772051 0.040018 -0.024765 305183.000000 1 0 0
5.493596 10.251496 -14.369581 18.486687 1.078857 2.461149 0.024394 -0.013062 327970.000000 1 0 0
6.070896 -3.526304 -18.230181 19.535355 -0.526223 2.773983 0.036122 -0.011879 561227.000000 1 0 0
4.365096 13.681296 -14.594381 20.475055 1.261950 2.364262 0.032283 -0.019484 191152.000000 1 0 0
9.441796 11.147096 -15.398581 21.225493 0.868036 2.382522 0.063678 -0.031858 146060.000000 1 0 0
17.138296 0.987096 -11.647981 20.745385 0.057532 2.166962 0.034966 0.008886 99258.700000 1 0 0
14.825996 -3.074304 -12.451981 19.603911 -0.204461 2.259036 0.040781 -0.000095 130263.000000 1 0 0
-8.629504 0.722996 -17.254981 19.306098 -0.083587 2.676451 0.007550 -0.011906 434843.000000 1 0 0
-3.498804 4.564596 -19.011081 19.861983 -0.916813 2.847823 0.010291 -0.003411 155815.000000 1 0 0
4.183596 1.954096 -16.766881 17.391068 0.436971 2.872862 0.024081 -0.007839 144371.000000 1 0 0
-4.903104 13.883096 -14.100781 20.386584 -1.231300 2.334595 -0.013784 -0.006541 309364.000000 1 0 0
1.207596 9.572896 -17.599881 20.071234 1.445312 2.640110 0.022060 -0.006618 322463.000000 1 0 0
1.136796 -5.111304 -20.022881 20.696219 -1.351950 2.885810 0.031951 -0.001742 574476.000000 1 0 0
3.991896 -6.302504 -17.905481 19.397501 -1.006192 2.746814 0.037442 -0.022537 167105.000000 1 0 0
-6.468604 7.670996 -15.840681 18.751378 -0.870231 2.576939 -0.007518 0.003339 79221.600000 1 0 0
-12.105504 2.892496 -16.645381 20.784091 -0.234543 2.499545 0.055205 -0.012760 384132.000000 1 0 0
-4.234404 6.922496 -17.425481 19.222344 -1.021827 2.705768 0.003353 0.015671 573855.000000 1 0 0
-7.974404 5.078496 -18.132381 20.449095 -0.567075 2.660972 0.001504 0.009892 289015.000000 1 0 0
-8.768804 4.515696 -15.428581 18.311869 -0.475554 2.572788 -0.000202 0.001144 446836.000000 1 0 0
9.641696 13.438296 -12.640381 20.816563 0.948436 2.223362 0.050083 -0.034525 401272.000000 1 0 0
14.450996 9.291396 -11.932181 20.917415 0.571409 2.177841 0.054934 -0.021286 124700.000000 1 0 0
8.705896 15.519596 -9.896781 20.361649 1.059576 2.078361 0.025015 -0.019001 82689.200000 1 0 0
8.193196 13.990796 -14.165581 21.529851 1.041022 2.288891 0.046367 -0.030634 32686.200000 1 0 0
4.348996 15.620296 -13.165081 20.886042 1.299254 2.252773 0.029469 -0.019498 115162.000000 1 0 0
10.892596 11.745796 -11.437881 19.683431 0.823069 2.190866 0.040840 -0.018855 99265.100000 1 0 0
15.792496 10.593996 -8.888881 20.991614 0.590876 2.008046 0.027525 -0.042466 325107.000000 1 0 0
13.172196 11.336896 -10.147781 20.124845 0.710655 2.099300 0.045518 -0.019923 9836.600000 1 0 0
10.735296 11.147696 -8.539681 17.676081 0.804242 2.075012 0.023870 -0.011215 104319.000000 1 0 0
5.827996 16.992296 -10.351681 20.733088 1.240390 2.093568 0.044142 -0.008411 2322.690000 1 0 0
11.881796 13.463396 -9.994481 20.550663 0.847720 2.078685 0.064103 -0.039197 136448.000000 1 0 0
8.348096 -19.393704 -1.685781 21.181320 -1.164315 1.650469 0.042752 -0.006415 269424.000000 1 0 0
7.319296 -16.843104 -4.006181 18.796589 -1.160858 1.785577 0.024605 -0.012523 410539.000000 1 0 0
4.059496 -18.592404 5.026719 19.683113 -1.355828 1.312553 0.037562 -0.027698 166941.000000 1 0 0
10.243696 -17.912704 -2.733781 20.815183 -1.051319 1.702513 0.041003 -0.004418 728675.000000 1 0 0
-3.730904 -14.845504 7.853819 17.204393 1.324580 1.096738 0.024895 -0.029598 -4052.640000 1 0 0
-15.123704 -12.900304 -4.011181 20.278902 0.706225 1.769910 0.019148 -0.007717 178448.000000 1 0 0
-9.230604 -12.749804 -7.278981 17.342005 0.944157 2.003945 0.021021 -0.009905 154977.000000 1 0 0
-11.415204 -15.251204 6.848719 20.243791 0.928269 1.225674 0.019346 -0.010577 112767.000000 1 0 0
-14.844104 -7.083504 -7.152481 17.935480 0.445236 1.980993 0.041522 -0.028566 -208916.000000 1 0 0
4.142196 -15.019304 6.029419 16.706023 -1.301694 1.201550 0.012331 -0.015802 52789.000000 1 0 0
2.822796 -14.116804 9.163119 17.065026 -1.373439 1.003975 0.012015 -0.004328 367457.000000 1 0 0
3.278096 -17.422404 10.332119 20.519230 -1.384817 1.043113 0.031638 -0.005346 232247.000000 1 0 0
-7.503104 -17.336904 -5.555481 19.690815 1.162353 1.856816 -0.006796 -0.014480 -439.074000 1 0 0
2.059196 -19.900604 -3.855481 20.374962 -1.467689 1.761171 0.008414 -0.005648 168090.000000 1 0 0
-17.892904 -10.850204 -1.986381 21.019721 0.545110 1.665438 -0.001952 -0.008710 -1833.270000 1 0 0
-4.153604 -14.879504 2.729219 15.687598 1.298577 1.395934 -0.000478 0.002253 196860.000000 1 0 0
-10.655404 -9.721004 -14.706881 20.599221 0.739573 2.365924 0.015979 0.005232 269890.000000 1 0 0
1.009496 -20.402204 2.707219 20.605777 -1.521357 1.439034 0.023920 -0.012830 240752.000000 1 0 0
5.412096 -18.687704 0.647919 19.466404 -1.288901 1.537506 0.005995 0.005407 185964.000000 1 0 0
-7.833204 -19.233204 -3.560481 21.070175 1.184034 1.740593 0.028721 -0.015194 139391.000000 1 0 0
-9.429804 -15.816204 -7.388681 19.841021 1.033167 1.952384 0.042006 -0.011057 -63259.100000 1 0 0
-11.776204 -11.349404 -12.323981 20.478488 0.766945 2.216551 0.015940 0.008534 368135.000000 1 0 0
-13.193904 -15.275604 -3.153181 20.429531 0.858389 1.725760 0.021567 -0.008933 67334.900000 1 0 0
-0.525504 -20.337504 -2.363781 20.481155 1.544963 1.686467 0.016209 -0.012752 293875.000000 1 0 0
-12.471004 -16.805804 -0.453581 20.932433 0.932393 1.592467 0.039418 -0.015839 189185.000000 1 0 0
0.768496 -20.065504 5.244019 20.753669 -1.532516 1.315348 0.028243 -0.022824 209649.000000 1 0 0
-18.356804 -9.378404 2.245919 20.735739 0.472326 1.462272 0.051748 -0.000935 305966.000000 1 0 0
-15.065404 -14.895704 -0.557181 21.193368 0.779734 1.597090 0.036158 -0.016903 -228509.000000 1 0 0
10.277496 -15.646504 -4.926881 19.357535 -0.989617 1.828148 0.039049 -0.006262 -22385.200000 1 0 0
-0.051204 -19.188304 -6.973181 20.416143 1.568128 1.919364 0.005855 0.000676 66366.500000 1 0 0
-10.175404 -16.999504 -2.564481 19.977451 1.031429 1.699520 0.028653 -0.010658 475865.000000 1 0 0
-14.678304 -6.935104 -11.222981 19.735845 0.441385 2.175672 0.026685 -0.011615 69577.800000 1 0 0
-12.022404 -15.261904 2.341919 19.569070 0.903576 1.450834 0.013617 -0.016661 183739.000000 1 0 0
-2.300004 -15.816004 9.845619 18.771581 1.426386 1.018673 0.008471 -0.023638 376150.000000 1 0 0
-12.408704 -14.635504 -6.577781 20.284012 0.867552 1.901051 0.022443 -0.003457 84092.500000 1 0 0
5.181196 -16.984104 -7.553281 19.296545 -1.274702 1.972983 0.011959 -0.006146 35493.300000 1 0 0
-17.231104 -7.175104 -2.653381 18.852944 0.394567 1.712006 -0.012758 -0.009330 -50280.500000 1 0 0
-12.057304 -13.387104 -9.731681 20.476786 0.837614 2.066049 0.030227 -0.017382 -32527.400000 1 0 0
-7.862404 -13.902304 9.927319 18.805402 1.056095 1.014674 0.026627 -0.007662 539942.000000 1 0 0
-15.841004 -8.304704 -5.694381 18.770495 0.482862 1.879022 0.030232 -0.001053 189394.000000 1 0 0
-0.774904 -19.626604 0.154819 19.642506 1.531334 1.562914 0.009865 -0.010303 131917.000000 1 0 0
-14.673504 -11.224404 -1.728681 18.554981 0.652997 1.664097 -0.005213 -0.006639 -62497.800000 1 0 0
-7.054404 -18.852804 1.037519 20.156123 1.212742 1.519299 0.011623 -0.015012 137138.000000 1 0 0
-2.005604 -20.804104 -5.462881 21.602691 1.474689 1.826452 0.001262 -0.000947 59125.600000 1 0 0
-9.159304 -19.712604 -0.937781 21.756816 1.135833 1.613913 0.022172 -0.008093 237371.000000 1 0 0
-17.775704 -7.558004 4.889119 19.924923 0.402029 1.322888 0.047213 -0.011273 128170.000000 1 0 0
-3.132104 -15.665404 -10.892081 19.335263 1.373461 2.169204 0.016665 0.005805 141569.000000 1 0 0
-2.971504 -18.092204 -8.586281 20.245541 1.408007 2.008772 0.006042 -0.002555 202202.000000 1 0 0
4.166996 -18.332104 -5.713581 19.648789 -1.347288 1.865844 0.002062 0.034062 418895.000000 1 0 0
0.460296 -17.465704 -9.184381 19.738682 -1.544448 2.054768 0.004160 0.006902 84487.000000 1 0 0
-7.548804 -11.027804 -14.088981 19.418967 0.970532 2.382596 0.008153 -0.021556 352748.000000 1 0 0
-5.221404 -19.497504 -2.128681 20.296478 1.309137 1.675869 0.023183 -0.012694 419505.000000 1 0 0
-9.628604 -16.144904 8.399119 20.589152 1.033038 1.150601 0.011971 -0.005897 258946.000000 1 0 0
-8.169304 -14.565604 -9.068981 19.003704 1.059652 2.068287 0.072884 -0.021116 146337.000000 1 0 0
-12.689804 -8.056904 -12.118181 19.307904 0.565695 2.249299 0.025306 -0.013883 255630.000000 1 0 0
-15.628304 -13.069104 3.365919 20.648845 0.696455 1.407058 0.033279 -0.013150 19735.300000 1 0 0
-6.177404 -14.306704 -13.265881 20.465232 1.163194 2.276035 -0.000804 0.009461 462530.000000 1 0 0
-14.085904 -12.062704 -6.591581 19.681729 0.708179 1.912305 0.032908 -0.002073 164337.000000 1 0 0
-12.138704 -10.616504 -7.862881 17.941104 0.718603 2.024459 0.036858 -0.006381 247045.000000 1 0 0
-9.389304 -14.559304 3.120819 17.603178 0.998014 1.392567 0.002659 -0.015656 315606.000000 1 0 0
5.346496 -17.730404 8.288219 20.289082 -1.277924 1.149979 0.048661 -0.031327 297030.000000 1 0 0
-4.854904 -16.681804 4.957919 18.067475 1.287589 1.292819 -0.001509 0.000610 327951.000000 1 0 0
-18.292904 -7.424004 -6.609881 20.819143 0.385531 1.893878 0.029814 -0.017465 57411.900000 1 0 0
-17.191804 -4.741904 -10.792581 20.845229 0.269132 2.115013 0.048174 -0.000334 -111258.000000 1 0 0
-15.725204 -4.361804 -13.029681 20.882528 0.270574 2.244585 0.037928 -0.010958 292710.000000 1 0 0
-19.501304 -5.098004 -5.730081 20.955294 0.255696 1.847767 0.053262 -0.007728 -91292.700000 1 0 0
5.454996 -13.506604 8.609619 16.920724 -1.186953 1.036982 0.027334 -0.006288 107482.000000 1 0 0
19.955096 -3.416604 2.691019 20.423531 -0.169570 1.438651 0.052808 -0.008671 -71798.500000 1 0 0
18.229696 -2.290704 0.767619 18.389083 -0.125003 1.529041 0.039380 -0.020640 145350.000000 1 0 0
14.287396 -11.463304 0.305519 18.320218 -0.676164 1.554119 0.045781 -0.000008 77601.900000 1 0 0
11.125296 -13.194704 5.293119 18.052411 -0.870284 1.273215 0.031324 -0.008497 241349.000000 1 0 0
10.082096 -13.157604 9.684319 19.197845 -0.916972 1.042053 0.035800 0.008185 195603.000000 1 0 0
17.428796 4.895996 -4.301881 18.607522 0.273856 1.804097 -0.020866 0.009904 -174276.000000 1 0 0
18.835096 -6.036104 -4.547581 20.294726 -0.310130 1.796792 0.044200 -0.012972 -66725.500000 1 0 0
17.804996 -9.981904 -0.369281 20.415501 -0.510963 1.588886 0.069880 -0.010709 371862.000000 1 0 0
17.487796 -8.847204 8.474219 21.352012 -0.468362 1.162679 0.078301 -0.018618 37324.000000 1 0 0
19.791996 0.360596 -2.317081 19.930429 0.018217 1.687318 0.036285 0.002852 152196.000000 1 0 0
7.514896 -13.168104 11.589519 19.083752 -1.052208 0.918142 0.023383 -0.000428 343088.000000 1 0 0
15.981696 -6.382204 -3.463281 17.553958 -0.379941 1.769393 0.041412 -0.005854 290430.000000 1 0 0
14.275896 -6.894004 11.516819 19.595041 -0.449884 0.942532 0.025598 -0.036409 338306.000000 1 0 0
16.762296 1.069296 10.274319 19.689581 0.063705 1.021819 0.063460 -0.025183 279309.000000 1 0 0
16.536696 -10.275104 2.697619 19.654954 -0.555972 1.433113 0.029057 -0.008071 257486.000000 1 0 0
16.263296 -7.308504 -5.878781 18.774160 -0.422344 1.889285 0.055788 -0.007457 269404.000000 1 0 0
18.890296 -4.873604 4.653819 20.056254 -0.252489 1.336624 0.168030 -0.029965 -475369.000000 1 0 0
13.188096 -13.830004 7.951619 20.698385 -0.809152 1.176492 0.038808 -0.004431 192252.000000 1 0 0
15.304096 -14.273604 -1.923581 21.015501 -0.750572 1.662456 0.056659 -0.005691 220246.000000 1 0 0
18.615396 -6.331304 7.880619 21.183072 -0.327838 1.189607 0.071967 -0.020777 104157.000000 1 0 0
19.469696 3.900996 2.791619 20.051932 0.197744 1.431123 0.034745 -0.000463 326411.000000 1 0 0
15.427696 -11.163304 8.102119 20.694867 -0.626382 1.168531 0.038939 -0.018475 204548.000000 1 0 0
14.385896 -3.887904 10.677219 18.332289 -0.263952 0.949085 0.037754 -0.012327 -67209.900000 1 0 0
18.719196 -7.667704 1.696319 20.299741 -0.388769 1.487135 0.064195 -0.017076 147664.000000 1 0 0
18.859396 -5.513004 -1.494581 19.705426 -0.284397 1.646715 0.037921 -0.013476 99992.300000 1 0 0
14.577896 -13.556704 -6.025181 20.799089 -0.749117 1.864694 0.064460 -0.023109 501340.000000 1 0 0
13.904796 -9.612704 10.394819 19.844387 -0.604879 1.019471 0.015281 -0.008758 393229.000000 1 0 0
14.202396 2.100596 0.461919 14.364328 0.146840 1.538633 -0.002969 -0.003128 -204092.000000 1 0 0
12.850496 2.420796 13.567419 18.843311 0.186199 0.766976 0.020668 -0.012124 286290.000000 1 0 0
18.255196 -3.579904 9.124419 20.720109 -0.193646 1.114791 0.056447 -0.017034 82763.700000 1 0 0
7.292696 -18.554504 5.345119 20.640333 -1.196303 1.308846 0.037194 -0.018977 388337.000000 1 0 0
11.883696 -3.016704 15.118019 19.464769 -0.248601 0.681409 0.004178 -0.000409 235058.000000 1 0 0
11.170796 -13.551304 -6.930581 18.880082 -0.881393 1.946669 0.033285 -0.017646 207401.000000 1 0 0
10.698696 -17.704704 4.835219 21.243776 -1.027232 1.341177 0.040832 -0.006557 677725.000000 1 0 0
18.209896 -0.398004 -5.704081 19.086520 -0.021853 1.874288 0.027326 0.002926 155319.000000 1 0 0
4.029196 -13.241204 11.447719 17.961464 -1.275406 0.879743 0.003156 -0.008434 -325782.000000 1 0 0
8.725696 -2.241004 13.953419 16.608967 -0.251395 0.573304 -0.021485 -0.012533 263918.000000 1 0 0
8.962596 -9.180904 14.145319 19.097308 -0.797430 0.736689 0.013705 -0.004344 337438.000000 1 0 0
20.893596 5.491196 -2.880581 21.794342 0.257005 1.703355 0.048537 0.005315 422469.000000 1 0 0
14.697496 -13.548404 2.294619 20.120659 -0.744739 1.456505 0.039578 0.002905 297659.000000 1 0 0
10.663396 0.356396 14.279019 17.824854 0.033410 0.641710 0.003736 -0.027648 87083.500000 1 0 0
19.883396 -0.126204 7.608919 21.289928 -0.006347 1.205319 0.105245 -0.019188 -96685.600000 1 0 0
19.705496 1.300596 0.652419 19.759144 0.065906 1.537772 0.031745 -0.007689 153606.000000 1 0 0
18.164596 0.244696 3.304919 18.464423 0.013470 1.390838 0.037126 -0.007986 76958.300000 1 0 0
10.203896 -8.385804 16.412819 21.067080 -0.687907 0.677609 0.015013 -0.003621 160347.000000 1 0 0
18.922096 3.153496 5.749319 20.026106 0.165139 1.279607 0.035176 0.001021 157199.000000 1 0 0
15.920296 2.439196 7.171119 17.630384 0.152031 1.151905 0.039725 -0.011488 -102832.000000 1 0 0
11.303896 -16.103904 2.077619 19.784598 -0.958773 1.465590 0.024716 0.007761 369625.000000 1 0 0
8.270196 -16.195304 7.079919 19.514335 -1.098662 1.199519 0.028011 -0.005199 463202.000000 1 0 0
5.952196 6.759796 7.177019 11.516644 0.848843 0.897985 0.006270 -0.001154 -967540.000000 1 0 0
18.314296 2.886196 -6.439081 19.626648 0.156307 1.905065 0.005851 0.011017 134437.000000 1 0 0
14.253496 4.403496 -7.252081 16.587513 0.299640 2.023281 0.006968 0.000014 331097.000000 1 0 0
-10.574304 -3.960404 -13.679281 17.737628 0.358359 2.451522 0.015463 -0.006180 -272563.000000 1 0 0
7.478896 -14.464504 -10.103281 19.163300 -1.093601 2.126122 0.008754 0.001241 -118823.000000 1 0 0
2.227796 -15.773904 14.028719 21.226966 -1.430491 0.848790 0.016200 -0.005150 277055.000000 1 0 0
-9.559904 -8.084304 2.385019 12.745041 0.701962 1.382553 0.001335 0.000375 547175.000000 1 0 0
-13.777704 2.911096 -9.631481 17.060628 -0.208228 2.170677 0.007639 -0.002055 440825.000000 1 0 0
-13.120304 -4.945704 -13.690081 19.596446 0.360480 2.344236 0.032894 0.005017 208327.000000 1 0 0
-17.977004 -1.145704 -8.471581 19.906104 0.063646 2.010396 0.050648 -0.018145 500519.000000 1 0 0
-12.290704 15.057996 4.525219 19.957010 -0.886240 1.342059 0.017400 -0.018225 364827.000000 1 0 0
-17.220204 6.354096 9.120919 20.496369 -0.353492 1.109620 0.020474 -0.018688 233418.000000 1 0 0
-13.424504 15.567296 -0.291181 20.558278 -0.859174 1.584960 0.034004 -0.012015 219979.000000 1 0 0
-15.849904 5.337296 -10.643981 19.824240 -0.324813 2.137575 0.024165 -0.003588 68312.700000 1 0 0
-18.220404 2.682996 -0.235181 18.418385 -0.146202 1.583565 0.051393 -0.006116 10034.300000 1 0 0
-9.707704 15.294396 -0.470481 18.121242 -1.005236 1.596762 0.000742 -0.012279 -68611.200000 1 0 0
-18.377704 12.270296 2.587119 22.248446 -0.588699 1.454250 0.097133 -0.017433 -158222.000000 1 0 0
-8.300304 16.407496 -8.009781 20.056359 -1.102452 1.981619 0.042909 -0.025274 19857.300000 1 0 0
-15.076004 -2.076304 -13.079681 20.066763 0.136861 2.280763 0.032895 -0.012870 226003.000000 1 0 0
-18.989504 5.194696 -4.678381 20.235448 -0.267023 1.804104 0.052569 -0.010999 -115909.000000 1 0 0
-17.065704 9.002096 -5.969681 20.196858 -0.485402 1.870853 0.059881 -0.006298 -74684.300000 1 0 0
-18.962304 1.147096 2.467819 19.156590 -0.060420 1.441614 0.051408 -0.020033 330763.000000 1 0 0
-13.041604 12.023796 -7.024381 19.078706 -0.744814 1.947846 0.022461 -0.012129 -355152.000000 1 0 0
-13.020904 4.070896 -13.149681 18.948093 -0.303015 2.337805 0.035442 -0.012357 -326959.000000 1 0 0
-14.359604 9.448296 -6.520881 18.384515 -0.581963 1.933383 0.041171 -0.011160 -43512.300000 1 0 0
-6.430304 11.971996 -15.061681 20.286244 -1.077902 2.407528 -0.008007 -0.007323 -138046.000000 1 0 0
-14.796604 13.808096 3.071919 20.470459 -0.750854 1.420161 0.014755 -0.020212 -76261.400000 1 0 0
-18.835604 8.193996 -4.693981 21.070240 -0.410333 1.795459 0.068662 -0.010711 138835.000000 1 0 0
-3.507504 17.017296 -9.898281 19.996672 -1.367529 2.088627 0.003980 -0.000221 1673.270000 1 0 0
-19.219504 -2.255804 -6.758781 20.497783 0.116836 1.906816 0.027038 -0.009591 -143333.000000 1 0 0
-10.400104 13.242196 -6.095281 17.907271 -0.905036 1.918118 0.010098 -0.037395 78114.800000 1 0 0
-19.334704 2.787896 4.266019 19.995051 -0.143204 1.355790 0.063713 -0.022678 121157.000000 1 0 0
-14.791304 12.448596 0.657219 19.343788 -0.699606 1.536814 0.011815 -0.007550 -29577.800000 1 0 0
-16.755504 2.108796 -8.078181 18.720335 -0.125199 2.016972 -0.023971 -0.011681 119542.000000 1 0 0
-16.708604 12.096196 -4.651281 21.145444 -0.626620 1.792576 0.062633 -0.019438 332262.000000 1 0 0
-10.269804 15.641596 -8.441981 20.527918 -0.989816 1.994615 0.020819 -0.027028 -183546.000000 1 0 0
-18.832004 1.746796 -6.996381 20.165441 -0.092492 1.925112 0.020976 -0.013101 71491.500000 1 0 0
-16.791604 10.560396 -0.177881 19.837126 -0.561406 1.579764 0.025266 -0.003726 21490.100000 1 0 0
-11.748904 6.504996 -14.429381 19.711893 -0.505655 2.392070 0.024757 -0.011074 456944.000000 1 0 0
-13.995604 13.423196 -5.167281 20.068879 -0.764525 1.831207 0.042766 -0.002996 191151.000000 1 0 0
-18.943504 7.150796 -0.398681 20.252140 -0.360943 1.590483 0.062122 -0.007069 -9479.070000 1 0 0
-14.481804 8.968096 -10.295481 19.903425 -0.554466 2.114456 0.030454 -0.012680 685587.000000 1 0 0
-19.323904 11.140796 4.432819 22.741602 -0.522983 1.374619 0.107354 -0.027678 170636.000000 1 0 0
-8.060504 11.709596 -13.492081 19.599046 -0.967920 2.330084 -0.015864 -0.012769 472352.000000 1 0 0
-21.058604 -1.889904 -5.045581 21.736937 0.089505 1.805053 0.045079 -0.022444 305034.000000 1 0 0
-10.696904 13.552896 -3.355181 17.588689 -0.902632 1.762730 0.006083 -0.002452 406384.000000 1 0 0
-18.681404 -5.162604 3.672919 19.726573 0.269621 1.383512 0.039359 -0.006432 -84920.400000 1 0 0
-11.244404 11.454696 -12.441281 20.308425 -0.794662 2.230163 0.014554 -0.014632 210414.000000 1 0 0
-14.769304 11.823996 -10.144681 21.467505 -0.675094 2.062989 0.043832 -0.001038 282116.000000 1 0 0
-12.502604 10.084396 -13.754981 21.147332 -0.678742 2.278954 0.022077 -0.007637 164840.000000 1 0 0
-17.624504 -5.172004 -3.301681 18.662097 0.285442 1.748652 -0.030089 -0.013951 -371738.000000 1 0 0
-9.257504 12.533296 -11.470681 19.348421 -0.934610 2.205388 0.009441 -0.017425 -45666.000000 1 0 0
-15.411304 7.713096 -8.198781 19.084552 -0.464034 2.014849 0.010386 -0.002021 -54440.600000 1 0 0
-14.531704 9.031996 2.000619 17.226429 -0.556105 1.454397 0.017617 -0.007107 -41827.000000 1 0 0
-19.657804 6.182396 8.088819 22.137757 -0.304707 1.196749 0.072766 -0.023254 222189.000000 1 0 0
-18.923604 6.249996 3.790019 20.286189 -0.318996 1.382864 0.053138 -0.008382 180496.000000 1 0 0
-14.453204 12.963296 5.637919 20.217029 -0.731108 1.288179 0.017268 -0.019620 78616.500000 1 0 0
17.694096 6.039496 5.627819 19.525084 0.328929 1.278413 0.007704 -0.010157 62110.700000 1 0 0
18.121496 7.274296 0.674619 19.538657 0.381728 1.536262 0.016060 -0.001702 -146736.000000 1 0 0
17.094596 4.490196 8.523119 19.622197 0.256865 1.121467 0.036463 -0.010389 -3135.700000 1 0 0
11.635296 13.344596 10.827719 20.753261 0.853719 1.021912 0.013649 0.008057 70616.700000 1 0 0
15.284896 12.339896 4.397519 20.130555 0.679192 1.350571 0.030565 -0.010775 131626.000000 1 0 0
5.256696 10.383296 14.526219 18.613348 1.102150 0.675460 0.021706 -0.005593 304154.000000 1 0 0
13.359996 13.211096 -5.241081 19.506190 0.779794 1.842827 0.048570 -0.010928 435925.000000 1 0 0
17.287696 9.358896 -2.714881 19.844998 0.496187 1.708031 -0.013236 -0.007110 -79006.600000 1 0 0
14.459096 7.616496 9.585919 18.946406 0.484827 1.040314 0.013331 -0.005932 47575.000000 1 0 0
4.710996 19.074796 -1.561381 19.709876 1.328667 1.650098 0.003494 -0.017612 556074.000000 1 0 0
-4.591204 18.768896 3.160619 19.579073 -1.330890 1.408658 0.008327 -0.030988 186675.000000 1 0 0
6.969196 12.927496 12.654219 19.386054 1.076361 0.859589 0.027971 0.004700 35099.100000 1 0 0
0.125396 16.841296 -10.355181 19.770552 1.563351 2.122064 0.009711 -0.000028 1252.000000 1 0 0
10.491396 9.239396 16.047419 21.282751 0.722029 0.716650 0.039415 -0.000887 216389.000000 1 0 0
-1.074904 12.214096 1.172019 12.317190 -1.483017 1.475499 0.000785 -0.003768 292423.000000 1 0 0
-5.025404 18.944496 -1.879281 19.689599 -1.311498 1.666387 0.016349 -0.006761 -4145.330000 1 0 0
6.069896 18.512496 6.183519 20.439962 1.253961 1.263460 0.031957 -0.012381 214721.000000 1 0 0
11.187996 17.480296 -1.549381 20.811837 1.001459 1.645312 0.036349 -0.002229 457373.000000 1 0 0
18.316196 10.786196 3.113819 21.483038 0.532209 1.425341 0.024698 -0.005273 259404.000000 1 0 0
11.582596 17.044696 5.974719 21.456361 0.973933 1.288607 0.031817 0.009592 -184963.000000 1 0 0
18.115896 7.219496 -5.768581 20.336748 0.379227 1.858398 0.017578 0.014205 247581.000000 1 0 0
0.504396 15.400696 10.700919 18.760211 1.538057 0.963797 0.008315 -0.013134 384610.000000 1 0 0
1.269996 20.066896 -1.483781 20.161716 1.507593 1.644457 0.009963 -0.018896 -70859.800000 1 0 0
14.456096 9.747896 -1.336181 17.486725 0.593276 1.647282 0.010140 0.001590 84683.700000 1 0 0
10.065696 17.362896 1.531719 20.127954 1.045419 1.494624 0.036037 -0.012758 215279.000000 1 0 0
0.270396 17.581796 -0.454281 17.589742 1.555418 1.596626 0.001581 -0.012421 19577.500000 1 0 0
0.078896 21.000296 1.051019 21.026728 1.567039 1.520791 0.019276 -0.009113 293360.000000 1 0 0
6.008396 17.356596 -0.429581 18.372174 1.237534 1.594181 0.003354 -0.021440 -58068.900000 1 0 0
6.545496 18.568596 -3.030581 19.920358 1.231893 1.723524 -0.006021 -0.016007 -72855.400000 1 0 0
10.734996 9.595296 12.810219 19.272041 0.729398 0.843698 0.026970 0.001499 64358.700000 1 0 0
12.849696 14.764396 8.055819 21.165970 0.854625 1.180349 0.029747 -0.005903 186478.000000 1 0 0
0.394796 17.409996 6.659619 18.644418 1.548124 1.205538 0.006894 -0.010517 -6477.900000 1 0 0
6.953696 18.024796 -7.852781 20.854575 1.202604 1.956865 0.007284 -0.009155 55635.400000 1 0 0
-1.435204 18.542196 9.174919 20.737694 -1.493548 1.112493 0.050493 -0.005020 138113.000000 1 0 0
15.825396 6.902896 -7.875881 18.976897 0.411311 1.998766 0.014078 0.006839 -328314.000000 1 0 0
-4.947604 19.847396 -6.564381 21.482295 -1.326493 1.881335 0.005267 -0.009767 357394.000000 1 0 0
3.805296 15.801896 9.814819 18.987123 1.334483 1.027548 0.013894 0.002061 188485.000000 1 0 0
8.799696 14.846696 7.768319 18.926326 1.035759 1.147848 0.016741 -0.001149 116706.000000 1 0 0
-2.754304 19.154496 6.504719 20.415491 -1.427981 1.246526 0.019571 -0.007810 177333.000000 1 0 0
4.563496 18.043296 8.335519 20.392815 1.323072 1.149715 0.020903 -0.006799 26384.200000 1 0 0
13.740596 11.422596 -6.890481 19.150937 0.693539 1.938848 -0.042939 -0.030563 21008.900000 1 0 0
11.827396 6.965396 15.625019 20.797722 0.532233 0.720789 0.047777 -0.004838 208450.000000 1 0 0
17.286996 9.289096 4.925819 20.233418 0.493076 1.324875 0.038622 -0.006347 278370.000000 1 0 0
5.131996 14.901196 11.982219 19.797894 1.239118 0.920745 0.007455 -0.019789 489660.000000 1 0 0
16.130596 11.565896 -4.389381 20.328127 0.622055 1.788437 0.043736 0.018988 71296.400000 1 0 0
15.249796 14.015596 7.005819 21.864919 0.743250 1.244630 0.040971 0.009075 276189.000000 1 0 0
12.743696 14.234796 -7.917881 20.681490 0.840612 1.963674 0.068595 -0.029020 388244.000000 1 0 0
-8.309104 15.540896 9.415219 19.980165 -1.079806 1.080113 0.017478 -0.015328 203698.000000 1 0 0
-4.853304 17.725196 -7.629881 19.898548 -1.303538 1.964313 0.000529 0.036273 14659.400000 1 0 0
2.035496 19.297796 -4.577181 19.937370 1.465707 1.802440 -0.002412 -0.024473 -69818.500000 1 0 0
7.006196 16.190196 9.146419 19.871241 1.162385 1.092481 0.019621 -0.008812 504806.000000 1 0 0
13.273296 15.481196 -1.384081 20.439263 0.862032 1.638565 0.052095 -0.012283 126338.000000 1 0 0
13.570496 15.513396 4.361119 21.067586 0.852102 1.362283 0.062979 -0.026298 285117.000000 1 0 0
2.358396 18.429596 0.512619 18.586952 1.443520 1.543213 0.006294 -0.018084 -240171.000000 1 0 0
-7.164804 17.921796 1.176719 19.336748 -1.190478 1.509905 -0.007503 0.015248 279641.000000 1 0 0
0.460496 19.902496 -5.929881 20.772214 1.547663 1.860295 0.017837 -0.001099 221874.000000 1 0 0
-7.632404 17.940996 -6.629881 20.593403 -1.168573 1.898576 0.043263 -0.022485 149946.000000 1 0 0
-7.702804 18.474296 -2.096281 20.125287 -1.175766 1.675147 0.024796 -0.013705 -44211.000000 1 0 0
-14.679404 -9.421504 8.584519 19.440772 0.570602 1.113445 0.046569 -0.016622 435045.000000 1 0 0
-13.188704 -13.776704 7.648119 20.548314 0.807200 1.189416 0.029432 -0.006536 -52402.500000 1 0 0
-3.874904 -15.912204 12.675919 20.709709 1.331928 0.912113 0.031083 -0.004101 185931.000000 1 0 0
-1.874904 -14.965004 15.228419 21.432951 1.446160 0.780567 0.016388 -0.008453 558463.000000 1 0 0
-7.913904 -13.531904 13.351019 20.591067 1.041604 0.865330 0.018498 -0.013968 221937.000000 1 0 0
-10.034804 -11.173304 11.724819 19.052858 0.839029 0.907924 0.034243 -0.011193 -107853.000000 1 0 0
-7.544504 -10.477204 13.212119 18.472992 0.946716 0.773868 0.023492 -0.006503 348280.000000 1 0 0
-15.236904 -12.329104 7.568419 21.010736 0.680302 1.202296 0.039488 -0.002083 270823.000000 1 0 0
-4.576504 -12.374204 13.382519 18.792476 1.216555 0.778281 0.020092 -0.015760 278240.000000 1 0 0
3.673396 -12.880004 14.064819 19.421830 -1.292971 0.760958 0.005884 0.014819 437313.000000 1 0 0
6.839296 -13.427904 14.658419 21.022698 -1.099709 0.799220 0.031011 -0.001658 293752.000000 1 0 0
6.951696 -8.941204 17.078119 20.492276 -0.909933 0.585578 0.008606 0.004237 609767.000000 1 0 0
-5.296904 13.422496 13.293219 19.619640 -1.194929 0.826375 0.015439 -0.002053 446747.000000 1 0 0
-13.580204 -1.389404 17.242519 21.992200 0.101956 0.669666 0.035088 -0.019037 187043.000000 1 0 0
-10.569104 9.995996 12.646119 19.275638 -0.757537 0.855200 0.019139 0.000372 409836.000000 1 0 0
-7.488404 -8.113704 17.323319 20.542779 0.825455 0.567439 0.031091 -0.006482 31521.600000 1 0 0
-4.989204 2.568296 18.052419 18.904448 -0.475394 0.301373 0.015581 -0.007150 594272.000000 1 0 0
-15.525004 -3.539504 14.673319 21.653179 0.224156 0.826231 0.036086 -0.010290 36679.700000 1 0 0
-14.575304 2.413296 12.312319 19.231659 -0.164086 0.876023 0.011960 -0.003103 295775.000000 1 0 0
-14.087104 10.715196 9.298919 19.993294 -0.650275 1.087047 -0.031392 -0.009919 -359995.000000 1 0 0
-5.018804 11.257696 15.903219 20.120549 -1.151431 0.659340 0.045257 0.000365 160609.000000 1 0 0
-13.448204 12.667696 7.643719 19.993778 -0.755521 1.178507 0.022682 -0.044434 122375.000000 1 0 0
-4.393404 -6.555904 18.589019 20.194888 0.980390 0.401486 0.028921 -0.012321 268469.000000 1 0 0
0.210096 -3.021204 17.446119 17.707030 -1.501368 0.171879 0.009561 -0.027633 105187.000000 1 0 0
-4.464904 6.721796 21.019719 22.515473 -0.984474 0.366554 0.015815 -0.003845 289367.000000 1 0 0
1.699096 -10.789104 16.556419 19.834483 -1.414597 0.583156 -0.002957 0.001578 318327.000000 1 0 0
-15.056104 -0.127104 14.095419 20.624822 0.008442 0.818359 0.005900 0.008055 11741.100000 1 0 0
-13.867004 -6.094604 8.200419 17.224543 0.414091 1.074594 0.025425 -0.004736 -174467.000000 1 0 0
9.960596 0.527096 16.654919 19.413337 0.052869 0.539606 0.016590 0.007144 369615.000000 1 0 0
-7.879704 12.410596 11.851019 18.882777 -1.005097 0.892317 0.020086 -0.006530 185144.000000 1 0 0
-1.848404 7.829296 20.193519 21.736897 -1.338953 0.379102 0.024586 -0.006028 387830.000000 1 0 0
1.126196 -13.242604 15.694819 20.566046 -1.485957 0.702635 -0.006147 -0.008676 523225.000000 1 0 0
-3.504504 -11.714704 17.921219 21.695298 1.280116 0.598748 0.028893 -0.007594 369013.000000 1 0 0
-2.391004 8.957696 16.688619 19.091025 -1.309956 0.507092 0.023179 -0.013144 482092.000000 1 0 0
-4.937804 -9.395004 20.601419 23.174695 1.086897 0.475723 0.058787 -0.015403 289276.000000 1 0 0
-6.793104 -2.747604 19.254519 20.601750 0.384354 0.363647 0.029427 -0.015802 345092.000000 1 0 0
-11.001604 -8.086604 15.749719 20.844235 0.633857 0.714240 0.068556 -0.020312 324756.000000 1 0 0
0.002396 6.649296 17.937519 19.130283 1.570436 0.354989 0.020190 -0.009296 102688.000000 1 0 0
-6.032204 -11.397204 18.962719 22.931822 1.084007 0.597193 0.040525 -0.009799 392719.000000 1 0 0
0.140296 3.426096 18.709719 19.021341 1.529870 0.181260 0.019565 -0.012779 50436.600000 1 0 0
-18.455104 -0.328104 7.500419 19.923725 0.017777 1.184828 0.049303 -0.020650 205273.000000 1 0 0
-1.553604 -8.613204 17.426219 19.500618 1.392340 0.465440 0.007429 -0.011028 182547.000000 1 0 0
5.673996 3.423596 14.753219 16.173210 0.542904 0.422172 0.007384 -0.006261 411996.000000 1 0 0
-13.532604 -6.733204 10.194719 18.231832 0.461689 0.977410 0.015565 -0.014531 69403.500000 1 0 0
3.592296 8.280696 16.851419 19.116612 1.161482 0.491753 0.028288 -0.015861 155329.000000 1 0 0
6.501096 4.502996 17.840919 19.515113 0.605777 0.417241 0.032237 -0.022325 443858.000000 1 0 0
3.734296 -9.655204 17.801619 20.592853 -1.201751 0.526729 -0.022646 -0.007483 354316.000000 1 0 0
-4.655404 -0.783504 20.037819 20.586424 0.166737 0.231379 0.022792 -0.007685 890658.000000 1 0 0
-11.017904 1.833596 16.908819 20.264858 -0.164908 0.583769 0.027528 -0.006154 229381.000000 1 0 0
-16.761304 -4.496604 8.546919 19.344524 0.262101 1.113163 0.036374 -0.018398 225578.000000 1 0 0
-13.177704 -9.415604 12.326019 20.352794 0.620398 0.920254 0.030222 -0.028333 147075.000000 1 0 0
-14.828104 6.583496 12.987919 20.782231 -0.417843 0.895725 0.022958 -0.002197 411749.000000 1 0 0
1.037796 9.183396 16.990719 19.341570 1.458266 0.498175 0.020284 -0.030848 252218.000000 1 0 0
-3.855204 -10.546904 15.142419 18.851861 1.220354 0.638095 0.021624 -0.008184 444790.000000 1 0 0
-18.560304 -2.992204 6.599919 19.924786 0.159840 1.233177 0.102119 -0.016509 -270137.000000 1 0 0
-0.669004 -0.409104 21.129919 21.144466 0.548842 0.037095 0.028103 -0.013324 401596.000000 1 0 0
-1.798504 2.690596 20.468919 20.723189 -0.981566 0.156812 0.023249 -0.008163 -32156.500000 1 0 0
-8.081204 1.834296 16.365719 18.344134 -0.223201 0.468714 0.005706 0.011725 388702.000000 1 0 0
2.716396 -1.966804 18.996719 19.290476 -0.626685 0.174739 0.012957 -0.004403 198316.000000 1 0 0
-12.854804 4.407896 13.957919 19.480735 -0.330335 0.772026 0.015730 -0.001344 216064.000000 1 0 0
-13.570204 -5.451104 13.165219 19.677093 0.381968 0.837849 0.036558 -0.017619 15072.800000 1 0 0
-17.177204 -0.897904 9.464419 19.632570 0.052225 1.067772 0.035644 -0.022231 186069.000000 1 0 0
-7.487804 7.728596 14.935919 18.408696 -0.801221 0.624336 0.001285 0.000127 55232.900000 1 0 0
-9.570804 0.501396 14.025819 16.987504 -0.052340 0.599434 0.012774 -0.003896 176641.000000 1 0 0
7.138996 -0.949304 15.515519 17.105490 -0.132199 0.434575 -0.009596 -0.003253 -241502.000000 1 0 0
3.934996 6.270796 18.545019 19.968095 1.010393 0.379817 0.024497 -0.015704 46648.900000 1 0 0
1.799296 0.753796 20.111619 20.206012 0.396726 0.096697 0.022533 -0.007311 268519.000000 1 0 0
-7.089904 6.931796 17.447019 20.067760 -0.774123 0.516799 0.002375 0.002671 454495.000000 1 0 0
7.610696 -3.887304 16.482119 18.565939 -0.472225 0.478338 -0.002335 -0.003375 271488.000000 1 0 0
-16.242104 2.567696 9.411219 18.946505 -0.156791 1.050974 0.024844 -0.008064 172777.000000 1 0 0
4.192496 -5.699004 19.009919 20.283804 -0.936540 0.356291 0.021191 -0.018528 80046.500000 1 0 0
-3.582004 -3.617604 20.785019 21.399412 0.790343 0.240205 0.024288 -0.012635 340191.000000 1 0 0
-9.844204 5.936596 14.442319 18.458930 -0.542663 0.672282 0.009297 0.006176 -8990.820000 1 0 0
6.723796 2.887196 19.670919 20.987863 0.405591 0.356133 0.034517 -0.022436 199420.000000 1 0 0
-7.597204 11.468696 14.564019 20.033950 -0.985733 0.756902 0.025058 -0.011002 124854.000000 1 0 0
-14.553604 4.853096 8.649719 17.611859 -0.321868 1.057409 0.009739 -0.015670 75153.300000 1 0 0
1.166396 -5.274704 20.379019 21.082870 -1.353168 0.259123 0.025778 -0.018031 290036.000000 1 0 0
-6.473304 -8.320704 13.590719 17.200158 0.909630 0.659741 0.025130 -0.005023 280293.000000 1 0 0
-12.888104 10.317096 6.217119 17.640812 -0.675054 1.210632 -0.006533 -0.020369 53442.800000 1 0 0
-19.373704 2.550196 7.970219 21.103751 -0.130879 1.183519 0.035213 -0.027055 -69727.900000 1 0 0
-15.725704 9.234096 6.257419 19.280083 -0.530953 1.240257 0.012307 -0.016302 97789.700000 1 0 0
-12.486104 8.309496 13.868719 20.427723 -0.587194 0.824510 -0.004461 0.000877 263591.000000 1 0 0
-16.560704 9.126596 10.533719 21.645113 -0.503687 1.062539 0.029241 -0.018510 331246.000000 1 0 0
2.116396 11.147896 14.206619 18.181934 1.383182 0.673956 0.009979 -0.045936 381410.000000 1 0 0
1.608996 14.734196 13.079919 19.767895 1.462026 0.847746 0.017453 -0.020602 546256.000000 1 0 0
8.363396 5.130796 16.127819 18.877977 0.550274 0.546557 0.016144 -0.022810 89626.500000 1 0 0
-0.283904 13.304896 13.313219 18.823991 -1.549461 0.785199 0.013819 0.000329 265265.000000 1 0 0
4.151796 12.661896 14.711119 19.848880 1.253947 0.736005 0.030791 -0.010196 106279.000000 1 0 0
-3.479404 -4.551404 -13.823681 14.963812 0.918100 2.748705 -0.001767 -0.002814 133572.000000 1 0 0
5.261896 -12.080704 16.881719 21.415495 -1.160014 0.662764 -0.033096 0.021541 133831.000000 1 0 0
8.580196 -13.843704 7.406919 17.892187 -1.015952 1.143980 0.015707 -0.003909 356537.000000 1 0 0
-0.397804 15.245896 0.514519 15.259761 -1.544710 1.537073 0.000813 -0.008275 -267294.000000 1 0 0
-14.357704 7.845796 8.393919 18.389074 -0.500115 1.096781 0.017585 -0.011398 11423.100000 1 0 0
-15.871904 -9.518604 5.729019 19.373767 0.540209 1.270598 0.027287 -0.010676 77089.400000 1 0 0
8.660996 -10.626104 11.492219 17.888489 -0.886935 0.873123 -0.004031 0.003791 117985.000000 1 0 0
-25.278444 6.053796 31.199403 40.608508 -0.235057 0.694620 0.050728 -0.021565 -620210.000000 0 0 1
-24.045004 5.475096 30.912773 39.544133 -0.223885 0.673364 0.036611 -0.018007 -734764.000000 0 0 1
-23.170604 5.748196 31.946513 39.881053 -0.243172 0.641758 0.026470 -0.019260 -428001.000000 0 0 1
-21.817904 5.017896 31.883483 38.958397 -0.226059 0.612178 0.032803 -0.015783 -458529.000000 0 0 1
-21.893604 3.663096 32.283783 39.178959 -0.165778 0.602347 0.001024 -0.008601 487273.000000 0 0 1
-20.649604 3.009396 32.033883 38.231300 -0.144717 0.577378 0.022778 -0.005288 -62607.900000 0 0 1
-20.544904 1.631296 32.802049 38.739239 -0.079235 0.560970 0.012681 -0.005097 -105951.000000 0 0 1
-21.381804 0.518496 32.477548 38.887550 -0.024245 0.582362 0.019154 -0.004527 309348.000000 0 0 1
-21.116404 -0.636104 33.302945 39.438475 0.030115 0.565300 0.011200 0.003046 38829.800000 0 0 1
-21.848504 -1.930504 32.898846 39.540082 0.088130 0.588025 0.019838 -0.019910 -173606.000000 0 0 1
-20.951504 -2.780704 32.206673 38.522301 0.131950 0.580748 0.045678 -0.018669 195216.000000 0 0 1
-21.071804 -4.199604 32.413903 38.888542 0.196722 0.585370 0.053857 -0.026345 -1002610.000000 0 0 1
-22.360804 -4.873304 31.812493 39.189149 0.214584 0.623623 0.050730 -0.017305 581547.000000 0 0 1
-23.545304 -4.608504 32.533177 40.423103 0.193286 0.635430 0.042066 -0.014541 98611.900000 0 0 1
-23.531104 -5.101804 33.840350 41.532043 0.213507 0.618410 0.034494 -0.013337 -1447670.000000 0 0 1
-24.719804 -4.564804 -33.869171 42.178512 0.182605 2.503101 0.025630 -0.008519 -122882.000000 0 0 1
-24.859004 -5.068404 -32.563391 41.279937 0.201129 2.479721 0.022772 -0.008448 523774.000000 0 0 1
-26.012954 -4.607404 -31.840391 41.372847 0.175302 2.449005 0.008322 -0.005387 287892.000000 0 0 1
-26.089234 -5.160504 -30.422791 40.408231 0.195281 2.423232 -0.007580 0.000061 -958254.000000 0 0 1
-26.278044 -6.557404 -30.448981 40.751387 0.244545 2.414618 0.003030 -0.003048 482892.000000 0 0 1
-26.206124 -6.970804 -29.108521 39.782647 0.259979 2.391593 -0.017154 -0.000579 -125602.000000 0 0 1
-26.348374 -8.510004 -29.011931 40.104228 0.312404 2.379530 -0.005421 -0.003877 210922.000000 0 0 1
-27.722424 -8.818004 -29.194271 41.214020 0.307962 2.357965 0.005312 -0.003254 142836.000000 0 0 1
-27.954604 -10.155704 -28.853641 41.438277 0.348467 2.341032 0.011006 -0.010054 1095830.000000 0 0 1
-29.359534 -10.399404 -28.167971 41.994814 0.340419 2.306014 0.049137 -0.015915 1158200.000000 0 0 1
-29.349744 -11.656004 -27.545181 41.904736 0.378040 2.288065 0.070118 -0.017561 -792675.000000 0 0 1
-30.545324 -11.783304 -26.856491 42.345415 0.368175 2.257801 0.068052 -0.017216 -612982.000000 0 0 1
-30.547314 -12.629604 -25.600551 41.809491 0.392042 2.229781 0.070263 -0.015631 -429927.000000 0 0 1
-29.658594 -12.107604 -24.653981 40.423323 0.387583 2.226724 0.066268 -0.019927 48071.000000 0 0 1
-29.719094 -12.762304 -23.395381 39.917976 0.405618 2.197016 0.074006 -0.018795 -859211.000000 0 0 1
-28.947664 -11.859004 -22.486581 38.525959 0.388815 2.194042 0.083406 -0.019709 -351421.000000 0 0 1
-28.880584 -12.231804 -21.092781 37.796965 0.400625 2.162836 0.085955 -0.017642 461018.000000 0 0 1
-27.936594 -13.270304 -20.777481 37.259334 0.443461 2.162342 0.085986 -0.014195 -6710.950000 0 0 1
-27.890344 -13.676104 -19.304381 36.572753 0.455900 2.126846 0.059747 -0.016371 43747.300000 0 0 1
-27.252294 -12.578004 -18.639881 35.331839 0.432408 2.126529 0.046251 -0.017458 386097.000000 0 0 1
-27.120244 -12.844404 -17.271381 34.623503 0.442313 2.093049 0.051164 -0.019154 -96200.600000 0 0 1
-26.983604 -11.530704 -16.438981 33.634984 0.403836 2.081449 0.051487 -0.018233 -637977.000000 0 0 1
-25.682034 -11.044304 -16.475381 32.449680 0.406132 2.103334 0.046226 -0.018437 -298123.000000 0 0 1
-25.562964 -9.950904 -15.583481 31.548859 0.371223 2.087420 0.054758 -0.026002 -573174.000000 0 0 1
-24.288004 -9.121804 -15.765981 30.359193 0.359269 2.116845 0.071362 -0.025601 -1100420.000000 0 0 1
-23.226904 -9.831904 -15.281581 29.490373 0.400428 2.115528 0.066351 -0.032490 -598599.000000 0 0 1
-21.972904 -9.250404 -15.643181 28.514691 0.398470 2.151486 0.097683 -0.041382 269644.000000 0 0 1
-20.885904 -9.468304 -14.590781 27.180152 0.425624 2.137457 0.057728 -0.010083 -649783.000000 0 0 1
-20.226304 -10.712904 -14.631781 27.165395 0.487087 2.139593 0.046210 -0.022118 886994.000000 0 0 1
-19.019104 -10.605504 -13.842381 25.803382 0.508678 2.137028 0.050692 -0.011051 465699.000000 0 0 1
-18.056204 -11.769004 -14.102081 25.756643 0.577638 2.150185 0.049501 -0.013716 -841526.000000 0 0 1
-17.316204 -11.616304 -15.255781 25.836569 0.590882 2.202440 0.062443 -0.032353 -566504.000000 0 0 1
-17.928204 -11.975304 -16.440281 27.112935 0.588897 2.222275 0.061431 -0.028835 -520141.000000 0 0 1
-17.302104 -11.235304 -17.664181 27.159126 0.575926 2.278902 0.057624 -0.026471 -112124.000000 0 0 1
-17.864004 -11.576704 -18.906081 28.470733 0.575001 2.297023 0.049823 -0.026235 2006.350000 0 0 1
-17.491304 -10.780904 -20.024881 28.690930 0.552361 2.343330 0.057840 -0.024674 -107310.000000 0 0 1
-18.315804 -10.966404 -21.353181 30.194189 0.539493 2.356319 0.075127 -0.023019 -37874.800000 0 0 1
-19.569004 -10.338604 -21.319881 30.730603 0.486042 2.337503 0.067444 -0.032296 -76248.700000 0 0 1
-20.442404 -10.927704 -22.258881 32.136652 0.490912 2.335928 0.068634 -0.024433 322941.000000 0 0 1
-21.730504 -10.169004 -22.655381 32.998329 0.437689 2.327545 0.050288 -0.023217 21237.700000 0 0 1
-21.485104 -9.024504 -23.340981 32.982613 0.397658 2.356999 0.053566 -0.026097 203641.000000 0 0 1
-22.601504 -8.603604 -24.088381 34.133562 0.363728 2.354220 0.034792 -0.030187 -419.726000 0 0 1
-22.063204 -7.769704 -25.332091 34.479967 0.338595 2.396006 0.030756 -0.025552 320357.000000 0 0 1
-21.194704 -8.556704 -26.119061 34.707895 0.383708 2.422706 0.044264 -0.022605 110793.000000 0 0 1
-20.651604 -7.889304 -27.216131 35.063480 0.364910 2.459406 0.039932 -0.022141 -712595.000000 0 0 1
-19.340704 -8.397704 -27.774701 34.871454 0.409636 2.492261 0.079394 -0.024371 -671747.000000 0 0 1
-19.459504 -9.502404 -28.667181 35.927361 0.454258 2.494634 0.078508 -0.027586 541226.000000 0 0 1
-18.233104 -9.608104 -29.375601 35.884365 0.484982 2.529798 0.059656 -0.015620 177905.000000 0 0 1
-18.320904 -10.780404 -30.321101 37.030282 0.531862 2.530147 0.046803 -0.017345 310572.000000 0 0 1
-19.272504 -10.677404 -31.389131 38.349888 0.505926 2.529580 0.055969 -0.012697 654427.000000 0 0 1
-19.197804 -11.902904 -32.143621 39.286730 0.555006 2.529035 0.035079 -0.010894 421330.000000 0 0 1
-20.014304 -11.922704 -33.505171 40.808329 0.537259 2.534022 0.028559 -0.012486 -49925.100000 0 0 1
-19.456404 -11.069604 34.013111 40.718295 0.517271 0.582068 0.027852 -0.012618 -62142.100000 0 0 1
-20.042104 -11.172704 32.714520 39.959418 0.508554 0.611664 0.049011 -0.021230 111836.000000 0 0 1
-19.320304 -12.105304 31.671863 39.024601 0.559719 0.623933 0.048925 -0.019511 -181568.000000 0 0 1
-17.998204 -11.841504 31.252433 37.958809 0.581928 0.603552 0.049056 -0.019789 421860.000000 0 0 1
-17.430204 -12.714304 30.245313 37.151642 0.630213 0.619611 0.040893 -0.015567 273890.000000 0 0 1
-17.431104 -14.206304 30.532543 37.919634 0.683819 0.634799 0.040257 -0.004863 -431171.000000 0 0 1
-18.648304 -14.899004 30.247673 38.531303 0.674098 0.668075 0.038584 -0.011314 181651.000000 0 0 1
-18.723104 -16.235804 30.707543 39.460223 0.714369 0.679018 0.044982 -0.009855 -262148.000000 0 0 1
-18.995804 -16.466604 32.203423 40.854010 0.714198 0.662826 0.011514 -0.015638 -134218.000000 0 0 1
-17.842304 -16.072904 32.940025 40.764339 0.733274 0.629945 0.034779 -0.012982 275428.000000 0 0 1
-18.120804 -15.990104 -34.180299 41.860958 0.723015 2.526153 0.024854 -0.013560 197220.000000 0 0 1
-16.876904 -15.556904 -33.367251 40.499637 0.744722 2.539037 0.030575 -0.010520 206386.000000 0 0 1
-16.458304 -14.234004 -33.669551 40.088917 0.713054 2.567843 0.033770 -0.012707 -252379.000000 0 0 1
-15.236904 -13.874204 -33.053351 38.951005 0.738622 2.584107 0.038760 -0.009095 26643.400000 0 0 1
-15.308704 -13.373404 -31.610871 37.582596 0.718026 2.570117 0.062170 -0.015735 -303792.000000 0 0 1
-15.502204 -14.427904 -30.701251 37.296777 0.749520 2.537752 0.045107 -0.019356 -203408.000000 0 0 1
-15.769904 -14.078604 -29.387581 36.201200 0.728796 2.517998 0.032448 -0.018298 -235714.000000 0 0 1
-16.056604 -15.322404 -28.512691 36.132591 0.762005 2.480160 0.036140 -0.010468 -419413.000000 0 0 1
-15.022904 -16.068704 -27.973591 35.586693 0.819022 2.475220 0.054269 -0.030546 -378559.000000 0 0 1
-14.164304 -16.788704 -28.880211 36.284359 0.869982 2.491357 0.053109 -0.029893 19291.800000 0 0 1
-12.853104 -17.303404 -28.285431 35.562279 0.931914 2.490426 0.068315 -0.034565 -249356.000000 0 0 1
-11.771004 -16.421704 -28.424581 34.873854 0.948887 2.523644 0.057205 -0.030889 -49951.800000 0 0 1
-10.590804 -16.809204 -27.738371 34.119374 1.008567 2.520048 0.079315 -0.035965 516627.000000 0 0 1
-9.301204 -16.086004 -28.143951 33.724678 1.046548 2.558059 0.064016 -0.038031 -176202.000000 0 0 1
-9.336604 -14.689704 -27.831861 32.826393 1.004619 2.582714 0.057357 -0.026959 310084.000000 0 0 1
-8.034904 -14.104304 -27.817431 32.207150 1.052971 2.613369 0.061313 -0.024881 577108.000000 0 0 1
-8.136404 -12.613604 -28.027711 31.793972 0.997909 2.649914 0.054182 -0.025631 -67549.400000 0 0 1
-8.439104 -12.222504 -29.349441 32.893734 0.966504 2.673101 0.075494 -0.021489 143669.000000 0 0 1
-8.199704 -10.837504 -29.569151 32.542608 0.923082 2.710785 0.060654 -0.019479 841488.000000 0 0 1
-7.002504 -10.491804 -30.568511 33.068820 0.982268 2.750232 0.046161 -0.005426 2387340.000000 0 0 1
-5.680904 -10.848304 -30.031161 32.431913 1.088395 2.754408 0.037425 -0.006521 2679720.000000 0 0 1
-4.479504 -10.534104 -30.775291 32.835222 1.168724 2.785496 0.043799 -0.010275 1164890.000000 0 0 1
-4.207604 -9.035104 -31.146691 32.702498 1.134967 2.831894 0.030853 -0.010729 -1008860.000000 0 0 1
-2.994004 -8.629904 -31.696941 32.986897 1.236856 2.861012 0.028858 -0.012220 -681332.000000 0 0 1
-3.169504 -7.304904 -32.215531 33.185054 1.161422 2.899275 0.017977 -0.014868 -379409.000000 0 0 1
-1.920504 -6.603804 -32.735721 33.450351 1.287785 2.934516 0.015872 -0.015724 -394448.000000 0 0 1
-1.389104 -7.255104 -33.875281 34.671325 1.381620 2.926892 0.020440 -0.014301 64935.600000 0 0 1
-0.275104 -6.474804 34.197827 34.806467 1.528333 0.187284 0.019152 -0.007836 -14552.400000 0 0 1
0.414696 -7.093204 32.995573 33.751939 -1.512399 0.212103 0.008229 0.000439 -394198.000000 0 0 1
-0.153904 -6.945604 31.704903 32.457141 1.548641 0.215715 0.005782 0.002189 58728.100000 0 0 1
0.463796 -7.743704 30.690823 31.656069 -1.510974 0.247580 0.003722 0.003472 99592.000000 0 0 1
-0.005104 -7.363504 29.229693 30.142929 1.570103 0.246784 0.009427 0.009132 285533.000000 0 0 1
0.659896 -6.156104 28.862463 29.519059 -1.464010 0.211311 0.015371 0.005776 325643.000000 0 0 1
0.416996 -5.765504 27.488183 28.089413 -1.498596 0.207273 0.020832 0.004380 330604.000000 0 0 1
-0.781204 -4.779004 27.177543 27.605580 1.408764 0.176327 0.021957 0.003534 1187070.000000 0 0 1
-2.053604 -5.370804 27.447173 28.043005 1.205585 0.206508 0.012481 0.007690 401671.000000 0 0 1
-3.073704 -4.509904 26.905323 27.453293 0.972564 0.200134 0.007494 -0.001699 745808.000000 0 0 1
-4.518504 -4.897704 27.330313 28.130951 0.825647 0.239153 0.008888 -0.000929 270201.000000 0 0 1
-4.982904 -6.007104 26.601653 27.722961 0.878324 0.285386 0.012141 -0.000115 203769.000000 0 0 1
-6.379704 -6.185604 26.841063 28.273751 0.769952 0.319706 0.012988 -0.010042 881470.000000 0 0 1
-6.705004 -7.716404 26.868233 28.747207 0.855415 0.363557 0.021725 -0.006794 417941.000000 0 0 1
-5.815904 -8.379904 27.762953 29.577510 0.964088 0.352099 0.018109 -0.007620 129554.000000 0 0 1
-5.935604 -9.797604 27.695013 29.970622 1.026107 0.392196 0.019002 -0.009937 -445911.000000 0 0 1
-5.066104 -10.467104 28.706173 30.972085 1.120028 0.384889 0.014818 -0.011761 -553793.000000 0 0 1
-5.175404 -11.880904 28.824043 31.603262 1.159976 0.422518 0.034301 -0.021510 91325.300000 0 0 1
-4.704104 -12.513104 30.057483 32.896180 1.211207 0.418481 0.045451 -0.019149 -52287.200000 0 0 1
-4.958404 -14.038904 30.019803 33.509181 1.231282 0.460415 0.061045 -0.029753 -297878.000000 0 0 1
-6.305004 -14.360804 30.228723 34.055271 1.157092 0.478607 0.070751 -0.029814 -564642.000000 0 0 1
-6.553404 -15.766804 30.100003 34.605627 1.176875 0.515998 0.072814 -0.030267 108617.000000 0 0 1
-6.900504 -16.471704 31.437693 36.156086 1.174078 0.516609 0.071250 -0.025628 -151380.000000 0 0 1
-8.057704 -16.019104 32.084653 36.755452 1.104747 0.509636 0.086948 -0.023515 -528620.000000 0 0 1
-8.059804 -16.531504 33.424652 38.150471 1.117165 0.503028 0.082953 -0.017790 -203202.000000 0 0 1
-9.410504 -16.990204 34.041542 39.192490 1.064980 0.518481 0.078206 -0.015105 270923.000000 0 0 1
-9.885004 -18.238404 33.551961 39.447266 1.074125 0.553762 0.071975 -0.017996 437323.000000 0 0 1
-10.482604 -18.143604 32.216063 38.431109 1.046892 0.576674 0.062906 -0.018737 -357422.000000 0 0 1
-11.180804 -19.359404 31.600733 38.709214 1.047056 0.615713 0.048990 -0.009564 -4810.510000 0 0 1
-12.382204 -19.825204 32.183433 39.776011 1.012507 0.628149 0.051338 -0.011000 249454.000000 0 0 1
-12.438604 -21.204404 32.018893 40.367749 1.040285 0.654783 0.044625 -0.006118 -144215.000000 0 0 1
-11.959304 -22.013004 33.238725 41.622232 1.073124 0.645862 0.042611 -0.006709 697412.000000 0 0 1
-10.543804 -22.280604 33.261481 41.399556 1.128795 0.637769 0.040247 -0.008221 794024.000000 0 0 1
-10.162804 -23.037404 -34.082691 42.374926 1.155332 2.505314 0.038507 -0.018383 73943.900000 0 0 1
-10.523604 -24.535404 -34.167602 43.360781 1.165614 2.478324 0.049809 -0.014204 -173752.000000 0 0 1
-9.881304 -25.294554 33.351995 43.009420 1.198377 0.683356 0.042327 -0.015069 -127398.000000 0 0 1
-10.249104 -26.657024 33.492509 44.015784 1.203740 0.706066 0.046085 -0.018700 -1232810.000000 0 0 1
-9.629504 -27.483734 32.333803 43.515030 1.233791 0.733181 0.040796 -0.008430 590239.000000 0 0 1
-8.210704 -27.506494 32.225673 43.156887 1.280716 0.727695 0.057318 -0.021837 563832.000000 0 0 1
-7.480604 -27.987844 33.362933 44.185565 1.309621 0.715044 0.047175 -0.017866 1159.600000 0 0 1
-5.921404 -27.846084 33.345907 43.845375 1.361270 0.706661 0.066291 -0.021917 1005520.000000 0 0 1
-5.432104 -26.603004 33.842688 43.388422 1.369374 0.676141 0.071368 -0.016259 -18709.600000 0 0 1
-5.193104 -25.592344 32.887626 41.994433 1.370598 0.671093 0.079100 -0.011271 -8614.240000 0 0 1
-4.640904 -24.291504 33.524327 41.659281 1.382021 0.635582 0.085585 -0.016762 301558.000000 0 0 1
-3.392604 -24.493504 34.163191 42.173038 1.433162 0.626522 0.079379 -0.021739 -22293.800000 0 0 1
-2.909204 -23.325604 -33.773151 41.148183 1.446716 2.533552 0.076391 -0.017099 48650.700000 0 0 1
34.552856 -15.261004 2.471119 37.853726 -0.415906 1.505469 0.131792 -0.048798 -85064.800000 0 0 1
35.541406 -15.624204 3.378519 38.970780 -0.414176 1.483994 0.111210 -0.046987 199573.000000 0 0 1
34.896326 -16.074004 4.559919 38.690052 -0.431652 1.452664 0.119690 -0.049962 361480.000000 0 0 1
35.921686 -16.157404 5.718619 39.801154 -0.422684 1.426618 0.107399 -0.027600 126957.000000 0 0 1
-35.691879 -17.234404 5.571819 40.024744 0.449847 1.431133 0.107885 -0.024329 108999.000000 0 0 1
-34.910342 -17.271104 6.790119 39.536423 0.459421 1.398197 0.098448 -0.018802 1232800.000000 0 0 1
-33.654874 -18.252604 6.790519 38.883406 0.496948 1.395258 0.056853 -0.024708 652593.000000 0 0 1
-33.936484 -19.664204 6.744119 39.797601 0.525166 1.400514 0.078350 -0.025373 -211789.000000 0 0 1
-32.900194 -20.354304 7.376019 39.384339 0.554033 1.382401 0.065796 -0.015405 -180207.000000 0 0 1
-33.197934 -21.856404 7.546519 40.456831 0.582234 1.383165 0.068195 -0.011752 -229773.000000 0 0 1
-33.078944 -22.507804 6.294419 40.502315 0.597469 1.414755 0.079192 -0.011802 159096.000000 0 0 1
-33.340214 -23.872704 6.485419 41.515498 0.621406 1.413937 0.092810 -0.018133 -233283.000000 0 0 1
-32.739724 -24.784204 5.406019 41.417042 0.647971 1.439896 0.085108 -0.015869 -268503.000000 0 0 1
-33.305764 -24.677104 4.135519 41.657363 0.637668 1.471358 0.070826 -0.008249 95341.800000 0 0 1
-32.821194 -25.743164 3.320219 41.844535 0.665123 1.491366 0.061623 -0.007244 -122075.000000 0 0 1
-33.156674 -25.508734 1.848719 41.874555 0.655764 1.526633 0.049052 -0.002498 -575425.000000 0 0 1
-34.475466 -25.873594 1.568919 43.133075 0.643817 1.534414 0.028105 -0.000880 -598037.000000 0 0 1
-35.047966 -25.247794 0.472319 43.197618 0.624272 1.559862 0.022344 0.003657 -505358.000000 0 0 1
-35.925626 -24.055304 0.790919 43.242732 0.590021 1.552505 0.032838 0.000573 550384.000000 0 0 1
35.190316 -24.453304 0.728019 42.858517 -0.607286 1.553809 0.027019 -0.005290 903259.000000 0 0 1
34.371486 -23.336204 1.030819 41.557672 -0.596452 1.545989 0.054423 -0.010203 440128.000000 0 0 1
32.888186 -23.621904 0.657219 40.497643 -0.622869 1.554567 0.051646 -0.013349 345429.000000 0 0 1
32.661216 -23.623904 -0.735781 40.316067 -0.626194 1.589048 0.050534 -0.027701 -12173.600000 0 0 1
31.293586 -23.569204 -1.093081 39.191718 -0.645523 1.598691 0.051683 -0.020361 343365.000000 0 0 1
30.989966 -23.264904 -2.608381 38.838608 -0.643964 1.638006 0.054126 -0.016188 -290435.000000 0 0 1
31.290446 -21.927704 -2.907681 38.319328 -0.611249 1.646750 0.078413 -0.031932 118153.000000 0 0 1
30.844206 -21.565204 -4.194981 37.868469 -0.610166 1.681802 0.069911 -0.041034 29413.300000 0 0 1
30.773566 -20.036204 -4.530781 36.999863 -0.577138 1.693558 0.075881 -0.037406 441747.000000 0 0 1
29.740896 -19.495204 -3.712981 35.754302 -0.580233 1.674831 0.082431 -0.045951 257526.000000 0 0 1
29.718686 -18.079404 -3.854381 34.998878 -0.546538 1.681149 0.087748 -0.039932 -4288.320000 0 0 1
28.859486 -17.402804 -2.744181 33.812100 -0.542636 1.652045 0.093527 -0.029104 -237245.000000 0 0 1
29.256926 -17.461704 -1.393381 34.100152 -0.538093 1.611669 0.101732 -0.021670 -243982.000000 0 0 1
29.626686 -18.717704 -0.811181 35.053545 -0.563464 1.593940 0.100546 -0.026406 -116556.000000 0 0 1
28.609036 -19.884704 -0.720881 34.848215 -0.607396 1.591484 0.079066 -0.014956 -609403.000000 0 0 1
27.508426 -19.574204 0.065519 33.761921 -0.618450 1.568856 0.071798 0.000005 -354528.000000 0 0 1
26.790726 -20.802604 0.366919 33.920879 -0.660237 1.559979 0.046371 -0.001179 -501424.000000 0 0 1
25.612426 -20.477704 1.271319 32.816901 -0.674450 1.532047 0.042103 0.008563 -1510900.000000 0 0 1
24.917926 -21.649204 1.670519 33.051199 -0.715319 1.520231 0.040242 0.014927 -208491.000000 0 0 1
23.992326 -21.337204 2.681619 32.219545 -0.726891 1.487470 0.021256 0.019160 436947.000000 0 0 1
22.633526 -20.725304 2.184619 30.766659 -0.741417 1.499730 0.003382 0.024383 -724752.000000 0 0 1
22.573926 -19.376804 1.743719 29.800726 -0.709334 1.512250 0.017786 0.008084 53249.600000 0 0 1
22.662126 -18.486204 2.829819 29.382301 -0.684260 1.474336 0.025154 0.017708 -391881.000000 0 0 1
22.794126 -17.043204 2.416619 28.563667 -0.642028 1.486090 0.019911 0.014419 -473055.000000 0 0 1
21.618526 -16.534804 1.894319 27.282758 -0.652934 1.501308 0.016725 0.010921 -624335.000000 0 0 1
21.821726 -15.205004 1.478119 26.637657 -0.608564 1.515278 0.031200 0.000120 604461.000000 0 0 1
20.460126 -14.646104 0.933819 25.179300 -0.621276 1.533701 0.045917 -0.007125 517998.000000 0 0 1
19.470226 -14.555404 1.958619 24.388229 -0.641946 1.490400 0.047886 -0.006484 393542.000000 0 1 0
18.518026 -13.549004 1.651019 23.004754 -0.631664 1.498966 0.064335 -0.012431 -149396.000000 0 1 0
18.913726 -12.202204 2.188519 22.614430 -0.572959 1.473869 0.073284 -0.009529 73888.200000 0 1 0
20.032026 -11.678704 1.446119 23.232854 -0.527827 1.508511 0.080729 -0.014207 1028650.000000 0 1 0
20.411626 -10.389804 1.929919 22.984932 -0.470833 1.486733 0.083377 -0.019081 -23567.900000 0 1 0
21.335026 -9.503904 1.081119 23.381111 -0.419072 1.524541 0.097735 -0.021055 -425986.000000 0 1 0
20.736526 -9.085504 -0.045981 22.639612 -0.412948 1.572827 0.101080 -0.023758 624227.000000 0 1 0
21.706426 -8.566804 -0.964081 23.355696 -0.375900 1.612086 0.109272 -0.016002 149184.000000 0 1 0
21.051726 -8.087304 -2.296781 22.668367 -0.366780 1.672291 0.126135 -0.016443 -140795.000000 0 1 0
21.876026 -7.663004 -3.366781 23.422583 -0.336935 1.715037 0.113086 -0.019478 248206.000000 0 1 0
22.682526 -8.653104 -4.038281 24.610586 -0.364446 1.735629 0.094243 -0.017807 -516085.000000 0 1 0
21.963426 -9.784704 -4.777781 24.514480 -0.419105 1.766948 0.065572 -0.019991 -404355.000000 0 1 0
21.449526 -9.399404 -6.056481 24.189087 -0.413007 1.823870 0.066413 -0.022846 841972.000000 0 1 0
20.137526 -8.827404 -5.943281 22.776427 -0.413129 1.834792 0.071532 -0.023018 16718.100000 0 1 0
19.350426 -8.824704 -7.241681 22.466783 -0.427871 1.898984 0.069582 -0.021934 -352286.000000 0 1 0
19.173026 -10.036304 -7.930181 23.048213 -0.482239 1.922044 0.059077 -0.018710 503338.000000 0 1 0
20.328026 -10.471104 -8.630681 24.440977 -0.475660 1.931704 0.046227 -0.009782 -163750.000000 0 1 0
20.259226 -11.868404 -9.313181 25.259268 -0.529933 1.948410 0.035234 -0.017932 -211936.000000 0 0 1
19.333826 -11.858604 -10.379081 24.942908 -0.550185 1.999963 0.055301 -0.025323 38085.900000 0 1 0
19.334026 -13.155204 -10.896981 25.799383 -0.597462 2.006859 0.049718 -0.019949 441379.000000 0 0 1
18.090326 -13.567604 -11.764981 25.490284 -0.643496 2.050535 0.049333 -0.022134 530488.000000 0 0 1
18.068826 -14.985104 -11.916981 26.325848 -0.692374 2.040556 0.045737 -0.022692 326755.000000 0 0 1
17.112326 -15.226104 -12.948781 26.312296 -0.727137 2.085319 0.049396 -0.026012 -7866.120000 0 0 1
16.924726 -16.716104 -13.416381 27.310690 -0.779197 2.084321 0.032416 -0.024582 -549192.000000 0 0 1
16.298426 -17.570804 -12.508081 27.033756 -0.822948 2.051816 0.033906 -0.021153 157996.000000 0 0 1
16.495826 -18.912704 -12.892081 28.213621 -0.853549 2.045354 0.023983 -0.021871 -401053.000000 0 0 1
15.550226 -19.915004 -12.158681 28.040158 -0.907854 2.019299 0.024468 -0.025928 758339.000000 0 0 1
14.180826 -19.569204 -12.424581 27.173881 -0.943718 2.045669 0.016961 -0.025251 331192.000000 0 0 1
13.305426 -20.194804 -11.514081 26.785044 -0.988222 2.015145 0.027975 -0.022866 66408.200000 0 0 1
11.834126 -20.012204 -11.919481 26.126785 -1.036765 2.044536 0.056485 -0.033036 208842.000000 0 0 1
10.855226 -20.524004 -11.022881 25.701646 -1.084294 2.014047 0.068654 -0.042985 -367319.000000 0 0 1
9.558526 -20.284904 -11.516681 25.208663 -1.130442 2.045252 0.073094 -0.035765 601507.000000 0 0 1
8.498026 -20.794404 -10.446881 24.774201 -1.182839 2.006098 0.060948 -0.035539 384649.000000 0 1 0
8.525626 -22.204804 -10.441581 25.976263 -1.204199 1.984460 0.086001 -0.029499 -435394.000000 0 0 1
7.623826 -22.700704 -9.513281 25.767173 -1.246791 1.948946 0.080239 -0.033329 -155979.000000 0 0 1
7.666726 -24.201504 -9.607281 27.143901 -1.264010 1.932576 0.075217 -0.031002 579657.000000 0 0 1
8.920326 -24.740904 -9.217881 27.868511 -1.224754 1.907909 0.077083 -0.028066 -173750.000000 0 0 1
8.984126 -26.106964 -9.603781 29.232186 -1.239363 1.905548 0.065453 -0.025375 -312248.000000 0 0 1
10.399126 -26.649454 -9.505081 30.144350 -1.198750 1.891589 0.052932 -0.019407 -386214.000000 0 0 1
10.766726 -26.843504 -8.154481 30.049820 -1.189349 1.845608 0.057233 -0.022090 472678.000000 0 0 1
12.145526 -27.214814 -8.000681 30.857265 -1.151037 1.833073 0.065552 -0.011232 379764.000000 0 0 1
12.535626 -27.602434 -6.570581 31.019491 -1.144497 1.784234 0.059031 -0.013980 44331.200000 0 0 1
11.998926 -28.792474 -5.997381 31.763964 -1.175944 1.760747 0.060730 -0.010541 -706237.000000 0 0 1
10.616426 -28.747414 -5.853481 31.199128 -1.217032 1.759532 0.063149 -0.010445 -998441.000000 0 0 1
10.095026 -29.829334 -4.915981 31.872647 -1.244469 1.725653 0.064064 -0.006655 84609.600000 0 0 1
10.484026 -31.214454 -5.188881 33.334389 -1.246764 1.727093 0.073186 -0.004531 -75924.700000 0 0 1
9.703926 -31.808934 -6.204681 33.830054 -1.274695 1.755248 0.065350 -0.009679 -27040.100000 0 0 1
10.010126 -33.259644 -6.415081 35.320813 -1.278451 1.753433 0.056141 -0.007906 -82396.700000 0 0 1
9.628126 -34.136095 -5.332781 35.866591 -1.295887 1.720033 0.046547 -0.011973 62637.100000 0 0 1
9.860826 33.069008 -5.632081 34.964490 1.281001 1.732581 0.052723 -0.013073 -66811.300000 0 0 1
9.481926 32.058275 -4.543781 33.738493 1.283223 1.705883 0.047045 -0.013035 465968.000000 0 0 1
8.073426 31.885315 -4.423381 33.187646 1.322806 1.704478 0.044537 -0.021433 -140546.000000 0 0 1
7.725726 30.916685 -3.487681 32.057639 1.325923 1.679806 0.020128 -0.016228 39136.800000 0 0 1
6.257126 30.438535 -3.595581 31.282331 1.368055 1.685991 0.012534 -0.026801 170614.000000 0 0 1
6.021426 29.570735 -4.673281 30.537281 1.369915 1.724435 0.021294 -0.027903 -82118.300000 0 0 1
5.847826 30.285905 -5.867281 31.398378 1.380056 1.758767 0.013075 -0.025388 -746403.000000 0 0 1
5.959826 29.473665 -7.142481 30.906820 1.371278 1.804002 0.036990 -0.031655 -798812.000000 0 0 1
5.113626 28.358625 -7.135181 29.686219 1.392393 1.813526 0.032545 -0.022529 -200866.000000 0 0 1
5.690226 27.102105 -6.836481 28.524380 1.363847 1.812824 0.012775 -0.025540 -596862.000000 0 0 1
4.906526 25.913345 -7.512281 27.422797 1.383668 1.848287 0.008682 -0.019599 724494.000000 0 0 1
3.627126 25.602125 -6.927981 26.769792 1.430060 1.832574 0.012845 -0.019766 948890.000000 0 0 1
2.474626 26.105095 -7.619481 27.306707 1.476284 1.853584 0.035876 -0.024202 706526.000000 0 0 1
2.086526 25.374215 -8.961981 26.991137 1.488751 1.909256 0.036307 -0.013723 -616829.000000 0 0 1
2.989926 25.538275 -10.044181 27.604868 1.454251 1.943200 0.023132 -0.009247 -248442.000000 0 0 1
2.742126 24.781745 -11.219081 27.340847 1.460594 1.993625 0.037024 -0.008002 -515890.000000 0 0 1
2.430826 23.245885 -11.177781 25.907969 1.466605 2.016887 0.051168 -0.005053 608289.000000 0 0 1
1.224626 22.906685 -10.473581 25.217292 1.517386 1.999105 0.069824 -0.005756 392866.000000 0 0 1
1.233826 21.506685 -10.249381 23.856019 1.513490 2.014885 0.038694 -0.004297 -47819.700000 0 1 0
0.044426 20.960985 -9.413181 22.977660 1.568677 1.992885 0.044505 -0.001348 100641.000000 0 1 0
-1.179474 20.957485 -10.106481 23.296959 -1.514576 2.019515 0.054319 -0.011879 -799241.000000 0 1 0
-2.146574 20.363585 -9.315481 22.495812 -1.465772 1.997748 0.039810 -0.004717 418547.000000 0 1 0
-3.525974 20.141185 -10.044581 22.781427 -1.397490 2.027410 0.035014 -0.013500 742223.000000 0 1 0
-4.480474 19.379885 -9.350181 21.979092 -1.343596 2.010214 0.031993 -0.017827 -432091.000000 0 1 0
-5.515674 19.086885 -10.230881 22.347321 -1.289483 2.046329 0.033901 -0.015081 -788570.000000 0 1 0
-6.538374 17.978785 -9.794481 21.492299 -1.221994 2.043978 0.030612 -0.013048 -121354.000000 0 1 0
-7.477974 18.458685 -8.853081 21.794958 -1.185884 1.989086 0.055395 -0.016938 -182347.000000 0 1 0
-8.680474 18.851985 -9.485681 22.819424 -1.139283 1.999492 0.059710 -0.018469 -723638.000000 0 1 0
-9.753374 19.155885 -8.459381 23.100592 -1.099849 1.945716 0.061524 -0.027670 -479464.000000 0 1 0
-10.103874 18.010685 -7.741681 22.054629 -1.059552 1.929460 0.052473 -0.029232 128220.000000 0 1 0
-11.158474 18.344485 -6.819381 22.528551 -1.024315 1.878320 0.057007 -0.026476 588714.000000 0 1 0
-11.691374 17.073485 -6.059081 21.561646 -0.970367 1.855645 0.038224 -0.029374 -426183.000000 0 1 0
-12.386574 17.371185 -4.925781 21.896315 -0.951364 1.797698 0.045801 -0.023651 -452347.000000 0 1 0
-12.897374 16.210185 -4.320781 21.160848 -0.898723 1.776430 0.037129 -0.022443 -652302.000000 0 1 0
-14.063174 16.565585 -3.407881 21.995570 -0.866918 1.726358 0.035326 -0.017721 -663024.000000 0 1 0
-15.239174 16.803085 -4.134481 23.057971 -0.834167 1.751079 0.069861 -0.029356 -656635.000000 0 1 0
-16.330874 17.060085 -3.305981 23.846875 -0.807233 1.709878 0.088090 -0.025222 -59301.500000 0 1 0
-17.650974 17.136385 -4.128681 24.945111 -0.770607 1.737072 0.099941 -0.033386 93570.600000 0 1 0
-17.773574 18.220285 -5.088181 25.957047 -0.797808 1.768097 0.080651 -0.034233 -24998.800000 0 0 1
-19.002574 18.202885 -5.782981 26.942266 -0.763908 1.787123 0.064748 -0.026585 215606.000000 0 0 1
-18.878474 19.202885 -7.033881 27.832051 -0.793917 1.826293 0.049918 -0.015689 -213774.000000 0 0 1
-18.804074 20.533585 -6.582181 28.610250 -0.829336 1.802939 0.052588 -0.023321 43978.900000 0 0 1
-18.526374 21.403585 -7.646881 29.322598 -0.857330 1.834631 0.041117 -0.008261 54109.800000 0 0 1
-18.257774 22.885085 -7.234881 30.156540 -0.897397 1.813070 0.057023 -0.009939 -496525.000000 0 0 1
-17.132974 23.038985 -6.437781 29.424117 -0.931371 1.791373 0.045851 -0.017050 -621090.000000 0 0 1
-17.222174 24.016245 -5.422481 30.046407 -0.948682 1.752261 0.053945 -0.015586 -384535.000000 0 0 1
-15.857574 24.412425 -4.855581 29.512807 -0.994724 1.736072 0.035381 -0.012653 -520908.000000 0 0 1
-15.921074 25.357895 -3.794281 30.181120 -1.010147 1.696847 0.036400 -0.011182 331006.000000 0 0 1
-14.709674 26.051435 -3.466881 30.117620 -1.056783 1.686163 0.049665 -0.015864 193298.000000 0 0 1
-14.411474 27.179475 -4.448581 31.083827 -1.083255 1.714405 0.054994 -0.016205 -279450.000000 0 0 1
-15.031974 28.403685 -4.184281 32.407372 -1.084042 1.700273 0.054023 -0.011491 -102109.000000 0 0 1
-14.744274 29.349705 -5.205281 33.254981 -1.105258 1.727969 0.044177 -0.016691 -166074.000000 0 0 1
-15.301674 30.764995 -4.754581 34.687637 -1.109253 1.708298 0.051269 -0.023473 970073.000000 0 0 1
-16.726374 30.910955 -4.703281 35.459548 -1.074800 1.703826 0.070456 -0.018671 646713.000000 0 0 1
-17.036674 32.260315 -4.394681 36.746284 -1.084922 1.690679 0.077096 -0.025970 -106322.000000 0 0 1
12.206896 -8.599904 18.830523 24.032380 -0.613748 0.670441 0.034821 -0.015850 -340975.000000 0 1 0
12.808196 -9.741004 19.333323 25.153816 -0.650206 0.694140 0.032955 -0.009564 -218548.000000 0 0 1
13.303396 -10.545004 18.303123 24.963609 -0.670246 0.747792 0.033264 -0.014303 -207745.000000 0 1 0
13.700696 -11.970704 18.641723 26.048430 -0.718110 0.773233 0.067332 -0.020482 -698993.000000 0 0 1
14.853496 -12.047404 19.420723 27.256757 -0.681462 0.777727 0.051108 -0.013079 -311609.000000 0 0 1
15.191796 -13.342404 19.891223 28.363201 -0.720676 0.793571 0.067512 -0.011120 -35840.700000 0 0 1
15.906896 -14.334804 18.932623 28.582515 -0.733461 0.846799 0.070946 -0.017328 -342545.000000 0 0 1
15.122496 -14.684104 17.799623 27.588755 -0.770691 0.869542 0.072604 -0.020237 234220.000000 0 0 1
15.554296 -15.849004 17.142723 28.053521 -0.794783 0.913382 0.081001 -0.019392 -265605.000000 0 0 1
14.628196 -16.205904 15.963523 27.045324 -0.836521 0.939427 0.073178 -0.020412 -574340.000000 0 0 1
13.345796 -16.640604 16.293723 26.842232 -0.894836 0.918493 0.089833 -0.027948 -397580.000000 0 0 1
12.516596 -16.708204 15.145923 25.792019 -0.927853 0.943160 0.097051 -0.036928 38968.400000 0 0 1
12.328696 -18.085604 14.533523 26.273735 -0.972468 0.984646 0.080191 -0.023556 -489315.000000 0 0 1
13.557296 -18.603704 14.115323 27.002601 -0.941040 1.020735 0.076151 -0.022193 -132110.000000 0 0 1
13.247196 -19.748204 13.423823 27.307120 -0.979934 1.056885 0.075783 -0.025581 -208493.000000 0 0 1
14.432596 -20.524504 12.830123 28.180972 -0.957934 1.098114 0.080298 -0.028230 -306154.000000 0 0 1
15.277196 -21.008504 13.851923 29.438508 -0.942053 1.080896 0.088128 -0.025780 -48499.100000 0 0 1
15.368496 -22.414804 13.822323 30.490503 -0.969773 1.100296 0.058611 -0.026875 -285145.000000 0 0 1
16.262596 -22.958404 14.927423 31.849464 -0.954488 1.082993 0.068050 -0.030056 534304.000000 0 0 1
17.669496 -22.729104 14.752823 32.349174 -0.909992 1.097245 0.036995 -0.029247 741113.000000 0 0 1
18.373296 -23.210704 15.894823 33.600003 -0.901206 1.078035 0.043425 -0.032805 -794185.000000 0 0 1
19.726796 -22.581104 16.106423 34.036299 -0.852761 1.077862 0.010434 -0.023527 -807302.000000 0 0 1
20.652396 -23.220904 15.272123 34.626141 -0.843875 1.114020 0.012851 -0.024911 -540832.000000 0 0 1
21.943396 -22.659604 15.391823 35.098127 -0.801454 1.116826 0.008988 -0.016776 43160.800000 0 0 1
23.086096 -23.529104 14.849823 36.153891 -0.794901 1.147532 -0.003657 -0.022945 -349104.000000 0 0 1
23.327496 -24.622904 15.729723 37.388283 -0.812407 1.136566 0.003125 -0.020433 38107.600000 0 0 1
24.367396 -25.409134 15.214823 38.352118 -0.806323 1.162862 0.007239 -0.029458 -414507.000000 0 0 1
24.818196 -26.568114 16.139323 39.777950 -0.819439 1.153013 0.011060 -0.027348 -348643.000000 0 0 1
25.450496 -26.160244 17.337723 40.406470 -0.799149 1.127319 0.013013 -0.020900 150342.000000 0 0 1
25.887396 -27.189214 18.156223 41.702028 -0.809920 1.120336 0.044906 -0.018517 152977.000000 0 0 1
26.328296 -26.688684 19.559623 42.285268 -0.792196 1.089912 0.026890 -0.013034 770568.000000 0 0 1
25.142696 -26.239484 20.248223 41.601157 -0.806741 1.062462 0.042694 -0.008942 809306.000000 0 0 1
25.306096 -25.874724 21.627823 42.162336 -0.796508 1.032160 0.041368 0.001784 109718.000000 0 0 1
23.951596 -25.755644 22.388523 41.692663 -0.821676 1.003932 0.043725 -0.000303 183676.000000 0 0 1
23.491496 -27.032474 22.606023 42.351356 -0.855369 1.007740 0.048799 -0.004901 -192521.000000 0 0 1
22.266496 -27.059114 23.304223 42.084193 -0.882257 0.983932 0.050065 -0.006539 -88297.700000 0 0 1
21.615596 -28.428134 23.413923 42.703684 -0.920698 0.990480 0.054366 -0.007084 -472360.000000 0 0 1
22.449096 -29.287554 24.117873 44.083949 -0.916815 0.991913 0.048789 -0.004581 162171.000000 0 0 1
22.147396 -30.643834 23.781633 44.666742 -0.944974 1.009335 0.057620 -0.005191 -36962.100000 0 0 1
23.180596 -31.649674 24.370743 46.184143 -0.938647 1.014922 0.040005 -0.000902 154165.000000 0 0 1
23.246296 -31.675524 25.807653 47.008128 -0.937687 0.989624 0.030285 -0.003639 -589405.000000 0 0 1
24.401696 -32.271324 26.259663 48.233298 -0.923376 0.995087 0.030064 0.001890 -1150670.000000 0 0 1
24.187496 -32.785044 27.739353 49.288597 -0.935175 0.973034 0.026395 -0.003719 172189.000000 0 0 1
23.559396 -34.022334 27.950863 49.938113 -0.965143 0.976760 0.018252 0.002665 115309.000000 0 0 1
22.284696 34.272846 27.412283 49.220615 0.994270 0.980115 0.029722 0.006084 -560870.000000 0 0 1
21.606696 33.023149 27.946423 48.356802 0.991412 0.954617 0.061438 -0.014447 -136637.000000 0 0 1
21.075796 33.214063 29.254963 49.022607 1.005363 0.931333 0.040002 -0.008520 254545.000000 0 0 1
20.569996 31.962515 29.785503 48.289785 0.998957 0.906116 0.046109 -0.010904 -33598.400000 0 0 1
20.281196 32.027195 31.274393 49.144235 1.006287 0.881001 0.036042 -0.008116 -819823.000000 0 0 1
21.414396 32.290415 32.018203 50.263432 0.985211 0.880186 0.028197 -0.003180 -576744.000000 0 0 1
21.161896 32.485195 33.393560 51.168776 0.993415 0.859764 0.035134 -0.007286 913251.000000 0 0 1
22.565096 32.370995 34.123312 52.167666 0.962034 0.857793 0.025578 -0.002308 858661.000000 0 0 1
22.940396 31.089445 -34.120163 51.546104 0.935095 2.294193 0.027808 0.000765 -459502.000000 0 0 1
24.054196 31.079935 -33.285191 51.502142 0.912145 2.273506 0.029345 0.004026 -465983.000000 0 0 1
24.356696 29.623785 -32.838441 50.489410 0.882664 2.278911 0.036859 0.002562 -152770.000000 0 0 1
24.732996 28.808075 -33.902271 50.901771 0.861363 2.299674 0.039922 0.004083 450924.000000 0 0 1
24.119496 27.511815 -33.822301 49.825677 0.851007 2.316941 0.044846 -0.006043 7588.540000 0 0 1
24.283896 26.733785 33.330672 49.146074 0.833382 0.825491 0.070408 -0.004057 163143.000000 0 0 1
25.558796 26.118465 33.256007 49.410407 0.796228 0.832462 0.060641 -0.009445 422216.000000 0 0 1
25.645196 25.379695 32.070893 48.273670 0.780195 0.844165 0.077780 -0.021110 -1743.790000 0 0 1
27.024796 24.754715 31.682163 48.444762 0.741585 0.857956 0.050087 -0.013470 419490.000000 0 0 1
27.499396 23.731225 32.557614 48.778951 0.711977 0.840014 0.059358 -0.017102 344548.000000 0 0 1
28.267696 24.167345 33.654502 50.157240 0.707358 0.835267 0.063147 -0.022381 -779981.000000 0 0 1
28.047596 23.329185 -33.570511 49.577189 0.693816 2.314660 0.052052 -0.026972 675427.000000 0 0 1
26.817796 23.561575 -32.850371 48.512770 0.720854 2.314677 0.056320 -0.025127 1071660.000000 0 0 1
25.619396 22.933685 -33.268901 47.844823 0.730140 2.339703 0.068463 -0.019099 122397.000000 0 0 1
25.457996 21.438385 -33.026871 46.888038 0.699895 2.352342 0.061596 -0.021241 -516865.000000 0 0 1
25.374596 21.051685 -31.700111 45.737737 0.692552 2.336555 0.058214 -0.034611 450595.000000 0 0 1
25.024096 19.659085 -31.585651 44.836797 0.665902 2.352456 0.047231 -0.025922 -342737.000000 0 0 1
24.790796 19.176485 -30.185341 43.514089 0.658393 2.337398 0.050077 -0.022603 99257.500000 0 0 1
23.521696 19.587285 -29.692061 42.644465 0.694384 2.340984 0.043728 -0.027633 439951.000000 0 0 1
23.181796 18.823585 -28.539121 41.306228 0.682014 2.333551 0.047234 -0.027164 691943.000000 0 0 1
21.766696 19.084085 -27.892781 40.199485 0.719824 2.337631 0.060383 -0.028680 706426.000000 0 0 1
21.512296 18.575285 -26.538131 38.885633 0.712264 2.321928 0.056573 -0.018089 93914.200000 0 0 1
22.375396 19.092285 -25.519221 38.941037 0.706390 2.285415 0.052904 -0.009811 179807.000000 0 0 1
22.360596 18.218185 -24.239581 37.675666 0.683667 2.269695 0.055887 -0.005859 -221109.000000 0 0 1
23.037196 17.035385 -24.509281 37.704397 0.636730 2.278430 0.064186 -0.015900 35475.200000 0 0 1
23.093296 16.186685 -23.387081 36.636930 0.611347 2.263145 0.071613 -0.013357 -500727.000000 0 0 1
24.049496 14.994085 -23.552381 36.849905 0.557497 2.264181 0.094531 -0.020329 809067.000000 0 0 1
25.434996 15.428985 -23.429681 37.867434 0.545262 2.237920 0.110459 -0.027242 1213870.000000 0 0 1
26.450496 14.476585 -23.515981 38.238745 0.500775 2.233154 0.122604 -0.035896 67072.700000 0 0 1
26.578596 13.597785 -22.235281 37.225384 0.472890 2.210945 0.111001 -0.027259 -1042930.000000 0 0 1
25.501796 12.731185 -22.177081 36.114368 0.463029 2.232015 0.102650 -0.021219 -441509.000000 0 0 1
25.276396 12.247685 -20.845081 34.977412 0.451212 2.209255 0.083418 -0.024824 228606.000000 0 0 1
23.826096 11.735485 -20.613581 33.620294 0.457668 2.230812 0.073975 -0.015778 177388.000000 0 0 1
22.894396 12.758585 -20.581281 33.324525 0.508415 2.236486 0.093654 -0.012512 -110441.000000 0 0 1
21.586696 12.396785 -21.011481 32.575267 0.521292 2.271837 0.061107 -0.010673 463356.000000 0 0 1
20.506796 13.475985 -20.891581 32.227147 0.581383 2.276094 0.057164 -0.010377 -750717.000000 0 0 1
20.747196 14.613385 -21.699881 33.389849 0.613643 2.278242 0.052425 -0.004393 958572.000000 0 0 1
19.640296 15.553585 -21.764981 33.186889 0.669796 2.286079 0.037302 -0.002864 266946.000000 0 0 1
18.437096 15.112485 -22.606581 32.853785 0.686625 2.329659 0.024193 0.015333 -1114670.000000 0 0 1
17.547096 14.431685 -21.779081 31.472249 0.688283 2.335065 0.018550 0.000997 443778.000000 0 0 1
16.255196 14.592585 -22.411681 31.296300 0.731553 2.369013 0.019632 -0.017263 272815.000000 0 0 1
15.101496 13.675985 -22.044781 30.017663 0.735903 2.395569 0.005852 -0.009327 -425198.000000 0 0 1
14.071696 13.973285 -22.948581 30.329898 0.781889 2.428943 0.022421 -0.006951 252699.000000 0 0 1
12.804496 13.385785 -22.549881 29.182726 0.807589 2.453901 0.040112 -0.010514 783724.000000 0 0 1
11.704196 13.858985 -23.509281 29.694207 0.869492 2.484404 0.046618 -0.008618 -407110.000000 0 0 1
11.465696 15.247785 -23.465981 30.242510 0.926043 2.458980 0.026132 -0.001307 121521.000000 0 0 1
11.137396 15.784485 -24.752281 31.398518 0.956328 2.478880 0.032218 -0.011993 -621315.000000 0 0 1
11.086896 17.284685 -24.735781 32.148693 1.000470 2.448726 0.032112 -0.005056 513223.000000 0 0 1
12.296096 18.049485 -24.458881 32.790467 0.972770 2.412703 0.032709 -0.007396 1009600.000000 0 0 1
13.390196 17.943685 -25.348351 33.820291 0.929710 2.418105 0.037846 -0.007452 20414.600000 0 0 1
13.012296 18.204085 -26.854251 34.955105 0.950206 2.446899 0.054989 -0.028321 -486851.000000 0 0 1
14.123296 18.072785 -27.725281 35.983111 0.907458 2.450434 0.042610 -0.029742 276481.000000 0 0 1
13.702096 17.715285 -29.056871 36.686244 0.912448 2.484935 0.062616 -0.019238 72723.500000 0 0 1
14.811896 18.047585 -30.099571 38.093198 0.883552 2.481860 0.056770 -0.026413 484929.000000 0 0 1
15.833296 17.052585 -30.004421 37.970372 0.822458 2.481942 0.033839 -0.020904 -149347.000000 0 0 1
16.326396 16.842585 -31.313231 39.124702 0.800959 2.498666 0.038877 -0.012394 -828003.000000 0 0 1
17.546096 15.945885 -31.357011 39.311561 0.737656 2.494191 0.038814 -0.014140 -1152320.000000 0 0 1
18.669196 16.621785 -30.911961 39.753892 0.727448 2.461609 0.050318 -0.022724 -1211740.000000 0 0 1
19.779596 15.795585 -30.820731 39.882958 0.673874 2.454005 0.056798 -0.017869 220088.000000 0 0 1
21.122996 16.521985 -31.159441 41.110433 0.663780 2.430953 0.055182 -0.017719 449833.000000 0 0 1
21.044196 16.924285 -32.552761 42.296239 0.677312 2.449069 0.057519 -0.020789 538522.000000 0 0 1
22.203196 17.639485 -32.996251 43.507309 0.671352 2.431662 0.070130 -0.018442 263418.000000 0 0 1
22.393896 17.896485 33.992000 44.466019 0.674233 0.700610 0.051743 -0.002585 126802.000000 0 0 1
23.605596 18.536785 33.602553 45.055168 0.665695 0.729048 0.054873 -0.007516 443245.000000 0 0 1
23.596496 18.771385 32.180993 44.099613 0.672001 0.752863 0.068778 -0.014590 -287217.000000 0 0 1
24.491396 19.966385 31.789083 44.822214 0.683965 0.782396 0.071482 -0.012687 867092.000000 0 0 1
25.881696 19.593485 31.803143 45.444546 0.647992 0.795647 0.027317 -0.002105 208521.000000 0 0 1
26.654096 20.729685 31.705103 46.318185 0.661013 0.816870 0.032084 -0.013553 -1221230.000000 0 0 1
28.144196 20.484085 31.648623 47.046029 0.629158 0.832923 0.037146 -0.013565 -975003.000000 0 0 1
28.583196 19.952985 32.909625 47.939171 0.609427 0.814149 0.022687 -0.016041 653268.000000 0 0 1
30.011596 19.994285 32.975451 48.865609 0.587692 0.830077 0.018045 -0.013422 448397.000000 0 0 1
30.656696 19.327685 34.180970 49.816977 0.562513 0.814639 0.014548 -0.006996 -269718.000000 0 0 1
30.538996 19.969485 -33.102041 49.266172 0.579113 2.307570 0.012676 -0.016668 410199.000000 0 0 1
29.379496 19.643885 -32.335711 47.902351 0.589358 2.311807 0.013879 -0.024926 110149.000000 0 0 1
29.638796 19.925585 -30.826951 47.178258 0.591879 2.282882 0.038522 -0.027141 -703890.000000 0 0 1
30.766696 19.177885 -30.565761 47.419897 0.557399 2.271266 0.044507 -0.034133 -894296.000000 0 0 1
31.258596 19.573185 -29.302231 47.104460 0.559440 2.242179 0.036543 -0.036426 849506.000000 0 0 1
32.769396 19.137985 -29.166911 47.862349 0.528587 2.226089 0.049672 -0.030150 1063070.000000 0 0 1
33.680596 19.835885 -30.023911 49.287728 0.532248 2.225792 0.020544 -0.023188 -9645.150000 0 0 1
34.997396 19.690385 -29.535601 49.848578 0.512484 2.204963 0.029976 -0.016212 -315597.000000 0 0 1
35.930496 20.580785 -30.356101 51.342595 0.520175 2.203399 0.030755 -0.013516 -261865.000000 0 0 1
-36.052735 20.030785 -31.559931 51.933238 -0.507130 2.223960 0.018960 -0.011531 347231.000000 0 0 1
-34.851935 20.692685 -31.946531 51.608385 -0.535797 2.238288 0.021661 -0.010522 164658.000000 0 0 1
-34.117235 19.931785 -33.066041 51.523051 -0.528732 2.267603 0.018061 -0.008550 -454863.000000 0 0 1
-33.319835 18.910785 -32.559311 50.278603 -0.516220 2.275198 0.033261 -0.013246 42188.800000 0 0 1
-32.411335 18.448485 -33.548031 50.162851 -0.517463 2.303366 0.031767 -0.015546 -114689.000000 0 0 1
-31.448635 17.349785 -33.145271 48.873721 -0.504137 2.316082 0.012015 -0.003483 -200212.000000 0 0 1
-32.194435 16.224585 -32.788631 48.732054 -0.466808 2.308831 0.025185 -0.000929 116697.000000 0 0 1
-31.691735 15.070985 -33.492831 48.510518 -0.443896 2.332871 0.022996 0.003525 136513.000000 0 0 1
-32.396435 13.689485 -33.270991 48.413736 -0.399803 2.328455 0.034767 0.001144 -179507.000000 0 0 1
-31.876335 12.620985 -34.088507 48.346833 -0.376998 2.353336 0.048000 -0.007924 124193.000000 0 0 1
-32.498635 11.400785 -33.726851 48.204145 -0.337395 2.345728 0.051086 -0.015272 -155996.000000 0 0 1
-32.027935 10.097485 34.145171 47.891967 -0.305408 0.777082 0.053188 -0.016527 -455467.000000 0 0 1
-32.538935 9.920785 32.866420 47.301224 -0.295937 0.802610 0.061661 -0.020440 45620.800000 0 0 1
-32.369535 8.590385 32.262293 46.502011 -0.259405 0.804068 0.053412 -0.036940 -410003.000000 0 0 1
-30.942235 8.309685 31.749683 45.105600 -0.262364 0.789928 0.084069 -0.029083 -289628.000000 0 0 1
-30.144835 7.911985 32.837973 45.272984 -0.256676 0.759279 0.057876 -0.019927 292911.000000 0 0 1
-29.042735 7.128385 32.283243 44.005705 -0.240687 0.747170 0.056883 -0.016719 663686.000000 0 0 1
20.812396 -4.542004 -31.518451 38.042060 -0.214867 2.547248 0.078645 -0.039784 -458200.000000 0 0 1
21.847196 -4.639504 -32.450441 39.393605 -0.209253 2.538788 0.079051 -0.040102 -1177160.000000 0 0 1
22.857896 -3.739604 -32.270671 39.722339 -0.162166 2.519063 0.090631 -0.035165 -817286.000000 0 0 1
22.599796 -2.174204 -32.377051 39.544296 -0.095909 2.530034 0.085006 -0.034583 -284835.000000 0 0 1
23.716796 -1.405204 -31.958011 39.821796 -0.059180 2.502313 0.089431 -0.033210 454272.000000 0 0 1
23.446296 -0.094304 -32.318781 39.927951 -0.004022 2.513973 0.071592 -0.028861 -180679.000000 0 0 1
24.397696 1.012596 -31.787331 40.083754 0.041480 2.486551 0.078528 -0.028415 -871702.000000 0 0 1
25.674196 0.938196 -32.346311 41.307728 0.036526 2.470362 0.080817 -0.032078 -838822.000000 0 0 1
26.422496 1.887396 -31.618471 41.248494 0.071310 2.444227 0.079124 -0.028101 838701.000000 0 0 1
27.986496 1.826696 -31.839311 42.430207 0.065178 2.419452 0.059735 -0.029145 1050780.000000 0 0 1
28.455696 2.453096 -33.004401 43.646704 0.085995 2.428239 0.056631 -0.022277 91367.200000 0 0 1
29.001496 1.451096 -33.893601 44.631476 0.049994 2.433203 0.042331 -0.015498 73061.100000 0 0 1
29.944196 1.983896 33.522169 44.992516 0.066156 0.730170 0.041246 -0.020344 3269.130000 0 0 1
29.312396 2.756296 32.520189 43.867715 0.093756 0.735755 0.051398 -0.016222 50015.900000 0 0 1
29.119996 4.085496 32.873308 44.105780 0.139389 0.729768 0.048021 -0.009371 135777.000000 0 0 1
28.269696 4.930696 31.875183 42.889565 0.172679 0.732968 0.055264 -0.003679 -2074.180000 0 0 1
28.314496 6.323696 32.216683 43.354521 0.219732 0.733107 0.051414 -0.007894 114022.000000 0 0 1
27.815396 7.245796 31.225033 42.440553 0.254832 0.744044 0.045914 -0.002329 -104694.000000 0 0 1
28.010196 8.705296 31.564773 43.089304 0.301326 0.748746 0.039776 0.004419 556424.000000 0 0 1
29.353196 9.113696 31.319173 43.881205 0.301047 0.775992 0.026173 -0.001240 107028.000000 0 0 1
29.545096 10.513596 31.008313 44.101745 0.341876 0.791037 0.032870 0.000745 541942.000000 0 0 1
30.919496 10.871696 30.360583 44.676325 0.338111 0.823623 0.033069 0.007134 328363.000000 0 0 1
32.037596 10.675796 31.182643 45.964523 0.321655 0.825204 0.046618 -0.007318 1070770.000000 0 0 1
33.342196 10.993696 30.621753 46.585997 0.318498 0.853544 0.056545 -0.013707 1425760.000000 0 0 1
33.737996 12.459496 30.865413 47.393725 0.353765 0.861559 0.072110 -0.019122 -729999.000000 0 0 1
33.894296 12.777096 32.242673 48.493994 0.360496 0.843464 0.074687 -0.019821 306887.000000 0 0 1
34.112796 14.122996 32.588163 49.245611 0.392524 0.847649 0.091551 -0.016413 -866050.000000 0 0 1
32.828496 14.904496 32.631107 48.627598 0.426184 0.835185 0.079831 -0.018631 -1699500.000000 0 0 1
32.483696 15.381296 31.351893 47.693983 0.442230 0.853492 0.063225 -0.021709 401383.000000 0 0 1
31.383996 16.282496 31.407963 47.292019 0.478586 0.844469 0.036128 -0.017308 872337.000000 0 0 1
29.949796 15.726396 31.689773 46.352471 0.483519 0.818017 0.029709 -0.008499 -161123.000000 0 0 1
29.476496 14.910596 30.637293 45.053673 0.468314 0.823010 0.000355 0.002467 548386.000000 0 0 1
28.154996 14.393896 30.789453 44.134776 0.472597 0.798721 -0.009877 0.002551 470706.000000 0 0 1
27.473096 13.820996 29.548753 42.648795 0.466104 0.805377 0.005826 0.006001 -94363.500000 0 0 1
28.093396 12.686396 29.044213 42.352684 0.424166 0.815135 0.005506 0.000078 99060.700000 0 0 1
27.331796 12.254096 27.918403 40.946638 0.421477 0.820543 0.018713 -0.006401 302446.000000 0 0 1
27.050896 10.748096 27.786463 40.241273 0.378201 0.808621 0.021286 0.005479 -743610.000000 0 0 1
28.202996 10.121396 27.314923 40.545735 0.344561 0.831617 0.016776 -0.002382 -404380.000000 0 0 1
28.064796 8.760996 27.164273 40.028559 0.302584 0.824911 0.035250 -0.001345 -433342.000000 0 0 1
29.227396 7.963096 26.584703 40.303821 0.265997 0.850500 0.023085 -0.002449 -438341.000000 0 0 1
29.547996 8.250796 25.237103 39.724943 0.272298 0.882404 0.028392 -0.002202 -15714.700000 0 0 1
30.537596 7.353996 24.778943 40.007775 0.236318 0.902878 0.029312 0.007531 -85243.500000 0 0 1
30.862396 7.560196 23.336423 39.423758 0.240234 0.937335 0.044703 0.006200 -247152.000000 0 0 1
31.636396 8.727596 23.116523 40.142323 0.269177 0.957136 0.040462 -0.002596 245960.000000 0 0 1
30.840596 9.870296 22.832223 39.621655 0.309741 0.956656 0.042142 -0.012814 228645.000000 0 0 1
30.267796 9.927696 21.369123 38.358024 0.316939 0.979911 0.047165 -0.003619 534651.000000 0 0 1
31.353596 10.215596 20.490823 38.823707 0.314972 1.014798 0.046283 -0.007414 610542.000000 0 0 1
30.941896 10.066196 19.127023 37.743506 0.314527 1.039370 0.054934 -0.019972 -807235.000000 0 0 1
31.801596 10.704496 18.040223 38.096947 0.324690 1.077497 0.066816 -0.047388 1029300.000000 0 0 1
33.112396 10.143496 17.786823 38.931894 0.297259 1.096323 0.060937 -0.032365 1161530.000000 0 0 1
34.138696 10.456496 18.709923 40.309429 0.297222 1.088113 0.060794 -0.015270 -262405.000000 0 0 1
35.486396 9.851896 18.240823 41.098318 0.270805 1.110924 0.079801 -0.019413 -249758.000000 0 0 1
35.712696 8.459496 18.363423 41.038702 0.232589 1.106867 0.074532 -0.009373 473419.000000 0 0 1
-35.997535 8.079896 17.239723 40.722417 -0.220797 1.133660 0.080518 -0.006401 -208474.000000 0 0 1
-35.822535 6.540896 17.078723 40.220891 -0.180602 1.132251 0.081475 -0.008178 868446.000000 0 0 1
35.400296 5.960996 16.779523 39.626592 0.166823 1.133556 0.067193 -0.008818 1316200.000000 0 0 1
35.591996 4.676696 16.168023 39.370886 0.130649 1.147619 0.065731 -0.008575 -205209.000000 0 0 1
34.242896 3.958596 16.089923 38.041189 0.115093 1.134086 0.054973 -0.006527 -242411.000000 0 0 1
34.020596 3.153996 17.217623 38.259576 0.092444 1.104007 0.057908 -0.005325 408279.000000 0 0 1
32.694896 2.642096 17.157523 37.017800 0.080635 1.088862 0.045473 -0.005182 361457.000000 0 0 1
32.462596 1.718096 18.386223 37.347359 0.052876 1.056063 0.049514 -0.011970 121749.000000 0 0 1
33.279496 0.550796 18.414723 38.038537 0.016549 1.065454 0.058784 -0.009581 162434.000000 0 0 1
33.013896 -0.214504 19.557823 38.372800 -0.006497 1.035984 0.067850 -0.015330 141345.000000 0 0 1
33.736296 -1.580704 19.600323 39.048802 -0.046820 1.044951 0.063998 -0.011896 224363.000000 0 0 1
33.231696 -2.368504 20.670523 39.207473 -0.071152 1.015484 0.061486 -0.008799 275380.000000 0 0 1
33.904196 -3.626104 20.690923 39.884301 -0.106546 1.025381 0.052798 -0.010412 -109639.000000 0 0 1
33.655396 -4.470604 21.971023 40.440053 -0.132062 0.996435 0.056183 -0.010411 -175252.000000 0 0 1
34.105096 -3.903704 23.170423 41.415758 -0.113965 0.977063 0.057571 -0.014222 323410.000000 0 0 1
33.703696 -4.676804 24.322203 41.825605 -0.137882 0.950207 0.059672 -0.008897 249655.000000 0 0 1
34.063896 -4.000204 25.686593 42.850341 -0.116897 0.927984 0.041410 -0.004916 49336.000000 0 0 1
33.191896 -4.535704 26.660983 42.814514 -0.135810 0.898596 0.046944 0.002723 102715.000000 0 0 1
33.313996 -3.811104 27.827013 43.573955 -0.113904 0.878098 0.043719 -0.001626 248030.000000 0 0 1
32.381496 -4.265004 28.990113 43.671252 -0.130957 0.844873 0.036577 -0.006428 198159.000000 0 0 1
32.739396 -5.608004 29.365113 44.335399 -0.169646 0.846858 0.033793 -0.005959 -89137.800000 0 0 1
31.933096 -6.125604 30.371473 44.493506 -0.189524 0.819475 0.038947 -0.014611 -292969.000000 0 0 1
32.324796 -7.575704 30.659813 45.191901 -0.230207 0.825165 0.031183 -0.008266 124803.000000 0 0 1
33.474196 -7.685604 31.465573 46.579745 -0.225686 0.829126 0.029848 -0.001682 -236193.000000 0 0 1
34.146896 -8.890604 31.257513 47.139002 -0.254708 0.845854 0.023790 0.006955 -301520.000000 0 0 1
35.263696 -9.158104 32.250143 48.656663 -0.254090 0.846230 0.026864 0.017686 -541476.000000 0 0 1
34.804496 -9.510304 33.531953 49.256377 -0.266738 0.821992 -0.003982 0.008233 323857.000000 0 0 1
35.861096 -10.006704 -34.184578 50.544413 -0.272119 2.313562 -0.008397 0.005675 -202194.000000 0 0 1
35.644096 -10.087904 -32.668411 49.391218 -0.275805 2.293509 0.009538 0.005795 -200101.000000 0 0 1
35.159096 -8.983004 -31.929191 48.335594 -0.250145 2.292378 0.010435 -0.001843 606840.000000 0 0 1
35.964196 -7.833004 -32.146791 48.869167 -0.214451 2.288708 0.007756 -0.002255 186135.000000 0 0 1
35.465996 -6.648204 -31.280901 47.754898 -0.185302 2.285019 0.023636 -0.008424 190611.000000 0 0 1
35.779396 -6.796704 -29.897841 47.119436 -0.187725 2.258173 0.032228 -0.012442 185845.000000 0 0 1
35.182196 -5.695204 -29.274721 46.121920 -0.160485 2.258448 0.053078 -0.026591 -311991.000000 0 0 1
35.643196 -5.485704 -27.829101 45.552050 -0.152708 2.228031 0.055897 -0.031180 552577.000000 0 0 1
-35.520435 -5.052604 -27.653171 45.298211 0.141297 2.227449 0.052875 -0.026050 336792.000000 0 0 1
-35.259435 -4.783604 -26.336561 44.268782 0.134845 2.207967 0.058002 -0.028833 -281829.000000 0 0 1
-33.770935 -4.703104 -25.985941 42.870320 0.138375 2.222010 0.050222 -0.017898 -1007260.000000 0 0 1
-33.529635 -4.236304 -24.656281 41.834374 0.125679 2.201086 0.062561 -0.018412 476198.000000 0 0 1
-32.172335 -4.229804 -24.226181 40.495162 0.130724 2.212110 0.063243 -0.016871 817263.000000 0 0 1
-31.216935 -3.182404 -24.915681 40.067641 0.101594 2.241887 0.039894 -0.005696 -52594.500000 0 0 1
-30.643235 -3.654204 -26.139211 40.442791 0.118689 2.273556 0.045136 -0.009864 544122.000000 0 0 1
-29.652535 -2.821004 -26.759161 40.041023 0.094850 2.302709 0.035202 -0.008965 664481.000000 0 0 1
-28.951135 -3.504804 -27.956121 40.397977 0.120473 2.335077 0.030511 -0.000347 -210224.000000 0 0 1
-29.844635 -3.569104 -29.044371 41.797323 0.119024 2.339058 0.051462 -0.003082 -176049.000000 0 0 1
-29.494335 -4.571804 -30.004501 42.321238 0.153782 2.358833 0.050131 -0.002459 -1480990.000000 0 0 1
-30.550535 -4.766204 -31.132631 43.878156 0.154763 2.359620 0.034510 0.004392 1507690.000000 0 0 1
-31.849035 -5.322304 -30.736381 44.580411 0.165580 2.331539 0.035032 0.003161 1558900.000000 0 0 1
-32.594835 -4.644004 -29.720141 44.353994 0.141524 2.305095 0.041042 -0.008495 -1259310.000000 0 0 1
-33.575435 -3.690404 -30.414581 45.453004 0.109474 2.303852 0.057134 -0.013834 -802702.000000 0 0 1
-33.034035 -2.584804 -31.165001 45.488305 0.078088 2.325566 0.062551 -0.011457 -31749.600000 0 0 1
-32.633935 -1.520404 -30.309161 44.563781 0.046556 2.318736 0.056705 -0.015677 165844.000000 0 0 1
-32.275035 -0.196604 -31.047641 44.784735 0.006091 2.336804 0.065176 -0.014895 -381398.000000 0 0 1
-33.368435 0.417096 -31.635021 45.982615 -0.012499 2.329495 0.064401 -0.011826 -798528.000000 0 0 1
-33.102335 1.635796 -32.246751 46.241684 -0.049376 2.342493 0.065230 -0.011847 -1062940.000000 0 0 1
-34.321035 2.349796 -32.692131 47.457669 -0.068358 2.330724 0.047919 -0.014792 -915586.000000 0 0 1
-35.138435 1.649896 -33.630741 48.666811 -0.046920 2.333724 0.050591 -0.022414 520382.000000 0 0 1
36.079396 2.228896 -33.668441 49.398934 0.061699 2.320692 0.036884 -0.020390 872021.000000 0 0 1
35.062796 1.738896 33.716268 48.674533 0.049553 0.805587 0.031709 -0.021858 597677.000000 0 0 1
35.322696 2.172196 32.392483 47.975872 0.061418 0.829584 0.035489 -0.016425 186224.000000 0 0 1
36.242896 1.428796 31.627953 48.123969 0.039402 0.853674 0.019231 -0.008844 -215718.000000 0 0 1
-36.233035 1.716396 30.091183 47.130225 -0.047336 0.878289 0.037363 -0.006087 -89028.300000 0 0 1
-35.612635 2.962796 29.845003 46.559232 -0.083004 0.874981 0.056980 -0.014986 148169.000000 0 0 1
-35.148635 3.107796 28.539613 45.382755 -0.088189 0.890704 0.058568 -0.007448 143694.000000 0 0 1
-34.631435 4.555796 28.235653 44.914849 -0.130800 0.890982 0.062468 -0.009711 -156385.000000 0 0 1
-34.020235 4.580696 27.012043 43.680769 -0.133841 0.904095 0.066732 -0.002397 413584.000000 0 0 1
-33.338735 5.833296 26.738033 43.132598 -0.173217 0.902177 0.069205 -0.002107 117343.000000 0 0 1
-32.609835 5.980196 25.381323 41.753750 -0.181371 0.917407 0.059973 0.004647 424413.000000 0 0 1
-31.418935 5.168596 25.319883 40.681203 -0.163045 0.898994 0.060607 0.000548 936936.000000 0 0 1
-30.635435 5.464896 24.156623 39.394636 -0.176528 0.910696 0.061914 -0.002728 207819.000000 0 0 1
-31.174835 4.942596 22.795023 38.934723 -0.157236 0.945339 0.061748 -0.006408 -106662.000000 0 0 1
-31.195835 3.515796 22.640223 38.705563 -0.112227 0.945997 0.058811 -0.007053 180451.000000 0 0 1
-32.012835 3.169296 21.526023 38.707050 -0.098679 0.981078 0.073032 -0.007929 -228108.000000 0 0 1
-31.841035 1.630796 21.204823 38.290410 -0.051172 0.983888 0.069794 -0.005382 -178827.000000 0 0 1
-30.604235 1.201896 20.701023 36.967500 -0.039252 0.976436 0.078340 -0.007272 -380440.000000 0 0 1
-30.406035 1.535196 19.341123 36.068862 -0.050447 1.004835 0.082166 -0.008754 -287921.000000 0 0 1
-28.975535 1.427296 18.772423 34.554633 -0.049219 0.996472 0.095938 -0.009061 -369958.000000 0 0 1
-28.589835 0.061396 18.730123 34.178940 -0.002147 0.990823 0.100135 -0.015996 302335.000000 0 0 1
-27.421135 -0.173004 17.950223 32.774366 0.006309 0.991194 0.099611 -0.018072 -38807.100000 0 0 1
-27.578535 -0.076304 16.406823 32.089955 0.002767 1.034127 0.120746 -0.013743 -400968.000000 0 0 1
-27.567135 1.259196 15.919623 31.858545 -0.045646 1.047547 0.115016 -0.017320 296061.000000 0 0 1
-27.762035 1.395696 14.532023 31.366514 -0.050231 1.089084 0.133016 -0.019038 -141945.000000 0 0 1
-27.121935 2.689896 14.047423 30.662110 -0.098855 1.094899 0.125310 -0.016385 -379830.000000 0 0 1
-25.728335 2.648896 13.931123 29.377543 -0.102595 1.076730 0.114312 -0.020657 -340749.000000 0 0 1
-25.261535 3.831096 13.286523 28.798509 -0.150510 1.091267 0.111739 -0.021921 -749002.000000 0 0 1
-23.771135 3.834796 12.999823 27.363624 -0.159944 1.075745 0.108913 -0.025513 -910591.000000 0 0 1
-23.051635 4.121096 14.175323 27.373364 -0.176908 1.026459 0.092739 -0.011131 -703629.000000 0 0 1
-21.700635 4.247096 13.880123 26.107723 -0.193270 1.010251 0.080033 -0.006577 -701441.000000 0 0 1
-20.858335 4.827096 15.032823 26.160213 -0.227419 0.958627 0.058194 -0.011236 -310414.000000 0 0 1
-21.300135 6.069796 15.497123 27.031444 -0.277607 0.960269 0.058933 -0.003381 116412.000000 0 0 1
-20.586135 6.536996 16.592523 27.236613 -0.307473 0.915746 0.047000 0.002952 -567749.000000 0 0 1
-20.760035 8.011496 16.997223 28.001227 -0.368301 0.918495 0.054523 -0.007568 -382258.000000 0 0 1
-20.216335 8.883696 16.013123 27.277103 -0.414031 0.943382 0.045501 -0.012060 550055.000000 0 0 1
-20.402235 10.302996 16.219823 28.026515 -0.467634 0.953624 0.047969 -0.009320 -403031.000000 0 0 1
-19.590935 10.946896 17.356323 28.370428 -0.509554 0.912494 0.042849 -0.006235 -175764.000000 0 0 1
-20.254935 10.838896 18.624223 29.573734 -0.491350 0.889558 0.053990 -0.014200 703255.000000 0 0 1
-19.479935 11.447296 19.636023 29.934626 -0.531286 0.855338 0.060422 -0.008459 -133281.000000 0 0 1
-12.187504 -33.892794 -20.200681 41.295572 1.225604 2.081938 0.096776 -0.032189 588314.000000 0 0 1
-13.491604 34.106996 -19.959581 41.757579 -1.194117 2.069158 0.127107 -0.029728 812945.000000 0 0 1
-14.515804 -33.470494 -19.755581 41.488137 1.161589 2.067095 0.113365 -0.045888 -407557.000000 0 0 1
-15.675904 -34.135094 -19.076181 42.128842 1.140292 2.040706 0.095907 -0.038839 -2266060.000000 0 0 1
-16.336704 33.560496 -19.931781 42.313953 -1.117778 2.061272 0.099188 -0.038174 -291317.000000 0 0 1
-17.105404 32.561196 -19.300681 41.537243 -1.087090 2.054047 0.094904 -0.021416 -270572.000000 0 0 1
-18.334604 32.966596 -18.502881 42.015601 -1.063238 2.026820 0.090614 -0.023821 -1748670.000000 0 0 1
-18.120204 33.675596 -17.286181 41.966648 -1.077150 1.995338 0.090562 -0.023876 227414.000000 0 0 1
-19.336104 34.086696 -16.666581 42.585944 -1.054796 1.972909 0.064970 -0.016495 208999.000000 0 0 1
-19.465804 33.601196 -15.238481 41.715335 -1.045722 1.944748 0.057656 -0.016609 -725994.000000 0 0 1
-19.434704 32.174796 -15.106381 40.510837 -1.027415 1.952926 0.058254 -0.012570 274266.000000 0 0 1
-19.983104 31.755096 -13.862581 39.998521 -1.009119 1.924716 0.063966 -0.005627 -24618.200000 0 0 1
-20.146404 30.252296 -13.824981 38.887132 -0.983293 1.934262 0.054777 -0.010059 -253109.000000 0 0 1
-18.906604 29.657296 -13.602781 37.710085 -1.003257 1.939836 0.060847 -0.019706 -419900.000000 0 0 1
-18.945404 28.245996 -13.736881 36.680601 -0.979987 1.954654 0.064615 -0.023388 554728.000000 0 0 1
-17.641204 27.536596 -13.185381 35.260891 -1.001025 1.954048 0.080707 -0.017427 24571.300000 0 0 1
-16.581104 27.963296 -13.930481 35.368591 -1.035570 1.975630 0.093053 -0.021529 -1037220.000000 0 0 1
-15.383704 27.217596 -13.741181 34.150782 -1.056349 1.984898 0.097415 -0.027195 871236.000000 0 0 1
-14.180204 27.837296 -14.528881 34.454050 -1.099660 2.006103 0.080042 -0.025501 19799.100000 0 0 1
-14.241904 27.763296 -15.900481 35.020818 -1.096822 2.042079 0.082298 -0.030352 152045.000000 0 0 1
-13.297804 28.596596 -16.572181 35.626311 -1.135528 2.054619 0.085460 -0.028162 165831.000000 0 0 1
-13.523804 28.362396 -18.056681 36.240343 -1.125863 2.092373 0.099566 -0.041292 -24992.600000 0 0 1
-13.137904 27.077496 -18.540181 35.348742 -1.119062 2.122916 0.088063 -0.038051 232867.000000 0 0 1
-13.420204 26.859096 -19.925981 36.035505 -1.107427 2.156702 0.076462 -0.042993 -465182.000000 0 0 1
-12.785704 25.608796 -20.491781 35.202240 -1.107733 2.192125 0.052105 -0.032328 -431515.000000 0 0 1
-11.430304 25.884696 -20.797481 35.117012 -1.154962 2.204625 0.037963 -0.024370 -301368.000000 0 0 1
-10.843804 24.766096 -21.403581 34.482761 -1.158093 2.240436 0.045342 -0.025512 -510186.000000 0 0 1
-9.718704 25.367596 -22.228581 35.100967 -1.204930 2.256574 0.064586 -0.032133 -388699.000000 0 0 1
-10.186204 25.903296 -23.442481 36.390787 -1.196131 2.270757 0.052793 -0.027797 -248870.000000 0 0 1
-9.060904 26.161196 -24.207081 36.776227 -1.237378 2.289257 0.051586 -0.033521 -442669.000000 0 0 1
-9.198104 26.808896 -25.564411 38.168850 -1.240283 2.304697 0.052451 -0.027135 -484769.000000 0 0 1
-10.144704 26.241596 -26.411561 38.588948 -1.201905 2.324622 0.029326 -0.015634 -364826.000000 0 0 1
-10.439204 26.993896 -27.564441 39.968059 -1.201786 2.331818 0.038787 -0.011612 -16822.600000 0 0 1
-11.661204 26.408296 -28.302691 40.428011 -1.154972 2.346301 0.021532 -0.008566 56559.300000 0 0 1
-12.003504 27.112896 -29.460631 41.798588 -1.154010 2.352971 0.024363 -0.002269 -345596.000000 0 0 1
-13.203104 26.642196 -30.009311 42.245559 -1.110698 2.360798 0.009907 0.003551 -211272.000000 0 0 1
-13.507504 27.050996 -31.480031 43.648612 -1.107681 2.376351 0.012374 0.000926 236769.000000 0 0 1
-12.714504 26.358296 -32.490871 43.727280 -1.121350 2.408389 0.018125 -0.002920 378779.000000 0 0 1
-12.749204 24.915296 -32.516931 42.902971 -1.097831 2.430912 0.007383 -0.005760 75083.700000 0 0 1
-11.949204 24.207996 -33.649271 43.140282 -1.112277 2.465457 0.008134 -0.003584 -53261.300000 0 0 1
-12.619104 24.229996 33.652299 43.345262 -1.090644 0.681898 0.013865 0.000371 -259049.000000 0 0 1
-11.806004 23.687996 32.677358 42.051309 -1.108433 0.680778 0.008370 0.000665 -725939.000000 0 0 1
-12.444904 23.891896 31.300053 41.296388 -1.090582 0.710652 0.013764 0.011660 -483255.000000 0 0 1
-13.525304 23.021996 31.179383 41.049970 -1.039623 0.708180 0.021125 -0.000809 -475721.000000 0 0 1
-14.019404 22.850196 29.833803 40.108988 -1.020484 0.732031 0.037164 0.006582 437865.000000 0 0 1
-15.169804 21.805196 29.855043 39.961395 -0.962964 0.727112 0.040138 -0.000432 457136.000000 0 0 1
-14.690404 20.487696 30.039913 39.216706 -0.948728 0.698204 0.009782 -0.004341 -487580.000000 0 0 1
-15.785604 19.627096 30.122183 39.265177 -0.893453 0.696414 0.016889 -0.006080 -102754.000000 0 0 1
-15.315304 18.153796 30.089333 38.333886 -0.870005 0.668217 -0.002326 -0.003408 -82969.900000 0 0 1
-14.980404 17.814796 28.780343 37.014694 -0.871611 0.680055 0.022937 -0.014798 -258502.000000 0 0 1
-14.359304 16.568996 28.700023 36.116652 -0.856723 0.652369 0.006672 -0.017089 -99477.100000 0 0 1
-14.024404 16.126496 27.278473 34.653468 -0.855005 0.664575 0.030062 -0.012742 762800.000000 0 0 1
-12.922504 16.851796 26.682763 34.101964 -0.916609 0.672221 -0.002479 -0.009311 530396.000000 0 0 1
-12.365304 16.126796 25.595383 32.681767 -0.916658 0.671049 -0.021275 -0.005975 225148.000000 0 0 1
-11.288004 17.015296 24.893333 32.196543 -0.985056 0.686975 -0.009925 -0.002847 204356.000000 0 0 1
-11.741004 18.130496 24.049233 32.325403 -0.996122 0.731799 -0.006285 0.002412 -135113.000000 0 0 1
-12.236704 19.330296 24.657623 33.636225 -1.006442 0.747975 0.005007 -0.001280 66754.600000 0 0 1
-11.300104 20.185396 25.556483 34.471385 -1.060448 0.735668 -0.005631 -0.005572 -102680.000000 0 0 1
-11.050404 19.729196 26.830393 35.088782 -1.060229 0.700309 -0.005792 -0.007372 -507848.000000 0 0 1
-12.106104 19.852996 27.737773 36.195072 -1.023211 0.697670 0.012218 -0.004098 -473232.000000 0 0 1
-11.824704 19.414496 29.213283 37.015702 -1.023737 0.661269 0.008466 -0.008128 -14986.300000 0 0 1
-10.795704 20.251296 29.775693 37.593272 -1.081031 0.656639 -0.007199 -0.008843 237228.000000 0 0 1
-10.769004 20.355796 31.183103 38.764878 -1.084189 0.636104 -0.009980 -0.008657 -132515.000000 0 0 1
-9.527304 21.116296 31.710543 39.271186 -1.146959 0.630935 -0.024788 -0.000746 -486342.000000 0 0 1
-8.414504 20.273196 31.730243 38.582570 -1.177379 0.605182 -0.020278 -0.007761 -1055030.000000 0 0 1
-7.379604 21.020596 32.291633 39.231028 -1.233173 0.603922 -0.002727 -0.005747 -566429.000000 0 0 1
-6.220004 20.195696 32.852853 39.062316 -1.272029 0.571599 -0.004205 -0.001495 -598262.000000 0 0 1
-6.541504 19.512296 34.097151 39.826331 -1.247321 0.543032 0.003787 -0.011507 536981.000000 0 0 1
-5.349504 19.048396 -33.781021 39.148639 -1.297011 2.611759 0.006901 -0.008191 580386.000000 0 0 1
-4.544404 17.993396 33.977693 38.715598 -1.323410 0.499916 -0.004751 -0.004558 -172689.000000 0 0 1
-5.280304 16.761196 33.980119 38.255298 -1.265607 0.477283 -0.007214 -0.006806 387641.000000 0 0 1
-4.751504 16.004996 32.912336 36.904723 -1.282208 0.469446 -0.003974 -0.007024 80480.400000 0 0 1
-5.386804 14.621796 32.639197 36.168104 -1.217816 0.445419 0.012170 -0.016531 -255461.000000 0 0 1
-4.841004 13.644596 33.548598 36.539277 -1.229858 0.407406 0.017320 -0.019307 -158657.000000 0 0 1
-5.462104 12.414196 33.463630 36.107636 -1.156299 0.385064 0.024118 -0.019285 -502505.000000 0 0 1
-4.617504 11.144496 33.765926 35.856086 -1.177997 0.343128 0.036605 -0.021251 -43323.300000 0 0 1
-4.403204 10.921996 -33.372481 35.389273 -1.187577 2.802363 0.052196 -0.023252 -16635.800000 0 0 1
-3.496304 9.842396 -33.252511 34.854359 -1.229471 2.837242 0.063285 -0.024122 129469.000000 0 0 1
-3.571004 9.393696 -31.789161 33.339831 -1.207519 2.835403 0.063206 -0.023707 -324597.000000 0 0 1
-4.749604 8.751296 -31.415471 32.955663 -1.073551 2.834660 0.067718 -0.019713 -428953.000000 0 0 1
-4.748204 8.420696 -30.053141 31.569682 -1.057364 2.830377 0.074267 -0.013342 -17147.600000 0 0 1
-5.982004 7.606096 -29.642221 31.181698 -0.904357 2.826052 0.067155 -0.024070 -199538.000000 0 0 1
-5.862304 7.001096 -28.368701 29.802099 -0.873698 2.830184 0.061134 -0.022352 492523.000000 0 0 1
-6.926904 6.068596 -28.126881 29.596136 -0.719447 2.825176 0.069713 -0.037916 -188414.000000 0 0 1
-6.598204 5.128596 -26.931901 28.198689 -0.660728 2.840714 0.055510 -0.035855 -295903.000000 0 0 1
-6.650104 5.748996 -25.638891 27.104014 -0.712850 2.811291 0.035007 -0.024948 559521.000000 0 0 1
-5.564404 6.627996 -25.296761 26.736100 -0.872412 2.811971 0.039081 -0.024192 -7445.350000 0 0 1
-5.884004 7.626296 -24.247281 26.090468 -0.913651 2.763456 0.015967 -0.016338 -163962.000000 0 0 1
-6.113404 7.092896 -22.978781 24.813449 -0.859431 2.754635 0.003984 -0.009064 -376038.000000 0 1 0
-7.409904 7.398496 -22.522681 24.837785 -0.784628 2.706405 0.007873 -0.001996 -191555.000000 0 1 0
-7.522404 7.729096 -21.025681 23.630589 -0.798950 2.667627 0.010834 0.000043 -148540.000000 0 1 0
-6.841804 8.904396 -20.601881 23.463504 -0.915646 2.642546 -0.005289 0.003384 -305600.000000 0 1 0
-6.836404 9.208296 -19.207581 22.370970 -0.932165 2.603317 0.002706 0.008918 -286137.000000 0 1 0
-8.104904 9.453296 -18.347581 22.174038 -0.862043 2.545321 -0.006319 0.013974 -327076.000000 0 1 0
-7.791004 9.458396 -16.960481 20.924122 -0.881763 2.515922 -0.012588 0.008481 -401794.000000 0 1 0
-8.788104 9.843496 -16.064981 20.789632 -0.841983 2.453943 -0.007493 0.002257 59996.600000 0 1 0
-9.433804 11.279896 -16.267081 21.928306 -0.874287 2.406592 -0.003407 0.001617 -738163.000000 0 1 0
-8.521804 12.242596 -15.921481 21.817329 -0.962707 2.388772 -0.015245 0.003466 -722038.000000 0 1 0
-8.919204 13.544596 -16.124581 22.869420 -0.988464 2.353321 0.006140 -0.001153 -385050.000000 0 1 0
-7.797204 14.543696 -15.832081 22.868543 -1.078670 2.335479 0.013610 -0.002167 -336492.000000 0 1 0
-7.275304 14.747296 -14.546181 21.954593 -1.112498 2.295024 0.009342 -0.005530 549514.000000 0 1 0
-8.217104 15.339896 -13.661281 22.123828 -1.079022 2.236346 0.008206 -0.016790 -400561.000000 0 1 0
-7.415504 16.040096 -12.576881 21.689912 -1.137752 2.189340 0.009586 -0.015657 210309.000000 0 1 0
-6.969104 17.344896 -12.889281 22.705668 -1.188743 2.174467 0.022318 -0.015285 355181.000000 0 1 0
-5.796104 17.403196 -13.704281 22.897016 -1.249302 2.212446 0.013935 -0.010676 -63573.300000 0 1 0
-5.683904 18.789296 -14.337481 24.308594 -1.277041 2.201621 0.052193 -0.003215 98524.300000 0 1 0
-5.078804 19.747096 -13.497481 24.452485 -1.319060 2.155543 0.054064 -0.008176 -111577.000000 0 1 0
-5.185304 21.085096 -14.044081 25.859328 -1.329659 2.144915 0.069051 -0.002036 -61846.800000 0 0 1
-4.702904 22.128196 -13.065781 26.124490 -1.361382 2.094551 0.076557 -0.002485 -430934.000000 0 0 1
-4.983704 23.552796 -13.294581 27.501225 -1.362275 2.075351 0.076076 -0.004689 414128.000000 0 0 1
-6.310704 24.096496 -13.308281 28.241395 -1.314656 2.061485 0.077807 -0.004532 532243.000000 0 0 1
-7.000104 24.029096 -11.923781 27.723193 -1.287324 2.015401 0.059879 -0.003535 -294918.000000 0 0 1
-7.442004 22.726296 -11.580881 26.570373 -1.254339 2.021786 0.069575 -0.006791 -19651.200000 0 0 1
-8.007104 22.628296 -10.240981 26.096574 -1.230693 1.974064 0.084980 -0.010871 539551.000000 0 0 1
-7.080004 22.892396 -8.977681 25.588806 -1.270854 1.929269 0.082519 -0.016680 387652.000000 0 0 1
-6.878604 24.296496 -8.836881 26.753044 -1.294905 1.907432 0.083125 -0.010694 66045.500000 0 0 1
-6.059304 24.621596 -7.698881 26.499262 -1.329494 1.865579 0.080488 -0.019307 359544.000000 0 0 1
-6.086104 26.155896 -7.461181 27.871863 -1.342179 1.841797 0.062144 -0.018244 316507.000000 0 0 1
-5.279604 26.978796 -8.309981 28.719077 -1.377544 1.864348 0.068986 -0.020725 -16354.700000 0 0 1
-5.836404 27.192996 -9.613581 29.426919 -1.359375 1.903599 0.073373 -0.016853 160112.000000 0 0 1
-5.541204 28.523696 -10.382381 30.856117 -1.378920 1.913970 0.064123 -0.020184 333402.000000 0 0 1
-6.411604 29.616896 -10.106181 31.943764 -1.357602 1.892701 0.064842 -0.024034 115409.000000 0 0 1
-7.259704 29.966196 -11.204181 32.805637 -1.333113 1.919343 0.066133 -0.019725 428703.000000 0 0 1
-8.301004 31.072096 -10.807781 33.929190 -1.309740 1.894984 0.055264 -0.021700 209117.000000 0 0 1
-9.312704 30.538496 -9.963981 33.445584 -1.274805 1.873305 0.063274 -0.016485 -365054.000000 0 0 1
-10.346804 31.466296 -9.911281 34.574812 -1.253112 1.861537 0.054222 -0.018515 -688225.000000 0 0 1
-11.556404 31.115796 -9.067781 34.408834 -1.215186 1.837477 0.066715 -0.017115 -105313.000000 0 0 1
-12.332604 30.057996 -9.594481 33.876692 -1.181448 1.857944 0.074301 -0.019894 296059.000000 0 0 1
-13.412104 29.648396 -8.749481 33.696666 -1.145972 1.833460 0.070443 -0.009545 741887.000000 0 0 1
-14.403404 28.578196 -9.253781 33.313717 -1.103954 1.852275 0.074356 -0.010243 193270.000000 0 0 1
-14.070904 27.269696 -8.838981 31.933591 -1.094438 1.851251 0.078361 -0.008783 162509.000000 0 0 1
-14.984204 26.420196 -9.518881 31.830209 -1.054882 1.874495 0.084069 -0.009088 224790.000000 0 0 1
-15.026504 24.987696 -8.930281 30.494765 -1.029380 1.867999 0.080499 -0.014547 261063.000000 0 0 1
-13.974104 24.135096 -9.375581 29.422439 -1.045965 1.895106 0.087477 -0.008115 452197.000000 0 0 1
-14.321304 22.832096 -8.957781 28.401517 -1.010585 1.891672 0.084402 -0.011175 200778.000000 0 0 1
-13.303904 21.722096 -9.342881 27.131766 -1.021266 1.922345 0.086907 -0.011220 -60817.700000 0 0 1
-13.409004 21.322896 -10.697681 27.366177 -1.009430 1.972415 0.083923 -0.007507 254628.000000 0 0 1
-12.838604 20.048796 -11.012581 26.230915 -1.001222 2.004057 0.082906 -0.014592 -160332.000000 0 0 1
-12.918004 19.669096 -12.483281 26.637951 -0.989679 2.058533 0.083687 -0.013213 -295982.000000 0 0 1
-14.223404 19.372396 -12.884481 27.269118 -0.937478 2.062914 0.090067 -0.008884 -569481.000000 0 0 1
-14.318604 19.020296 -14.229281 27.735654 -0.925501 2.109510 0.092862 -0.004750 -441912.000000 0 0 1
-15.745604 18.745996 -14.696981 28.554118 -0.872169 2.111461 0.081348 -0.000372 -263468.000000 0 0 1
-16.477104 19.931196 -14.872781 29.831981 -0.879986 2.092723 0.065803 -0.004346 -1215910.000000 0 0 1
-17.706604 19.685996 -15.431881 30.646455 -0.838284 2.098494 0.053527 -0.000030 -1090890.000000 0 0 1
-18.373604 20.919396 -16.064181 32.144492 -0.850098 2.094105 0.042924 -0.004760 -277312.000000 0 0 1
-18.926104 21.813496 -15.111681 32.594308 -0.856154 2.052883 0.049689 -0.020834 297754.000000 0 0 1
-19.283004 23.010996 -15.756781 33.905992 -0.873316 2.054114 0.051955 -0.019948 -185854.000000 0 0 1
-19.882604 24.166796 -14.916881 34.667929 -0.882352 2.015598 0.050293 -0.006343 -73105.500000 0 0 1
-21.223804 23.900996 -14.566381 35.126726 -0.844657 1.998388 0.063008 -0.011136 -39667.700000 0 0 1
-21.630904 25.012496 -13.824181 35.841720 -0.857770 1.966764 0.066567 -0.017070 -341516.000000 0 0 1
-25.743294 -0.819604 4.295219 26.112025 0.031827 1.405553 0.106043 -0.029461 -84097.000000 0 0 1
-26.348174 -0.111804 5.317019 26.879536 0.004243 1.371674 0.123696 -0.031987 315134.000000 0 0 1
-27.755524 -0.255304 5.443619 28.285461 0.009198 1.377135 0.123242 -0.034606 -100488.000000 0 0 1
-28.275114 0.639296 6.547819 29.030410 -0.022606 1.343288 0.132459 -0.033558 -893994.000000 0 0 1
-28.648494 1.901296 6.128319 29.358260 -0.066269 1.360507 0.143359 -0.039040 1361.850000 0 0 1
-28.893814 2.771296 7.187919 29.903156 -0.095621 1.328046 0.136828 -0.036204 -792987.000000 0 0 1
-27.707294 3.250596 8.008419 29.024047 -0.116785 1.291246 0.150582 -0.044078 -797933.000000 0 0 1
-27.382014 2.229896 8.910419 28.881529 -0.081257 1.257164 0.153528 -0.050355 89118.600000 0 0 1
-26.340864 2.661696 9.757919 28.216001 -0.100706 1.217674 0.150837 -0.056684 -509980.000000 0 0 1
-25.668594 1.484596 10.490519 27.769259 -0.057773 1.183405 0.151541 -0.049596 -931670.000000 0 0 1
-24.647704 0.958996 9.695119 26.503289 -0.038888 1.196295 0.148876 -0.044477 -158284.000000 0 0 1
-25.013004 -0.103404 8.839619 26.529228 0.004134 1.231098 0.123970 -0.043745 -433036.000000 0 0 1
-23.796104 -0.649704 8.050219 25.129320 0.027296 1.244696 0.108587 -0.042828 85109.500000 0 0 1
-22.882404 -1.254304 8.951919 24.603141 0.054760 1.198396 0.102013 -0.057583 -37413.400000 0 1 0
-21.840604 -1.845404 8.214819 23.407280 0.084294 1.212209 0.111874 -0.038410 -796218.000000 0 1 0
-20.575304 -2.150104 8.984819 22.554225 0.104121 1.161062 0.100478 -0.028267 -431100.000000 0 1 0
-19.810604 -0.978804 9.325219 21.917523 0.049368 1.131317 0.078479 -0.035958 777243.000000 0 1 0
-20.125304 -0.391004 10.608719 22.753586 0.019426 1.085756 0.075670 -0.031209 -458014.000000 0 1 0
-19.542304 1.038596 10.855019 22.378824 -0.053096 1.064367 0.037739 -0.016750 -335455.000000 0 1 0
-20.114904 2.060496 10.096519 22.600768 -0.102080 1.107685 0.062056 -0.022322 1751300.000000 0 1 0
-21.542404 2.347496 10.191519 23.946878 -0.108543 1.131184 0.100077 -0.026333 1292380.000000 0 1 0
-21.959004 3.629996 9.396619 24.159288 -0.163826 1.171311 0.099556 -0.043669 -352459.000000 0 1 0
-22.012704 4.711296 10.315119 24.762010 -0.210845 1.141127 0.091359 -0.037392 578950.000000 0 1 0
-22.328104 5.934596 9.680719 25.049550 -0.259784 1.174003 0.079780 -0.035308 -261976.000000 0 0 1
-22.556404 7.005696 10.802819 25.972525 -0.301140 1.141828 0.082318 -0.031489 -403422.000000 0 0 1
-23.674604 6.806196 11.608019 27.231549 -0.279940 1.130430 0.083676 -0.022233 -145977.000000 0 0 1
-23.912604 7.889996 12.486519 28.106544 -0.318704 1.110452 0.071871 -0.014213 221055.000000 0 0 1
-24.860804 7.580096 13.706219 29.383292 -0.295947 1.085508 0.076623 -0.011437 817283.000000 0 0 1
-26.160734 7.132196 13.337019 30.218013 -0.266161 1.113683 0.083552 -0.008920 647442.000000 0 0 1
-26.976024 6.849796 14.483019 31.374885 -0.248666 1.090985 0.093042 -0.010203 -6462.280000 0 0 1
-28.475754 6.664196 14.239519 32.527588 -0.229893 1.117682 0.096717 -0.002799 -325163.000000 0 0 1
-28.752364 5.474596 13.481919 32.224708 -0.188153 1.139144 0.115969 -0.008666 -14900.200000 0 0 1
-29.427194 5.792396 12.304319 32.417709 -0.194354 1.181481 0.107065 -0.014653 -664193.000000 0 0 1
-29.955624 4.587696 11.549419 32.431088 -0.151969 1.206682 0.126275 -0.020794 -597474.000000 0 0 1
-30.877384 3.843396 12.252319 33.441051 -0.123836 1.195675 0.111138 -0.019377 -45004.800000 0 0 1
-31.428874 2.816696 11.393819 33.548875 -0.089382 1.224285 0.119240 -0.018265 177426.000000 0 0 1
-32.494414 1.870296 12.034619 34.701830 -0.057494 1.216638 0.094258 -0.009064 315690.000000 0 0 1
-32.025474 0.779296 12.793019 34.494922 -0.024329 1.190854 0.109977 -0.017268 -306824.000000 0 0 1
-33.171424 0.216696 13.349919 35.757666 -0.006533 1.188185 0.092121 -0.010576 -174055.000000 0 0 1
-32.875834 -0.938004 14.344919 35.881430 0.028524 1.159512 0.076569 -0.015256 -93603.300000 0 0 1
-32.424844 -2.151704 13.809719 35.308762 0.066263 1.168956 0.080765 -0.014063 262169.000000 0 0 1
-32.507594 -3.179604 14.801619 35.860026 0.097501 1.145313 0.078174 -0.010998 -249829.000000 0 0 1
-32.303814 -4.628404 14.335719 35.643672 0.142309 1.156883 0.076464 -0.013572 -192958.000000 0 0 1
-33.317804 -5.106704 13.488219 36.305462 0.152089 1.190150 0.066632 -0.022926 -18975.000000 0 0 1
-33.360094 -6.507104 13.415319 36.540513 0.192638 1.194869 0.063359 -0.022678 98077.900000 0 0 1
-34.497707 -6.978704 12.405219 37.318676 0.199601 1.231935 0.064182 -0.019621 1351180.000000 0 0 1
-35.857934 -6.920004 12.814919 38.702714 0.190640 1.233315 0.045927 -0.016514 456079.000000 0 0 1
36.145096 -5.585604 12.986219 38.811195 -0.153320 1.229616 0.050154 -0.020310 -795510.000000 0 0 1
34.673866 -5.467404 12.560519 37.281848 -0.156393 1.227166 0.046369 -0.011220 -2303.440000 0 0 1
33.798076 -6.332104 13.281019 36.861782 -0.185204 1.202215 0.045347 -0.007419 -590561.000000 0 0 1
32.484456 -6.103004 12.861919 35.467105 -0.185710 1.199693 0.054261 -0.007730 -324259.000000 0 0 1
31.589496 -7.315704 13.262619 35.033026 -0.227575 1.182540 0.046253 -0.007405 -113626.000000 0 0 1
31.345166 -7.436804 14.634119 35.383371 -0.232948 1.144406 0.044664 -0.006158 -158127.000000 0 0 1
30.341396 -8.388304 14.866219 34.813338 -0.269727 1.129594 0.041379 0.000481 -139951.000000 0 0 1
29.693696 -8.272904 16.236019 34.839129 -0.271718 1.086000 0.044716 -0.009136 -47939.200000 0 0 1
30.544086 -8.753904 17.236019 36.147648 -0.279117 1.073760 0.032953 -0.001924 -80897.100000 0 0 1
29.878506 -8.702304 18.479319 36.193100 -0.283416 1.034942 0.044538 -0.005742 476854.000000 0 0 1
30.820656 -9.094704 19.720219 37.702965 -0.286941 1.020381 0.045869 -0.008627 1238880.000000 0 0 1
31.969026 -8.277004 19.950319 38.581637 -0.253344 1.027344 0.048178 -0.012588 465992.000000 0 0 1
33.134996 -8.789904 19.312519 39.346713 -0.259303 1.057755 0.026524 -0.004750 135148.000000 0 0 1
34.466606 -8.102804 19.685919 40.510959 -0.230899 1.063357 0.030259 -0.004459 77015.900000 0 0 1
34.863176 -8.376904 20.974719 41.539770 -0.235809 1.041494 0.022964 -0.010734 -1212150.000000 0 0 1
36.079486 -7.857504 21.307019 42.631664 -0.214435 1.047436 0.023466 -0.010951 -1197940.000000 0 0 1
-35.981561 -8.347704 22.703519 43.356738 0.227967 1.019673 0.028773 -0.009180 -119112.000000 0 0 1
35.626546 -7.967204 23.716019 43.533628 -0.220011 0.994676 0.027545 -0.010271 196571.000000 0 0 1
35.668116 -8.873004 24.814719 44.347661 -0.243817 0.976954 0.017364 -0.006455 -284901.000000 0 0 1
35.080216 -8.218304 26.123819 44.504113 -0.230122 0.943451 0.032073 -0.000167 213430.000000 0 0 1
35.919896 -7.234504 26.726819 45.353058 -0.198748 0.940597 0.013200 -0.002851 -123633.000000 0 0 1
35.499976 -6.851904 27.981719 45.718416 -0.190667 0.912153 0.008563 -0.005248 -435691.000000 0 0 1
-35.888429 -6.503204 28.954819 46.568794 0.179261 0.899803 0.005385 -0.001335 125789.000000 0 0 1
-35.504851 -7.663804 29.744219 46.947278 0.212591 0.884642 -0.002581 0.000798 1485210.000000 0 0 1
-34.166892 -7.411104 30.300519 46.264700 0.213600 0.856695 -0.007108 0.003884 1789470.000000 0 0 1
-33.643514 -8.114204 31.549719 46.830664 0.236662 0.831595 -0.013231 0.011036 -189955.000000 0 0 1
-33.718174 -9.519004 31.506019 47.118531 0.275150 0.838398 -0.016043 0.010502 323470.000000 0 0 1
-33.197974 -10.092604 32.709619 47.685274 0.295134 0.814891 -0.015384 0.009700 -186487.000000 0 0 1
-33.291654 -11.622504 32.697419 48.088856 0.335883 0.823119 0.008311 0.003674 -292487.000000 0 0 1
-34.625464 -12.002504 32.891619 49.242680 0.333677 0.839346 -0.008557 0.007770 -486805.000000 0 0 1
-34.763680 -13.353204 33.145519 49.854257 0.366737 0.843506 0.003657 -0.004842 -136709.000000 0 0 1
-36.204174 -13.836604 33.374319 51.147229 0.365053 0.859898 0.013872 0.000294 -53352.000000 0 0 1
36.248726 -15.228904 33.740519 51.810350 -0.397732 0.861591 0.020767 -0.005662 131043.000000 0 0 1
34.907026 -15.509204 34.082719 51.192457 -0.418104 0.842263 0.011015 -0.003409 -67402.000000 0 0 1
34.736026 -16.963404 -34.081185 51.535190 -0.454286 2.293372 0.012494 -0.001418 -234371.000000 0 0 1
35.040986 -17.316004 -32.730485 50.980382 -0.458968 2.267928 0.027863 -0.011092 118389.000000 0 0 1
35.002146 -18.747404 -32.621085 51.388234 -0.491726 2.258542 0.028805 -0.015542 -51305.000000 0 0 1
35.485146 -19.411104 -31.301985 51.144900 -0.500553 2.229416 0.049652 -0.030137 -375490.000000 0 0 1
34.527676 -19.280804 -30.300685 49.820090 -0.509282 2.224590 0.048605 -0.023634 -379965.000000 0 0 1
34.887806 -20.094804 -29.185585 49.726839 -0.522573 2.198043 0.048540 -0.016331 299591.000000 0 0 1
33.632486 -20.311104 -28.244285 48.388271 -0.543292 2.194076 0.030822 -0.014074 821291.000000 0 0 1
32.516106 -20.997204 -28.732985 48.205437 -0.573380 2.209372 0.044712 -0.017957 401927.000000 0 0 1
31.751816 -20.294104 -29.750985 48.011974 -0.568708 2.239103 0.023714 -0.012615 -453395.000000 0 0 1
30.235706 -20.618704 -29.752785 47.165211 -0.598497 2.253407 0.015343 -0.006714 -223394.000000 0 0 1
29.525936 -19.835404 -30.621085 46.934795 -0.591545 2.281566 0.003567 0.001677 182134.000000 0 0 1
28.159866 -20.265704 -30.585285 46.250800 -0.623803 2.293336 0.012301 -0.000217 645268.000000 0 0 1
27.280726 -19.674604 -31.707485 46.224373 -0.624807 2.326701 0.009074 0.013231 145603.000000 0 0 1
27.647206 -20.126604 -32.974885 47.505697 -0.629259 2.338000 0.004442 0.007979 248570.000000 0 0 1
26.579326 -19.839804 -33.863785 47.400784 -0.641217 2.366583 0.021642 0.002671 229984.000000 0 0 1
26.982926 -20.058004 33.209219 47.257318 -0.639237 0.791566 0.023556 0.002155 -284508.000000 0 0 1
27.939626 -19.110504 32.816319 47.145996 -0.599902 0.800905 0.017146 0.003000 38069.300000 0 0 1
28.221846 -19.235204 31.425619 46.411585 -0.598250 0.826972 0.019827 -0.004121 62938.600000 0 0 1
27.318126 -18.285504 30.582619 44.899179 -0.589861 0.821478 0.024813 -0.004155 22408.100000 0 0 1
27.547276 -16.916504 30.779419 44.636232 -0.550715 0.809913 0.030754 -0.006011 18121.700000 0 0 1
26.679126 -16.068304 30.084319 43.301645 -0.542094 0.802708 0.047095 -0.009024 -346740.000000 0 0 1
26.553226 -14.593604 30.593219 43.058010 -0.502535 0.780571 0.067526 -0.012601 -198758.000000 0 0 1
27.699026 -13.772004 30.560119 43.483618 -0.461407 0.791476 0.052697 0.003241 -93592.400000 0 0 1
27.457526 -12.540504 31.164919 43.387005 -0.428431 0.769439 0.082627 -0.016553 376292.000000 0 0 1
28.718276 -11.630504 31.083719 43.888559 -0.384797 0.783791 0.060945 -0.018563 334213.000000 0 0 1
29.009906 -11.154104 29.789619 43.051250 -0.367067 0.806600 0.043743 -0.013697 507334.000000 0 0 1
30.368026 -10.720004 29.694219 43.805048 -0.339348 0.825932 0.024803 -0.007329 505238.000000 0 0 1
30.696516 -10.312104 28.257219 42.977739 -0.324092 0.853320 0.027843 -0.006726 -235511.000000 0 0 1
30.234826 -9.012704 28.062519 42.224147 -0.289704 0.843827 0.043208 -0.008318 61283.000000 0 0 1
30.697356 -8.408204 26.846919 41.638716 -0.267349 0.870089 0.046504 -0.003104 70843.900000 0 0 1
30.496956 -6.855804 26.712319 41.117082 -0.221127 0.863653 0.048409 -0.006584 -279152.000000 0 0 1
29.168746 -6.513404 26.457219 39.915218 -0.219697 0.846197 0.056140 -0.002566 -600953.000000 0 0 1
29.033676 -5.096404 26.382419 39.559572 -0.173764 0.840751 0.060902 0.001598 -176174.000000 0 0 1
27.576546 -4.644404 26.285319 38.379088 -0.166853 0.816348 0.050461 0.007667 -339760.000000 0 0 1
26.887226 -5.153704 25.166819 37.186724 -0.189382 0.827431 0.063000 0.004679 -1128490.000000 0 0 1
25.627926 -4.612804 25.110719 36.174809 -0.178085 0.803559 0.063865 -0.000563 -991639.000000 0 0 1
24.909826 -5.028504 23.750319 34.783085 -0.199191 0.819191 0.059824 0.003937 21422.100000 0 0 1
25.547326 -4.493204 22.605519 34.407329 -0.174097 0.853968 0.065000 0.005145 45447.500000 0 0 1
24.904326 -4.828204 21.405119 33.192110 -0.191495 0.869923 0.065447 0.008268 45656.400000 0 0 1
25.279726 -3.875904 20.222919 32.604504 -0.152136 0.901736 0.080800 -0.005331 176862.000000 0 0 1
24.513626 -2.693304 20.277519 31.927254 -0.109431 0.882637 0.066844 0.003534 -29369.900000 0 0 1
25.000526 -1.722704 19.408019 31.696455 -0.068798 0.911819 0.080208 -0.014145 -483425.000000 0 0 1
23.933726 -0.724104 18.920919 30.518007 -0.030245 0.902064 0.047528 -0.016017 -213629.000000 0 0 1
23.034026 -1.455204 18.082019 29.319676 -0.063092 0.906228 0.052259 -0.019658 32836.400000 0 0 1
21.940126 -0.577304 17.761419 28.234207 -0.026307 0.890434 0.057454 -0.019193 253860.000000 0 0 1
20.824726 -1.476104 17.196619 27.047585 -0.070764 0.881763 0.057683 -0.021328 -320509.000000 0 0 1
21.160326 -2.209404 16.014019 26.628738 -0.104036 0.925568 0.080373 -0.030065 -23652.100000 0 0 1
20.023626 -2.895704 15.554519 25.520066 -0.143619 0.915365 0.086988 -0.031505 -60901.900000 0 0 1
20.275226 -3.488904 14.134919 24.961034 -0.170408 0.968812 0.089881 -0.039657 -516178.000000 0 1 0
19.180526 -4.219504 13.651419 23.917735 -0.216540 0.963358 0.078198 -0.032323 342813.000000 0 1 0
19.300826 -4.583404 12.291519 23.336901 -0.233153 1.016084 0.074256 -0.026411 291856.000000 0 1 0
18.251326 -5.687604 11.868319 22.501484 -0.302089 1.015205 0.045128 -0.020751 192452.000000 0 1 0
18.488326 -6.972104 12.443319 23.350903 -0.360618 1.008791 0.079616 -0.030508 565083.000000 0 1 0
17.381926 -7.868904 12.484219 22.801464 -0.425102 0.991401 0.052812 -0.007000 -199553.000000 0 1 0
17.706226 -9.372704 12.661719 23.699730 -0.486847 1.007169 0.085007 -0.034114 -830737.000000 0 1 0
18.391826 -9.869904 11.576419 23.868133 -0.492533 1.064415 0.072174 -0.040573 134460.000000 0 1 0
18.099826 -11.221104 11.318119 24.116731 -0.554964 1.082292 0.079391 -0.042002 -43678.900000 0 1 0
18.900226 -11.730304 10.114419 24.436041 -0.555460 1.144047 0.086827 -0.040702 -89155.000000 0 1 0
18.392826 -11.185504 8.956919 23.316046 -0.546387 1.176507 0.083260 -0.032868 273842.000000 0 1 0
19.138026 -11.640604 7.861219 23.739556 -0.546460 1.233280 0.085755 -0.039155 -347919.000000 0 1 0
18.836926 -10.786404 6.624319 22.694888 -0.520044 1.274598 0.081148 -0.032639 -310630.000000 0 1 0
19.301726 -9.432304 6.770919 22.524883 -0.454548 1.265477 0.093366 -0.026822 676552.000000 0 1 0
19.373326 -8.860104 5.457319 21.991125 -0.428937 1.320016 0.048556 -0.034890 -972678.000000 0 1 0
20.248526 -7.626504 5.330119 22.283998 -0.360212 1.329264 0.103002 -0.031725 -478138.000000 0 1 0
20.476126 -7.218004 4.008119 22.077961 -0.338908 1.388240 0.067863 -0.029597 581339.000000 0 1 0
21.321426 -6.093804 3.929919 22.520700 -0.278385 1.395396 0.109881 -0.026953 -476349.000000 0 1 0
21.900226 -5.796504 2.512819 22.793281 -0.258745 1.460328 0.104144 -0.025214 333875.000000 0 1 0
20.852126 -5.420204 1.620919 21.605952 -0.254307 1.495704 0.078217 -0.038997 1067830.000000 0 1 0
21.420926 -5.153304 0.346719 22.034810 -0.236087 1.555061 0.083910 -0.026509 298772.000000 0 1 0
-25.785104 -15.285504 0.277219 29.976576 0.535111 1.561548 0.054757 -0.011270 143304.000000 0 0 1
-24.819604 -14.580204 -0.535681 28.790312 0.531138 1.589404 0.054023 -0.008775 763621.000000 0 0 1
-23.499504 -15.101404 -0.531081 27.938525 0.571174 1.589806 0.066363 -0.010704 801795.000000 0 0 1
-22.635104 -14.573104 0.676419 26.929182 0.572024 1.545675 0.069775 -0.025055 -343291.000000 0 0 1
-23.017704 -15.179504 1.905019 27.638038 0.583004 1.501814 0.069114 -0.006639 -139620.000000 0 0 1
-22.183104 -14.776404 2.959619 26.817747 0.587618 1.460211 0.065749 -0.004084 97637.000000 0 0 1
-22.633204 -15.392004 4.328019 27.711144 0.597220 1.413971 0.071706 0.001722 -20971.200000 0 0 1
-22.384604 -16.775204 4.307919 28.302582 0.643122 1.417993 0.086697 -0.009464 121467.000000 0 0 1
-22.739604 -17.420304 5.499019 29.168404 0.653712 1.381135 0.078505 -0.016805 -91951.900000 0 0 1
-22.887804 -18.931204 5.179619 30.150797 0.691066 1.398149 0.069680 -0.016483 -26995.200000 0 0 1
-23.272304 -19.618804 6.338719 31.091429 0.700422 1.365483 0.053200 -0.016424 -4277.370000 0 0 1
-23.677404 -20.917704 5.887319 32.137678 0.723594 1.386565 0.063444 -0.017546 139381.000000 0 0 1
-24.346204 -21.813404 7.022919 33.434767 0.730583 1.359172 0.058423 -0.009933 -252937.000000 0 0 1
-23.500204 -22.277404 8.032719 33.362658 0.758693 1.327637 0.052988 -0.002005 -651331.000000 0 0 1
-24.123504 -22.948204 9.120619 34.521721 0.760435 1.303423 0.046885 0.005915 -815732.000000 0 0 1
-23.253804 -23.346204 10.260819 34.511869 0.787381 1.268919 0.030640 0.003347 -487353.000000 0 0 1
-23.189904 -22.317204 11.184019 34.072152 0.766223 1.236351 0.039255 0.002779 -19168.400000 0 0 1
-22.380704 -22.640104 12.292519 34.125889 0.791160 1.202302 0.032715 0.001233 -477411.000000 0 0 1
-22.681004 -21.826604 13.557619 34.272987 0.766204 1.164100 0.033185 0.006493 -508679.000000 0 0 1
-23.872704 -22.262004 14.145619 35.575292 0.750499 1.161870 0.035129 0.006012 -305534.000000 0 0 1
-24.267604 -21.420604 15.224119 35.770556 0.723165 1.131166 0.039445 0.010966 -148879.000000 0 0 1
-25.676354 -21.634104 15.861419 37.133465 0.700164 1.129462 0.022697 0.003090 -280166.000000 0 0 1
-26.674414 -21.419804 14.913919 37.319665 0.676573 1.159687 0.028855 0.001630 -335858.000000 0 0 1
-27.061024 -22.561204 14.131919 37.960744 0.694964 1.189335 0.021607 0.004946 -521711.000000 0 0 1
-28.129324 -23.501404 14.707219 39.495280 0.696002 1.189225 0.028163 0.001915 -308574.000000 0 0 1
-27.669184 -24.210504 15.835019 40.030989 0.718829 1.164109 0.019479 0.004234 250469.000000 0 0 1
-28.672564 -25.093804 16.350219 41.462569 0.718935 1.165450 0.012597 0.001854 441899.000000 0 0 1
-28.475414 -26.560284 15.794419 42.020966 0.750614 1.185461 0.018718 0.009484 33252.200000 0 0 1
-28.792184 -26.785534 14.451019 41.896142 0.749309 1.218638 0.030070 -0.003720 -528672.000000 0 0 1
-30.043234 -27.390544 14.274619 43.088312 0.739244 1.233129 0.059599 -0.014874 -324999.000000 0 0 1
-30.552354 -27.718394 12.838119 43.203854 0.736802 1.269088 0.093465 -0.021868 -48955.200000 0 0 1
-29.869834 -28.741714 12.191819 43.208027 0.766153 1.284746 0.089262 -0.026538 -255482.000000 0 0 1
-30.485244 -28.933154 10.971819 43.437983 0.759283 1.315445 0.104707 -0.024896 8485.060000 0 0 1
-30.009384 -30.181344 10.224419 43.772314 0.788255 1.335036 0.092052 -0.030266 -51393.600000 0 0 1
-30.513044 -31.362624 10.775819 45.064158 0.799128 1.329335 0.086107 -0.015125 -52595.300000 0 0 1
-29.924784 -32.487874 10.179619 45.327468 0.826442 1.344285 0.080579 -0.020214 -158429.000000 0 0 1
-30.132704 -33.788694 11.051019 46.602369 0.842531 1.331381 0.058702 -0.010862 401033.000000 0 0 1
-31.467414 -34.277646 11.037419 47.822378 0.828117 1.337896 0.064405 -0.013509 339597.000000 0 0 1
-31.467284 33.045823 11.802219 47.132884 -0.809862 1.317700 0.059727 -0.009823 -14995.600000 0 0 1
-32.865504 32.708701 12.397219 47.996787 -0.783007 1.309542 0.086754 -0.011091 1286780.000000 0 0 1
-33.927094 32.344635 11.461219 48.255390 -0.761524 1.330993 0.067453 -0.014038 1037110.000000 0 0 1
-34.559256 33.413614 10.818719 49.273283 -0.768545 1.349427 0.084944 -0.012830 -146350.000000 0 0 1
-35.981357 33.087634 10.262319 49.947620 -0.743527 1.363861 0.075018 -0.009280 352382.000000 0 0 1
-36.027956 32.345015 9.063019 49.258014 -0.731585 1.385751 0.052238 -0.006546 -190937.000000 0 0 1
35.176876 32.243405 8.583019 48.484204 0.741915 1.392831 0.046930 -0.005183 -377834.000000 0 0 1
35.124176 31.838305 7.098219 47.935062 0.736367 1.422170 0.040771 -0.005847 -169907.000000 0 0 1
35.454196 30.482785 6.933719 47.268136 0.710144 1.423576 0.053294 -0.007605 222026.000000 0 0 1
35.213086 30.055095 5.642819 46.638092 0.706534 1.449508 0.070159 -0.013438 -137645.000000 0 0 1
35.564816 28.520775 5.428719 45.910367 0.675921 1.452273 0.066863 -0.008072 -93405.100000 0 0 1
34.718036 27.575205 6.056319 44.748330 0.671232 1.435038 0.061393 -0.010076 223390.000000 0 0 1
35.066846 27.278515 7.426119 45.043849 0.661120 1.405176 0.055255 -0.012150 -88034.400000 0 0 1
34.053876 26.240355 7.968219 43.723166 0.656527 1.387530 0.054021 -0.017468 149252.000000 0 0 1
34.231766 24.971055 7.427619 43.017868 0.630232 1.397263 0.040066 -0.016749 -798121.000000 0 0 1
33.097996 24.241625 7.654719 41.734021 0.632154 1.386335 0.029933 -0.012525 -1229620.000000 0 0 1
33.031226 23.019885 6.697019 40.814545 0.608651 1.405967 0.036474 -0.011118 395515.000000 0 0 1
33.997846 21.993085 6.925519 41.079340 0.574190 1.401398 0.042152 -0.008320 -204526.000000 0 0 1
35.340796 22.261385 6.630519 42.290719 0.562120 1.413363 0.052040 -0.015913 -452069.000000 0 0 1
36.115016 20.924385 6.814219 42.291345 0.525121 1.408965 0.052884 -0.017985 -203034.000000 0 0 1
35.892486 20.109685 5.647819 41.527917 0.510698 1.434373 0.063340 -0.027824 166070.000000 0 0 1
-36.230844 18.780585 5.834219 41.224053 -0.478227 1.428795 0.078014 -0.024853 -414159.000000 0 0 1
35.730536 17.812685 4.849019 40.217856 0.462470 1.449933 0.080450 -0.029793 -974144.000000 0 0 1
-36.075424 17.691985 3.661819 40.346641 -0.455952 1.479912 0.084273 -0.029481 66464.700000 0 0 1
35.849796 16.700085 2.806419 39.648162 0.435944 1.499954 0.081953 -0.024507 -530133.000000 0 0 1
-35.723465 16.209885 1.645919 39.263665 -0.425976 1.528864 0.095072 -0.013995 155584.000000 0 0 1
-34.637073 15.368685 1.936719 37.943039 -0.417608 1.519731 0.085726 -0.034344 764258.000000 0 0 1
-33.502394 16.126285 2.401219 37.259003 -0.448614 1.506305 0.083705 -0.031904 -257349.000000 0 0 1
-32.149814 15.460285 2.648419 35.772127 -0.448237 1.496693 0.075461 -0.038073 -320108.000000 0 0 1
-32.110104 14.632085 3.748819 35.485354 -0.427571 1.464955 0.080724 -0.040080 271767.000000 0 0 1
-30.773804 14.339485 4.113819 34.198996 -0.436050 1.450214 0.072678 -0.039060 -79000.200000 0 0 1
-30.590724 13.517385 5.396319 33.876723 -0.416080 1.410822 0.083066 -0.031054 -230705.000000 0 0 1
-30.710974 12.174685 5.336319 33.464357 -0.377423 1.410650 0.090685 -0.025989 233628.000000 0 0 1
-30.502954 11.487785 6.531119 33.242367 -0.360183 1.373040 0.083521 -0.014337 -167730.000000 0 0 1
-30.734134 10.004685 6.531619 32.974881 -0.314705 1.371399 0.091022 -0.024790 -619325.000000 0 0 1
-32.063074 9.605685 6.585519 34.112739 -0.291078 1.376525 0.088927 -0.013458 -673441.000000 0 0 1
-32.178574 8.226385 6.225419 33.791861 -0.250287 1.385510 0.095446 -0.021398 -662163.000000 0 0 1
-33.606754 7.723085 6.237719 35.042390 -0.225886 1.391838 0.100950 -0.019024 -317558.000000 0 0 1
-34.270295 7.610985 7.526119 35.902962 -0.218540 1.359606 0.101064 -0.014611 -351953.000000 0 0 1
-35.585745 7.196385 7.400419 37.052657 -0.199536 1.369717 0.087442 -0.009235 -335586.000000 0 0 1
36.215746 6.465285 8.575619 37.774614 0.176660 1.341779 0.075896 -0.007092 145243.000000 0 0 1
35.628316 7.320585 9.566119 37.609554 0.202651 1.313617 0.075838 -0.007636 354982.000000 0 0 1
-35.945702 7.930785 10.466119 38.269185 -0.217153 1.293780 0.085191 -0.010951 64517.500000 0 0 1
35.953256 8.679985 11.643919 38.775761 0.236891 1.265801 0.088834 -0.014508 -259500.000000 0 0 1
35.333626 7.876285 12.663719 38.351934 0.219326 1.234283 0.069535 -0.019621 508702.000000 0 0 1
34.715386 8.773085 13.542919 38.282316 0.247532 1.209204 0.078953 -0.023725 -448361.000000 0 0 1
34.067516 8.196385 14.816919 38.043626 0.236105 1.170738 0.075120 -0.028663 -853859.000000 0 0 1
32.704346 7.898585 14.670519 36.704033 0.236977 1.159609 0.063852 -0.029583 -88503.500000 0 0 1
32.349066 7.319785 15.944319 36.800308 0.222528 1.122683 0.056875 -0.025282 680633.000000 0 0 1
30.831086 6.943685 16.097919 35.467079 0.221521 1.099678 0.041701 -0.017120 1063790.000000 0 0 1
29.961736 8.123385 16.103719 34.971772 0.264760 1.092263 0.032260 -0.022554 947528.000000 0 0 1
28.563046 7.896785 16.054219 33.703780 0.269731 1.074317 0.038514 -0.019632 344876.000000 0 0 1
27.893746 7.377485 17.325919 33.655250 0.258565 1.030015 0.037105 -0.020252 -733680.000000 0 0 1
27.831296 8.334485 18.314719 34.343466 0.290965 1.008322 0.047711 -0.021833 64157.900000 0 0 1
27.219326 7.859285 19.476119 34.379926 0.281094 0.968548 0.047127 -0.012683 -224220.000000 0 0 1
27.981136 6.822385 20.376819 35.280359 0.239155 0.955049 0.051628 -0.011343 -165890.000000 0 0 1
27.280226 6.595485 21.564119 35.393819 0.237216 0.915666 0.031671 0.000169 -101768.000000 0 0 1
27.642956 5.465085 22.262519 35.911279 0.195186 0.902141 0.036264 0.004600 -1089570.000000 0 0 1
26.891626 5.318285 23.581819 36.160005 0.195248 0.860377 0.037704 0.008236 1073030.000000 0 0 1
25.500226 4.959085 23.542719 35.058718 0.192075 0.834535 0.023756 0.008613 1180630.000000 0 0 1
24.581826 6.007085 23.189219 34.323333 0.239674 0.829003 0.030610 0.011833 380390.000000 0 0 1
23.076426 5.672085 23.398919 33.349714 0.241018 0.793124 0.034709 0.006072 511977.000000 0 0 1
22.592226 4.613085 22.574919 32.269432 0.201420 0.795992 0.024550 0.006730 193333.000000 0 0 1
21.176926 4.699285 22.587819 31.317009 0.218368 0.765171 0.033663 -0.002242 -803406.000000 0 0 1
20.456226 3.615885 21.759419 30.083287 0.174955 0.762218 0.048960 -0.005004 -564323.000000 0 0 1
19.154126 3.732885 21.312119 28.896737 0.192474 0.741396 0.049477 -0.013566 -100955.000000 0 0 1
18.150826 3.887885 22.321719 29.031488 0.211010 0.693709 0.069477 -0.012301 -39234.700000 0 0 1
16.701226 3.909085 21.745519 27.696201 0.229921 0.667867 0.091613 -0.013609 365327.000000 0 0 1
16.252626 2.633885 21.321119 26.938362 0.160662 0.657573 0.077948 -0.017249 351.882000 0 0 1
15.098226 2.707285 20.496019 25.600247 0.177426 0.642470 0.084312 -0.027777 -115815.000000 0 0 1
14.118326 1.547185 20.855119 25.232061 0.109151 0.597877 0.077098 -0.022539 -164698.000000 0 0 1
14.645726 0.199885 20.707119 25.363794 0.013647 0.615639 0.063965 -0.030053 782261.000000 0 0 1
13.941426 -0.717115 21.618719 25.734153 -0.051392 0.573368 0.057092 -0.025272 327887.000000 0 0 1
14.265826 -2.208115 21.558619 25.945397 -0.153565 0.590032 0.041279 -0.019624 -367642.000000 0 0 1
13.673426 -2.748115 20.401319 24.712923 -0.198340 0.599651 0.032439 -0.011427 290929.000000 0 1 0
13.909026 -4.130715 20.418519 25.048748 -0.288685 0.617806 0.016753 -0.002362 -94346.400000 0 0 1
13.521126 -4.653515 19.011519 23.788945 -0.331468 0.644876 0.016787 -0.004687 382626.000000 0 1 0
12.133026 -4.639015 18.718219 22.783822 -0.365195 0.606659 0.015628 -0.014201 41338.800000 0 1 0
11.695326 -5.304015 17.551319 21.747691 -0.425774 0.631669 0.014294 -0.011326 -569641.000000 0 1 0
10.179726 -5.297115 17.482919 20.912645 -0.479802 0.580848 0.020939 -0.010263 -646742.000000 0 1 0
9.719026 -6.309915 18.339519 21.693604 -0.575836 0.563505 0.026077 -0.005482 -388201.000000 0 1 0
8.346626 -6.331315 18.670019 21.408441 -0.648949 0.511346 0.021999 -0.002148 248271.000000 0 1 0
8.140826 -7.530115 19.616719 22.534226 -0.746447 0.514518 0.041284 -0.007621 -242018.000000 0 1 0
8.089726 -8.754215 18.970319 22.404307 -0.824827 0.560994 0.034357 -0.013430 280603.000000 0 1 0
8.892326 -9.666215 19.758719 23.725854 -0.827074 0.586663 0.036607 -0.002686 276696.000000 0 1 0
9.148826 -10.943715 18.935719 23.707117 -0.874493 0.645605 0.052710 -0.011861 55420.100000 0 1 0
9.751326 -10.718515 17.688319 22.865948 -0.832612 0.686347 0.059304 -0.009122 -231658.000000 0 1 0
10.044826 -11.939315 17.032619 23.098829 -0.871361 0.741613 0.058262 -0.016810 -25112.600000 0 1 0
10.436726 -11.672215 15.610019 22.109694 -0.841222 0.786925 0.062031 -0.024545 -34567.500000 0 1 0
10.612326 -12.940015 15.032019 22.495045 -0.883909 0.838960 0.055195 -0.022907 10077.400000 0 1 0
10.344226 -12.871515 13.633119 21.413567 -0.893832 0.880640 0.047621 -0.020125 -137074.000000 0 1 0
10.968826 -14.089415 12.881819 22.017448 -0.909294 0.945826 0.059996 -0.023771 170395.000000 0 1 0
12.335126 -14.113915 12.557919 22.562342 -0.852550 0.980524 0.050191 -0.023534 -198146.000000 0 1 0
12.616126 -13.325115 11.415519 21.611095 -0.812722 1.014288 0.033948 -0.019293 -657002.000000 0 1 0
14.090726 -13.232015 10.955619 22.218469 -0.753980 1.055163 0.048136 -0.029509 1489.800000 0 1 0
14.544726 -14.369715 10.312219 22.899337 -0.779345 1.103663 0.059903 -0.024769 -684046.000000 0 1 0
15.776326 -14.115915 9.722819 23.295595 -0.729909 1.140250 0.051442 -0.027333 -428154.000000 0 1 0
16.520526 -15.496815 9.371719 24.513429 -0.753435 1.178502 0.051103 -0.024789 79299.300000 0 1 0
16.945426 -16.321015 10.453219 25.744763 -0.766630 1.152688 0.046672 -0.020406 74296.500000 0 0 1
16.040826 -17.205815 11.073319 25.999357 -0.820425 1.130832 0.075860 -0.020896 -234719.000000 0 0 1
16.589526 -17.537415 12.451219 27.162588 -0.813166 1.094607 0.067490 -0.023257 237168.000000 0 0 1
17.608226 -18.532615 12.377519 28.402648 -0.810970 1.119883 0.088809 -0.027174 108652.000000 0 0 1
18.013526 -18.948615 13.682119 29.508262 -0.810691 1.088663 0.069039 -0.028940 -1088360.000000 0 0 1
19.181326 -19.890415 13.552219 30.776851 -0.803545 1.114821 0.028087 -0.026342 -1147480.000000 0 0 1
20.200126 -19.084615 13.046619 30.699868 -0.757010 1.131864 0.017704 -0.014078 -1262920.000000 0 0 1
21.215626 -19.842715 12.442619 31.601502 -0.751973 1.166105 0.004325 -0.014281 -521790.000000 0 0 1
22.168026 -18.918415 11.754519 31.424458 -0.706470 1.187417 0.021626 -0.000771 -1000230.000000 0 0 1
21.939826 -18.931215 10.355919 30.773234 -0.711918 1.227574 0.019001 0.003413 741667.000000 0 0 1
20.726626 -18.304115 9.889619 29.367299 -0.723411 1.227327 0.023469 0.001597 774737.000000 0 0 1
20.530526 -16.738715 10.093319 28.347172 -0.684006 1.206747 0.059223 -0.014149 88170.600000 0 0 1
21.473526 -15.973915 9.345519 28.348140 -0.639578 1.234843 0.045228 0.007247 351444.000000 0 0 1
21.287026 -14.606415 9.558119 27.528939 -0.601380 1.216210 0.064458 -0.012357 -99667.800000 0 0 1
-34.588127 25.176496 7.783819 43.483127 -0.629203 1.390818 0.064503 -0.017206 -1057100.000000 0 0 1
-33.692854 24.379596 8.417219 42.431388 -0.626379 1.371099 0.058831 -0.019351 -1063830.000000 0 0 1
-32.683444 25.226996 8.868919 42.228741 -0.657344 1.359200 0.058960 -0.017763 -79570.600000 0 0 1
-31.549774 24.448796 9.670019 41.068736 -0.659265 1.333105 0.061096 -0.026320 372685.000000 0 0 1
-30.817744 23.643796 8.776719 39.822019 -0.654427 1.348573 0.070477 -0.030929 -289363.000000 0 0 1
-30.004594 22.767896 9.505219 38.845874 -0.649118 1.323596 0.070563 -0.030813 106303.000000 0 0 1
-29.172124 21.858396 8.558419 37.443942 -0.643047 1.340192 0.075848 -0.037098 320471.000000 0 0 1
-30.052704 20.963896 7.925019 37.489410 -0.609094 1.357796 0.080602 -0.041754 873636.000000 0 0 1
-29.292004 20.261696 6.944819 36.287578 -0.605143 1.378226 0.071257 -0.040071 458441.000000 0 0 1
-30.274864 19.349896 6.187319 36.459138 -0.568703 1.400265 0.072128 -0.035749 -50407.800000 0 0 1
-30.908604 18.247696 6.824319 36.536167 -0.533313 1.382910 0.073949 -0.036173 672863.000000 0 0 1
-31.979574 17.834896 5.982919 37.102183 -0.508733 1.408834 0.061301 -0.031484 386731.000000 0 0 1
-32.809554 16.555196 6.352819 37.294767 -0.467309 1.399621 0.079243 -0.027246 -219724.000000 0 0 1
-33.527624 16.700296 7.524219 38.204912 -0.462131 1.372557 0.080895 -0.027234 -177320.000000 0 0 1
-34.426421 15.644096 7.741819 38.598600 -0.426525 1.368854 0.089566 -0.026812 -315516.000000 0 0 1
-35.379027 15.949796 8.901019 39.815822 -0.423541 1.345336 0.083203 -0.025232 -180574.000000 0 0 1
36.220906 16.971596 8.554219 40.904325 0.438179 1.360114 0.068081 -0.017422 106537.000000 0 0 1
35.499036 17.444596 9.684619 40.722075 0.456752 1.330673 0.070693 -0.004620 14909.700000 0 0 1
34.703116 18.729396 9.469819 40.555814 0.494904 1.335120 0.046466 -0.005696 -14658.600000 0 0 1
33.411556 18.535996 8.917019 39.235551 0.506504 1.341524 0.030145 0.001594 283116.000000 0 0 1
32.706956 19.778196 8.928219 39.250925 0.543875 1.341322 0.021722 0.008374 208785.000000 0 0 1
31.210516 19.747696 8.546019 37.909132 0.564136 1.343408 0.003311 0.009842 -171524.000000 0 0 1
30.622366 21.065496 8.471019 38.121419 0.602567 1.346714 -0.001971 0.006089 497898.000000 0 0 1
29.342346 21.164596 7.849819 37.020711 0.624878 1.357136 -0.011229 0.010042 402393.000000 0 0 1
29.240386 20.655596 6.339719 36.357198 0.615013 1.395527 -0.028878 0.023874 -751094.000000 0 0 1
29.413206 19.283696 6.139119 35.702751 0.580311 1.397987 -0.018421 0.016926 -68491.800000 0 0 1
29.262406 18.836396 4.812719 35.132044 0.571938 1.433375 -0.017205 0.020604 -183175.000000 0 0 1
27.911796 18.985696 4.042919 33.998091 0.597316 1.451598 0.016506 0.027150 -251052.000000 0 0 1
26.939126 18.120996 4.665519 32.800215 0.592144 1.428072 0.008722 0.016186 907188.000000 0 0 1
25.582726 18.528296 4.480319 31.903713 0.626817 1.429898 0.045045 0.009558 532595.000000 0 0 1
25.055026 19.816396 5.111119 32.350694 0.669177 1.412141 0.062455 0.011570 -675848.000000 0 0 1
25.552126 20.943296 4.374919 33.326757 0.686597 1.439143 0.037026 0.006994 281025.000000 0 0 1
24.861026 22.115896 4.732719 33.609256 0.727029 1.429511 0.052192 0.007313 14179.400000 0 0 1
25.691526 23.434396 4.514319 35.065717 0.739485 1.441699 0.043029 0.009594 384536.000000 0 0 1
26.863126 23.461696 5.324719 36.061494 0.717911 1.422598 0.027191 0.004786 126885.000000 0 0 1
27.509566 24.696496 5.155319 37.326538 0.731566 1.432239 0.028662 0.004330 -477661.000000 0 0 1
28.924256 24.754896 5.793319 38.509480 0.707882 1.419784 0.025356 0.003331 -102471.000000 0 0 1
29.892446 23.873196 5.292319 38.619897 0.673909 1.433328 0.017671 0.003967 165611.000000 0 0 1
30.259396 23.812396 3.907619 38.703110 0.666728 1.469660 0.023412 -0.002879 -550631.000000 0 0 1
31.159256 24.965296 3.420319 40.073231 0.675482 1.485341 0.049753 -0.013620 -1013170.000000 0 0 1
30.474646 26.123196 3.262319 40.271183 0.708665 1.489699 0.043662 -0.010892 -441307.000000 0 0 1
31.271556 27.130496 2.644419 41.484539 0.714611 1.507008 0.086213 -0.014281 -725839.000000 0 0 1
30.700196 28.537096 2.871519 42.013254 0.748899 1.502395 0.085583 -0.007201 821844.000000 0 0 1
29.432646 28.834196 2.283819 41.266298 0.775128 1.515425 0.102775 -0.014950 928145.000000 0 0 1
28.313886 28.143496 2.873819 40.024884 0.782380 1.498934 0.063153 0.000701 -602605.000000 0 0 1
26.959826 28.638996 2.367019 39.403389 0.815591 1.510689 0.025197 0.008421 -328767.000000 0 0 1
26.836726 30.034296 2.571419 40.359398 0.841564 1.507040 0.032192 -0.005519 -96392.400000 0 0 1
25.539926 30.525696 2.322319 39.868523 0.874092 1.512514 0.022109 0.000889 134899.000000 0 0 1
25.216026 31.947496 2.983519 40.809213 0.902616 1.497622 0.037412 -0.010705 -133557.000000 0 0 1
24.997926 32.042996 4.376319 40.875446 0.908285 1.463526 0.033158 -0.027591 -231118.000000 0 0 1
26.134726 31.905196 5.179319 41.566703 0.884495 1.445869 0.045191 -0.030271 -459249.000000 0 0 1
25.865526 31.766496 6.680919 41.506269 0.887433 1.409131 0.050534 -0.036447 24582.700000 0 0 1
25.204726 30.555796 7.087219 40.238831 0.881070 1.393744 0.041887 -0.035921 107167.000000 0 0 1
26.005526 29.418696 7.038119 39.890878 0.846903 1.393434 0.075808 -0.034446 -283755.000000 0 0 1
25.282526 28.165496 7.559219 38.595895 0.839286 1.373667 0.062282 -0.022069 214852.000000 0 0 1
24.233326 27.702896 6.703119 37.411714 0.852103 1.390652 0.037148 -0.020242 377908.000000 0 0 1
23.926626 26.335396 6.866319 36.237865 0.833286 1.380165 0.045774 -0.016402 -72443.700000 0 0 1
22.825626 25.871596 5.852119 34.994228 0.847866 1.402776 0.056772 -0.003805 -75907.300000 0 0 1
22.938526 25.838396 4.402819 34.830784 0.844780 1.444051 0.029165 -0.003671 -68810.200000 0 0 1
23.119326 27.135896 3.821419 35.853359 0.865152 1.464009 0.038038 -0.008003 -135401.000000 0 0 1
23.132926 27.048696 2.263719 35.663548 0.863272 1.507279 0.034773 0.004329 -251929.000000 0 0 1
24.294026 26.441496 1.758719 35.950598 0.827700 1.521856 0.012014 0.020322 -146036.000000 0 0 1
24.371626 26.456896 0.382819 35.973463 0.826401 1.560154 0.019715 0.016269 -621949.000000 0 0 1
25.502026 25.665196 -0.248781 36.181729 0.788587 1.577672 0.027977 0.013306 -2204170.000000 0 0 1
26.673726 26.393396 -0.282481 37.525709 0.780116 1.578324 0.023971 0.017559 -658472.000000 0 0 1
27.729706 25.715296 -0.938281 37.829795 0.747725 1.595602 0.022964 0.019739 347083.000000 0 0 1
28.400566 24.535496 -0.071881 37.531159 0.712514 1.572712 0.015947 0.020218 -722168.000000 0 0 1
27.539236 23.421096 0.083219 36.151960 0.704763 1.568494 0.013657 0.018078 177673.000000 0 0 1
28.034486 22.457696 0.998919 35.934362 0.675395 1.542994 0.012776 0.018422 -526307.000000 0 0 1
27.028426 21.386496 1.285919 34.490167 0.669389 1.533504 0.009581 0.018825 -520080.000000 0 0 1
26.613326 20.509596 0.277919 33.600445 0.656587 1.562525 0.028858 0.007840 548196.000000 0 0 1
25.385426 19.899696 0.645819 32.261972 0.664848 1.550777 0.021118 0.006305 -333489.000000 0 0 1
24.959326 18.798896 -0.302481 31.248327 0.645534 1.580476 0.037919 -0.006503 -153613.000000 0 0 1
23.679526 18.365896 0.153719 29.967478 0.659686 1.565667 0.042431 -0.008017 280579.000000 0 0 1
23.310626 17.187096 -0.525881 28.966500 0.635328 1.588952 0.063751 -0.034879 -1062210.000000 0 0 1
21.884326 16.921396 -0.163581 27.663769 0.658197 1.576710 0.085931 -0.024592 -2489310.000000 0 0 1
21.214926 15.772096 -0.610681 26.442485 0.639292 1.593893 0.085232 -0.033931 747009.000000 0 0 1
19.868226 15.661496 -0.152481 25.299251 0.667546 1.576823 0.086433 -0.030230 604573.000000 0 0 1
18.841426 16.638996 -0.809781 25.149777 0.723403 1.603000 0.088610 -0.029414 -623076.000000 0 0 1
19.081026 17.940596 -0.396481 26.193658 0.754603 1.585933 0.081719 -0.018982 401696.000000 0 0 1
18.032626 18.740296 -0.953581 26.024673 0.804640 1.607446 0.064485 -0.020760 601172.000000 0 0 1
18.123326 20.201496 -0.462881 27.143501 0.839570 1.587850 0.073189 -0.006457 -103758.000000 0 0 1
18.035226 20.261196 0.951119 27.142035 0.843458 1.535747 0.079697 -0.006310 145915.000000 0 0 1
18.088026 21.526996 1.643019 28.165364 0.871991 1.512428 0.082607 -0.003777 -688722.000000 0 0 1
16.994226 22.530496 1.311519 28.251496 0.924564 1.524357 0.070308 -0.003352 -708542.000000 0 0 1
15.788926 22.339496 1.988319 27.428027 0.955540 1.498240 0.069388 -0.001498 -558272.000000 0 0 1
14.775526 23.201996 1.553819 27.551100 1.003741 1.514369 0.044223 -0.005752 -457543.000000 0 0 1
13.386326 22.883996 2.091119 26.594055 1.041506 1.492084 0.034501 -0.006324 -390948.000000 0 0 1
13.116926 23.232496 3.393019 26.894520 1.056818 1.444299 0.040799 -0.001884 -395842.000000 0 0 1
11.748326 23.491296 3.547419 26.503742 1.107057 1.436547 0.020856 0.002404 -37346.100000 0 0 1
11.377726 23.867496 4.996819 26.908701 1.125959 1.384017 0.030893 0.001849 133988.000000 0 0 1
11.740726 22.858396 5.908219 26.367745 1.096305 1.344808 0.051335 -0.022847 235944.000000 0 0 1
11.109226 23.136496 7.151419 26.643107 1.123146 1.299049 0.039421 -0.004056 -664936.000000 0 0 1
11.593826 22.076696 8.192819 26.247278 1.087223 1.253352 0.042978 0.002502 15746.100000 0 0 1
12.908126 22.247496 8.644819 27.134916 1.045059 1.246558 0.053912 -0.003777 -609086.000000 0 0 1
13.857226 21.704896 7.811019 26.909798 1.002592 1.276291 0.077023 -0.018459 -146235.000000 0 0 1
15.359826 21.734996 8.281919 27.873365 0.955597 1.269114 0.076130 -0.019113 579474.000000 0 0 1
15.559326 20.602696 9.096719 27.373601 0.923970 1.232037 0.082265 -0.016580 168439.000000 0 0 1
16.884926 20.524596 9.593219 28.255789 0.882385 1.224397 0.089250 -0.024076 193828.000000 0 0 1
17.157326 21.501696 10.785419 29.546946 0.897305 1.197135 0.076273 -0.015709 -717039.000000 0 0 1
16.647226 21.128796 12.013319 29.459735 0.903482 1.150766 0.072262 -0.019071 -145454.000000 0 0 1
16.868126 22.081096 12.994619 30.675212 0.918448 1.133359 0.062361 -0.018034 79971.400000 0 0 1
17.872226 21.519996 14.054819 31.305984 0.877736 1.105206 0.067988 -0.016970 888024.000000 0 0 1
19.247326 21.642896 13.665019 32.025104 0.843917 1.129959 0.080355 -0.013329 434929.000000 0 0 1
20.069326 21.216696 14.758719 32.722253 0.813182 1.102877 0.063832 -0.013659 -411251.000000 0 0 1
21.514026 21.623896 14.553919 33.797378 0.787945 1.125614 0.059257 -0.010838 -440488.000000 0 0 1
22.170326 21.052896 13.421919 33.390054 0.759551 1.157125 0.064516 -0.005908 -630643.000000 0 0 1
23.543226 21.226296 13.366419 34.402039 0.733692 1.171754 0.060346 -0.000359 -498495.000000 0 0 1
24.260226 20.651096 12.099619 34.079717 0.705209 1.207841 0.068927 0.003238 84609.100000 0 0 1
23.978226 21.350396 10.918519 33.911780 0.727490 1.242989 0.077389 -0.005188 303720.000000 0 0 1
24.893926 21.064396 9.867619 34.070313 0.702264 1.276961 0.083884 -0.007257 -123614.000000 0 0 1
24.797726 22.012596 8.594519 34.254158 0.725970 1.317182 0.061953 -0.001937 -5155.870000 0 0 1
25.128026 23.408096 8.731319 35.434342 0.749977 1.321824 0.057893 -0.003148 894606.000000 0 0 1
26.543026 23.630196 8.671119 36.580141 0.727408 1.331474 0.043138 0.004114 313284.000000 0 0 1
26.966526 24.946396 9.363219 37.910237 0.746504 1.321230 0.056641 -0.000296 182481.000000 0 0 1
28.299066 25.374296 9.104119 39.084230 0.730960 1.335701 0.056086 -0.002593 403273.000000 0 0 1
28.593886 26.510696 9.846619 40.216703 0.747612 1.323443 0.075205 -0.015351 760260.000000 0 0 1
29.947576 27.130196 9.351419 41.477149 0.736078 1.343382 0.077304 -0.021766 616606.000000 0 0 1
29.725376 27.948696 8.233219 41.623473 0.754602 1.371681 0.091578 -0.026065 363461.000000 0 0 1
30.930506 28.358996 7.620219 42.649696 0.742053 1.391162 0.083782 -0.023259 -94448.800000 0 0 1
30.682236 29.285396 6.402719 42.895557 0.762109 1.420973 0.102351 -0.015886 69730.400000 0 0 1
30.509476 30.641096 6.803519 43.772055 0.787551 1.414733 0.113146 -0.027559 195494.000000 0 0 1
30.303016 31.560696 5.753819 44.129998 0.805725 1.440041 0.122976 -0.023131 -75161.900000 0 0 1
30.189946 32.973696 6.264819 45.143609 0.829442 1.431572 0.090132 -0.025273 550907.000000 0 0 1
28.892586 33.351996 6.730519 44.636723 0.856919 1.419435 0.089413 -0.033746 479733.000000 0 0 1
28.846216 -33.819594 6.917919 44.985851 -0.864596 1.416404 0.068098 -0.025913 -583026.000000 0 0 1
27.485476 -33.361894 7.430019 43.859692 -0.881676 1.400571 0.073676 -0.031774 -352717.000000 0 0 1
26.507826 -33.670294 6.442919 43.334337 -0.903862 1.421564 0.073463 -0.032922 -911868.000000 0 0 1
25.303426 -33.064094 6.765319 42.181361 -0.917585 1.409714 0.061335 -0.035908 -761342.000000 0 0 1
24.318526 -33.155494 5.583519 41.495219 -0.937959 1.435829 0.051430 -0.024221 -466786.000000 0 0 1
24.800126 -32.553294 4.411819 41.160993 -0.919766 1.463406 0.049721 -0.003181 -319702.000000 0 0 1
24.016026 -32.741494 3.277019 40.737131 -0.937936 1.490266 0.050813 -0.008935 -442855.000000 0 0 1
24.565726 -32.112694 2.000819 40.480901 -0.917774 1.521350 0.061977 -0.001128 -137956.000000 0 0 1
24.424126 -30.675694 1.985819 39.261682 -0.898374 1.520196 0.067573 0.002661 73038.100000 0 0 1
25.204426 -30.135494 0.937919 39.297466 -0.874269 1.546927 0.064599 -0.000561 -128867.000000 0 0 1
25.453326 -28.581594 1.069919 38.287388 -0.843227 1.542848 0.064040 -0.003157 -504901.000000 0 0 1
24.389426 -27.707094 0.942419 36.924455 -0.848995 1.545271 0.067559 0.001680 -756787.000000 0 0 1
23.778126 -27.542694 -0.310581 36.388127 -0.858621 1.579332 0.059499 -0.001282 887119.000000 0 0 1
22.472126 -26.651394 -0.316181 34.862491 -0.870270 1.579866 0.056407 0.000467 872059.000000 0 0 1
22.823226 -25.268894 -0.077181 34.050296 -0.836208 1.573063 0.060457 -0.004459 44840.100000 0 0 1
22.959326 -24.835594 1.245519 33.845069 -0.824635 1.533987 0.043901 0.008333 486360.000000 0 0 1
21.619126 -24.787894 2.048719 32.954872 -0.853574 1.508589 0.027420 0.011236 470391.000000 0 0 1
21.728626 -24.051694 3.268619 32.577616 -0.836098 1.470294 0.015937 0.017524 158998.000000 0 0 1
20.452226 -23.859094 3.870519 31.662768 -0.862132 1.448248 0.014697 0.022494 214813.000000 0 0 1
20.518426 -23.012694 5.139919 31.257138 -0.842634 1.405606 0.002634 0.023916 5158.110000 0 0 1
20.705326 -21.641094 4.893019 30.347803 -0.807492 1.408858 0.014797 0.033081 -325058.000000 0 0 1
19.492026 -21.013794 4.615219 29.031343 -0.822950 1.411145 0.006720 0.024774 -1033730.000000 0 0 1
19.577326 -19.461694 4.624019 27.989477 -0.782436 1.404830 0.008823 0.012388 -117847.000000 0 0 1
19.794426 -18.820594 5.874019 27.938113 -0.760185 1.358965 0.023572 0.010286 78207.800000 0 0 1
18.585326 -18.563994 6.564019 27.076237 -0.784824 1.325929 0.033556 0.003804 382718.000000 0 0 1
18.738096 -25.935434 -12.031481 34.183615 -0.945135 1.930467 0.055926 -0.018308 -256392.000000 0 0 1
19.097796 -24.676204 -12.457281 33.597987 -0.912152 1.950639 0.059435 -0.014553 -613111.000000 0 0 1
18.010896 -24.033804 -13.044081 32.743918 -0.927680 1.980532 0.034083 -0.015910 -358298.000000 0 0 1
18.288896 -22.559504 -13.265381 31.927814 -0.889567 1.999267 0.033049 -0.023254 -718.218000 0 0 1
18.241396 -21.622004 -12.228381 30.818710 -0.870001 1.978807 0.042369 -0.027912 -358915.000000 0 0 1
19.355996 -21.641304 -11.335581 31.168831 -0.841083 1.943015 0.041422 -0.032450 -647659.000000 0 0 1
19.264396 -22.583704 -10.089381 31.351814 -0.864550 1.898439 0.053173 -0.019126 -72637.200000 0 0 1
18.406196 -22.170804 -9.047581 30.202505 -0.877910 1.875032 0.051016 -0.020104 -200982.000000 0 0 1
17.041396 -22.213004 -9.389881 29.529589 -0.916390 1.894397 0.057449 -0.010355 -853849.000000 0 0 1
16.203896 -21.610704 -8.227081 28.236035 -0.927418 1.866453 0.052694 -0.022231 -906579.000000 0 0 1
16.277896 -20.205704 -8.317481 27.247401 -0.892645 1.881005 0.055007 -0.032633 351472.000000 0 0 1
15.417996 -19.604504 -7.350981 26.001694 -0.904371 1.857416 0.060684 -0.037373 1470460.000000 0 0 1
13.875496 -19.541004 -7.723581 25.180031 -0.953343 1.882556 0.063905 -0.026562 1102350.000000 0 0 1
13.282596 -20.821804 -7.976981 25.953942 -1.002962 1.883205 0.049531 -0.029327 -637025.000000 0 0 1
11.885496 -20.678104 -8.127481 25.197321 -1.049122 1.899222 0.058203 -0.031819 -307010.000000 0 0 1
11.297296 -22.067004 -7.995081 26.048088 -1.097631 1.882768 0.068502 -0.029098 -427229.000000 0 0 1
11.418896 -22.535604 -6.693081 26.135072 -1.101799 1.829777 0.068119 -0.032091 -83736.900000 0 0 1
10.792096 -23.743404 -6.418581 26.859203 -1.144181 1.812103 0.050770 -0.030497 -111841.000000 0 0 1
11.002896 -24.277904 -4.959081 27.112227 -1.145279 1.754741 0.061050 -0.028524 -243521.000000 0 0 1
10.238996 -25.365334 -4.533581 27.727073 -1.187138 1.735041 0.066711 -0.017226 -481458.000000 0 0 1
10.767496 -25.906914 -3.351381 28.254892 -1.176895 1.689689 0.057069 -0.021478 -201191.000000 0 0 1
9.836796 -26.792934 -2.515881 28.652287 -1.218933 1.658717 0.057076 -0.016688 -2988.380000 0 0 1
8.855996 -26.079484 -1.777281 27.599400 -1.243437 1.635237 0.038131 -0.011679 -144955.000000 0 0 1
8.172696 -27.001734 -0.931981 28.226853 -1.276889 1.603820 0.035609 -0.010959 146283.000000 0 0 1
7.489396 -26.419224 0.304219 27.461956 -1.294561 1.559718 0.044700 -0.010133 183437.000000 0 0 1
6.243496 -25.798964 0.065719 26.543778 -1.333356 1.568320 0.042743 -0.017462 -122419.000000 0 0 1
5.632696 -25.313234 1.267019 25.963290 -1.351844 1.521977 0.037859 -0.012696 134994.000000 0 0 1
4.185896 -24.785804 1.154619 25.163286 -1.403492 1.524895 0.040167 -0.015822 495042.000000 0 0 1
3.309396 -25.846684 0.685519 26.066706 -1.443450 1.544495 0.047510 -0.015597 240894.000000 0 0 1
1.987296 -25.365904 0.857919 25.458093 -1.492611 1.537091 0.038420 -0.012674 274313.000000 0 0 1
0.789596 -26.248464 0.452219 26.264231 -1.540724 1.553577 0.038140 -0.007242 368894.000000 0 0 1
0.445396 -27.352774 1.315219 27.387998 -1.554514 1.522756 0.036915 -0.003889 316431.000000 0 0 1
1.312896 -28.505354 1.134719 28.558125 -1.524771 1.531052 0.022152 -0.006766 313080.000000 0 0 1
0.807196 -29.844584 1.799719 29.909694 -1.543756 1.510588 0.035698 -0.004843 70462.700000 0 0 1
0.615896 -29.668754 3.204319 29.847646 -1.550040 1.463233 0.033148 -0.005188 45495.500000 0 0 1
0.203996 -30.823574 3.882419 31.067789 -1.564178 1.445503 0.024452 -0.010273 -125235.000000 0 0 1
0.231996 -30.606374 5.390819 31.078367 -1.563216 1.396456 0.029349 -0.011083 -1028040.000000 0 0 1
1.560996 -30.491234 5.742619 31.066538 -1.519646 1.384878 0.017701 0.001959 -937361.000000 0 0 1
1.738896 -30.702784 7.102419 31.561513 -1.514220 1.343818 0.021017 -0.001542 1539760.000000 0 0 1
3.196996 -31.188884 7.558519 32.250558 -1.468649 1.334227 0.019296 0.001232 1606690.000000 0 0 1
3.340996 -32.560634 7.242319 33.523251 -1.468546 1.353041 0.011645 -0.004644 -157366.000000 0 0 1
4.650096 -32.959094 7.582619 34.138269 -1.430635 1.346813 0.009663 -0.004310 69439.600000 0 0 1
4.729796 34.054510 7.305619 35.149007 1.432790 1.361423 0.001867 0.004303 -360578.000000 0 0 1
4.611096 33.684269 5.962019 34.517211 1.434750 1.397200 0.000851 0.002492 -20427.300000 0 0 1
4.583796 32.307005 5.734619 33.130645 1.429855 1.396829 -0.006677 0.003196 -520369.000000 0 0 1
5.115596 31.932465 4.333519 32.628684 1.411946 1.437590 -0.011951 0.004177 -1251870.000000 0 0 1
6.466696 32.026475 4.120219 32.931588 1.371558 1.445353 -0.003425 0.003694 -1463810.000000 0 0 1
7.055496 30.758435 4.214019 31.837389 1.345313 1.438046 -0.004983 0.008489 -853887.000000 0 0 1
8.504596 30.736405 3.780619 32.114605 1.300855 1.452800 0.000753 0.005097 -329707.000000 0 0 1
9.484696 31.325095 4.633219 33.055828 1.276789 1.430170 0.012798 -0.001898 714122.000000 0 0 1
10.653896 31.749425 3.913419 33.717152 1.247041 1.454468 0.024204 -0.006922 668197.000000 0 0 1
11.818796 32.281135 4.765319 34.705387 1.219833 1.433053 0.039244 -0.025312 -71818.400000 0 0 1
12.445696 31.271435 5.547419 34.111169 1.192025 1.407443 0.046738 -0.019028 318090.000000 0 0 1
13.504096 31.924635 6.283519 35.228193 1.170622 1.391471 0.069928 -0.028768 603181.000000 0 0 1
14.403596 30.941995 7.092719 34.859393 1.135125 1.365899 0.068505 -0.030751 -321450.000000 0 0 1
13.736996 30.530325 8.260919 34.482584 1.147987 1.328876 0.052376 -0.023601 30432.700000 0 0 1
14.398096 29.496945 8.944619 34.020305 1.116697 1.304749 0.047539 -0.021507 -55197.200000 0 0 1
14.103696 29.391675 10.479019 34.243169 1.123395 1.259789 0.039045 -0.010858 -59427.600000 0 0 1
14.548196 30.519955 11.204719 35.618302 1.125980 1.250785 0.039455 -0.009599 17310.300000 0 0 1
13.842396 30.713095 12.416719 35.903775 1.147360 1.217670 0.027145 0.001065 -478286.000000 0 0 1
14.588196 31.581015 13.432319 37.290792 1.138066 1.202309 0.022063 0.002752 657609.000000 0 0 1
15.725196 30.982085 14.083119 37.490074 1.101121 1.185699 0.019071 0.000874 435424.000000 0 0 1
16.415296 31.872705 14.849119 38.804995 1.095200 1.178123 0.023717 0.004806 405513.000000 0 0 1
17.605396 31.328875 15.743319 39.233920 1.058822 1.157895 0.023349 0.002478 1907480.000000 0 0 1
18.844496 30.981135 15.061619 39.265738 1.024328 1.177125 0.041622 0.004431 1224590.000000 0 0 1
19.152096 29.572355 15.149319 38.351387 0.996085 1.164714 0.032666 -0.004124 1188750.000000 0 0 1
20.592996 29.251825 14.574019 38.628264 0.957397 1.183929 0.054388 -0.010128 1446980.000000 0 0 1
21.741996 29.473125 15.372019 39.720001 0.935221 1.173410 0.067670 -0.014742 -225164.000000 0 0 1
22.930996 29.060745 14.786619 39.862283 0.902755 1.190772 0.070007 -0.018961 -272530.000000 0 0 1
24.129796 29.187655 15.777119 41.025404 0.879978 1.176055 0.100059 -0.029747 -32687.000000 0 0 1
24.122696 28.173885 16.777519 40.708198 0.862709 1.145994 0.081962 -0.025843 131612.000000 0 0 1
25.159896 28.494525 17.700119 41.931522 0.847468 1.135014 0.082709 -0.030890 433497.000000 0 0 1
26.249796 27.341735 17.737719 41.847927 0.805771 1.133092 0.063663 -0.015444 102471.000000 0 0 1
25.846196 26.064985 18.253119 40.994947 0.789613 1.109340 0.060929 -0.009107 42469.500000 0 0 1
25.476996 26.064305 19.623619 41.394586 0.796793 1.076897 0.085929 -0.012626 160682.000000 0 0 1
24.782296 24.717025 20.060719 40.342608 0.784080 1.050360 0.079930 -0.011540 420777.000000 0 0 1
25.705196 23.648135 20.231219 40.364510 0.743742 1.045796 0.053752 -0.004672 609426.000000 0 0 1
24.951996 22.442585 20.370719 39.258603 0.732500 1.025250 0.054434 -0.001179 343701.000000 0 0 1
25.867296 21.172985 20.440919 39.182183 0.685934 1.021967 0.024337 -0.010993 79388.300000 0 0 1
25.201196 19.917285 20.386419 38.044771 0.668817 1.005278 0.026405 0.009959 33493.900000 0 0 1
26.076296 18.817085 20.239719 37.996081 0.625087 1.009033 0.012742 -0.007508 12031.000000 0 0 1
26.935396 18.247985 21.374319 38.927703 0.595446 0.989536 0.027780 0.000782 -250960.000000 0 0 1
26.201896 17.648485 22.417419 38.736921 0.592758 0.953651 0.026097 0.004224 259376.000000 0 0 1
26.973096 17.374185 23.628819 39.846346 0.572238 0.936019 0.042617 0.006786 110119.000000 0 0 1
26.176596 16.587785 24.670519 39.610647 0.564822 0.898447 0.023848 0.011837 -19589.800000 0 0 1
25.772096 15.298885 24.227519 38.538676 0.535717 0.890974 0.033569 0.006238 258614.000000 0 0 1
24.773296 14.786685 25.080419 38.228127 0.538122 0.855194 0.038254 0.008326 -164064.000000 0 0 1
23.984596 13.584085 24.576019 36.929242 0.515322 0.842647 0.038183 0.006625 -774140.000000 0 0 1
22.933596 13.191985 25.388519 36.668177 0.522004 0.806006 0.040793 -0.002418 -459441.000000 0 0 1
22.310796 12.159885 24.693419 35.431616 0.499014 0.799686 0.043031 0.004069 -153604.000000 0 0 1
20.982996 11.594485 25.283319 34.841993 0.504811 0.758808 0.043355 -0.001350 328287.000000 0 0 1
19.897396 12.484485 25.047519 34.338709 0.560354 0.753315 0.050584 -0.007347 111344.000000 0 0 1
18.705296 11.730585 24.870619 33.257216 0.560127 0.726015 0.056907 -0.002470 112548.000000 0 0 1
17.458596 12.641985 24.947519 32.969699 0.626726 0.712576 0.051217 -0.013090 -178644.000000 0 0 1
17.196596 13.037485 26.301819 34.021826 0.648693 0.687103 0.065894 -0.005834 -340533.000000 0 0 1
16.080096 13.861085 26.307019 33.804710 0.711421 0.678993 0.077170 -0.005761 -1102590.000000 0 0 1
15.754496 14.126485 27.761019 34.906101 0.730969 0.651285 0.058415 0.001750 -399498.000000 0 0 1
15.292696 12.991785 28.449519 34.814195 0.704228 0.614292 0.059106 0.007512 31850.500000 0 0 1
15.307396 13.187485 29.855519 36.049663 0.711139 0.594948 0.044215 0.001999 -717843.000000 0 0 1
16.681896 13.047585 30.481419 37.116601 0.663756 0.607226 0.045779 0.008336 -1088330.000000 0 0 1
17.486496 14.151685 30.293919 37.732867 0.680381 0.638732 0.071788 -0.013310 -488821.000000 0 0 1
18.841196 13.745985 30.266519 38.210011 0.630298 0.656539 0.064405 0.000568 -206117.000000 0 0 1
19.732796 14.973085 29.935919 38.855319 0.649104 0.691256 0.075002 -0.004911 -278962.000000 0 0 1
19.479596 15.512785 28.631419 37.945478 0.672518 0.715842 0.086153 -0.017328 291679.000000 0 0 1
19.915896 14.733985 27.561919 37.059312 0.636948 0.732172 0.080178 -0.012689 -271557.000000 0 0 1
19.652596 15.417885 26.221319 36.214545 0.665231 0.761133 0.060158 -0.006317 -33223.900000 0 0 1
20.720396 16.340185 26.084019 37.104077 0.667753 0.791195 0.050361 0.000402 483585.000000 0 0 1
20.998796 16.666285 24.730519 36.473457 0.670874 0.825701 0.043850 0.006357 -266152.000000 0 0 1
22.026196 17.740485 24.402919 37.354793 0.678041 0.858896 0.042818 0.000941 -425726.000000 0 0 1
22.041896 18.126585 23.041419 36.678676 0.688233 0.891563 0.047434 -0.000134 629995.000000 0 0 1
23.109196 19.020485 22.623619 37.518555 0.688651 0.923542 0.050889 -0.004114 476009.000000 0 0 1
23.327296 20.378685 23.344719 38.786975 0.718036 0.924956 0.065794 -0.008608 -5631.560000 0 0 1
22.410496 21.398085 22.915119 38.538436 0.762292 0.934023 0.059258 -0.004286 455821.000000 0 0 1
22.361696 22.555285 23.697619 39.627812 0.789708 0.929787 0.082706 -0.005263 90593.600000 0 0 1
21.352296 23.614785 23.147219 39.362068 0.835670 0.942139 0.071335 -0.011103 120833.000000 0 0 1
21.735496 24.429955 21.998819 39.410691 0.843697 0.978589 0.087016 -0.013033 -526121.000000 0 0 1
20.760296 25.352735 21.670519 39.285652 0.884662 0.986498 0.091123 -0.020012 -643304.000000 0 0 1
21.131696 26.304965 20.500219 39.481119 0.894025 1.024834 0.093450 -0.025344 -155483.000000 0 0 1
21.124696 25.774035 19.178919 38.449767 0.884211 1.048577 0.089181 -0.022702 -11432.400000 0 0 1
21.422996 26.802805 18.241019 38.859618 0.896493 1.082176 0.091739 -0.024596 -308007.000000 0 0 1
21.475196 26.414035 16.748619 37.939446 0.888165 1.113575 0.072648 -0.021613 -502156.000000 0 0 1
20.251396 25.986005 16.220319 36.721795 0.908793 1.113294 0.063881 -0.020281 -492523.000000 0 0 1
20.469896 25.561555 14.911419 35.982776 0.895563 1.143508 0.067367 -0.013585 -1071850.000000 0 0 1
19.357096 24.726165 14.302519 34.505687 0.906595 1.143406 0.069136 -0.009337 872254.000000 0 0 1
18.103296 25.391335 13.972219 34.171218 0.951418 1.149561 0.046021 -0.003052 1155770.000000 0 0 1
17.313596 25.780545 15.103219 34.532656 0.979403 1.118135 0.043040 -0.015078 -1022880.000000 0 0 1
15.895696 26.284445 14.748119 34.074217 1.026887 1.123174 0.034768 -0.011179 454437.000000 0 0 1
14.981696 25.206455 14.355619 32.648130 1.034535 1.115524 0.049471 -0.007503 682453.000000 0 0 1
14.434896 24.379125 15.352519 32.224336 1.036205 1.074211 0.062656 -0.014572 -219030.000000 0 0 1
13.230296 25.004865 16.083119 32.541523 1.084134 1.053843 0.054559 -0.026363 -512710.000000 0 0 1
13.738196 25.903975 17.057519 33.922160 1.083164 1.043912 0.061780 -0.025245 328112.000000 0 0 1
12.806296 26.129065 18.084619 34.260513 1.115086 1.014722 0.045603 -0.017167 -120728.000000 0 0 1
13.219196 27.295685 18.959019 35.766548 1.119791 1.012105 0.037700 -0.024566 -169269.000000 0 0 1
13.337996 28.502225 18.256519 36.381032 1.133105 1.045101 0.028702 -0.014298 67918.100000 0 0 1
14.049396 29.400075 19.084819 37.762154 1.125009 1.040956 0.025727 0.001163 -183714.000000 0 0 1
14.108096 30.753655 18.297719 38.465988 1.140694 1.075053 0.001383 -0.010229 345702.000000 0 0 1
12.829696 31.386855 18.269719 38.516469 1.182761 1.076588 0.004777 0.000412 610515.000000 0 0 1
12.927896 32.634715 17.549519 39.244627 1.193622 1.107183 0.012236 0.006725 -565115.000000 0 0 1
11.670796 33.442228 17.798819 39.640737 1.235027 1.105147 0.023091 -0.002701 -826608.000000 0 0 1
11.556696 -33.886764 17.083719 39.670184 -1.242127 1.125590 0.032116 0.004749 -129218.000000 0 0 1
12.352396 -32.806444 17.527119 39.192402 -1.210691 1.107156 0.033003 -0.007000 -360872.000000 0 0 1
12.229596 -32.330584 18.943119 39.416640 -1.209164 1.069473 0.038474 -0.016306 -354031.000000 0 0 1
13.095396 -33.039924 19.795619 40.681600 -1.193440 1.062604 0.049105 -0.009651 93115.500000 0 0 1
12.794096 -32.827734 21.143419 41.090062 -1.199171 1.030299 0.042844 -0.012110 -524758.000000 0 0 1
13.888496 -33.460934 22.016319 42.393900 -1.177370 1.024732 0.065187 -0.016456 336266.000000 0 0 1
15.006896 -32.559934 21.847919 41.984376 -1.138914 1.023498 0.071829 -0.017270 588140.000000 0 0 1
16.152496 -33.055114 22.569319 43.161533 -1.116267 1.020543 0.063287 -0.016596 178542.000000 0 0 1
17.468896 -32.411984 22.207519 42.998523 -1.076465 1.028071 0.069023 -0.016948 -378178.000000 0 0 1
17.357096 -31.023664 22.497919 42.070095 -1.060705 1.006558 0.087289 -0.024333 -87035.000000 0 0 1
18.586496 -30.435714 22.179019 41.996422 -1.022561 1.014415 0.076785 -0.017034 -416087.000000 0 0 1
-5.231904 13.136596 18.484623 23.272822 -1.191783 0.653011 0.033326 -0.002014 -248282.000000 0 1 0
-4.810904 14.446496 18.066723 23.627368 -1.249332 0.700295 0.034158 -0.001747 112117.000000 0 1 0
-5.872904 15.217896 17.603223 23.998934 -1.202486 0.747339 0.030085 -0.003889 -173650.000000 0 1 0
-5.314104 16.662596 17.386623 24.661234 -1.262070 0.788347 0.042929 -0.012681 201565.000000 0 1 0
-4.790504 17.247496 18.556923 25.783414 -1.299875 0.767393 0.042283 -0.010992 250971.000000 0 0 1
-4.587804 18.626996 18.451123 26.616853 -1.329304 0.804860 0.042090 -0.003576 -459735.000000 0 0 1
-3.899804 19.207296 19.703223 27.791108 -1.370482 0.782751 0.030922 -0.002628 -353338.000000 0 0 1
-4.850704 19.470596 20.688223 28.820756 -1.326637 0.770125 0.020788 0.003259 -154211.000000 0 0 1
-4.417204 20.368496 21.671523 30.067295 -1.357239 0.765888 0.021644 0.006447 441663.000000 0 0 1
-5.471904 20.512696 22.849823 31.190172 -1.310110 0.748667 -0.001308 0.007638 643012.000000 0 0 1
-5.489404 19.367196 23.727953 31.116516 -1.294602 0.703548 -0.008604 0.001358 -234302.000000 0 0 1
-6.265604 19.642396 24.872763 32.306901 -1.262016 0.692127 -0.024902 0.003224 -39269.200000 0 0 1
-5.577004 20.421696 26.014943 33.539915 -1.304205 0.683066 -0.027675 0.008143 -512444.000000 0 0 1
-5.184204 21.738196 25.575423 33.963619 -1.336686 0.718150 -0.017418 0.009638 -31142.500000 0 0 1
-4.134304 22.278896 26.343613 34.748059 -1.387313 0.710353 -0.010790 0.014804 440112.000000 0 0 1
-2.696004 21.768396 26.025193 34.035895 -1.447574 0.700314 0.005127 0.014553 -223831.000000 0 0 1
-2.302304 20.507796 26.525493 33.607619 -1.459000 0.661177 0.011366 0.013110 677807.000000 0 0 1
-0.967004 20.125296 26.145173 33.008070 -1.522784 0.656580 0.019032 0.012213 1043160.000000 0 0 1
-0.377304 18.800296 26.766313 32.711298 -1.550730 0.612421 0.027005 0.013354 -296888.000000 0 0 1
-0.986804 17.648196 26.305863 31.692760 -1.514939 0.591639 0.027801 0.008264 -237476.000000 0 0 1
-0.329504 16.418996 26.634073 31.290028 -1.550731 0.552529 0.023011 0.009300 1349860.000000 0 0 1
1.141596 16.153296 26.067373 30.687785 1.500241 0.555877 0.035628 0.009431 1162720.000000 0 0 1
1.225296 15.946696 24.678973 29.408335 1.494110 0.575017 0.034735 0.000845 -157891.000000 0 0 1
0.981196 14.612896 24.314293 28.384579 1.503751 0.542148 0.044859 -0.000562 2603.700000 0 0 1
1.097996 14.492996 22.765323 27.009488 1.495180 0.568213 0.055558 -0.016160 -511628.000000 0 0 1
2.413596 14.316996 22.357123 26.657884 1.403784 0.575963 0.053313 -0.017181 -626352.000000 0 0 1
2.415496 13.928396 20.971123 25.290766 1.399082 0.593120 0.051143 -0.023079 -879742.000000 0 0 1
3.840696 13.863196 20.499223 25.043109 1.300532 0.611901 0.043097 -0.025156 -825681.000000 0 0 1
4.393396 15.049296 19.992223 25.406145 1.286756 0.665019 0.039668 -0.027347 92792.000000 0 0 1
5.806496 14.983996 20.154023 25.776349 1.201101 0.673120 0.044438 -0.018243 380149.000000 0 0 1
6.619096 15.934096 19.244523 25.846847 1.177081 0.730921 0.049882 -0.022414 -66253.600000 0 0 1
6.394096 15.567296 17.896423 24.566382 1.181067 0.754678 0.051111 -0.034911 67062.000000 0 1 0
6.757496 16.615496 17.026823 24.731582 1.184529 0.811426 0.038020 -0.019024 -125259.000000 0 1 0
6.695996 16.204296 15.534923 23.425401 1.178943 0.845756 0.030840 -0.012399 -63892.400000 0 1 0
7.666896 15.259396 15.149723 22.828591 1.105200 0.845136 0.030298 -0.009698 -119149.000000 0 1 0
7.792396 14.016696 15.758823 22.483988 1.063407 0.794150 0.042321 -0.016302 -62837.400000 0 1 0
8.939796 13.248696 15.039723 21.946325 0.977206 0.815787 0.045744 -0.015038 759801.000000 0 1 0
10.232196 13.836396 15.184423 22.950172 0.934041 0.847812 0.036101 -0.010712 65333.200000 0 1 0
11.194196 13.106896 14.465423 22.502204 0.863945 0.872590 0.035929 0.005200 352416.000000 0 1 0
12.592896 13.781896 14.500723 23.638795 0.830449 0.910401 0.027309 0.018529 -454134.000000 0 1 0
13.295996 13.730496 15.738923 24.759316 0.801474 0.881911 0.024035 0.011036 1139590.000000 0 1 0
14.687396 14.085296 15.699023 25.701644 0.764475 0.913703 0.025545 0.015235 1253730.000000 0 0 1
15.655396 13.305696 14.749923 25.292157 0.704442 0.948156 0.029026 0.011315 -1885140.000000 0 0 1
16.926996 13.781796 14.674423 26.302087 0.683334 0.978921 0.038042 0.001857 -859181.000000 0 0 1
17.780896 13.151496 13.720023 26.026163 0.636839 1.015538 0.040627 0.001913 89307.600000 0 0 1
19.187896 13.778796 13.760623 27.338349 0.622769 1.043331 0.043963 -0.005190 -274441.000000 0 0 1
19.837496 13.516696 14.977423 28.294001 0.598114 1.012962 0.021175 -0.005105 -92267.300000 0 0 1
21.145496 14.058096 14.869323 29.425479 0.586728 1.041042 0.049394 -0.024113 408301.000000 0 0 1
22.089096 13.484196 15.994923 30.423499 0.548065 1.017209 0.041406 -0.016970 -146077.000000 0 0 1
22.484096 12.159896 16.001123 30.156816 0.495770 1.011491 0.049807 -0.016758 546844.000000 0 0 1
23.261196 11.848296 17.173723 31.247434 0.471107 0.988906 0.027426 -0.015514 -69265.400000 0 0 1
23.598396 10.357696 17.242123 31.007370 0.413598 0.981152 0.040885 -0.006396 -455604.000000 0 0 1
22.525896 9.649096 17.779723 30.276056 0.404710 0.943135 0.024653 0.004057 137039.000000 0 0 1
22.712796 8.280696 17.637723 29.925412 0.349607 0.940493 0.016644 0.006417 -391477.000000 0 0 1
21.486596 7.536396 18.156823 29.122866 0.337342 0.897641 0.039248 0.003321 -353751.000000 0 0 1
21.550796 6.170196 17.996223 28.746690 0.278850 0.894348 0.046114 -0.012969 -103369.000000 0 0 1
20.411496 5.656396 18.603223 28.190493 0.270334 0.850096 0.041704 -0.008361 -764134.000000 0 0 1
20.121296 4.256396 18.035923 27.354670 0.208464 0.850861 0.068944 -0.012026 -794827.000000 0 0 1
19.582996 4.307296 16.700023 26.094775 0.216503 0.876330 0.076616 -0.025405 518021.000000 0 0 1
19.340996 3.000696 16.255523 25.442491 0.153920 0.877713 0.062640 -0.026702 407429.000000 0 0 1
18.187896 2.175896 16.921823 24.937566 0.119068 0.824986 0.080786 -0.017137 123706.000000 0 1 0
18.692896 1.384196 17.969823 25.966419 0.073914 0.806484 0.080986 -0.023471 -366292.000000 0 0 1
17.638896 1.009796 18.760523 25.770285 0.057186 0.755410 0.083068 -0.015782 -752197.000000 0 0 1
18.148096 0.107696 19.888823 26.924529 0.005934 0.739675 0.073863 -0.024946 -102256.000000 0 0 1
18.498196 -1.218604 19.524823 26.923725 -0.065782 0.759486 0.075094 -0.022004 483974.000000 0 0 1
17.407196 -2.096604 19.850223 26.484667 -0.119867 0.723492 0.065521 -0.009123 267307.000000 0 0 1
17.550096 -3.527704 19.360523 26.368171 -0.198364 0.746252 0.044413 -0.005250 -211365.000000 0 0 1
17.245996 -3.644004 18.010623 25.200907 -0.208233 0.774628 0.052720 -0.015257 195698.000000 0 0 1
17.222996 -4.993704 17.617523 25.138532 -0.282206 0.794253 0.063759 -0.013754 -384999.000000 0 0 1
16.704796 -5.001004 16.200323 23.801486 -0.290884 0.822156 0.037103 -0.014460 79221.500000 0 1 0
15.307496 -4.771404 16.035823 22.676714 -0.302159 0.785338 0.025623 -0.005067 408739.000000 0 1 0
14.893796 -4.850104 14.679723 21.467253 -0.314816 0.817812 0.020971 -0.009790 48716.000000 0 1 0
15.274696 -3.704404 13.727923 20.868513 -0.237925 0.852863 0.022808 -0.005746 -21531.800000 0 1 0
14.521896 -2.492504 13.736923 20.144506 -0.169981 0.820413 0.016463 -0.009484 209359.000000 0 1 0
15.275996 -1.544504 13.037623 20.142521 -0.100764 0.866801 0.029782 -0.013648 -119315.000000 0 1 0
14.477696 -0.198804 12.895423 19.389047 -0.013731 0.843185 0.033316 -0.015119 -848490.000000 0 1 0
15.102896 0.985996 12.547523 19.659857 0.065193 0.878599 0.040440 -0.014501 -296519.000000 0 1 0
15.960496 1.517996 13.514323 20.968516 0.094824 0.870420 0.053591 -0.023111 -114371.000000 0 1 0
16.373996 2.925696 13.176623 21.220057 0.176813 0.900841 0.060714 -0.019854 70545.100000 0 1 0
15.240296 3.781996 13.249623 20.545623 0.243244 0.869920 0.053688 -0.017745 565286.000000 0 1 0
15.467096 5.058996 12.711623 20.649694 0.316113 0.907669 0.053105 -0.017071 -551391.000000 0 1 0
14.311696 6.043296 12.865223 20.170772 0.399550 0.879138 0.054444 -0.012992 -600563.000000 0 1 0
14.489896 7.360496 12.340423 20.406372 0.470007 0.921365 0.034025 -0.008021 599170.000000 0 1 0
13.367796 8.244096 12.488823 20.065737 0.552618 0.898997 0.017543 -0.003799 -317278.000000 0 1 0
13.689396 9.279996 13.596923 21.410143 0.595737 0.882698 0.036313 -0.010420 -131310.000000 0 1 0
13.290096 8.909596 14.876823 21.847824 0.590578 0.821766 0.046886 -0.008022 330418.000000 0 1 0
13.963196 9.652196 15.860223 23.231065 0.604836 0.819323 0.069017 -0.014167 -97929.800000 0 1 0
13.597796 9.243296 17.305123 23.870607 0.597015 0.759827 0.070466 -0.006357 -1199950.000000 0 1 0
12.251996 9.295696 17.571123 23.350926 0.649051 0.718976 0.074194 -0.022228 -1174470.000000 0 1 0
11.753096 8.667596 18.739823 23.758019 0.635436 0.661976 0.083655 -0.018851 -123918.000000 0 1 0
12.349196 9.094796 20.102623 25.285043 0.634785 0.651723 0.097051 -0.016958 704058.000000 0 0 1
13.680196 8.528096 20.235723 25.872006 0.557441 0.672691 0.100170 -0.014148 948196.000000 0 0 1
14.283096 8.764796 21.499123 27.258774 0.550395 0.662097 0.087517 -0.002612 627411.000000 0 0 1
15.826296 8.581696 21.297323 27.887150 0.496868 0.701776 0.075335 -0.004814 453033.000000 0 0 1
16.428096 9.557996 20.440623 27.911587 0.526936 0.749052 0.092634 0.001765 -208989.000000 0 0 1
17.465696 8.982196 19.714623 27.827985 0.475003 0.783502 0.069023 -0.003372 -498010.000000 0 0 1
18.308196 9.995996 18.916623 28.159343 0.499755 0.834200 0.061163 -0.000345 63212.500000 0 0 1
19.200596 10.732596 19.754023 29.564724 0.509705 0.839061 0.052542 0.003248 195856.000000 0 0 1
20.012096 11.561196 18.963823 29.896017 0.523869 0.883660 0.044325 0.000893 -78059.600000 0 0 1
20.959596 12.396796 19.883123 31.437618 0.534118 0.886068 0.028447 0.004550 -280069.000000 0 0 1
20.343196 13.585396 20.301423 31.789249 0.588794 0.878086 0.036641 0.001365 366223.000000 0 0 1
21.108996 14.330996 21.224423 33.187999 0.596427 0.876921 0.015620 0.000389 329081.000000 0 0 1
22.466296 15.033096 20.891023 34.163771 0.589713 0.912846 0.013179 0.006357 159820.000000 0 0 1
23.506096 14.101296 20.920623 34.482685 0.540346 0.918894 -0.001478 0.009695 -634657.000000 0 0 1
24.723096 14.809096 21.001123 35.659332 0.539683 0.941053 0.017017 0.004291 522966.000000 0 0 1
26.047496 13.961396 20.903823 36.198929 0.492029 0.955169 0.021911 -0.009077 554293.000000 0 0 1
26.251696 13.438896 19.572123 35.395246 0.473142 0.984885 0.023987 -0.028423 4515.530000 0 0 1
27.241696 12.454696 19.663723 35.831431 0.428819 0.989887 0.028807 -0.037179 -228433.000000 0 0 1
27.424496 11.716796 18.319923 35.000084 0.403765 1.019931 0.044440 -0.040563 -52384.000000 0 0 1
27.980996 12.498996 17.229323 35.156943 0.420103 1.058628 0.056147 -0.054720 441827.000000 0 0 1
28.130096 11.855096 15.998823 34.464590 0.398850 1.088053 0.071861 -0.052073 475392.000000 0 0 1
26.818496 11.618296 15.144323 32.917580 0.408812 1.092725 0.063061 -0.050180 770072.000000 0 0 1
26.332696 12.751296 14.425023 32.620357 0.450959 1.112736 0.077345 -0.049040 676399.000000 0 0 1
25.192696 12.473996 13.592623 31.225501 0.459755 1.120419 0.084477 -0.039538 627627.000000 0 0 1
24.716996 13.669496 12.710723 30.973335 0.505174 1.147930 0.077581 -0.034026 31265.600000 0 0 1
24.130396 14.711596 13.498223 31.319468 0.547500 1.125212 0.065890 -0.031888 125921.000000 0 0 1
24.221596 15.936796 12.809023 31.697606 0.581949 1.154801 0.045659 -0.012848 -256852.000000 0 0 1
23.228896 17.034196 13.277923 31.718270 0.632740 1.138870 0.051014 -0.013398 -103931.000000 0 0 1
21.903696 16.605696 13.007823 30.409283 0.648680 1.128785 0.072748 -0.024461 -245369.000000 0 0 1
20.998296 17.621396 13.320623 30.477549 0.698180 1.118465 0.058032 -0.014613 -975851.000000 0 0 1
20.364596 18.297396 12.103223 29.933250 0.731980 1.154539 0.075382 -0.009377 240349.000000 0 0 1
19.195496 17.732596 11.517823 28.558226 0.745804 1.155665 0.076850 -0.009799 577169.000000 0 0 1
17.994196 17.822296 12.270023 28.142118 0.780599 1.119645 0.064532 -0.005180 -441727.000000 0 0 1
16.803596 17.164396 11.563423 26.658771 0.796020 1.122138 0.064785 0.003759 -334179.000000 0 0 1
16.811296 15.776496 11.397623 25.718151 0.753655 1.111660 0.055930 0.008106 -598355.000000 0 0 1
15.638596 15.289196 10.852723 24.415298 0.774101 1.110175 0.052704 0.007611 -661108.000000 0 1 0
15.724496 13.897696 10.118823 23.297989 0.723806 1.121511 0.055763 -0.004232 -114623.000000 0 1 0
16.034796 12.763196 10.976823 23.248752 0.672278 1.079072 0.054621 0.008649 429156.000000 0 1 0
16.292996 11.635596 10.196623 22.468198 0.620158 1.099744 0.042207 0.003948 -137956.000000 0 1 0
16.404496 10.350896 10.953923 22.276377 0.562887 1.056723 0.035095 -0.003485 -802949.000000 0 1 0
16.917996 9.329696 10.196623 21.845662 0.503968 1.085176 0.024016 -0.003581 236844.000000 0 1 0
17.305096 8.139896 10.844423 21.984671 0.439669 1.054949 0.011781 -0.004285 958178.000000 0 1 0
18.706796 8.273796 11.580323 23.505399 0.416422 1.055645 0.031778 -0.008619 643856.000000 0 1 0
18.586396 9.022796 12.724223 24.264600 0.451941 1.018792 0.042912 -0.008214 317582.000000 0 1 0
19.718296 8.844896 13.571223 25.519041 0.421658 1.010063 0.043520 -0.020808 -735251.000000 0 0 1
19.397796 9.256496 15.078723 26.255001 0.445236 0.959025 0.031622 0.000795 245862.000000 0 0 1
18.707296 8.259996 15.832323 25.862191 0.415795 0.911981 0.033332 -0.005915 1559620.000000 0 0 1
17.489996 7.680996 15.275023 24.458618 0.413807 0.896273 0.045556 -0.017372 274911.000000 0 1 0
16.995496 6.493396 16.107723 24.299585 0.364951 0.846137 0.049001 -0.013660 -624048.000000 0 1 0
16.212996 6.883996 17.248723 24.652973 0.401530 0.795873 0.073384 -0.009163 442019.000000 0 1 0
15.656796 5.711496 17.888323 24.448897 0.349793 0.750040 0.077441 -0.000221 324402.000000 0 1 0
14.355996 5.231796 17.195123 23.003012 0.349474 0.726482 0.085071 -0.028200 -741605.000000 0 1 0
13.892996 3.961496 17.544123 22.726747 0.277772 0.688879 0.082526 -0.019020 265990.000000 0 1 0
13.147896 3.372696 16.468523 21.341380 0.251105 0.689332 0.060323 -0.016693 201916.000000 0 1 0
12.902896 1.868296 16.667123 21.160535 0.143797 0.663809 0.036185 -0.013079 425132.000000 0 1 0
14.143296 1.160796 16.576323 21.820971 0.081890 0.708020 0.049908 -0.019563 648821.000000 0 1 0
13.999296 -0.252804 16.549423 21.677814 -0.018056 0.702194 0.044429 -0.010053 -254196.000000 0 1 0
13.245696 -1.067004 17.619323 22.068700 -0.080381 0.646188 0.036587 -0.007177 385904.000000 0 1 0
11.859096 -0.773404 17.647923 21.276407 -0.065124 0.592657 0.021656 -0.005270 153210.000000 0 1 0
11.166596 -1.422504 18.709923 21.835238 -0.126707 0.541632 0.014470 -0.010101 -338790.000000 0 1 0
-25.915054 14.833296 28.959533 41.596529 -0.519864 0.800705 0.071836 -0.014557 -699190.000000 0 0 1
-24.791604 14.602496 29.744003 41.383115 -0.532299 0.768797 0.068694 -0.021215 -237868.000000 0 0 1
-24.543604 13.232096 29.837473 40.838115 -0.494456 0.751555 0.061167 -0.007526 105031.000000 0 0 1
-23.170704 12.970496 30.524553 40.458171 -0.510321 0.715947 0.055223 -0.012710 104760.000000 0 0 1
-23.162304 13.386596 31.885983 41.622220 -0.524047 0.698075 0.053892 -0.021856 -168939.000000 0 0 1
-22.062004 12.928296 32.630874 41.456565 -0.530060 0.664687 0.034011 -0.011337 -598837.000000 0 0 1
-22.214104 13.095896 34.195998 42.829140 -0.532686 0.646116 0.032001 0.000464 -264588.000000 0 0 1
-23.102704 12.179196 -33.697421 42.633131 -0.485151 2.482265 0.020289 -0.000977 330935.000000 0 0 1
-23.585804 12.632796 -32.426921 42.040253 -0.491728 2.451725 0.010975 0.005870 457647.000000 0 0 1
-24.546004 11.620196 -31.687931 41.733203 -0.442146 2.433030 0.009684 -0.007674 312970.000000 0 0 1
-23.897604 10.599796 -30.940091 40.506053 -0.417478 2.440036 0.016560 -0.010746 255932.000000 0 0 1
-23.337904 9.570696 -31.751131 40.551082 -0.389176 2.470256 0.011669 -0.015012 111950.000000 0 0 1
-22.518304 8.537596 -30.919211 39.191353 -0.362396 2.479861 0.019404 -0.006075 189684.000000 0 0 1
-23.318604 7.704596 -30.078611 38.830927 -0.319113 2.456886 0.023893 -0.004995 589848.000000 0 0 1
-22.468504 6.872596 -29.295391 37.553777 -0.296840 2.465609 0.016982 -0.006304 135417.000000 0 0 1
-23.179604 5.979696 -28.241781 37.022277 -0.252468 2.438478 0.022014 -0.000457 -92132.100000 0 0 1
-24.036104 4.986296 -28.757041 37.809586 -0.204549 2.434995 0.037633 -0.008856 184088.000000 0 0 1
-24.415904 3.977696 -27.830301 37.235522 -0.161495 2.414955 0.049964 0.001499 -598119.000000 0 0 1
-25.056864 2.740596 -28.534031 38.072933 -0.108942 2.418038 0.039235 0.005148 762507.000000 0 0 1
-26.460674 2.830096 -28.788581 39.204070 -0.106550 2.395470 0.038599 -0.005162 631996.000000 0 0 1
-26.830004 3.799096 -29.746961 40.238836 -0.140664 2.402767 0.027938 -0.004091 -1346870.000000 0 0 1
-28.240824 3.655296 -30.296151 41.578385 -0.128717 2.387147 0.043902 -0.018530 -1062770.000000 0 0 1
-29.303174 3.715696 -29.354511 41.643363 -0.126129 2.353082 0.040031 -0.018132 724883.000000 0 0 1
-30.590054 3.703796 -29.982241 42.993072 -0.120492 2.342523 0.050028 -0.024365 775101.000000 0 0 1
-31.048384 4.989896 -30.741681 43.976723 -0.159351 2.344857 0.058495 -0.038474 -733663.000000 0 0 1
-30.239784 5.277396 -31.882611 44.258291 -0.172778 2.375141 0.066584 -0.036421 72767.800000 0 0 1
-30.455974 6.566496 -32.459901 44.992559 -0.212355 2.376691 0.070490 -0.038184 -729050.000000 0 0 1
-29.926654 7.853296 -31.789991 44.360820 -0.256632 2.369745 0.047368 -0.029153 959854.000000 0 0 1
-28.487094 8.029496 -31.752771 43.407669 -0.274737 2.391318 0.044187 -0.028141 1380580.000000 0 0 1
-27.831254 7.480396 -30.588601 42.026153 -0.262571 2.385973 0.028802 -0.023925 -391292.000000 0 0 1
-27.749424 8.305596 -29.244071 41.161015 -0.290821 2.360976 0.020185 -0.007890 -299519.000000 0 0 1
-28.954094 8.709396 -28.645061 41.650122 -0.292191 2.329188 0.032502 -0.013184 249989.000000 0 0 1
-29.742704 7.670796 -28.030161 41.583163 -0.252405 2.310508 0.033925 0.003152 568211.000000 0 0 1
-31.043154 8.206196 -27.339531 42.171898 -0.258436 2.276130 0.023826 0.007994 330312.000000 0 0 1
-30.769664 8.957996 -26.131371 41.350531 -0.283300 2.254860 0.012111 0.006673 59944.700000 0 0 1
-30.825234 8.150296 -24.947881 40.484801 -0.258488 2.234741 0.021455 0.007036 46020.700000 0 0 1
-30.193404 8.850696 -23.696481 39.389080 -0.285145 2.216299 0.023244 0.006855 157439.000000 0 0 1
-30.902374 10.032996 -23.297081 39.979641 -0.313931 2.192872 0.029565 0.001542 275135.000000 0 0 1
-30.165534 10.707696 -22.335881 39.032112 -0.341091 2.180036 0.030140 0.001432 -368380.000000 0 0 1
-30.987254 11.816996 -21.666081 39.614017 -0.364326 2.149489 0.027804 0.003011 -30814.600000 0 0 1
-31.760964 11.213996 -20.633581 39.500091 -0.339411 2.120422 0.027315 -0.000682 23091.100000 0 0 1
-32.369964 12.078696 -19.718581 39.781049 -0.357144 2.089411 0.036221 0.004286 -10556.600000 0 0 1
-31.463384 13.004296 -18.844281 38.912249 -0.391932 2.076332 0.034537 0.002109 621155.000000 0 0 1
-30.760514 12.477196 -17.648181 37.594520 -0.385345 2.059447 0.054386 0.004129 1407030.000000 0 0 1
-31.656004 12.001196 -16.599181 37.704961 -0.362372 2.026661 0.054038 0.007031 300494.000000 0 0 1
-32.219714 12.905496 -15.477281 38.002737 -0.380977 1.990257 0.042207 0.012781 150897.000000 0 0 1
-33.123604 13.810596 -16.133681 39.347190 -0.395025 1.993288 0.029094 0.008580 49425.700000 0 0 1
-33.892784 14.559296 -15.275881 39.925511 -0.405734 1.963415 0.013327 0.009298 -359873.000000 0 0 1
-34.500901 15.683096 -16.124781 41.185922 -0.426648 1.973070 0.009937 0.006614 770034.000000 0 0 1
-35.544670 15.277896 -17.070881 42.287736 -0.405948 1.986336 0.017388 -0.003327 1265110.000000 0 0 1
36.208186 16.446296 -17.430281 43.420365 0.426353 1.983875 0.023351 -0.002109 -240808.000000 0 0 1
35.769676 16.530496 -18.928581 43.715194 0.432901 2.018612 0.035781 -0.003182 958631.000000 0 0 1
34.700366 15.631196 -19.319381 42.681239 0.423238 2.040524 0.075923 -0.004244 1057170.000000 0 0 1
33.392176 16.034396 -18.944581 41.605726 0.447670 2.043546 0.120134 -0.019060 -29516.300000 0 0 1
32.392306 14.875196 -19.299281 40.533877 0.430495 2.067042 0.135508 -0.023921 -22716.900000 0 0 1
32.358566 14.471096 -20.665081 41.030903 0.420532 2.098611 0.130614 -0.023287 579331.000000 0 0 1
31.533666 13.297796 -20.893281 40.096542 0.399074 2.118906 0.084776 -0.018152 217222.000000 0 0 1
32.012616 11.932396 -20.313581 39.747091 0.356788 2.107227 0.077777 -0.005356 -494802.000000 0 0 1
31.919996 11.922596 -18.906181 38.967655 0.357468 2.077361 0.093631 -0.004601 169667.000000 0 0 1
32.480286 10.725596 -18.403981 38.842167 0.318945 2.064414 0.069192 -0.007324 -116073.000000 0 0 1
32.416846 10.594896 -16.917281 38.069648 0.315889 2.031275 0.053470 0.001966 -900475.000000 0 0 1
31.190486 10.198296 -16.433781 36.700420 0.316011 2.035079 0.067493 -0.002698 -631110.000000 0 0 1
31.294166 9.990796 -15.037881 36.128641 0.309026 2.000093 0.054036 0.000224 -192706.000000 0 0 1
30.692066 11.074296 -14.114681 35.550910 0.346281 1.979072 0.076302 -0.008989 -490757.000000 0 0 1
29.288406 10.980396 -14.107181 34.313152 0.358688 1.994490 0.078807 -0.010052 -178218.000000 0 0 1
28.779646 11.953396 -13.237381 33.858233 0.393662 1.972476 0.096070 -0.014350 -449985.000000 0 0 1
27.250326 11.892296 -13.212981 32.535978 0.411495 1.988983 0.096618 -0.008095 -681339.000000 0 0 1
26.597026 10.773496 -12.559681 31.324361 0.384864 1.983356 0.080757 -0.019046 1164750.000000 0 0 1
25.239826 10.731896 -13.048881 30.372614 0.402037 2.014875 0.080704 -0.001166 480603.000000 0 0 1
25.082826 10.001896 -14.427181 30.615840 0.379432 2.061484 0.062995 -0.017279 -819662.000000 0 0 1
25.593326 8.675896 -14.330581 30.588479 0.326833 2.058384 0.053597 -0.015311 1318440.000000 0 0 1
26.983126 8.537696 -14.680581 31.882610 0.306442 2.049307 0.061041 -0.023791 269443.000000 0 0 1
27.698706 7.499196 -13.848981 31.862996 0.264403 2.020437 0.065025 -0.022147 -658900.000000 0 0 1
27.347826 6.120896 -14.037481 31.343577 0.220188 2.035165 0.051919 -0.026621 1031520.000000 0 0 1
26.310726 5.718696 -13.106181 29.945447 0.214023 2.023800 0.058179 -0.022067 422051.000000 0 0 1
25.845226 4.230596 -13.250181 29.350314 0.162251 2.039185 0.062790 -0.021937 -276925.000000 0 0 1
24.976726 3.860396 -12.220781 28.072887 0.153346 2.021194 0.071333 -0.020209 182709.000000 0 0 1
24.482226 2.542196 -12.354981 27.540656 0.103468 2.036004 0.061662 -0.020023 -33690.600000 0 0 1
23.623426 2.183996 -11.138381 26.208770 0.092188 2.009744 0.054229 -0.016215 90503.000000 0 0 1
24.467826 1.857296 -10.040881 26.513079 0.075762 1.959203 0.059976 -0.012139 1207800.000000 0 0 1
23.650726 1.696896 -8.872381 25.317098 0.071625 1.928848 0.065311 0.000604 -57184.700000 0 0 1
24.475226 1.516996 -7.530581 25.652439 0.061902 1.868747 0.072945 0.001419 67387.700000 0 0 1
24.827126 0.165096 -7.192281 25.848450 0.006650 1.852766 0.055110 -0.003560 655285.000000 0 0 1
25.677126 -0.568204 -8.048781 26.915062 -0.022125 1.874487 0.054183 -0.002352 -579696.000000 0 0 1
25.847726 -2.107204 -7.872181 27.101965 -0.081344 1.865509 0.061524 -0.013356 -354780.000000 0 0 1
26.619226 -2.337804 -6.717481 27.553096 -0.087599 1.817080 0.076856 -0.018299 449232.000000 0 0 1
26.732726 -3.692704 -6.447881 27.746169 -0.137266 1.805329 0.088140 -0.020522 -236477.000000 0 0 1
27.971076 -4.110104 -5.617281 28.824086 -0.145897 1.766933 0.079618 -0.024042 -588480.000000 0 0 1
29.149396 -4.149504 -6.342081 30.118561 -0.141403 1.782955 0.066403 -0.016138 -432543.000000 0 0 1
30.200896 -4.721404 -5.590081 31.074665 -0.155078 1.751673 0.083507 -0.012309 -439597.000000 0 0 1
31.419546 -5.050404 -6.449081 32.469757 -0.159378 1.770744 0.086206 -0.012096 -517586.000000 0 0 1
31.121356 -6.021804 -7.415181 32.554352 -0.191132 1.800592 0.075391 -0.011351 -74053.600000 0 0 1
32.078076 -6.129404 -8.440781 33.731578 -0.188802 1.823718 0.073216 -0.018340 -691681.000000 0 0 1
31.634976 -7.059404 -9.573181 33.797229 -0.219555 1.857981 0.062713 -0.018231 438558.000000 0 0 1
30.384936 -6.784604 -10.183681 32.756413 -0.219685 1.886927 0.060932 -0.018065 907205.000000 0 0 1
29.215286 -7.308904 -9.525681 31.586257 -0.245142 1.877142 0.059224 -0.013049 342021.000000 0 0 1
28.081986 -6.265104 -9.339781 30.250306 -0.219506 1.884675 0.059082 -0.012826 -828973.000000 0 0 1
27.411426 -5.942904 -10.542881 29.964258 -0.213500 1.930342 0.046844 -0.008719 30969.600000 0 0 1
26.276126 -5.160504 -10.344881 28.706832 -0.193927 1.939453 0.058727 -0.011122 620129.000000 0 0 1
24.956826 -5.902204 -9.879481 27.482419 -0.232230 1.938511 0.069833 -0.006995 -840180.000000 0 0 1
25.044426 -6.670904 -8.657181 27.325282 -0.260319 1.893171 0.063517 -0.012682 919501.000000 0 0 1
23.797726 -7.145404 -8.116481 26.139354 -0.291691 1.886524 0.062434 -0.016447 527336.000000 0 0 1
22.832426 -6.041804 -7.605081 24.812504 -0.258686 1.882312 0.087164 -0.012201 -557940.000000 0 1 0
22.223426 -5.261104 -8.596881 24.402177 -0.232457 1.930824 0.072919 -0.011595 292138.000000 0 1 0
21.894726 -3.979204 -8.083781 23.676162 -0.179780 1.919236 0.068032 -0.009712 -100287.000000 0 1 0
21.510126 -2.958304 -9.175081 23.571576 -0.136673 1.970606 0.046652 -0.004794 -355083.000000 0 1 0
22.661626 -2.605504 -9.870581 24.854906 -0.114472 1.979182 0.039220 -0.003856 349525.000000 0 1 0
22.358426 -1.902104 -11.037681 25.006952 -0.084869 2.027937 0.034302 -0.006532 -28482.300000 0 0 1
23.506826 -2.093904 -12.096581 26.519476 -0.088842 2.044449 0.044960 -0.008545 -55010.300000 0 0 1
24.614426 -1.459204 -11.526181 27.218599 -0.059213 2.008065 0.041794 -0.013515 288144.000000 0 0 1
25.833026 -1.635204 -12.246681 28.635648 -0.063215 2.012713 0.041448 -0.013998 645147.000000 0 0 1
27.031626 -0.866504 -11.600181 29.428283 -0.032044 1.975977 0.039450 -0.013548 1077530.000000 0 0 1
28.263706 -0.970604 -12.380881 30.871757 -0.034328 1.983451 0.037062 -0.016307 1442580.000000 0 0 1
29.197926 0.004096 -11.904281 31.531426 0.000140 1.957931 0.045054 -0.015667 31886.900000 0 0 1
29.203756 1.321396 -12.758381 31.896422 0.045217 1.982307 0.054607 -0.014004 -544666.000000 0 0 1
29.806486 1.196696 -13.980181 32.943955 0.040127 2.009054 0.044899 -0.014860 160390.000000 0 0 1
29.787646 2.417696 -14.698981 33.304792 0.080987 2.027896 0.046317 -0.015890 -35444.600000 0 0 1
30.162126 2.337596 -16.183981 34.309466 0.077346 2.062021 0.038980 -0.004666 376789.000000 0 0 1
29.109356 1.726296 -16.947581 33.727663 0.059234 2.097265 0.032387 -0.003892 435834.000000 0 0 1
29.396476 1.751196 -18.313481 34.678568 0.059501 2.127149 0.023314 -0.001384 -985010.000000 0 0 1
28.457096 1.027196 -19.217781 34.353814 0.036081 2.164467 0.013681 0.002523 -693531.000000 0 0 1
28.440136 -0.355704 -19.023981 34.218120 -0.012506 2.160316 0.019412 -0.003408 200535.000000 0 0 1
28.036006 -1.045504 -20.215481 34.580000 -0.037274 2.195184 0.019787 -0.002850 -16487.700000 0 0 1
27.924956 -2.605704 -20.215581 34.572570 -0.093042 2.195342 0.036187 -0.011212 -689005.000000 0 0 1
26.672426 -3.000904 -19.763481 33.331951 -0.112038 2.205488 0.027411 -0.012089 -463512.000000 0 0 1
26.393026 -4.386304 -19.666281 33.205333 -0.164687 2.204661 0.036463 -0.017465 -234128.000000 0 0 1
27.030926 -5.170704 -18.499081 33.160566 -0.189005 2.162606 0.029543 -0.013470 292599.000000 0 0 1
28.382156 -5.516004 -18.804481 34.490312 -0.191955 2.147437 0.022021 -0.009595 723422.000000 0 0 1
29.179006 -5.625004 -17.601881 34.538114 -0.190440 2.105558 0.025593 -0.011164 81281.400000 0 0 1
30.667316 -5.441504 -17.944381 35.945724 -0.175609 2.093480 0.029731 -0.008871 -429461.000000 0 0 1
31.252516 -6.553704 -18.555081 36.931854 -0.206706 2.097185 0.024332 -0.005831 -489729.000000 0 0 1
32.561916 -6.246204 -18.949981 38.188941 -0.189523 2.090032 0.031483 -0.005635 -295397.000000 0 0 1
33.211286 -7.436904 -19.685181 39.316707 -0.220293 2.095183 0.029027 -0.002152 -110142.000000 0 0 1
33.409266 -8.565204 -18.793781 39.277831 -0.250967 2.069723 0.043595 -0.012837 -309460.000000 0 0 1
34.105566 -9.548804 -19.443881 40.403389 -0.272988 2.072869 0.036816 -0.008483 -784947.000000 0 0 1
34.902306 -10.412004 -18.469981 40.837740 -0.289913 2.040113 0.054975 -0.008263 -903080.000000 0 0 1
34.120726 -11.004204 -17.447181 39.871301 -0.311976 2.023710 0.038783 -0.006270 625576.000000 0 0 1
34.895176 -11.643304 -16.382681 40.269494 -0.322049 1.989773 0.064091 -0.016291 63100.000000 0 0 1
35.958956 -10.843904 -15.588281 40.664866 -0.292890 1.964201 0.070330 -0.017846 -242348.000000 0 0 1
-35.940185 -11.478404 -14.498781 40.418626 0.309136 1.937688 0.069686 -0.020850 595273.000000 0 0 1
-35.160824 -12.679404 -14.670481 40.153130 0.346097 1.944819 0.082451 -0.019689 1198950.000000 0 0 1
-33.695524 -12.513904 -15.264681 39.051205 0.355595 1.972393 0.081650 -0.019855 841041.000000 0 0 1
-33.729794 -12.283304 -16.624581 39.559515 0.349240 2.004509 0.081282 -0.017831 547661.000000 0 0 1
-32.411174 -12.279904 -17.187881 38.687252 0.362167 2.031164 0.094155 -0.016787 493441.000000 0 0 1
-32.153554 -11.615904 -18.566881 38.903847 0.346674 2.068320 0.096629 -0.014595 89134.000000 0 0 1
-32.415414 -10.234704 -18.601981 38.749735 0.305830 2.071513 0.097572 -0.018963 174252.000000 0 0 1
-33.774544 -9.980304 -18.909681 39.973770 0.287321 2.063548 0.085449 -0.019860 -138662.000000 0 0 1
-34.186582 -8.644104 -18.177581 39.671997 0.247660 2.046762 0.093577 -0.017694 -362025.000000 0 0 1
-35.390675 -8.045804 -18.574681 40.770745 0.223543 2.043829 0.080043 -0.026799 -252687.000000 0 0 1
-35.646892 -6.829804 -17.907581 40.472566 0.189302 2.029139 0.070675 -0.025591 -152181.000000 0 0 1
24.094996 27.244496 -26.926141 45.253159 0.846668 2.208076 0.042386 0.008696 141526.000000 0 0 1
24.954496 26.610896 -26.004901 44.800909 0.817509 2.190083 0.043166 0.000685 -98428.600000 0 0 1
26.239796 26.360696 -26.538971 45.691686 0.787697 2.190541 0.045001 -0.002521 163539.000000 0 0 1
26.989096 25.256696 -25.742241 45.044144 0.752252 2.179116 0.045415 0.002825 -305480.000000 0 0 1
27.473496 25.658396 -24.464981 44.851773 0.751249 2.147738 0.047918 0.004728 286224.000000 0 0 1
27.479596 24.694496 -23.416981 43.741300 0.732068 2.135720 0.048475 0.002482 -151691.000000 0 0 1
28.161196 25.325596 -22.204181 43.902897 0.732433 2.101055 0.046501 0.006010 -169915.000000 0 0 1
27.461696 26.383196 -21.655681 43.808518 0.765371 2.087855 0.036270 0.006408 77510.000000 0 0 1
28.242396 26.933096 -20.602381 44.130292 0.761673 2.056526 0.025723 0.003375 129201.000000 0 0 1
27.501896 28.086396 -19.860381 44.041283 0.795913 2.038625 0.039307 0.004782 -377858.000000 0 0 1
26.604596 27.504996 -18.966081 42.708799 0.802037 2.030942 0.044345 0.000742 -150122.000000 0 0 1
25.776996 28.527696 -18.399381 42.624173 0.836008 2.017135 0.049724 -0.003744 492206.000000 0 0 1
24.704696 27.994596 -17.400281 41.192101 0.847745 2.006908 0.053338 -0.006659 80907.400000 0 0 1
23.744996 27.104396 -17.899381 40.235071 0.851368 2.031826 0.053711 -0.001825 31017.300000 0 0 1
22.543996 27.262796 -17.152081 39.315209 0.879858 2.022246 0.044385 0.000202 -212225.000000 0 0 1
21.507196 26.270396 -17.622781 38.252524 0.884765 2.049575 0.044482 -0.001178 -726799.000000 0 0 1
20.962396 26.493796 -18.916981 38.719445 0.901433 2.081241 0.041727 0.000596 136424.000000 0 0 1
20.141896 25.446796 -19.429281 37.825022 0.901242 2.110244 0.032694 0.007039 234581.000000 0 0 1
19.295596 25.810496 -20.705181 38.304128 0.928841 2.141883 0.031676 0.009054 836865.000000 0 0 1
18.166496 26.625496 -20.391181 38.141039 0.972051 2.134861 0.021334 0.009327 -45923.800000 0 0 1
17.253996 26.667796 -21.478781 38.343314 0.996535 2.165388 0.019957 0.003599 -12679.600000 0 0 1
16.191396 27.742696 -21.173681 38.472629 1.042503 2.153588 0.015279 0.006686 -355942.000000 0 0 1
15.489096 27.508396 -20.010481 37.377042 1.057976 2.135740 0.017443 0.007127 -603798.000000 0 0 1
14.659796 28.590996 -19.689181 37.683133 1.097007 2.120569 0.009043 0.005387 203476.000000 0 0 1
14.062096 28.497996 -18.233681 36.638032 1.112409 2.091708 0.011130 0.008132 -108421.000000 0 0 1
13.177996 27.433496 -18.005481 35.361753 1.122983 2.105028 0.011089 0.014993 -274830.000000 0 0 1
12.819096 27.431796 -16.647381 34.553841 1.133643 2.073482 0.029641 0.011940 -151665.000000 0 0 1
11.858496 26.329396 -16.265781 33.142671 1.147618 2.083782 0.041655 0.007579 84820.600000 0 0 1
12.602096 25.163696 -16.057181 32.401504 1.106505 2.089286 0.021161 0.005068 310427.000000 0 0 1
11.686896 24.077396 -15.994981 31.179223 1.118906 2.109474 0.045776 0.001938 717031.000000 0 0 1
12.454296 22.735996 -16.183481 30.560432 1.069660 2.128874 0.025798 0.004003 508988.000000 0 0 1
12.971796 22.505996 -17.489981 31.315918 1.047933 2.163374 0.032496 0.010099 63674.600000 0 0 1
13.799196 21.375696 -17.772681 31.035566 0.997552 2.180537 0.041269 0.006930 218844.000000 0 0 1
13.004696 20.043896 -17.935281 29.875645 0.995258 2.214711 0.040234 0.002163 352077.000000 0 0 1
12.346396 19.574496 -16.741681 28.563582 1.008081 2.197058 0.041248 -0.000557 51760.200000 0 0 1
11.874296 18.254796 -16.886281 27.556904 0.994087 2.230368 0.037469 -0.003805 -149830.000000 0 0 1
12.940596 17.134896 -17.040181 27.412250 0.923964 2.241614 0.025865 -0.001648 53444.300000 0 0 1
13.515396 16.855796 -15.777881 26.753043 0.894944 2.201558 0.034193 -0.006290 -338727.000000 0 0 1
14.627796 16.012996 -15.837281 26.855314 0.830575 2.201516 0.035039 -0.002493 -1198040.000000 0 0 1
15.046596 15.397596 -14.473881 25.941843 0.796927 2.162693 0.054257 -0.004074 -1308110.000000 0 0 1
15.694196 16.232296 -13.531181 26.322767 0.802251 2.110694 0.047043 -0.000858 650422.000000 0 0 1
16.978996 16.739496 -13.888981 27.593492 0.778295 2.098259 0.026267 0.003783 -117976.000000 0 0 1
18.065496 15.755596 -14.363681 27.944879 0.717206 2.110638 0.018859 0.001705 -1488980.000000 0 0 1
18.582296 14.797896 -13.456781 27.301362 0.672508 2.086213 0.031087 -0.004101 505200.000000 0 0 1
19.472196 15.265496 -12.460981 27.703390 0.664886 2.037338 0.033632 -0.003793 119893.000000 0 0 1
20.522296 14.220796 -11.943481 27.677471 0.605974 2.016977 0.051942 -0.009326 300388.000000 0 0 1
19.925796 13.392796 -10.933281 26.380693 0.591778 1.998126 0.094530 -0.013475 983417.000000 0 0 1
20.770096 12.289096 -10.559781 26.342508 0.534274 1.983257 0.112970 -0.004453 8846.800000 0 0 1
20.711596 11.039196 -11.407481 26.095300 0.489695 2.023220 0.083313 -0.006145 -293175.000000 0 0 1
21.531496 11.112496 -12.559281 27.291545 0.476448 2.049005 0.071939 0.007228 397680.000000 0 0 1
21.278496 10.104296 -13.534981 27.167386 0.443334 2.092326 0.060281 0.005805 -326398.000000 0 0 1
21.788396 8.632596 -13.258581 26.926676 0.377228 2.085637 0.059077 0.014425 -278606.000000 0 0 1
21.217996 8.058096 -12.086281 25.714090 0.362952 2.060116 0.060351 -0.000066 825531.000000 0 0 1
22.039996 7.028396 -11.502481 25.835379 0.308698 2.032219 0.070047 0.027568 -421659.000000 0 0 1
22.075496 5.677296 -12.268481 25.885804 0.251721 2.064563 0.066114 0.015188 221680.000000 0 0 1
20.963496 4.805796 -12.011581 24.634161 0.225352 2.080133 0.046792 -0.004186 626485.000000 0 1 0
19.825696 5.204496 -12.744281 24.136315 0.256720 2.127055 -0.001574 -0.019042 -627095.000000 0 1 0
18.999196 3.934996 -13.140081 23.433211 0.204226 2.166083 0.007862 -0.030270 11350.100000 0 1 0
19.622596 3.241196 -14.202181 24.438772 0.163699 2.190917 0.013812 -0.020950 452929.000000 0 1 0
19.228196 1.883596 -14.152381 23.949141 0.097649 2.203013 0.037314 -0.012991 -808661.000000 0 1 0
20.183196 1.026996 -14.904381 25.110888 0.050840 2.206250 0.057213 -0.008717 -889161.000000 0 0 1
21.295596 0.660596 -14.133181 25.567276 0.031010 2.156498 0.071181 -0.001496 851200.000000 0 0 1
22.505096 0.349296 -14.862681 26.972220 0.015519 2.154402 0.049787 -0.011679 532527.000000 0 0 1
22.637696 -1.047404 -15.440781 27.422255 -0.046235 2.168898 0.048285 -0.009463 -1331340.000000 0 0 1
21.646396 -1.507004 -16.300381 27.139269 -0.069507 2.215072 0.048401 -0.006048 -294258.000000 0 0 1
22.055596 -2.699404 -16.967981 27.957977 -0.121785 2.222963 0.047034 -0.012678 -265685.000000 0 0 1
20.992796 -3.320204 -17.880881 27.774937 -0.156860 2.270221 0.046179 -0.011545 -385394.000000 0 0 1
20.002496 -4.067704 -17.254681 26.727702 -0.200624 2.272570 0.048805 -0.008134 -101441.000000 0 0 1
19.244196 -4.861804 -18.124281 26.878723 -0.247459 2.310811 0.042488 -0.006199 279807.000000 0 0 1
18.328796 -5.917404 -17.420481 25.969859 -0.312284 2.306078 0.037320 -0.007480 103390.000000 0 0 1
19.129896 -6.924604 -16.857181 26.420969 -0.347306 2.262724 0.038961 -0.005198 685209.000000 0 0 1
18.361696 -8.049204 -16.402881 25.903592 -0.413140 2.256513 0.036181 -0.003702 292530.000000 0 0 1
19.247096 -9.108604 -15.667881 26.436714 -0.442016 2.205149 0.038445 -0.005078 44975.600000 0 0 1
20.008996 -9.889304 -16.530881 27.774598 -0.459031 2.208286 0.053959 -0.014304 -59786.200000 0 0 1
20.855596 -10.734304 -15.814881 28.289426 -0.475336 2.164022 0.057806 -0.016757 -596859.000000 0 0 1
21.575796 -11.749204 -16.679881 29.694734 -0.498653 2.167250 0.056401 -0.015461 -559577.000000 0 0 1
22.618496 -11.248604 -17.476781 30.717508 -0.461500 2.176027 0.057222 -0.009674 -19012.600000 0 0 1
23.166796 -12.176504 -18.395381 31.989963 -0.483918 2.183444 0.065418 -0.008605 -327715.000000 0 0 1
22.583096 -12.052104 -19.848081 32.391291 -0.490226 2.230344 0.074845 -0.013682 -158442.000000 0 0 1
21.226696 -12.372804 -19.968481 31.660688 -0.527743 2.253255 0.059743 -0.012715 -435024.000000 0 0 1
20.923096 -13.739704 -19.974681 32.024105 -0.581054 2.244313 0.047375 -0.011437 -598680.000000 0 0 1
19.422796 -14.001404 -19.725081 31.021978 -0.624599 2.259895 0.039940 -0.006788 -2266.230000 0 0 1
18.653196 -13.681304 -20.864281 31.151854 -0.632829 2.304683 0.031772 0.000240 -860725.000000 0 0 1
17.309696 -14.024804 -20.686881 30.401772 -0.680947 2.319173 0.034865 -0.000682 -348688.000000 0 0 1
16.540196 -13.558104 -21.954781 30.649840 -0.686642 2.369296 0.037161 -0.004586 -232737.000000 0 0 1
16.958396 -14.194704 -23.129081 32.000488 -0.696917 2.378602 0.045423 -0.006800 263438.000000 0 0 1
16.405196 -13.502604 -24.249481 32.241093 -0.688650 2.422084 0.060820 -0.020484 -11682.800000 0 0 1
16.379896 -14.159204 -25.586291 33.517791 -0.712810 2.439302 0.065881 -0.027353 24648.600000 0 0 1
15.390696 -15.184104 -25.577341 33.490759 -0.778641 2.439842 0.065572 -0.025728 318452.000000 0 0 1
15.265896 -15.833204 -26.864731 34.719615 -0.803638 2.455555 0.068305 -0.027076 -138962.000000 0 0 1
16.196696 -17.023204 -27.248671 35.980724 -0.810273 2.429985 0.061619 -0.019484 -578621.000000 0 0 1
17.553096 -16.676804 -27.301741 36.491260 -0.759804 2.416099 0.059218 -0.016206 -674813.000000 0 0 1
18.246196 -17.869604 -27.561501 37.575028 -0.774971 2.394262 0.050444 -0.001097 55244.400000 0 0 1
19.776996 -17.691604 -27.407231 38.148116 -0.729798 2.372357 0.035076 0.006058 108915.000000 0 0 1
20.114396 -17.249304 -26.089371 37.185786 -0.708867 2.348430 0.036953 0.009020 1262580.000000 0 0 1
21.560796 -17.199504 -25.922581 37.850642 -0.673350 2.325215 0.031499 0.013587 1307780.000000 0 0 1
22.056896 -16.703304 -24.543981 36.985322 -0.648146 2.296436 0.049644 0.017445 71524.400000 0 0 1
21.814196 -15.385204 -24.087081 35.954848 -0.614264 2.304905 0.047539 0.010570 -54950.000000 0 0 1
20.498396 -14.889404 -24.288681 35.097274 -0.628205 2.335106 0.062758 0.001099 80219.500000 0 0 1
20.317796 -13.475204 -23.702181 34.002755 -0.585614 2.342094 0.068742 0.006327 -197255.000000 0 0 1
20.961296 -12.483904 -24.417981 34.517555 -0.537155 2.356620 0.070481 -0.006430 5252.530000 0 0 1
20.639896 -11.258304 -23.775081 33.436644 -0.499353 2.361785 0.071555 -0.012535 113595.000000 0 0 1
20.942996 -9.928704 -24.598281 33.797391 -0.442699 2.385928 0.087200 -0.018751 -99210.600000 0 0 1
20.406996 -8.765204 -24.027281 32.719788 -0.405693 2.395483 0.085604 -0.018190 30615.800000 0 0 1
20.342296 -7.679604 -24.918281 33.071227 -0.360977 2.424125 0.075622 -0.016683 -172158.000000 0 0 1
19.642596 -6.444204 -24.276981 31.886222 -0.317009 2.436209 0.067791 -0.020059 264338.000000 0 0 1
18.347296 -6.842904 -23.841081 30.851997 -0.356986 2.453969 0.072149 -0.021165 -136612.000000 0 0 1
17.811796 -5.917404 -22.925881 29.628901 -0.320747 2.455563 0.044295 -0.014564 -158089.000000 0 0 1
18.246996 -6.130404 -21.446581 28.818233 -0.324120 2.410135 0.043503 -0.013344 -624603.000000 0 0 1
17.792096 -7.169604 -20.650481 28.185178 -0.383060 2.393036 0.045568 -0.016444 84421.900000 0 0 1
18.258496 -8.486204 -21.070281 29.143525 -0.435078 2.378907 0.047076 -0.012186 106802.000000 0 0 1
17.845596 -9.519304 -19.979781 28.430162 -0.490029 2.350076 0.042838 -0.013486 812315.000000 0 0 1
16.423096 -9.637804 -19.875181 27.525046 -0.530690 2.377595 0.024430 -0.010251 342303.000000 0 0 1
16.156496 -10.685604 -18.991981 27.127658 -0.584335 2.346329 0.031159 -0.005464 212615.000000 0 0 1
14.664096 -10.688504 -18.542181 25.944023 -0.629853 2.366991 0.040027 -0.010251 356171.000000 0 0 1
14.245296 -9.786204 -17.474181 24.577332 -0.601933 2.361698 0.046797 -0.012833 247389.000000 0 1 0
14.481796 -8.392304 -17.724381 24.378410 -0.525215 2.384815 0.060269 -0.027954 -621758.000000 0 1 0
13.369596 -7.432504 -17.271681 23.071610 -0.507381 2.416762 0.067153 -0.015601 -526881.000000 0 1 0
12.205196 -7.501404 -18.029681 23.028401 -0.551091 2.470162 0.051973 -0.023432 -603003.000000 0 1 0
11.258796 -6.575904 -17.583581 21.890302 -0.528623 2.503543 0.042666 -0.015622 1341790.000000 0 1 0
9.783396 -6.747404 -18.188781 21.727265 -0.603766 2.562831 0.048328 -0.008243 1582540.000000 0 1 0
9.562596 -6.392504 -19.523381 22.659871 -0.589264 2.609178 0.042743 -0.019522 1917720.000000 0 1 0
8.106996 -6.188304 -19.648581 22.137868 -0.651977 2.662807 0.048780 -0.022261 2256500.000000 0 1 0
7.518096 -5.822204 -21.043981 23.092617 -0.658951 2.717193 0.048762 -0.029473 74292.800000 0 1 0
7.708396 -6.756004 -22.074781 24.338425 -0.719649 2.706885 0.055828 -0.022637 -174184.000000 0 1 0
6.976196 -6.475404 -23.227281 25.101887 -0.748186 2.752675 0.062505 -0.025309 -229336.000000 0 0 1
6.940896 -7.622604 -24.251981 26.352205 -0.832173 2.739647 0.061203 -0.025529 -42062.800000 0 0 1
6.232996 -8.769304 -23.818581 26.135717 -0.952876 2.717329 0.068204 -0.027359 27228.800000 0 0 1
6.068196 -9.713804 -24.829481 27.343813 -1.012414 2.709395 0.060645 -0.014523 -275700.000000 0 0 1
5.261696 -10.974004 -24.502481 27.358468 -1.123708 2.680594 0.060226 -0.014828 55826.500000 0 0 1
5.871396 -11.891904 -23.587281 27.060127 -1.112177 2.629379 0.060373 -0.023992 -45454.800000 0 0 1
5.148896 -13.098404 -23.638581 27.511122 -1.196258 2.604573 0.064725 -0.023807 -730677.000000 0 0 1
5.560496 -14.167804 -22.611281 27.256482 -1.196795 2.549141 0.074953 -0.020460 924377.000000 0 0 1
6.768296 -14.895104 -22.926581 28.165619 -1.144292 2.521788 0.062525 -0.015237 1886540.000000 0 0 1
8.050496 -14.231704 -23.099281 28.300683 -1.056000 2.525616 0.055301 -0.016040 1426730.000000 0 0 1
8.782396 -13.672104 -21.782181 27.175730 -0.999812 2.500647 0.047917 -0.009887 251106.000000 0 0 1
9.354196 -14.503104 -20.763281 26.999164 -0.997959 2.448125 0.045180 -0.000191 441274.000000 0 0 1
8.452196 -15.483404 -20.251581 26.857065 -1.071116 2.425003 0.040611 0.000986 270374.000000 0 0 1
8.949296 -16.084604 -18.912481 26.391027 -1.063061 2.369748 0.039898 -0.001081 373585.000000 0 0 1
9.887796 -17.144704 -18.877281 27.350706 -1.047666 2.332553 0.043107 0.002143 5366.150000 0 0 1
10.483196 -17.425204 -17.627181 26.911942 -1.029193 2.284972 0.040282 -0.002187 137494.000000 0 0 1
9.444696 -18.050604 -16.635081 26.301188 -1.088734 2.255552 0.053509 -0.018015 -11241.200000 0 0 1
9.039096 -19.406504 -16.796381 27.210955 -1.134900 2.236058 0.060513 -0.021466 537920.000000 0 0 1
8.213496 -19.688204 -17.953681 27.882280 -1.175569 2.270394 0.064680 -0.011077 -431032.000000 0 0 1
6.721996 -19.371204 -17.882381 27.206770 -1.236788 2.287996 0.068015 -0.011895 -795515.000000 0 0 1
6.349896 -17.988304 -17.787381 26.082392 -1.231450 2.321248 0.065178 -0.015195 -136315.000000 0 0 1
4.950896 -17.949204 -17.597681 25.619596 -1.301660 2.327989 0.069279 -0.019911 140833.000000 0 0 1
4.389296 -16.518104 -17.373081 24.370836 -1.311072 2.364369 0.053017 -0.008089 86930.700000 0 1 0
4.536496 -16.150804 -16.008081 23.188077 -1.296968 2.332780 0.031271 -0.011659 39945.800000 0 1 0
4.424296 -14.752604 -15.877681 22.120454 -1.279432 2.371409 0.025594 -0.003649 88526.100000 0 1 0
11.102496 30.364396 -17.999981 37.003530 1.220255 2.078806 0.027513 -0.003185 -908463.000000 0 0 1
10.130996 29.775196 -18.773681 36.628547 1.242834 2.108939 0.046176 -0.001352 -1076730.000000 0 0 1
9.130296 29.120996 -18.081181 35.472860 1.266974 2.105654 0.038357 0.004269 -155173.000000 0 0 1
8.075996 28.532996 -19.051181 35.246291 1.294970 2.141847 0.048537 -0.006254 74383.000000 0 0 1
7.361796 29.508296 -19.805281 36.293039 1.326305 2.148026 0.048824 -0.013080 -111164.000000 0 0 1
6.575696 28.838996 -20.780981 36.149365 1.346615 2.183235 0.041485 -0.015979 414134.000000 0 0 1
5.461296 29.770596 -21.364481 37.048011 1.389368 2.185443 0.061277 -0.020427 1071730.000000 0 0 1
4.371196 30.171096 -20.474581 36.723437 1.426917 2.162209 0.054322 -0.026445 454422.000000 0 0 1
3.634096 31.072596 -21.291581 37.842361 1.454370 2.168371 0.054905 -0.034330 325127.000000 0 0 1
2.141196 31.154496 -20.757881 37.497692 1.502176 2.157450 0.084235 -0.034305 927173.000000 0 0 1
1.525396 29.912296 -20.955481 36.554130 1.519845 2.181291 0.077016 -0.038567 347906.000000 0 0 1
0.731596 29.797896 -22.163281 37.143786 1.546249 2.210165 0.092885 -0.054971 28782.400000 0 0 1
0.146396 28.418496 -22.515781 36.257312 1.565645 2.240814 0.090645 -0.052119 243125.000000 0 0 1
-0.806104 27.903796 -21.593181 35.292167 -1.541916 2.229182 0.092179 -0.052579 459340.000000 0 0 1
-1.537404 26.797296 -22.137281 34.792497 -1.513488 2.260445 0.105076 -0.049125 245356.000000 0 0 1
-2.682404 26.189296 -21.296181 33.861509 -1.468729 2.250960 0.090064 -0.048843 178541.000000 0 0 1
-3.838104 27.012296 -21.274181 34.597484 -1.429654 2.233062 0.072681 -0.047004 73511.100000 0 0 1
-4.880304 26.367596 -20.581381 33.803265 -1.387780 2.225416 0.076648 -0.045988 86931.500000 0 0 1
-6.029404 27.347896 -20.191181 34.524555 -1.353797 2.195473 0.075094 -0.056665 -10407.800000 0 0 1
-7.143504 26.682396 -19.693881 33.923868 -1.309208 2.190178 0.062178 -0.033531 -381424.000000 0 0 1
-8.132304 27.487196 -19.086481 34.437974 -1.283144 2.158231 0.055711 -0.040954 217723.000000 0 0 1
-9.407104 26.803396 -18.598581 33.953245 -1.233260 2.150493 0.063925 -0.025479 -196684.000000 0 0 1
-9.198604 25.985596 -17.476581 32.638878 -1.230573 2.135840 0.066255 -0.036793 -602412.000000 0 0 1
-10.408904 25.359396 -17.179181 32.350711 -1.181309 2.130611 0.053692 -0.031031 -330365.000000 0 0 1
-10.455804 24.605396 -15.828581 31.069170 -1.168977 2.105357 0.059485 -0.014427 -400567.000000 0 0 1
-9.700304 23.423896 -15.870881 29.910861 -1.178177 2.130112 0.069459 -0.022140 -303017.000000 0 0 1
-9.922104 22.711596 -14.665281 28.798180 -1.158911 2.105102 0.092266 -0.004198 -365773.000000 0 0 1
-9.168304 21.393796 -14.377381 27.358022 -1.165923 2.124131 0.098503 0.001211 -47915.100000 0 0 1
-9.625104 20.198596 -15.010281 26.943170 -1.126106 2.161697 0.064572 -0.002770 -182222.000000 0 0 1
-9.889504 20.086696 -16.407681 27.757695 -1.113295 2.203223 0.063927 -0.001840 -133410.000000 0 0 1
-8.641004 19.994996 -17.303781 27.818836 -1.162878 2.242112 0.055241 -0.009025 -241781.000000 0 0 1
-7.952004 18.795296 -17.130681 26.645032 -1.170549 2.269104 0.054057 -0.003599 -147230.000000 0 0 1
-7.191404 18.559096 -18.327881 27.056746 -1.201124 2.315001 0.052463 -0.005172 204458.000000 0 0 1
-6.541404 17.177296 -18.318281 25.950122 -1.206936 2.354494 0.029185 -0.003674 -280411.000000 0 0 1
-7.423704 16.163196 -18.711081 25.815980 -1.140238 2.381521 0.026305 -0.006753 -429068.000000 0 0 1
-7.273204 15.489996 -19.967381 26.297067 -1.131811 2.433034 0.026394 -0.013785 -434801.000000 0 0 1
-6.165404 14.467796 -20.018881 25.457512 -1.167955 2.475698 0.024670 -0.007652 -762558.000000 0 0 1
-6.457204 13.372296 -19.118581 24.208137 -1.120939 2.481211 0.007293 -0.004210 -261417.000000 0 1 0
-5.336904 12.742896 -18.577381 23.151307 -1.174177 2.502158 0.019848 -0.003994 -260702.000000 0 1 0
-4.667904 13.455996 -17.391081 22.478942 -1.236885 2.455395 0.018154 0.007244 -378425.000000 0 1 0
-3.982604 14.626296 -17.652781 23.268226 -1.304951 2.432057 0.014287 -0.002781 -535464.000000 0 1 0
-3.672104 15.281196 -16.393981 22.710392 -1.334966 2.377299 0.016153 0.006455 55767.100000 0 1 0
-2.686904 16.448096 -16.576681 23.506289 -1.408870 2.353504 0.031466 -0.000806 139014.000000 0 1 0
-3.301704 17.590196 -17.111281 24.761102 -1.385254 2.333744 0.029806 -0.002512 258111.000000 0 1 0
-2.384704 18.690096 -17.012281 25.385511 -1.443890 2.305217 0.045609 -0.007467 598005.000000 0 0 1
-2.987604 19.993396 -17.592481 26.798452 -1.422464 2.286931 0.058146 -0.010094 312435.000000 0 0 1
-3.350104 19.992696 -18.981981 27.771328 -1.404772 2.323357 0.062803 -0.011014 20106.100000 0 0 1
-3.862404 21.191596 -19.536181 29.080307 -1.390514 2.307434 0.081281 -0.011829 -420204.000000 0 0 1
-2.831604 22.293396 -19.771181 29.931807 -1.444457 2.292335 0.067538 -0.020021 -1266090.000000 0 0 1
-1.880404 21.940196 -20.731381 30.243979 -1.485299 2.326047 0.088057 -0.016994 -545818.000000 0 0 1
-0.808004 22.834696 -20.827581 30.917055 -1.535426 2.309946 0.083594 -0.018218 72844.800000 0 0 1
0.283096 22.620696 -19.725681 30.014638 1.558282 2.287897 0.083668 -0.021349 -806399.000000 0 0 1
-0.081904 22.805196 -18.328381 29.257703 -1.567205 2.247782 0.071885 -0.016594 -195667.000000 0 0 1
0.745896 21.918696 -17.567581 28.099919 1.536779 2.246162 0.073158 -0.016704 262182.000000 0 0 1
0.509996 22.030196 -16.024781 27.246710 1.547651 2.199549 0.075893 -0.014639 514938.000000 0 0 1
-0.575904 21.246196 -15.503681 26.307729 -1.543697 2.201014 0.068100 -0.002864 376187.000000 0 0 1
-0.370404 21.007796 -14.094381 25.300519 -1.553166 2.161660 0.076472 -0.007083 238618.000000 0 0 1
-1.298804 19.963996 -13.424681 24.092946 -1.505831 2.161811 0.059075 -0.001961 140296.000000 0 1 0
-0.939404 18.617596 -13.671181 23.117061 -1.520381 2.203577 0.047899 -0.004967 107598.000000 0 1 0
-1.902904 17.732596 -13.124981 22.143421 -1.463894 2.205236 0.035296 -0.000271 10874.400000 0 1 0
-1.586304 16.238096 -13.264381 21.027028 -1.473415 2.253413 0.018472 0.002863 -634758.000000 0 1 0
-0.520504 15.945996 -12.398581 20.205705 -1.538166 2.231431 0.011735 -0.000848 -74908.200000 0 1 0
-0.129204 14.574396 -12.308381 19.076843 -1.561931 2.272081 0.009699 -0.001123 362739.000000 0 1 0
0.592796 13.852596 -13.499881 19.351811 1.528029 2.342843 0.015527 -0.006960 421645.000000 0 1 0
-0.245004 13.809296 -14.702181 20.172030 -1.553056 2.387422 0.016007 -0.005153 1046180.000000 0 1 0
0.383996 12.920196 -15.693081 20.331052 1.541084 2.452585 0.018970 -0.007153 117994.000000 0 1 0
-0.313804 12.935796 -17.073181 21.422576 -1.546543 2.493061 0.018009 0.000309 62276.400000 0 1 0
-0.101304 14.205796 -17.754381 22.738358 -1.563665 2.466761 0.026815 -0.002576 66635.000000 0 1 0
-0.562004 14.052396 -19.074981 23.698957 -1.530824 2.506281 0.038797 -0.007075 -5402.400000 0 1 0
-1.150704 15.306596 -19.732481 24.999736 -1.495760 2.480477 0.051141 -0.005271 -135829.000000 0 1 0
-0.174604 16.293596 -19.707881 25.571709 -1.560081 2.450721 0.049171 -0.017301 15478.500000 0 0 1
-0.774604 17.516596 -20.116181 26.685049 -1.526604 2.424679 0.074115 -0.020842 655858.000000 0 0 1
0.300496 18.636896 -20.427581 27.653394 1.554674 2.401937 0.092720 -0.026042 764699.000000 0 0 1
0.986796 18.316996 -21.635381 28.365045 1.516975 2.438348 0.099074 -0.036220 -507718.000000 0 0 1
1.904296 19.294996 -21.918681 29.263489 1.472421 2.417365 0.104828 -0.027313 -336158.000000 0 0 1
2.562196 19.207196 -23.321681 30.321313 1.438182 2.448309 0.119842 -0.039748 56445.800000 0 0 1
3.264096 18.020096 -23.598281 29.870672 1.391603 2.481630 0.092200 -0.032275 -105624.000000 0 0 1
3.722596 18.147196 -24.939481 31.066962 1.368470 2.502715 0.091629 -0.037887 -122635.000000 0 0 1
4.774396 17.179596 -25.493451 31.110278 1.299726 2.531255 0.070035 -0.019661 -563115.000000 0 0 1
5.976396 17.238496 -24.720081 30.724020 1.237074 2.505772 0.057920 -0.009338 522130.000000 0 0 1
6.894796 16.160296 -24.915481 30.487285 1.167529 2.527405 0.050945 -0.008339 420948.000000 0 0 1
7.376696 15.878696 -26.361901 31.646460 1.135896 2.555327 0.045273 -0.013132 -1431780.000000 0 0 1
8.358096 16.826596 -26.794471 32.725155 1.109777 2.530067 0.021872 -0.009408 535913.000000 0 0 1
8.684696 16.728596 -28.214061 33.930857 1.091944 2.552628 0.036207 -0.020110 77366.900000 0 0 1
9.381996 15.442896 -28.685671 33.902398 1.024860 2.579469 0.044565 -0.018812 -279589.000000 0 0 1
10.612596 15.189196 -28.013501 33.587127 0.960948 2.557213 0.049899 -0.010777 401623.000000 0 0 1
11.038596 13.835696 -28.229561 33.319441 0.897377 2.581564 0.042452 -0.000185 -171622.000000 0 0 1
10.495096 12.800496 -27.243781 31.878258 0.884040 2.595614 0.042494 -0.002750 692976.000000 0 0 1
9.062396 12.686396 -27.230481 31.377870 0.950511 2.621603 0.053100 -0.002831 675897.000000 0 0 1
8.673596 11.912896 -26.125401 29.994748 0.941469 2.628029 0.061228 -0.007345 372174.000000 0 0 1
7.146596 11.606996 -26.142451 29.482603 1.018902 2.660971 0.068352 -0.022392 963457.000000 0 0 1
6.347396 12.783896 -25.859731 29.537148 1.109941 2.637263 0.087658 -0.009083 -1330180.000000 0 0 1
5.035196 12.482496 -25.648341 28.965553 1.187379 2.658317 0.099119 -0.024031 -979136.000000 0 0 1
4.008696 13.550596 -26.084321 29.666143 1.283168 2.645108 0.108196 -0.020315 -132585.000000 0 0 1
3.667996 13.561096 -27.461021 30.845829 1.306638 2.668727 0.096668 -0.020901 405805.000000 0 0 1
4.361496 14.546296 -28.236001 32.060710 1.279490 2.648143 0.100680 -0.021109 127447.000000 0 0 1
4.022596 14.321996 -29.752951 33.264680 1.296983 2.677953 0.100866 -0.031030 -141242.000000 0 0 1
4.749296 13.284696 -30.336141 33.456246 1.227455 2.706286 0.099172 -0.028005 4631.180000 0 0 1
4.651096 13.278896 -31.730861 34.710363 1.233888 2.724230 0.087848 -0.025214 -850963.000000 0 0 1
5.540496 12.187596 -32.364351 35.024074 1.144123 2.749366 0.096652 -0.014740 1293530.000000 0 0 1
6.977996 12.407496 -32.428571 35.415400 1.058482 2.727951 0.091514 -0.012573 1918370.000000 0 0 1
7.718296 12.507196 -31.184771 34.474512 1.017892 2.701177 0.086330 -0.010023 -359300.000000 0 0 1
7.639796 11.230396 -30.280141 33.186973 0.973429 2.719932 0.086204 -0.008444 -682014.000000 0 0 1
8.699696 10.331596 -30.470881 33.330184 0.870937 2.724357 0.074135 -0.003164 -335673.000000 0 0 1
8.607296 9.131396 -29.702731 32.244692 0.814935 2.741864 0.080042 -0.010563 -156704.000000 0 0 1
9.750696 8.137196 -29.996221 32.573966 0.695441 2.741089 0.070138 -0.013150 -85499.100000 0 0 1
10.965096 8.437796 -29.359131 32.455944 0.655874 2.701199 0.064401 -0.016805 146328.000000 0 0 1
11.778296 7.252896 -29.292111 32.393834 0.551945 2.700415 0.039608 -0.000276 347571.000000 0 0 1
13.039196 7.330996 -28.342951 32.048198 0.512182 2.655971 0.031825 0.008829 1232740.000000 0 0 1
13.814696 6.110196 -28.303011 32.081782 0.416429 2.651341 0.039334 -0.000614 919585.000000 0 0 1
14.662896 5.843096 -29.454571 33.417271 0.379209 2.649651 0.028985 0.003421 -323500.000000 0 0 1
15.389996 4.478696 -29.339321 33.432117 0.283192 2.641585 0.035270 -0.005303 -129034.000000 0 0 1
16.212496 4.577196 -28.196541 32.845710 0.275164 2.603045 0.020008 -0.000473 -207851.000000 0 0 1
17.124596 3.501996 -28.197171 33.175235 0.201720 2.586680 0.036386 -0.013140 -296286.000000 0 0 1
17.926296 3.563896 -26.899191 32.521069 0.196249 2.544780 0.038422 -0.003837 -252554.000000 0 0 1
18.921896 4.571996 -26.875161 33.184568 0.237081 2.514725 0.065175 -0.008345 225434.000000 0 0 1
19.358196 4.734196 -25.524191 32.382660 0.239850 2.478684 0.068634 -0.010725 -525407.000000 0 0 1
20.431296 5.760496 -25.285401 33.014734 0.274811 2.443209 0.047597 -0.009897 -757179.000000 0 0 1
19.991796 7.085796 -25.688851 33.313623 0.340620 2.451397 0.051528 -0.009550 -84638.700000 0 0 1
20.903096 8.005896 -26.242511 34.492074 0.365766 2.435383 0.050295 -0.020895 -728277.000000 0 0 1
21.169396 7.973496 -27.778191 35.823845 0.360218 2.458161 0.079532 -0.021539 527766.000000 0 0 1
20.063296 8.416096 -28.593901 35.930178 0.397184 2.491154 0.057726 -0.007111 712345.000000 0 0 1
19.170296 7.342396 -28.873501 35.427250 0.365774 2.523540 0.050960 -0.004104 1174600.000000 0 0 1
17.777396 7.808096 -29.498901 35.315539 0.413849 2.559466 0.041832 -0.003895 1108580.000000 0 0 1
18.065596 8.537996 -30.679761 36.612987 0.441497 2.564308 0.029398 0.009137 1185390.000000 0 0 1
16.875496 9.301296 -31.002641 36.502879 0.503742 2.585493 0.016942 0.016546 1104190.000000 0 0 1
16.129096 8.800496 -32.287051 37.149026 0.499481 2.624222 0.007656 0.022400 252234.000000 0 0 1
15.461496 7.549596 -32.153561 36.467872 0.454231 2.650240 0.025183 0.013864 1210290.000000 0 0 1
14.247896 7.517396 -32.954041 36.680820 0.485494 2.686908 0.023801 0.009405 1312230.000000 0 0 1
13.649596 6.110996 -33.274511 36.480800 0.420944 2.719199 0.026523 0.009880 111020.000000 0 0 1
13.286596 5.247096 -32.249131 35.271406 0.376116 2.724607 0.048814 0.001514 122789.000000 0 0 1
12.648496 4.103096 -32.779251 35.373707 0.313684 2.756213 0.058247 -0.008464 -4198.590000 0 0 1
12.186996 3.055996 -31.727911 34.125098 0.245693 2.764538 0.055004 -0.007487 248753.000000 0 0 1
13.247596 2.338196 -31.104761 33.889115 0.174700 2.733399 0.051620 -0.012816 367472.000000 0 0 1
12.792696 1.226896 -30.306641 32.918852 0.095614 2.740531 0.051596 -0.015418 -325863.000000 0 0 1
12.288196 -0.052404 -30.988931 33.336412 -0.004265 2.764074 0.048644 -0.019308 80199.500000 0 0 1
13.167796 -0.817204 -31.842511 34.467436 -0.061981 2.748799 0.051765 -0.020856 -40393.100000 0 0 1
14.119496 -1.454404 -31.024381 34.117263 -0.102645 2.712505 0.044366 -0.026802 -338176.000000 0 0 1
14.580496 -2.864504 -31.546811 34.871156 -0.193991 2.701396 0.059369 -0.029826 -213711.000000 0 0 1
13.553296 -3.813504 -31.490261 34.494509 -0.274280 2.721145 0.057822 -0.032056 -275397.000000 0 0 1
13.789596 -4.983704 -32.335341 35.504430 -0.346804 2.715871 0.057862 -0.034051 -348353.000000 0 0 1
12.716796 -6.084204 -32.353851 35.291728 -0.446250 2.730675 0.052355 -0.035555 -290237.000000 0 0 1
12.587596 -6.731604 -31.097501 34.217198 -0.491084 2.711259 0.056468 -0.037502 35187.600000 0 0 1
12.302296 -8.071104 -31.296581 34.582729 -0.580627 2.702122 0.078321 -0.039864 -102597.000000 0 0 1
12.224096 -8.966304 -30.001551 33.614226 -0.632853 2.673710 0.078747 -0.043556 -106882.000000 0 0 1
13.392396 -8.715904 -29.230761 33.313070 -0.576944 2.641329 0.062350 -0.038001 287475.000000 0 0 1
13.514596 -9.433804 -27.949361 32.446999 -0.609413 2.608787 0.064782 -0.042127 -283126.000000 0 0 1
13.585096 -10.932004 -27.978551 32.967603 -0.677604 2.584258 0.070139 -0.041678 -713342.000000 0 0 1
12.465696 -11.554404 -28.523511 33.203742 -0.747478 2.604198 0.062015 -0.041445 -385831.000000 0 0 1
12.833696 -12.863604 -28.863221 34.106621 -0.786562 2.579730 0.063730 -0.045105 276828.000000 0 0 1
-9.973304 -3.291304 -17.801781 20.668887 0.318758 2.608587 0.010603 0.005663 674168.000000 0 1 0
-10.750204 -2.559204 -18.806381 21.812757 0.233711 2.610341 0.019200 -0.004124 501854.000000 0 1 0
-11.664404 -3.449804 -19.422281 22.916903 0.287558 2.582071 0.023967 0.002744 -397388.000000 0 1 0
-12.573004 -2.903304 -20.531881 24.250108 0.226938 2.580495 0.033529 -0.011538 -996508.000000 0 1 0
-13.403904 -1.960504 -20.027781 24.178921 0.145234 2.546891 0.035924 -0.007824 -529380.000000 0 1 0
-14.359104 -1.694304 -21.066981 25.551364 0.117452 2.540106 0.043739 0.002796 600770.000000 0 0 1
-15.195104 -0.392104 -20.905681 25.847484 0.025799 2.512921 0.049545 0.005864 662661.000000 0 0 1
-14.433904 0.776796 -21.249881 25.700164 -0.053766 2.544259 0.039436 -0.001623 164272.000000 0 0 1
-15.131004 1.914296 -20.871681 25.850317 -0.125846 2.510537 0.037886 0.003936 -98033.500000 0 0 1
-14.647804 3.182996 -21.586081 26.280192 -0.213975 2.534626 0.048331 -0.001593 -200406.000000 0 0 1
-13.443704 3.721596 -21.117281 25.308556 -0.270065 2.557827 0.049069 -0.003761 -119352.000000 0 0 1
-13.045004 4.815296 -21.855881 25.904415 -0.353614 2.574959 0.051177 -0.005250 -924228.000000 0 0 1
-11.931304 5.586296 -21.199181 24.959326 -0.437890 2.585547 0.033350 -0.005525 -821682.000000 0 1 0
-12.167204 6.213396 -19.967181 24.193707 -0.472145 2.541538 0.040813 -0.008835 173158.000000 0 1 0
-10.958404 6.424196 -19.274881 23.084149 -0.530236 2.558899 0.021901 -0.000910 -29689.700000 0 1 0
-11.281204 6.839796 -17.856781 22.201644 -0.545039 2.505293 0.032468 -0.002586 68139.500000 0 1 0
-11.734104 8.175096 -17.779181 22.817113 -0.608505 2.464191 0.023153 -0.005948 149196.000000 0 1 0
-12.681404 8.198796 -16.728081 22.535903 -0.573926 2.407271 0.038619 -0.004752 -38437.500000 0 1 0
-13.449704 9.562396 -16.587881 23.398541 -0.618053 2.358773 0.041570 -0.007369 497606.000000 0 1 0
-12.614704 10.667896 -16.153781 23.105830 -0.701976 2.344964 0.006926 0.004128 573686.000000 0 1 0
-13.424004 11.816196 -16.042081 24.024461 -0.721784 2.301964 0.027285 -0.008140 -121924.000000 0 1 0
-12.693604 13.070096 -15.555581 23.956859 -0.800010 2.277482 0.037086 0.002761 -376966.000000 0 1 0
-12.508404 13.123696 -14.123281 22.981702 -0.809398 2.232605 0.057641 -0.004497 138878.000000 0 1 0
-12.082604 14.382096 -13.652081 23.220967 -0.872069 2.199282 0.054910 -0.008453 -512072.000000 0 1 0
-12.633704 14.766496 -12.206581 22.949085 -0.863080 2.131637 0.049046 -0.011016 295963.000000 0 1 0
-13.983104 15.091396 -12.010981 23.823121 -0.823499 2.099221 0.044396 -0.012064 -244162.000000 0 1 0
-14.939704 14.099996 -12.199981 23.892345 -0.756490 2.106706 0.044700 -0.009836 183184.000000 0 1 0
-16.422704 14.513596 -11.900081 24.939158 -0.723765 2.068222 0.034680 -0.005612 26672.600000 0 1 0
-17.405904 13.578296 -12.120081 25.183962 -0.662487 2.072890 0.034551 -0.006185 -940286.000000 0 0 1
-18.546304 13.971796 -11.425381 25.878868 -0.645640 2.028060 0.083198 -0.005573 325612.000000 0 0 1
-19.881404 13.509096 -12.163981 26.939345 -0.596824 2.039278 0.064903 -0.008757 722658.000000 0 0 1
-20.220704 12.111496 -12.076381 26.484036 -0.539658 2.044277 0.070527 -0.013238 237480.000000 0 0 1
-21.268504 11.730496 -12.929181 27.515768 -0.504027 2.059954 0.084688 -0.007769 -17609.800000 0 0 1
-22.051904 10.420196 -12.557281 27.432686 -0.441431 2.046258 0.081016 -0.012061 594815.000000 0 0 1
-21.200304 9.258496 -12.613181 26.348908 -0.411752 2.069968 0.067075 -0.013838 1095890.000000 0 0 1
-21.807404 8.284996 -11.756681 26.123238 -0.363074 2.037614 0.068245 -0.017661 189411.000000 0 0 1
-20.915804 7.026196 -11.707081 24.977871 -0.324084 2.058613 0.071376 -0.013214 -22231.400000 0 1 0
-20.834504 6.269096 -12.905281 25.296727 -0.292282 2.106163 0.079850 -0.012033 -143940.000000 0 0 1
-19.686004 5.493596 -12.873981 24.154870 -0.272138 2.132911 0.071940 -0.014185 -491630.000000 0 1 0
-19.760804 4.336296 -13.923181 24.559067 -0.216015 2.173566 0.071621 -0.016082 -21902.500000 0 1 0
-20.545804 3.259196 -13.466881 24.781229 -0.157320 2.145315 0.069345 -0.025975 170482.000000 0 1 0
-20.261404 2.162696 -14.286981 24.886132 -0.106337 2.182294 0.074270 -0.027224 -436777.000000 0 1 0
-21.038504 0.883896 -14.007681 25.290612 -0.041989 2.157800 0.072947 -0.022135 260030.000000 0 0 1
-22.366404 0.974796 -14.532181 26.690645 -0.043555 2.146550 0.068183 -0.025646 756541.000000 0 0 1
-22.908304 -0.374704 -14.556981 27.144732 0.016355 2.136811 0.069387 -0.028619 -933030.000000 0 0 1
-24.243604 -0.506804 -15.242981 28.641886 0.020902 2.131984 0.079418 -0.033012 -666169.000000 0 0 1
-25.359574 -0.004304 -14.551781 29.238029 0.000170 2.091742 0.105822 -0.039636 913050.000000 0 0 1
-26.616464 -0.246004 -15.243781 30.673597 0.009242 2.090897 0.097680 -0.028704 622130.000000 0 0 1
-27.785724 0.221396 -14.409481 31.300617 -0.007968 2.049194 0.097654 -0.023784 -836923.000000 0 0 1
-28.111764 -0.691004 -13.347081 31.127051 0.024576 2.013953 0.114720 -0.023936 1030060.000000 0 0 1
-29.395274 -0.316504 -12.782781 32.055917 0.010767 1.980966 0.133718 -0.030344 1162750.000000 0 0 1
-29.769974 -0.840704 -11.394281 31.887110 0.028233 1.936206 0.130573 -0.030201 -29049.300000 0 0 1
-30.096434 -2.236004 -11.211681 32.194671 0.074158 1.926496 0.130463 -0.019774 -270565.000000 0 0 1
-29.060734 -3.106104 -11.488581 31.403211 0.106479 1.945333 0.120108 -0.025679 -781403.000000 0 0 1
-29.180184 -4.582304 -10.991881 31.516695 0.155763 1.927048 0.118561 -0.028599 253572.000000 0 0 1
-30.342394 -5.224604 -11.543481 32.881747 0.170516 1.929500 0.112314 -0.022560 752919.000000 0 0 1
-30.512214 -6.512904 -11.050481 33.098735 0.210296 1.911196 0.106200 -0.022867 33757.600000 0 0 1
-29.699734 -7.642504 -11.773981 32.849790 0.251861 1.937370 0.096933 -0.026369 -717781.000000 0 0 1
-28.352234 -7.617804 -11.475081 31.520749 0.262485 1.943407 0.075889 -0.017807 -1088810.000000 0 0 1
-27.720354 -8.651404 -12.181881 31.490682 0.302517 1.968000 0.074646 -0.019896 -876999.000000 0 0 1
-26.296674 -8.925704 -11.747381 30.152682 0.327221 1.970990 0.081842 -0.020666 -1069650.000000 0 0 1
-25.381844 -7.893004 -12.055881 29.187014 0.301491 1.996604 0.075197 -0.013010 550357.000000 0 0 1
-24.095404 -8.006904 -11.456381 27.855837 0.320820 1.994648 0.087313 -0.014991 333724.000000 0 0 1
-24.078204 -7.782404 -9.909581 27.175826 0.312615 1.944050 0.090269 -0.012736 -700689.000000 0 0 1
-24.228304 -6.471904 -9.446581 26.798025 0.261027 1.931049 0.082790 -0.007464 889854.000000 0 0 1
-25.570904 -5.978904 -9.462481 27.913383 0.229690 1.916644 0.087670 -0.014861 168704.000000 0 0 1
-25.588164 -4.519104 -8.921681 27.473129 0.174807 1.901535 0.081210 -0.017308 -316270.000000 0 0 1
-25.489334 -4.394404 -7.515281 26.935040 0.170723 1.853565 0.080945 -0.019975 445795.000000 0 0 1
-25.493724 -3.007504 -7.187581 26.657764 0.117428 1.843799 0.113769 -0.024979 -134717.000000 0 0 1
-25.678304 -2.746904 -5.676581 26.441338 0.106568 1.787166 0.116561 -0.024803 370173.000000 0 0 1
-24.459504 -2.976304 -4.967181 25.135604 0.121088 1.769721 0.089623 -0.017551 662379.000000 0 0 1
-24.484104 -2.574204 -3.626081 24.884661 0.104753 1.717032 0.091958 -0.012461 399225.000000 0 1 0
-23.101204 -2.964404 -3.006681 23.483898 0.127625 1.699180 0.070960 -0.010741 452596.000000 0 1 0
-22.883704 -4.380304 -2.956781 23.486028 0.189128 1.697027 0.069018 -0.009457 844568.000000 0 1 0
-21.580204 -4.656904 -2.437681 22.211129 0.212536 1.680768 0.058030 -0.007885 492452.000000 0 1 0
-21.232604 -6.169604 -2.555981 22.258044 0.282785 1.685884 0.060680 -0.012615 -207004.000000 0 1 0
-22.142804 -6.973404 -1.859181 23.289240 0.305096 1.650711 0.082627 -0.016575 245177.000000 0 1 0
-22.025104 -8.370004 -2.181681 23.662669 0.363165 1.663127 0.058595 -0.016648 427411.000000 0 1 0
-22.750504 -9.403104 -1.199681 24.646360 0.391931 1.619491 0.076550 -0.016844 -338735.000000 0 1 0
-21.879404 -9.765504 -0.206781 23.960721 0.419800 1.579426 0.064251 -0.009528 -135280.000000 0 1 0
-22.342704 -10.725504 0.735019 24.794619 0.447557 1.541148 0.049622 -0.002041 142773.000000 0 1 0
-21.138704 -11.303504 1.513019 24.018810 0.491044 1.507761 0.055582 -0.003652 646659.000000 0 1 0
-20.311204 -12.275104 0.841119 23.747225 0.543613 1.535369 0.052168 -0.010544 736917.000000 0 1 0
-19.176904 -12.614204 1.618219 23.010659 0.581826 1.500413 0.036804 -0.014407 -266965.000000 0 1 0
-18.409004 -13.780204 1.057219 23.019626 0.642577 1.524853 0.036389 -0.013395 -321920.000000 0 1 0
-19.174604 -15.011604 0.985019 24.371786 0.664221 1.530369 0.049436 -0.011467 332892.000000 0 1 0
-18.571304 -16.047304 0.270219 24.545516 0.712618 1.559787 0.052212 -0.017625 -528337.000000 0 1 0
-17.458504 -16.770604 1.043519 24.231002 0.765304 1.527718 0.047233 -0.016354 -83326.400000 0 1 0
-16.220204 -16.068404 0.900419 22.849494 0.780697 1.531380 0.040161 -0.018702 261095.000000 0 1 0
-15.133504 -16.619104 1.610919 22.534699 0.832151 1.499249 0.040187 -0.022824 143416.000000 0 1 0
-15.090104 -16.445504 3.144619 22.540064 0.828352 1.430827 0.042495 -0.025558 -596115.000000 0 1 0
-14.885104 -15.168404 3.628519 21.559522 0.794824 1.401689 0.036626 -0.027012 202549.000000 0 1 0
-14.145904 -15.130504 4.868419 21.277694 0.819017 1.339948 0.021221 -0.015947 -36811.600000 0 1 0
-14.843804 -15.532604 6.176319 22.355027 0.808070 1.290872 0.036463 -0.016836 -892773.000000 0 1 0
-15.833704 -14.626604 6.676319 22.565837 0.745790 1.270441 0.041808 -0.014083 360319.000000 0 1 0
-16.242604 -14.876804 8.035519 23.445918 0.741537 1.220980 0.053749 -0.013443 -202438.000000 0 1 0
-16.989804 -16.187204 8.353219 24.908940 0.761211 1.228819 0.030918 -0.006789 -718223.000000 0 1 0
-16.281004 -17.345304 7.971319 25.089293 0.817038 1.247475 0.027053 -0.001553 -77641.300000 0 0 1
-16.785504 -18.545504 8.563419 26.439006 0.835172 1.240954 0.024995 -0.003217 -97761.000000 0 0 1
-16.688704 -18.664904 10.085819 26.992874 0.841238 1.187858 0.033996 -0.010766 60558.200000 0 0 1
-15.387704 -19.021904 10.491119 26.621004 0.890624 1.165717 0.036054 -0.006826 -91456.400000 0 0 1
-15.274404 -19.217804 11.911119 27.285641 0.899231 1.119053 0.044458 -0.015177 458344.000000 0 0 1
-13.953604 -19.993404 12.258419 27.289341 0.961474 1.104925 0.047397 -0.010716 877865.000000 0 0 1
-12.830704 -19.120004 12.109919 26.016373 0.979757 1.086627 0.045412 -0.014899 -28940.700000 0 0 1
-11.651404 -19.882904 12.212519 26.081233 1.040734 1.083488 0.027547 -0.008697 1129160.000000 0 0 1
-10.256904 -19.226304 12.543019 25.143234 1.080723 1.048510 0.033163 -0.013462 947378.000000 0 0 1
-9.628904 -18.648604 11.460619 23.913010 1.094167 1.070982 0.030183 -0.013934 -714219.000000 0 1 0
-8.415804 -18.109604 11.912119 23.252572 1.135773 1.032944 0.026171 -0.007957 -106303.000000 0 1 0
-7.527604 -17.450004 10.829419 21.873358 1.163533 1.052851 0.019380 -0.011317 140622.000000 0 1 0
-6.937904 -18.339404 9.881919 21.957245 1.209131 1.103972 0.020576 -0.008312 139476.000000 0 1 0
-6.210404 -17.648004 8.867719 20.704049 1.232426 1.128176 0.021373 -0.003172 -359612.000000 0 1 0
-5.036804 -18.375504 8.227719 20.753889 1.303263 1.163158 0.014581 -0.006495 -586144.000000 0 1 0
-3.956704 -18.618004 9.056419 21.078528 1.361392 1.126690 0.029126 0.003329 -509065.000000 0 1 0
-2.787504 -18.872804 8.299019 20.804486 1.424157 1.160474 0.032996 -0.013156 1069340.000000 0 1 0
-1.497404 -19.263504 9.108719 21.361030 1.493220 1.130268 0.026825 -0.011414 650192.000000 0 1 0
-0.390304 -19.682304 8.346119 21.382309 1.550969 1.169808 0.037713 -0.009280 -534196.000000 0 1 0
0.637796 -20.004604 9.249519 22.048687 -1.538925 1.137897 0.043585 -0.008308 -80233.900000 0 1 0
2.032896 -20.170904 8.571319 22.010579 -1.470352 1.170797 0.047142 -0.031701 332909.000000 0 1 0
2.253096 -21.471104 8.045019 23.039251 -1.466243 1.214092 0.056746 -0.022569 -226354.000000 0 1 0
2.334896 -22.502504 9.028119 24.358189 -1.467405 1.191098 0.057630 -0.023304 -483596.000000 0 1 0
2.058896 -23.905504 8.479319 25.448203 -1.484882 1.231102 0.049916 -0.018808 34370.900000 0 0 1
1.943396 -24.904304 9.464419 26.712851 -1.492920 1.208629 0.042853 -0.013439 -108316.000000 0 0 1
1.478196 -26.089464 8.934919 27.616625 -1.514198 1.241334 0.045551 -0.016602 -820153.000000 0 0 1
1.350196 -27.352684 9.823119 29.094433 -1.521474 1.226400 0.053513 -0.011751 516870.000000 0 0 1
0.494796 -27.347574 10.984419 29.475280 -1.552705 1.188917 0.042489 -0.014803 -588372.000000 0 0 1
-0.853104 -27.442194 10.669619 29.455774 1.539719 1.200142 0.025400 -0.009111 -610566.000000 0 0 1
-1.734804 -27.577354 11.965519 30.111355 1.507972 1.162141 0.033168 -0.017424 16096.100000 0 0 1
-1.547404 -28.852664 12.626119 31.532358 1.517216 1.158824 0.032058 -0.021147 -108889.000000 0 0 1
-1.609504 -28.687574 14.002519 31.963072 1.514751 1.117330 0.024091 -0.022610 -387982.000000 0 0 1
-1.097804 -29.857584 14.840819 33.360612 1.534045 1.109778 0.009870 -0.011032 81616.700000 0 0 1
-1.037104 -29.637764 16.225519 33.804440 1.535818 1.070162 0.020496 -0.012510 -62628.000000 0 0 1
-0.623304 -30.755954 16.980119 35.137469 1.550533 1.066435 0.011533 -0.008706 -10397.500000 0 0 1
-0.999304 -30.624284 18.467419 35.775564 1.538177 1.028386 0.014843 -0.009890 -396053.000000 0 0 1
-2.364404 -30.676984 18.745219 36.028475 1.493874 1.023607 0.016937 -0.012426 -452754.000000 0 0 1
-2.544204 -30.241074 20.085819 36.392797 1.486863 0.986134 0.033071 -0.016590 345793.000000 0 0 1
-4.043004 -30.238414 20.547319 36.781788 1.437880 0.978066 0.059271 -0.022793 260626.000000 0 0 1
-4.705704 -29.086824 20.044819 35.636804 1.410405 0.973420 0.057222 -0.026499 -484880.000000 0 0 1
-5.986904 -28.908554 20.551919 35.971224 1.366585 0.962655 0.054687 -0.029635 -427399.000000 0 0 1
-6.050504 -27.949894 21.769019 35.940164 1.357609 0.920149 0.069671 -0.037743 -699429.000000 0 0 1
-5.361204 -28.465754 22.837819 36.886416 1.384638 0.903150 0.066517 -0.036376 -258521.000000 0 0 1
-5.067604 -27.459214 23.766619 36.667987 1.388299 0.865634 0.069339 -0.036289 -258683.000000 0 0 1
-3.899504 -27.863764 24.686519 37.430198 1.431750 0.850597 0.076435 -0.031974 -91710.000000 0 0 1
-4.205404 -28.922884 25.621519 38.867479 1.426408 0.851039 0.067659 -0.030630 250220.000000 0 0 1
-3.451704 -30.131254 25.420319 39.572710 1.456738 0.873210 0.054696 -0.029766 277787.000000 0 0 1
-3.893204 -31.326364 26.309119 41.093405 1.447151 0.876002 0.045689 -0.015400 -66978.700000 0 0 1
-3.483204 -31.152924 27.676419 41.816523 1.459449 0.847507 0.055630 -0.014609 109155.000000 0 0 1
-3.904004 -32.157284 28.532919 43.167808 1.449984 0.848677 0.038108 -0.011491 -201693.000000 0 0 1
-3.267304 -31.944044 29.953319 43.912397 1.468869 0.820145 0.069140 -0.007772 417078.000000 0 0 1
-1.878704 -32.228484 29.979719 44.056649 1.512569 0.822377 0.069807 -0.000176 195733.000000 0 0 1
-1.274504 -31.947584 31.209919 44.680327 1.530924 0.797475 0.079057 -0.009944 -55245.400000 0 0 1
-28.698054 3.176396 -9.802981 30.492068 -0.110235 1.898102 0.136330 -0.027737 -418629.000000 0 0 1
-29.321574 2.697396 -10.923181 31.406154 -0.091735 1.926024 0.130238 -0.035327 -222246.000000 0 0 1
-30.056254 3.763096 -11.476481 32.392112 -0.124554 1.932960 0.105308 -0.035483 -172902.000000 0 0 1
-30.888024 3.386996 -12.725381 33.577925 -0.109218 1.959491 0.108851 -0.035323 -24858.300000 0 0 1
-31.998434 2.552796 -12.463881 34.434937 -0.079610 1.941160 0.118336 -0.031263 357449.000000 0 0 1
-32.738804 2.358496 -13.679581 35.560128 -0.071916 1.965667 0.117005 -0.028921 -327512.000000 0 0 1
-33.995394 1.558796 -13.400281 36.574365 -0.045821 1.945917 0.098742 -0.017285 -357669.000000 0 0 1
-33.662444 0.198896 -13.414781 36.237495 -0.005908 1.950011 0.108573 -0.017996 -167212.000000 0 0 1
-34.843697 -0.528704 -13.318181 37.305987 0.015172 1.935849 0.091018 -0.016691 -184481.000000 0 0 1
-34.610584 -2.008704 -12.914181 36.995993 0.057972 1.927375 0.098655 -0.020818 5461.450000 0 0 1
-34.210742 -2.903804 -13.943181 37.056973 0.084677 1.956556 0.087286 -0.016389 272901.000000 0 0 1
-33.864114 -4.158604 -13.371781 36.645282 0.122191 1.944319 0.104932 -0.022041 119134.000000 0 0 1
-34.103915 -5.310804 -14.366781 37.385640 0.154483 1.965231 0.084395 -0.022769 -13456.500000 0 0 1
-33.603484 -6.499504 -13.852581 36.923322 0.191058 1.955378 0.085500 -0.030065 102329.000000 0 0 1
-33.928154 -7.655504 -14.592781 37.718373 0.221922 1.968051 0.073796 -0.019575 -698157.000000 0 0 1
-33.656834 -9.012104 -13.912081 37.517283 0.261627 1.950686 0.063869 -0.018451 614715.000000 0 0 1
-32.279604 -9.280104 -13.626081 36.245872 0.279942 1.956202 0.075945 -0.024403 1249110.000000 0 0 1
-31.397734 -9.557504 -14.725581 35.972299 0.295490 1.992548 0.091053 -0.025397 -139765.000000 0 0 1
-30.215934 -10.450204 -14.307481 35.027324 0.332974 1.991569 0.079583 -0.022222 -334603.000000 0 0 1
-30.672824 -11.780804 -14.154981 35.776710 0.366707 1.977570 0.073448 -0.024460 -63459.600000 0 0 1
-29.746824 -12.707804 -13.677281 35.120220 0.403731 1.970822 0.078905 -0.023707 -463131.000000 0 0 1
-29.976104 -14.197504 -14.239681 36.095768 0.442328 1.976317 0.084202 -0.024560 -205255.000000 0 0 1
-29.887574 -14.220504 -15.642081 36.608257 0.444101 2.012282 0.077987 -0.022233 134707.000000 0 0 1
-29.952404 -15.535404 -16.216881 37.436380 0.478472 2.018820 0.087347 -0.024347 151545.000000 0 0 1
-28.674444 -16.363604 -15.938681 36.661053 0.518573 2.020566 0.057568 -0.022835 184249.000000 0 0 1
-27.479224 -15.794104 -16.404781 35.688630 0.521658 2.048413 0.046340 -0.024678 184663.000000 0 0 1
-26.311604 -16.618804 -16.311381 35.136111 0.563342 2.053566 0.045026 -0.027506 475044.000000 0 0 1
-25.124684 -16.019504 -17.064881 34.337799 0.567609 2.090901 0.029667 -0.021730 -262875.000000 0 0 1
-25.143474 -16.139104 -18.436481 35.107959 0.570646 2.123672 0.029833 -0.026630 -1018510.000000 0 0 1
-23.910004 -15.841504 -18.958481 34.381180 0.585145 2.154862 0.015145 -0.019957 -1404070.000000 0 0 1
-23.937704 -15.414404 -20.475581 35.069459 0.572102 2.194269 0.019733 -0.018054 221869.000000 0 0 1
-24.518704 -16.417204 -21.388181 36.443734 0.590016 2.197999 0.022253 -0.020698 2314100.000000 0 0 1
-25.976054 -16.346604 -21.541081 37.496467 0.561682 2.182769 0.030200 -0.025954 1558470.000000 0 0 1
-26.537474 -17.644704 -22.221581 38.850634 0.586777 2.179708 0.040980 -0.029834 -212958.000000 0 0 1
-26.032114 -17.920004 -23.499381 39.382971 0.602885 2.210165 0.044851 -0.021315 86479.900000 0 0 1
-26.601364 -19.067704 -24.144381 40.671379 0.621909 2.206378 0.043812 -0.021714 -241123.000000 0 0 1
-25.879854 -19.393904 -25.495141 41.181216 0.643106 2.238388 0.047403 -0.024482 839454.000000 0 0 1
-24.535404 -19.872904 -25.403561 40.524798 0.680790 2.248319 0.036233 -0.025070 443571.000000 0 0 1
-24.373504 -21.145304 -24.861581 40.734381 0.714597 2.227279 0.031384 -0.016140 -1568590.000000 0 0 1
-22.931204 -21.547204 -24.949281 40.157051 0.754292 2.241188 0.019947 -0.002323 -814186.000000 0 0 1
-22.428504 -21.745004 -26.264631 40.813158 0.769926 2.269902 0.016918 -0.000578 -519386.000000 0 0 1
-21.038904 -21.912904 -26.278281 40.166639 0.805744 2.283962 0.010891 -0.005742 -280061.000000 0 0 1
-20.500604 -21.661404 -27.718241 40.715993 0.812923 2.319610 0.023220 -0.008297 -434256.000000 0 0 1
-20.882904 -22.700804 -28.562001 42.038198 0.827085 2.317781 0.054198 -0.013508 -267670.000000 0 0 1
-21.339304 -22.191204 -29.819421 42.860393 0.804966 2.340237 0.042726 -0.010655 -27463.800000 0 0 1
-20.350104 -22.294604 -31.001641 43.269826 0.830964 2.369529 0.047393 -0.017899 67164.300000 0 0 1
-20.280704 -23.577504 -31.572921 44.317660 0.860427 2.363741 0.056400 -0.025108 54023.800000 0 0 1
-19.467004 -23.582504 -32.733161 44.794627 0.880708 2.390200 0.066628 -0.025213 232334.000000 0 0 1
-18.940004 -24.968604 -33.296751 45.725579 0.921844 2.386469 0.069698 -0.018955 605723.000000 0 0 1
-18.137604 -24.854004 34.031052 45.878173 0.940371 0.735091 0.068836 -0.024643 445307.000000 0 0 1
-18.983704 -24.792204 32.878903 45.343761 0.917315 0.759612 0.083554 -0.024663 -91126.900000 0 0 1
-18.202504 -24.604704 31.569163 43.969702 0.933857 0.769907 0.084508 -0.026632 -210426.000000 0 0 1
-17.593504 -23.350304 31.497453 42.975082 0.925085 0.748187 0.059686 -0.018038 -56462.800000 0 0 1
-16.776004 -23.281804 30.323303 41.749005 0.946403 0.757838 0.065963 -0.019543 44041.900000 0 0 1
-16.051104 -21.940504 30.187863 40.624263 0.939192 0.733106 0.039115 -0.006902 -164833.000000 0 0 1
-16.868404 -20.771004 30.062783 40.246101 0.888713 0.727298 0.049076 -0.005461 -23527.300000 0 0 1
-16.179204 -19.570704 29.777373 39.134014 0.879982 0.706085 0.042556 -0.000204 75825.100000 0 0 1
-15.405804 -18.921604 30.964533 39.422940 0.887462 0.667382 0.043575 -0.003675 88747.500000 0 0 1
-14.970704 -17.646104 30.790023 38.516652 0.867240 0.644509 0.042993 -0.000942 -224132.000000 0 0 1
-14.506504 -17.090504 32.042433 39.105518 0.866996 0.610461 0.043089 -0.006778 130597.000000 0 0 1
-14.026704 -15.646504 31.798043 38.114001 0.839932 0.583957 0.053998 -0.011616 458257.000000 0 0 1
-12.724604 -15.563304 31.217323 37.130220 0.885414 0.572125 0.055147 -0.009825 196644.000000 0 0 1
-12.473804 -14.418804 30.400273 35.884179 0.857597 0.560146 0.054981 -0.013252 -660622.000000 0 0 1
-10.974504 -14.216204 30.286603 35.211057 0.913381 0.535243 0.068896 -0.020066 -520489.000000 0 0 1
-10.628504 -12.903104 29.875433 34.234438 0.881760 0.510149 0.074758 -0.018991 893785.000000 0 0 1
-9.303104 -12.609904 30.407273 34.207597 0.935174 0.475849 0.062036 -0.020103 1316240.000000 0 0 1
-8.967704 -11.125904 30.349153 33.545142 0.892395 0.440061 0.052880 -0.016003 -89933.400000 0 0 1
-9.761404 -10.405804 31.257383 34.359712 0.817340 0.428210 0.057903 -0.015271 -47984.400000 0 0 1
-9.521504 -9.034204 31.180733 33.830667 0.759143 0.398431 0.041601 -0.015177 -170772.000000 0 0 1
-10.350804 -8.290704 32.235893 34.857248 0.675333 0.390294 0.047897 -0.016843 323829.000000 0 0 1
-11.692904 -7.959904 31.905433 34.900441 0.597687 0.417306 0.056241 -0.023569 432501.000000 0 0 1
-12.422604 -7.249804 32.925113 35.929707 0.528272 0.411865 0.059067 -0.024129 412167.000000 0 0 1
-12.029204 -5.724004 33.149391 35.726015 0.444135 0.382115 0.046182 -0.026936 -186396.000000 0 0 1
-12.011804 -4.872104 31.986093 34.512766 0.385333 0.385022 0.039547 -0.023570 154757.000000 0 0 1
-12.348004 -3.583704 32.395833 34.854069 0.282465 0.377821 0.045048 -0.023397 -429505.000000 0 0 1
-11.713204 -2.469204 31.548393 33.743107 0.207763 0.362655 0.039702 -0.029281 -295414.000000 0 0 1
-10.333204 -2.372104 31.792423 33.513582 0.225652 0.321878 0.045186 -0.027569 -260725.000000 0 0 1
-9.726404 -1.455104 30.911973 32.438717 0.148502 0.308024 0.042145 -0.022515 -261973.000000 0 0 1
-8.244404 -1.217404 31.244003 32.336357 0.146605 0.260664 0.042651 -0.026885 -189432.000000 0 0 1
-8.072104 -0.568404 32.501353 33.493580 0.070300 0.244016 0.045550 -0.037251 -176085.000000 0 0 1
-6.697204 -0.368904 32.705701 33.386397 0.055028 0.202277 0.040672 -0.036806 -370241.000000 0 0 1
-6.510204 0.353996 34.072813 34.690988 -0.054322 0.189064 0.064685 -0.040453 -134798.000000 0 0 1
-7.112604 1.636296 34.228336 34.997794 -0.226121 0.210081 0.072541 -0.036300 -54223.900000 0 0 1
-6.445104 2.657596 33.497288 34.215062 -0.391102 0.205193 0.079258 -0.027551 -605424.000000 0 0 1
-7.201704 4.000996 33.331623 34.334671 -0.507104 0.242311 0.089158 -0.030015 -276599.000000 0 0 1
-8.367204 3.835896 32.557159 33.833309 -0.429854 0.275530 0.070640 -0.017395 -497602.000000 0 0 1
-9.116904 4.980196 32.782033 34.388690 -0.499967 0.306884 0.044212 -0.006572 196619.000000 0 0 1
-10.567904 4.886496 32.195413 34.235991 -0.433110 0.347001 0.031464 -0.002744 835536.000000 0 0 1
-11.453204 5.902796 32.641361 35.092411 -0.475879 0.375963 0.038978 0.002665 388787.000000 0 0 1
-12.679404 5.926696 31.946943 34.878363 -0.437251 0.412920 0.023384 0.001558 358678.000000 0 0 1
-13.558504 7.216296 31.984023 35.480779 -0.489101 0.447697 0.028153 -0.003373 246054.000000 0 0 1
-14.248904 7.537796 33.183397 36.891564 -0.486584 0.452208 0.026140 -0.002477 166660.000000 0 0 1
-14.490504 8.926496 33.095959 37.215582 -0.552118 0.474976 0.024899 0.006859 547027.000000 0 0 1
-15.528404 9.396196 34.194830 38.713127 -0.544159 0.487967 0.020157 0.012644 882674.000000 0 0 1
-14.832004 9.554896 -33.062881 37.475838 -0.572293 2.651407 0.013477 0.005951 179503.000000 0 0 1
-15.643204 10.112096 -32.074831 37.091226 -0.573855 2.615459 0.019563 -0.002976 -1117250.000000 0 0 1
-15.021804 10.284696 -30.679441 35.674327 -0.600350 2.606040 0.043351 -0.011439 -45354.300000 0 0 1
-14.046604 11.255896 -30.438721 35.362664 -0.675548 2.607555 0.042063 -0.012937 704724.000000 0 0 1
-12.762704 11.075896 -31.075211 35.372741 -0.714756 2.643525 0.046886 -0.020191 718478.000000 0 0 1
-12.036604 12.445696 -31.293071 35.763549 -0.802106 2.636230 0.045424 -0.016810 271150.000000 0 0 1
-12.713404 13.247496 -32.254721 37.114603 -0.805968 2.624090 0.040922 -0.021449 326920.000000 0 0 1
-11.953504 14.384796 -32.619741 37.601278 -0.877447 2.620984 0.045021 -0.020393 -71205.100000 0 0 1
-12.176504 15.550496 -31.668041 37.322245 -0.906489 2.583947 0.042835 -0.021894 -47206.100000 0 0 1
-13.490704 15.990596 -31.435381 37.760845 -0.869992 2.554376 0.037332 -0.021873 -240820.000000 0 0 1
-13.464404 17.020896 -30.448841 37.391616 -0.901536 2.522358 0.015877 -0.018950 -617383.000000 0 0 1
-14.807904 17.709296 -30.345781 38.128199 -0.874389 2.491269 0.008233 -0.024033 -667360.000000 0 0 1
-15.043304 18.487396 -31.555831 39.545610 -0.887754 2.494700 0.008323 -0.022904 -147769.000000 0 0 1
-16.275104 19.160396 -31.679581 40.442497 -0.866643 2.470792 0.005720 -0.020823 153628.000000 0 0 1
-16.543804 20.399596 -30.714031 40.412778 -0.889392 2.434122 -0.018294 -0.026701 -395939.000000 0 0 1
-15.842704 21.524096 -31.191481 41.075375 -0.936286 2.433143 -0.018555 -0.015962 47121.300000 0 0 1
-16.399704 22.763996 -30.753581 41.628506 -0.946495 2.402029 -0.021273 -0.015966 371971.000000 0 0 1
-17.773404 23.171596 -31.359951 42.851642 -0.916482 2.391794 -0.012217 -0.015635 822119.000000 0 0 1
-18.903304 22.516396 -30.743951 42.538377 -0.872409 2.378547 0.005430 -0.024114 1155600.000000 0 0 1
-19.977004 22.400396 -31.695911 43.651909 -0.842522 2.383438 0.039778 -0.028237 819097.000000 0 0 1
-21.322404 21.767596 -31.221461 43.626285 -0.795729 2.368361 0.048781 -0.042489 635323.000000 0 0 1
-22.186604 22.502796 -30.314781 43.790491 -0.792473 2.335424 0.075151 -0.042456 511495.000000 0 0 1
-23.138604 23.381096 -30.803111 45.065533 -0.790611 2.323368 0.093337 -0.027213 225602.000000 0 0 1
-24.377304 22.717696 -31.531731 45.875883 -0.750173 2.328599 0.089315 -0.045193 -38232.100000 0 0 1
-24.165904 22.010396 -32.753681 46.273665 -0.738752 2.357211 0.103957 -0.038685 -489602.000000 0 0 1
-25.438944 21.679796 -33.200221 47.110594 -0.705786 2.352838 0.113580 -0.034270 -571744.000000 0 0 1
-25.470884 20.772796 34.065459 47.336355 -0.684151 0.767503 0.109989 -0.021088 -175615.000000 0 0 1
-25.006604 19.514296 -34.175320 46.627143 -0.662654 2.393443 0.102986 -0.030215 -20316.800000 0 0 1
-24.692304 18.796296 33.178994 45.429685 -0.650644 0.751981 0.092470 -0.044190 -209682.000000 0 0 1
-24.290104 17.387296 33.567489 44.934436 -0.621263 0.727209 0.069122 -0.024602 -317626.000000 0 0 1
-25.379684 16.524296 33.725715 45.327746 -0.577137 0.731698 0.062041 -0.013338 37302.200000 0 0 1
-25.241764 15.397796 32.891146 44.227438 -0.547749 0.732235 0.069416 -0.018192 -673581.000000 0 0 1
-26.048734 14.170796 33.289486 44.581811 -0.498233 0.727701 0.046662 -0.007478 -1079650.000000 0 0 1
-27.399174 14.484296 33.438725 45.592301 -0.486296 0.747443 0.051641 -0.003762 -581922.000000 0 0 1
-28.379634 13.573896 33.013232 45.601840 -0.446135 0.761292 0.046862 0.002234 41113.100000 0 0 1
-28.536074 12.273596 33.786975 45.896714 -0.406189 0.743429 0.033326 -0.000068 208953.000000 0 0 1
-27.429104 11.319196 33.742403 44.933615 -0.391382 0.721313 0.042677 -0.013870 863343.000000 0 0 1
-27.861874 9.995896 33.951725 45.043552 -0.344463 0.717041 0.046953 -0.012745 -247024.000000 0 0 1
-26.683404 9.103596 -34.068811 44.221752 -0.328788 2.450278 0.044007 -0.019460 1078620.000000 0 0 1
-25.579454 8.671196 33.618561 43.124306 -0.326833 0.676812 0.028916 -0.011196 742148.000000 0 0 1
-24.693704 9.721296 33.390623 42.652272 -0.375042 0.671552 0.017979 -0.013689 -855027.000000 0 0 1
-23.453704 9.313196 32.544826 41.182248 -0.377994 0.659557 0.022347 -0.009375 -87115.200000 0 0 1
-23.696304 9.161396 31.147513 40.194696 -0.368916 0.684214 0.027051 -0.017933 -157127.000000 0 0 1
-22.518804 9.041896 30.393273 38.892203 -0.381822 0.673770 0.037078 -0.016551 -185245.000000 0 0 1
-22.669004 8.922196 28.841753 37.753623 -0.374965 0.701389 0.065040 -0.024708 -127712.000000 0 0 1
-23.149904 10.144796 28.348333 37.979770 -0.413016 0.728151 0.065580 -0.023758 225309.000000 0 0 1
-23.264004 10.074096 26.948973 36.999303 -0.408655 0.754865 0.067755 -0.023927 -750445.000000 0 0 1
-23.632204 11.479396 26.397103 37.243317 -0.452185 0.783037 0.073647 -0.019989 638997.000000 0 0 1
-24.934004 12.007096 26.614713 38.395545 -0.448783 0.804916 0.070268 -0.016905 948396.000000 0 0 1
-26.019974 11.321896 25.954343 38.455849 -0.410414 0.829950 0.081221 -0.010836 101243.000000 0 0 1
-27.340914 12.099796 25.943163 39.585077 -0.416644 0.856114 0.067394 -0.009711 -233242.000000 0 0 1
-27.317614 13.327596 25.239643 39.508435 -0.453901 0.877804 0.079432 -0.013560 -553002.000000 0 0 1
-28.514864 14.005396 25.443683 40.701715 -0.456552 0.895504 0.052659 -0.018303 -353911.000000 0 0 1
-28.470264 15.454096 24.855533 40.831147 -0.497310 0.916325 0.058675 -0.016836 31401.300000 0 0 1
-27.494354 16.153196 25.600353 40.893072 -0.531185 0.894343 0.076865 -0.025797 -152550.000000 0 0 1
-27.229854 17.370796 25.035703 40.865584 -0.567845 0.911406 0.058378 -0.024624 -684254.000000 0 0 1
-23.049804 -9.611404 31.029643 39.831035 0.395062 0.677676 0.057596 -0.036088 726579.000000 0 0 1
-21.855104 -9.073504 30.437963 38.554425 0.393512 0.660834 0.065211 -0.030200 608962.000000 0 0 1
-22.087704 -9.026804 29.011093 37.563192 0.387967 0.688299 0.066837 -0.028852 -11796.300000 0 0 1
-20.866504 -8.632104 28.187473 36.117279 0.392246 0.675422 0.063530 -0.029126 -1088970.000000 0 0 1
-20.530804 -7.252604 28.361283 35.755791 0.339571 0.654760 0.067219 -0.026664 -508849.000000 0 0 1
-19.264404 -6.892504 28.805083 35.332092 0.343593 0.617606 0.076229 -0.028100 289853.000000 0 0 1
-17.948404 -7.370704 28.069333 34.122719 0.389663 0.604829 0.080965 -0.029021 -256907.000000 0 0 1
-17.692004 -8.759304 28.049303 34.300085 0.459720 0.613285 0.081907 -0.028852 -28589.900000 0 0 1
-17.229404 -9.372904 29.237143 35.206736 0.498230 0.590896 0.061579 -0.027771 -875855.000000 0 0 1
-15.906304 -8.918904 29.834603 34.966569 0.511033 0.548645 0.055996 -0.024834 -252298.000000 0 0 1
-14.772604 -9.303904 29.029183 33.874562 0.562049 0.541452 0.057738 -0.018957 -312831.000000 0 0 1
-13.594204 -8.865104 29.644373 33.796173 0.577867 0.500898 0.052530 -0.025202 158117.000000 0 0 1
-12.391404 -9.730404 29.120293 33.109200 0.665685 0.495938 0.059632 -0.017157 16832.300000 0 0 1
-11.998004 -9.481704 27.783973 31.714413 0.668782 0.503151 0.071468 -0.021460 -767975.000000 0 0 1
-10.893704 -10.224404 27.423373 31.229035 0.753716 0.498842 0.067734 -0.016883 -716760.000000 0 0 1
-10.594904 -9.905004 25.929953 29.710664 0.751757 0.509991 0.057492 -0.014910 -517608.000000 0 0 1
-11.529004 -10.361104 25.038833 29.448490 0.732096 0.554320 0.051699 -0.016428 -582580.000000 0 0 1
-11.027104 -10.208804 23.719943 28.079395 0.746883 0.564707 0.049470 -0.020907 424275.000000 0 0 1
-12.053804 -10.759504 22.677623 27.844851 0.728725 0.619054 0.052291 -0.023184 -217366.000000 0 0 1
-12.172004 -12.176204 22.539123 28.362470 0.785571 0.652314 0.048978 -0.021536 259256.000000 0 0 1
-13.327904 -12.715804 21.898923 28.616211 0.761900 0.699347 0.034193 -0.011961 324743.000000 0 0 1
-14.562904 -12.670404 22.816223 29.886408 0.716018 0.702187 0.036969 -0.012629 -243487.000000 0 0 1
-15.823404 -13.032904 22.271723 30.269892 0.688995 0.743991 0.011866 0.001816 407916.000000 0 0 1
-16.844804 -12.901704 23.241023 31.469772 0.653610 0.739925 0.012226 0.003620 640932.000000 0 0 1
-18.082004 -13.852404 23.066623 32.417851 0.653718 0.779108 0.025353 -0.000150 39921.500000 0 0 1
-17.770904 -15.232304 23.163023 32.929527 0.708630 0.790610 0.017470 0.000419 256224.000000 0 0 1
-18.894004 -16.117804 23.164523 33.961186 0.706270 0.820182 0.032702 0.004675 462557.000000 0 0 1
-19.787304 -15.999204 24.489403 35.316325 0.679938 0.804558 0.031991 0.004269 -94226.600000 0 0 1
-19.428704 -16.825504 25.537753 36.231878 0.713717 0.788596 0.030646 0.007559 35764.300000 0 0 1
-20.278004 -16.725104 26.655693 37.435979 0.689675 0.778405 0.035130 -0.001603 -237033.000000 0 0 1
-19.923704 -17.809304 27.711183 38.497208 0.729421 0.767249 0.042594 -0.005628 -61138.100000 0 0 1
-20.228204 -19.101904 27.385063 39.038503 0.756769 0.793312 0.055786 -0.007774 104448.000000 0 0 1
-19.865504 -19.941604 28.469353 40.035109 0.787310 0.779721 0.050102 -0.009202 -167281.000000 0 0 1
-19.916904 -21.429504 28.074783 40.547505 0.821965 0.805997 0.059009 -0.003329 602444.000000 0 0 1
-21.268104 -21.849204 27.879413 41.315635 0.798875 0.830115 0.062248 -0.006685 540254.000000 0 0 1
-21.234804 -23.226804 27.527683 41.811179 0.830171 0.852131 0.070487 -0.001618 -457651.000000 0 0 1
-22.611104 -23.677104 27.060103 42.474892 0.808424 0.880086 0.065858 -0.007588 -926724.000000 0 0 1
-23.499904 -23.666404 28.144003 43.639765 0.788928 0.869882 0.070735 -0.006010 -362939.000000 0 0 1
-24.754404 -24.127204 27.696293 44.294324 0.772568 0.895308 0.056958 -0.003396 -50042.100000 0 0 1
-25.424364 -25.301754 28.500793 45.813451 0.782981 0.899367 0.022734 -0.002295 -51822.100000 0 0 1
-25.894434 -24.863004 29.770463 46.636586 0.765080 0.878444 0.014252 0.001169 122771.000000 0 0 1
-26.849754 -25.747754 30.292273 47.973722 0.764450 0.887394 0.015951 0.004606 950556.000000 0 0 1
-28.077784 -25.046564 31.051673 48.784206 0.728401 0.880831 -0.000302 0.003101 1222540.000000 0 0 1
-28.923234 -24.411704 30.092803 48.353506 0.701010 0.899055 0.016967 0.003169 -194983.000000 0 0 1
-29.915894 -23.632404 30.661073 48.923948 0.668590 0.893474 0.009563 0.000066 -65858.700000 0 0 1
-31.284784 -23.619004 29.900133 49.301248 0.646673 0.919173 0.008693 0.002189 193753.000000 0 0 1
-31.989324 -24.817604 30.167393 50.490613 0.659815 0.930435 0.009016 0.002227 -653824.000000 0 0 1
-33.100234 -24.821704 29.336833 50.718757 0.643434 0.954004 0.013133 -0.003302 -675794.000000 0 0 1
-34.277657 -25.668084 29.852953 52.201601 0.642751 0.962003 0.013143 -0.004880 -95902.100000 0 0 1
-33.969924 -27.065584 29.970893 52.770788 0.672757 0.966790 0.019020 -0.006892 367803.000000 0 0 1
-35.013681 -27.714424 30.687413 54.182696 0.669556 0.968703 0.023446 -0.008460 230821.000000 0 0 1
-34.570317 -29.117544 31.027403 54.823699 0.699989 0.969213 0.018975 -0.008061 268891.000000 0 0 1
-33.695384 -29.105724 32.160453 54.925557 0.712445 0.945265 0.017962 0.001883 92900.000000 0 0 1
-32.940584 -30.310164 32.243363 55.167224 0.743835 0.946575 0.021915 -0.006343 355530.000000 0 0 1
-31.822784 -30.297214 33.324307 55.146353 0.760845 0.921924 0.018467 -0.009459 -19184.200000 0 0 1
-32.367934 -30.088494 -33.888191 55.690305 0.748918 2.224980 0.006141 -0.005326 349133.000000 0 0 1
-31.378544 -30.167634 -32.850991 54.533355 0.765726 2.217303 0.009670 -0.009188 209754.000000 0 0 1
-31.928604 -29.771074 -31.462741 53.811306 0.750444 2.195290 0.014110 -0.007806 154544.000000 0 0 1
-32.234614 -28.411384 -31.261271 53.137032 0.722440 2.199769 0.019585 -0.006259 -208106.000000 0 0 1
-31.060144 -27.695004 -30.957321 51.866189 0.728187 2.210389 0.029274 -0.004507 46457.400000 0 0 1
-31.320134 -26.174394 -30.911641 51.201360 0.696136 2.218964 0.008791 0.008881 -378305.000000 0 0 1
-32.086664 -25.701304 -29.847101 50.803154 0.675348 2.198768 0.009815 0.000049 -212907.000000 0 0 1
-31.956204 -24.320104 -29.705611 49.950874 0.650532 2.207684 0.030684 -0.010947 -282868.000000 0 0 1
-30.681004 -23.845804 -28.997481 48.485052 0.660694 2.211888 0.027150 -0.012361 -343892.000000 0 0 1
-30.626834 -22.454004 -28.932451 47.741722 0.632628 2.221844 0.035374 -0.014575 -78811.300000 0 0 1
-29.596964 -21.950504 -28.121671 46.353353 0.638134 2.222674 0.033955 -0.013172 -236776.000000 0 0 1
-29.275434 -20.417904 -28.165351 45.466788 0.609007 2.238865 0.043380 -0.018741 -45562.700000 0 0 1
-28.612984 -20.094704 -29.371711 45.663962 0.612263 2.269485 0.047258 -0.018022 286280.000000 0 0 1
-28.501704 -18.711204 -29.467781 45.064469 0.580927 2.283528 0.049528 -0.016931 -460349.000000 0 0 1
-27.792474 -18.279704 -30.760711 45.307731 0.581784 2.317099 0.056030 -0.015839 228149.000000 0 0 1
-28.618924 -18.181204 -31.917011 46.564950 0.565962 2.325990 0.057051 -0.018613 330305.000000 0 0 1
-29.674634 -17.229204 -31.813061 46.792096 0.526035 2.318397 0.062256 -0.019143 -504309.000000 0 0 1
-30.192264 -16.689804 -33.177711 47.863168 0.504978 2.336686 0.067989 -0.021073 -518747.000000 0 0 1
-31.186984 -17.450604 -33.778541 49.174601 0.510144 2.328025 0.058819 -0.019804 813674.000000 0 0 1
-32.502474 -16.939004 -33.414941 49.597368 0.480432 2.310033 0.049571 -0.015806 831631.000000 0 0 1
-33.615134 -17.552404 34.231314 51.086662 0.481216 0.836502 0.040795 -0.017830 -228511.000000 0 0 1
-34.029214 -18.868404 -34.138338 51.763213 0.506274 2.290963 0.038227 -0.016846 363987.000000 0 0 1
-34.949624 -19.219104 33.330402 51.978514 0.502773 0.874691 0.031081 -0.011439 -28646.400000 0 0 1
-35.393629 -20.693404 33.303616 52.820988 0.529067 0.888600 0.031860 -0.017210 -679434.000000 0 0 1
-34.374490 -21.553304 32.986285 52.290014 0.560047 0.888170 0.034964 -0.014773 -827464.000000 0 0 1
-34.686031 -22.877204 33.373381 53.294181 0.583060 0.894113 0.033822 -0.014207 -60596.500000 0 0 1
-33.495784 -23.908404 33.273128 52.921455 0.619910 0.890882 0.022618 -0.005335 1476740.000000 0 0 1
-32.423114 -23.794804 34.232214 52.813782 0.633107 0.865620 0.016689 -0.007910 643260.000000 0 0 1
-31.631824 -22.621204 -34.254868 51.823616 0.620815 2.292933 0.022036 -0.009653 -844930.000000 0 0 1
-30.421374 -22.878604 -33.338901 50.600127 0.644816 2.290112 0.020730 -0.009647 -1125750.000000 0 0 1
-29.456504 -23.706804 -33.940821 50.810211 0.677665 2.302304 0.020302 -0.000844 265029.000000 0 0 1
-28.174314 -23.554004 -33.322551 49.588058 0.696316 2.307686 0.025168 -0.003723 450906.000000 0 0 1
-27.982874 -23.911704 -31.802061 48.643416 0.707108 2.283365 0.020525 0.001617 -1313380.000000 0 0 1
-27.993964 -25.328804 -31.645081 49.260750 0.735458 2.268421 0.021905 0.000440 6850.920000 0 0 1
-27.391364 -25.507934 -30.375211 48.203682 0.749809 2.252534 0.010653 0.000473 -161504.000000 0 0 1
-26.815924 -26.901314 -30.091171 48.458777 0.786988 2.240769 0.012796 -0.000442 -216468.000000 0 0 1
-27.823124 -27.930674 -29.984561 49.531028 0.787327 2.221026 0.001314 0.003455 500512.000000 0 0 1
-27.390364 -29.122084 -29.348401 49.594924 0.816032 2.204039 -0.004499 0.000067 -378572.000000 0 0 1
-28.259504 -30.365064 -29.607621 50.963202 0.821299 2.190705 -0.002448 0.008137 -216851.000000 0 0 1
-28.362374 -30.641314 -31.012701 52.010595 0.824003 2.209651 0.023222 -0.009589 287405.000000 0 0 1
-28.665664 -31.988304 -31.303961 53.149881 0.840124 2.200586 0.037534 -0.004074 -385265.000000 0 0 1
-28.336484 -32.454484 -32.760821 54.125052 0.853035 2.220914 0.022866 -0.010174 -151514.000000 0 0 1
-26.934244 -32.543474 -32.885531 53.534936 0.879428 2.232272 0.017047 -0.011639 -112960.000000 0 0 1
-26.690204 -33.168784 -34.109491 54.552659 0.893209 2.246259 0.023857 -0.009877 -760641.000000 0 0 1
-25.225504 -33.233364 34.001432 53.822671 0.921534 0.887013 0.030511 -0.013144 -609219.000000 0 0 1
-24.944404 -34.161958 33.001222 53.650194 0.940101 0.908260 0.025669 -0.003212 -545797.000000 0 0 1
-23.754704 33.694303 33.178331 52.918746 -0.956718 0.893142 0.031013 -0.001698 -780082.000000 0 0 1
-23.487004 32.777842 31.953063 51.449242 -0.949048 0.900702 0.029509 -0.001977 -15665.800000 0 0 1
-24.625504 32.003445 31.600403 51.275934 -0.914954 0.906784 0.032300 -0.007635 189783.000000 0 0 1
-24.340704 31.039275 30.655063 49.956375 -0.905770 0.910138 0.018497 0.000606 -224308.000000 0 0 1
-25.669694 30.492065 30.105653 49.950471 -0.871054 0.923903 0.012506 -0.001142 -109905.000000 0 0 1
-26.225234 29.471825 30.922133 50.125140 -0.843622 0.906000 0.018038 -0.001582 -197060.000000 0 0 1
-27.474974 29.032285 30.472853 50.262735 -0.812951 0.919433 0.018711 -0.007369 10738.400000 0 0 1
-27.989134 27.773285 31.217063 50.291670 -0.781527 0.901135 0.029256 -0.023213 51933.500000 0 0 1
-27.209614 26.661335 30.834133 49.009526 -0.775221 0.890343 0.027835 -0.014629 318754.000000 0 0 1
-27.806344 25.422155 31.255453 48.952856 -0.740636 0.878274 0.035594 -0.017356 755745.000000 0 0 1
-28.950314 24.868675 30.365263 48.771107 -0.709703 0.898726 0.044988 -0.019467 618998.000000 0 0 1
-28.362014 24.456325 29.132673 47.447111 -0.711587 0.909674 0.039830 -0.021598 -192141.000000 0 0 1
-29.281794 23.799175 28.322803 47.180562 -0.682475 0.926912 0.043337 -0.014683 -49625.000000 0 0 1
-28.635534 23.462485 26.955763 45.794052 -0.686428 0.941433 0.065360 -0.026440 35177.300000 0 0 1
-27.547104 22.567885 27.063023 44.727616 -0.686367 0.920951 0.061608 -0.027336 -147802.000000 0 0 1
-27.103984 22.140485 25.811603 43.486387 -0.684944 0.935326 0.053996 -0.018530 523635.000000 0 0 1
-25.719264 21.387685 25.931583 42.324468 -0.693704 0.911342 0.063356 -0.028125 385396.000000 0 0 1
-25.714874 20.167085 26.650383 42.168815 -0.665068 0.886675 0.084383 -0.042840 -1173220.000000 0 0 1
-24.444004 19.785485 26.950483 41.416220 -0.680459 0.862260 0.089621 -0.033007 -1589740.000000 0 0 1
-24.369504 18.586685 27.860143 41.418899 -0.651581 0.833021 0.103762 -0.037246 545183.000000 0 0 1
-23.074004 18.252185 28.383453 40.879975 -0.669246 0.803333 0.097101 -0.029566 820173.000000 0 0 1
-23.233104 17.259585 29.397533 41.253913 -0.638934 0.777599 0.090609 -0.024861 62124.300000 0 0 1
-22.008804 16.318085 29.483183 40.248298 -0.637997 0.748762 0.088806 -0.025387 -623165.000000 0 0 1
-20.795704 16.848285 29.884583 40.117507 -0.680918 0.730372 0.117908 -0.031146 -920097.000000 0 0 1
-19.934404 15.772985 30.157433 39.441581 -0.669379 0.700360 0.093840 -0.023864 -935742.000000 0 0 1
-18.692204 16.240085 30.855403 39.562543 -0.715317 0.676267 0.075480 -0.026124 -1262340.000000 0 0 1
-18.886404 16.506185 32.205783 40.821108 -0.718247 0.661699 0.054159 -0.024769 622253.000000 0 0 1
-17.720304 16.693585 33.017599 41.022516 -0.755573 0.635348 0.034855 -0.017977 -352738.000000 0 0 1
-18.026504 16.239885 -34.082981 41.837044 -0.733306 2.522940 0.022199 -0.023120 104821.000000 0 0 1
-18.823104 17.122185 -33.323691 41.927877 -0.738114 2.489451 0.041669 -0.023731 555097.000000 0 0 1
-20.225904 16.974385 -33.535861 42.683380 -0.698214 2.474605 0.049108 -0.022028 255165.000000 0 0 1
-21.118104 17.848385 -32.594931 42.743054 -0.701683 2.438086 0.050554 -0.024605 202479.000000 0 0 1
-21.285004 17.312885 -31.324841 41.641722 -0.682849 2.422261 0.041042 -0.024618 689195.000000 0 0 1
-22.414804 17.932285 -30.681591 42.016072 -0.674753 2.389462 0.034349 -0.034767 285084.000000 0 0 1
-22.630704 17.631485 -29.154091 40.902066 -0.661864 2.364247 0.034358 -0.037122 29239.000000 0 0 1
-23.219704 16.381385 -28.796511 40.456686 -0.614404 2.362834 0.022350 -0.034560 466365.000000 0 0 1
-24.612604 16.274685 -29.111321 41.450147 -0.584232 2.349449 0.038325 -0.034691 426560.000000 0 0 1
-25.237444 15.092785 -28.292921 40.806986 -0.538971 2.336903 0.042539 -0.029310 -144178.000000 0 0 1
-24.804204 13.772885 -28.598351 40.284073 -0.506876 2.360177 0.016165 -0.014059 -227585.000000 0 0 1
-25.652404 12.809885 -28.014641 40.086894 -0.463139 2.344582 0.007189 -0.006055 -122499.000000 0 0 1
-25.166264 11.345085 -28.117151 39.403375 -0.423523 2.365380 0.014555 -0.005530 704716.000000 0 0 1
-24.230604 10.994085 -27.058671 37.949489 -0.425949 2.364590 0.012957 -0.005791 346717.000000 0 0 1
-23.117004 10.277285 -27.532691 37.390741 -0.418335 2.398457 0.008305 0.000035 -63556.400000 0 0 1
-22.334504 9.593785 -26.371201 35.865178 -0.405718 2.396886 0.030324 -0.003530 -46414.100000 0 0 1
-22.905304 8.455985 -25.756801 35.490413 -0.353651 2.382905 0.031092 -0.003046 50301.400000 0 0 1
-22.016804 7.897585 -24.775381 34.072438 -0.344411 2.384941 0.062125 0.000661 130223.000000 0 0 1
-22.587904 6.814285 -23.835981 33.538066 -0.292996 2.361309 0.062587 -0.000885 -130021.000000 0 0 1
-22.932004 5.635485 -24.490381 34.020791 -0.240972 2.374404 0.056406 -0.006741 32392.700000 0 0 1
-23.294604 4.735185 -23.562381 33.470081 -0.200542 2.351787 0.064063 -0.005885 -268032.000000 0 0 1
34.257596 25.045096 -10.750981 43.776972 0.631283 1.818920 0.013979 -0.001745 171012.000000 0 0 1
35.371086 24.742096 -9.913481 44.289526 0.610391 1.796542 0.007645 -0.005636 640135.000000 0 0 1
36.249306 23.820596 -10.610581 44.654422 0.581373 1.810707 0.007499 -0.010965 193899.000000 0 0 1
-35.194961 23.239296 -9.664881 43.268465 -0.583583 1.796067 0.034786 -0.019043 -249857.000000 0 0 1
-35.582028 22.378696 -8.648281 42.914793 -0.561422 1.773708 0.002555 -0.014031 -175300.000000 0 0 1
-34.408678 21.843796 -8.067881 41.547554 -0.565640 1.766222 0.039539 -0.010555 -416717.000000 0 0 1
-34.618584 20.701096 -7.042181 40.945989 -0.538930 1.743643 0.038817 0.007496 -38690.400000 0 0 1
-35.230488 19.562696 -7.685481 41.023810 -0.506886 1.759252 0.035471 -0.003855 574793.000000 0 0 1
-35.369986 18.448196 -6.768381 40.462116 -0.480760 1.738863 0.033179 -0.029939 -282056.000000 0 0 1
-36.095394 17.281796 -7.472781 40.710937 -0.446529 1.755400 0.048049 -0.010777 296210.000000 0 0 1
35.054686 17.573996 -7.763881 39.974419 0.464712 1.766260 0.046875 -0.012159 550922.000000 0 0 1
34.437686 16.488496 -8.479981 39.111824 0.446538 1.789346 0.058288 0.001242 -942517.000000 0 0 1
33.068556 16.744896 -9.015081 38.146987 0.468730 1.809378 0.041353 -0.013591 -1235650.000000 0 0 1
32.669966 15.648296 -9.785681 37.522732 0.446692 1.834640 0.052250 -0.026527 -19608.900000 0 0 1
31.797806 16.006996 -10.826881 37.209485 0.466363 1.866038 0.071369 -0.023042 -508391.000000 0 0 1
31.219226 14.722296 -11.534681 36.392787 0.440652 1.893308 0.071640 -0.020007 719588.000000 0 0 1
30.019116 14.109696 -11.008181 34.948690 0.439380 1.891233 0.066572 -0.014587 1126610.000000 0 0 1
30.113376 13.691396 -9.631581 34.453405 0.426724 1.854126 0.062988 -0.016702 -1337760.000000 0 0 1
29.113766 12.650196 -9.305981 33.079301 0.409897 1.855969 0.073429 -0.011007 -766541.000000 0 0 1
29.390306 11.324496 -9.845281 32.999453 0.367782 1.873756 0.072463 -0.010718 796468.000000 0 0 1
28.290156 10.432496 -9.613281 31.647829 0.353296 1.879431 0.085681 -0.011019 321156.000000 0 0 1
28.700256 8.999696 -10.058181 31.715394 0.303864 1.893507 0.088335 -0.006375 -580197.000000 0 0 1
29.833496 8.549496 -9.390981 32.424095 0.279094 1.864636 0.074998 -0.008931 -53775.600000 0 0 1
29.950016 7.153296 -9.329781 32.174803 0.234449 1.864994 0.077706 -0.011542 -931286.000000 0 0 1
31.101216 6.732196 -8.428081 32.918698 0.213172 1.829706 0.081407 -0.012583 397832.000000 0 0 1
32.368076 7.155696 -8.960581 34.339312 0.217573 1.834795 0.072560 -0.016006 1924990.000000 0 0 1
33.483326 6.894796 -8.012681 35.112311 0.203079 1.801026 0.075565 -0.019106 727352.000000 0 0 1
34.843876 7.191296 -8.597481 36.602283 0.203529 1.807901 0.075185 -0.020732 -722475.000000 0 0 1
35.198346 6.208396 -9.544381 36.994094 0.174587 1.831745 0.085771 -0.016421 -127528.000000 0 0 1
-35.979503 6.326796 -9.950181 37.862370 -0.174065 1.836718 0.077238 -0.016031 -1148870.000000 0 0 1
-35.616047 5.678696 -11.294481 37.793064 -0.158111 1.874284 0.085978 -0.020366 -66081.000000 0 0 1
-34.261023 5.575496 -11.720281 36.636987 -0.161322 1.896423 0.095852 -0.020317 678181.000000 0 0 1
-33.779354 6.800196 -12.253881 36.571095 -0.198657 1.912476 0.076290 -0.016227 -567639.000000 0 0 1
-33.049544 7.728296 -11.251481 35.757443 -0.229712 1.890896 0.073255 -0.016758 -1621630.000000 0 0 1
-33.754264 8.520596 -10.356781 36.320983 -0.247265 1.859955 0.072537 -0.014548 -256898.000000 0 0 1
-34.286219 9.694796 -10.961081 37.278401 -0.275567 1.869240 0.067510 -0.008580 -106476.000000 0 0 1
-35.089756 10.462996 -9.910181 37.933850 -0.289784 1.835112 0.050433 -0.009963 186061.000000 0 0 1
-34.265334 11.050796 -8.919881 37.091744 -0.311975 1.813658 0.039414 -0.013744 154277.000000 0 0 1
-35.109996 11.690996 -8.010581 37.862390 -0.321434 1.783978 0.041006 -0.011382 -593893.000000 0 0 1
-34.400644 12.649796 -7.142481 37.342157 -0.352373 1.763253 0.048057 -0.011865 -344908.000000 0 0 1
-33.766114 13.685696 -7.885781 37.277798 -0.385074 1.783948 0.048514 -0.014789 -77220.500000 0 0 1
-33.250494 14.658596 -7.046881 37.015244 -0.415222 1.762343 0.042483 -0.008408 -417106.000000 0 0 1
-32.311604 15.672596 -7.683881 36.724815 -0.451613 1.781582 0.034635 -0.010903 -839082.000000 0 0 1
-32.899534 16.685196 -8.460781 37.846531 -0.469356 1.796257 0.030702 -0.011148 -55829.200000 0 0 1
-32.000434 17.681696 -8.963881 37.643343 -0.504795 1.811233 0.042063 -0.008819 39280.600000 0 0 1
-32.609694 18.760096 -9.870381 38.894186 -0.522054 1.827378 0.024344 -0.014249 -107325.000000 0 0 1
-32.601544 18.225196 -11.172481 38.985161 -0.509749 1.861455 0.011514 -0.013177 -140174.000000 0 0 1
-33.521744 18.766896 -12.080281 40.272036 -0.510368 1.875454 0.015675 -0.020814 -1073360.000000 0 0 1
-32.899384 18.854296 -13.504981 40.252185 -0.520397 1.912942 0.003700 0.005761 388573.000000 0 0 1
-32.015974 19.960096 -13.724181 40.146994 -0.557478 1.919679 0.005553 -0.000713 251335.000000 0 0 1
-31.588494 20.008496 -15.073681 40.316110 -0.564625 1.953993 -0.008011 0.002415 -334834.000000 0 0 1
-30.783544 21.306596 -15.303081 40.444800 -0.605433 1.958831 0.000849 -0.003719 -1230160.000000 0 0 1
-29.574984 21.341196 -14.627081 39.294755 -0.625073 1.952218 0.004551 -0.003471 -523979.000000 0 0 1
-28.994564 22.633896 -14.523481 39.546295 -0.662815 1.946850 0.007774 -0.004383 -243427.000000 0 0 1
-28.244084 23.119296 -15.719581 39.740852 -0.685952 1.977465 -0.009827 -0.006066 -1433060.000000 0 0 1
-29.103614 23.674896 -16.687181 41.060724 -0.682900 1.989310 0.002568 0.001342 -13231.500000 0 0 1
-28.501074 24.209496 -17.843281 41.434208 -0.704160 2.016000 -0.007390 0.002870 -403810.000000 0 0 1
-27.689494 25.489696 -17.730881 41.603086 -0.744056 2.011075 0.005328 0.000400 96872.800000 0 0 1
-28.488244 26.628596 -17.369681 42.689202 -0.751671 1.989840 0.018872 -0.004086 -51054.500000 0 0 1
-27.812814 27.804596 -17.558181 43.068990 -0.785250 1.990704 0.021556 -0.001724 -418091.000000 0 0 1
-28.543754 29.108896 -17.143681 44.226457 -0.795200 1.968860 0.026234 -0.001966 -287709.000000 0 0 1
-28.759324 29.436796 -15.739681 44.060881 -0.797039 1.936092 0.025863 -0.006944 314803.000000 0 0 1
-27.690604 29.196896 -14.842781 42.889817 -0.811870 1.924173 0.024985 -0.000767 -127986.000000 0 0 1
-28.042794 29.900196 -13.507381 43.160970 -0.817443 1.889098 0.038121 -0.010292 -15728.600000 0 0 1
-27.821784 31.314196 -13.590281 44.037782 -0.844387 1.884522 0.049507 -0.007523 176316.000000 0 0 1
-28.118804 32.084596 -12.459381 44.444624 -0.851176 1.854939 0.044618 -0.012091 100838.000000 0 0 1
-27.339284 33.447596 -12.494481 44.969880 -0.885549 1.852342 0.030447 -0.014254 141670.000000 0 0 1
-27.773304 -34.204194 -13.536881 46.092629 0.888790 1.868880 0.016405 -0.019357 -46945.800000 0 0 1
-26.960674 -33.061994 -13.657581 44.794005 0.886700 1.880627 0.029529 -0.023375 -42286.100000 0 0 1
-27.217674 -32.209994 -14.902181 44.725390 0.869208 1.910484 0.023201 -0.019593 58743.700000 0 0 1
-26.824994 -32.957894 -16.028881 45.417267 0.887627 1.931492 0.013774 -0.018585 -95137.500000 0 0 1
-27.213394 -32.271094 -17.165081 45.570081 0.870220 1.957000 0.010918 -0.005072 -213092.000000 0 0 1
-26.490484 -32.663294 -18.452781 45.925392 0.889374 1.984277 0.007938 -0.001060 -330296.000000 0 0 1
-26.801024 -33.966994 -18.990081 47.251188 0.902779 1.984383 0.009097 0.004807 -38262.300000 0 0 1
-26.095964 33.485996 -18.477681 46.300496 -0.908799 1.981311 0.005209 -0.001227 -1077500.000000 0 0 1
-26.196644 32.174196 -19.287181 45.754108 -0.887449 2.005939 0.017515 0.002787 700039.000000 0 0 1
-27.476324 31.518696 -19.273881 46.041927 -0.853812 2.002717 0.020797 -0.003662 1729620.000000 0 0 1
-28.539914 32.224796 -19.986781 47.459831 -0.845966 2.005488 0.013853 -0.001360 -387631.000000 0 0 1
-29.958144 31.759996 -19.787981 47.934871 -0.814585 1.996333 0.010979 -0.014287 -773454.000000 0 0 1
-30.184714 30.458396 -20.341281 47.461548 -0.789911 2.013722 0.014343 -0.009097 1593020.000000 0 0 1
-31.593594 30.129196 -20.497481 48.229351 -0.761677 2.009758 0.030727 -0.010312 1268340.000000 0 0 1
-31.688644 28.766896 -21.231681 47.775399 -0.737107 2.031308 0.033028 -0.013502 904369.000000 0 0 1
-33.007064 28.512396 -21.786681 48.755332 -0.712467 2.034046 0.034624 -0.018759 1253090.000000 0 0 1
-33.050914 27.186796 -22.296781 48.255893 -0.688354 2.051105 0.039929 -0.014768 415734.000000 0 0 1
-34.509968 26.607696 -22.270081 48.937346 -0.656815 2.043251 0.050279 -0.014633 588768.000000 0 0 1
-35.316021 27.272196 -23.176481 50.280645 -0.657579 2.049853 0.030806 -0.012760 356359.000000 0 0 1
35.899966 26.671796 -23.410381 50.480077 0.638972 2.053025 0.052029 -0.011670 1340760.000000 0 0 1
35.072986 27.362596 -24.527981 50.798109 0.662527 2.074705 0.057419 -0.016733 -22174.300000 0 0 1
35.650546 27.181596 -25.780911 51.715142 0.651419 2.092684 0.055452 -0.015188 -646540.000000 0 0 1
34.792206 27.497296 -26.829621 51.830758 0.668816 2.114885 0.055056 -0.015602 -482523.000000 0 0 1
35.486846 27.751096 -28.182771 53.138575 0.663675 2.129826 0.051162 -0.006869 69355.900000 0 0 1
35.995716 26.604996 -28.813081 53.232612 0.636499 2.142740 0.054287 0.004800 -97532.000000 0 0 1
-35.887169 26.838596 -30.064031 53.963368 -0.642130 2.161709 0.019493 0.005792 -54621.700000 0 0 1
-35.247470 25.610896 -30.806111 53.360271 -0.628358 2.186243 0.014870 0.007781 1116830.000000 0 0 1
-34.146295 24.979496 -30.131341 51.940758 -0.631584 2.189660 0.027020 0.003623 1057770.000000 0 0 1
-32.838074 25.542696 -30.232621 51.427422 -0.661081 2.199219 0.010870 0.009463 1067710.000000 0 0 1
-31.700054 24.848596 -29.414221 49.875269 -0.664825 2.201553 0.006855 0.002079 196592.000000 0 0 1
-31.362754 23.511496 -29.810841 49.245294 -0.643285 2.221007 0.028370 -0.011362 340698.000000 0 0 1
-32.216634 22.499696 -29.249421 48.986492 -0.609643 2.210667 0.021108 -0.004648 162353.000000 0 0 1
-31.923594 21.025896 -29.647951 48.375667 -0.582419 2.230483 0.013845 -0.016633 -1244320.000000 0 0 1
-30.652114 20.648596 -29.285791 47.154789 -0.592817 2.240886 0.048481 -0.022243 -1069220.000000 0 0 1
-30.396894 19.432796 -29.893431 46.853195 -0.568818 2.262725 0.036697 -0.024145 -1406730.000000 0 0 1
-28.935054 19.110096 -29.850171 45.754407 -0.583685 2.281543 0.062547 -0.034640 -2028840.000000 0 0 1
-28.193794 19.840596 -30.794971 46.226286 -0.613220 2.299870 0.070458 -0.032492 -77887.600000 0 0 1
-26.928714 19.228796 -30.982871 45.330348 -0.620102 2.323330 0.076565 -0.039102 -27923.300000 0 0 1
-26.932954 17.991796 -31.945841 45.493136 -0.588940 2.349296 0.076427 -0.027380 -756765.000000 0 0 1
-27.446514 16.908396 -31.267691 44.909614 -0.552137 2.340937 0.043604 -0.019832 8409.100000 0 0 1
-27.375354 15.740496 -32.049241 44.992522 -0.521825 2.363600 0.024480 -0.002976 -70035.900000 0 0 1
-27.797394 14.385596 -31.436241 44.360768 -0.477562 2.358379 0.025301 -0.001116 944200.000000 0 0 1
-29.213494 14.240896 -31.200731 45.052380 -0.453579 2.335805 0.026949 -0.004110 1028220.000000 0 0 1
-29.711824 12.951596 -30.841001 44.740403 -0.411073 2.331363 0.020205 0.000140 -38432.200000 0 0 1
-29.215004 12.172096 -29.573011 43.315578 -0.394767 2.322294 0.011244 -0.008586 -226917.000000 0 0 1
-29.739054 12.783696 -28.403241 43.064815 -0.405982 2.291011 0.001373 -0.007849 314115.000000 0 0 1
-29.820614 11.896196 -27.320611 42.156900 -0.379580 2.275843 0.008765 0.001938 -3950.400000 0 0 1
-29.702714 12.579396 -25.897371 41.366245 -0.400608 2.247275 0.012749 -0.008317 -659452.000000 0 0 1
-28.394674 12.931296 -25.610511 40.365507 -0.427346 2.258113 0.009648 -0.014076 -824258.000000 0 0 1
-28.268864 13.583496 -24.374081 39.720723 -0.447935 2.231454 0.009909 -0.007244 -756203.000000 0 0 1
-26.805134 13.808796 -24.049081 38.568852 -0.475698 2.244054 0.014018 -0.005214 -1195460.000000 0 0 1
-26.104194 14.687996 -24.933781 38.972549 -0.512517 2.265006 0.018509 -0.018616 699110.000000 0 0 1
-24.693904 14.752696 -24.720481 37.927999 -0.538522 2.280717 0.014691 -0.023747 502588.000000 0 0 1
-24.283104 15.436796 -23.400081 37.088106 -0.566257 2.253551 0.007628 -0.014370 -1393930.000000 0 0 1
-24.494104 16.845996 -23.480881 37.882720 -0.602462 2.239324 0.020904 -0.014719 187401.000000 0 0 1
-24.692904 17.431896 -22.218281 37.513497 -0.614706 2.204675 0.017048 -0.012917 -703221.000000 0 0 1
-26.131854 17.564096 -21.744381 38.264727 -0.591778 2.175188 0.013297 -0.006116 -708646.000000 0 0 1
-26.845874 16.353796 -21.621881 38.153025 -0.547137 2.173309 0.022367 0.000576 -388245.000000 0 0 1
-28.083994 16.644196 -21.049281 38.843432 -0.535003 2.143493 0.027266 0.008758 -1523490.000000 0 0 1
-29.024194 15.439296 -20.876681 38.943696 -0.488876 2.136575 0.026242 0.006651 423610.000000 0 0 1
-29.730854 15.017996 -22.094381 39.970308 -0.467745 2.156481 0.025082 0.005223 209244.000000 0 0 1
-30.681594 15.927796 -22.517981 41.256688 -0.478836 2.148142 0.019513 0.000242 -1095500.000000 0 0 1
-31.319374 15.750796 -23.944381 42.453788 -0.465972 2.170031 0.015184 -0.004274 129359.000000 0 0 1
-32.302264 14.751196 -24.195981 42.970682 -0.428380 2.168906 0.026997 -0.002391 511767.000000 0 0 1
-32.922094 15.054696 -25.450691 44.252071 -0.428893 2.183559 0.033438 -0.016310 1385650.000000 0 0 1
-34.305010 14.316396 -25.789491 45.242576 -0.395353 2.177335 0.037311 -0.014338 1406060.000000 0 0 1
-34.083209 12.961696 -26.107891 44.847437 -0.363405 2.192166 0.027047 -0.009350 190411.000000 0 0 1
-33.849364 12.095696 -24.980881 43.773619 -0.343198 2.178134 0.021164 -0.010907 -147361.000000 0 0 1
-33.867124 10.575896 -25.406941 43.638793 -0.302681 2.192241 0.025005 -0.011747 847141.000000 0 0 1
-35.176323 10.114896 -25.784731 44.772058 -0.279995 2.184515 0.032948 -0.002603 808736.000000 0 0 1
-35.038617 8.923796 -26.505231 44.831529 -0.249383 2.203365 0.029236 0.010830 1093070.000000 0 0 1
36.074106 8.276096 -26.883031 45.744205 0.225517 2.198987 0.038920 0.007403 1014700.000000 0 0 1
35.330476 7.790596 -25.799481 44.435899 0.217033 2.190262 0.034706 0.014765 153998.000000 0 0 1
34.277366 6.953396 -26.241031 43.725042 0.200141 2.214469 0.041760 0.008409 14337.600000 0 0 1
33.507636 6.076496 -25.204361 42.366795 0.179397 2.207948 0.040641 0.004176 189306.000000 0 0 1
34.216246 4.969496 -24.677881 42.478762 0.144229 2.190687 0.037714 0.003665 766736.000000 0 0 1
33.340976 4.066596 -23.955981 41.255871 0.121370 2.190346 0.042969 0.004882 807974.000000 0 0 1
34.259986 3.141496 -23.115481 41.448053 0.091440 2.162406 0.040919 0.000661 156925.000000 0 0 1
35.170946 2.462896 -23.920581 42.605815 0.069912 2.166920 0.046452 -0.002836 -255877.000000 0 0 1
36.048826 1.715796 -23.111281 42.855491 0.047561 2.140383 0.061656 -0.002274 -164814.000000 0 0 1
-35.652074 0.643196 -23.857681 42.903065 -0.018039 2.160462 0.068432 -0.008395 69794.700000 0 0 1
36.154286 -0.487004 -24.410081 43.625929 -0.013469 2.164617 0.069444 -0.015850 -70709.300000 0 0 1
-35.441951 -1.464704 -24.797581 43.280449 0.041303 2.180898 0.070456 -0.013730 -23747.000000 0 0 1
-23.077704 29.256996 27.850733 46.521130 -0.902927 0.928959 0.001058 0.000384 -235272.000000 0 0 1
-24.275904 29.388896 27.096583 46.768061 -0.880388 0.952826 -0.014767 -0.001828 709050.000000 0 0 1
-24.045204 28.908896 25.792943 45.597939 -0.876988 0.969563 -0.015009 0.008654 -163565.000000 0 0 1
-24.436504 27.374296 25.632513 44.760703 -0.842040 0.961054 -0.001845 -0.001321 472588.000000 0 0 1
-25.776054 26.940096 25.885523 45.389801 -0.807476 0.963933 0.003615 -0.002660 396015.000000 0 0 1
-26.075614 26.502696 27.221843 46.079923 -0.793521 0.938805 0.012097 -0.006319 -837605.000000 0 0 1
-25.413294 25.189996 27.680183 45.238965 -0.780985 0.912379 0.029632 -0.009402 -420923.000000 0 0 1
-24.069804 25.163096 28.076823 44.730804 -0.807601 0.892221 0.024528 -0.001111 -580199.000000 0 0 1
-23.968604 25.704796 29.393383 45.817043 -0.820336 0.874295 0.026523 -0.009453 -771415.000000 0 0 1
-22.571004 25.712296 29.977883 45.488964 -0.850366 0.851289 0.045823 -0.002110 -1466950.000000 0 0 1
-21.614804 26.517396 29.341173 45.069685 -0.886905 0.861872 0.046417 -0.009178 435150.000000 0 0 1
-20.369504 26.437996 30.068373 44.922059 -0.914327 0.837469 0.060461 -0.014192 1237060.000000 0 0 1
-19.469604 25.159096 29.848153 43.622905 -0.912199 0.817247 0.062348 -0.003071 -494535.000000 0 0 1
-18.858504 25.133296 28.582503 42.476879 -0.927078 0.832680 0.062788 -0.004345 33626.300000 0 0 1
-19.515304 24.317096 27.580653 41.627643 -0.894512 0.846570 0.069079 -0.010159 208499.000000 0 0 1
-19.280004 22.755296 27.663263 40.678965 -0.867886 0.822981 0.055021 0.000943 169419.000000 0 0 1
-19.700004 22.164696 28.867043 41.384418 -0.844203 0.798846 0.054881 -0.007018 -123273.000000 0 0 1
-19.587404 20.754996 28.878543 40.600573 -0.814332 0.779473 0.078025 -0.014890 37199.900000 0 0 1
-20.040804 20.022896 30.117563 41.347525 -0.784951 0.754812 0.087332 -0.021956 -100993.000000 0 0 1
-19.164604 20.195396 31.209063 41.822741 -0.811581 0.728427 0.071481 -0.019449 -115724.000000 0 0 1
-19.700504 19.672096 32.370463 42.695996 -0.784677 0.710307 0.068483 -0.015414 -118893.000000 0 0 1
-19.039204 20.256296 33.676680 43.668382 -0.816361 0.690086 0.065913 -0.014208 -622848.000000 0 0 1
-19.253404 21.657396 33.858743 44.566252 -0.844092 0.707884 0.036945 -0.015620 340876.000000 0 0 1
-18.346804 22.470596 33.089187 44.004854 -0.886087 0.719790 0.047683 -0.004089 1363620.000000 0 0 1
-16.846004 22.454396 33.607177 43.788470 -0.927147 0.695881 0.026458 0.008941 809631.000000 0 0 1
-16.130004 21.269596 33.362110 42.727077 -0.921966 0.674821 0.036104 -0.010255 -236443.000000 0 0 1
-14.787704 21.408696 33.813397 42.665610 -0.966317 0.655864 0.008824 -0.007375 -69202.700000 0 0 1
-14.044404 20.048196 33.685657 41.640112 -0.959713 0.628396 -0.001578 -0.003256 -154406.000000 0 0 1
-12.682404 19.958096 34.011912 41.424378 -1.004717 0.607530 -0.010561 -0.015392 -180288.000000 0 0 1
-12.443304 20.010996 -33.126181 40.652424 -1.014485 2.523290 0.001662 -0.010980 586434.000000 0 0 1
-10.899704 20.184396 -32.872721 40.085273 -1.075658 2.532329 -0.000697 -0.012801 1117540.000000 0 0 1
-10.326004 21.427296 -33.245751 40.878299 -1.121726 2.520574 0.004715 -0.014755 90373.400000 0 0 1
-8.972204 21.510996 -32.812341 40.247647 -1.175637 2.523976 0.009873 -0.014127 386372.000000 0 0 1
-8.513304 22.973096 -32.685991 40.848665 -1.215909 2.498380 0.021689 -0.015474 -194473.000000 0 0 1
-8.787004 23.700896 -31.496281 40.385141 -1.215761 2.465299 0.027966 -0.019386 353735.000000 0 0 1
-8.032104 23.252196 -30.342821 39.062336 -1.238195 2.460332 0.031373 -0.026806 294570.000000 0 0 1
-7.452204 24.344096 -29.444841 38.925171 -1.273735 2.428660 0.040010 -0.022055 -548453.000000 0 0 1
-6.240704 24.856396 -29.873661 39.360162 -1.324811 2.432545 0.047165 -0.020706 -651058.000000 0 0 1
-5.781704 25.844596 -28.986321 39.262934 -1.350710 2.401286 0.078928 -0.025855 453161.000000 0 0 1
-4.479704 26.523796 -29.543611 39.955030 -1.403482 2.403007 0.065994 -0.028086 33526.500000 0 0 1
-3.324704 25.752896 -29.329121 39.172217 -1.442406 2.416929 0.068766 -0.023476 -454262.000000 0 0 1
-2.135904 26.173796 -29.913921 39.805431 -1.489372 2.421134 0.078240 -0.022941 -132417.000000 0 0 1
-1.433504 27.495596 -29.521111 40.367793 -1.518708 2.391028 0.087405 -0.037095 -553135.000000 0 0 1
-0.883804 27.387496 -28.215231 39.331352 -1.538537 2.370820 0.092832 -0.045512 499465.000000 0 0 1
-0.144304 28.574196 -27.878281 39.921223 -1.565746 2.343861 0.090092 -0.045009 -612071.000000 0 0 1
0.289496 28.701596 -26.402381 38.999373 1.560710 2.314468 0.102940 -0.048484 38225.300000 0 0 1
1.398596 27.943096 -25.955231 38.163420 1.520786 2.318706 0.109977 -0.050005 1140740.000000 0 0 1
2.644396 28.498796 -26.466741 38.982849 1.478272 2.317105 0.104339 -0.048533 223850.000000 0 0 1
3.820996 28.479396 -25.476861 38.402427 1.437426 2.296174 0.091035 -0.044744 -112134.000000 0 0 1
4.363496 27.165596 -25.255101 37.347420 1.411531 2.313417 0.083914 -0.031964 483343.000000 0 0 1
5.179196 27.178096 -24.070381 36.672281 1.382489 2.286786 0.070969 -0.019469 144653.000000 0 0 1
6.002596 25.904496 -23.855481 35.723354 1.343095 2.302024 0.055671 -0.019344 -547660.000000 0 0 1
7.250896 26.162896 -23.301881 35.777790 1.300438 2.280086 0.044984 -0.017020 -984649.000000 0 0 1
8.000296 25.006196 -23.046081 34.934745 1.261155 2.291202 0.039481 -0.006043 -397847.000000 0 0 1
9.327896 25.399596 -22.407181 35.131622 1.218841 2.262443 0.039092 0.002451 -1076230.000000 0 0 1
9.337496 25.983096 -21.096781 34.747435 1.225800 2.223261 0.050284 -0.000119 -27135.300000 0 0 1
10.639496 26.296896 -20.638681 35.081059 1.186338 2.199769 0.054652 -0.002394 89212.100000 0 0 1
11.504196 25.166596 -20.103781 34.203305 1.142036 2.199100 0.034150 0.008106 -477205.000000 0 0 1
11.946796 24.345196 -21.148481 34.390009 1.114596 2.233132 0.034316 0.001370 -320750.000000 0 0 1
12.354096 23.124896 -20.568181 33.323183 1.080138 2.236018 0.021857 0.007258 -278276.000000 0 0 1
12.439096 22.059596 -21.711681 33.357967 1.057355 2.279525 0.026149 -0.009698 216122.000000 0 0 1
11.203196 21.921796 -22.415181 33.294400 1.098346 2.309381 0.030345 -0.019873 336610.000000 0 0 1
11.335296 21.266096 -23.690681 33.793255 1.081081 2.347662 0.031011 -0.025656 -196327.000000 0 0 1
10.266696 21.579996 -24.753781 34.407135 1.126736 2.373788 0.048964 -0.024049 -225464.000000 0 0 1
9.071896 20.860296 -24.586281 33.495319 1.160580 2.395021 0.034770 -0.021702 -521526.000000 0 0 1
8.445296 20.683496 -25.829221 34.150822 1.183146 2.428478 0.033504 -0.023242 916889.000000 0 0 1
6.922796 20.191096 -25.726381 33.428313 1.240493 2.449009 0.038438 -0.031434 1766110.000000 0 0 1
5.992396 21.181296 -25.225931 33.479899 1.295091 2.424113 0.059027 -0.028576 221914.000000 0 0 1
6.170696 21.682796 -23.944581 32.887141 1.293537 2.386318 0.063402 -0.026266 -1320640.000000 0 0 1
4.902696 22.099996 -23.184281 32.403042 1.352490 2.368132 0.080073 -0.032193 -115078.000000 0 0 1
4.295296 23.294796 -23.664881 33.483185 1.388456 2.355717 0.079380 -0.033441 -96572.500000 0 0 1
2.887696 23.296296 -23.644381 33.318357 1.447470 2.359798 0.103105 -0.029591 -106638.000000 0 0 1
2.288596 24.538896 -24.362381 34.654302 1.477801 2.350420 0.094909 -0.025759 985015.000000 0 0 1
0.879696 24.304096 -24.601081 34.593006 1.534617 2.361940 0.113322 -0.048032 925013.000000 0 0 1
0.404896 25.054796 -25.669611 35.872491 1.554637 2.368249 0.098656 -0.043317 382721.000000 0 0 1
-1.110004 24.859496 -25.969481 35.967215 -1.526175 2.377531 0.114039 -0.041737 383394.000000 0 0 1
-1.438904 23.578296 -26.453681 35.465528 -1.509845 2.412679 0.122705 -0.045693 499735.000000 0 0 1
-2.624604 23.654596 -27.270391 36.195340 -1.460293 2.424048 0.120689 -0.039956 609605.000000 0 0 1
-3.231104 22.299596 -27.685561 35.695970 -1.426903 2.458451 0.112364 -0.036954 -207389.000000 0 0 1
-2.504904 21.643796 -28.718811 36.048558 -1.455576 2.492562 0.113733 -0.044028 136524.000000 0 0 1
-3.187004 20.511196 -29.237151 35.856340 -1.416650 2.524211 0.087155 -0.044025 910925.000000 0 0 1
-4.491504 20.731096 -30.136101 36.852903 -1.357438 2.528270 0.064523 -0.032067 819562.000000 0 0 1
-4.441204 21.108196 -31.504161 38.181047 -1.363419 2.541221 0.058159 -0.028079 -123419.000000 0 0 1
-3.731104 22.340696 -31.680751 38.944804 -1.405314 2.520904 0.073038 -0.032071 189506.000000 0 0 1
-3.302904 22.585796 -33.173611 40.268049 -1.425588 2.538913 0.044522 -0.025767 -282674.000000 0 0 1
-2.256204 21.747396 -33.555991 40.050520 -1.467420 2.564114 0.043860 -0.017093 -197594.000000 0 0 1
-2.012104 21.872496 33.559989 40.108945 -1.479062 0.579529 0.037828 0.000246 104140.000000 0 0 1
-0.845004 20.998396 33.044312 39.160863 -1.530577 0.566453 0.051987 0.004282 -110579.000000 0 0 1
-1.132404 19.658396 32.931337 38.369361 -1.513256 0.538904 0.031599 0.018910 292573.000000 0 0 1
-0.034404 18.875496 32.484165 37.570021 -1.568974 0.526383 0.040717 0.008610 144463.000000 0 0 1
-0.563604 17.585996 31.949313 36.473874 -1.538759 0.503393 0.030902 0.010086 -571204.000000 0 0 1
-1.443004 17.680896 30.919953 35.647438 -1.489363 0.520879 0.021730 0.011796 -591470.000000 0 0 1
-1.732804 16.394896 30.437003 34.615118 -1.465496 0.496410 0.008706 0.008478 158360.000000 0 0 1
-2.876304 16.198896 29.350693 33.647296 -1.395066 0.510900 0.007850 0.007286 78711.700000 0 0 1
-4.138504 16.640196 29.705203 34.299015 -1.327037 0.523518 -0.010977 0.003827 -735888.000000 0 0 1
-4.315004 18.000596 29.524253 34.847127 -1.335521 0.560008 -0.013646 0.007120 -1555070.000000 0 0 1
-5.738704 18.482396 29.613063 35.376054 -1.269738 0.578848 -0.028283 0.001240 -943371.000000 0 0 1
-6.492304 17.934596 28.569823 34.351631 -1.223472 0.588656 -0.040818 0.002915 112084.000000 0 0 1
-7.880504 18.263796 28.780043 34.985132 -1.163448 0.604764 -0.033082 -0.000169 745111.000000 0 0 1
-8.804304 17.431596 27.828813 33.997340 -1.103095 0.611899 -0.027299 -0.002657 -111106.000000 0 0 1
-9.056104 16.035696 28.096173 33.593921 -1.056702 0.580211 -0.026539 -0.012268 -291823.000000 0 0 1
-9.820104 15.838896 29.229423 34.665029 -1.015801 0.567595 -0.025118 -0.011707 -869440.000000 0 0 1
-10.142804 14.354896 29.510523 34.348369 -0.955672 0.537183 -0.028289 -0.012676 -460616.000000 0 0 1
-9.030204 13.533796 29.706013 33.869683 -0.982401 0.501072 -0.013688 -0.008099 -542689.000000 0 0 1
-8.475404 13.566796 31.002643 34.886305 -1.012401 0.476345 0.002823 -0.009704 -584042.000000 0 0 1
-9.259204 13.201796 32.299463 36.100908 -0.959159 0.463038 0.034157 -0.021263 -460958.000000 0 0 1
-9.451504 11.811796 32.488745 35.838080 -0.895949 0.435776 0.042917 -0.019416 350719.000000 0 0 1
-10.142504 11.606996 33.704125 37.061581 -0.852631 0.428936 0.054447 -0.014689 -533839.000000 0 0 1
-10.439704 10.144696 33.942725 36.932518 -0.771067 0.405140 0.047038 -0.015915 -553451.000000 0 0 1
-9.353004 9.248296 33.999637 36.455246 -0.779769 0.369133 0.054189 -0.018316 -43140.100000 0 0 1
-9.495904 8.347496 -33.422701 35.734154 -0.721126 2.779945 0.071974 -0.024189 -39241.800000 0 0 1
-8.758304 8.848696 -32.156301 34.482386 -0.790532 2.772189 0.052210 -0.018526 -266558.000000 0 0 1
-9.280004 10.048096 -31.632261 34.462771 -0.825117 2.733470 0.052837 -0.019277 436696.000000 0 0 1
-8.351704 10.787896 -30.815611 33.700616 -0.912003 2.724803 0.045004 -0.023890 234670.000000 0 0 1
-7.494904 11.814496 -31.559151 34.521528 -1.005479 2.724295 0.034971 -0.018095 -373393.000000 0 0 1
-8.091804 13.052196 -31.766931 35.284203 -1.015831 2.691291 0.030455 -0.016901 -60183.000000 0 0 1
-7.245704 13.872296 -32.539801 36.107886 -1.089457 2.693287 0.011759 -0.010491 -308794.000000 0 0 1
-7.729304 15.295096 -32.874051 37.072703 -1.102882 2.661053 0.010450 -0.007891 -155428.000000 0 0 1
-8.537804 15.427396 -34.022591 38.320168 -1.065332 2.663449 0.019967 -0.017304 42800.000000 0 0 1
-8.718704 16.758996 34.189194 39.061243 -1.091088 0.504799 0.023392 -0.015677 -1442400.000000 0 0 1
-9.070204 17.004396 32.706927 37.962628 -1.080784 0.532470 0.011500 -0.019839 636000.000000 0 0 1
-10.299404 16.453496 32.259403 37.649228 -1.011499 0.541685 -0.007224 -0.016335 247583.000000 0 0 1
-11.483504 16.799296 32.927214 38.707734 -0.971182 0.553552 0.005020 -0.018016 -617761.000000 0 0 1
-12.754704 16.091396 32.322793 38.293321 -0.900559 0.565941 0.022620 -0.029808 410931.000000 0 0 1
-12.693204 14.677896 32.372523 37.743056 -0.857782 0.540001 0.026815 -0.029280 -182723.000000 0 0 1
-13.889904 14.208096 32.915380 38.447648 -0.796722 0.543103 0.020102 -0.016950 -576369.000000 0 0 1
-13.972804 12.713396 32.853732 37.897723 -0.738240 0.521837 0.021784 -0.012846 -13127.600000 0 0 1
-14.132004 12.198296 31.514683 36.629049 -0.712089 0.534793 0.009761 -0.012265 704890.000000 0 0 1
-12.827704 11.784996 31.099803 35.645952 -0.743059 0.510575 0.014784 -0.010245 219736.000000 0 0 1
-12.788304 11.058696 29.776613 34.241527 -0.712996 0.516394 0.020792 -0.010025 -377689.000000 0 0 1
-13.527404 9.865796 29.642513 34.044136 -0.630133 0.514156 0.016898 -0.006338 201423.000000 0 0 1
-13.289904 9.328496 28.351013 32.671430 -0.612016 0.520116 0.004556 -0.002593 62345.200000 0 0 1
-14.307404 8.198296 28.075763 32.560134 -0.520338 0.531053 0.025907 -0.000504 21850.200000 0 0 1
-14.100604 6.965896 28.742613 32.764135 -0.458847 0.500676 0.009577 0.002577 513824.000000 0 0 1
-14.985504 5.878096 28.333373 32.586767 -0.373809 0.516658 0.022419 0.008196 665915.000000 0 0 1
-14.199404 4.531696 28.190273 31.888099 -0.308929 0.486366 0.032657 0.007659 1343160.000000 0 0 1
-13.101004 4.518696 27.241393 30.563842 -0.332135 0.470604 0.030353 0.002244 922012.000000 0 0 1
-13.648504 4.419596 25.941103 29.643808 -0.313160 0.505167 0.033360 0.005878 66461.900000 0 0 1
-12.594404 4.135196 24.834233 28.150630 -0.317246 0.490301 0.023374 0.017433 -8459.250000 0 0 1
-11.991004 2.844796 24.985013 27.859073 -0.232938 0.458232 0.016565 0.015750 590192.000000 0 0 1
-11.248604 2.433696 23.805293 26.441368 -0.213071 0.450327 0.013056 0.012998 -142294.000000 0 0 1
-10.349604 1.200096 23.976283 26.142240 -0.115440 0.409934 0.010921 0.007295 -299677.000000 0 0 1
-9.028604 1.652796 24.178693 25.862263 -0.181057 0.362812 0.000144 -0.000006 -261730.000000 0 0 1
-8.155304 0.563696 24.493113 25.821296 -0.069010 0.322132 0.001325 -0.009415 326420.000000 0 0 1
-6.705104 1.112896 24.377233 25.307044 -0.164478 0.271913 0.013162 -0.012521 -601331.000000 0 0 1
-6.335604 1.340096 23.002023 23.896209 -0.208446 0.274428 0.019194 -0.012723 277542.000000 0 1 0
-5.002404 1.766996 22.751523 23.361895 -0.339549 0.229091 0.023267 -0.015988 325530.000000 0 1 0
-4.695404 3.186196 23.259923 23.942069 -0.596203 0.239282 0.041312 -0.017528 -821828.000000 0 1 0
-4.466704 3.089296 24.657333 25.248352 -0.605085 0.216795 0.035301 -0.016515 -97295.800000 0 0 1
-4.142604 4.322396 25.252393 25.952411 -0.806634 0.232789 0.028068 -0.010145 -30576.600000 0 0 1
4.213096 -23.587504 13.235019 27.373094 -1.394045 1.066142 0.061669 -0.010504 127518.000000 0 0 1
3.877896 -24.735904 13.976919 28.675030 -1.415290 1.061658 0.056220 -0.014276 127769.000000 0 0 1
2.563096 -25.115094 13.578319 28.665453 -1.469094 1.077329 0.042737 -0.008758 496933.000000 0 0 1
2.094196 -26.470624 14.222619 30.122459 -1.491847 1.079057 0.025943 -0.004281 152618.000000 0 0 1
1.827396 -26.471714 15.648719 30.805413 -1.501874 1.037951 0.044013 -0.015947 -27293.000000 0 0 1
2.359596 -27.625834 16.172519 32.098361 -1.485590 1.042755 0.036092 -0.013558 -453015.000000 0 0 1
2.013596 -27.848634 17.613919 33.012894 -1.498617 1.008008 0.028286 -0.015316 -411352.000000 0 0 1
2.597996 -26.987554 18.531919 32.840672 -1.474826 0.971214 0.050017 -0.023043 -54237.500000 0 0 1
2.634196 -27.475154 19.864619 34.006267 -1.475213 0.946969 0.042046 -0.025455 -6146.410000 0 0 1
3.405696 -26.574964 20.848319 33.948195 -1.443337 0.909524 0.043637 -0.020736 196710.000000 0 0 1
2.665496 -25.365374 21.179819 33.152554 -1.466097 0.877782 0.036148 -0.015976 352980.000000 0 0 1
3.467396 -24.312304 21.715519 32.782232 -1.429133 0.846755 0.056423 -0.019603 -8180.150000 0 0 1
2.754596 -23.057004 22.311519 32.202751 -1.451891 0.805369 0.049545 -0.017611 281489.000000 0 0 1
1.991196 -22.161504 21.489819 30.933953 -1.481188 0.802793 0.045167 -0.016879 774456.000000 0 0 1
2.773896 -21.640504 20.374219 29.851545 -1.443311 0.819594 0.035583 -0.006697 497324.000000 0 0 1
2.013896 -20.481804 19.690819 28.483126 -1.472785 0.807489 0.016486 -0.021927 163553.000000 0 0 1
1.922596 -19.336504 20.454219 28.212973 -1.471694 0.759772 0.018683 -0.018421 -177894.000000 0 0 1
1.083196 -18.404604 19.815519 27.065801 -1.512010 0.749362 0.017067 -0.031279 -319047.000000 0 0 1
0.911896 -17.098504 20.510419 26.718303 -1.517515 0.695624 0.012310 -0.027522 1471660.000000 0 0 1
2.098496 -16.221404 20.458019 26.192904 -1.442145 0.674448 -0.009254 -0.017634 1182840.000000 0 0 1
1.733196 -14.958404 20.969819 25.816490 -1.455443 0.622772 0.000934 -0.014116 667302.000000 0 0 1
2.838996 -13.853404 20.811319 25.161235 -1.368664 0.596835 -0.013966 -0.006582 -106936.000000 0 0 1
3.184796 -13.476604 19.490119 23.908713 -1.338733 0.617741 -0.024131 -0.007704 -282105.000000 0 1 0
2.168196 -13.022904 18.623619 22.828410 -1.405819 0.616670 -0.014315 -0.002854 234161.000000 0 1 0
1.275196 -11.760704 19.064219 22.436237 -1.462790 0.555368 -0.005304 -0.007601 183914.000000 0 1 0
1.868496 -10.478604 18.995119 21.773998 -1.394336 0.510754 -0.001578 -0.003747 -395117.000000 0 1 0
1.443296 -9.578704 20.030019 22.249412 -1.421244 0.450454 0.003919 -0.009840 261806.000000 0 1 0
-0.052604 -9.163304 20.003619 22.002584 1.565056 0.429561 0.008423 -0.012613 158350.000000 0 1 0
-0.284504 -8.524804 21.268419 22.915036 1.537435 0.381405 0.006823 -0.010882 -188667.000000 0 1 0
-1.532404 -7.869804 21.138219 22.607662 1.378483 0.362530 0.014793 -0.012673 110294.000000 0 1 0
-1.977104 -7.201804 22.466819 23.675576 1.302868 0.320922 0.021259 -0.009656 -187360.000000 0 1 0
-2.141104 -8.164804 23.503919 24.973638 1.314335 0.344782 0.021758 -0.004860 111652.000000 0 1 0
-2.442004 -7.488004 24.735519 25.959189 1.255550 0.308264 0.016143 0.003862 -220456.000000 0 0 1
-2.506504 -8.548404 25.888219 27.378051 1.285578 0.331415 0.021606 0.007267 889012.000000 0 0 1
-1.249104 -9.200304 26.186219 27.783519 1.435854 0.340736 0.018965 0.001120 844082.000000 0 0 1
-1.477304 -10.349604 26.996719 28.950295 1.429014 0.369468 0.034330 -0.004975 -102028.000000 0 0 1
-0.266504 -11.255304 27.267419 29.500255 1.547123 0.391569 0.034568 -0.004220 -48073.100000 0 0 1
0.757696 -10.871104 28.133919 30.170721 -1.501211 0.369548 0.016026 -0.003078 -539001.000000 0 0 1
1.866996 -11.726104 28.146119 30.548179 -1.412905 0.399210 0.028623 -0.010981 -156.975000 0 0 1
2.937396 -11.185204 29.113019 31.325788 -1.313981 0.378114 0.036439 -0.011238 247943.000000 0 0 1
2.387296 -11.162204 30.440719 32.510481 -1.360097 0.358753 0.033841 -0.013825 -109147.000000 0 0 1
3.149396 -10.335304 31.258119 33.072757 -1.275013 0.332798 0.048599 -0.006426 -237559.000000 0 0 1
2.619096 -10.259904 32.709719 34.380969 -1.320859 0.313077 0.037878 -0.004082 -147589.000000 0 0 1
2.730096 -11.465704 33.431219 35.448021 -1.337039 0.338947 0.035570 -0.011021 12758.700000 0 0 1
2.238496 -11.504504 -33.758885 35.735512 -1.378622 2.807436 0.024507 -0.011457 -557953.000000 0 0 1
2.966096 -10.741104 -32.649485 34.498665 -1.301366 2.812693 0.031783 -0.004858 -218970.000000 0 0 1
2.667096 -9.347204 -32.578785 33.997954 -1.292846 2.851639 0.038360 -0.013700 29214.800000 0 0 1
3.489596 -8.771004 -31.604685 32.984298 -1.192140 2.851347 0.043971 -0.014771 -98236.600000 0 0 1
3.044696 -7.365404 -31.186385 32.188662 -1.178811 2.891391 0.019987 -0.011006 28126.900000 0 0 1
3.195896 -6.298304 -32.099185 32.867005 -1.101229 2.925015 0.042061 -0.009865 86677.900000 0 0 1
2.420296 -5.170004 -31.693785 32.203769 -1.132958 2.963390 0.025123 -0.006004 228675.000000 0 0 1
2.422796 -3.898004 -32.611185 32.932564 -1.014683 3.001774 0.032183 -0.006960 -264908.000000 0 0 1
1.823796 -4.139204 -33.852585 34.153429 -1.155774 3.008765 0.024499 -0.007085 -328598.000000 0 0 1
2.224996 -3.184404 33.742219 33.965106 -0.960932 0.114625 0.045688 -0.006489 -13504.100000 0 0 1
1.711496 -3.430104 32.331119 32.557581 -1.107978 0.118015 0.042695 -0.005458 -28132.100000 0 0 1
0.349296 -3.141504 32.171119 32.326026 -1.460064 0.097937 0.031071 -0.011011 -427618.000000 0 0 1
-0.224004 -3.732404 30.976019 31.200878 1.510852 0.120129 0.025317 0.001050 292115.000000 0 0 1
-1.752904 -3.604004 30.895219 31.154070 1.118107 0.128998 0.014987 -0.005261 91559.600000 0 0 1
-2.360704 -2.358604 30.638719 30.819913 0.784953 0.108489 0.022788 -0.008921 129022.000000 0 0 1
-3.767604 -2.394204 30.797019 31.118860 0.566094 0.143946 0.011492 -0.010430 343771.000000 0 0 1
-4.570004 -1.365404 29.978419 30.355475 0.290333 0.157779 0.014196 -0.011420 -516902.000000 0 0 1
-4.542204 -1.711204 28.595019 29.004051 0.360290 0.168142 0.011503 -0.010745 -53294.100000 0 0 1
-5.528204 -1.175804 27.733619 28.303660 0.209569 0.201038 0.000275 -0.016458 -13600.800000 0 0 1
-5.800004 0.360196 27.731419 28.333750 -0.062023 0.206563 0.022511 -0.015127 -442972.000000 0 0 1
-6.530904 0.710996 28.852019 29.590492 -0.108439 0.223879 0.019011 -0.010791 -597585.000000 0 0 1
-6.797104 2.118096 28.848719 29.714232 -0.302081 0.241952 0.025776 -0.006290 -330092.000000 0 0 1
-8.188804 2.370396 29.464119 30.672620 -0.281766 0.281643 0.019122 -0.008868 -106711.000000 0 0 1
-9.207604 1.884996 28.618719 30.122488 -0.201931 0.317310 0.008084 -0.006339 -1138700.000000 0 0 1
-10.434804 2.296196 29.060219 30.962138 -0.216600 0.352326 0.015417 -0.003312 -762165.000000 0 0 1
-11.691904 1.755596 28.307219 30.677050 -0.149041 0.395643 0.021640 -0.001250 317836.000000 0 0 1
-11.935304 0.375896 28.648019 31.037103 -0.031484 0.394926 0.029295 -0.006477 26565.100000 0 0 1
-12.207704 -0.451404 27.551719 30.138498 0.036960 0.417340 0.033054 -0.006475 -804806.000000 0 0 1
-12.111704 -1.968804 27.811319 30.398011 0.161144 0.415522 0.040575 -0.010466 767809.000000 0 0 1
-10.810604 -2.511704 28.080519 30.194261 0.228287 0.376396 0.035295 -0.016673 1211640.000000 0 0 1
-9.712704 -2.296904 27.186819 28.960931 0.232218 0.351837 0.030274 -0.015261 -138720.000000 0 0 1
-9.670304 -2.867204 25.767319 27.671111 0.288239 0.373107 0.027685 -0.016650 -127602.000000 0 0 1
-10.612604 -2.259204 24.849419 27.115033 0.209748 0.411694 0.025833 -0.009377 794345.000000 0 0 1
-10.510704 -2.809504 23.522019 25.916281 0.261193 0.433228 0.035664 -0.013113 160863.000000 0 0 1
-9.290304 -2.475304 22.617719 24.576373 0.260390 0.401941 0.017331 -0.012900 1077450.000000 0 1 0
-7.980704 -2.873004 23.048519 24.559724 0.345550 0.352628 0.014517 -0.013565 175049.000000 0 1 0
-7.038404 -2.190804 22.251719 23.440942 0.301759 0.319899 0.010004 -0.013194 -317329.000000 0 1 0
-5.594604 -2.325404 22.775219 23.567302 0.393926 0.259998 0.016223 -0.009760 -166154.000000 0 1 0
-5.022704 -3.648104 22.755819 23.587360 0.628175 0.266318 0.021412 -0.011662 -35077.000000 0 1 0
-5.569904 -4.536504 23.676319 24.742106 0.683500 0.294580 0.022898 -0.015207 -542871.000000 0 1 0
-5.309604 -6.021604 23.246619 24.593839 0.848151 0.332525 0.026918 -0.012747 -231520.000000 0 1 0
-6.113104 -6.546804 22.169319 23.910446 0.819643 0.383979 0.021574 -0.020032 201610.000000 0 1 0
-5.896204 -5.979404 20.895419 22.519704 0.792404 0.382129 0.032861 -0.019832 -456549.000000 0 1 0
-7.105704 -6.179004 19.980219 22.088012 0.715754 0.440419 0.034885 -0.017160 772720.000000 0 1 0
-8.194004 -5.228004 20.073419 22.302823 0.567913 0.450936 0.040632 -0.020241 1070430.000000 0 1 0
-9.159404 -5.222704 18.985519 21.716843 0.518220 0.506948 0.044316 -0.019547 1372160.000000 0 1 0
-10.053804 -3.968804 19.151819 21.991420 0.375978 0.513813 0.044832 -0.017460 421471.000000 0 1 0
-9.154204 -2.883904 18.976419 21.265485 0.305194 0.468254 0.038612 -0.014432 1430.800000 0 1 0
-9.734004 -1.645604 18.915119 21.336368 0.167474 0.481027 0.031640 -0.021659 -91793.800000 0 1 0
-8.671104 -0.601804 18.410919 20.359572 0.069292 0.441087 0.026824 -0.008813 386660.000000 0 1 0
-7.654704 -0.377404 19.355919 20.817986 0.049264 0.377011 0.021183 0.001691 -85110.100000 0 1 0
-8.012004 0.624896 20.272019 21.806822 -0.077837 0.377421 0.036275 -0.002090 -125801.000000 0 1 0
-7.703904 2.108596 19.912219 21.454435 -0.267162 0.381475 0.019311 -0.008629 116657.000000 0 1 0
-8.565804 2.557796 18.865419 20.876287 -0.290177 0.442516 0.010083 -0.017831 243876.000000 0 1 0
-8.378504 3.906696 18.495219 20.676913 -0.436306 0.463515 0.004778 -0.010969 -96459.200000 0 1 0
-9.314704 4.348796 17.340019 20.158175 -0.436798 0.535139 0.007180 -0.002224 167220.000000 0 1 0
-10.658304 4.454296 17.816319 21.233498 -0.395857 0.575231 0.006381 0.006930 404695.000000 0 1 0
-11.501904 5.142896 16.882519 21.065674 -0.420468 0.641125 0.013858 0.016991 40832.100000 0 1 0
-11.461904 6.693996 16.829419 21.433949 -0.528588 0.667816 0.009631 0.018178 -413816.000000 0 1 0
-10.183804 7.301996 16.746319 20.915741 -0.622058 0.642407 0.001015 0.013412 156118.000000 0 1 0
-10.236804 8.660896 16.368519 21.159671 -0.702199 0.686338 -0.010601 -0.000537 57664.000000 0 1 0
-9.082704 9.534496 16.932019 21.449834 -0.809661 0.661002 -0.004118 0.011219 153342.000000 0 1 0
-9.043404 9.771296 18.342719 22.665320 -0.824066 0.627861 0.017053 0.027350 -38916.600000 0 1 0
-8.292604 10.920896 18.736819 23.218562 -0.921348 0.631783 0.032666 0.024011 54948.300000 0 1 0
-8.850704 12.299996 18.266519 23.733743 -0.947057 0.692514 0.032109 0.017414 119765.000000 0 1 0
-8.521704 12.538496 16.930919 22.726402 -0.973864 0.730278 0.016253 0.005123 -189992.000000 0 1 0
-9.280604 13.639996 16.540219 23.361463 -0.973349 0.784116 0.027798 -0.005760 -324535.000000 0 1 0
-9.076604 14.050796 15.087819 22.526693 -0.997249 0.836890 0.034308 -0.011223 -38722.700000 0 1 0
-7.867004 14.714896 14.840719 22.330805 -1.079831 0.843858 0.035264 -0.006223 -403891.000000 0 1 0
-7.669004 15.108496 13.523719 21.678820 -1.101091 0.897173 0.029064 -0.011482 -286067.000000 0 1 0
-6.573704 16.171396 13.449619 22.036785 -1.184697 0.914324 0.010886 -0.013271 -96924.000000 0 1 0
-5.246904 15.733396 13.641319 21.474527 -1.248906 0.882487 0.013816 -0.017952 -611466.000000 0 1 0
-4.446504 16.860396 13.781219 22.225354 -1.312943 0.901968 0.013593 -0.015790 277356.000000 0 1 0
-2.917804 16.541396 13.751719 21.708089 -1.396198 0.884749 0.020681 -0.023736 605624.000000 0 1 0
-2.218904 16.234996 14.942319 22.175922 -1.434964 0.831446 0.027591 -0.018525 -26834.000000 0 1 0
-2.454704 14.891596 15.432819 21.586039 -1.407427 0.774252 0.036239 -0.012285 -974165.000000 0 1 0
-1.376804 14.335196 16.306319 21.755217 -1.475046 0.723435 0.033234 -0.008798 -295650.000000 0 1 0
-0.138704 14.081696 15.610919 21.024133 -1.560947 0.733966 0.015497 -0.027943 -33346.700000 0 1 0
0.824496 13.593496 16.467819 21.369417 1.510217 0.690974 0.024067 -0.014214 -607737.000000 0 1 0
1.779496 14.647296 17.082519 22.572601 1.449899 0.712422 0.031671 -0.021424 -540440.000000 0 1 0
1.184596 15.539296 17.990419 23.801852 1.494711 0.713858 0.028269 -0.026357 -691663.000000 0 1 0
2.039096 16.568796 18.336319 24.797248 1.448344 0.738544 0.033478 -0.026036 -668389.000000 0 1 0
1.271396 17.798096 18.927619 26.012371 1.499483 0.755922 0.028534 -0.025195 284480.000000 0 0 1
0.532196 18.574196 18.003219 25.872763 1.542152 0.801212 0.024168 -0.019259 -124623.000000 0 0 1
-0.746204 18.035096 17.732019 25.303083 -1.529445 0.794299 0.028633 -0.016952 -235983.000000 0 0 1
-1.553104 18.928596 16.688719 25.282745 -1.488929 0.849867 0.028683 -0.013253 -156117.000000 0 0 1
-1.904804 20.167796 17.265219 26.616838 -1.476628 0.864977 0.029345 -0.007431 -169224.000000 0 0 1
-2.608104 20.968196 16.351819 26.717961 -1.447048 0.912189 0.029282 -0.007702 -579121.000000 0 0 1
-3.244004 22.191296 16.955719 28.115362 -1.425641 0.923444 0.026689 -0.003450 -148194.000000 0 0 1
-4.351904 21.970796 17.818419 28.620814 -1.375251 0.898776 0.029526 -0.003218 328312.000000 0 0 1
-5.033104 23.196996 18.070519 29.832472 -1.357136 0.920109 0.028843 -0.008548 71421.200000 0 0 1
-6.051904 23.126196 19.223519 30.675563 -1.314846 0.893521 0.021916 -0.004719 104026.000000 0 0 1
-7.253804 22.508196 18.825419 30.226362 -1.259032 0.898461 0.018528 -0.004933 -143020.000000 0 0 1
-8.230904 22.389496 19.836019 31.024264 -1.218508 0.877116 -0.001157 -0.003543 1172200.000000 0 0 1
-9.657204 22.914096 19.404919 31.541532 -1.171934 0.908134 0.012511 -0.011235 740781.000000 0 0 1
-9.778604 24.292296 19.417719 32.600376 -1.188103 0.932748 0.021267 -0.008598 217045.000000 0 0 1
-11.011804 24.652296 18.818119 32.910745 -1.150703 0.962107 0.020693 -0.005990 559410.000000 0 0 1
-11.715704 26.032896 19.137819 34.368961 -1.147914 0.980227 0.030538 -0.014106 303663.000000 0 0 1
-12.149404 26.140496 20.507319 35.376315 -1.135725 0.952447 0.023767 0.002805 203315.000000 0 0 1
-12.892504 27.326396 20.623619 36.582540 -1.129965 0.971870 0.041665 -0.006956 -400034.000000 0 0 1
-13.747704 27.454596 21.878719 37.701890 -1.106554 0.951689 0.058299 -0.012214 87517.500000 0 0 1
-14.994404 26.754796 21.853019 37.659072 -1.059975 0.951717 0.053767 -0.005199 808791.000000 0 0 1
-15.756304 27.123696 23.028319 38.913487 -1.044535 0.937528 0.048080 0.005136 610521.000000 0 0 1
-17.223804 26.628296 23.075319 39.219841 -0.996657 0.941769 0.062105 0.003352 210347.000000 0 0 1
-17.281404 25.190896 23.030819 38.257637 -0.969516 0.924802 0.066255 -0.002758 -54900.900000 0 0 1
-18.600304 24.687596 23.096319 38.586120 -0.925105 0.929087 0.072881 0.004250 180112.000000 0 0 1
28.150496 23.741496 24.094203 44.007268 0.700637 0.991416 0.085900 -0.005838 67186.300000 0 0 1
27.731796 23.101796 25.270203 44.060511 0.694567 0.959983 0.067317 -0.011811 85451.400000 0 0 1
27.236696 21.810596 24.966503 42.905314 0.675216 0.949736 0.066672 0.002284 -149763.000000 0 0 1
26.575096 21.071796 26.142593 42.821624 0.670406 0.914105 0.073741 -0.001282 398671.000000 0 0 1
25.386596 21.730596 26.599433 42.710981 0.707960 0.898509 0.079793 -0.000023 444108.000000 0 0 1
25.082196 21.182496 27.873073 43.066494 0.701306 0.866877 0.072595 -0.005082 -47575.200000 0 0 1
23.723096 21.493396 28.533503 42.882539 0.736126 0.842784 0.094363 -0.007425 -81344.200000 0 0 1
23.591596 22.845796 28.848773 43.712075 0.769339 0.850014 0.103075 -0.027759 -413882.000000 0 0 1
22.534196 22.878496 29.756483 43.779720 0.792980 0.823461 0.122508 -0.027732 -450262.000000 0 0 1
22.226796 24.305396 30.186823 44.676918 0.830039 0.828924 0.114506 -0.020111 -487440.000000 0 0 1
21.711696 25.140996 29.198253 44.226750 0.858461 0.849719 0.109924 -0.028587 -10040.400000 0 0 1
21.212496 26.396196 29.597463 44.974870 0.893852 0.852519 0.084145 -0.024890 843649.000000 0 0 1
19.825496 26.418196 30.359153 44.862563 0.927008 0.827505 0.087731 -0.024150 572436.000000 0 0 1
18.723896 26.337996 29.444433 43.717833 0.952787 0.831848 0.077802 -0.026300 -283009.000000 0 0 1
17.450096 26.325796 29.976383 43.544654 0.985440 0.811508 0.068897 -0.022498 -471811.000000 0 0 1
16.918696 25.031296 30.597153 42.999928 0.976427 0.779076 0.050548 -0.028884 -719728.000000 0 0 1
17.470296 24.685396 31.824353 43.901816 0.954909 0.759910 0.054010 -0.023540 -178476.000000 0 0 1
16.448096 24.311096 32.713913 43.951898 0.975971 0.731293 0.043807 -0.024397 -142134.000000 0 0 1
16.845296 24.115096 34.176189 45.092280 0.961053 0.710683 0.058768 -0.024212 -350001.000000 0 0 1
17.075596 25.234796 -33.544861 45.316979 0.975901 2.404205 0.041373 -0.019300 60357.000000 0 0 1
17.226296 24.831996 -32.235741 44.187286 0.964302 2.388424 0.037045 -0.003825 -65503.200000 0 0 1
17.574396 25.994096 -31.202761 44.251154 0.976297 2.353401 0.023366 0.008710 -642600.000000 0 0 1
16.563396 26.950996 -31.184731 44.420600 1.019729 2.349045 0.036601 0.001188 -317200.000000 0 0 1
16.810596 28.207396 -30.552761 44.852252 1.033350 2.320179 0.030573 0.004143 -655119.000000 0 0 1
16.416196 28.410096 -29.090021 43.850363 1.046838 2.296140 0.033768 -0.000509 -555988.000000 0 0 1
17.082796 27.599696 -28.182221 42.986075 1.016560 2.285790 0.028017 0.003114 -100600.000000 0 0 1
16.853796 28.015596 -26.840961 42.300842 1.029211 2.258191 0.020462 0.003687 -210768.000000 0 0 1
17.399096 27.091396 -25.765471 41.237504 0.999898 2.245680 0.025367 0.007298 24373.400000 0 0 1
18.789196 27.302696 -25.598431 41.877807 0.968047 2.228454 0.036651 0.006974 -464080.000000 0 0 1
19.264496 26.646596 -24.446081 40.972829 0.944825 2.210106 0.041178 0.006004 -167935.000000 0 0 1
20.795796 26.843196 -24.543081 41.897316 0.911665 2.196652 0.035648 0.007271 -109352.000000 0 0 1
21.371396 26.592896 -23.280481 41.302536 0.893833 2.169603 0.033469 0.008510 -370981.000000 0 0 1
22.757296 26.396796 -23.444581 42.003972 0.859306 2.162953 0.032916 0.012328 238331.000000 0 0 1
23.592896 26.131696 -22.147881 41.593496 0.836411 2.132329 0.042001 0.013264 259530.000000 0 0 1
23.327196 24.921896 -21.454681 40.318262 0.818438 2.131914 0.047152 0.012970 114231.000000 0 0 1
23.915096 24.897096 -20.152481 39.973987 0.805513 2.099182 0.044987 0.007498 -396654.000000 0 0 1
23.291396 23.844096 -19.206881 38.469914 0.797123 2.093553 0.037622 0.001261 -899294.000000 0 0 1
23.621296 22.564896 -19.604881 38.098445 0.762530 2.111320 0.041941 0.006700 287447.000000 0 0 1
23.431096 21.714196 -18.488581 36.910028 0.747386 2.095446 0.043999 0.005728 -734131.000000 0 0 1
23.704196 20.236796 -18.917181 36.459245 0.706651 2.116311 0.057528 0.004308 404038.000000 0 0 1
22.789296 19.679896 -19.864481 36.072814 0.712313 2.153972 0.041910 0.001866 -313629.000000 0 0 1
21.433096 19.718696 -19.556781 35.080938 0.743762 2.162139 0.033840 -0.005643 -1136790.000000 0 0 1
20.608396 19.394496 -20.840481 35.145100 0.755062 2.205556 0.029019 0.000636 -76494.500000 0 0 1
20.760296 20.303796 -21.978881 36.418473 0.774282 2.218691 0.027709 0.002101 9739.380000 0 0 1
20.559196 21.688396 -21.759681 36.966887 0.812120 2.200155 0.023316 0.008478 -147287.000000 0 0 1
20.335996 22.426796 -23.010381 38.026195 0.834252 2.220712 0.035517 0.004202 -698794.000000 0 0 1
18.999196 22.727396 -23.197881 37.625066 0.874510 2.235154 0.045184 -0.000935 -1131720.000000 0 0 1
18.657896 22.924696 -24.511181 38.398655 0.887651 2.263129 0.039353 -0.006051 369039.000000 0 0 1
17.121196 23.027296 -24.742581 37.889141 0.931457 2.282369 0.041957 -0.011496 351670.000000 0 0 1
16.534796 24.175796 -24.168581 37.973528 0.970930 2.260695 0.038114 -0.016273 66642.800000 0 0 1
15.125796 24.049196 -24.245481 37.349657 1.009360 2.277261 0.044060 -0.018026 391971.000000 0 0 1
14.317696 25.160696 -23.520181 37.299543 1.053445 2.253091 0.029818 -0.009945 97783.800000 0 0 1
14.261196 26.389796 -24.213381 38.549849 1.075349 2.249913 0.026155 -0.000336 -362525.000000 0 0 1
13.226996 27.148996 -23.680981 38.377210 1.117441 2.235795 0.022888 0.002248 -148979.000000 0 0 1
13.150296 28.623796 -24.154181 39.694791 1.140138 2.224962 0.020132 -0.004045 -109744.000000 0 0 1
13.080496 28.715596 -25.529531 40.588690 1.143362 2.251039 0.029686 -0.015349 -272270.000000 0 0 1
12.632796 29.938896 -26.006131 41.620233 1.171510 2.245727 0.049718 -0.019000 -378796.000000 0 0 1
13.577496 31.153096 -25.861231 42.704414 1.159787 2.221299 0.065402 -0.021781 457607.000000 0 0 1
14.760696 30.995596 -26.656981 43.464925 1.126354 2.231026 0.041318 -0.019200 386508.000000 0 0 1
15.482296 32.225896 -26.790571 44.675995 1.122927 2.213877 0.042701 -0.020801 513438.000000 0 0 1
16.829696 32.076596 -27.553251 45.511848 1.087606 2.221075 0.038061 -0.004823 1071250.000000 0 0 1
17.865396 31.436196 -26.778191 44.994203 1.054007 2.208246 0.020914 -0.002865 1715370.000000 0 0 1
19.201396 31.482996 -27.357441 45.916252 1.023131 2.209072 0.035987 -0.001563 1005690.000000 0 0 1
20.178196 30.604096 -26.525091 45.247660 0.987890 2.197182 0.027930 0.004203 -587806.000000 0 0 1
20.616196 31.101496 -25.249511 45.054060 0.985428 2.165698 0.039432 -0.003124 207947.000000 0 0 1
21.409296 32.258496 -25.244531 46.219637 0.984865 2.148601 0.041515 -0.008382 -1760940.000000 0 0 1
22.798696 32.290396 -25.758521 47.179991 0.956020 2.148334 0.036300 -0.002570 -1772620.000000 0 0 1
22.802996 31.975296 -27.134631 47.735567 0.951303 2.175400 0.030410 0.004672 -50574.500000 0 0 1
24.059196 32.224396 -27.750071 48.860239 0.929466 2.174807 0.039029 0.008688 -57266.700000 0 0 1
24.252196 31.436996 -29.061521 49.203919 0.913705 2.202641 0.035402 0.001533 1597000.000000 0 0 1
23.161596 31.772396 -29.995941 49.454030 0.940881 2.222500 0.049101 -0.014753 1888420.000000 0 0 1
21.869296 31.175296 -29.867661 48.396718 0.959068 2.235902 0.040721 -0.010152 343168.000000 0 0 1
20.852996 31.731096 -30.901061 48.954933 0.989391 2.253914 0.022199 -0.001888 -1008840.000000 0 0 1
20.619396 33.117296 -30.485791 49.510587 1.013912 2.234125 0.040404 -0.006056 537407.000000 0 0 1
19.674596 33.720496 -31.396261 50.098770 1.042627 2.248091 0.042981 -0.011477 1641170.000000 0 0 1
18.137196 33.378196 -31.140901 49.120439 1.073046 2.257473 0.047051 -0.012997 791950.000000 0 0 1
17.662596 32.061396 -31.396931 48.225176 1.067263 2.279761 0.046284 -0.009843 132083.000000 0 0 1
17.833196 31.467996 -32.697281 48.758279 1.055215 2.305813 0.052044 -0.008404 -451763.000000 0 0 1
17.180296 32.199396 -33.956451 49.849816 1.080663 2.320163 0.063051 -0.014416 -134645.000000 0 0 1
17.868696 33.408796 34.247158 51.071575 1.079659 0.835817 0.059076 -0.013864 183223.000000 0 0 1
17.491096 34.026896 32.993053 50.520388 1.095982 0.859173 0.054245 -0.017230 -316196.000000 0 0 1
16.042796 -34.050394 32.851141 49.959965 -1.130495 0.853235 0.068001 -0.020947 -497978.000000 0 0 1
15.149796 33.436996 32.566578 49.072711 1.145380 0.845123 0.080917 -0.025320 148738.000000 0 0 1
13.772896 33.789596 32.625278 48.947300 1.183749 0.841240 0.072696 -0.027043 468937.000000 0 0 1
13.077796 -34.139394 31.445503 48.221848 -1.204969 0.860444 0.070233 -0.032281 -1014560.000000 0 0 1
13.683496 -32.960894 31.074193 47.320863 -1.177304 0.854401 0.077670 -0.021029 -23111.400000 0 0 1
13.102696 -32.555794 29.886433 46.095111 -1.188163 0.865362 0.067529 -0.022978 -23739.100000 0 0 1
13.599596 -31.132694 29.540833 45.020601 -1.158951 0.855074 0.068823 -0.020724 198601.000000 0 0 1
13.088896 -30.092294 30.417853 44.744957 -1.160521 0.823299 0.067588 -0.024134 349438.000000 0 0 1
13.617796 -28.796794 30.156793 43.864928 -1.129069 0.812766 0.074038 -0.031511 -229788.000000 0 0 1
13.198396 -27.661294 31.171543 43.715100 -1.125601 0.776941 0.060086 -0.020741 219400.000000 0 0 1
11.825396 -27.322894 31.259403 43.168632 -1.162336 0.761034 0.049103 -0.020906 16819.800000 0 0 1
11.568196 -26.317794 30.313143 41.777220 -1.156660 0.758905 0.044291 -0.019666 -436478.000000 0 0 1
11.874196 -24.816794 30.694483 41.219184 -1.124517 0.730764 0.049835 -0.011540 -219880.000000 0 0 1
10.952396 -24.278694 31.610093 41.335311 -1.147019 0.700184 0.047065 -0.018857 -292346.000000 0 0 1
11.416296 -23.149394 32.316383 41.359097 -1.112638 0.673953 0.051505 -0.016182 172373.000000 0 0 1
10.470696 -22.604394 33.449629 41.706975 -1.137007 0.640135 0.050520 -0.014851 -20064.800000 0 0 1
10.444696 -23.401494 -33.899471 42.495832 -1.151002 2.494289 0.053698 -0.016306 304760.000000 0 0 1
11.611596 -23.609094 -33.112501 42.292507 -1.113708 2.470174 0.051511 -0.011173 437569.000000 0 0 1
12.276596 -22.421494 -32.325711 41.211525 -1.069846 2.472501 0.055614 -0.016575 306407.000000 0 0 1
12.774796 -21.403394 -33.197001 41.513149 -1.032690 2.497549 0.049571 -0.010669 -156799.000000 0 0 1
13.741996 -20.584994 -32.641001 40.963635 -0.982166 2.492825 0.050516 -0.013211 -427617.000000 0 0 1
13.915296 -19.311294 -33.498331 41.093792 -0.946393 2.523815 0.033266 -0.007144 -299871.000000 0 0 1
14.487196 -19.498894 33.717472 41.556632 -0.931806 0.624318 0.047694 0.000303 282724.000000 0 0 1
14.346096 -18.384594 32.849774 40.285375 -0.908163 0.617330 0.033776 -0.000300 339097.000000 0 0 1
15.396296 -17.202094 32.973038 40.251450 -0.840737 0.610823 0.038790 -0.000139 -107151.000000 0 0 1
15.332396 -16.455194 34.186718 40.921724 -0.820705 0.581905 0.034519 -0.002050 278028.000000 0 0 1
15.966596 -15.192294 34.042320 40.553885 -0.760553 0.574555 0.052240 -0.007509 1673060.000000 0 0 1
17.551196 -15.175594 -34.227198 41.350262 -0.712936 2.545861 0.057603 -0.012134 1714320.000000 0 0 1
18.300796 -15.981794 33.365715 41.274785 -0.717857 0.629401 0.071015 -0.009251 -652643.000000 0 0 1
19.637196 -16.101894 33.695936 42.193679 -0.686799 0.645828 0.085899 -0.008876 -978276.000000 0 0 1
20.419296 -16.735694 32.540699 41.903797 -0.686580 0.681613 0.095586 -0.016802 -629991.000000 0 0 1
20.510096 -15.891294 31.364203 40.705166 -0.659187 0.691138 0.085698 -0.009907 596311.000000 0 0 1
21.181696 -16.584894 30.302953 40.521500 -0.664278 0.726018 0.074841 -0.012361 -116764.000000 0 0 1
21.651996 -15.691394 29.141333 39.550551 -0.627117 0.742453 0.076718 -0.008583 -642675.000000 0 0 1
22.722296 -14.869194 29.429333 40.043493 -0.579454 0.745227 0.051828 -0.008671 -151955.000000 0 0 1
23.121696 -14.182094 28.243003 39.158803 -0.550191 0.765202 0.051295 -0.010210 200490.000000 0 0 1
23.785496 -12.803994 28.441713 39.225287 -0.493825 0.759637 0.049558 0.000534 639701.000000 0 0 1
22.801896 -11.852594 28.923083 38.690505 -0.479368 0.726431 0.064019 -0.007881 1070660.000000 0 0 1
23.349696 -10.536794 28.984623 38.682564 -0.423902 0.723801 0.047104 -0.008591 -169734.000000 0 0 1
22.239096 -9.474394 28.925853 37.696771 -0.402738 0.696130 0.059744 -0.013913 79381.500000 0 0 1
21.393596 -9.501694 30.070843 38.108054 -0.417968 0.661463 0.079090 -0.030109 -71168.600000 0 0 1
20.319796 -8.617694 29.772993 37.061974 -0.401111 0.637930 0.066349 -0.022365 -109712.000000 0 0 1
19.221396 -8.624994 30.833463 37.343742 -0.421788 0.599414 0.051058 -0.019666 -373976.000000 0 0 1
19.507996 -7.924994 32.062083 38.358110 -0.385877 0.581095 0.069551 -0.027216 66260.100000 0 0 1
19.904496 -8.794494 33.050916 39.571393 -0.416043 0.582259 0.085339 -0.029702 -377873.000000 0 0 1
19.884096 -8.115294 -34.053541 40.260140 -0.387495 2.578930 0.094199 -0.037548 -218455.000000 0 0 1
18.655296 -8.236094 -33.388931 39.123829 -0.415753 2.593302 0.082145 -0.046964 -328889.000000 0 0 1
18.469996 -7.397094 -32.273611 37.913635 -0.380931 2.589140 0.088939 -0.046961 333494.000000 0 0 1
17.114396 -7.359794 -31.505671 36.601590 -0.406128 2.607583 0.079738 -0.051620 412802.000000 0 0 1
17.273096 -6.482694 -30.441651 35.596057 -0.359039 2.596728 0.075728 -0.044371 723464.000000 0 0 1
16.039996 -6.152594 -29.797551 34.395202 -0.366270 2.618601 0.056723 -0.042127 519747.000000 0 0 1
16.324996 -4.996594 -28.804871 33.484206 -0.297016 2.606561 0.044719 -0.035628 -331719.000000 0 0 1
17.078496 -5.361094 -27.683671 32.966680 -0.304168 2.567613 0.046594 -0.024977 -177227.000000 0 0 1
16.571696 -6.346894 -26.772701 32.119802 -0.365762 2.556256 0.062861 -0.028543 -212560.000000 0 0 1
15.218796 -6.056094 -26.100001 30.813926 -0.378725 2.581150 0.048130 -0.024819 -68135.300000 0 0 1
15.198396 -4.854994 -25.338611 29.943403 -0.309196 2.579641 0.034350 -0.015175 -438701.000000 0 0 1
13.902896 -4.741794 -24.802881 28.826342 -0.328693 2.606898 0.002520 -0.018649 -374470.000000 0 0 1
13.653596 -3.482494 -23.949081 27.786812 -0.249736 2.609775 0.004959 -0.002717 -14135.500000 0 0 1
13.668496 -2.239494 -24.622381 28.250748 -0.162401 2.629183 -0.003932 -0.009252 42914.000000 0 0 1
13.319696 -1.199494 -23.718481 27.229018 -0.089812 2.628180 -0.002026 -0.004238 64695.700000 0 0 1
13.850096 0.148506 -24.237081 27.915646 0.010722 2.622411 0.003968 -0.008308 -128887.000000 0 0 1
13.164396 0.685506 -25.334681 28.559014 0.052026 2.661819 0.008398 -0.010967 5126.010000 0 0 1
13.697296 1.955506 -25.703971 29.191335 0.141808 2.647785 0.008904 0.005834 166166.000000 0 0 1
12.841396 2.614506 -26.817171 29.847910 0.200855 2.687047 0.015052 -0.002815 222785.000000 0 0 1
11.621696 3.205506 -26.398571 29.021089 0.269129 2.713199 0.035259 -0.019957 224616.000000 0 0 1
11.003396 3.686506 -27.600081 29.940433 0.323280 2.743580 0.053976 -0.019910 87751.200000 0 0 1
9.787796 4.627506 -27.418641 29.478749 0.441638 2.765524 0.062287 -0.022391 -48378.700000 0 0 1
10.027796 5.856506 -26.747961 29.160054 0.528592 2.731994 0.059890 -0.035783 -495798.000000 0 0 1
8.875896 6.627506 -26.642751 28.853796 0.641377 2.747566 0.077951 -0.042024 -446200.000000 0 0 1
7.801896 5.128096 -31.404951 32.763362 0.581482 2.852626 0.056061 -0.023520 -137266.000000 0 0 1
8.158696 4.136296 -30.486801 31.829519 0.469216 2.850098 0.050705 -0.009062 372515.000000 0 0 1
7.722596 2.813796 -30.814011 31.891365 0.349409 2.880924 0.036978 -0.004063 -237388.000000 0 0 1
7.653396 1.824596 -29.612351 30.639761 0.234035 2.881897 0.045061 -0.005381 -47463.200000 0 0 1
8.890696 1.447296 -29.023701 30.389379 0.161372 2.840661 0.063053 -0.011524 269396.000000 0 0 1
8.719396 0.465496 -27.995551 29.325678 0.053336 2.839254 0.052805 -0.012917 -609003.000000 0 0 1
10.000996 0.022296 -27.319961 29.092966 0.002229 2.790674 0.047535 -0.019528 -402326.000000 0 0 1
10.728396 -0.918904 -28.090651 30.083675 -0.085443 2.775549 0.024544 -0.010990 -705327.000000 0 0 1
11.813596 -1.441004 -27.431161 29.901607 -0.121379 2.732245 0.023542 -0.012216 -630684.000000 0 0 1
12.333496 -2.821204 -28.001941 30.727561 -0.224874 2.717220 0.009162 -0.015691 389662.000000 0 0 1
11.386996 -3.871304 -27.819051 30.307594 -0.327717 2.733528 0.008951 -0.018081 507160.000000 0 0 1
11.950296 -5.091204 -28.345711 31.180270 -0.402744 2.711894 0.020183 -0.026285 -27851.500000 0 0 1
11.333096 -6.262004 -27.633491 30.516579 -0.504792 2.703409 0.008056 -0.031183 -161519.000000 0 0 1
11.523096 -6.146304 -26.244661 29.314519 -0.490001 2.679852 0.020784 -0.026732 -175791.000000 0 0 1
10.974596 -7.181304 -25.488471 28.664874 -0.579432 2.666364 0.028283 -0.030736 -164385.000000 0 0 1
10.826796 -6.876504 -24.008681 27.219893 -0.565856 2.650943 0.031673 -0.029025 -419203.000000 0 0 1
12.053996 -6.694704 -23.360681 27.126358 -0.506974 2.608383 0.014986 -0.024575 -543276.000000 0 0 1
11.859796 -6.651504 -21.954981 25.824764 -0.511131 2.587071 0.030905 -0.023954 -45701.100000 0 0 1
13.156496 -6.821404 -21.123081 25.803284 -0.478324 2.529800 0.037251 -0.023950 245154.000000 0 0 1
13.904096 -5.610604 -21.194081 25.961353 -0.383539 2.525894 0.023366 -0.017896 -346895.000000 0 0 1
14.888596 -5.676004 -20.189981 25.720082 -0.364223 2.473475 0.031470 -0.015381 -481380.000000 0 0 1
15.226796 -4.295604 -19.605181 25.192670 -0.274963 2.462606 0.024776 -0.009940 -236357.000000 0 0 1
15.904696 -3.471304 -20.522181 26.194832 -0.214887 2.470985 0.019681 -0.005400 35663.100000 0 0 1
16.350296 -2.314704 -19.875781 25.840602 -0.140635 2.448336 0.023864 -0.003362 -172962.000000 0 0 1
17.360696 -1.498904 -20.727681 27.079092 -0.086125 2.442536 0.019302 0.000988 -719064.000000 0 0 1
18.538796 -2.189504 -20.815481 27.960063 -0.117559 2.410540 0.043244 -0.007300 -1131840.000000 0 0 1
19.432696 -1.622404 -21.744581 29.207682 -0.083295 2.410554 0.055593 -0.006917 185223.000000 0 0 1
20.707796 -2.442804 -22.080781 30.370067 -0.117423 2.384823 0.058581 -0.012109 134389.000000 0 0 1
21.627596 -2.404104 -20.969281 30.219917 -0.110705 2.337673 0.055228 -0.010940 -250158.000000 0 0 1
22.833096 -3.048004 -21.182881 31.294649 -0.132706 2.314319 0.042906 -0.014983 92712.100000 0 0 1
23.945596 -2.274804 -21.998881 32.596274 -0.094715 2.311611 0.049068 -0.020179 -574428.000000 0 0 1
23.629896 -1.822504 -23.295981 33.232457 -0.076975 2.347596 0.063365 -0.022532 -479428.000000 0 0 1
24.567096 -1.036604 -23.949081 34.324557 -0.042170 2.343012 0.058510 -0.020896 158130.000000 0 0 1
25.848596 -1.732404 -24.564981 35.701392 -0.066921 2.329619 0.067924 -0.027604 234077.000000 0 0 1
26.733196 -2.237004 -23.565881 35.707404 -0.083484 2.291578 0.055437 -0.017692 1095960.000000 0 0 1
27.888196 -2.987604 -24.023081 36.929469 -0.106721 2.279055 0.040274 -0.011992 1766290.000000 0 0 1
28.959196 -2.254204 -24.967681 38.302762 -0.077684 2.280819 0.042622 -0.015507 -403752.000000 0 0 1
28.677196 -2.064204 -26.323471 38.981632 -0.071857 2.312139 0.070531 -0.023001 279441.000000 0 0 1
29.437196 -0.972504 -26.894511 39.884947 -0.033025 2.310816 0.067380 -0.029930 -370682.000000 0 0 1
28.998796 -0.437304 -28.302061 40.523179 -0.015079 2.343979 0.074771 -0.036051 396583.000000 0 0 1
27.625596 -0.063204 -28.298171 39.546985 -0.002288 2.368219 0.074040 -0.032195 410200.000000 0 0 1
27.322196 1.182496 -27.745661 38.957957 0.043253 2.363416 0.062818 -0.024092 1389000.000000 0 0 1
25.777696 1.564996 -28.071481 38.143766 0.060637 2.397849 0.076051 -0.029280 1654640.000000 0 0 1
24.948096 1.001796 -27.115941 36.860349 0.040134 2.397407 0.085590 -0.026274 22430.600000 0 0 1
23.582196 1.284796 -27.435481 36.200501 0.054428 2.430847 0.069598 -0.022321 364113.000000 0 0 1
22.626696 0.799696 -26.309471 34.710159 0.035328 2.431001 0.061505 -0.018307 -165840.000000 0 0 1
22.580396 1.567396 -25.149361 33.835209 0.069303 2.408771 0.070104 -0.019579 396608.000000 0 0 1
21.551696 1.170196 -24.255481 32.468035 0.054244 2.414421 0.066059 -0.014551 67803.100000 0 0 1
21.709696 1.978896 -22.930181 31.638902 0.090901 2.381463 0.060100 -0.014179 -302911.000000 0 0 1
21.261596 3.323796 -22.901081 31.425508 0.155073 2.387279 0.055354 -0.010290 347816.000000 0 0 1
21.489196 3.967396 -21.654481 30.764302 0.182567 2.351646 0.042502 -0.013148 -257930.000000 0 0 1
20.997196 5.429296 -21.551981 30.575274 0.253030 2.353054 0.044837 -0.008538 344853.000000 0 0 1
21.944496 6.453596 -21.967881 31.714312 0.286023 2.335995 0.039514 -0.005262 824125.000000 0 0 1
21.643996 7.734696 -21.379881 31.390880 0.343216 2.320041 0.033254 -0.005469 -272685.000000 0 0 1
21.924996 7.833896 -19.900381 30.628427 0.343167 2.278033 0.033773 -0.011902 -203332.000000 0 0 1
23.321096 7.782196 -19.636381 31.464639 0.322078 2.244747 0.034810 -0.013763 606402.000000 0 0 1
23.756596 8.058396 -18.308281 31.056509 0.327027 2.201255 0.038850 -0.023540 -60465.000000 0 0 1
23.481196 9.508496 -17.723681 30.917744 0.384758 2.181266 0.042736 -0.033988 156622.000000 0 0 1
22.099096 9.759196 -17.472481 29.814418 0.415855 2.196961 0.034150 -0.031050 530467.000000 0 0 1
21.797296 11.114896 -17.230081 29.925553 0.471553 2.184336 0.018976 -0.021992 -241220.000000 0 0 1
20.296696 11.360496 -16.956481 28.784353 0.510276 2.200725 0.020628 -0.024051 735145.000000 0 0 1
19.343196 11.406996 -18.040281 28.805043 0.532824 2.247580 0.022501 -0.026247 839066.000000 0 0 1
19.011096 10.103296 -18.505481 28.389279 0.488484 2.280814 0.024795 -0.014754 -603965.000000 0 0 1
18.129396 10.193996 -19.761781 28.690077 0.512231 2.330631 0.030672 -0.016400 -315766.000000 0 0 1
18.836296 10.453896 -20.929881 30.035810 0.506664 2.341766 0.038769 -0.023073 213092.000000 0 0 1
17.997396 10.349196 -22.069381 30.299665 0.521863 2.386737 0.034795 -0.017652 38606.300000 0 0 1
18.845896 10.394596 -23.374781 31.774137 0.504038 2.397428 0.046077 -0.021191 193290.000000 0 0 1
19.553996 11.626196 -23.407081 32.640751 0.536416 2.370446 0.034631 -0.017089 195943.000000 0 0 1
20.348096 11.727996 -24.578881 33.995768 0.522862 2.378929 0.046653 -0.020787 -27780.800000 0 0 1
20.737096 13.164496 -24.850581 34.941128 0.565636 2.362018 0.051524 -0.021085 -300951.000000 0 0 1
21.360396 13.474996 -26.088911 36.310787 0.562788 2.372424 0.066815 -0.028631 234892.000000 0 0 1
21.273596 14.812096 -26.476511 37.053605 0.608216 2.366771 0.079835 -0.023363 -174747.000000 0 0 1
19.982896 15.329996 -27.146331 37.030368 0.654391 2.393640 0.058116 -0.019050 10489.300000 0 0 1
18.846596 15.325896 -26.333061 35.826071 0.682733 2.396500 0.044087 -0.022409 157685.000000 0 0 1
17.632196 15.627696 -27.017171 35.847548 0.725203 2.424422 0.036534 -0.021918 849930.000000 0 0 1
16.316296 15.263796 -26.289731 34.501520 0.752083 2.437173 0.030631 -0.020621 255244.000000 0 0 1
16.090596 13.890496 -26.235191 33.765935 0.712147 2.460638 0.028116 -0.012269 213953.000000 0 0 1
14.756996 13.559296 -25.881401 32.733321 0.743126 2.482706 0.021906 -0.010668 71378.500000 0 0 1
14.696696 12.046696 -25.745691 31.999318 0.686631 2.505747 0.016374 -0.011369 522592.000000 0 0 1
13.533696 11.485796 -25.097851 30.740633 0.703728 2.526013 0.028619 -0.009277 644878.000000 0 0 1
13.565296 10.097596 -25.067181 30.238093 0.639888 2.548102 0.027382 -0.014871 828279.000000 0 0 1
12.100596 9.508396 -24.940381 29.306255 0.666009 2.588732 0.064300 -0.042531 1259110.000000 0 0 1
11.380596 9.827096 -23.750281 28.109884 0.712277 2.577190 0.075123 -0.041751 481484.000000 0 0 1
10.081496 9.226196 -23.830381 27.470826 0.741129 2.620910 0.087084 -0.044018 789811.000000 0 0 1
9.097896 9.776296 -22.729281 26.362243 0.821326 2.610375 0.082128 -0.042494 148030.000000 0 0 1
8.456396 10.977996 -23.133081 26.966024 0.914427 2.601888 0.074914 -0.044015 155406.000000 0 0 1
7.678196 11.525096 -22.063281 26.049393 0.983106 2.581072 0.070459 -0.030970 497827.000000 0 0 1
8.511996 12.411896 -21.073281 25.895799 0.969669 2.521410 0.061152 -0.033218 -70290.400000 0 0 1
9.422996 11.712896 -20.287781 25.250323 0.893319 2.503891 0.074010 -0.043278 -1050690.000000 0 0 1
10.163096 12.639596 -19.561781 25.410847 0.893580 2.449356 0.070156 -0.037360 -1187600.000000 0 0 1
11.276396 11.958596 -18.776581 24.954460 0.814751 2.422546 0.068524 -0.043255 -87856.200000 0 1 0
12.386296 11.374696 -19.466681 25.724612 0.742850 2.429098 0.058032 -0.042423 451394.000000 0 0 1
12.110496 10.495796 -20.549981 26.060076 0.714092 2.479263 0.072416 -0.043596 -1551160.000000 0 0 1
13.371996 9.918896 -21.189281 26.947734 0.638211 2.475610 0.067319 -0.047190 -248288.000000 0 0 1
14.035996 8.927696 -20.409081 26.329518 0.566511 2.457734 0.071988 -0.047765 -87030.400000 0 0 1
14.965296 8.295896 -21.242981 27.277210 0.506171 2.463517 0.057805 -0.044540 -596562.000000 0 0 1
15.587396 7.084096 -20.575181 26.767319 0.426570 2.447552 0.079610 -0.038609 -307006.000000 0 0 1
16.449996 7.299496 -19.497681 26.533838 0.417635 2.396202 0.045869 -0.032436 64331.200000 0 0 1
17.058896 6.051796 -19.136281 26.340604 0.340908 2.384002 0.038158 -0.029944 62759.900000 0 0 1
17.893296 6.180896 -17.842081 26.013715 0.332598 2.326598 0.066580 -0.027207 -600847.000000 0 0 1
19.151296 6.792796 -18.054581 27.182386 0.340848 2.297221 0.051612 -0.031743 40773.200000 0 0 1
19.873896 6.933396 -16.860681 26.968987 0.335667 2.246168 0.045979 -0.045914 -54382.100000 0 0 1
20.609796 5.683796 -16.343581 26.910627 0.269092 2.223489 0.042394 -0.043990 -982784.000000 0 0 1
21.858196 5.361196 -16.896581 28.142807 0.240524 2.214782 0.036457 -0.040591 38500.800000 0 0 1
22.350896 4.198596 -16.245981 27.948571 0.185685 2.191099 0.061267 -0.044402 261392.000000 0 0 1
23.691396 3.701496 -16.872281 29.319911 0.154985 2.183956 0.022934 -0.007971 220524.000000 0 0 1
24.194296 2.596196 -16.137481 29.197987 0.106897 2.156387 0.024181 -0.009952 -963576.000000 0 0 1
25.383296 2.248196 -16.721581 30.479130 0.088339 2.151514 0.024076 -0.011886 -1046380.000000 0 0 1
26.147996 1.077596 -16.074981 30.712927 0.041188 2.121626 0.038910 -0.023419 -271442.000000 0 0 1
25.510896 -0.153704 -16.169781 30.204159 -0.006025 2.135718 0.050680 -0.016918 -417639.000000 0 0 1
26.519296 -1.117104 -16.074881 31.030997 -0.042099 2.115339 0.041907 -0.010417 -290930.000000 0 0 1
26.071196 -2.562304 -16.288681 30.847914 -0.097966 2.127078 0.037823 -0.013920 -400423.000000 0 0 1
25.306496 -3.015204 -15.201081 29.674620 -0.118588 2.108609 0.046185 -0.012182 209821.000000 0 0 1
25.055996 -4.377804 -15.388581 29.728379 -0.172975 2.114886 0.045583 -0.007857 -1075660.000000 0 0 1
24.455996 -5.149804 -14.171781 28.730743 -0.207542 2.086632 0.041118 -0.010342 128848.000000 0 0 1
23.084096 -4.943504 -13.883781 27.387462 -0.210965 2.102427 0.043257 -0.000194 7888.000000 0 0 1
22.335196 -5.762804 -14.754881 27.382063 -0.252507 2.139870 0.049078 0.001928 385205.000000 0 0 1
20.776496 -5.636604 -14.432581 25.917822 -0.264920 2.161396 0.053837 0.001737 1152800.000000 0 0 1
20.339796 -6.415304 -13.306181 25.137977 -0.305531 2.128602 0.051896 -0.000294 438817.000000 0 0 1
20.541996 -5.868804 -12.030281 24.518241 -0.278284 2.083651 0.059342 -0.006204 -590926.000000 0 1 0
20.520796 -6.880804 -10.889981 24.228913 -0.323527 2.036960 0.080122 -0.009341 -866996.000000 0 1 0
19.318496 -7.544204 -10.724581 23.348146 -0.372305 2.048041 0.084176 -0.013903 -93991.100000 0 1 0
19.092296 -8.624104 -11.634381 23.963509 -0.424272 2.077736 0.067905 -0.017809 -595092.000000 0 1 0
17.783596 -9.424504 -11.446381 23.153773 -0.487323 2.087899 0.096333 -0.025936 720375.000000 0 1 0
16.665896 -8.497604 -11.598981 22.011309 -0.471520 2.125811 0.075138 -0.021847 1327840.000000 0 1 0
15.421696 -9.203704 -11.783281 21.479818 -0.538065 2.151455 0.070811 -0.023449 1168430.000000 0 1 0
14.252496 -8.256204 -12.242181 20.522416 -0.525046 2.209964 0.048165 -0.015680 204362.000000 0 1 0
14.393096 -7.588904 -13.530681 21.162042 -0.485217 2.264494 0.050201 -0.012153 831570.000000 0 1 0
15.351196 -6.500604 -13.426581 21.405377 -0.400565 2.248817 0.048231 -0.015402 445509.000000 0 1 0
15.262796 -5.441304 -14.557881 21.782852 -0.342461 2.302742 0.034815 -0.010196 48284.700000 0 1 0
14.099196 -4.649204 -14.400081 20.682475 -0.318522 2.340950 0.042115 -0.008617 17549.700000 0 1 0
13.877796 -3.670604 -15.441281 21.083162 -0.258574 2.392635 0.034828 -0.009934 -601557.000000 0 1 0
14.790696 -2.465004 -15.595481 21.634693 -0.165141 2.375832 0.036434 -0.015375 -31623.800000 0 1 0
15.929196 -2.847004 -16.404981 23.042745 -0.176861 2.363049 0.027753 -0.007319 1044270.000000 0 1 0
17.073396 -1.994704 -16.313281 23.698161 -0.116304 2.330046 0.044099 -0.003106 567492.000000 0 1 0
18.051496 -2.260904 -15.141881 23.669490 -0.124599 2.264932 0.045579 -0.009072 -528344.000000 0 1 0
17.626896 -2.053704 -13.796781 22.478352 -0.115987 2.231637 0.040987 -0.003446 -420443.000000 0 1 0
18.631996 -2.477404 -12.940381 22.819778 -0.132190 2.173739 0.039464 -0.000314 -516446.000000 0 1 0
18.296696 -2.663604 -11.467281 21.756893 -0.144563 2.125939 0.046260 0.000206 -381638.000000 0 1 0
18.245796 -1.437804 -10.796381 21.249428 -0.078639 2.103749 0.049285 0.001942 478908.000000 0 1 0
17.570696 -1.519104 -9.576081 20.068342 -0.086242 2.068232 0.043298 0.002111 -822850.000000 0 1 0
17.640296 -0.193104 -8.776281 19.703818 -0.010946 2.032429 0.041842 0.002512 -1000280.000000 0 1 0
18.807496 0.096696 -8.063281 20.463327 0.005141 1.975815 0.036734 0.003146 517929.000000 0 1 0
19.817896 0.807496 -8.809081 21.702556 0.040723 1.988760 0.038003 0.007323 -42895.300000 0 1 0
19.549396 2.111496 -9.533381 21.852292 0.107591 2.022239 0.036670 0.003200 -930695.000000 0 1 0
19.276196 3.215696 -8.662181 21.376291 0.165300 1.988020 0.029641 0.008895 711335.000000 0 1 0
18.856496 4.275596 -9.505881 21.545531 0.222974 2.027731 0.028129 0.004034 -148363.000000 0 1 0
18.672096 5.639496 -8.811581 21.403155 0.293316 1.995110 0.039339 0.007525 35418.800000 0 1 0
18.010896 6.649096 -9.624681 21.476436 0.353650 2.035492 0.031622 0.003610 933251.000000 0 1 0
18.363696 7.969496 -9.119281 21.997715 0.409453 1.998251 0.045597 0.006845 -194309.000000 0 1 0
-26.105744 -29.196894 5.716619 39.580908 0.841235 1.425861 0.049806 -0.010325 -338268.000000 0 0 1
-25.959514 -28.152644 6.631619 38.864458 0.825905 1.399323 0.049567 -0.005808 -1024280.000000 0 0 1
-24.693904 -27.614184 6.772819 37.659038 0.841169 1.389967 0.038076 -0.001460 -1118440.000000 0 0 1
-24.608904 -26.399704 7.765319 36.916700 0.820492 1.358866 0.035935 0.005853 -1170570.000000 0 0 1
-25.356824 -25.297654 7.471119 36.589035 0.784230 1.365160 0.055173 -0.005435 248168.000000 0 0 1
-26.770134 -25.381564 7.724719 37.689988 0.758779 1.364379 0.019114 -0.007205 767704.000000 0 0 1
-27.238234 -25.443914 9.184719 38.388452 0.751352 1.329195 0.038632 -0.002218 -585269.000000 0 0 1
-26.766474 -26.622304 9.827919 39.009989 0.782698 1.316119 0.036513 -0.002677 -291476.000000 0 0 1
-27.191284 -26.624524 11.133919 39.650919 0.774867 1.286170 0.031351 -0.003648 -126568.000000 0 0 1
-26.338644 -27.553774 12.072419 39.983471 0.807942 1.264074 0.013793 0.004753 -79276.000000 0 0 1
-25.174844 -27.025644 12.608919 39.027466 0.820839 1.241816 0.012657 0.011728 -520522.000000 0 0 1
-25.398554 -26.037884 13.635819 38.845766 0.797827 1.212131 0.018346 0.014986 66138.000000 0 0 1
-24.041104 -25.689814 14.316619 37.985614 0.818539 1.184354 0.020125 0.014231 421647.000000 0 0 1
-23.507204 -26.698494 15.112519 38.649534 0.848877 1.169063 0.022405 0.014405 533068.000000 0 0 1
-22.201104 -26.287134 15.588219 37.774264 0.869468 1.145415 0.038309 0.016231 732841.000000 0 0 1
-21.579504 -27.524584 16.242519 38.562899 0.905883 1.136033 0.037702 0.005233 -138910.000000 0 0 1
-22.261504 -28.126634 17.352219 39.846978 0.901276 1.120234 0.044844 0.001112 459814.000000 0 0 1
-21.577504 -29.354814 17.656319 40.485052 0.936927 1.119514 0.044882 0.003575 258988.000000 0 0 1
-22.449904 -30.331224 18.454819 42.006687 0.933624 1.115943 0.050421 -0.017368 293436.000000 0 0 1
-23.549204 -30.892144 17.725419 42.697542 0.919467 1.142701 0.028966 -0.004321 591982.000000 0 0 1
-24.319404 -31.760104 18.561419 44.098344 0.917309 1.136348 0.032625 -0.004184 -545723.000000 0 0 1
-25.434514 -32.407624 17.756219 44.860361 0.905373 1.163846 0.031464 -0.007259 -761788.000000 0 0 1
-24.965904 -33.052764 16.602819 44.625500 0.923890 1.189582 0.029032 -0.005858 114629.000000 0 0 1
-25.702924 -34.221314 16.231519 45.773364 0.926605 1.208303 0.020763 -0.005085 -336351.000000 0 0 1
-25.038684 33.551003 15.082719 44.498246 -0.929676 1.224995 0.017453 -0.009658 460377.000000 0 0 1
-23.802804 32.890193 15.349319 43.404376 -0.944337 1.209342 0.008743 -0.011279 947592.000000 0 0 1
-22.675004 33.637112 14.906419 43.218196 -0.977661 1.218653 0.012920 -0.011281 -102860.000000 0 0 1
-21.353504 32.856341 14.823719 41.895751 -0.994488 1.209140 0.020448 -0.010603 -159480.000000 0 0 1
-21.297604 32.034045 13.650719 40.818012 -0.984057 1.229797 0.013069 -0.004516 -602503.000000 0 0 1
-20.351004 31.061725 13.747219 39.597729 -0.990789 1.216243 0.015290 -0.003787 -743552.000000 0 0 1
-20.399704 30.179745 12.501519 38.513023 -0.976401 1.240202 0.012470 -0.006625 185117.000000 0 0 1
-19.712504 30.731155 11.400819 38.248731 -1.000455 1.268126 0.005858 0.001321 -65489.200000 0 0 1
-19.810504 29.832335 10.348119 37.276103 -0.984599 1.289494 0.017682 -0.004808 171596.000000 0 0 1
-19.300004 30.385095 8.984019 37.100630 -1.004910 1.326212 0.004175 -0.002540 -293334.000000 0 0 1
-17.912304 30.407875 8.796619 36.371280 -1.038454 1.326518 0.011301 -0.013852 -704182.000000 0 0 1
-17.581204 31.097075 7.597819 36.521962 -1.056233 1.361232 0.023199 -0.016709 -148268.000000 0 0 1
-17.087604 30.168645 6.473319 35.270912 -1.055447 1.386219 0.030833 -0.020089 93726.100000 0 0 1
-18.023004 29.213905 5.930019 34.834553 -1.018019 1.399729 0.019768 -0.010194 242690.000000 0 0 1
-18.015904 27.980965 6.670419 33.941151 -0.998748 1.372980 0.010188 -0.005699 71935.200000 0 0 1
-19.076604 27.009495 6.113519 33.627441 -0.955860 1.387978 0.018115 -0.002476 -305398.000000 0 0 1
-18.682304 26.405645 4.942119 32.721723 -0.955047 1.419181 0.031720 -0.014285 -10389.300000 0 0 1
-19.667604 25.545605 4.425019 32.541871 -0.914679 1.434394 0.033371 -0.012024 -1038640.000000 0 0 1
-19.200004 24.698555 3.252419 31.452138 -0.910005 1.467203 0.051876 -0.012610 -1523610.000000 0 0 1
-19.084004 25.439745 2.066719 31.869283 -0.927190 1.505901 0.047143 -0.017202 537082.000000 0 0 1
-17.991004 26.345925 1.882519 31.958221 -0.971656 1.511857 0.044030 -0.019472 219263.000000 0 0 1
-16.560604 25.748785 2.086419 30.685610 -0.999244 1.502750 0.055681 -0.022994 -505904.000000 0 0 1
-16.158204 24.547765 1.420719 29.422759 -0.988654 1.522491 0.077228 -0.027443 197183.000000 0 0 1
-15.969604 24.763395 0.015619 29.466154 -0.998024 1.570266 0.069831 -0.029185 -404391.000000 0 0 1
-15.676604 23.476785 -0.778781 28.240429 -0.982045 1.598377 0.069882 -0.031069 -101748.000000 0 0 1
-16.766304 22.597885 -0.991181 28.155920 -0.932473 1.606007 0.081063 -0.032311 227162.000000 0 0 1
-16.456704 21.581285 -1.938581 27.209062 -0.919315 1.642104 0.079327 -0.031174 654604.000000 0 0 1
-15.356404 20.474685 -1.702381 25.650146 -0.927283 1.637214 0.071053 -0.032813 738442.000000 0 0 1
-15.965304 19.571585 -0.808481 25.270368 -0.886532 1.602795 0.080830 -0.038323 672630.000000 0 0 1
-15.008804 18.715485 -0.174681 23.990917 -0.894870 1.578078 0.086166 -0.033153 323474.000000 0 1 0
-15.632004 17.593485 0.717419 23.545806 -0.844365 1.540323 0.073475 -0.027052 14885.700000 0 1 0
-16.237304 16.552785 0.017619 23.187174 -0.795019 1.570036 0.070469 -0.028362 637112.000000 0 1 0
-16.921004 15.577585 0.906319 23.017449 -0.744084 1.531411 0.079744 -0.041817 352615.000000 0 1 0
-17.632804 14.425785 0.105819 22.782235 -0.685694 1.566151 0.081851 -0.032400 -530843.000000 0 1 0
-18.925704 14.830485 -0.281181 24.045886 -0.664671 1.582490 0.134322 -0.040318 1948.980000 0 1 0
-19.640304 13.686385 -0.696381 23.948771 -0.608610 1.599878 0.124976 -0.027824 28356.400000 0 1 0
-20.881004 14.062685 -1.588981 25.224994 -0.592696 1.633830 0.140280 -0.014607 -841812.000000 0 0 1
-21.669604 12.984285 -2.000781 25.341005 -0.539826 1.649833 0.120530 -0.014299 675333.000000 0 0 1
-22.686704 12.546985 -1.079981 25.947634 -0.505185 1.612430 0.126429 -0.017863 533487.000000 0 0 1
-23.924804 13.525385 -1.079581 27.504505 -0.514536 1.610057 0.113583 -0.015397 -669355.000000 0 0 1
-23.585504 14.746785 -0.535581 27.821404 -0.558778 1.590048 0.108906 -0.021194 -264570.000000 0 0 1
-24.655204 15.437985 0.062619 29.089764 -0.559430 1.568644 0.086845 -0.021354 -477476.000000 0 0 1
-24.278404 16.840185 0.590919 29.553036 -0.606437 1.550800 0.082351 -0.028284 46226.800000 0 0 1
-23.627804 16.631485 1.827919 28.952042 -0.613335 1.507618 0.076943 -0.031275 122838.000000 0 0 1
-23.246804 17.725385 2.639719 29.352535 -0.651445 1.480743 0.072998 -0.031774 292259.000000 0 0 1
-24.431304 18.613385 3.117019 30.871711 -0.651052 1.469657 0.068447 -0.033527 363987.000000 0 0 1
-25.347904 18.052885 4.088319 31.386896 -0.618870 1.440170 0.065028 -0.037587 1573780.000000 0 0 1
-26.610114 18.757485 4.204919 32.827165 -0.614007 1.442351 0.044724 -0.041765 1150160.000000 0 0 1
-27.645384 18.365185 3.146019 33.338337 -0.586371 1.476289 0.050879 -0.035285 -957498.000000 0 0 1
-28.956564 18.834885 3.283319 34.698929 -0.576694 1.476031 0.044479 -0.033130 -565239.000000 0 0 1
-29.729644 18.315585 2.290119 34.993671 -0.552153 1.505306 0.048409 -0.017736 -905941.000000 0 0 1
-30.994004 19.148685 2.035319 36.488943 -0.553419 1.514988 0.051063 -0.027914 -665385.000000 0 0 1
-32.021314 18.863385 2.953619 37.281573 -0.532358 1.491489 0.078544 -0.028373 -673246.000000 0 0 1
-33.101694 19.694485 2.693219 38.611505 -0.536712 1.500988 0.074180 -0.029530 -688714.000000 0 0 1
-33.335024 20.522685 3.996719 39.349437 -0.551847 1.469051 0.062533 -0.031689 -610954.000000 0 0 1
-32.325764 21.427085 4.334919 39.023922 -0.585355 1.459483 0.054547 -0.029899 176449.000000 0 0 1
-32.649294 21.964885 5.596919 39.746171 -0.592204 1.429510 0.067087 -0.034341 -495895.000000 0 0 1
-31.672214 23.066885 5.905519 39.624304 -0.629468 1.421201 0.060287 -0.031488 -498374.000000 0 0 1
-31.908184 24.232085 5.150519 40.396213 -0.649510 1.442948 0.048010 -0.026780 398487.000000 0 0 1
-30.897154 25.154545 5.485519 40.217859 -0.683302 1.433975 0.046449 -0.025654 -137414.000000 0 0 1
-31.374894 26.608555 5.279019 41.476104 -0.703381 1.443172 0.041404 -0.017584 -441632.000000 0 0 1
-32.080354 27.107045 6.391619 42.482865 -0.701569 1.419771 0.053763 -0.011573 -35443.900000 0 0 1
-32.400734 28.469105 6.267119 43.584106 -0.720897 1.426502 0.058668 -0.005273 -176517.000000 0 0 1
-33.464044 28.965315 7.266419 44.851227 -0.713461 1.408067 0.057388 -0.000500 -400204.000000 0 0 1
-33.031164 28.923295 8.635919 44.745881 -0.719190 1.376578 0.061655 -0.009168 437244.000000 0 0 1
-33.954334 29.577725 9.490719 46.019696 -0.716619 1.363074 0.076000 -0.009656 -135379.000000 0 0 1
-35.273006 28.908385 9.860419 46.659485 -0.686555 1.357864 0.066162 -0.009245 -749502.000000 0 0 1
-35.000980 27.718265 10.470819 45.858575 -0.669800 1.340436 0.067080 -0.016666 -425038.000000 0 0 1
-36.024442 27.118405 11.179719 46.455941 -0.645277 1.327759 0.071953 -0.018267 -551526.000000 0 0 1
-35.527795 25.779975 11.767319 45.445584 -0.627720 1.308880 0.078578 -0.021619 -362347.000000 0 0 1
-34.544208 25.975285 12.719419 45.053317 -0.644744 1.284585 0.081862 -0.027434 -589003.000000 0 0 1
-34.162363 24.745505 13.322819 44.236914 -0.626882 1.264877 0.083678 -0.027676 -678408.000000 0 0 1
-32.820204 24.886265 14.003819 43.504011 -0.648767 1.243064 0.069616 -0.029036 -821388.000000 0 0 1
-32.824354 25.922915 14.982319 44.428658 -0.668457 1.226832 0.070597 -0.016587 458626.000000 0 0 1
-31.560224 26.262905 15.573819 43.912775 -0.694041 1.208253 0.095745 -0.016565 560911.000000 0 0 1
-31.684964 27.442655 16.522219 45.055743 -0.713773 1.195330 0.061929 -0.008397 -107880.000000 0 0 1
-32.089194 28.651915 15.886219 45.858702 -0.728869 1.217048 0.086770 -0.010224 47313.400000 0 0 1
-32.312614 29.656355 16.839019 46.980390 -0.742560 1.204214 0.073280 -0.014295 -61584.600000 0 0 1
-32.041874 31.058145 16.219819 47.480234 -0.769809 1.222165 0.064922 -0.009657 -1200140.000000 0 0 1
-30.707554 31.296535 16.048019 46.690105 -0.794897 1.219928 0.041310 -0.002504 -1477180.000000 0 0 1
-30.494464 32.509165 15.361919 47.146015 -0.817365 1.238899 0.048328 0.006341 -265310.000000 0 0 1
-29.027334 32.846798 14.978119 46.323237 -0.847050 1.241540 0.043336 -0.001326 372353.000000 0 0 1
-28.379544 32.068655 13.918819 45.028110 -0.846352 1.256535 0.036479 -0.001095 613988.000000 0 0 1
-28.176394 30.682845 14.146319 43.993915 -0.827956 1.243429 0.039616 -0.002737 -340196.000000 0 0 1
-29.308794 29.727995 13.660919 43.924706 -0.792499 1.254543 0.065254 -0.007107 174148.000000 0 0 1
-29.286544 29.376175 12.269319 43.257341 -0.786926 1.283213 0.077384 -0.014211 -11566.400000 0 0 1
-30.309354 28.434065 12.011919 43.260134 -0.753486 1.289431 0.065637 -0.013514 195167.000000 0 0 1
-30.383454 28.203475 10.488719 42.762174 -0.748206 1.322988 0.072025 -0.011839 -169522.000000 0 0 1
-29.499654 27.248585 9.964719 41.376450 -0.745751 1.327575 0.058670 -0.002625 -275281.000000 0 0 1
-29.455884 27.611005 8.626019 41.284681 -0.753081 1.360305 0.058413 -0.008920 228851.000000 0 0 1
-28.465644 26.791615 7.749519 39.851456 -0.755112 1.375089 0.057202 -0.006854 254398.000000 0 0 1
-28.017134 27.448425 6.559319 39.766827 -0.775145 1.405095 0.052631 -0.012299 -411881.000000 0 0 1
-27.189004 26.556935 5.879919 38.458890 -0.773638 1.417306 0.043581 -0.009466 -385265.000000 0 0 1
-26.796824 26.924145 4.437419 38.244870 -0.787768 1.454508 0.039213 -0.004039 -451452.000000 0 0 1
-25.825414 27.921935 4.438919 38.292173 -0.824385 1.454613 0.028687 0.002560 -166364.000000 0 0 1
-25.532174 28.179565 3.093019 38.151626 -0.834647 1.489635 0.023249 0.003209 -400676.000000 0 0 1
-24.539204 29.295115 2.752919 38.313899 -0.873513 1.498883 0.013944 -0.002000 -850154.000000 0 0 1
-23.230104 28.933475 2.995519 37.225755 -0.894302 1.490240 0.003088 -0.002119 -842827.000000 0 0 1
-22.330704 30.026325 2.835919 37.527097 -0.931337 1.495154 0.007285 0.002390 405876.000000 0 0 1
-20.837104 29.683505 3.018019 36.392359 -0.958746 1.487771 0.002219 -0.006821 -86072.200000 0 0 1
-19.977904 30.710955 2.646819 36.732616 -0.994060 1.498677 0.006249 -0.006435 -1256030.000000 0 0 1
-18.656104 30.312875 2.825319 35.705785 -1.019093 1.491586 0.013745 -0.014882 -814942.000000 0 0 1
-17.697704 31.388265 2.374119 36.111887 -1.057396 1.505005 0.018701 -0.015387 -482213.000000 0 0 1
-17.744304 32.489915 3.287119 37.165307 -1.070915 1.482235 0.022728 -0.019907 -106187.000000 0 0 1
-16.711104 33.323712 2.820419 37.385633 -1.105967 1.495283 0.043894 -0.023996 -126306.000000 0 0 1
-16.332204 -34.104650 3.813519 38.005408 1.124183 1.470286 0.050157 -0.021624 -241037.000000 0 0 1
-17.344204 -33.142324 3.753819 37.594232 1.088663 1.470779 0.052220 -0.025101 -2569.130000 0 0 1
-17.046804 -32.019054 4.573419 36.561312 1.081569 1.445379 0.045487 -0.024527 -233156.000000 0 0 1
-18.211204 -31.036194 4.633419 36.281702 1.040159 1.442740 0.042308 -0.016334 -362703.000000 0 0 1
-18.395504 -30.127634 3.562219 35.478984 1.022630 1.470223 0.064727 -0.021720 -248449.000000 0 0 1
-19.564204 -29.397964 3.766019 35.513114 0.983605 1.464551 0.059945 -0.025443 -579815.000000 0 0 1
-19.811704 -28.374234 2.683419 34.710251 0.961260 1.493410 0.067278 -0.033384 -190269.000000 0 0 1
-18.932804 -27.292714 2.741719 33.329572 0.964315 1.488442 0.074898 -0.025381 -350732.000000 0 0 1
-19.251004 -26.360774 1.720419 32.687175 0.940030 1.518139 0.075106 -0.017759 632533.000000 0 0 1
-18.204004 -25.169254 1.578819 31.102569 0.944627 1.520013 0.065483 -0.008291 1529130.000000 0 0 1
-16.900804 -25.650594 1.194619 30.741133 0.988200 1.531926 0.058818 -0.008728 -47298.400000 0 0 1
-16.040504 -24.580404 1.036919 29.369529 0.992615 1.535483 0.062015 -0.006188 633393.000000 0 0 1
-14.715604 -24.837904 0.210719 28.870658 1.035935 1.563498 0.067472 -0.005497 721737.000000 0 0 1
-14.850104 -24.988604 -1.203481 29.093029 1.034597 1.612175 0.054851 -0.001154 125698.000000 0 0 1
-15.042004 -23.742804 -1.885681 28.169814 1.006080 1.637786 0.059900 -0.000350 -297063.000000 0 0 1
-15.005304 -23.988604 -3.424781 28.501604 1.011825 1.691248 0.026077 0.005605 21213.800000 0 0 1
-13.710104 -24.233504 -3.935881 28.119759 1.055941 1.711226 0.039367 0.004732 3219.590000 0 0 1
-13.741704 -24.211504 -5.358181 28.350335 1.054564 1.760939 0.042534 0.007406 -161554.000000 0 0 1
-12.541704 -24.769304 -6.100781 28.425909 1.102089 1.787100 0.054066 -0.000983 -328513.000000 0 0 1
-12.649104 -26.175394 -6.174881 29.720031 1.120643 1.780089 0.032157 0.003357 -466589.000000 0 0 1
-11.556604 -26.669044 -6.876481 29.867692 1.161888 1.803112 0.048016 -0.001671 -311030.000000 0 0 1
23.284596 12.550396 28.158013 38.633645 0.494359 0.754160 0.031715 0.005532 179325.000000 0 0 1
24.168596 11.511996 28.659603 39.217597 0.444525 0.751326 0.036156 -0.004095 685669.000000 0 0 1
23.600696 10.642496 29.672543 39.379124 0.423635 0.717412 0.047073 -0.003103 -173575.000000 0 0 1
23.604096 11.133196 31.152433 40.639580 0.440723 0.697339 0.060542 -0.008982 105133.000000 0 0 1
22.530496 11.993696 31.461713 40.513101 0.489177 0.681575 0.044420 0.003373 121866.000000 0 0 1
22.761296 12.537196 32.756019 41.811657 0.503466 0.670649 0.054872 0.002071 63805.600000 0 0 1
21.721096 13.633296 33.126417 41.893105 0.560504 0.658785 0.043935 0.004105 -807608.000000 0 0 1
20.474396 13.128996 33.359753 41.284919 0.570192 0.629983 0.040797 0.015157 -1059980.000000 0 0 1
19.725996 13.875496 -34.204419 41.851960 0.613012 2.527457 0.038700 0.011838 847252.000000 0 0 1
18.512496 13.090996 -33.553271 40.495786 0.615504 2.547331 0.032175 0.013734 1225980.000000 0 0 1
17.348896 12.941196 34.129442 40.413829 0.640896 0.565167 0.028734 0.022424 595916.000000 0 0 1
16.337096 12.304196 -33.634421 39.364555 0.645511 2.595257 0.017898 0.022187 433666.000000 0 0 1
15.024496 12.028996 34.096555 39.153637 0.675122 0.513888 0.022715 0.024657 576083.000000 0 0 1
15.226596 10.860896 33.284932 38.179772 0.619586 0.511942 0.008958 0.033074 -333234.000000 0 0 1
14.007696 10.410596 32.776637 37.133597 0.639138 0.489287 0.031574 0.028757 -276468.000000 0 0 1
14.224796 9.337896 31.668383 35.950349 0.580898 0.493052 0.032704 0.027721 29989.000000 0 0 1
14.479696 8.022096 32.088283 36.106420 0.505927 0.476264 0.014174 0.025902 -16400.800000 0 0 1
15.068096 7.266596 31.046113 35.266302 0.449347 0.494231 0.013519 0.006519 -1606.530000 0 0 1
15.362196 5.821796 31.522023 35.546144 0.362246 0.480440 0.057190 -0.007405 -550348.000000 0 0 1
14.245296 5.015496 31.650763 35.069281 0.338527 0.445208 0.052963 0.005992 -666317.000000 0 0 1
14.625896 3.754596 32.182303 35.548762 0.251283 0.438710 0.062595 -0.006111 630109.000000 0 0 1
13.433296 2.790996 32.518898 35.294785 0.204853 0.399254 0.049158 -0.008719 -1086.050000 0 0 1
13.929096 1.548496 32.874684 35.737409 0.110715 0.402982 0.055827 -0.018112 154527.000000 0 0 1
12.957696 0.577796 33.324890 35.760090 0.044561 0.371175 0.051261 -0.018554 245097.000000 0 0 1
13.536596 -0.814704 33.759819 36.381707 -0.060113 0.381965 0.029106 -0.024176 -297927.000000 0 0 1
13.907296 -1.584604 32.680087 35.551539 -0.113451 0.404673 0.025596 -0.023603 -12051.500000 0 0 1
14.460496 -2.780404 33.198257 36.317501 -0.189958 0.417484 0.062807 -0.030745 -296929.000000 0 0 1
14.503096 -4.013804 32.260953 35.598027 -0.269997 0.436453 0.067799 -0.034599 -1197710.000000 0 0 1
14.887196 -5.273904 32.761709 36.369936 -0.340463 0.449209 0.075931 -0.033042 1120310.000000 0 0 1
16.269796 -5.485704 33.138499 37.322371 -0.325201 0.478038 0.065184 -0.028106 1609810.000000 0 0 1
17.415196 -5.044004 32.161223 36.919850 -0.281918 0.513340 0.069000 -0.036693 -515399.000000 0 0 1
17.596996 -3.636804 32.255283 36.922675 -0.203803 0.508265 0.078381 -0.036408 -101268.000000 0 0 1
18.738796 -3.263304 31.516953 36.811818 -0.172418 0.542997 0.103176 -0.037986 -82995.100000 0 0 1
18.862496 -1.731304 31.239493 36.533507 -0.091529 0.545069 0.109762 -0.041325 -26148.800000 0 0 1
19.352796 -0.959804 32.350103 37.709165 -0.049555 0.539658 0.090184 -0.037336 77239.900000 0 0 1
19.085796 0.422496 32.304063 37.523308 0.022133 0.533747 0.077423 -0.032838 -230922.000000 0 0 1
20.190196 1.376096 31.779993 37.676327 0.068051 0.567029 0.099330 -0.032533 -23754.200000 0 0 1
20.610496 1.103096 30.444463 36.781445 0.053470 0.595777 0.111026 -0.036502 225823.000000 0 0 1
21.528796 2.044496 29.893073 36.895323 0.094682 0.626281 0.091599 -0.030131 114169.000000 0 0 1
20.945696 3.437896 29.539483 36.374749 0.162683 0.623076 0.085469 -0.015230 -312172.000000 0 0 1
20.800496 4.244396 30.703953 37.328384 0.201289 0.604940 0.081943 -0.015322 248405.000000 0 0 1
20.119296 5.451196 30.477093 36.923635 0.264591 0.599870 0.075578 -0.009210 -194105.000000 0 0 1
19.692396 6.110296 31.830173 37.924743 0.300868 0.574805 0.071883 -0.003804 672003.000000 0 0 1
18.736796 5.313896 32.597839 37.972676 0.276351 0.538546 0.071530 0.004266 874576.000000 0 0 1
18.567496 5.782596 33.929514 39.107573 0.301916 0.520452 0.058375 0.009228 -475569.000000 0 0 1
17.577096 4.981096 -33.766311 38.391788 0.276145 2.645647 0.060821 0.004605 -438453.000000 0 0 1
17.744996 3.575496 -33.682151 38.238153 0.198831 2.648455 0.053366 -0.003149 -993782.000000 0 0 1
16.560896 3.030896 -33.281271 37.297354 0.181012 2.673261 0.053519 -0.012644 -1035180.000000 0 0 1
16.504996 1.497096 -33.533061 37.404844 0.090458 2.682579 0.059350 -0.024149 178108.000000 0 0 1
17.408296 0.757496 -32.693441 37.047046 0.043486 2.651915 0.041031 -0.019571 445222.000000 0 0 1
17.327696 -0.571104 -33.013831 37.289251 -0.032947 2.658031 0.048792 -0.024880 -344087.000000 0 0 1
18.301896 -1.436504 -32.214061 37.077873 -0.078329 2.623614 0.052526 -0.025783 -346881.000000 0 0 1
17.940496 -1.649004 -30.873831 35.745965 -0.091658 2.613364 0.049353 -0.026013 279929.000000 0 0 1
18.077296 -0.511504 -30.017721 35.044455 -0.028288 2.599365 0.040163 -0.018329 -362108.000000 0 0 1
17.660696 -0.625104 -28.570301 33.593943 -0.035380 2.587655 0.042683 -0.010263 413741.000000 0 0 1
16.295196 -1.010704 -28.368881 32.731458 -0.061945 2.619377 0.059425 -0.012419 723082.000000 0 0 1
15.853996 -1.311304 -27.023501 31.358225 -0.082523 2.609540 0.035795 -0.009158 -159672.000000 0 0 1
16.718896 -2.256204 -26.169501 31.136068 -0.134139 2.568980 0.048635 -0.007389 -648887.000000 0 0 1
17.904896 -1.659704 -25.665881 31.338113 -0.092431 2.530460 0.069963 -0.011545 58195.900000 0 0 1
18.940396 -2.579904 -25.420051 31.805243 -0.135379 2.496827 0.066272 -0.008324 23098.100000 0 0 1
19.766396 -3.115104 -26.566481 33.259468 -0.156310 2.496035 0.090433 -0.024079 -994502.000000 0 0 1
20.740396 -2.217004 -27.014951 34.130437 -0.106489 2.484090 0.104191 -0.022900 -508142.000000 0 0 1
21.216296 -2.632504 -28.285841 35.456312 -0.123448 2.494377 0.110709 -0.027012 -369466.000000 0 0 1
22.585096 -2.032804 -28.609941 36.506815 -0.089765 2.471377 0.100208 -0.032682 -383820.000000 0 0 1
23.632596 -2.895004 -28.237591 36.935649 -0.121893 2.441074 0.084558 -0.029401 -464099.000000 0 0 1
24.872996 -2.274204 -28.471671 37.874450 -0.091179 2.421490 0.065304 -0.030020 3939.860000 0 0 1
26.111096 -3.162304 -28.243171 38.593603 -0.120523 2.391770 0.057235 -0.017808 -254914.000000 0 0 1
26.384296 -4.088804 -29.264391 39.613810 -0.153748 2.401998 0.062098 -0.022306 -504451.000000 0 0 1
27.622396 -4.696704 -29.113681 40.406215 -0.168422 2.375355 0.061407 -0.015154 -543366.000000 0 0 1
27.707996 -5.931704 -28.212281 39.985634 -0.210896 2.354010 0.044471 -0.007828 -210183.000000 0 0 1
27.644096 -5.721104 -26.800671 38.925609 -0.204075 2.330229 0.039063 -0.000415 194206.000000 0 0 1
27.367796 -6.954504 -26.179271 38.506046 -0.248846 2.318388 0.013443 -0.003631 -210796.000000 0 0 1
27.309296 -6.868904 -24.640281 37.418217 -0.246411 2.289634 0.004993 -0.009036 -338571.000000 0 0 1
28.535996 -6.557604 -24.045181 37.887676 -0.225880 2.258344 -0.000650 -0.005824 -215320.000000 0 0 1
28.395896 -6.380504 -22.650781 36.879474 -0.221027 2.232148 0.006287 -0.000083 -439372.000000 0 0 1
29.676796 -5.952904 -21.937481 37.381845 -0.197964 2.197957 0.005467 0.006322 -535253.000000 0 0 1
30.193496 -4.765304 -22.430181 37.913960 -0.156534 2.203847 0.023545 -0.005135 -573307.000000 0 0 1
31.418396 -4.453904 -21.845681 38.525143 -0.140823 2.173716 0.028069 -0.004166 -351877.000000 0 0 1
32.063496 -3.216604 -22.507781 39.306673 -0.099985 2.180494 0.034056 -0.012241 -324474.000000 0 0 1
31.412796 -2.022004 -22.222281 38.531572 -0.064280 2.185516 0.018803 -0.008929 -136921.000000 0 0 1
32.069796 -0.863504 -22.744481 39.325931 -0.026919 2.187511 0.036648 -0.014525 -33689.600000 0 0 1
31.293196 0.470096 -22.710581 38.668535 0.015021 2.198533 0.036683 -0.008601 -706994.000000 0 0 1
30.202996 0.490196 -23.562381 38.309882 0.016229 2.233242 0.033317 -0.007121 -511544.000000 0 0 1
29.278096 1.460796 -23.178781 37.371068 0.049852 2.239836 0.028493 -0.004010 -1064990.000000 0 0 1
28.010596 1.445296 -23.995181 36.911395 0.051552 2.278480 0.022434 -0.005599 -942814.000000 0 0 1
27.127996 2.457596 -23.552081 36.009283 0.090346 2.283730 0.023895 -0.007514 -127145.000000 0 0 1
26.037696 2.515996 -24.444781 35.802781 0.096330 2.322333 0.056049 -0.021267 332901.000000 0 0 1
24.929296 3.579496 -24.100081 34.858234 0.142611 2.334186 0.052634 -0.012915 233888.000000 0 0 1
25.490396 4.843296 -23.938181 35.302327 0.187767 2.315958 0.038408 -0.011645 193521.000000 0 0 1
24.478396 5.823996 -23.785381 34.624487 0.233581 2.328084 0.049663 -0.011288 5431.590000 0 0 1
25.017096 7.096596 -23.085281 34.772790 0.276408 2.296804 0.054881 -0.007864 -416497.000000 0 0 1
25.721296 7.891296 -23.949481 36.019928 0.297684 2.298150 0.050366 -0.010235 -183744.000000 0 0 1
26.116296 9.144296 -23.432181 36.259428 0.336797 2.273439 0.071463 -0.015805 -174534.000000 0 0 1
26.944896 10.004796 -24.447381 37.733245 0.355528 2.275621 0.098568 -0.012573 -262183.000000 0 0 1
26.350696 10.368996 -25.671981 38.222060 0.374890 2.307235 0.102658 -0.019966 989757.000000 0 0 1
25.115496 11.128696 -25.622721 37.565407 0.417102 2.321403 0.104415 -0.025600 1065690.000000 0 0 1
24.569796 11.501496 -27.060311 38.317355 0.437816 2.354935 0.089825 -0.021472 -245517.000000 0 0 1
24.207796 10.391696 -27.887921 38.363275 0.405482 2.384656 0.075702 -0.012803 214390.000000 0 0 1
25.200796 9.461096 -28.282111 39.044465 0.359146 2.380897 0.072642 -0.020214 63208.000000 0 0 1
26.257796 9.947396 -29.298661 40.581203 0.362129 2.377450 0.075977 -0.012632 -1247370.000000 0 0 1
27.071696 11.029296 -29.029411 41.197436 0.386878 2.352714 0.075849 -0.014189 925459.000000 0 0 1
28.014896 11.397596 -30.077321 42.654247 0.386389 2.353420 0.083752 -0.007990 1326270.000000 0 0 1
29.067696 10.345396 -30.581471 43.441737 0.341927 2.351761 0.076812 -0.005138 -515974.000000 0 0 1
28.439896 9.374696 -31.395871 43.386787 0.318416 2.379840 0.077899 -0.012022 586574.000000 0 0 1
29.275796 8.231096 -31.757801 43.970229 0.274081 2.377856 0.066855 -0.004187 195180.000000 0 0 1
28.574696 7.230996 -32.713091 44.033474 0.247853 2.408210 0.067709 -0.011043 792507.000000 0 0 1
27.392496 6.710596 -32.061371 42.700263 0.240248 2.420140 0.072102 -0.010746 589150.000000 0 0 1
26.818396 5.710996 -32.875031 42.808988 0.209817 2.446426 0.068517 -0.009468 -613657.000000 0 0 1
25.505696 5.218096 -32.255581 41.451074 0.201801 2.462528 0.072457 -0.010067 -1015370.000000 0 0 1
24.468696 6.048196 -32.634491 41.234788 0.242324 2.483943 0.077198 -0.006802 -623953.000000 0 0 1
23.670796 6.419096 -31.518051 39.936185 0.264813 2.480318 0.080262 -0.007284 -1089180.000000 0 0 1
22.302096 6.912096 -31.877271 39.513554 0.300542 2.509415 0.071037 -0.010181 -1056160.000000 0 0 1
22.188896 8.084396 -32.660011 40.303608 0.349396 2.515545 0.077729 0.000362 51208.400000 0 0 1
20.807996 8.403696 -32.710061 39.667907 0.383837 2.540287 0.064574 0.004680 289382.000000 0 0 1
20.393396 9.546196 -33.721641 40.548360 0.437805 2.552851 0.057155 0.018243 93621.400000 0 0 1
19.929096 9.030096 33.519406 40.028266 0.425438 0.578299 0.061215 0.014662 150978.000000 0 0 1
19.721296 10.110496 32.587163 39.409071 0.473731 0.597233 0.042655 0.017288 -305218.000000 0 0 1
18.639296 9.790996 31.568143 37.945153 0.483673 0.588199 0.037898 0.012671 -264374.000000 0 0 1
19.027296 8.926396 30.501233 37.041109 0.438653 0.603344 0.042724 0.000387 196054.000000 0 0 1
19.946996 9.421196 29.538033 36.866475 0.441252 0.641471 0.056758 -0.001566 -83483.400000 0 0 1
19.296796 10.270896 28.393693 35.833775 0.489121 0.656108 0.044305 0.002765 96373.300000 0 0 1
18.350496 9.598496 27.593633 34.500441 0.481929 0.643826 0.045142 0.002972 224743.000000 0 0 1
17.044296 10.106996 27.801883 34.140945 0.535245 0.619228 0.054948 -0.010711 744542.000000 0 0 1
15.908596 9.240496 27.089843 32.746447 0.526219 0.596582 0.054423 -0.009417 447354.000000 0 0 1
15.812796 9.421896 25.703493 31.614652 0.537355 0.621468 0.060678 -0.003602 -204778.000000 0 0 1
14.645596 8.801296 25.243443 30.482580 0.541119 0.595039 0.064322 0.000011 -102278.000000 0 0 1
14.739896 7.263196 24.989733 29.908282 0.457837 0.581671 0.061426 0.001035 -164009.000000 0 0 1
14.839996 6.416896 26.150503 30.744932 0.408126 0.553741 0.046434 -0.002285 102463.000000 0 0 1
14.270996 5.131096 25.936833 30.045113 0.345155 0.529097 0.056666 -0.006600 -51832.800000 0 0 1
14.535896 4.257696 27.146283 31.086025 0.284939 0.508936 0.060899 -0.011879 -334319.000000 0 0 1
15.811996 3.708796 27.335543 31.796325 0.230391 0.536099 0.052843 -0.009233 -2815.930000 0 0 1
15.918396 3.398296 28.719923 33.011782 0.210325 0.515614 0.044453 -0.010908 -43463.200000 0 0 1
16.899896 2.247196 29.015123 33.653139 0.132195 0.531236 0.072633 -0.017867 -110588.000000 0 0 1
16.482596 0.935196 28.779743 33.178671 0.056678 0.520809 0.070260 -0.027895 11489.000000 0 0 1
15.570396 0.360396 29.717803 33.551676 0.023142 0.482727 0.058615 -0.022889 159713.000000 0 0 1
15.200496 -1.116904 29.427893 33.140662 -0.073346 0.477885 0.058141 -0.025032 -171296.000000 0 0 1
14.516096 -1.381304 28.177453 31.726864 -0.094871 0.477545 0.052825 -0.022303 466168.000000 0 0 1
15.304696 -1.398204 26.996193 31.064178 -0.091105 0.517526 0.068480 -0.016953 -934778.000000 0 0 1
16.499196 -2.355304 26.843173 31.596311 -0.141795 0.555633 0.078574 -0.022290 424626.000000 0 0 1
17.671096 -2.138104 27.630383 32.867571 -0.120409 0.572299 0.086634 -0.025449 617927.000000 0 0 1
18.428296 -0.961204 27.365443 33.005961 -0.052112 0.593289 0.087250 -0.029975 -318107.000000 0 0 1
19.911296 -0.982804 27.850543 34.250232 -0.049319 0.621254 0.084577 -0.028299 21489.700000 0 0 1
20.716096 -1.707504 27.000973 34.075281 -0.082238 0.656076 0.050558 -0.024789 241965.000000 0 0 1
22.085596 -1.361804 27.320263 35.157145 -0.061582 0.680767 0.048574 -0.020258 1653820.000000 0 0 1
23.199596 -2.143904 26.511923 35.294471 -0.092150 0.720973 0.036554 -0.007195 300081.000000 0 0 1
23.302296 -1.704804 25.157863 34.333969 -0.073030 0.748457 0.036020 0.010424 -168320.000000 0 0 1
22.370096 -2.297104 24.306903 33.113795 -0.102328 0.746542 0.051212 0.012584 -431929.000000 0 0 1
22.120596 -1.762804 22.911723 31.896321 -0.079523 0.769414 0.047417 -0.010002 -383167.000000 0 0 1
21.691696 -0.441704 22.904223 31.548823 -0.020360 0.758319 0.043020 -0.007543 181401.000000 0 0 1
21.445596 -0.044404 21.526423 30.385892 -0.002071 0.783518 0.028763 -0.001286 -270180.000000 0 0 1
-30.318994 -27.288094 -10.482281 42.116026 0.732833 1.822331 0.007873 0.016867 146888.000000 0 0 1
-30.151594 -26.207094 -9.544381 41.073417 0.715523 1.805314 0.010619 0.020949 -173519.000000 0 0 1
-30.566994 -26.669394 -8.254881 41.397352 0.717407 1.771548 0.023020 0.011438 -295215.000000 0 0 1
-30.895844 -25.519494 -7.322281 40.735900 0.690386 1.751529 0.037465 0.005739 289065.000000 0 0 1
-29.792534 -24.734194 -6.907681 39.333084 0.692895 1.747332 0.050146 0.006886 179444.000000 0 0 1
-28.929974 -25.305794 -5.884681 38.883879 0.718675 1.722720 0.052573 0.006877 858036.000000 0 0 1
-27.758634 -24.420194 -5.384281 37.361452 0.721505 1.715413 0.047007 0.007944 82213.600000 0 0 1
-28.043404 -23.308694 -4.529781 36.745702 0.693457 1.694384 0.062755 0.005488 399437.000000 0 0 1
-28.916744 -22.266394 -5.044081 36.843088 0.656190 1.708135 0.058514 -0.001602 546055.000000 0 0 1
-28.887864 -21.083694 -4.005181 35.987113 0.630477 1.682322 0.050474 -0.002470 37247.100000 0 0 1
-27.717454 -20.293894 -4.144281 34.601654 0.631992 1.690856 0.050290 -0.004946 204093.000000 0 0 1
-27.547654 -19.343994 -3.097481 33.803221 0.612202 1.662558 0.058287 -0.005708 96518.800000 0 0 1
-26.560684 -18.167694 -3.398781 32.358720 0.599912 1.676025 0.062125 -0.007231 149797.000000 0 0 1
-26.870984 -17.361694 -4.486681 32.304930 0.573638 1.710132 0.056733 -0.019226 -35370.800000 0 0 1
-26.053624 -16.172094 -4.533681 30.998100 0.555518 1.717580 0.051777 -0.022180 69085.000000 0 0 1
-26.329004 -15.033194 -5.541581 30.820813 0.518804 1.751579 0.057124 -0.027969 209095.000000 0 0 1
-27.590924 -14.401194 -5.346581 31.579098 0.481056 1.740923 0.049329 -0.017896 295055.000000 0 0 1
-27.698724 -13.341594 -6.221181 31.367508 0.448875 1.770452 0.069589 -0.029766 -658246.000000 0 0 1
-29.078804 -12.704294 -6.118481 32.317360 0.411900 1.761271 0.051787 -0.016535 -501818.000000 0 0 1
-30.066384 -13.578794 -6.613981 33.646929 0.424206 1.768655 0.052093 -0.017068 -60015.900000 0 0 1
-31.368734 -13.031994 -6.522481 34.588627 0.393750 1.760505 0.044801 -0.016001 141529.000000 0 0 1
-32.400414 -13.972694 -7.210081 36.014001 0.407153 1.772361 0.029136 -0.019646 -345435.000000 0 0 1
-32.794284 -15.073394 -6.436281 36.661942 0.430837 1.747268 0.028214 -0.019426 -44166.000000 0 0 1
-32.968464 -16.158494 -7.331181 37.440122 0.455712 1.767881 0.032598 -0.016764 -561857.000000 0 0 1
-34.168696 -17.088794 -6.992981 38.838492 0.463752 1.751836 0.037302 -0.020642 -440920.000000 0 0 1
-35.452356 -16.591694 -6.905481 39.747195 0.437721 1.745417 0.052260 -0.032142 -613040.000000 0 0 1
-35.729834 -15.707094 -5.836181 39.463842 0.414178 1.719228 0.049137 -0.028253 -66088.900000 0 0 1
35.261656 -15.543094 -5.460381 38.920277 -0.415171 1.711557 0.087778 -0.027511 163864.000000 0 0 1
34.503026 -14.923194 -6.518181 38.152945 -0.408222 1.742482 0.079110 -0.026674 963530.000000 0 0 1
33.081976 -14.962794 -6.417881 36.871284 -0.424760 1.745749 0.094851 -0.026226 811969.000000 0 0 1
32.440936 -14.296894 -5.145581 35.823073 -0.415098 1.714934 0.107464 -0.025385 -951071.000000 0 0 1
32.573916 -15.097694 -3.973881 36.121907 -0.434016 1.681032 0.112350 -0.029050 378195.000000 0 0 1
31.793236 -14.559694 -2.919681 35.090157 -0.429445 1.654098 0.122331 -0.033754 -846896.000000 0 0 1
31.738156 -15.399994 -1.588581 35.312802 -0.451754 1.615797 0.130402 -0.035701 226424.000000 0 0 1
32.988776 -15.673494 -0.939281 36.534915 -0.443543 1.596508 0.143056 -0.033002 1214850.000000 0 0 1
33.972686 -16.472594 -1.653281 37.791839 -0.451477 1.614557 0.113546 -0.033341 29608.200000 0 0 1
33.756606 -17.980894 -1.858581 38.291975 -0.489435 1.619352 0.117476 -0.037339 -937216.000000 0 0 1
34.033206 -18.833194 -0.734281 38.903567 -0.505432 1.589672 0.114399 -0.040573 310338.000000 0 0 1
33.919756 -20.192194 -1.069381 39.489469 -0.536951 1.597880 0.094573 -0.032180 -24972.400000 0 0 1
35.058906 -20.715494 -1.968981 40.769296 -0.533684 1.619111 0.076156 -0.030628 -401256.000000 0 0 1
35.033166 -20.154194 -3.240381 40.546447 -0.522051 1.650799 0.043646 -0.036568 232325.000000 0 0 1
36.025166 -20.580394 -4.191081 41.700484 -0.519033 1.671471 0.041467 -0.030017 153557.000000 0 0 1
36.115536 -19.742294 -5.478181 41.522291 -0.500262 1.703116 0.074355 -0.036866 -957067.000000 0 0 1
34.960756 -19.969494 -6.190381 40.735194 -0.518972 1.723354 0.056428 -0.044665 -542276.000000 0 0 1
34.889496 -19.078094 -7.268181 40.423719 -0.500394 1.751579 0.071374 -0.041968 -370165.000000 0 0 1
33.655236 -19.152994 -8.170681 39.576156 -0.517384 1.778746 0.074178 -0.047160 -218844.000000 0 0 1
33.770856 -20.265394 -9.073281 40.416350 -0.540482 1.797221 0.082341 -0.046911 -337568.000000 0 0 1
32.687176 -20.281094 -9.928181 39.728366 -0.555328 1.823375 0.070543 -0.053635 -702182.000000 0 0 1
32.701746 -21.559694 -10.723581 40.610587 -0.582873 1.838024 0.071725 -0.047822 663.167000 0 0 1
32.554046 -22.717494 -9.918281 40.917267 -0.609274 1.815634 0.056717 -0.048083 26401.100000 0 0 1
32.259256 -23.842094 -10.744781 41.527767 -0.636474 1.832511 0.051851 -0.047303 -380711.000000 0 0 1
31.779796 -25.099294 -9.991681 41.710475 -0.668483 1.812697 0.049645 -0.039221 401308.000000 0 0 1
30.412656 -24.991194 -9.619581 40.521917 -0.687855 1.810477 0.056688 -0.047211 -25110.800000 0 0 1
29.789196 -26.225894 -9.399481 40.786566 -0.721871 1.803342 0.033036 -0.042436 -1045450.000000 0 0 1
28.415256 -26.013694 -8.837481 39.525184 -0.741304 1.796294 0.036730 -0.039890 -1030540.000000 0 0 1
27.609916 -25.398094 -9.816881 38.778110 -0.743696 1.826737 0.050251 -0.042723 -880250.000000 0 0 1
26.351426 -25.054394 -9.344681 37.542555 -0.760172 1.822350 0.055159 -0.039869 -649475.000000 0 0 1
25.421426 -24.419294 -10.396081 36.750909 -0.765294 1.857591 0.093785 -0.034016 -363326.000000 0 0 1
24.759326 -25.339894 -11.239081 37.167882 -0.796986 1.877992 0.060754 -0.032806 -97853.400000 0 0 1
23.976226 -24.819994 -12.255081 36.620739 -0.802688 1.912029 0.059576 -0.023070 -379051.000000 0 0 1
23.175226 -25.976694 -12.898381 37.124762 -0.842333 1.925629 0.051387 -0.020955 -143916.000000 0 0 1
23.900526 -26.879294 -13.680481 38.482297 -0.843991 1.934246 0.050868 -0.015931 114047.000000 0 0 1
23.094726 -28.028594 -13.817881 38.857461 -0.881609 1.934357 0.052810 -0.002744 146046.000000 0 0 1
23.878626 -29.265894 -14.366181 40.411242 -0.886423 1.934245 0.039753 -0.002537 -72382.200000 0 0 1
24.159326 -29.162894 -15.749681 41.014630 -0.878961 1.964923 0.044258 -0.000469 452612.000000 0 0 1
24.331226 -30.390594 -16.414581 42.249678 -0.895679 1.969814 0.035419 0.001232 -268867.000000 0 0 1
24.409426 -30.454994 -17.953081 42.960911 -0.895146 2.001922 0.046634 0.004226 -1366300.000000 0 0 1
23.163426 -30.337394 -18.479981 42.407682 -0.918694 2.021690 0.049824 0.006719 -1182190.000000 0 0 1
23.190526 -30.406094 -19.876481 43.097628 -0.919221 2.050140 0.048599 0.009737 -818141.000000 0 0 1
21.785726 -30.297994 -20.412381 42.535298 -0.947400 2.071329 0.035909 0.011499 -751025.000000 0 0 1
21.633526 -30.316694 -21.819281 43.164713 -0.951011 2.100745 0.045390 0.005805 -5823.820000 0 0 1
20.249726 -30.196794 -22.116081 42.556067 -0.980081 2.117288 0.048317 -0.001301 445.072000 0 0 1
19.815826 -30.480794 -23.528881 43.305358 -0.994345 2.145189 0.046627 -0.002522 -454776.000000 0 0 1
20.160626 -29.405794 -24.422781 43.216013 -0.969800 2.171390 0.050744 -0.006042 418717.000000 0 0 1
20.165326 -29.755994 -25.820251 44.257710 -0.975201 2.193713 0.050882 -0.013565 -439250.000000 0 0 1
20.550326 -28.596694 -26.733441 44.212710 -0.947679 2.220129 0.050259 -0.019268 59194.700000 0 0 1
19.631526 -27.528094 -26.796501 43.142152 -0.951302 2.240969 0.040550 -0.021766 955006.000000 0 0 1
18.503926 -27.786094 -27.708061 43.384317 -0.983296 2.263559 0.058890 -0.025245 731123.000000 0 0 1
17.720426 -26.513594 -27.994591 42.434435 -0.981628 2.291234 0.050523 -0.028898 -409125.000000 0 0 1
16.990026 -26.069294 -26.863101 41.108336 -0.993209 2.282957 0.035002 -0.011498 -157822.000000 0 0 1
16.707126 -24.666594 -26.953961 40.175676 -0.975456 2.306221 0.032635 -0.004440 -422439.000000 0 0 1
15.577626 -24.220194 -26.043611 38.827180 -0.999240 2.306026 0.040721 -0.001528 -953364.000000 0 0 1
14.298726 -24.702394 -26.405831 38.883541 -1.046081 2.317333 0.057190 -0.008022 -1153540.000000 0 0 1
13.285526 -24.205594 -25.633481 37.676137 -1.068827 2.319055 0.045375 -0.007549 -743088.000000 0 0 1
13.241226 -24.298494 -24.107081 36.700112 -1.071846 2.287452 0.044145 0.002356 -932693.000000 0 0 1
14.085226 -23.383194 -23.397481 35.952879 -1.028639 2.279410 0.031987 -0.008938 113090.000000 0 0 1
14.315226 -23.925494 -22.112781 35.585531 -1.031609 2.241322 0.038430 -0.001742 220493.000000 0 0 1
15.535526 -23.314794 -21.359781 35.230277 -0.983021 2.222184 0.017586 -0.002836 227451.000000 0 0 1
15.394726 -22.014794 -20.819181 33.986572 -0.960547 2.230105 0.017335 -0.000034 933570.000000 0 0 1
16.685526 -21.513794 -20.391781 34.015803 -0.911128 2.213647 0.017289 -0.003371 616482.000000 0 0 1
16.671326 -20.108694 -19.702681 32.718318 -0.878585 2.217039 0.031367 0.003378 -306618.000000 0 0 1
15.984826 -20.015894 -18.487981 31.590444 -0.896906 2.195972 0.021268 -0.013551 -231061.000000 0 0 1
14.627826 -19.747294 -18.734081 30.901371 -0.933241 2.222138 0.021799 -0.011578 -338971.000000 0 0 1
13.721726 -19.839894 -17.459381 29.778132 -0.965715 2.197299 0.020045 -0.013911 -27707.500000 0 0 1
14.024926 -18.834794 -16.524681 28.714336 -0.930742 2.183994 0.030452 -0.016427 337227.000000 0 0 1
13.247026 -18.890994 -15.333681 27.703342 -0.959242 2.157352 0.032133 -0.021503 -94817.200000 0 0 1
13.338826 -17.536594 -14.597781 26.430127 -0.920528 2.155936 0.040295 -0.021673 -756957.000000 0 0 1
12.345426 -16.659294 -14.987381 25.584433 -0.933046 2.196664 0.057582 -0.028243 -224937.000000 0 0 1
12.638426 -15.302894 -14.619181 24.650129 -0.880470 2.205659 0.060233 -0.031845 699703.000000 0 1 0
11.292926 -14.546694 -14.309281 23.321493 -0.910661 2.231365 0.059766 -0.027982 999180.000000 0 1 0
10.438426 -14.388894 -15.462181 23.560137 -0.943193 2.286682 0.062125 -0.009370 209204.000000 0 1 0
9.295626 -13.637394 -15.111581 22.377378 -0.972507 2.312176 0.058310 -0.019630 174297.000000 0 1 0
8.446026 -13.189994 -16.339081 22.633534 -1.001245 2.377336 0.045426 -0.006112 61211.400000 0 1 0
8.854726 -12.033394 -17.095381 22.703762 -0.936415 2.423369 0.040234 0.001675 180109.000000 0 1 0
10.032026 -12.282994 -17.885681 23.904206 -0.885930 2.416176 0.050547 0.002978 398734.000000 0 1 0
10.462026 -11.041294 -18.696481 24.102335 -0.812330 2.458640 0.057882 -0.001348 38679.600000 0 1 0
9.791926 -10.982194 -19.956981 24.794586 -0.842631 2.506291 0.053722 0.001824 302632.000000 0 1 0
9.826626 -9.680394 -20.520481 24.725751 -0.777902 2.549767 0.047502 -0.010730 65013.100000 0 1 0
9.347726 -9.758894 -21.976181 25.798615 -0.806914 2.590276 0.043137 -0.011785 -26933.900000 0 0 1
10.327226 -10.396194 -22.745481 27.057150 -0.788726 2.569271 0.020288 -0.006075 -335781.000000 0 0 1
9.851726 -10.648494 -24.052481 28.088588 -0.824245 2.598874 0.029638 -0.011563 183664.000000 0 0 1
10.981826 -11.343194 -24.825181 29.420370 -0.801583 2.575139 0.048983 -0.015124 61268.900000 0 0 1
11.079626 -12.664394 -24.427481 29.662212 -0.852043 2.538388 0.042032 -0.018914 -320439.000000 0 0 1
12.139726 -13.351294 -25.039081 30.863985 -0.832892 2.517120 0.049307 -0.023961 -81446.300000 0 0 1
12.052726 -14.872794 -24.774881 31.309151 -0.889754 2.483726 0.045696 -0.019643 268384.000000 0 0 1
11.074026 -15.550994 -25.564301 31.906127 -0.951989 2.500152 0.048696 -0.023567 -73934.800000 0 0 1
10.718226 -16.736094 -24.894981 31.854941 -1.001181 2.467880 0.050217 -0.019379 -170701.000000 0 0 1
9.551626 -17.516194 -25.492161 32.371297 -1.071567 2.477527 0.060949 -0.020945 -67753.600000 0 0 1
9.831426 -18.140294 -26.703471 33.746149 -1.074142 2.483736 0.057423 -0.026836 -310010.000000 0 0 1
8.685826 -18.899694 -27.004391 34.086348 -1.140008 2.485259 0.060622 -0.029103 -241456.000000 0 0 1
8.887226 -20.004394 -28.088671 35.610841 -1.152723 2.479598 0.058107 -0.031450 -416813.000000 0 0 1
9.649826 -21.109194 -27.693271 36.133564 -1.142022 2.444036 0.051972 -0.030815 -158178.000000 0 0 1
9.666726 -21.947094 -28.813361 37.487735 -1.155908 2.447458 0.052881 -0.027988 -5586.870000 0 0 1
10.383126 -23.279094 -28.644941 38.343946 -1.151250 2.414413 0.038924 -0.017407 -47123.100000 0 0 1
10.166526 -24.095594 -29.759261 39.617793 -1.171533 2.420612 0.047755 -0.017896 24117.200000 0 0 1
10.881826 -25.315494 -29.759291 40.557413 -1.164826 2.394632 0.053296 -0.019708 66189.100000 0 0 1
10.412326 -26.366394 -28.730301 40.361287 -1.194686 2.362894 0.047761 -0.018709 17654.200000 0 0 1
11.183326 -26.312794 -27.547621 39.702662 -1.168913 2.337616 0.049128 -0.008272 -579284.000000 0 0 1
10.608026 -26.866894 -26.370251 39.112023 -1.194749 2.310709 0.032180 -0.001053 351926.000000 0 0 1
9.480226 -25.962294 -25.785971 37.799890 -1.220686 2.321523 0.027812 -0.001699 420630.000000 0 0 1
10.042926 -24.757194 -25.255921 36.764665 -1.185423 2.328096 0.034052 0.001790 -381494.000000 0 0 1
8.973826 -23.990594 -24.817781 35.665115 -1.212854 2.340407 0.034607 -0.004461 -283827.000000 0 0 1
9.331826 -22.499594 -24.688081 34.681639 -1.177635 2.362923 0.045394 -0.011185 468122.000000 0 0 1
10.041026 -22.191294 -23.454981 33.814374 -1.145885 2.337326 0.041467 -0.003534 -30705.900000 0 0 1
11.121726 -21.309194 -23.581481 33.672849 -1.089766 2.346630 0.045809 -0.006936 -379556.000000 0 0 1
11.749026 -21.063194 -22.229981 32.800454 -1.061985 2.315473 0.027663 0.003585 185945.000000 0 0 1
10.955926 -20.276694 -21.272581 31.363982 -1.075414 2.316173 0.036178 -0.000532 431462.000000 0 0 1
10.669426 -18.919694 -21.631881 30.655012 -1.057320 2.354144 0.053187 -0.006243 242409.000000 0 0 1
11.864226 -17.959294 -21.301381 30.282750 -0.986993 2.350989 0.035658 -0.003042 965251.000000 0 0 1
12.926726 -18.088294 -22.266681 31.465723 -0.950308 2.356961 0.027426 0.001191 727589.000000 0 0 1
14.079426 -17.375194 -21.796181 31.228210 -0.889796 2.343347 0.029294 0.000084 312144.000000 0 0 1
15.232626 -17.349494 -22.823581 32.464653 -0.850277 2.350444 0.028482 0.002614 -477702.000000 0 0 1
16.406926 -17.887194 -22.275981 32.944776 -0.828535 2.313336 0.028447 0.009094 -559737.000000 0 0 1
17.496826 -17.279794 -22.899781 33.602532 -0.779157 2.320593 0.036428 0.008565 -663059.000000 0 0 1
18.816926 -17.492794 -22.145781 33.919171 -0.748947 2.282201 0.034403 0.007401 -285871.000000 0 0 1
19.221026 -18.827194 -22.190881 34.876156 -0.775048 2.260458 0.028887 0.006026 -175770.000000 0 0 1
20.454326 -19.045794 -21.556681 35.296065 -0.749754 2.227790 0.019461 0.000283 69168.600000 0 0 1
20.902626 -20.561394 -21.395081 36.296559 -0.777169 2.201177 0.044630 -0.006443 166445.000000 0 0 1
20.253226 -21.286494 -20.335081 35.732667 -0.810267 2.176194 0.026017 -0.004341 239335.000000 0 0 1
20.689726 -22.593294 -20.194481 36.692489 -0.829349 2.153605 0.047610 -0.005233 -94239.300000 0 0 1
-15.821604 13.179296 29.180093 35.714070 -0.694538 0.614525 0.066528 -0.018560 -451119.000000 0 0 1
-17.063904 13.712896 28.772753 36.153723 -0.676944 0.650395 0.085015 -0.024068 168951.000000 0 0 1
-17.151304 13.585996 27.373933 35.043954 -0.669921 0.674320 0.081428 -0.019770 47163.700000 0 0 1
-18.443104 14.166396 26.769243 35.460220 -0.654993 0.715281 0.101996 -0.019200 33336.500000 0 0 1
-18.363504 15.549696 26.794493 36.013278 -0.702617 0.731734 0.096104 -0.018966 -34743.300000 0 0 1
-19.531204 16.121296 26.261603 36.483365 -0.690045 0.767248 0.104180 -0.023399 -691535.000000 0 0 1
-19.616804 17.621796 26.565273 37.430742 -0.731876 0.781698 0.111538 -0.018275 301070.000000 0 0 1
-18.683304 18.525696 25.962153 36.963504 -0.781162 0.792071 0.072089 -0.009150 -38069.200000 0 0 1
-17.352604 18.379796 26.360673 36.521430 -0.814137 0.764416 0.046817 0.010646 -965250.000000 0 0 1
-16.372704 19.410396 25.798883 36.199603 -0.870087 0.777479 0.046318 0.006309 -169988.000000 0 0 1
-16.615104 20.717196 26.102163 37.236901 -0.894840 0.794032 0.061763 0.003452 158564.000000 0 0 1
-15.691604 21.518396 25.342923 36.763182 -0.940729 0.810197 0.076751 -0.005444 457977.000000 0 0 1
-15.868204 23.020196 25.289673 37.700091 -0.967276 0.835493 0.076381 -0.000959 -48781.200000 0 0 1
-15.647504 23.654096 26.541483 38.843416 -0.986370 0.818531 0.065027 0.003194 -25259.100000 0 0 1
-15.847104 25.021796 26.482613 39.730967 -1.006228 0.841227 0.060664 0.000981 -157715.000000 0 0 1
-15.263304 25.820096 27.681323 40.815456 -1.036917 0.825476 0.042017 0.005354 863260.000000 0 0 1
-13.828104 25.828796 27.651043 40.285523 -1.079250 0.814301 0.037412 -0.002301 339989.000000 0 0 1
-13.379904 26.676996 28.662353 41.378913 -1.105908 0.805598 0.045359 -0.000930 936407.000000 0 0 1
-11.811204 26.670796 28.820193 41.005358 -1.153903 0.791415 0.060138 -0.006949 1160130.000000 0 0 1
-11.248304 27.351996 27.715233 40.531348 -1.180636 0.817842 0.059712 0.001617 -7871.690000 0 0 1
-9.836104 27.435696 27.739763 40.236312 -1.226556 0.810107 0.043535 0.003792 328256.000000 0 0 1
-9.117804 28.290196 26.657613 39.926155 -1.259012 0.839718 0.048973 -0.004141 1165420.000000 0 0 1
-7.678104 28.253796 26.701283 39.625608 -1.305450 0.831404 0.030670 -0.009274 1522970.000000 0 0 1
-6.982004 28.981496 25.670993 39.340505 -1.334389 0.859873 0.036842 -0.013624 -30184.000000 0 0 1
-5.478504 28.772596 25.548853 38.866697 -1.382642 0.853505 0.019958 -0.014254 -1200490.000000 0 0 1
-4.711104 29.485496 26.417763 39.868373 -1.412359 0.846479 0.026899 -0.012456 792472.000000 0 0 1
-3.277304 29.394296 26.272063 39.559912 -1.459760 0.844496 0.016930 -0.014229 1207240.000000 0 0 1
-2.613404 30.178696 25.157743 39.376333 -1.484414 0.877722 0.011312 -0.008557 -885165.000000 0 0 1
-2.919204 29.729896 23.824353 38.209793 -1.472919 0.897567 0.008754 -0.000295 -45403.700000 0 0 1
-2.553004 30.677796 22.854923 38.340481 -1.487768 0.932156 0.004456 -0.002812 -267848.000000 0 0 1
-2.803704 30.274196 21.407623 37.184325 -1.478449 0.957316 0.004038 -0.003243 -109100.000000 0 0 1
-4.161904 30.167896 21.064023 37.028590 -1.433704 0.965679 0.008441 -0.002499 -352333.000000 0 0 1
-4.683604 28.864396 21.222223 36.131319 -1.409936 0.942999 0.010228 -0.003789 371639.000000 0 0 1
-6.211704 28.657896 20.937823 36.031274 -1.357345 0.950715 0.025710 -0.009752 514063.000000 0 0 1
-6.499704 28.900096 19.587023 35.512155 -1.349575 0.986565 0.028228 -0.013151 -275581.000000 0 0 1
-7.503004 28.136696 18.977823 34.758114 -1.310198 0.993218 0.025844 -0.009345 -1203450.000000 0 0 1
-7.174704 26.678096 18.659223 33.337123 -1.308076 0.976757 0.022206 -0.006774 281599.000000 0 0 1
-6.151604 26.375696 17.716123 32.363260 -1.341662 0.991525 0.014541 -0.002466 262714.000000 0 0 1
-4.843004 26.771396 18.051123 32.649737 -1.391830 0.984989 0.010622 0.003602 -533391.000000 0 0 1
-3.872004 26.962196 16.856623 32.032767 -1.428163 1.016635 0.010199 -0.003221 -36046.000000 0 0 1
-3.449304 25.748096 16.330223 30.684496 -1.437626 1.009602 0.023413 -0.002589 -246461.000000 0 0 1
-2.763304 25.970396 15.136723 30.186382 -1.464793 1.045532 0.029791 -0.016362 -261429.000000 0 0 1
-2.056104 24.739496 14.525623 28.762196 -1.487877 1.041386 0.026485 -0.011002 467648.000000 0 0 1
-0.816604 24.407396 15.154623 28.741093 -1.537352 1.015399 0.029751 -0.011748 323531.000000 0 0 1
-0.414104 23.157796 14.624223 27.392022 -1.552916 1.007606 0.029705 -0.020211 -753823.000000 0 0 1
0.839596 22.645196 15.316723 27.351633 1.533737 0.976419 0.021832 -0.016066 -544745.000000 0 0 1
1.966796 23.459296 15.108023 27.972472 1.487153 1.000237 0.025730 -0.022644 -441584.000000 0 0 1
3.037596 23.006096 15.897523 28.128965 1.439521 0.970162 0.022322 -0.019607 979.062000 0 0 1
4.128596 24.141396 15.935323 29.219631 1.401418 0.993973 0.031727 -0.020624 284042.000000 0 0 1
5.417596 23.577396 16.054223 29.034153 1.344938 0.984904 0.030956 -0.020832 -126723.000000 0 0 1
6.383796 24.619896 16.085423 30.093736 1.317089 1.006868 0.029819 -0.022912 375895.000000 0 0 1
7.863696 24.182896 16.294523 30.202014 1.256405 1.000932 0.039473 -0.020005 666597.000000 0 0 1
8.587996 23.742396 15.137023 29.437807 1.223723 1.030718 0.034457 -0.001332 240877.000000 0 0 1
9.089996 24.801796 14.268723 30.022551 1.219494 1.075529 0.036222 -0.007117 -273948.000000 0 0 1
9.685696 24.230496 12.965323 29.138106 1.190521 1.109666 0.040045 0.001467 258959.000000 0 0 1
10.805896 23.386296 13.222923 28.957415 1.137958 1.096589 0.045583 -0.006944 109385.000000 0 0 1
11.002796 22.556796 12.067323 27.847636 1.116971 1.122608 0.042766 -0.002611 84070.200000 0 0 1
12.316696 21.748196 12.117123 27.776063 1.055501 1.119377 0.054270 -0.006341 8837.060000 0 0 1
12.310196 20.729396 13.020823 27.400558 1.034910 1.075602 0.044540 0.000641 -287032.000000 0 0 1
13.493896 19.975696 13.068823 27.420937 0.976692 1.074013 0.051058 0.005502 -523335.000000 0 0 1
13.982896 19.746096 14.476423 28.195682 0.954632 1.031623 0.048406 0.001051 -361485.000000 0 0 1
15.080596 18.868696 14.313523 28.077197 0.896520 1.035854 0.054992 0.001167 159786.000000 0 0 1
15.496596 18.414096 15.601323 28.681435 0.871222 0.995657 0.040862 -0.001298 408026.000000 0 0 1
16.441096 17.164396 15.658123 28.462307 0.806918 0.988270 0.025285 -0.001683 183998.000000 0 0 1
17.010496 16.957896 16.931223 29.386962 0.783850 0.956789 0.040025 -0.008840 387422.000000 0 0 1
18.144696 16.095096 16.720123 29.459203 0.725609 0.967246 0.026917 -0.003676 422413.000000 0 0 1
18.517596 15.551096 18.146223 30.232819 0.698543 0.927025 0.041931 -0.001708 -192103.000000 0 0 1
19.182396 16.459396 18.994923 31.617766 0.709147 0.926336 0.047436 -0.001154 650040.000000 0 0 1
18.394296 17.592096 19.409623 32.008834 0.763110 0.919292 0.037944 0.005087 14335.600000 0 0 1
19.150596 18.394896 20.448923 33.515310 0.765273 0.914563 0.031274 0.001354 -33408.800000 0 0 1
18.268496 19.337496 21.100523 33.954510 0.813817 0.900223 0.046833 -0.000820 322302.000000 0 0 1
18.922596 20.345296 21.867023 35.357636 0.821613 0.904024 0.037305 0.004384 -431459.000000 0 0 1
18.096896 21.439296 22.515923 35.973710 0.869738 0.894512 0.056030 -0.001918 -378944.000000 0 0 1
17.257496 21.028096 23.572383 35.995267 0.883568 0.856780 0.051264 -0.007731 13930.400000 0 0 1
16.623196 22.127196 24.144343 36.727275 0.926492 0.853439 0.047108 -0.019654 -144335.000000 0 0 1
15.897096 21.722396 25.491603 37.072928 0.939026 0.812608 0.060463 -0.018846 40263.600000 0 0 1
14.802096 20.833596 25.347983 35.995291 0.953064 0.789497 0.059827 -0.023380 -116633.000000 0 0 1
14.197796 20.558796 26.589033 36.485863 0.966411 0.754303 0.058161 -0.025180 462483.000000 0 0 1
12.958596 19.598596 26.542303 35.447483 0.986588 0.724579 0.085408 -0.020023 351194.000000 0 0 1
13.183796 18.196796 26.537403 34.773116 0.943808 0.702609 0.074591 -0.019190 -198955.000000 0 0 1
13.657096 17.642396 25.319653 33.746929 0.912045 0.722311 0.082223 -0.021714 -111931.000000 0 0 1
12.749096 17.648096 24.043193 32.435627 0.945190 0.735853 0.085496 -0.015982 -462320.000000 0 0 1
12.684396 18.820196 23.255323 32.494672 0.977749 0.773220 0.085505 -0.014824 204520.000000 0 0 1
13.849296 19.225496 22.532323 32.697527 0.946536 0.810531 0.074462 -0.014290 356647.000000 0 0 1
14.508896 18.269796 21.509423 31.732456 0.899635 0.825980 0.083132 -0.013451 -457119.000000 0 0 1
13.670596 17.951196 20.423023 30.434035 0.919949 0.835161 0.080119 -0.010980 -123533.000000 0 0 1
14.214796 16.995396 19.547923 29.547000 0.874256 0.847863 0.069116 -0.009340 67004.100000 0 0 1
13.157496 16.291796 18.644323 28.038422 0.891429 0.843361 0.054115 -0.000631 97231.800000 0 0 1
12.610896 17.157296 17.718423 27.701083 0.936954 0.876780 0.057773 0.000159 536275.000000 0 0 1
11.570696 16.492196 16.953323 26.330376 0.959007 0.871252 0.042332 0.002190 773896.000000 0 0 1
11.054396 17.201696 15.702323 25.781019 0.999617 0.915915 0.038514 0.013146 210315.000000 0 0 1
10.287896 18.386896 15.951723 26.426808 1.060671 0.922764 0.038906 -0.001535 232462.000000 0 0 1
9.919196 18.852196 14.658423 25.858559 1.086444 0.968096 0.033072 0.009676 -446552.000000 0 0 1
8.874596 19.957796 14.799423 26.383612 1.152385 0.975285 0.037167 0.004768 -519757.000000 0 0 1
7.565896 19.459296 14.928823 25.666646 1.199977 0.950049 0.026315 -0.004454 -826715.000000 0 0 1
6.661896 20.511696 14.931323 26.230801 1.256759 0.965229 0.023736 -0.008398 -916440.000000 0 0 1
5.398996 20.156396 15.688923 26.106929 1.309085 0.926109 0.021639 -0.012666 -1118100.000000 0 0 1
4.524796 19.434796 14.867123 24.884059 1.342052 0.930472 0.026779 -0.015389 -297832.000000 0 1 0
3.386796 19.153896 15.684623 24.986987 1.395785 0.892186 0.025000 -0.016799 -646525.000000 0 1 0
2.250496 18.485096 15.024423 23.926905 1.449646 0.891906 0.016337 -0.017707 -698128.000000 0 1 0
1.390596 19.370096 14.324323 24.131320 1.499128 0.935273 0.021558 -0.012942 881272.000000 0 1 0
0.269896 18.715496 13.681923 23.184858 1.556376 0.939585 0.021226 -0.017267 520826.000000 0 1 0
-0.523104 19.485796 12.648623 23.236986 -1.543957 0.995204 0.027285 -0.027080 -589692.000000 0 1 0
-1.505204 20.253596 13.264123 24.257179 -1.496615 0.992244 0.026015 -0.021600 -512976.000000 0 1 0
-2.481504 20.556096 12.285823 24.075971 -1.450659 1.035270 0.022535 -0.014647 108086.000000 0 1 0
-3.709304 21.367696 12.727723 25.146218 -1.398915 1.040083 0.022662 -0.007820 338388.000000 0 0 1
-4.543804 20.668096 13.667123 25.191399 -1.354393 0.997349 0.027818 -0.012877 -176403.000000 0 0 1
-5.549904 21.523596 14.102923 26.324115 -1.318441 1.005411 0.022202 -0.003582 -466769.000000 0 0 1
-6.474604 21.001296 15.220723 26.732851 -1.271747 0.965064 0.028487 -0.006813 -351371.000000 0 0 1
-7.448504 19.981796 14.986523 26.064310 -1.213987 0.958214 0.028943 -0.006033 409407.000000 0 0 1
-8.152004 19.632396 16.174423 26.711385 -1.177228 0.920370 0.022286 0.008745 480242.000000 0 0 1
-9.263904 20.634896 16.667023 28.096414 -1.148821 0.935758 0.020516 0.009637 643997.000000 0 0 1
-10.428604 20.714296 15.831723 28.079909 -1.104393 0.971805 0.022852 -0.002691 1621310.000000 0 0 1
-11.540704 19.893496 16.334623 28.209199 -1.045119 0.953230 0.017732 -0.001953 476165.000000 0 0 1
-12.755304 19.802196 15.436123 28.162007 -0.998555 0.990683 0.016546 -0.010989 -432488.000000 0 0 1
-13.530904 20.994696 15.366623 29.325684 -0.998303 1.019257 0.006435 -0.006718 5634.030000 0 0 1
-14.391104 20.909296 14.262323 29.115569 -0.967991 1.058876 0.008403 -0.015613 -608464.000000 0 0 1
-15.422104 22.030296 14.132023 30.379093 -0.960043 1.086948 0.024045 -0.020616 310366.000000 0 0 1
-16.576704 21.748196 14.939323 31.160143 -0.919526 1.070783 0.037424 -0.023515 949037.000000 0 0 1
-17.599004 22.762696 14.739223 32.328160 -0.912642 1.097385 0.038187 -0.023797 501292.000000 0 0 1
-18.836104 22.587496 15.635223 33.308467 -0.875713 1.082177 0.049126 -0.018616 -414589.000000 0 0 1
-19.637704 21.446196 15.218123 32.820268 -0.829389 1.088651 0.042725 -0.018088 273076.000000 0 0 1
-20.732304 21.175096 16.048823 33.701303 -0.795964 1.074459 0.057652 -0.013970 -164986.000000 0 0 1
-21.927704 22.141696 16.064023 35.058975 -0.790254 1.094827 0.059164 -0.019867 -1072660.000000 0 0 1
-22.648104 22.104996 14.855223 34.960622 -0.773263 1.131931 0.069825 -0.024026 -236496.000000 0 0 1
-23.387404 23.282096 14.722123 36.135406 -0.783142 1.151174 0.082385 -0.033364 -288705.000000 0 0 1
-22.697104 24.482196 13.941023 36.178565 -0.823216 1.175221 0.067300 -0.021791 -292949.000000 0 0 1
-21.491704 24.843196 14.541723 35.924079 -0.857604 1.154047 0.040376 -0.020229 -396877.000000 0 0 1
-20.980204 25.951996 13.801823 36.113230 -0.890940 1.178640 0.023849 -0.005155 -25984.000000 0 0 1
-19.651604 26.540496 14.344923 36.005003 -0.933443 1.161009 0.022518 -0.003829 583362.000000 0 0 1
-18.499104 25.923096 13.782023 34.701122 -0.950991 1.162372 0.028026 -0.000051 398623.000000 0 0 1
-17.431204 26.818596 13.515223 34.723842 -0.994444 1.171011 0.018954 -0.008764 374294.000000 0 0 1
-16.288204 26.121296 12.713823 33.305690 -1.013233 1.179128 0.023382 -0.015140 326576.000000 0 0 1
-15.030104 26.768096 12.770723 33.249456 -1.059172 1.176576 0.021203 -0.010482 439553.000000 0 0 1
-14.105704 26.162596 11.865823 32.003907 -1.076317 1.190967 0.020890 -0.005336 877008.000000 0 0 1
-12.667704 26.785296 11.870923 31.919298 -1.129034 1.189737 0.012609 0.001882 257706.000000 0 0 1
-11.713504 26.050396 11.101723 30.644372 -1.148235 1.200088 0.010634 0.002038 1061680.000000 0 0 1
-10.350504 26.268296 11.480923 30.478974 -1.195447 1.184583 0.020799 0.001372 666147.000000 0 0 1
-9.733104 27.546996 10.895623 31.181483 -1.231160 1.213838 0.026596 -0.004639 -383218.000000 0 0 1
-8.470104 28.001696 11.363023 31.384007 -1.277061 1.200315 0.034182 -0.006932 452792.000000 0 0 1
-8.083004 29.220096 10.775823 32.175570 -1.300920 1.229290 0.036677 -0.009954 556712.000000 0 0 1
-6.741404 29.803996 11.344823 32.594934 -1.348348 1.215301 0.028703 -0.011218 565715.000000 0 0 1
-5.592304 29.116496 10.959723 31.609488 -1.381041 1.216722 0.041565 -0.010226 -148403.000000 0 0 1
-4.390604 29.530396 11.596923 32.028273 -1.423197 1.200294 0.046062 -0.017681 504499.000000 0 0 1
-3.134604 29.194596 10.763723 31.273118 -1.463837 1.219426 0.052879 -0.019572 -132251.000000 0 0 1
-3.036004 30.003496 9.624123 31.655186 -1.469951 1.261876 0.069098 -0.027011 -710864.000000 0 0 1
-1.911904 29.725296 8.885223 31.083690 -1.506566 1.280905 0.054591 -0.030473 -633085.000000 0 0 1
-1.899204 30.535496 7.575323 31.518391 -1.508680 1.328074 0.050652 -0.034078 110852.000000 0 0 1
-2.803804 30.168396 6.547723 30.997840 -1.478124 1.357962 0.064002 -0.032939 49677.700000 0 0 1
-2.566404 30.944696 5.421423 31.520667 -1.488051 1.397941 0.055546 -0.031582 112769.000000 0 0 1
10.680996 33.972396 -26.549791 44.419576 1.266179 2.211431 0.068679 -0.027412 -301825.000000 0 0 1
11.671096 34.040996 -25.570501 44.145831 1.240502 2.188578 0.049007 -0.027420 459180.000000 0 0 1
12.563196 -33.383194 -25.743231 43.988470 -1.210858 2.195956 0.048581 -0.023079 551876.000000 0 0 1
13.465096 -33.108594 -24.495481 43.330317 -1.184532 2.171617 0.045833 -0.010569 -166563.000000 0 0 1
12.853896 -32.381594 -23.377281 41.955781 -1.192921 2.161793 0.046940 -0.005748 637544.000000 0 0 1
13.494096 -32.397294 -22.059681 41.452440 -1.176131 2.131956 0.040907 -0.007702 1131280.000000 0 0 1
15.026696 -32.053894 -21.890981 41.622935 -1.132423 2.124611 0.030382 -0.001326 1427380.000000 0 0 1
15.967896 -33.073694 -22.238381 42.934701 -1.121005 2.115259 0.041195 -0.009699 131292.000000 0 0 1
17.291096 -32.723294 -21.940881 43.025553 -1.084685 2.105923 0.029634 -0.012544 -720754.000000 0 0 1
18.225796 -33.917794 -21.919981 44.306681 -1.077715 2.088324 0.023496 -0.007912 -990654.000000 0 0 1
19.478796 -33.592894 -21.401281 44.338706 -1.045326 2.074505 0.029832 0.002205 -216068.000000 0 0 1
20.282196 33.782996 -21.395781 44.837905 1.030107 2.068240 0.023348 0.004205 1057560.000000 0 0 1
21.823596 33.961296 -21.099681 45.550362 0.999639 2.052417 0.046652 0.008213 623670.000000 0 0 1
22.541196 -34.079094 -22.164581 46.483963 -0.986423 2.067832 0.046008 0.005311 -109898.000000 0 0 1
23.914896 -34.181594 -21.809981 47.074185 -0.960310 2.052524 0.044639 0.011995 275672.000000 0 0 1
24.864496 -33.629694 -22.903881 47.684245 -0.934139 2.071820 0.061158 0.004089 -8261.860000 0 0 1
24.872396 -32.222294 -23.119281 46.812535 -0.913426 2.087330 0.062050 -0.000398 174992.000000 0 0 1
23.852296 -31.792894 -24.029781 46.445134 -0.927142 2.114583 0.048471 -0.004301 266941.000000 0 0 1
23.697096 -30.273794 -23.989981 45.316378 -0.906657 2.128676 0.043940 -0.015242 82160.700000 0 0 1
24.791696 -29.532694 -24.535881 45.703585 -0.872450 2.137493 0.054935 -0.014530 236765.000000 0 0 1
24.482196 -28.164094 -24.450881 44.614344 -0.855221 2.150827 0.057795 -0.011653 219536.000000 0 0 1
25.120796 -27.311094 -25.514651 45.032740 -0.827148 2.173146 0.051496 -0.011097 -241587.000000 0 0 1
24.226196 -27.101894 -26.583781 45.034638 -0.841365 2.202222 0.049102 -0.015758 -528194.000000 0 0 1
24.715896 -26.405494 -27.670631 45.538878 -0.818437 2.223865 0.037185 -0.014219 -299043.000000 0 0 1
23.595696 -26.175394 -28.714981 45.458313 -0.837183 2.254511 0.040856 -0.015472 525393.000000 0 0 1
22.767696 -25.056094 -28.527041 44.271525 -0.833212 2.270990 0.053252 -0.014951 372530.000000 0 0 1
21.623496 -25.230494 -27.664621 43.237538 -0.862230 2.265072 0.035312 -0.014233 179736.000000 0 0 1
20.893896 -23.903994 -27.545211 42.032065 -0.852490 2.285426 0.033446 -0.010377 -240083.000000 0 0 1
20.492396 -23.363494 -28.802171 42.371644 -0.850772 2.318220 0.037965 -0.014363 77587.000000 0 0 1
20.237196 -21.996794 -28.677911 41.422525 -0.827037 2.335505 0.031798 0.000066 -347708.000000 0 0 1
19.154196 -21.571894 -29.691081 41.397948 -0.844693 2.370589 0.036430 -0.006302 -30365.100000 0 0 1
17.905096 -22.161294 -29.409211 40.946515 -0.891230 2.372058 0.042301 -0.011987 -529862.000000 0 0 1
16.865496 -21.641394 -30.183381 40.790089 -0.908795 2.403820 0.037345 -0.017662 -25576.300000 0 0 1
15.640496 -22.580394 -29.923251 40.618964 -0.965015 2.398947 0.044187 -0.017789 -164583.000000 0 0 1
15.781396 -23.864294 -30.547661 41.853513 -0.986520 2.388929 0.039800 -0.013288 -388470.000000 0 0 1
14.827796 -24.821494 -30.247841 41.843781 -1.032308 2.378751 0.047666 -0.022951 -538588.000000 0 0 1
15.134996 -26.171694 -30.914591 43.240462 -1.046488 2.367343 0.061791 -0.017675 46941.200000 0 0 1
14.214696 -27.161694 -30.487451 43.235401 -1.088655 2.353431 0.058796 -0.017187 84177.500000 0 0 1
14.593696 -28.489694 -30.831861 44.443698 -1.097401 2.337449 0.099094 -0.025518 449237.000000 0 0 1
13.832496 -29.596794 -29.978461 44.339782 -1.133596 2.313263 0.094200 -0.035373 110254.000000 0 0 1
14.278096 -29.713894 -28.622001 43.657742 -1.122854 2.285773 0.101439 -0.035893 16260.500000 0 0 1
13.789996 -28.691994 -27.769891 42.244069 -1.122771 2.288117 0.088005 -0.023581 187264.000000 0 0 1
14.796996 -28.366794 -26.605021 41.610734 -1.089994 2.264486 0.071111 -0.015876 65783.300000 0 0 1
14.980196 -29.433294 -25.701681 41.848554 -1.100011 2.232117 0.061638 -0.015521 -6839.060000 0 0 1
15.887896 -29.204894 -24.644481 41.384798 -1.072560 2.208679 0.064330 -0.018078 -765977.000000 0 0 1
15.531596 -28.061294 -23.671081 39.862097 -1.065279 2.206600 0.050319 -0.010937 963867.000000 0 0 1
14.416496 -28.262594 -22.764481 39.049087 -1.099109 2.193177 0.049428 -0.008303 1201220.000000 0 0 1
13.132596 -28.325394 -23.395081 39.014393 -1.136663 2.213863 0.049510 -0.003606 -140517.000000 0 0 1
11.958096 -28.071494 -22.435181 37.872710 -1.168090 2.204811 0.026637 0.004299 -5606.370000 0 0 1
11.846396 -26.712694 -22.023181 36.591332 -1.153382 2.216635 0.021636 0.006334 49913.800000 0 0 1
10.625296 -26.480294 -21.350781 35.636480 -1.189210 2.213207 0.032764 0.005087 105142.000000 0 0 1
10.333296 -24.977794 -21.099081 34.290500 -1.178536 2.233568 0.034484 -0.000476 -18567.200000 0 0 1
10.952496 -24.476994 -19.934081 33.413291 -1.150056 2.210043 0.040155 -0.006616 -205671.000000 0 0 1
10.437096 -23.230694 -19.609881 32.142581 -1.148541 2.226971 0.052974 -0.008228 -324125.000000 0 0 1
11.012696 -22.481494 -18.378781 31.056024 -1.115297 2.204079 0.042238 -0.017842 -44687.700000 0 0 1
10.476496 -22.911394 -17.127281 30.463629 -1.141920 2.167865 0.066048 -0.018571 213641.000000 0 0 1
10.720596 -21.929394 -16.203881 29.298383 -1.116093 2.156834 0.059880 -0.023103 -281490.000000 0 0 1
10.003796 -22.265394 -14.917481 28.606904 -1.148526 2.119363 0.064981 -0.023637 -211510.000000 0 0 1
10.664896 -23.323494 -14.350681 29.388219 -1.141922 2.080953 0.072508 -0.022583 -344689.000000 0 0 1
10.040396 -23.718894 -13.173381 28.929802 -1.170360 2.043569 0.084089 -0.023690 -165801.000000 0 0 1
9.964296 -25.313394 -13.160781 30.220213 -1.195787 2.021385 0.084737 -0.016577 -316033.000000 0 0 1
11.212396 -25.880594 -12.908281 31.018489 -1.161971 2.000001 0.058119 -0.020370 -710744.000000 0 0 1
11.318296 -27.295294 -12.940281 32.258143 -1.177715 1.983566 0.062842 -0.017628 150459.000000 0 0 1
12.718996 -27.753894 -12.431081 32.963362 -1.141080 1.957479 0.042312 -0.013329 462138.000000 0 0 1
13.869796 -27.407694 -13.177981 33.424723 -1.102317 1.976057 0.038635 -0.010424 53905.800000 0 0 1
14.107696 -27.929294 -14.490181 34.482429 -1.103060 2.004483 0.038913 -0.010868 -51300.000000 0 0 1
15.406396 -27.257194 -15.072481 34.748976 -1.056341 2.019450 0.025670 0.000121 895126.000000 0 0 1
16.573696 -27.858294 -14.550281 35.531431 -1.034114 1.992707 0.029606 0.010287 -31742.700000 0 0 1
17.754596 -27.577094 -15.260281 36.174549 -0.998780 2.006283 0.037962 0.011716 533693.000000 0 0 1
19.013896 -28.427194 -14.990381 37.340931 -0.981275 1.983892 0.043379 0.010475 360748.000000 0 0 1
18.883996 -29.729294 -15.493981 38.477262 -1.004897 1.985238 0.036035 0.014598 -542157.000000 0 0 1
20.115696 -30.373794 -15.541081 39.607244 -0.985843 1.974014 0.038055 0.014831 -387970.000000 0 0 1
20.283796 -31.336894 -16.765581 40.920875 -0.996334 1.992929 0.030521 0.009954 -3453.290000 0 0 1
19.774796 -32.643994 -16.589381 41.615868 -1.026144 1.980820 0.027178 0.013885 -111649.000000 0 0 1
20.030496 -33.498994 -17.642081 42.832772 -1.031891 1.995316 0.026535 0.007618 53101.700000 0 0 1
19.770896 33.583496 -17.244481 42.615861 1.038721 1.987392 0.016503 0.008519 349897.000000 0 0 1
20.785296 33.092096 -16.348681 42.360296 1.009968 1.967027 0.039062 0.006788 542213.000000 0 0 1
20.549796 31.761196 -15.919881 41.042786 0.996526 1.969132 0.036106 -0.001933 -471261.000000 0 0 1
21.558496 31.249096 -14.849081 40.764812 0.966887 1.943637 0.047006 -0.005689 -1273550.000000 0 0 1
22.772996 30.873196 -15.408581 41.342326 0.935259 1.952721 0.046855 -0.000823 -675197.000000 0 0 1
23.753796 30.609696 -14.438981 41.348282 0.910848 1.927518 0.042970 -0.001591 -85153.000000 0 0 1
23.473596 29.407296 -13.492481 39.973063 0.897140 1.915098 0.051097 -0.005787 -1608110.000000 0 0 1
23.726096 28.150896 -14.106981 39.425974 0.870486 1.936717 0.054583 -0.005954 218561.000000 0 0 1
23.307896 27.028796 -13.306681 38.090439 0.859184 1.927668 0.030595 -0.007942 1128560.000000 0 0 1
21.774796 26.901496 -12.924581 36.944242 0.890334 1.928197 0.043257 -0.012227 -290150.000000 0 0 1
21.029696 26.511896 -14.044781 36.638567 0.900205 1.964199 0.050678 -0.015616 -622543.000000 0 0 1
19.651196 26.569496 -13.813481 35.817870 0.933975 1.966718 0.050944 -0.015279 -516289.000000 0 0 1
18.971296 27.982296 -13.769781 36.503778 0.975006 1.957584 0.037045 -0.010501 -716655.000000 0 0 1
19.043896 28.690396 -15.001981 37.561525 0.984800 1.981656 0.036016 -0.009496 44993.500000 0 0 1
18.234996 28.175596 -16.054381 37.203796 0.996398 2.016979 0.023132 -0.001562 -159497.000000 0 0 1
18.439896 28.785996 -17.482881 38.396802 1.001068 2.043529 0.017582 0.000067 -224298.000000 0 0 1
17.745096 29.989896 -17.538381 39.011243 1.036500 2.037083 0.015152 -0.000314 -11863.100000 0 0 1
18.009296 30.718896 -18.730581 40.234561 1.040540 2.055035 0.010124 0.007021 390940.000000 0 0 1
16.833296 31.678796 -19.163081 40.670992 1.082365 2.061417 0.005142 0.003304 557617.000000 0 0 1
16.866196 32.939296 -18.481981 41.364833 1.097564 2.033986 0.008991 0.008664 -147325.000000 0 0 1
15.799496 33.773696 -18.851281 41.781065 1.133235 2.038897 0.012943 0.010105 -191495.000000 0 0 1
15.888496 -33.484394 -18.102781 41.247541 -1.127752 2.025150 0.014049 0.008754 -1178150.000000 0 0 1
14.918596 -32.618094 -18.413881 40.318427 -1.141829 2.045091 0.007385 0.011482 -1197560.000000 0 0 1
14.805896 -31.585594 -17.435981 38.998432 -1.132456 2.034311 0.012136 0.005420 373078.000000 0 0 1
13.670896 -30.553894 -17.786681 37.905143 -1.150077 2.059228 0.022884 0.010578 259536.000000 0 0 1
12.365996 -31.041394 -17.555281 37.744852 -1.191695 2.054548 0.030658 0.010545 -434152.000000 0 0 1
11.476596 -29.957694 -17.590181 36.586748 -1.204949 2.072340 0.022623 0.010737 -24423.900000 0 0 1
10.036196 -30.400794 -17.920081 36.688729 -1.251932 2.081092 0.051583 0.008777 -619584.000000 0 0 1
9.280496 -31.085594 -16.920481 36.588857 -1.280674 2.051552 0.057604 0.004456 -123156.000000 0 0 1
8.310596 -31.995794 -17.303981 37.312526 -1.316672 2.053029 0.077134 0.002466 47628.300000 0 0 1
7.063096 -31.496694 -18.091281 37.003020 -1.350197 2.081640 0.076080 0.012036 -349728.000000 0 0 1
7.253496 -30.863494 -19.379081 37.158004 -1.339967 2.119442 0.054269 0.016400 -198814.000000 0 0 1
7.038496 -31.836894 -20.410881 38.467289 -1.353216 2.130109 0.053707 0.005665 -879884.000000 0 0 1
7.302896 -31.208694 -21.791981 38.758293 -1.340930 2.167904 0.048068 0.006393 681061.000000 0 0 1
8.690296 -30.977994 -22.096281 39.030795 -1.297295 2.172593 0.043162 0.003098 1278470.000000 0 0 1
9.557296 -32.136894 -22.207181 40.215429 -1.281733 2.155804 0.037343 0.005837 -267808.000000 0 0 1
9.229296 -33.201494 -23.244781 41.567282 -1.299663 2.164227 0.044073 -0.014521 75732.800000 0 0 1
8.045496 -33.953894 -22.931781 41.754802 -1.338134 2.152204 0.041706 -0.016084 231104.000000 0 0 1
7.996096 33.419396 -23.613281 41.693891 1.335946 2.172865 0.038014 -0.022547 -96822.300000 0 0 1
6.762496 32.547496 -23.198981 40.537187 1.365938 2.180091 0.052896 -0.034574 1537940.000000 0 0 1
5.481596 33.108896 -23.584781 41.018151 1.406722 2.183381 0.070382 -0.036049 1000600.000000 0 0 1
4.959396 34.090696 -22.689981 41.250532 1.426333 2.153224 0.053949 -0.027015 -458581.000000 0 0 1
3.547696 -33.983994 -23.099481 41.244200 -1.466780 2.165262 0.055085 -0.026956 170522.000000 0 0 1
2.504696 33.626396 -22.867481 40.742234 1.496448 2.166718 0.060277 -0.035123 441082.000000 0 0 1
1.317196 34.251996 -23.373681 41.488109 1.532359 2.169271 0.059458 -0.033705 371021.000000 0 0 1
0.018396 33.578696 -22.856781 40.619719 1.570248 2.168447 0.058913 -0.040241 -43968.900000 0 0 1
-0.215304 33.813796 -21.475281 40.057544 -1.564429 2.136619 0.051138 -0.033929 44649.700000 0 0 1
-1.423904 33.264796 -20.969581 39.348411 -1.528017 2.132845 0.042675 -0.035910 383555.000000 0 0 1
-1.501704 33.425796 -19.386781 38.670224 -1.525900 2.095939 0.049696 -0.030201 206291.000000 0 0 1
-0.642504 32.568796 -18.638981 37.530666 -1.551071 2.090512 0.059656 -0.037928 -188878.000000 0 0 1
-1.048004 32.519696 -17.270981 36.836336 -1.538581 2.058793 0.047578 -0.032100 -198593.000000 0 0 1
-0.233404 31.721296 -16.270481 35.651418 -1.563438 2.044715 0.035206 -0.027544 -643914.000000 0 0 1
0.979096 32.307296 -15.925781 36.032631 1.540500 2.028604 0.055245 -0.020614 -918197.000000 0 0 1
1.649896 31.411396 -15.079881 34.882671 1.518319 2.017841 0.060119 -0.012636 154292.000000 0 0 1
2.546696 32.147496 -14.043181 35.173258 1.491742 1.981503 0.054159 -0.012489 659674.000000 0 0 1
3.754496 32.694896 -14.573781 35.992326 1.456463 1.987681 0.058476 -0.013000 436956.000000 0 0 1
4.682196 33.052696 -13.578681 36.038649 1.430074 1.957115 0.059618 -0.013842 586529.000000 0 0 1
6.134496 33.377496 -14.034281 36.723974 1.389033 1.962924 0.071823 -0.018061 757248.000000 0 0 1
6.909096 32.236096 -14.367781 35.962961 1.359663 1.981785 0.052526 -0.004180 -285178.000000 0 0 1
8.045196 32.511096 -15.154781 36.760902 1.328210 1.995722 0.038620 0.010183 268564.000000 0 0 1
9.067696 31.350696 -15.264381 36.029024 1.289245 2.008288 0.020087 -0.001986 13198.500000 0 0 1
9.529996 31.040296 -13.975581 35.350214 1.272912 1.977241 0.021693 -0.005273 -568217.000000 0 0 1
10.287996 29.858596 -14.078781 34.577314 1.238978 1.990148 0.022309 -0.009440 111163.000000 0 0 1
9.544696 28.472096 -13.862381 33.074568 1.247340 2.003278 0.017110 -0.008794 230227.000000 0 0 1
8.717296 28.065496 -14.945381 32.970103 1.269638 2.041262 0.017714 -0.008428 55761.200000 0 0 1
8.051596 26.872896 -14.625081 31.636588 1.279690 2.051365 0.016691 -0.007513 72218.300000 0 0 1
7.335396 26.127196 -15.848781 31.426457 1.297086 2.099383 0.020109 -0.001585 1158370.000000 0 0 1
8.293396 25.513396 -16.754981 31.629783 1.256510 2.129069 0.031651 0.000567 377894.000000 0 0 1
7.645896 24.585896 -17.592581 31.183728 1.269290 2.170211 0.029759 0.000820 -128987.000000 0 0 1
8.514596 23.490396 -18.263481 30.949180 1.223055 2.201994 0.040449 0.006131 -266336.000000 0 0 1
7.926096 22.800396 -19.331281 30.925385 1.236235 2.246049 0.051361 -0.005110 -48141.700000 0 0 1
8.824096 21.798996 -19.817681 30.753883 1.186164 2.271030 0.039432 -0.000094 330918.000000 0 0 1
8.172496 20.893296 -20.934481 30.685045 1.197939 2.321615 0.033763 -0.009528 105051.000000 0 0 1
7.215796 19.971196 -20.470381 29.494963 1.224081 2.337868 0.035275 -0.011505 146741.000000 0 0 1
6.725396 19.110596 -21.501281 29.542357 1.232412 2.385922 0.035265 -0.002121 18271.900000 0 0 1
25.248896 -12.401604 -9.313281 29.631803 -0.456562 1.890516 0.055061 -0.006406 106460.000000 0 0 1
25.807396 -11.692104 -8.242881 29.507153 -0.425389 1.853915 0.053496 -0.013873 313995.000000 0 0 1
24.832096 -11.777504 -7.221381 28.416385 -0.442865 1.827742 0.051772 -0.009493 -437602.000000 0 0 1
25.246096 -11.297704 -5.824081 28.265233 -0.420776 1.778334 0.035858 -0.015195 -583272.000000 0 0 1
25.502696 -9.936504 -5.652181 27.947608 -0.371531 1.774443 0.046081 -0.019296 -46109.600000 0 0 1
26.659096 -9.459204 -6.252881 28.970372 -0.340963 1.788345 0.051533 -0.023326 -1437130.000000 0 0 1
26.882296 -7.971004 -5.908481 28.654928 -0.288257 1.778480 0.084732 -0.022898 -155416.000000 0 0 1
27.291596 -7.650304 -4.576281 28.710638 -0.273303 1.730872 0.083738 -0.023932 -5748.780000 0 0 1
28.671096 -7.842504 -4.459981 30.057080 -0.267002 1.719730 0.074916 -0.025436 -903594.000000 0 0 1
29.333696 -7.693904 -3.102481 30.484213 -0.256511 1.672746 0.091086 -0.021868 -426807.000000 0 0 1
29.707296 -6.401704 -2.796581 30.517636 -0.212247 1.662563 0.098116 -0.023997 -38357.200000 0 0 1
30.543396 -6.430404 -1.680181 31.258153 -0.207503 1.624574 0.099869 -0.020995 -36794.300000 0 0 1
30.748096 -5.066804 -1.075981 31.181335 -0.163317 1.605310 0.100148 -0.030418 584160.000000 0 0 1
29.441896 -4.604104 -0.724581 29.808523 -0.155123 1.595107 0.112200 -0.024405 706545.000000 0 0 1
29.469396 -3.278104 -0.164681 29.651617 -0.110782 1.576350 0.097392 -0.017849 -244842.000000 0 0 1
29.933296 -3.009004 1.282619 30.111483 -0.100187 1.528188 0.099273 -0.017927 -361718.000000 0 0 1
29.165596 -3.517004 2.316519 29.468077 -0.120008 1.492104 0.099878 -0.026841 176118.000000 0 0 1
29.890096 -3.306304 3.508719 30.276403 -0.110168 1.454646 0.085704 -0.024505 -48083.200000 0 0 1
29.470596 -4.236204 4.613819 30.128870 -0.142766 1.417055 0.083609 -0.028174 -245468.000000 0 0 1
29.715096 -5.592104 4.361819 30.549698 -0.186015 1.427529 0.079420 -0.031689 249104.000000 0 0 1
29.638696 -6.239704 5.602519 30.802182 -0.207496 1.387891 0.073643 -0.032361 -107947.000000 0 0 1
30.615896 -7.441604 5.624919 32.005473 -0.238440 1.394130 0.071285 -0.037764 516619.000000 0 0 1
31.983996 -7.092404 5.380719 33.199855 -0.218218 1.408008 0.078205 -0.038373 -22379.200000 0 0 1
32.749596 -8.226404 5.545619 34.219346 -0.246099 1.408017 0.084924 -0.033982 -902678.000000 0 0 1
34.222496 -7.854404 5.676819 35.568205 -0.225603 1.410507 0.097628 -0.035809 -603386.000000 0 0 1
34.884596 -7.508004 4.493119 35.965168 -0.211990 1.445539 0.100858 -0.039313 -800158.000000 0 0 1
-36.254235 -7.517604 4.720119 37.325104 0.204460 1.443997 0.102473 -0.031555 -643926.000000 0 0 1
-35.412035 -7.069004 3.554619 36.285236 0.197032 1.472676 0.093326 -0.022525 -362662.000000 0 0 1
-35.302735 -8.067904 2.559919 36.303269 0.224676 1.500223 0.099509 -0.022984 138431.000000 0 0 1
-34.192935 -7.876504 1.713119 35.130199 0.226405 1.522012 0.093151 -0.018498 -299080.000000 0 0 1
-33.967135 -9.209904 0.885519 35.204726 0.264776 1.545640 0.085901 -0.014701 -51888.600000 0 0 1
-33.533835 -10.319904 1.662819 35.125254 0.298548 1.523439 0.075691 -0.015593 298120.000000 0 0 1
-33.751335 -11.566604 0.984419 35.691848 0.330157 1.543212 0.070690 -0.015092 -608521.000000 0 0 1
-33.412435 -12.675104 2.020019 35.792870 0.362581 1.514330 0.066312 -0.024685 1571510.000000 0 0 1
-32.026735 -12.823704 2.445919 34.585281 0.380857 1.500016 0.051123 -0.014769 1816430.000000 0 0 1
-31.168435 -13.417804 1.430419 33.964023 0.406514 1.528668 0.054872 -0.003596 119027.000000 0 0 1
-29.798735 -13.859004 1.997019 32.924530 0.435329 1.510105 0.049500 0.000866 405097.000000 0 0 1
-28.912535 -12.772904 2.311319 31.692648 0.415995 1.497802 0.055476 0.000364 -813332.000000 0 0 1
-27.698435 -13.235304 2.737619 30.819979 0.445760 1.481853 0.057648 -0.000445 -1086930.000000 0 0 1
-26.903235 -12.030104 3.311319 29.655898 0.420491 1.458905 0.064714 0.005315 -66048.000000 0 0 1
-25.641535 -12.379504 3.852419 28.732935 0.449786 1.436315 0.066974 0.010736 271774.000000 0 0 1
-25.226335 -11.310704 4.703719 28.043269 0.421497 1.402269 0.064240 0.013877 -538803.000000 0 0 1
-23.812935 -11.463704 5.245219 26.944103 0.448663 1.374875 0.076658 0.018021 -531470.000000 0 0 1
-23.590635 -12.462504 6.252019 27.402916 0.486016 1.340618 0.060605 0.016359 1500230.000000 0 0 1
-22.183335 -12.661904 6.588619 26.378667 0.518660 1.318353 0.063305 0.013444 1540980.000000 0 0 1
-21.659135 -12.065504 7.901819 26.021784 0.508250 1.262263 0.066190 0.004986 -540172.000000 0 0 1
-21.516935 -10.664804 8.017919 25.318048 0.460159 1.248561 0.066141 0.007538 1036590.000000 0 0 1
-22.704835 -9.990504 8.474419 26.213269 0.414521 1.241595 0.066238 0.004625 -40784.000000 0 0 1
-22.929235 -10.037304 9.988119 26.949208 0.412621 1.191112 0.073894 0.011266 -532535.000000 0 0 1
-23.330235 -11.259004 10.588419 27.985347 0.449625 1.182777 0.067677 0.007869 235614.000000 0 0 1
-24.660035 -11.626904 10.315019 29.149645 0.440579 1.209097 0.059232 0.010425 311811.000000 0 0 1
-25.756235 -11.151404 11.362219 30.279324 0.408593 1.186133 0.066332 0.001660 475284.000000 0 0 1
-25.646335 -11.837604 12.594419 30.927055 0.432435 1.151377 0.064298 -0.005487 603418.000000 0 0 1
-26.836935 -11.629204 13.365319 32.157289 0.408904 1.142168 0.061129 -0.014375 478249.000000 0 0 1
-27.005335 -12.391904 14.686819 33.144382 0.430205 1.111724 0.072007 -0.021305 -56633.800000 0 0 1
-27.110035 -13.778804 14.647119 33.754222 0.470230 1.121941 0.073436 -0.016449 285844.000000 0 0 1
-26.766335 -14.323904 15.911419 34.275125 0.491368 1.088035 0.070286 -0.022502 -432544.000000 0 0 1
-26.616035 -15.815804 15.864019 34.788217 0.536159 1.097282 0.061744 -0.011151 -435632.000000 0 0 1
-27.825535 -16.494704 15.737819 35.972414 0.535101 1.117983 0.070550 -0.015743 -208731.000000 0 0 1
-27.516335 -17.904804 15.757819 36.414826 0.576865 1.123277 0.049136 -0.011753 -363095.000000 0 0 1
-28.685035 -18.698604 16.297219 37.921872 0.577681 1.126572 0.034413 -0.001026 -509052.000000 0 0 1
-28.892435 -18.589104 17.693319 38.644290 0.571714 1.095220 0.065105 0.000233 -199876.000000 0 0 1
-29.307435 -19.762204 18.348219 39.826217 0.593273 1.092005 0.069458 0.003842 -317695.000000 0 0 1
-28.311035 -20.929604 18.422419 39.735986 0.636601 1.088719 0.035856 0.009734 11543.700000 0 0 1
-27.141835 -20.635304 19.183219 39.121489 0.650046 1.058305 0.052897 0.006747 389612.000000 0 0 1
-26.505335 -21.857504 19.588719 39.547455 0.689589 1.052591 0.043860 0.007064 574296.000000 0 0 1
-25.106635 -21.569104 20.237819 38.796117 0.709753 1.022018 0.055462 0.006185 991624.000000 0 0 1
-24.085935 -21.249204 19.271919 37.457547 0.722907 1.030372 0.060589 0.001353 -5970.650000 0 0 1
-22.853835 -21.122904 19.933419 36.956949 0.746058 1.001109 0.062030 0.001114 -139284.000000 0 0 1
-21.684935 -21.012304 18.929019 35.637917 0.769646 1.010841 0.056336 -0.003321 -216757.000000 0 0 1
-21.419235 -22.114804 18.129219 35.728375 0.801374 1.038611 0.044960 -0.000376 -25214.700000 0 0 1
-20.200935 -21.887004 17.463719 34.526804 0.825437 1.040485 0.043159 0.000563 -67196.500000 0 0 1
-19.873935 -22.981004 16.383119 34.518204 0.857774 1.076261 0.038989 0.010698 -440169.000000 0 0 1
-19.742935 -24.307904 16.857919 35.564689 0.888659 1.076960 0.042266 0.003951 676816.000000 0 0 1
-18.532035 -24.824604 17.456419 35.558738 0.929527 1.057653 0.051598 -0.002162 124945.000000 0 0 1
-17.345835 -24.973804 16.527019 34.607965 0.963730 1.072933 0.047134 -0.001807 -512971.000000 0 0 1
-16.667235 -23.741204 16.297819 33.272517 0.958704 1.058904 0.052103 -0.003571 491391.000000 0 0 1
-15.489435 -23.880504 15.483919 32.402976 0.995390 1.072585 0.053372 -0.002975 390810.000000 0 0 1
-14.780535 -22.540004 15.292119 30.989755 0.990392 1.054736 0.053271 -0.002215 -542981.000000 0 0 1
-15.468335 -21.572004 14.589719 30.289943 0.948715 1.068238 0.059342 -0.004623 -502100.000000 0 0 1
-16.412335 -20.805904 15.305519 30.602440 0.902903 1.047035 0.044721 -0.002651 -160162.000000 0 0 1
-15.881735 -19.628704 16.192919 29.995436 0.890527 1.000542 0.046596 -0.011236 -357695.000000 0 0 1
-15.232735 -18.607504 15.439019 28.576892 0.884796 1.000047 0.040978 -0.012752 146397.000000 0 0 1
-15.070835 -17.425104 16.205319 28.166943 0.857720 0.957787 0.021584 -0.011618 -467524.000000 0 0 1
-14.429235 -16.202404 15.543519 26.689356 0.843221 0.949135 0.028137 -0.009522 -220658.000000 0 0 1
-15.203035 -15.508504 14.619719 26.179804 0.795344 0.978298 0.025027 -0.014124 -208981.000000 0 0 1
-15.461435 -16.220904 13.418719 26.119643 0.809365 1.031257 0.048085 -0.018989 -345403.000000 0 0 1
-16.319235 -15.396404 12.487919 25.677126 0.756309 1.062896 0.035300 -0.015888 272277.000000 0 0 1
-17.728435 -15.413804 12.748019 26.728164 0.715672 1.073614 0.018262 -0.016213 523879.000000 0 0 1
-18.321635 -14.426604 11.949919 26.203240 0.667016 1.097248 0.029784 -0.014590 -950234.000000 0 0 1
-19.846935 -14.471104 11.979819 27.328186 0.630014 1.117014 0.031331 -0.010147 -455051.000000 0 0 1
-20.494335 -15.598204 11.410119 28.169355 0.650566 1.153758 0.040225 -0.012507 150673.000000 0 0 1
-20.448735 -15.698204 9.979919 27.643863 0.654724 1.201438 0.046600 -0.007208 -696309.000000 0 0 1
-21.264335 -16.852504 9.439719 28.727811 0.670166 1.235984 0.041930 0.003159 167899.000000 0 0 1
-20.560035 -18.096304 9.506119 28.992371 0.721750 1.236734 0.045065 0.009617 236477.000000 0 0 1
-21.393735 -19.072504 8.945119 30.024448 0.728099 1.268275 0.058856 -0.006977 131051.000000 0 0 1
-20.779735 -20.484604 9.054119 30.551489 0.778246 1.269921 0.055614 0.001604 1018950.000000 0 0 1
-19.477135 -20.566604 8.435419 29.555038 0.812598 1.281358 0.074212 0.001184 424708.000000 0 0 1
-19.100935 -21.919204 8.487919 30.287654 0.853995 1.286749 0.053461 0.002533 -632424.000000 0 0 1
-17.865835 -22.139704 7.624219 29.453069 0.891826 1.308955 0.044863 -0.003964 -309095.000000 0 0 1
-16.737235 -21.574504 8.266819 28.529538 0.910994 1.276817 0.027496 -0.012470 -159200.000000 0 0 1
-15.532335 -21.987204 7.653119 27.986797 0.955771 1.293814 0.047450 -0.008228 1144310.000000 0 0 1
-14.222835 -21.531204 8.470419 27.159341 0.987027 1.253627 0.001426 -0.005820 1789030.000000 0 0 1
-13.066335 -21.779504 7.641619 26.523014 1.030423 1.278541 0.028565 -0.000216 169985.000000 0 0 1
-11.870735 -21.745304 8.374119 26.151453 1.071107 1.244839 0.032963 0.001671 755821.000000 0 0 1
-10.597735 -22.250704 7.599319 25.790608 1.126298 1.271702 0.025757 0.007182 712371.000000 0 0 1
-10.687535 -23.659904 7.410019 26.998571 1.146517 1.292769 0.029830 0.008808 369279.000000 0 0 1
-9.358235 -24.167904 7.390319 26.949601 1.201358 1.293010 0.053418 0.006225 603553.000000 0 0 1
-9.445835 -25.698694 7.421719 28.367739 1.218564 1.306091 0.033676 0.001975 129997.000000 0 0 1
-9.888435 -26.151194 6.128219 28.622040 1.209288 1.355017 0.029387 -0.008657 -62668.300000 0 0 1
-10.122935 -27.540474 6.219119 29.993816 1.218559 1.361934 0.050392 -0.008362 -218637.000000 0 0 1
-9.074335 -28.455974 5.604619 30.389106 1.262100 1.385306 0.057555 -0.012739 12295.600000 0 0 1
-7.734435 -28.182334 5.991219 29.832200 1.302948 1.368591 0.051200 -0.013723 691496.000000 0 0 1
-6.709835 -29.154834 5.695119 30.454238 1.344590 1.382683 0.043693 -0.010799 909897.000000 0 0 1
-6.865835 -30.511214 6.448519 31.932073 1.349457 1.367453 0.051480 -0.017873 -455834.000000 0 0 1
-6.600835 -30.387224 7.821419 32.064451 1.356895 1.324382 0.048836 -0.016577 98297.900000 0 0 1
-6.553835 -31.681974 8.323819 33.406380 1.366810 1.318975 0.076269 -0.022334 153065.000000 0 0 1
-6.985835 -31.687904 9.802219 33.897030 1.353810 1.277430 0.052462 -0.014450 -319302.000000 0 0 1
-5.902835 -31.181154 10.494919 33.425307 1.383703 1.251413 0.037067 -0.013134 -159491.000000 0 0 1
-6.022835 -31.566614 11.842819 34.248767 1.382265 1.217718 0.032020 -0.012113 -207936.000000 0 0 1
-5.289835 -30.740644 12.902719 33.755736 1.400386 1.178580 0.038152 -0.011528 211416.000000 0 0 1
-5.861835 -29.432834 12.983119 32.698841 1.374209 1.162494 0.030139 -0.005056 64819.100000 0 0 1
-5.124835 -28.665574 13.872519 32.255633 1.393885 1.126214 0.022099 -0.010945 -445001.000000 0 0 1
-6.004835 -28.084734 15.018719 32.409447 1.360157 1.088962 0.030910 -0.007843 115484.000000 0 0 1
-6.648835 -29.038994 15.823419 33.732044 1.345714 1.082534 0.022284 -0.014465 185833.000000 0 0 1
-5.779835 -29.665714 16.773219 34.565908 1.378375 1.064144 0.009088 -0.013966 385319.000000 0 0 1
-6.380835 -31.014234 17.176719 36.022736 1.367889 1.073752 0.018082 -0.013984 -92468.200000 0 0 1
-6.263835 -31.889804 16.076419 36.258054 1.376844 1.111420 0.024776 -0.009232 180061.000000 0 0 1
-6.604835 -33.242704 16.470919 37.682787 1.374665 1.118431 0.031694 -0.012340 -194254.000000 0 0 1
-5.933835 34.233443 15.635519 38.099980 -1.399167 1.147924 0.021982 -0.018092 -142685.000000 0 0 1
-6.436835 34.043706 14.327019 37.492269 -1.383927 1.178693 0.033455 -0.018016 528025.000000 0 0 1
-5.579835 33.098669 13.667619 36.241692 -1.403785 1.184107 0.032376 -0.020320 1222660.000000 0 0 1
-4.311835 33.577914 12.856619 36.212717 -1.443082 1.207850 0.039418 -0.025776 851200.000000 0 0 1
-4.621835 34.049544 11.544019 36.249099 -1.435882 1.246688 0.041077 -0.022667 112533.000000 0 0 1
-3.458835 -34.021724 10.911719 35.895778 1.469479 1.261925 0.053828 -0.028790 -285418.000000 0 0 1
-3.688835 -33.873194 9.392319 35.344256 1.462323 1.301827 0.049093 -0.029933 -526137.000000 0 0 1
-3.853835 33.545025 8.476319 34.813341 -1.456412 1.324845 0.061867 -0.034909 509247.000000 0 0 1
-4.885835 32.597989 8.729519 34.098457 -1.422022 1.311905 0.066967 -0.035648 897454.000000 0 0 1
-6.372835 32.967609 9.041919 34.774022 -1.379846 1.307754 0.074699 -0.029997 418683.000000 0 0 1
-7.133835 33.487697 7.948219 35.149561 -1.360905 1.342698 0.081529 -0.023328 -849544.000000 0 0 1
-8.452735 33.537605 8.399119 35.591641 -1.323901 1.332564 0.061375 -0.017387 -995365.000000 0 0 1
-9.410735 33.785939 7.251019 35.813809 -1.299142 1.366923 0.072440 -0.023523 -585047.000000 0 0 1
-9.372635 -33.467924 6.679519 35.391584 1.297743 1.380926 0.087101 -0.020295 -9452.090000 0 0 1
-9.927035 -33.481614 5.381519 35.334477 1.282561 1.417899 0.083899 -0.017763 -224740.000000 0 0 1
-10.123135 -32.097114 4.776619 33.992921 1.265280 1.429812 0.068948 -0.021399 278393.000000 0 0 1
-11.088835 -31.249574 5.361819 33.589392 1.229810 1.410482 0.086049 -0.027009 561956.000000 0 0 1
-12.432635 -31.291584 4.869319 34.021228 1.192606 1.427177 0.084966 -0.021847 775271.000000 0 0 1
-13.326535 -30.184244 5.474019 33.446226 1.155028 1.406390 0.069025 -0.027303 -262476.000000 0 0 1
-13.908735 -30.504404 6.668319 34.182423 1.142999 1.374457 0.071567 -0.013278 -468428.000000 0 0 1
-14.608935 -29.453824 7.234119 33.664243 1.110358 1.354217 0.055268 -0.008741 -210639.000000 0 0 1
33.213596 -13.074804 -12.516381 37.825300 -0.375027 1.908053 0.061357 -0.022388 -964947.000000 0 0 1
32.112176 -13.189204 -11.711581 36.637523 -0.389716 1.896168 0.071731 -0.021572 -741032.000000 0 0 1
31.861046 -14.532404 -11.327481 36.805283 -0.427930 1.883642 0.077576 -0.026122 152078.000000 0 0 1
32.806786 -15.256304 -10.290381 37.615582 -0.435286 1.847896 0.068319 -0.028528 1157110.000000 0 0 1
34.120296 -15.575304 -10.785781 39.027142 -0.428231 1.850807 0.073458 -0.028106 720614.000000 0 0 1
35.046366 -15.736804 -9.711581 39.625871 -0.422045 1.818400 0.068875 -0.027185 -288201.000000 0 0 1
-36.054974 -16.019504 -10.182681 40.746444 0.418110 1.823377 0.061393 -0.029670 -393714.000000 0 0 1
-35.351523 -14.910104 -10.768481 39.849737 0.399129 1.844425 0.058331 -0.030878 152541.000000 0 0 1
-33.958174 -15.117404 -10.795981 38.707192 0.418836 1.853459 0.049359 -0.028372 59183.200000 0 0 1
-33.211974 -13.810304 -11.189481 37.669141 0.394072 1.872394 0.056109 -0.029896 -111262.000000 0 0 1
-33.380524 -12.686604 -10.395881 37.192521 0.363200 1.854086 0.064215 -0.030727 522915.000000 0 0 1
-32.632054 -11.545504 -10.905081 36.291465 0.340064 1.875999 0.067533 -0.023252 172924.000000 0 0 1
-33.014974 -10.163604 -10.245681 36.031394 0.298641 1.859129 0.065635 -0.016105 -245725.000000 0 0 1
-32.429054 -9.974304 -8.984681 35.097789 0.298390 1.829668 0.063469 -0.014235 260227.000000 0 0 1
-33.090354 -8.909504 -8.324681 35.265438 0.263011 1.809103 0.073896 -0.018051 -177182.000000 0 0 1
-32.695364 -8.742404 -6.871281 34.534489 0.261277 1.771102 0.067798 -0.012430 -54668.700000 0 0 1
-31.431464 -8.078804 -6.795681 33.156979 0.251583 1.777214 0.078436 -0.016220 575182.000000 0 0 1
-31.032214 -7.671204 -5.444781 32.426707 0.242343 1.739506 0.072332 -0.010595 -31664.300000 0 0 1
-30.475374 -8.731004 -4.466781 32.014543 0.279020 1.710777 0.070848 -0.003425 -545513.000000 0 0 1
-31.316634 -9.845904 -4.304881 33.108993 0.304614 1.701187 0.053520 -0.001943 98842.800000 0 0 1
-31.151784 -10.454404 -3.053081 33.000750 0.323785 1.663444 0.056626 -0.010213 -110383.000000 0 0 1
-31.568554 -11.933604 -2.997681 33.881715 0.361417 1.659387 0.059053 -0.013443 268337.000000 0 0 1
-32.977124 -12.112004 -3.097681 35.267364 0.351990 1.658744 0.060021 -0.013474 442848.000000 0 0 1
-33.263724 -13.411404 -2.577981 35.958130 0.383248 1.642552 0.069058 -0.017162 399186.000000 0 0 1
-34.801042 -13.704504 -2.697881 37.499394 0.375147 1.642803 0.046772 -0.012522 543234.000000 0 0 1
-35.437151 -12.792204 -1.829081 37.719726 0.346425 1.619307 0.068666 -0.021277 449158.000000 0 0 1
35.755866 -13.201704 -1.458581 38.143079 -0.353692 1.609045 0.104085 -0.022134 290490.000000 0 0 1
35.087206 -12.187504 -0.535381 37.147462 -0.334311 1.585209 0.107011 -0.033178 -371291.000000 0 0 1
35.376126 -12.178504 0.827719 37.422873 -0.331550 1.548677 0.115001 -0.028102 -40023.700000 0 0 1
34.745976 -11.114104 1.460919 36.509457 -0.309583 1.530771 0.129467 -0.031586 -248573.000000 0 0 1
35.180256 -10.971604 2.896919 36.965101 -0.302309 1.492347 0.119928 -0.039034 -140952.000000 0 0 1
34.589496 -11.888804 3.763819 36.768781 -0.331062 1.468252 0.126176 -0.046305 -9864.280000 0 0 1
35.282466 -11.925604 5.003019 37.577955 -0.325948 1.437263 0.105332 -0.039232 92492.900000 0 0 1
34.334186 -12.245204 6.184919 36.973431 -0.342585 1.402726 0.105047 -0.029222 -68519.400000 0 0 1
33.597276 -11.152004 6.603419 36.010406 -0.320489 1.386377 0.103487 -0.035083 -30416.200000 0 0 1
33.046486 -11.310604 7.913719 35.813782 -0.329766 1.347989 0.077266 -0.018495 44360.100000 0 0 1
32.253826 -10.101904 8.480619 34.846502 -0.303523 1.324957 0.064338 -0.028023 795473.000000 0 0 1
30.961876 -9.854104 7.888819 33.436128 -0.308129 1.332614 0.069431 -0.025301 1254860.000000 0 0 1
30.071976 -9.254304 8.855419 32.686150 -0.298541 1.296445 0.069309 -0.015246 829121.000000 0 0 1
28.560206 -9.404504 8.481619 31.242086 -0.318104 1.295865 0.064803 -0.021412 439490.000000 0 0 1
28.201176 -8.715604 7.291519 30.404512 -0.299740 1.328619 0.082208 -0.030024 -618263.000000 0 0 1
27.113726 -9.365704 6.744219 29.467865 -0.332592 1.339883 0.092221 -0.043768 -723987.000000 0 0 1
26.284226 -8.476504 5.781519 28.215911 -0.311964 1.364432 0.092037 -0.043603 -422563.000000 0 0 1
25.462626 -7.557604 6.444419 27.331178 -0.288529 1.332765 0.097641 -0.038769 -83309.700000 0 0 1
24.596326 -6.908904 5.538219 26.141616 -0.273835 1.357324 0.112205 -0.043259 -545953.000000 0 0 1
25.129526 -5.826404 4.553419 26.194918 -0.227829 1.396080 0.108150 -0.040145 -771846.000000 0 0 1
25.675326 -6.355504 3.374819 26.664663 -0.242656 1.443891 0.093711 -0.039560 10810.600000 0 0 1
26.169526 -5.309804 2.633319 26.832303 -0.200183 1.472498 0.103312 -0.030149 -46471.600000 0 0 1
26.790526 -5.622704 1.277219 27.403985 -0.206874 1.524172 0.097792 -0.032452 -70428.800000 0 0 1
25.739126 -5.936904 0.391219 26.417845 -0.226692 1.555987 0.100940 -0.034491 -115164.000000 0 0 1
26.135426 -6.093704 -0.940081 26.852886 -0.229066 1.605812 0.105305 -0.032762 -180837.000000 0 0 1
25.047426 -6.196604 -2.045581 25.883506 -0.242525 1.649909 0.087964 -0.028224 -50251.200000 0 0 1
24.346026 -4.983904 -2.178381 24.946215 -0.201921 1.658231 0.105977 -0.024002 563.780000 0 1 0
23.439426 -5.017904 -3.262781 24.191565 -0.210896 1.706081 0.071745 -0.020628 -52181.500000 0 1 0
22.553326 -3.733904 -3.337481 23.102670 -0.164071 1.715767 0.075606 -0.017972 -398529.000000 0 1 0
23.255826 -2.545404 -3.541181 23.661203 -0.109018 1.721023 0.076432 -0.016563 47858.900000 0 1 0
23.299726 -1.998204 -4.860681 23.885064 -0.085552 1.775731 0.069399 -0.011777 -287345.000000 0 1 0
22.059926 -1.169604 -5.233881 22.702463 -0.052970 1.803431 0.040182 -0.001271 -59539.600000 0 1 0
21.960826 0.138796 -4.592381 22.436290 0.006320 1.776939 0.037790 0.002746 34439.200000 0 1 0
21.090226 0.962696 -5.306381 21.768833 0.045615 1.817038 0.043277 0.007655 -759922.000000 0 1 0
20.995426 2.391496 -4.691481 21.645720 0.113417 1.789270 0.057285 0.009135 148696.000000 0 1 0
22.171226 3.202896 -4.819481 22.913952 0.143469 1.782708 0.079568 0.007707 625862.000000 0 1 0
23.074426 2.974196 -3.777081 23.569924 0.128189 1.731740 0.100028 0.003943 -50438.000000 0 1 0
24.243226 3.995296 -3.683781 24.844852 0.163332 1.719616 0.084682 -0.003515 280286.000000 0 1 0
23.723026 5.273796 -3.327081 24.528848 0.218750 1.706855 0.084101 0.005683 73445.100000 0 1 0
24.693626 6.217596 -3.074281 25.649267 0.246662 1.690944 0.078911 0.000686 -563876.000000 0 0 1
24.119626 7.654496 -3.046181 25.487779 0.307302 1.690598 0.076176 -0.009600 468141.000000 0 0 1
23.116926 7.939796 -2.046981 24.528000 0.330839 1.654348 0.091530 -0.012623 839609.000000 0 1 0
22.385826 9.065796 -2.426781 24.273507 0.384791 1.670940 0.076758 -0.005460 -640333.000000 0 1 0
21.339926 9.439896 -1.397981 23.376451 0.416481 1.630635 0.056826 -0.006215 -190418.000000 0 1 0
21.995126 9.971596 -0.233281 24.151040 0.425640 1.580456 0.053832 -0.009342 1270020.000000 0 1 0
21.007626 10.210896 0.777219 23.370640 0.452431 1.537534 0.041030 -0.010857 230263.000000 0 1 0
21.624926 10.644296 2.100619 24.194030 0.457407 1.483863 0.063776 -0.008498 -421432.000000 0 1 0
22.434226 11.818996 2.100719 25.443982 0.484880 1.488140 0.073571 -0.020366 446192.000000 0 0 1
21.929226 13.087796 1.679819 25.593029 0.538078 1.505113 0.077194 -0.016465 -1026070.000000 0 0 1
20.853226 13.777496 2.550019 25.123277 0.583853 1.469121 0.066372 -0.005046 502134.000000 0 0 1
19.550826 13.171796 2.316519 23.687492 0.592870 1.472845 0.085530 -0.006781 1034150.000000 0 1 0
18.516426 13.808396 3.018519 23.294662 0.640768 1.440851 0.075360 -0.011199 -165304.000000 0 1 0
18.376626 13.621896 4.537819 23.320554 0.637885 1.374962 0.062814 -0.011921 -643880.000000 0 1 0
18.111126 12.374896 5.034319 22.505451 0.599413 1.345194 0.053474 -0.008151 427626.000000 0 1 0
18.228126 12.354796 6.469219 22.951174 0.595662 1.285055 0.052947 -0.015825 -57417.300000 0 1 0
18.066126 10.966396 7.052319 22.279631 0.545561 1.248720 0.015339 -0.011094 -29907.300000 0 1 0
19.116626 10.104396 6.649019 22.621973 0.486238 1.272472 0.005535 -0.016919 551044.000000 0 1 0
19.161926 8.903796 7.454319 22.405889 0.434979 1.231637 0.008829 -0.006319 46879.800000 0 1 0
20.099026 7.894396 6.726219 22.617126 0.374262 1.268833 0.015752 -0.009942 160714.000000 0 1 0
19.586426 7.513996 5.464619 21.678337 0.366318 1.315970 -0.004204 -0.015595 922811.000000 0 1 0
20.471126 6.634996 4.747519 22.036994 0.313431 1.353660 0.005533 -0.022173 48144.000000 0 1 0
20.472226 6.883496 3.226519 21.838155 0.324360 1.422507 0.027203 -0.006008 164702.000000 0 1 0
21.345626 5.969596 2.503919 22.305637 0.272697 1.458304 0.022566 -0.012762 965215.000000 0 1 0
21.301926 6.092496 1.078819 22.182300 0.278570 1.522143 0.040181 0.001373 367770.000000 0 1 0
22.476626 5.263496 0.427319 23.088649 0.230031 1.552288 0.068620 0.000100 672723.000000 0 1 0
22.242626 3.852796 0.615619 22.582238 0.171515 1.543532 0.056601 -0.002607 -71522.600000 0 1 0
23.318526 3.125296 0.155219 23.527542 0.133232 1.564199 0.067576 -0.006448 -596648.000000 0 1 0
23.122726 1.605296 0.190419 23.179165 0.069314 1.562581 0.074333 -0.008087 -267629.000000 0 1 0
22.208826 1.070396 -0.734981 22.246751 0.048160 1.603840 0.056638 -0.004792 544449.000000 0 1 0
22.430726 -0.288504 -1.147481 22.461911 -0.012861 1.621904 0.069815 -0.007610 -963780.000000 0 1 0
22.377626 -1.439804 -0.091281 22.424084 -0.064253 1.574867 0.086193 -0.010984 -398937.000000 0 1 0
23.360426 -1.491904 0.887719 23.424845 -0.063778 1.532891 0.096789 -0.010272 107811.000000 0 1 0
24.628426 -1.952304 0.415019 24.709171 -0.079105 1.553999 0.102282 -0.016508 -388696.000000 0 1 0
25.650226 -1.623504 1.506019 25.745640 -0.063210 1.512267 0.100501 -0.018303 -798568.000000 0 0 1
25.634426 -0.241404 1.904419 25.706204 -0.009417 1.496644 0.085918 -0.014374 205987.000000 0 0 1
26.464226 0.043196 2.980219 26.631539 0.001632 1.458656 0.083135 -0.013989 -394531.000000 0 0 1
26.165426 1.483396 3.487119 26.438419 0.056632 1.438515 0.073452 -0.012068 -153066.000000 0 0 1
26.362326 2.579296 2.586819 26.614219 0.097530 1.473446 0.088331 -0.009580 84398.600000 0 0 1
27.717816 2.875096 2.357919 27.966110 0.103358 1.486383 0.100501 -0.014796 -182238.000000 0 0 1
27.772836 3.955996 1.298219 28.083193 0.141489 1.524552 0.101228 -0.018868 -369500.000000 0 0 1
27.232626 3.462196 0.125019 27.452111 0.126456 1.566242 0.101969 -0.010566 20365.500000 0 0 1
27.433826 4.176296 -1.086281 27.771141 0.151072 1.609922 0.093230 -0.012072 -709642.000000 0 0 1
28.736726 3.830796 -1.803081 29.046954 0.132525 1.632911 0.100030 -0.009924 446246.000000 0 0 1
29.866036 4.320596 -1.035381 30.194696 0.143669 1.605093 0.117611 -0.014110 1513670.000000 0 0 1
31.165766 3.906296 -1.486481 31.444773 0.124689 1.618087 0.102962 -0.014083 1668690.000000 0 0 1
32.385656 4.320096 -0.575381 32.677592 0.132612 1.588405 0.080137 -0.016923 604759.000000 0 0 1
32.529526 3.499296 0.591019 32.722538 0.107161 1.552734 0.078494 -0.017790 238017.000000 0 0 1
31.795536 3.899796 1.752919 32.081728 0.122043 1.516130 0.082048 -0.007474 57957.000000 0 0 1
31.905516 2.929196 2.910419 32.171613 0.091552 1.480207 0.081284 -0.004049 213447.000000 0 0 1
31.120896 1.726396 2.755619 31.290319 0.055417 1.482616 0.083791 -0.010601 425885.000000 0 0 1
31.304246 0.797096 3.785319 31.542350 0.025457 1.450499 0.077800 -0.010910 -105095.000000 0 0 1
32.595306 -0.048804 3.686619 32.803164 -0.001497 1.458172 0.088630 -0.013259 454031.000000 0 0 1
33.758976 0.625696 4.178219 34.022309 0.018532 1.447677 0.089329 -0.012129 -148942.000000 0 0 1
34.884056 -0.195104 4.065319 35.120682 -0.005593 1.454783 0.083732 -0.013232 -889247.000000 0 0 1
36.111966 0.704996 4.307419 36.374785 0.019520 1.452100 0.093585 -0.018963 -402886.000000 0 0 1
-36.110744 1.780196 3.412619 36.315298 -0.049258 1.476686 0.080878 -0.020701 291706.000000 0 0 1
-35.567838 1.407596 2.118219 35.658649 -0.039554 1.511359 0.094137 -0.018943 -321123.000000 0 0 1
-35.311789 2.598996 1.152819 35.426067 -0.073469 1.538249 0.090521 -0.022395 109898.000000 0 0 1
-34.156972 3.355396 1.441119 34.351626 -0.097920 1.528832 0.100317 -0.038937 -57746.000000 0 0 1
-33.014604 2.902396 0.749419 33.150409 -0.087687 1.548188 0.111212 -0.035522 -856709.000000 0 0 1
-31.785914 3.674796 1.245119 32.021848 -0.115100 1.531903 0.113363 -0.034283 -523764.000000 0 0 1
-31.496194 3.339196 2.619919 31.780882 -0.105624 1.488266 0.114680 -0.039570 82178.100000 0 0 1
-30.724514 4.407596 3.114719 31.194938 -0.142483 1.470783 0.116791 -0.038575 -517404.000000 0 0 1
-30.969004 4.476796 4.649819 31.634502 -0.143563 1.423276 0.118141 -0.038736 288852.000000 0 0 1
-32.235924 5.071996 4.970819 33.008923 -0.156060 1.419631 0.110136 -0.023799 1577640.000000 0 0 1
-33.387544 4.196396 4.991019 34.018350 -0.125032 1.423549 0.114510 -0.023593 206505.000000 0 0 1
-33.359114 3.204396 6.197219 34.080847 -0.095764 1.387940 0.101241 -0.016500 -1125930.000000 0 0 1
-33.560334 3.869196 7.393219 34.582169 -0.114784 1.355346 0.098375 -0.015356 330823.000000 0 0 1
-33.656374 3.103296 8.589819 34.873585 -0.091945 1.321922 0.098752 -0.015103 -394713.000000 0 0 1
-34.849361 2.144096 8.708119 35.984809 -0.061447 1.326376 0.087394 -0.011685 -514683.000000 0 0 1
-34.716177 0.942896 7.893719 35.614783 -0.027153 1.347299 0.082363 -0.013355 631395.000000 0 0 1
-35.743096 -0.034304 8.161719 36.663112 0.000960 1.346301 0.082328 -0.010880 441685.000000 0 0 1
-35.549487 -0.845504 9.454819 36.795034 0.023779 1.310922 0.080660 -0.006723 -247717.000000 0 0 1
-34.338446 -1.565004 9.517519 35.667370 0.045544 1.300683 0.082762 -0.024915 361216.000000 0 0 1
-34.345533 -2.260204 10.747819 36.058838 0.065713 1.268133 0.081653 -0.021495 -3848.370000 0 0 1
-33.023024 -3.042304 10.907219 34.910502 0.091867 1.253042 0.078752 -0.020898 -181443.000000 0 0 1
-32.866704 -4.000304 9.953819 34.573128 0.121117 1.278757 0.086674 -0.017974 871291.000000 0 0 1
-31.616864 -4.694904 10.129519 33.530216 0.147416 1.263900 0.086519 -0.018246 706160.000000 0 0 1
-31.441034 -5.874504 9.123719 33.260948 0.184712 1.292927 0.080443 -0.012350 -63393.700000 0 0 1
-32.249344 -6.996704 9.334319 34.294367 0.213645 1.295136 0.075676 -0.010286 -219282.000000 0 0 1
-32.259384 -7.711804 8.123819 34.148737 0.234652 1.330598 0.070070 -0.007803 -102598.000000 0 0 1
-33.295764 -8.844304 8.100819 35.390011 0.259633 1.339847 0.071938 -0.011462 -121519.000000 0 0 1
-34.617180 -8.392004 8.278319 36.569187 0.237835 1.342443 0.083503 -0.023702 222253.000000 0 0 1
-35.538316 -9.496804 8.184519 37.684845 0.261126 1.351868 0.085423 -0.030216 405211.000000 0 0 1
7.609396 -23.717304 10.627519 27.080576 -1.260334 1.167513 0.094659 -0.022998 -104553.000000 0 0 1
6.772096 -23.884504 9.502919 26.582632 -1.294513 1.205222 0.080949 -0.027159 -62065.900000 0 0 1
5.706996 -24.773704 9.827919 27.256086 -1.344381 1.201910 0.081285 -0.025698 395599.000000 0 0 1
5.416896 -25.873354 8.756919 27.847026 -1.364415 1.250903 0.067108 -0.012376 -71540.100000 0 0 1
4.908896 -25.411224 7.528019 26.953639 -1.379969 1.287736 0.070876 -0.012551 -231267.000000 0 0 1
4.756996 -26.411484 6.527819 27.618978 -1.392596 1.332186 0.055058 -0.007137 -149532.000000 0 0 1
3.926496 -25.943434 5.289719 26.766776 -1.420588 1.371864 0.053117 -0.005695 1115830.000000 0 0 1
2.508296 -25.794314 5.445619 26.481937 -1.473859 1.363684 0.039497 -0.013570 750352.000000 0 0 1
1.810296 -27.053194 5.185519 27.605110 -1.503980 1.381827 0.034761 -0.011549 -979617.000000 0 0 1
0.319596 -26.842414 5.079419 27.320649 -1.558891 1.383790 0.049292 -0.018225 -1610970.000000 0 0 1
-0.082404 -26.469394 6.414919 27.235764 1.567683 1.333029 0.032228 -0.020108 -1130950.000000 0 0 1
-1.449704 -26.481864 6.639319 27.339922 1.516108 1.325500 0.014211 -0.022405 -450143.000000 0 0 1
-2.222104 -27.835254 6.534419 28.678176 1.491135 1.340924 0.017299 -0.017674 -784904.000000 0 0 1
-1.883204 -28.695014 7.603919 29.745082 1.505262 1.312291 0.018284 -0.018939 134335.000000 0 0 1
-2.610804 -29.898974 7.623119 30.965738 1.483696 1.322060 0.025497 -0.021145 -98154.900000 0 0 1
-2.245004 -30.501994 9.006219 31.882969 1.497327 1.284421 0.028122 -0.021140 -482832.000000 0 0 1
-0.964804 -31.005804 9.143519 32.340295 1.539689 1.284159 0.029795 -0.015083 -790892.000000 0 0 1
-0.738104 -31.104164 10.525319 32.845033 1.547071 1.244588 0.032766 -0.013517 1312550.000000 0 0 1
0.756496 -31.415544 10.980419 33.287811 -1.546721 1.234638 0.020660 -0.012445 1290180.000000 0 0 1
1.185196 -32.748944 10.938919 34.547909 -1.534622 1.248621 0.025883 -0.009443 532388.000000 0 0 1
2.596796 -32.883254 11.154719 34.820677 -1.491990 1.244700 0.035019 -0.006927 929514.000000 0 0 1
3.074096 -33.492414 12.518419 35.887361 -1.479268 1.214479 0.033302 -0.005434 -322302.000000 0 0 1
2.692696 -32.735154 13.624619 35.559404 -1.488724 1.177591 0.019264 -0.005013 144852.000000 0 0 1
3.307296 -33.253144 14.810319 36.552091 -1.471664 1.153616 0.024771 -0.001998 -476635.000000 0 0 1
3.067296 -32.315974 16.021019 36.199497 -1.476164 1.112327 0.025688 -0.001826 -19477.200000 0 0 1
3.531596 -30.997804 15.867119 35.001450 -1.457355 1.100301 0.024293 -0.006101 158243.000000 0 0 1
4.919696 -30.728724 15.963519 34.975590 -1.412043 1.096830 0.035570 0.002769 174949.000000 0 0 1
5.431496 -29.373894 15.324319 33.573227 -1.387953 1.096801 0.051566 0.000174 -80067.100000 0 0 1
5.528096 -29.333554 13.940419 32.944689 -1.384525 1.133881 0.046515 0.007538 581907.000000 0 0 1
4.281196 -29.450074 13.238019 32.571163 -1.426436 1.152249 0.030589 0.012603 339182.000000 0 0 1
4.567996 -29.340684 11.697319 31.915038 -1.416348 1.195536 0.031259 0.005373 301497.000000 0 0 1
5.021496 -30.533704 11.051119 32.858024 -1.407798 1.227780 0.031920 0.001879 388857.000000 0 0 1
6.401196 -30.832114 11.238919 33.435130 -1.366090 1.227980 0.034300 0.003908 4712.790000 0 0 1
6.749696 -32.142204 10.531519 34.490471 -1.363809 1.260495 0.018556 0.004728 -156873.000000 0 0 1
6.506896 -33.274284 11.368919 35.759894 -1.377680 1.247258 0.006644 0.001893 199428.000000 0 0 1
6.616096 34.045945 10.685919 36.291707 1.378860 1.271921 0.011249 -0.005379 -49556.500000 0 0 1
6.482496 32.725360 11.525219 35.295929 1.375240 1.238165 0.024938 -0.006666 543218.000000 0 0 1
5.201596 32.642555 12.147419 35.215803 1.412775 1.218619 0.018788 -0.004799 299058.000000 0 0 1
4.840396 31.281185 12.463919 34.018984 1.417276 1.195679 0.041143 -0.005229 451301.000000 0 0 1
3.570096 31.238625 13.372919 34.167708 1.457005 1.168654 0.037744 -0.011086 270522.000000 0 0 1
3.827996 31.490415 14.719919 34.971071 1.449829 1.136340 0.058544 -0.008248 -549364.000000 0 0 1
2.756196 31.365975 15.590419 35.135199 1.483149 1.111044 0.044014 -0.012222 -595650.000000 0 0 1
3.169596 31.536905 17.039019 35.985426 1.470628 1.077539 0.038127 -0.013932 64815.600000 0 0 1
3.564596 32.868698 17.432919 37.375986 1.462769 1.085557 0.041933 -0.010958 298539.000000 0 0 1
4.112096 32.845383 18.737619 38.037178 1.446249 1.055706 0.034780 -0.006099 241448.000000 0 0 1
4.543796 34.223281 19.365819 39.584265 1.438799 1.059589 0.040441 -0.004423 62822.800000 0 0 1
3.379796 -33.614644 19.707019 39.111813 -1.470588 1.042730 0.027451 -0.009556 -241360.000000 0 0 1
3.564896 -32.524044 20.579519 38.652795 -1.461624 1.009339 0.034817 -0.010820 -783326.000000 0 0 1
2.341296 -31.681504 20.799219 37.971133 -1.497029 0.991107 0.016353 -0.016825 -356395.000000 0 0 1
1.346796 -32.334764 21.574819 38.895034 -1.529169 0.982802 0.030476 -0.013849 276469.000000 0 0 1
0.241296 -31.512614 21.948919 38.403882 -1.563139 0.962429 0.022021 -0.018174 -384899.000000 0 0 1
-0.792504 -32.277524 22.730119 39.485757 1.546248 0.957393 0.021185 -0.011010 -1241920.000000 0 0 1
-1.481304 -33.146904 21.831719 39.718201 1.526137 0.988833 0.015118 -0.017509 -134197.000000 0 0 1
-2.280304 -34.101729 22.488919 40.913069 1.504028 0.988820 0.017503 -0.017165 -297683.000000 0 0 1
-3.607304 -33.637194 23.095919 40.962116 1.463963 0.971773 0.032666 -0.011949 -219402.000000 0 0 1
-4.542004 -33.226144 22.067919 40.144732 1.434939 0.988781 0.029515 -0.020506 1657720.000000 0 0 1
-5.793004 -32.693604 22.661419 40.199137 1.395426 0.971903 0.031958 -0.013803 1919140.000000 0 0 1
-6.861304 -32.365244 21.576219 39.498352 1.361893 0.992908 0.032206 -0.018647 172331.000000 0 0 1
-7.555904 -33.518694 21.105919 40.324365 1.349079 1.019956 0.027815 -0.015662 599678.000000 0 0 1
-8.682604 -33.059614 20.327419 39.768451 1.313962 1.034281 0.048572 -0.029456 445350.000000 0 0 1
-9.927604 -33.963224 20.383619 40.835645 1.286414 1.048164 0.059343 -0.026057 -131844.000000 0 0 1
-10.462604 -33.884774 21.699219 41.575235 1.271313 1.021688 0.083259 -0.026319 -548348.000000 0 0 1
-11.830804 -34.180570 21.525319 42.090601 1.237576 1.033978 0.077648 -0.024180 -38271.400000 0 0 1
-12.430704 34.037279 22.961119 42.898389 -1.220637 1.005999 0.081525 -0.018266 76892.400000 0 0 1
-12.359304 -33.507364 23.929519 42.989740 1.217425 0.980469 0.076923 -0.015828 -220559.000000 0 0 1
-11.098404 -33.474924 24.549019 42.969751 1.250657 0.962696 0.059625 -0.012788 -193843.000000 0 0 1
-10.968404 -32.230094 25.404519 42.479106 1.242775 0.929734 0.051683 -0.016053 -482055.000000 0 0 1
-11.797504 -32.155384 26.536919 43.328489 1.219154 0.911629 0.077356 -0.008173 207172.000000 0 0 1
-12.537304 -30.939404 26.603719 42.687101 1.185797 0.897935 0.075502 -0.015478 242554.000000 0 0 1
-13.441204 -30.669514 27.839319 43.546674 1.157749 0.877211 0.064408 -0.015679 -100169.000000 0 0 1
-12.852504 -30.309224 29.109819 43.945620 1.169734 0.846771 0.041897 -0.008016 4657.050000 0 0 1
-13.759004 -29.901964 30.129919 44.623421 1.139544 0.829555 0.047156 -0.008187 -233041.000000 0 0 1
-13.075304 -29.507644 31.475119 45.081568 1.153682 0.797942 0.025133 -0.005429 -119002.000000 0 0 1
-13.910504 -28.968284 32.503519 45.707137 1.123116 0.779698 0.028767 -0.005192 287007.000000 0 0 1
-13.206304 -28.622864 33.657219 46.113808 1.138511 0.752660 0.017561 -0.003131 -717165.000000 0 0 1
-12.674304 -29.728524 -33.968485 46.885830 1.167796 2.381096 0.027385 0.001860 -594816.000000 0 0 1
-11.416104 -30.176244 34.144819 46.976610 1.209123 0.757076 0.018140 0.003719 -572344.000000 0 0 1
-10.980404 -31.292014 -33.577785 47.193507 1.233319 2.362415 0.034574 0.008589 1925350.000000 0 0 1
-9.419204 -31.559924 -33.816585 47.204996 1.280758 2.369392 0.037589 0.002782 1818580.000000 0 0 1
-8.474504 -30.660394 -33.256385 46.020258 1.301130 2.378420 0.044611 -0.006561 496650.000000 0 0 1
-7.159504 -31.210934 -33.315185 46.209117 1.345307 2.375991 0.056833 -0.012994 886410.000000 0 0 1
-6.107504 -30.425174 -32.483685 44.924187 1.372691 2.379044 0.073790 -0.016361 183658.000000 0 0 1
-6.481004 -30.503174 -31.153485 44.079323 1.361440 2.355704 0.077744 -0.025794 40323.900000 0 0 1
-5.635504 -29.718624 -30.333085 42.837502 1.383393 2.357595 0.070521 -0.026031 112625.000000 0 0 1
-6.125404 -29.712574 -28.897185 41.897553 1.367489 2.331886 0.058958 -0.020034 -124375.000000 0 0 1
-6.105704 -30.971174 -28.325785 42.412773 1.376151 2.302126 0.054754 -0.020426 245694.000000 0 0 1
-6.761404 -30.989094 -27.033385 41.675466 1.355976 2.276624 0.068453 -0.025554 147306.000000 0 0 1
-6.595604 -32.288694 -26.269685 42.144491 1.369299 2.243783 0.064161 -0.031312 -410383.000000 0 0 1
-5.486904 -32.298234 -25.447385 41.483147 1.402520 2.231204 0.039261 -0.025399 -733689.000000 0 0 1
-5.374104 -33.529324 -24.783585 42.039537 1.411867 2.201274 0.040000 -0.035886 602924.000000 0 0 1
-4.385304 -33.413264 -23.527285 41.100003 1.440298 2.180275 0.048683 -0.038470 524426.000000 0 0 1
-4.916704 -32.960584 -22.295385 40.095614 1.422719 2.160429 0.049139 -0.034280 -149785.000000 0 0 1
-4.967104 -31.514854 -22.207285 38.871862 1.414471 2.178879 0.027746 -0.010608 -39689.900000 0 0 1
-5.523704 -31.080814 -20.803285 37.806150 1.394912 2.153474 0.046680 -0.013324 910513.000000 0 0 1
-6.960404 -31.010114 -20.717685 37.938066 1.350000 2.148489 0.065818 -0.021081 747560.000000 0 0 1
-7.436404 -29.744234 -20.345085 36.795952 1.325807 2.156657 0.068067 -0.020061 -159407.000000 0 0 1
-7.589404 -28.690234 -21.491685 36.641795 1.312191 2.197570 0.077598 -0.033423 -569876.000000 0 0 1
-6.365804 -28.334654 -22.069185 36.474992 1.349801 2.220625 0.071804 -0.016719 -367110.000000 0 0 1
-6.563004 -27.596524 -23.266085 36.687217 1.337314 2.257736 0.095405 -0.033013 -349922.000000 0 0 1
-5.485704 -27.973584 -24.317185 37.469185 1.377151 2.277054 0.087167 -0.024770 311892.000000 0 0 1
-4.198204 -27.431264 -24.260485 36.860145 1.418930 2.289191 0.086226 -0.019831 -204277.000000 0 0 1
-3.360504 -27.837504 -23.222285 36.407336 1.450659 2.262495 0.046487 -0.020029 -824615.000000 0 0 1
-1.885104 -27.392534 -23.337785 36.035493 1.502086 2.275271 0.051529 -0.026058 -81424.400000 0 0 1
-1.558504 -26.013504 -23.265185 34.934226 1.510957 2.299591 0.055048 -0.020488 6944.340000 0 0 1
-1.964704 -25.305814 -22.096885 33.652884 1.493313 2.287114 0.061026 -0.025290 -550002.000000 0 0 1
-2.008304 -23.741404 -22.355185 32.671729 1.486406 2.324352 0.056616 -0.018275 113953.000000 0 0 1
-2.765604 -23.265504 -23.458685 33.154821 1.452480 2.356821 0.058620 -0.025473 450203.000000 0 0 1
-4.171804 -23.263504 -23.216285 33.129903 1.393354 2.347266 0.072686 -0.023209 9191.150000 0 0 1
-4.977404 -23.360704 -24.505685 34.220252 1.360868 2.369019 0.067996 -0.024431 -333317.000000 0 0 1
-4.832304 -22.212904 -25.330485 34.035243 1.356589 2.410197 0.076905 -0.029263 -114840.000000 0 0 1
-5.477504 -22.480004 -26.509785 35.186963 1.331792 2.424011 0.077743 -0.031203 -204082.000000 0 0 1
-5.620304 -21.216504 -27.447585 35.143958 1.311842 2.467069 0.080957 -0.023828 6167.330000 0 0 1
-5.977204 -21.456704 -28.816485 36.421243 1.299114 2.483565 0.089328 -0.030740 316846.000000 0 0 1
-4.965404 -22.002904 -29.672385 37.272422 1.348844 2.491611 0.081548 -0.027401 523025.000000 0 0 1
-5.564304 -22.294604 -31.087185 38.657780 1.326212 2.505064 0.101099 -0.033177 168879.000000 0 0 1
-5.947804 -21.094404 -31.799885 38.621017 1.295970 2.538143 0.102582 -0.031889 515276.000000 0 0 1
-6.963104 -21.397904 -32.794185 39.772021 1.256193 2.540210 0.096860 -0.029026 698435.000000 0 0 1
-6.983204 -20.510004 -34.077985 40.382353 1.242629 2.575276 0.083682 -0.020821 201852.000000 0 0 1
-5.787204 -20.659704 33.702919 39.952495 1.297676 0.566891 0.090012 -0.014649 -480591.000000 0 0 1
-5.829504 -20.181404 32.405119 38.618182 1.289595 0.575141 0.085083 -0.009823 -809962.000000 0 0 1
-4.633704 -20.342404 31.525919 37.804341 1.346832 0.584617 0.068154 -0.007831 -2288540.000000 0 0 1
-4.572404 -21.720404 31.174119 38.268898 1.363314 0.618745 0.074592 -0.012239 816014.000000 0 0 1
-3.443904 -22.037604 30.315219 37.636804 1.415776 0.634333 0.069296 -0.011532 1709500.000000 0 0 1
-2.017004 -21.723404 30.902519 37.827772 1.478212 0.614734 0.048809 -0.014442 -665235.000000 0 0 1
-1.506404 -20.395104 30.803819 36.974381 1.497069 0.586085 0.042541 -0.018800 -358321.000000 0 0 1
-0.489904 -20.146404 31.735519 37.593361 1.546484 0.565765 0.046059 -0.016471 -423470.000000 0 0 1
-0.853404 -19.980704 33.228519 38.782617 1.528111 0.541786 0.041892 -0.017219 151288.000000 0 0 1
-1.807204 -18.930604 33.435219 38.464889 1.475620 0.517133 0.037679 -0.016671 79058.700000 0 0 1
-1.936504 -18.768404 -33.732085 38.650441 1.467981 2.631599 0.039227 -0.019289 225624.000000 0 0 1
-3.038904 -17.752104 -33.408685 37.954082 1.401254 2.647163 0.044964 -0.025594 258165.000000 0 0 1
-2.556004 -16.440304 -33.697385 37.580986 1.416559 2.682964 0.048946 -0.028627 277509.000000 0 0 1
-3.597504 -15.471604 -33.619285 37.182911 1.342333 2.700205 0.057246 -0.030050 206886.000000 0 0 1
-3.132204 -14.104004 -34.012185 36.953516 1.352264 2.739910 0.049567 -0.028964 -38496.700000 0 0 1
-2.224204 -13.528804 -33.057585 35.787980 1.407849 2.748441 0.047066 -0.024467 163090.000000 0 0 1
-2.178604 -12.091904 -33.155485 35.358827 1.392538 2.786707 0.038665 -0.019337 -118415.000000 0 0 1
-1.482904 -11.498104 34.130619 36.045868 1.442535 0.327448 0.034129 -0.019706 -136641.000000 0 0 1
-2.270404 -11.558204 32.912919 34.957218 1.376834 0.343683 0.037880 -0.016649 469119.000000 0 0 1
-1.571604 -10.994904 31.800319 33.684094 1.428819 0.336018 0.037621 -0.012851 -60656.700000 0 0 1
-0.776704 -12.103604 31.106619 33.387457 1.506713 0.371770 0.024328 -0.011703 200895.000000 0 0 1
-1.544004 -12.984204 30.247619 32.952875 1.452438 0.408027 0.032790 -0.019475 -30990.800000 0 0 1
-0.695504 -13.959304 29.741719 32.862072 1.521014 0.439306 0.033974 -0.025106 -227820.000000 0 0 1
-0.956604 -15.325304 30.417019 34.073085 1.508457 0.467496 0.036275 -0.027999 84891.300000 0 0 1
-2.128104 -15.834304 29.814419 33.825340 1.437199 0.491931 0.049579 -0.031804 21462.700000 0 0 1
-2.541404 -17.023304 30.435219 34.965043 1.422601 0.514687 0.048727 -0.023643 -223119.000000 0 0 1
-3.068704 -18.034004 29.430319 34.652359 1.402249 0.556135 0.049653 -0.014357 646662.000000 0 0 1
-4.244104 -17.548404 28.718319 33.921981 1.333502 0.561234 0.055744 -0.011648 948228.000000 0 0 1
-4.828204 -18.507904 27.802519 33.746617 1.315611 0.602607 0.048531 -0.003970 -423148.000000 0 0 1
-4.070304 -18.904704 26.574319 32.865631 1.358727 0.629071 0.039056 -0.014141 -844249.000000 0 0 1
-4.686704 -19.781104 25.631019 32.714010 1.338158 0.670538 0.063086 -0.011936 -492391.000000 0 0 1
-4.763804 -21.165104 25.985319 33.851031 1.349407 0.695650 0.046551 -0.016346 -148090.000000 0 0 1
-28.758204 -34.194894 -0.921181 44.689749 0.871545 1.591411 0.037711 -0.005880 -23093.400000 0 0 1
-28.393104 -32.931694 -0.425681 43.483860 0.859273 1.580586 0.047706 -0.003977 -62703.200000 0 0 1
-28.983454 -32.703794 0.837719 43.706756 0.845635 1.551628 0.023839 0.003373 -314862.000000 0 0 1
-28.739264 -31.333494 1.467619 42.542767 0.828556 1.536292 0.035147 -0.007847 49543.400000 0 0 1
-27.354614 -31.066194 1.376319 41.415910 0.848845 1.537559 0.036611 -0.015546 -294656.000000 0 0 1
-27.018484 -29.777894 1.852819 40.251142 0.833944 1.524749 0.044370 -0.016948 -614884.000000 0 0 1
-25.549494 -29.578494 2.132419 39.143469 0.858353 1.516292 0.067759 -0.013060 -818145.000000 0 0 1
-24.993004 -30.380694 3.127919 39.464170 0.882390 1.491453 0.045529 -0.010562 -561189.000000 0 0 1
-23.602404 -30.201094 3.147119 38.458860 0.907433 1.488874 0.052726 -0.007537 -426677.000000 0 0 1
-22.893604 -31.034094 4.222519 38.795126 0.935219 1.461739 0.036753 -0.015365 -351946.000000 0 0 1
-23.240804 -30.680894 5.524019 38.884020 0.922512 1.428250 0.019584 -0.003694 -228315.000000 0 0 1
-22.620304 -31.480894 6.493919 39.305163 0.947735 1.404817 0.005585 0.003001 -90574.500000 0 0 1
-23.015704 -31.037494 7.967119 39.452803 0.932728 1.367457 0.003474 0.023300 -52835.400000 0 0 1
-22.410704 -29.835094 8.441419 38.257418 0.926558 1.348318 0.016810 0.016472 45269.800000 0 0 1
-22.488904 -29.673494 9.818019 38.505332 0.922272 1.312971 -0.013349 0.013532 -174972.000000 0 0 1
-22.053504 -28.302094 10.380619 37.351343 0.908856 1.289170 0.004052 0.016667 -103272.000000 0 0 1
-20.714504 -28.238794 10.776119 36.642119 0.937908 1.272292 -0.004791 0.010975 -661494.000000 0 0 1
-20.633704 -27.175694 11.703719 36.072776 0.921388 1.240369 0.015469 0.010473 771835.000000 0 0 1
-19.248804 -27.099994 12.419819 35.484899 0.953199 1.213222 0.018944 0.008854 535329.000000 0 0 1
-19.187104 -28.111894 13.433719 36.590824 0.971894 1.194871 0.028642 0.016208 -369647.000000 0 0 1
-17.931404 -28.195794 14.052819 36.249411 1.004354 1.172693 0.039859 0.009119 -307455.000000 0 0 1
-17.804104 -29.372894 15.004319 37.481764 1.025874 1.158941 0.053379 -0.008711 -257884.000000 0 0 1
-17.720304 -30.661994 14.376119 38.220935 1.046767 1.185178 0.060403 -0.007297 -14377.200000 0 0 1
-17.482804 -31.647394 15.334619 39.272847 1.066093 1.169661 0.073915 -0.011200 86926.100000 0 0 1
-17.603304 -33.033994 14.797819 40.250423 1.081188 1.194322 0.057968 -0.015354 11753.000000 0 0 1
-17.425904 -33.878494 15.868019 41.269947 1.095723 1.176137 0.068869 -0.010785 125756.000000 0 0 1
-17.421304 33.382896 15.324019 40.653968 -1.089812 1.184308 0.052830 -0.013064 -172284.000000 0 0 1
-17.262804 32.216296 16.376919 40.051187 -1.078889 1.149548 0.057755 -0.015179 204552.000000 0 0 1
-18.444504 31.943296 17.118219 40.664570 -1.047150 1.136291 0.062208 -0.014506 411052.000000 0 0 1
-18.324504 30.831496 17.932319 40.099085 -1.034546 1.107164 0.044064 -0.005923 187378.000000 0 0 1
-19.211704 31.065496 19.194919 41.262568 -1.016938 1.086947 0.049074 -0.011969 782785.000000 0 0 1
-18.560004 31.958196 20.164319 42.099879 -1.044645 1.071322 0.058760 -0.010600 748900.000000 0 0 1
-19.476504 32.162396 21.229219 43.179088 -1.026293 1.056807 0.055462 -0.003498 398689.000000 0 0 1
-18.935104 33.249096 22.208819 44.241069 -1.053111 1.044892 0.049196 0.002881 61155.800000 0 0 1
-17.830404 32.903796 22.993719 43.923732 -1.074197 1.019852 0.043854 -0.008459 -430917.000000 0 0 1
-17.771904 33.637896 24.185519 45.080904 -1.084743 1.004522 0.038926 -0.010953 44592.800000 0 0 1
-18.525304 32.934696 25.377119 45.517900 -1.058418 0.979401 0.037127 -0.012323 -341588.000000 0 0 1
-19.895304 33.059196 25.178319 46.072566 -1.029048 0.992626 0.026997 -0.013111 -822177.000000 0 0 1
-20.696204 32.214096 26.000419 46.282854 -0.999741 0.974270 0.002469 -0.000625 497292.000000 0 0 1
-22.203304 32.400396 25.678419 46.927109 -0.970019 0.991783 0.002757 -0.005718 -2995.930000 0 0 1
-22.538104 31.967096 24.378219 46.088598 -0.956695 1.013442 0.000010 0.004202 -741612.000000 0 0 1
-23.862204 32.144296 24.036319 46.694809 -0.932212 1.030076 -0.013665 0.006821 -1053100.000000 0 0 1
-24.088904 31.854496 22.512519 45.845367 -0.923328 1.057498 -0.020957 0.002493 -108462.000000 0 0 1
-23.577504 32.856096 21.642019 45.867186 -0.948356 1.079419 -0.014047 -0.000227 211610.000000 0 0 1
-23.458804 32.344696 20.343119 44.836785 -0.943308 1.099867 -0.024014 0.014320 -83625.100000 0 0 1
-22.988904 33.500596 19.389319 45.019166 -0.969376 1.125539 -0.003305 0.006714 -379953.000000 0 0 1
-21.684004 33.953396 19.600919 44.802066 -1.002448 1.117979 0.029444 -0.000801 -525189.000000 0 0 1
-21.146304 -33.951294 18.505319 44.071571 1.013750 1.137470 0.046144 -0.001998 -712259.000000 0 0 1
-19.850404 -33.298394 18.934819 43.143354 1.033222 1.116443 0.064823 -0.015981 -700511.000000 0 0 1
-20.015404 -32.224394 19.857619 42.817672 1.014988 1.088549 0.059549 -0.018819 -501999.000000 0 0 1
-18.781004 -31.819394 20.326119 42.170500 1.037586 1.067862 0.060767 -0.033549 -1340720.000000 0 0 1
-18.897304 -30.657794 21.324619 41.853887 1.018409 1.036191 0.063781 -0.020305 -153731.000000 0 0 1
-19.351204 -29.430994 20.771019 40.891170 0.989159 1.037983 0.073704 -0.023533 213118.000000 0 0 1
-19.731504 -28.584494 21.828319 41.022934 0.966619 1.009717 0.070616 -0.016962 37167.100000 0 0 1
-20.744004 -27.460894 21.442219 40.548529 0.923847 1.013606 0.058160 -0.027240 -346148.000000 0 0 1
-20.139904 -26.281594 21.026519 39.223111 0.916937 1.005016 0.061462 -0.018616 376685.000000 0 0 1
-21.030904 -25.215094 20.679219 38.803737 0.875629 1.008751 0.057912 -0.003616 -31428.500000 0 0 1
-22.030704 -25.325094 19.498219 38.818718 0.854853 1.044552 0.048874 0.001806 933152.000000 0 0 1
-23.407904 -25.481194 19.886519 39.908581 0.827781 1.049157 0.046804 0.002410 833947.000000 0 0 1
-24.240504 -25.486394 18.740219 39.854161 0.810448 1.081256 0.040874 0.005720 124654.000000 0 0 1
-25.754974 -25.652694 19.072719 41.050554 0.783409 1.087596 0.027171 0.003326 503286.000000 0 0 1
-26.218204 -26.908894 19.566419 42.359504 0.798398 1.090645 0.008341 0.003369 -137052.000000 0 0 1
-26.084034 -27.939794 18.611519 42.513499 0.819735 1.117669 0.006863 0.000720 -734245.000000 0 0 1
-26.993874 -29.106594 19.008219 44.013355 0.823040 1.124227 0.017405 -0.012632 1108540.000000 0 0 1
-28.390524 -28.735394 19.131519 44.696306 0.791435 1.128481 0.010756 -0.012889 999050.000000 0 0 1
-29.147574 -29.283494 18.053219 45.089054 0.787724 1.158854 0.012164 -0.007211 461233.000000 0 0 1
-30.685714 -29.051394 18.139519 45.985201 0.758046 1.165312 0.019504 -0.006736 595032.000000 0 0 1
-30.999374 -27.739594 17.763519 45.232609 0.729959 1.167215 0.035587 -0.002084 -353143.000000 0 0 1
-32.345004 -27.365294 17.932319 46.006811 0.702193 1.170409 0.044271 0.017998 -239554.000000 0 0 1
-32.710944 -26.136194 17.141219 45.242987 0.674134 1.182221 0.064384 0.003603 -235230.000000 0 0 1
-32.797534 -26.354394 15.749319 44.925198 0.676901 1.212619 0.087907 -0.020664 69223.200000 0 0 1
-33.490124 -25.311694 15.116219 44.618050 0.647200 1.225164 0.096977 -0.021609 138808.000000 0 0 1
-32.657414 -24.003794 14.741319 43.127663 0.633844 1.221958 0.082541 -0.016610 564122.000000 0 0 1
-31.874214 -23.545294 15.850519 42.680035 0.636226 1.190301 0.069852 -0.012783 76679.300000 0 0 1
-31.632484 -22.123394 15.764519 41.696267 0.610315 1.183075 0.068860 -0.008487 343986.000000 0 0 1
-32.833304 -21.103594 15.906819 42.147532 0.571261 1.183801 0.084933 -0.014511 518439.000000 0 0 1
-33.195234 -20.863094 17.269919 42.842063 0.561110 1.155887 0.090096 -0.009690 597492.000000 0 0 1
-34.208722 -19.850794 17.367619 43.196353 0.525797 1.157028 0.107186 -0.019798 211063.000000 0 0 1
-34.609575 -19.478994 18.773519 43.928338 0.512633 1.129218 0.080371 -0.006298 -377266.000000 0 0 1
-35.649327 -20.325494 19.216019 45.312864 0.518182 1.132857 0.077079 0.003445 731.508000 0 0 1
-36.027927 -19.721694 20.434319 45.875028 0.500845 1.109137 0.070560 0.009024 215019.000000 0 0 1
35.079206 -20.190994 20.950619 45.575821 -0.522272 1.093153 0.061552 0.017860 373696.000000 0 0 1
34.924716 -21.491994 21.451719 46.279778 -0.551652 1.088830 0.050529 0.005541 271192.000000 0 0 1
35.631606 -21.781694 22.686619 47.526164 -0.548689 1.073160 0.042141 0.016348 53941.700000 0 0 1
35.282186 -23.185194 23.154119 48.150796 -0.581375 1.069153 0.033472 0.019066 415180.000000 0 0 1
34.105916 -23.215894 23.953219 47.706897 -0.597655 1.044781 0.040661 0.006136 312125.000000 0 0 1
33.585836 -24.482094 24.248619 48.118363 -0.629887 1.042646 0.041766 -0.005364 25210.100000 0 0 1
32.751326 -24.407094 25.580119 48.194379 -0.640438 1.011288 0.052030 -0.006227 -478173.000000 0 0 1
31.501226 -23.846194 25.404519 46.971884 -0.647961 0.999355 0.062738 -0.005294 -889006.000000 0 0 1
30.806056 -23.814894 26.658819 47.189564 -0.658096 0.970447 0.052106 -0.006633 276846.000000 0 0 1
29.393296 -24.457494 26.654519 46.611139 -0.693997 0.962039 0.045527 -0.005138 -103234.000000 0 0 1
28.490336 -23.712594 25.887719 45.212392 -0.694130 0.961147 0.053175 -0.013016 -1257080.000000 0 0 1
27.271626 -24.359594 25.818819 44.763187 -0.729057 0.956006 0.046191 -0.002268 213912.000000 0 0 1
26.132526 -23.471994 25.110919 43.178718 -0.731815 0.950154 0.036295 -0.007636 713126.000000 0 0 1
26.103826 -23.265794 23.693119 42.238263 -0.727976 0.975276 0.032635 -0.006027 -498273.000000 0 0 1
27.120426 -22.408194 23.253419 42.170679 -0.690542 0.986740 0.037051 -0.003980 -208227.000000 0 0 1
26.988526 -21.808694 21.866119 41.013740 -0.679644 1.008487 0.037300 -0.002928 463118.000000 0 0 1
25.958426 -20.812994 21.831219 39.794758 -0.675826 0.990113 0.024956 -0.000184 376891.000000 0 0 1
26.106826 -20.082494 20.610619 38.854480 -0.655703 1.011657 0.013862 0.001381 313509.000000 0 0 1
25.259226 -18.756194 20.541319 37.573516 -0.638715 0.992382 0.018878 0.006948 255589.000000 0 0 1
25.762026 -17.698894 21.388519 37.873495 -0.601958 0.970683 0.013720 0.003965 146735.000000 0 0 1
25.769926 -17.923794 22.772719 38.780772 -0.607721 0.943180 0.008291 0.002502 -274681.000000 0 0 1
25.912726 -16.578794 23.536719 38.733745 -0.569167 0.917693 0.018480 0.002416 -302320.000000 0 0 1
24.802926 -15.717394 23.507919 37.614411 -0.564825 0.895702 0.026652 0.003910 -287874.000000 0 0 1
25.000926 -14.516694 24.220119 37.714651 -0.526067 0.873439 0.035579 0.005248 -130914.000000 0 0 1
23.824826 -13.599194 23.838819 36.343497 -0.518672 0.855381 0.041218 0.005796 470010.000000 0 0 1
22.618826 -14.070194 24.399919 36.123922 -0.556480 0.829221 0.046769 0.005701 -106586.000000 0 0 1
21.497126 -13.219694 24.328219 35.053516 -0.551341 0.803724 0.043164 0.002269 373798.000000 0 0 1
20.220126 -13.835594 24.964219 34.978414 -0.600076 0.776025 0.053018 0.005153 199547.000000 0 0 1
19.860026 -14.947694 24.128819 34.641797 -0.645196 0.800256 0.055325 0.001060 -399517.000000 0 0 1
18.570126 -15.360994 24.471119 34.345967 -0.691101 0.777757 0.062226 -0.006191 -517986.000000 0 0 1
17.903826 -16.484494 23.650619 33.935783 -0.744148 0.799699 0.071971 -0.008421 -84065.800000 0 0 1
18.284826 -17.792094 23.886319 34.949245 -0.771741 0.818308 0.061232 -0.005406 -212347.000000 0 0 1
17.594726 -18.616294 22.991319 34.420075 -0.813602 0.839329 0.063344 -0.005899 -87690.200000 0 0 1
18.005726 -20.086994 23.076119 35.499307 -0.839981 0.863154 0.041215 -0.005883 -184491.000000 0 0 1
17.720826 -20.621294 24.308419 36.471423 -0.860901 0.841284 0.045157 -0.012101 78325.300000 0 0 1
18.101826 -21.992794 24.524619 37.587446 -0.882140 0.859959 0.043176 -0.014404 -245818.000000 0 0 1
17.546826 -23.112094 23.623819 37.418509 -0.921430 0.887516 0.037959 -0.009885 23727.600000 0 0 1
18.232926 -23.298394 22.397719 37.106773 -0.906766 0.922785 0.042713 -0.004199 62670.500000 0 0 1
19.388326 -24.122994 22.579519 38.310061 -0.893786 0.940494 0.042076 -0.010184 855257.000000 0 0 1
20.329026 -24.174194 21.283919 38.087612 -0.871586 0.977840 0.041943 -0.008234 666489.000000 0 0 1
19.660826 -24.682394 20.123619 37.426311 -0.898161 1.003106 0.055210 -0.013988 -116503.000000 0 0 1
20.601726 -25.157794 19.209219 37.766915 -0.884637 1.037209 0.047598 -0.014239 -40890.100000 0 0 1
20.021626 -26.118794 18.133519 37.575011 -0.916781 1.067181 0.048063 -0.018719 77789.700000 0 0 1
19.476426 -27.314694 18.593219 38.355332 -0.951373 1.064705 0.062894 -0.029992 137816.000000 0 0 1
18.627626 -27.874094 17.582419 37.856242 -0.981679 1.087780 0.071229 -0.031145 165255.000000 0 0 1
17.763226 -29.077894 17.970819 38.522805 -1.022412 1.085469 0.069222 -0.022669 -16228.900000 0 0 1
16.750326 -28.715294 18.884719 38.233155 -1.042729 1.054186 0.078712 -0.026221 -291152.000000 0 0 1
16.016426 -29.837594 19.264819 38.960765 -1.078154 1.053575 0.091576 -0.025303 728878.000000 0 0 1
14.640026 -29.536694 19.989719 38.553023 -1.110630 1.025701 0.080445 -0.018776 717416.000000 0 0 1
13.654726 -28.984794 19.176719 37.340546 -1.130535 1.031464 0.086409 -0.020521 -516082.000000 0 0 1
12.563726 -28.531894 19.939419 37.006711 -1.156005 1.001778 0.050178 -0.015848 228506.000000 0 0 1
11.376726 -27.922894 19.149919 35.718865 -1.183898 1.004952 0.056454 -0.017627 244026.000000 0 0 1
10.714026 -28.818694 18.280719 35.769990 -1.214857 1.034375 0.057887 -0.017729 89657.000000 0 0 1
10.139826 -28.197694 17.150019 34.526065 -1.225597 1.050973 0.073550 -0.012508 22237.600000 0 0 1
10.021826 -29.101594 15.914619 34.649890 -1.239142 1.093592 0.060578 -0.009809 -74751.100000 0 0 1
9.220226 -30.235494 16.047019 35.450028 -1.274807 1.101043 0.051086 -0.008203 -17112.300000 0 0 1
9.531026 -31.093994 14.929619 35.785059 -1.273366 1.140431 0.040862 -0.001085 -68886.500000 0 0 1
8.413126 -32.060194 14.484319 36.172258 -1.314166 1.158814 0.032964 0.002467 -223797.000000 0 0 1
8.121326 -33.124794 15.336219 37.395288 -1.330365 1.148221 0.033602 -0.001516 -77444.000000 0 0 1
7.222926 -34.045294 14.767219 37.806395 -1.361740 1.169512 0.012402 -0.006046 -82862.500000 0 0 1
7.066526 33.372896 15.720319 37.560809 1.362134 1.138970 0.041362 -0.009910 792096.000000 0 0 1
8.209426 32.488896 15.733419 37.019772 1.323293 1.131834 0.027234 -0.004937 509256.000000 0 0 1
8.136526 31.535896 16.801619 36.647103 1.318295 1.094523 0.044292 -0.012640 307979.000000 0 0 1
9.473326 30.752996 16.987419 36.387677 1.271975 1.085076 0.021088 -0.016314 173746.000000 0 0 1
9.895026 29.895796 15.919519 35.285992 1.251162 1.102735 0.038209 -0.015877 151210.000000 0 0 1
11.014026 29.106596 16.317319 35.139118 1.209045 1.087881 0.033263 -0.014139 -71583.600000 0 0 1
11.877926 28.616196 15.156719 34.491998 1.177360 1.115836 0.033127 -0.012837 -475755.000000 0 0 1
11.270526 27.744396 14.288619 33.180429 1.184933 1.125601 0.039773 -0.015196 -842867.000000 0 0 1
12.140926 27.328096 13.326119 32.738545 1.152722 1.151578 0.055955 -0.010320 -531374.000000 0 0 1
-9.457604 -9.159504 18.991823 23.109136 0.769387 0.606177 0.053013 -0.024054 -43060.200000 0 1 0
-9.633804 -9.299404 17.615923 22.127129 0.767738 0.649935 0.046345 -0.026427 -25332.300000 0 1 0
-9.246204 -10.564704 17.147123 22.161433 0.851854 0.686077 0.038172 -0.034182 130293.000000 0 1 0
-9.716404 -10.807104 15.643123 21.352033 0.838492 0.748619 0.044858 -0.032901 767707.000000 0 1 0
-11.133404 -10.673604 15.441323 21.824596 0.764316 0.784815 0.045383 -0.028905 747706.000000 0 1 0
-11.638704 -11.157204 14.233123 21.506381 0.764279 0.847567 0.052884 -0.031869 -69898.800000 0 1 0
-11.708504 -12.716704 14.034723 22.266053 0.826652 0.888832 0.037633 -0.031354 195954.000000 0 1 0
-10.460104 -13.345604 13.692023 21.794275 0.906020 0.891508 0.042399 -0.026043 826435.000000 0 1 0
-10.601704 -14.746204 13.697323 22.747821 0.947469 0.924620 0.059925 -0.029930 -37301.400000 0 1 0
-10.121304 -15.426804 14.997023 23.776833 0.990155 0.888289 0.061244 -0.035397 -423381.000000 0 1 0
-10.901704 -15.091404 16.084723 24.603170 0.945209 0.858245 0.054195 -0.020866 -421713.000000 0 1 0
-10.323404 -15.357704 17.387923 25.392354 0.978975 0.816508 0.051688 -0.020534 -113823.000000 0 0 1
-11.408804 -15.151104 18.480023 26.480711 0.925377 0.798381 0.032074 -0.008701 48579.700000 0 0 1
-11.730904 -13.741004 18.610323 25.937877 0.864149 0.770595 0.031999 -0.014953 786082.000000 0 0 1
-12.822304 -13.377904 17.711523 25.633530 0.806601 0.807992 0.034507 -0.024217 449233.000000 0 0 1
-14.215504 -13.445504 18.364423 26.834943 0.757568 0.817088 0.010810 -0.009608 -176345.000000 0 0 1
-14.656304 -14.773504 18.670123 27.957775 0.789381 0.839551 0.014444 -0.000955 239834.000000 0 0 1
-15.770204 -14.778404 19.572123 29.157651 0.752943 0.834900 0.018812 0.001171 421001.000000 0 0 1
-16.257304 -16.200304 19.959623 30.416054 0.783642 0.854998 0.022877 0.000082 -206627.000000 0 0 1
-17.180204 -16.755504 19.066823 30.650450 0.772884 0.899409 0.018064 0.002481 -284115.000000 0 0 1
-17.546604 -18.070104 19.490323 31.847836 0.800095 0.912231 0.011762 -0.005666 464246.000000 0 0 1
-18.831304 -18.633304 18.767323 32.465835 0.780113 0.954442 0.024166 -0.002383 266718.000000 0 0 1
-18.873304 -18.791604 17.357123 31.789868 0.783229 0.993219 0.031418 -0.005200 -37743.900000 0 0 1
-18.999904 -17.603204 16.695223 30.815575 0.747259 0.998244 0.032763 -0.009611 -674914.000000 0 0 1
-18.921804 -17.642004 15.169823 29.989974 0.750411 1.040453 0.033058 -0.015914 -14088.700000 0 0 1
-20.023604 -18.300104 14.559023 30.786421 0.740456 1.078213 0.038228 -0.017904 130191.000000 0 0 1
-19.830404 -18.304704 13.152023 30.021373 0.745412 1.117325 0.049776 -0.017393 51669.700000 0 0 1
-19.874004 -19.740704 12.482423 30.667285 0.782033 1.151599 0.037149 -0.012647 428000.000000 0 0 1
-18.759504 -20.583204 12.831323 30.663173 0.831719 1.139047 0.040694 -0.002437 653262.000000 0 0 1
-18.913804 -21.813904 12.191223 31.340139 0.856485 1.171254 0.029131 -0.002809 261334.000000 0 0 1
-17.791704 -22.856704 12.655223 31.608992 0.909364 1.158878 0.032909 -0.005776 587432.000000 0 0 1
-17.688004 -24.132204 12.040923 32.252327 0.938289 1.188195 0.033030 -0.003183 -89172.300000 0 0 1
-16.870804 -24.088404 10.902923 31.364773 0.959822 1.215768 0.039664 -0.006673 -463252.000000 0 0 1
-17.005604 -25.268894 9.901023 32.027143 0.978432 1.256503 0.042206 -0.003600 238619.000000 0 0 1
-18.293904 -25.287064 9.280223 32.561098 0.944505 1.281780 0.024929 0.000252 254341.000000 0 0 1
-18.321504 -26.326534 8.319323 33.135707 0.962805 1.317013 0.038213 -0.001507 170234.000000 0 0 1
-19.612204 -26.268634 7.479023 33.624626 0.929474 1.346493 0.035702 -0.005935 200485.000000 0 0 1
-19.687804 -25.014704 6.819223 32.555289 0.904002 1.359768 0.048632 -0.016432 -1388760.000000 0 0 1
-20.813204 -24.923604 6.066723 33.033024 0.875028 1.386092 0.061065 -0.016392 -1095450.000000 0 0 1
-20.775604 -23.740204 5.039123 31.947078 0.851897 1.412401 0.069144 -0.014251 -97084.200000 0 0 1
-21.467304 -23.876504 3.821123 32.334712 0.838480 1.452345 0.076191 -0.021272 -154596.000000 0 0 1
-21.525304 -22.624304 3.141923 31.385818 0.810286 1.470522 0.063521 -0.013170 -188699.000000 0 0 1
-22.192504 -22.741604 1.790923 31.826015 0.797618 1.514494 0.065678 -0.005139 -161826.000000 0 0 1
-21.495904 -23.595904 0.906823 31.932161 0.831936 1.542394 0.074904 -0.015124 124057.000000 0 0 1
-21.842504 -23.391304 -0.465077 32.007255 0.819625 1.585327 0.057587 -0.004459 -291645.000000 0 0 1
-21.046704 -24.309004 -1.426577 32.185813 0.857202 1.615134 0.060369 0.000130 312591.000000 0 0 1
-19.719704 -23.779104 -1.614177 30.934093 0.878451 1.623001 0.057447 0.003511 602921.000000 0 0 1
-19.017304 -24.257104 -2.733977 30.944137 0.905895 1.659264 0.049406 0.005895 81936.700000 0 0 1
-18.598504 -25.733924 -2.814477 31.875704 0.944982 1.659207 0.062996 -0.005095 -16780.900000 0 0 1
-19.654304 -26.638344 -3.228577 33.261340 0.935136 1.668016 0.100884 -0.015156 270224.000000 0 0 1
-19.216004 -27.947524 -3.583577 34.105146 0.968458 1.676065 0.099347 -0.014356 -633828.000000 0 0 1
-20.281204 -28.883174 -4.146777 35.535345 0.958608 1.687757 0.110203 -0.024098 -131696.000000 0 0 1
-20.735804 -28.586984 -5.453777 35.734198 0.943253 1.724016 0.091600 -0.012078 -542022.000000 0 0 1
-21.725204 -29.429994 -5.936277 37.058716 0.934890 1.731675 0.097375 -0.037392 -413925.000000 0 0 1
-22.369604 -28.814314 -7.213577 37.184669 0.910652 1.766027 0.068789 -0.001449 -122286.000000 0 0 1
-21.546704 -28.849994 -8.358677 36.965526 0.929312 1.798890 0.095894 -0.002243 201230.000000 0 0 1
-22.272904 -28.809454 -9.592477 37.657437 0.912668 1.828365 0.097963 -0.001629 154151.000000 0 0 1
-23.108904 -27.574684 -9.990677 37.338965 0.873282 1.841663 0.066010 0.003285 -163689.000000 0 0 1
-22.441704 -26.369204 -10.368877 36.145244 0.865689 1.861751 0.057095 0.006977 -19266.800000 0 0 1
-21.853904 -25.642964 -9.336677 34.961812 0.865005 1.841131 0.037611 0.013710 -125955.000000 0 0 1
-21.377804 -24.254804 -9.816477 33.788597 0.848362 1.865573 0.015720 0.013004 707942.000000 0 0 1
-22.439704 -23.298604 -10.098677 33.887292 0.804175 1.873401 0.010207 0.014053 844890.000000 0 0 1
-21.944704 -22.095604 -10.603677 32.897169 0.788825 1.898984 0.011047 0.014737 -855254.000000 0 0 1
-23.058204 -21.124804 -10.712277 33.055877 0.741667 1.900820 0.012041 0.013631 -985026.000000 0 0 1
-23.754204 -21.289904 -11.926377 34.055260 0.730744 1.928588 0.008343 0.016846 1049190.000000 0 0 1
-25.027704 -20.611904 -12.069377 34.596335 0.688945 1.927154 0.015860 0.006519 950653.000000 0 0 1
-24.988404 -19.042004 -12.086877 33.661712 0.651158 1.938066 0.024555 -0.008416 -840807.000000 0 0 1
-24.389204 -18.456304 -13.272577 33.341112 0.647801 1.980224 0.035558 -0.006025 541613.000000 0 0 1
-24.182304 -17.069704 -13.194977 32.407808 0.614659 1.990133 0.032070 -0.014454 99425.500000 0 0 1
-23.224004 -16.531904 -12.097077 30.967685 0.618632 1.972118 0.016938 -0.012059 -733525.000000 0 0 1
-23.852904 -16.572604 -10.849877 31.005356 0.607216 1.928299 0.046187 -0.012541 308672.000000 0 0 1
-22.942604 -16.525104 -9.779177 29.917795 0.624208 1.903784 0.039185 -0.013740 121272.000000 0 0 1
-23.721904 -16.860404 -8.472077 30.311352 0.617906 1.854071 0.029032 -0.011774 305717.000000 0 0 1
-24.095204 -18.201004 -8.410777 31.346397 0.646935 1.842442 0.024233 -0.001171 461022.000000 0 0 1
-25.249084 -18.380204 -7.583377 32.138073 0.629243 1.809005 0.029242 0.005246 561004.000000 0 0 1
-25.342404 -19.861104 -7.281677 33.010964 0.664729 1.793209 0.029995 0.013861 40545.400000 0 0 1
-25.694534 -20.673604 -8.391277 34.029701 0.677534 1.819953 0.024577 0.000105 -13507.500000 0 0 1
-25.920314 -21.969604 -7.883377 34.880852 0.703089 1.798775 0.037097 0.006471 183365.000000 0 0 1
-25.802394 -23.056104 -9.012577 35.757154 0.729248 1.825594 0.021311 0.014681 192554.000000 0 0 1
-26.196604 -24.308604 -8.438477 36.720270 0.748033 1.802673 0.039980 0.020923 -277427.000000 0 0 1
-26.057424 -25.382314 -9.356277 37.560500 0.772275 1.822546 0.034034 0.023974 63129.300000 0 0 1
-26.674024 -26.716764 -8.896277 38.787018 0.786199 1.802219 0.045120 0.001931 -25998.800000 0 0 1
-26.117514 -27.152624 -7.664277 38.446465 0.804827 1.771490 0.073054 -0.007951 262966.000000 0 0 1
-26.779794 -28.339924 -7.226577 39.655165 0.813695 1.754056 0.069656 -0.014571 157828.000000 0 0 1
-26.356994 -28.702404 -5.789677 39.395933 0.827970 1.718292 0.086979 -0.022194 -119476.000000 0 0 1
-27.102144 -28.082774 -4.748677 39.315625 0.803166 1.691875 0.064634 -0.015948 165629.000000 0 0 1
-26.475034 -28.087124 -3.445277 38.751567 0.814936 1.659821 0.072204 -0.022943 178886.000000 0 0 1
-26.675924 -29.425824 -2.662877 39.806720 0.834375 1.637741 0.072577 -0.017375 -153568.000000 0 0 1
-26.055124 -30.537444 -3.269377 40.275226 0.864437 1.652062 0.110892 -0.029656 -95532.300000 0 0 1
-26.194014 -31.637614 -2.398477 41.143866 0.879250 1.629124 0.098220 -0.032340 -97576.100000 0 0 1
-25.158944 -31.734834 -1.257277 40.517316 0.900469 1.601832 0.104893 -0.042859 -173836.000000 0 0 1
-23.834604 -31.777514 -1.734477 39.760624 0.927266 1.614433 0.113743 -0.049102 -490512.000000 0 0 1
-22.850604 -31.987454 -0.762677 39.318304 0.950497 1.590195 0.102764 -0.034994 158380.000000 0 0 1
-21.781104 -30.895504 -0.637077 37.806806 0.956727 1.587648 0.103343 -0.034269 243981.000000 0 0 1
-22.357004 -29.605124 -0.233277 37.099238 0.923992 1.577084 0.099931 -0.032596 211002.000000 0 0 1
-22.769204 -28.836404 -1.344277 36.766587 0.902430 1.607367 0.118872 -0.038291 -188091.000000 0 0 1
-23.312804 -27.492664 -0.890077 36.057255 0.867485 1.595484 0.085323 -0.023018 435132.000000 0 0 1
-24.622404 -27.530714 -0.316877 36.936478 0.841105 1.579375 0.087833 -0.025961 511515.000000 0 0 1
-25.158764 -26.281704 0.129523 36.382801 0.807225 1.567236 0.085653 -0.026615 140866.000000 0 0 1
-24.515104 -25.776444 1.415823 35.600842 0.810473 1.531016 0.083639 -0.016704 -318465.000000 0 0 1
-24.932704 -26.366394 2.633023 36.383503 0.813339 1.498364 0.063753 -0.015091 -200523.000000 0 0 1
-24.565504 -25.535334 3.749823 35.631145 0.804753 1.465361 0.065749 -0.018031 88462.100000 0 0 1
-25.479094 -24.336404 4.156123 35.478418 0.762464 1.453382 0.071674 -0.020443 -29987.500000 0 0 1
-25.583184 -23.366804 3.153023 34.791499 0.740151 1.480046 0.062496 -0.023075 -616864.000000 0 0 1
-26.444754 -22.366404 3.520823 34.813464 0.702038 1.469489 0.049775 -0.016707 -612157.000000 0 0 1
-26.591694 -21.263704 2.498323 34.139492 0.674520 1.497551 0.046595 -0.012438 556962.000000 0 0 1
-25.516354 -20.302804 2.429123 32.698453 0.672100 1.496439 0.063032 -0.011415 272048.000000 0 0 1
-25.591114 -19.292004 1.430723 32.080111 0.645964 1.526183 0.051557 -0.013613 677426.000000 0 0 1
-24.299104 -18.378404 1.494223 30.503195 0.647547 1.521791 0.061619 -0.011762 506693.000000 0 0 1
-23.139704 -19.116204 1.204223 30.038730 0.690467 1.530697 0.062833 -0.013007 -245216.000000 0 0 1
-22.017204 -18.249504 1.419123 28.632422 0.692101 1.521213 0.068103 -0.010900 389025.000000 0 0 1
-20.712904 -19.083804 1.442723 28.201018 0.744485 1.519615 0.065237 -0.012219 123173.000000 0 0 1
-20.244204 -19.621304 0.169423 28.193121 0.769774 1.564787 0.025400 -0.005568 -79168.400000 0 0 1
-18.990304 -20.229904 0.332723 27.748719 0.816994 1.558805 0.042320 0.000319 -57599.800000 0 0 1
-18.470404 -20.828304 -1.018177 27.856970 0.845326 1.607355 0.047423 0.001374 562557.000000 0 0 1
-17.764104 -19.988504 -1.981577 26.814741 0.844251 1.644763 0.033247 -0.005138 265189.000000 0 0 1
-17.809004 -20.559904 -3.236277 27.392404 0.856972 1.689218 0.042485 0.007129 17934.300000 0 0 1
-17.189204 -19.658704 -4.283777 26.462882 0.852317 1.733390 0.054351 0.010925 -327556.000000 0 0 1
-15.839404 -19.328304 -4.134677 25.329146 0.884282 1.734768 0.077359 -0.004991 -356969.000000 0 0 1
-15.379904 -18.667104 -5.328577 24.766832 0.881649 1.787641 0.089491 0.000450 197880.000000 0 1 0
-13.865104 -18.334304 -5.308377 23.591666 0.923315 1.797750 0.100793 -0.013796 189432.000000 0 1 0
-13.062304 -19.486304 -5.492077 24.093625 0.980260 1.800765 0.080591 -0.012566 1258840.000000 0 1 0
-11.708304 -19.098104 -5.890177 23.162818 1.020828 1.827914 0.074957 -0.023671 1889140.000000 0 1 0
-10.702304 -20.307304 -5.945277 23.712280 1.085769 1.824226 0.075908 -0.026333 402659.000000 0 1 0
-10.925904 -21.148604 -7.065077 24.830509 1.093937 1.859315 0.072628 -0.019985 -120878.000000 0 1 0
-9.804704 -21.924404 -7.440077 25.142921 1.150269 1.871206 0.072048 -0.012878 2479.300000 0 0 1
-10.145904 -23.065804 -8.405477 26.563560 1.156400 1.892759 0.067811 -0.003466 48011.600000 0 0 1
-10.813204 -22.589004 -9.551277 26.803272 1.124339 1.935152 0.056253 -0.011961 -95873.100000 0 0 1
-11.006404 -23.577304 -10.482077 28.051812 1.134042 1.953757 0.061184 -0.009568 -196978.000000 0 0 1
-11.597104 -23.100204 -11.794777 28.411776 1.105522 1.998890 0.076776 -0.011249 -639310.000000 0 0 1
-10.848304 -22.350204 -12.672577 27.889273 1.118914 2.042482 0.058044 -0.008787 -665463.000000 0 0 1
-11.646204 -21.932304 -13.744177 28.382432 1.082652 2.076301 0.064219 -0.009970 -378410.000000 0 0 1
-10.956504 -20.840204 -14.553677 27.679751 1.086770 2.124437 0.059054 -0.004054 -114717.000000 0 0 1
-10.882604 -19.684204 -13.721877 26.347464 1.065760 2.118589 0.063286 -0.006492 -102966.000000 0 0 1
-10.545704 -18.510804 -14.424377 25.727891 1.052950 2.165969 0.051179 0.010953 -225683.000000 0 0 1
-10.305404 -17.403504 -13.443277 24.285901 1.036172 2.157408 0.055129 -0.002491 -540414.000000 0 1 0
-11.459304 -16.855004 -12.826877 24.081852 0.973705 2.132509 0.072819 -0.010676 -98788.200000 0 1 0
-11.246704 -15.951704 -11.741677 22.777449 0.956691 2.112382 0.076145 -0.016257 231048.000000 0 1 0
-10.723304 -14.492104 -12.129577 21.728713 0.933764 2.163045 0.067696 -0.006877 927285.000000 0 1 0
-11.770404 -13.667204 -12.697977 22.058411 0.859827 2.184198 0.055837 -0.002051 670766.000000 0 1 0
-11.908004 -13.732704 -14.088577 22.997298 0.856443 2.230166 0.061151 0.000994 -431652.000000 0 1 0
-13.201304 -13.058104 -14.516477 23.569400 0.779945 2.234329 0.067957 -0.002051 -552108.000000 0 1 0
-13.152204 -11.679004 -14.217177 22.616537 0.726139 2.250572 0.045638 -0.004032 -449103.000000 0 1 0
-14.229004 -10.946104 -14.721177 23.216262 0.655727 2.257626 0.036161 -0.013611 -546127.000000 0 1 0
-14.434404 -9.483704 -14.239577 22.384330 0.581295 2.260282 0.036930 -0.018953 430061.000000 0 1 0
-13.429504 -8.516304 -14.595677 21.585013 0.565151 2.313382 0.039553 -0.011906 539764.000000 0 1 0
-13.429804 -8.188204 -15.977277 22.420520 0.547524 2.364020 0.038752 0.007228 369130.000000 0 1 0
-12.212904 -7.231804 -16.218877 21.552401 0.534623 2.422695 0.030884 0.016166 306905.000000 0 1 0
-10.973204 -7.765904 -15.855177 20.787186 0.615885 2.438333 0.026542 0.003789 -67358.300000 0 1 0
-9.921104 -6.792804 -15.914877 19.946273 0.600371 2.494579 0.018071 0.013670 728969.000000 0 1 0
11.128396 22.235596 16.254023 29.706164 1.106767 0.991829 0.062604 -0.006322 -623846.000000 0 0 1
12.065996 22.230696 17.301123 30.645080 1.073526 0.970891 0.076250 -0.025079 -83378.000000 0 0 1
12.623196 20.934896 17.513823 30.072395 1.028193 0.949132 0.066551 -0.015815 100281.000000 0 0 1
13.780996 20.967896 18.544023 31.200149 0.989346 0.934331 0.074718 -0.029377 226327.000000 0 0 1
14.939196 21.665496 18.132823 31.958920 0.967126 0.967477 0.060983 -0.024821 -144444.000000 0 0 1
16.060696 21.195396 18.827123 32.582991 0.922357 0.954740 0.067051 -0.022033 153879.000000 0 0 1
17.446896 21.575496 18.242023 33.206439 0.890807 0.989208 0.059576 -0.012822 -152961.000000 0 0 1
17.833996 22.940496 18.494923 34.443866 0.909987 1.003969 0.062497 -0.014255 -240429.000000 0 0 1
19.077096 23.304196 17.963723 35.067313 0.884809 1.032977 0.055651 -0.011251 859375.000000 0 0 1
20.416996 22.903996 18.702223 35.933548 0.842744 1.023399 0.053547 -0.010844 631272.000000 0 0 1
20.488796 21.499896 18.722523 35.107964 0.809474 1.008318 0.048309 0.000277 1555630.000000 0 0 1
21.842896 21.013196 19.036823 35.791998 0.766040 1.009985 0.066516 -0.005011 1429730.000000 0 0 1
22.126496 19.510296 18.848223 35.006985 0.722647 1.002243 0.058589 -0.008607 -512199.000000 0 0 1
22.384896 19.221596 17.508123 34.308711 0.709515 1.035250 0.029655 -0.011839 -38413.900000 0 0 1
22.058496 17.925396 17.116923 33.179604 0.682395 1.028754 0.022853 -0.007333 -209327.000000 0 0 1
22.911096 16.724396 17.593623 33.379025 0.630558 1.015628 0.031602 -0.017620 162469.000000 0 0 1
24.054496 16.515196 16.782023 33.660166 0.601658 1.048845 0.050026 -0.030046 371775.000000 0 0 1
24.876396 15.420996 17.217423 33.957059 0.554927 1.039055 0.034163 -0.021814 -568593.000000 0 0 1
26.243296 15.422196 16.514723 34.630778 0.531298 1.073695 0.089754 -0.043005 -1285210.000000 0 0 1
27.043996 16.501896 16.855223 35.885775 0.547876 1.081856 0.072099 -0.038834 -1581.660000 0 0 1
27.965996 16.231496 17.912923 36.965270 0.525884 1.064904 0.056815 -0.046220 -174799.000000 0 0 1
29.225096 15.438196 17.490323 37.394592 0.485992 1.084083 0.053580 -0.055807 -666089.000000 0 0 1
30.081396 16.188596 16.597423 37.979408 0.493707 1.118523 0.086549 -0.036091 272228.000000 0 0 1
30.903496 15.288696 15.858323 37.950714 0.459418 1.139701 0.084037 -0.036236 -10077.100000 0 0 1
30.273296 14.690896 14.565123 36.666574 0.451799 1.162298 0.061543 -0.022808 -273732.000000 0 0 1
30.283096 15.635596 13.514623 36.663099 0.476614 1.193276 0.064985 0.000781 -30078.700000 0 0 1
29.704696 15.186596 12.239723 35.536073 0.472609 1.219164 0.050064 -0.003783 262782.000000 0 0 1
28.212996 15.579696 12.126323 34.434688 0.504544 1.210924 0.042608 -0.009268 -254758.000000 0 0 1
28.025096 16.960996 11.858823 34.838385 0.544240 1.223459 0.026350 0.008281 -1406.320000 0 0 1
28.462696 17.997096 12.749223 36.007821 0.563835 1.208879 0.042347 -0.006650 -687779.000000 0 0 1
27.734696 18.254196 14.079323 36.064614 0.582098 1.169739 0.050175 -0.012154 -856903.000000 0 0 1
26.588896 19.009096 14.067223 35.583730 0.620673 1.164372 0.051166 0.002939 -422508.000000 0 0 1
25.926096 19.210396 15.336523 35.726890 0.637695 1.127111 0.047283 -0.013830 272326.000000 0 0 1
26.644896 20.073296 16.463423 37.201236 0.645650 1.112356 0.052543 -0.027510 95013.900000 0 0 1
26.459396 21.472696 16.325823 37.785034 0.681734 1.124008 0.043963 -0.012386 864536.000000 0 0 1
25.169896 21.972496 16.745623 37.372853 0.717678 1.106192 0.041029 -0.008893 738952.000000 0 0 1
24.947896 23.490896 16.573523 38.064437 0.755328 1.120306 0.046836 0.001097 -52766.900000 0 0 1
24.712896 23.954996 15.260723 37.649153 0.769827 1.153445 0.065356 -0.009196 72913.900000 0 0 1
24.693296 25.322396 15.053323 38.439369 0.797976 1.168413 0.077611 -0.019723 -215074.000000 0 0 1
24.543596 25.783596 13.604323 38.108523 0.810032 1.205754 0.070116 -0.014735 794302.000000 0 0 1
23.303296 25.362996 12.994423 36.812772 0.827696 1.210035 0.068995 -0.011281 815376.000000 0 0 1
23.228396 25.698596 11.610323 36.534584 0.835843 1.247399 0.063243 -0.021327 107381.000000 0 0 1
22.607296 24.487796 10.848123 35.048876 0.825307 1.256114 0.070236 -0.021906 -1234630.000000 0 0 1
21.265396 24.287596 11.053823 34.121714 0.851646 1.240892 0.069719 -0.019459 -1291580.000000 0 0 1
20.896896 22.928296 10.919023 32.887871 0.831717 1.232365 0.073692 -0.013800 25123.200000 0 0 1
20.644296 22.386196 9.491323 31.896927 0.825857 1.268658 0.096586 -0.016986 -564323.000000 0 0 1
19.546096 22.961396 8.831723 31.420931 0.865572 1.285879 0.107683 -0.020431 189877.000000 0 0 1
19.944896 23.756296 7.716523 31.964123 0.872393 1.326976 0.090075 -0.018881 36641.200000 0 0 1
18.672496 24.165196 6.947123 31.319025 0.912924 1.347118 0.070650 -0.014454 -695675.000000 0 0 1
18.104596 23.060296 6.259423 29.978893 0.905208 1.360454 0.083633 -0.008675 668582.000000 0 0 1
17.141796 23.346996 5.246623 29.435530 0.937472 1.391598 0.102998 -0.016572 866311.000000 0 0 1
15.822696 24.113696 5.598923 29.379856 0.990096 1.379053 0.087761 -0.021765 -72396.900000 0 0 1
16.061696 25.515496 5.632223 30.671494 1.008976 1.386118 0.086373 -0.025721 655325.000000 0 0 1
14.938696 26.172196 6.208623 30.768417 1.052136 1.367616 0.075540 -0.031196 129910.000000 0 0 1
14.637296 27.572596 5.598723 31.715046 1.082764 1.393334 0.069693 -0.028895 -338825.000000 0 0 1
14.290496 27.486196 4.271923 31.272329 1.091344 1.433764 0.060923 -0.009328 296432.000000 0 0 1
13.917796 28.807796 3.843723 32.223723 1.120739 1.451229 0.061457 -0.016609 -175276.000000 0 0 1
13.365696 28.771796 2.409723 31.816109 1.135916 1.494985 0.061230 -0.007201 -481184.000000 0 0 1
14.289496 28.361896 1.449523 31.791318 1.104092 1.525186 0.073941 -0.011678 -240946.000000 0 0 1
13.717296 27.414996 0.546723 30.660155 1.106863 1.552964 0.062847 -0.003524 -346684.000000 0 0 1
14.693896 26.733996 -0.387477 30.508478 1.068235 1.583497 0.054275 -0.011249 -267301.000000 0 0 1
14.918596 27.411796 -1.592777 31.249128 1.072386 1.621789 0.048390 -0.003018 224638.000000 0 0 1
16.027996 26.866296 -2.311377 31.369363 1.032893 1.644546 0.052675 -0.000793 498668.000000 0 0 1
15.988696 27.561096 -3.687477 32.075690 1.045124 1.686013 0.055207 -0.010942 -592807.000000 0 0 1
15.014796 26.977096 -4.467777 31.195654 1.062919 1.714508 0.068242 -0.019191 -884989.000000 0 0 1
14.999096 27.574696 -5.721177 31.907187 1.072614 1.751078 0.067147 -0.023452 -193058.000000 0 0 1
13.816496 27.252696 -6.627577 31.265472 1.101583 1.784394 0.065485 -0.039355 -155466.000000 0 0 1
13.721296 25.931996 -7.078077 30.180151 1.084120 1.807529 0.048905 -0.030047 -807027.000000 0 0 1
12.565896 25.770096 -7.813577 29.716183 1.117105 1.836865 0.028797 -0.036839 -479513.000000 0 0 1
11.994696 24.336996 -7.980677 28.281678 1.112878 1.856868 0.036512 -0.019944 12585.700000 0 0 1
12.670096 23.575096 -8.980477 28.230576 1.077651 1.894533 0.038306 -0.019812 -46235.800000 0 0 1
12.000296 22.424596 -9.387577 27.110813 1.079434 1.924385 0.044782 -0.014150 -337416.000000 0 0 1
12.462496 21.967796 -10.767077 27.455924 1.054762 1.973773 0.040987 -0.006517 -111928.000000 0 0 1
12.043596 20.719096 -11.244777 26.472139 1.044255 2.009513 0.046765 -0.008623 -305494.000000 0 0 1
12.234796 20.489396 -12.646277 27.008034 1.032491 2.058096 0.043200 -0.009238 346044.000000 0 0 1
13.612296 19.924296 -13.111577 27.462440 0.971434 2.068531 0.038252 0.004835 -143538.000000 0 0 1
14.665596 20.810596 -12.979577 28.576739 0.956911 2.042271 0.032886 -0.001982 -721058.000000 0 0 1
15.783996 20.234396 -13.642477 29.063421 0.908334 2.059412 0.035524 0.005723 -211073.000000 0 0 1
17.060496 21.059996 -13.577577 30.313933 0.889933 2.035210 0.040675 0.001971 -587201.000000 0 0 1
17.170596 22.156796 -14.432377 31.528502 0.911512 2.046266 0.041041 -0.003575 252284.000000 0 0 1
16.348396 23.345196 -14.211077 31.846867 0.959876 2.033346 0.036582 -0.002322 384695.000000 0 0 1
16.960196 24.558396 -14.899777 33.358153 0.966402 2.033826 0.035201 -0.002049 -417701.000000 0 0 1
16.969496 24.655696 -16.335477 34.098606 0.967994 2.070386 0.031260 -0.004794 249786.000000 0 0 1
15.690996 24.747096 -16.983977 33.868592 1.005713 2.096090 0.038043 0.000222 421783.000000 0 0 1
15.614296 24.561396 -18.520977 34.497753 1.004522 2.137525 0.028148 0.007229 159547.000000 0 0 1
16.062696 23.263396 -18.956477 34.037388 0.966494 2.161482 0.035787 0.005368 -11075.900000 0 0 1
16.220696 23.249396 -20.361477 34.903225 0.961627 2.193667 0.030891 0.005990 -134366.000000 0 0 1
16.641696 21.845596 -20.902677 34.512287 0.919794 2.221390 0.032757 0.006570 -145468.000000 0 0 1
15.562296 20.957596 -21.012777 33.510337 0.932073 2.248561 0.039345 0.009953 -84191.500000 0 0 1
15.937996 19.804496 -21.779877 33.475376 0.893156 2.279202 0.033946 0.005230 128904.000000 0 0 1
14.866496 18.662896 -21.875077 32.370285 0.898144 2.312814 0.033884 0.007045 -295700.000000 0 0 1
14.576196 18.066296 -20.636277 31.059820 0.891912 2.297493 0.033417 0.005777 847491.000000 0 0 1
13.601396 16.986796 -20.644677 29.995864 0.895626 2.329871 0.026349 -0.000746 38279.000000 0 0 1
12.158596 17.279196 -21.007377 29.794495 0.957621 2.353326 0.028914 0.001797 -1147700.000000 0 0 1
11.257296 17.074796 -19.939677 28.563369 0.987916 2.343517 0.024351 0.005527 732027.000000 0 0 1
9.926996 17.517996 -20.291077 28.585892 1.055242 2.360051 0.023980 0.000059 966616.000000 0 0 1
8.912696 16.951196 -19.252877 27.156076 1.086734 2.358835 0.032358 -0.011632 -466921.000000 0 0 1
8.771596 15.545896 -19.137777 26.170026 1.057087 2.391002 0.041070 -0.021790 145990.000000 0 0 1
7.491096 15.118496 -18.699577 25.186496 1.110761 2.407508 0.047583 -0.022091 156569.000000 0 0 1
7.296396 15.336796 -17.201777 24.173453 1.126741 2.362566 0.046119 -0.030891 -232441.000000 0 1 0
7.204096 16.718996 -16.802077 24.773647 1.163945 2.316139 0.051944 -0.027464 -157568.000000 0 1 0
6.704596 16.747796 -15.457977 23.756879 1.190008 2.279268 0.050455 -0.037924 -65062.400000 0 1 0
6.254396 18.192096 -15.104677 24.458558 1.239658 2.236436 0.043398 -0.026178 -78353.000000 0 1 0
7.352396 19.087996 -14.977677 25.352319 1.203127 2.202823 0.032702 -0.018200 113767.000000 0 0 1
7.700096 19.738496 -16.174377 26.655396 1.198849 2.222819 0.044413 -0.012400 343468.000000 0 0 1
8.983596 20.641996 -15.994277 27.615464 1.160310 2.188517 0.032441 -0.000226 594903.000000 0 0 1
8.880996 21.819696 -15.260177 28.068562 1.184255 2.145606 0.032930 -0.005481 -83480.200000 0 0 1
8.645296 21.699796 -13.867777 27.165005 1.191666 2.106564 0.019476 -0.010437 -139730.000000 0 0 1
8.565896 23.019396 -13.061877 27.818695 1.214556 2.059561 0.029467 -0.009259 -1038510.000000 0 0 1
7.261896 23.462696 -13.169377 27.868723 1.270639 2.062979 0.022097 -0.005568 -868884.000000 0 0 1
6.869296 24.548596 -12.340777 28.321644 1.297950 2.021653 0.001589 -0.003491 -71508.800000 0 0 1
6.403996 24.142596 -10.934977 27.266276 1.311510 1.983453 -0.019263 -0.003108 -834591.000000 0 0 1
7.395096 23.807896 -9.999577 26.860657 1.269629 1.952256 -0.008451 -0.005817 -309864.000000 0 0 1
6.903696 23.103396 -8.877377 25.695052 1.280425 1.923557 -0.003460 -0.013547 -317548.000000 0 0 1
7.859696 23.151396 -7.699177 25.632777 1.243514 1.875871 0.003447 -0.019224 -216667.000000 0 0 1
7.955196 24.472596 -7.238377 26.731763 1.256505 1.844998 0.005414 -0.020202 302594.000000 0 0 1
8.683796 24.533596 -6.002177 26.708271 1.230602 1.797463 0.009800 -0.023346 80160.600000 0 0 1
8.691596 25.924096 -5.463677 27.882868 1.247303 1.768024 -0.000006 -0.023529 -289867.000000 0 0 1
9.309496 26.855396 -6.321677 29.117737 1.237107 1.789647 0.012822 -0.031275 106513.000000 0 0 1
9.363796 28.146796 -5.776177 30.220639 1.249636 1.763113 0.012584 -0.032438 5433.310000 0 0 1
9.583296 29.299596 -6.781277 31.564087 1.254685 1.787326 0.015214 -0.023389 -132827.000000 0 0 1
10.906496 29.348096 -7.271277 32.142399 1.214988 1.798992 0.023447 -0.025623 -25249.500000 0 0 1
11.137396 30.424396 -8.180377 33.415625 1.219879 1.818117 0.022746 -0.022001 186742.000000 0 0 1
12.608496 30.356296 -8.656277 33.991322 1.177127 1.828294 0.050776 -0.023666 518862.000000 0 0 1
13.608796 30.820096 -7.755677 34.572072 1.154987 1.797055 0.053219 -0.022429 60338.900000 0 0 1
14.798396 31.140996 -8.453577 35.499536 1.127180 1.811238 0.056830 -0.019091 -406335.000000 0 0 1
15.981996 31.481896 -7.594777 36.113911 1.101042 1.782679 0.055311 -0.022518 -477922.000000 0 0 1
16.541796 30.326796 -6.961877 35.239371 1.071452 1.769664 0.056300 -0.024517 439611.000000 0 0 1
17.756196 30.604096 -6.252477 35.930302 1.045070 1.745704 0.053282 -0.012190 908208.000000 0 0 1
18.776296 29.432296 -6.181777 35.454530 1.002940 1.746050 0.049777 -0.014203 9663.370000 0 0 1
18.642596 28.563596 -5.098177 34.487922 0.992547 1.719165 0.053710 -0.017528 112252.000000 0 0 1
19.699396 27.610796 -5.026577 34.288317 0.951089 1.717924 0.050698 -0.016117 78390.200000 0 0 1
19.696396 26.432396 -5.974377 33.500936 0.930399 1.750090 0.042143 -0.008541 -178616.000000 0 0 1
20.045796 26.829296 -7.304677 34.278322 0.929115 1.785542 0.038614 -0.005678 257459.000000 0 0 1
19.906796 25.803696 -8.262377 33.621096 0.913695 1.819089 0.036160 -0.009724 -1397680.000000 0 0 1
20.638096 26.030596 -9.597777 34.578031 0.900437 1.852059 0.032816 -0.013324 -706753.000000 0 0 1
22.020296 26.134196 -9.557277 35.485647 0.870623 1.843491 0.040791 -0.015166 -498651.000000 0 0 1
22.683496 24.923496 -9.186277 34.930063 0.832415 1.836917 0.048113 -0.019491 -1597120.000000 0 0 1
24.194296 25.026896 -9.077777 35.973817 0.802312 1.825898 0.036325 -0.016126 -562448.000000 0 0 1
24.830096 25.179896 -10.344777 36.845288 0.792393 1.855385 0.040617 -0.010718 203955.000000 0 0 1
26.233296 25.220296 -10.151077 37.779538 0.765713 1.842832 0.040800 -0.004541 10402.700000 0 0 1
27.129296 25.032896 -11.358377 38.621979 0.745230 1.869301 0.043672 -0.000949 -570828.000000 0 0 1
27.135296 26.114296 -12.255677 39.604070 0.766227 1.885416 0.036609 0.000609 -64997.100000 0 0 1
28.376496 26.208196 -12.917477 40.730287 0.745695 1.893516 0.057036 -0.011431 47812.800000 0 0 1
28.265796 27.033196 -14.200077 41.609988 0.763112 1.919060 0.064687 -0.012426 -58023.300000 0 0 1
28.214896 28.452696 -14.042477 42.459715 0.789595 1.907868 0.045819 -0.003123 120185.000000 0 0 1
28.007396 29.095696 -15.297177 43.185383 0.804454 1.932877 0.047942 0.001975 -230974.000000 0 0 1
28.111996 30.632996 -15.264077 44.290595 0.828286 1.922646 0.047038 0.001595 339152.000000 0 0 1
29.416696 31.062596 -14.902777 45.302534 0.812606 1.906000 0.038347 -0.002103 406659.000000 0 0 1
29.482296 32.452896 -15.195477 46.403650 0.833324 1.904414 0.026379 -0.006580 38456.400000 0 0 1
15.743696 -32.424994 -27.772571 45.503405 -1.118782 2.227287 0.051866 -0.038593 -11106.700000 0 0 1
16.688996 -33.310494 -27.160361 46.106364 -1.106339 2.200717 0.048476 -0.030045 249677.000000 0 0 1
17.150396 -32.763194 -25.912151 45.155316 -1.088553 2.181989 0.057867 -0.033133 -669864.000000 0 0 1
18.390096 -33.594094 -25.531181 46.028252 -1.069936 2.158781 0.029022 -0.029363 286187.000000 0 0 1
19.638996 -33.232294 -26.124431 46.610744 -1.037050 2.165763 0.047035 -0.027708 677343.000000 0 0 1
19.781896 -33.456994 -27.524761 47.626740 -1.036826 2.186982 0.056687 -0.026248 -790576.000000 0 0 1
21.254496 -33.254494 -27.941851 48.356613 -1.002089 2.186862 0.066227 -0.018744 -53373.400000 0 0 1
21.670596 -31.949994 -28.226081 47.823932 -0.974806 2.202113 0.065168 -0.029629 -88935.000000 0 0 1
23.070596 -31.906194 -28.112201 48.379267 -0.944751 2.190851 0.044363 -0.017217 -314340.000000 0 0 1
23.729296 -30.652394 -28.728941 48.249360 -0.912023 2.208593 0.038432 -0.014384 -135513.000000 0 0 1
23.810196 -30.673194 -30.128881 49.147937 -0.910703 2.230679 0.038520 -0.019366 -57495.300000 0 0 1
24.355496 -29.482894 -30.669691 49.021028 -0.880349 2.246753 0.044251 -0.025777 216868.000000 0 0 1
24.838496 -29.648994 -32.147781 50.294071 -0.873456 2.264249 0.045937 -0.014025 605666.000000 0 0 1
26.000596 -30.437094 -32.415141 51.509116 -0.863846 2.251460 0.054991 -0.020855 187636.000000 0 0 1
26.198196 -30.793294 -33.771121 52.678848 -0.865852 2.266695 0.041951 -0.019050 -272777.000000 0 0 1
27.568496 -31.445594 -34.010531 53.903280 -0.851002 2.253580 0.037455 -0.024691 273661.000000 0 0 1
28.665896 -30.531794 -33.814721 53.827125 -0.816908 2.250046 0.042084 -0.027917 -329662.000000 0 0 1
29.833496 -31.265494 -34.093455 55.044820 -0.808831 2.238744 0.035203 -0.017327 -175041.000000 0 0 1
31.060296 -30.314494 -34.029331 55.151663 -0.773247 2.235739 0.039192 -0.020080 -127302.000000 0 0 1
31.063496 -29.308594 33.498300 54.277717 -0.756338 0.905662 0.041034 -0.020232 369826.000000 0 0 1
32.402796 -28.930694 33.187777 54.665847 -0.728848 0.918387 0.037572 -0.022363 426830.000000 0 0 1
32.435696 -27.688994 32.241653 53.462875 -0.706614 0.923457 0.035887 -0.022180 -330512.000000 0 0 1
33.542196 -27.615594 31.395893 53.604124 -0.688793 0.945054 0.012428 -0.017365 -115310.000000 0 0 1
33.438896 -26.463294 30.546003 52.454971 -0.669470 0.949207 0.028553 -0.013029 84903.200000 0 0 1
34.200296 -26.628794 29.169273 52.245568 -0.661563 0.978448 0.019278 -0.002008 156976.000000 0 0 1
33.666796 -27.574494 28.235133 51.875125 -0.686244 0.995253 0.022808 -0.006561 395496.000000 0 0 1
32.374196 -27.205194 27.774563 50.592860 -0.698857 0.989651 0.026315 -0.002251 -5175.740000 0 0 1
31.797996 -28.233694 26.814693 50.272078 -0.726094 1.008191 0.020949 -0.005098 870811.000000 0 0 1
30.406196 -27.992194 26.520833 49.106560 -0.744085 1.000280 0.032442 0.007532 1150910.000000 0 0 1
29.893096 -28.802894 25.442623 48.688099 -0.766827 1.020941 0.032961 0.006327 315017.000000 0 0 1
28.501796 -28.475594 24.875043 47.349547 -0.784938 1.017671 0.038501 0.008473 275584.000000 0 0 1
27.416696 -28.516194 25.787133 47.221021 -0.805053 0.993101 0.038689 0.011227 673948.000000 0 0 1
26.210496 -28.131694 25.111443 45.923490 -0.820737 0.992246 0.036531 0.010604 1264230.000000 0 0 1
24.899796 -27.982394 25.953353 45.569625 -0.843624 0.964860 0.044043 0.001464 541780.000000 0 0 1
24.879696 -26.901894 26.885593 45.448282 -0.824431 0.937798 0.040425 0.002260 -80102.600000 0 0 1
23.662996 -26.891394 27.592973 45.215668 -0.849171 0.914417 0.045242 -0.008933 -197747.000000 0 0 1
23.622296 -25.808894 28.612293 45.197071 -0.829605 0.885301 0.040544 -0.000179 -257143.000000 0 0 1
22.489996 -25.798894 29.469913 45.164794 -0.853814 0.859921 0.055120 -0.001057 238859.000000 0 0 1
22.469896 -24.688594 30.396983 45.148638 -0.832411 0.832181 0.053147 -0.000515 -425521.000000 0 0 1
22.073396 -23.307794 29.825483 43.818347 -0.812592 0.822130 0.049816 -0.006339 -357210.000000 0 0 1
22.977696 -22.823194 28.829463 43.359090 -0.782025 0.843436 0.056294 -0.005749 342673.000000 0 0 1
22.758396 -21.452994 28.432163 42.267759 -0.755880 0.832988 0.066513 -0.003655 97189.200000 0 0 1
23.472096 -20.432394 29.429653 42.831373 -0.716274 0.813299 0.060021 -0.003125 -406594.000000 0 0 1
22.867996 -20.312994 30.694983 43.332955 -0.726297 0.783636 0.061731 0.001105 147513.000000 0 0 1
23.525996 -19.358994 31.533863 43.847778 -0.688535 0.768194 0.052675 -0.003106 -329402.000000 0 0 1
22.974796 -19.185494 32.939579 44.507756 -0.695761 0.737598 0.068871 -0.006240 -537681.000000 0 0 1
23.109896 -20.201494 33.918075 45.744983 -0.718348 0.735553 0.049831 -0.005565 119620.000000 0 0 1
22.468696 -19.811894 -33.413851 44.875816 -0.722643 2.410709 0.054938 -0.008780 -672041.000000 0 0 1
22.448496 -20.862394 -32.322971 44.541541 -0.748793 2.382821 0.039426 -0.002627 161814.000000 0 0 1
23.704596 -21.351094 -31.888041 45.106809 -0.733210 2.355966 0.035125 -0.002890 -47203.500000 0 0 1
23.420096 -22.273894 -30.863151 44.689611 -0.760319 2.333130 0.035437 -0.002040 -708751.000000 0 0 1
24.539296 -22.617294 -29.953421 44.843355 -0.744663 2.302256 0.019379 -0.001530 -17593.100000 0 0 1
25.777396 -23.109194 -30.507271 46.143283 -0.730873 2.293136 0.027510 -0.001789 41585.800000 0 0 1
26.566196 -23.463394 -29.444601 46.079042 -0.723458 2.263996 0.025302 -0.008364 30665.400000 0 0 1
27.801796 -24.336294 -29.852481 47.501218 -0.719028 2.250364 0.028959 -0.000592 1337790.000000 0 0 1
28.862696 -23.809194 -30.709281 48.404472 -0.689748 2.258068 0.030421 -0.002567 991197.000000 0 0 1
28.518396 -23.722494 -32.110771 49.062789 -0.693851 2.284295 0.033921 -0.005890 -113126.000000 0 0 1
28.925296 -24.953894 -32.974471 50.464694 -0.711822 2.282885 0.040564 -0.020801 234125.000000 0 0 1
28.239496 -26.193094 -32.658051 50.498471 -0.747821 2.274064 0.055408 -0.019610 116425.000000 0 0 1
28.682296 -27.323594 -33.411811 51.822794 -0.761143 2.271469 0.052955 -0.022646 52787.100000 0 0 1
28.220796 -27.453594 33.624125 51.775428 -0.771619 0.863972 0.045914 -0.012291 65087.300000 0 0 1
28.648496 -26.389494 32.758504 50.894610 -0.744377 0.871533 0.041368 -0.017577 118888.000000 0 0 1
28.127896 -26.563894 31.457143 49.863522 -0.756809 0.888129 0.034499 -0.013034 156274.000000 0 0 1
29.225396 -26.143294 30.390423 49.610215 -0.729790 0.911471 0.034417 -0.013261 658277.000000 0 0 1
29.444196 -24.724694 30.188453 48.883677 -0.698492 0.905164 0.030659 -0.013031 233150.000000 0 0 1
29.908196 -24.047194 31.365053 49.563437 -0.677196 0.885598 0.036505 -0.011224 -1226220.000000 0 0 1
30.335796 -22.570894 31.122333 48.972496 -0.639673 0.882132 0.024645 -0.003054 1037750.000000 0 0 1
31.661496 -22.353294 30.630593 49.399932 -0.614747 0.901986 0.023642 -0.004826 1486800.000000 0 0 1
32.778296 -22.775594 31.423653 50.799511 -0.607253 0.903860 0.024054 -0.004685 -919165.000000 0 0 1
34.186296 -22.415494 31.077183 51.351227 -0.580362 0.920793 0.022636 -0.011485 -937639.000000 0 0 1
34.638596 -22.969994 29.879813 51.188438 -0.585552 0.947491 0.020528 -0.016140 467829.000000 0 0 1
35.912896 -22.428294 29.533213 51.623397 -0.558254 0.961745 0.005996 -0.020925 493690.000000 0 0 1
-36.132835 -22.602994 28.052023 51.023456 0.558997 0.988687 0.019291 -0.016749 -108544.000000 0 0 1
-35.891835 -23.934894 27.658993 51.245711 0.588138 1.000677 0.013651 -0.011734 198527.000000 0 0 1
-35.492935 -24.046594 26.281503 50.286226 0.595468 1.020854 0.007485 -0.002964 29795.100000 0 0 1
-35.388435 -25.543394 25.776863 50.687799 0.625208 1.037306 0.008008 -0.012992 744087.000000 0 0 1
35.839696 -26.203794 25.835713 51.367370 -0.631320 1.043777 0.015110 -0.008396 854249.000000 0 0 1
35.829296 -27.555894 25.473253 51.884028 -0.655606 1.057599 0.017971 0.003113 36397.400000 0 0 1
-35.939835 -28.519894 26.447623 52.957840 0.670793 1.047880 0.036400 -0.010977 -899085.000000 0 0 1
-35.683735 -29.833294 25.792143 53.184481 0.696338 1.064483 0.048881 -0.013913 357452.000000 0 0 1
-34.742335 -30.573994 26.582973 53.370904 0.721667 1.049413 0.061885 -0.023426 467084.000000 0 0 1
-33.300335 -30.019694 26.427893 52.043519 0.733634 1.038163 0.067431 -0.020226 -1054520.000000 0 0 1
-32.851135 -30.005294 25.060603 51.064161 0.740154 1.057827 0.065836 -0.016016 -1276230.000000 0 0 1
-31.582135 -29.497294 25.063133 49.956804 0.751278 1.045238 0.041830 -0.017212 -1479700.000000 0 0 1
-30.914835 -29.526994 23.705433 48.882696 0.762441 1.064496 0.027934 -0.014180 -545309.000000 0 0 1
-30.486835 -30.788494 23.316323 49.203957 0.790321 1.077115 0.031234 -0.013276 224530.000000 0 0 1
-29.930335 -30.713294 22.024923 48.210254 0.798308 1.096344 0.022470 -0.010881 -316128.000000 0 0 1
-29.709535 -32.018694 21.268523 48.581924 0.822789 1.117661 0.024629 -0.005202 -50029.800000 0 0 1
-28.679435 -32.856694 21.707223 48.716279 0.853177 1.108969 0.016006 -0.012645 -409653.000000 0 0 1
-27.407635 -32.734194 21.150523 47.645047 0.873734 1.110829 0.025851 -0.010848 -384357.000000 0 0 1
-26.674835 -34.076694 20.883323 48.050818 0.906639 1.121192 0.009629 0.002641 -337165.000000 0 0 1
-27.162735 33.585496 19.852123 47.538473 -0.890734 1.139993 -0.006961 0.007490 -102764.000000 0 0 1
-28.296735 32.808596 20.112823 47.766461 -0.859102 1.136176 0.002684 0.005004 -264385.000000 0 0 1
-28.153835 31.776996 21.292323 47.495041 -0.845780 1.105927 0.006173 0.011728 -81032.300000 0 0 1
-27.323435 30.646896 21.010523 46.122059 -0.842666 1.097816 -0.009867 0.016119 172160.000000 0 0 1
-27.377235 29.716196 22.029223 46.020125 -0.826343 1.071638 -0.007098 0.012264 50539.100000 0 0 1
-26.430135 28.509896 21.754423 44.549086 -0.823235 1.060627 -0.003100 0.010023 48289.200000 0 0 1
-25.058935 28.809596 21.753923 43.945150 -0.854912 1.052933 -0.007525 0.015932 91096.000000 0 0 1
-24.185735 27.709496 21.477423 42.591614 -0.853196 1.042267 0.000501 0.008956 -171993.000000 0 0 1
-22.709635 28.067896 21.488823 42.015518 -0.890533 1.033925 0.001779 0.020894 -697531.000000 0 0 1
-22.246435 28.134396 22.820223 42.511300 -0.901739 1.004152 0.009266 0.015077 -307786.000000 0 0 1
-20.882435 28.420096 22.903923 42.051963 -0.937109 0.994815 0.049002 0.004966 -552273.000000 0 0 1
-20.410335 28.632396 24.327623 42.757796 -0.951504 0.965551 0.043674 0.009126 -827161.000000 0 0 1
-20.259435 27.403996 25.057083 42.299895 -0.934186 0.936802 0.056320 -0.001119 254401.000000 0 0 1
-20.001035 27.818796 26.385103 43.244658 -0.947448 0.914565 0.055916 -0.005509 13901.100000 0 0 1
-18.503635 28.040696 26.710163 42.919668 -0.987503 0.899081 0.062236 -0.004694 -782259.000000 0 0 1
-17.931435 29.196096 26.180913 43.120628 -1.020021 0.918321 0.040327 -0.004195 1652030.000000 0 0 1
-16.666835 29.585496 26.865223 43.299251 -1.057765 0.901474 0.047126 -0.004577 1738770.000000 0 0 1
-16.737135 29.901996 28.385453 44.497134 -1.060511 0.879007 0.039309 -0.002679 -729937.000000 0 0 1
-16.771835 28.718996 29.205033 44.260695 -1.042226 0.850189 0.041435 -0.001114 267536.000000 0 0 1
-16.809635 28.962496 30.580953 45.349583 -1.044918 0.830728 0.038395 0.001895 -249594.000000 0 0 1
-16.676935 27.692196 31.473843 45.117410 -1.028742 0.798756 0.025586 0.008068 -1005410.000000 0 0 1
-15.340535 27.392896 31.662243 44.589241 -1.060294 0.781174 0.025195 0.014038 -699596.000000 0 0 1
-15.073935 26.216196 32.486471 44.383367 -1.048973 0.749615 0.028519 0.011501 -189314.000000 0 0 1
-15.442435 26.341396 33.949614 45.660861 -1.040554 0.732482 0.027953 0.015138 -495778.000000 0 0 1
-16.824235 26.156196 34.157204 46.194329 -0.999201 0.738582 0.028928 0.010969 -487378.000000 0 0 1
-17.290435 26.947996 -33.317701 46.208471 -1.000333 2.376084 0.035381 0.004303 76833.600000 0 0 1
-18.713035 26.487096 -32.951551 46.233630 -0.955724 2.364162 0.018198 0.005738 652099.000000 0 0 1
-19.720535 26.373396 -33.966001 47.309034 -0.928741 2.371664 0.020506 0.005261 1349020.000000 0 0 1
-21.043235 26.066396 -33.464081 47.351023 -0.891624 2.355653 0.046336 -0.000860 509809.000000 0 0 1
-22.035835 25.967596 33.935618 48.078272 -0.867122 0.787187 0.054005 -0.018486 -844556.000000 0 0 1
-21.969335 24.897996 32.934331 46.767852 -0.847805 0.789488 0.057806 -0.010123 -190174.000000 0 0 1
-22.039335 23.558196 33.351107 46.400616 -0.818696 0.768773 0.059073 -0.016558 -98614.100000 0 0 1
-22.286235 22.611096 32.139183 45.175934 -0.792634 0.779276 0.063380 -0.022045 643617.000000 0 0 1
-23.612635 22.833196 31.652483 45.615688 -0.768618 0.803913 0.066225 -0.024736 217798.000000 0 0 1
-23.810035 22.160996 30.390693 44.515410 -0.749542 0.819344 0.079525 -0.026249 -180353.000000 0 0 1
-25.247735 21.884996 29.967783 44.882838 -0.714173 0.839696 0.068444 -0.027196 -37855.000000 0 0 1
-25.924435 20.777096 30.555353 45.137497 -0.675623 0.827200 0.084769 -0.033208 -91882.200000 0 0 1
-27.151135 20.493596 29.932983 45.311754 -0.646564 0.849177 0.076204 -0.031193 -106148.000000 0 0 1
-27.758235 19.159896 30.438973 45.432943 -0.604147 0.836620 0.098595 -0.030688 -255832.000000 0 0 1
-28.311935 19.186996 31.778423 46.685915 -0.595602 0.822098 0.085854 -0.031312 153868.000000 0 0 1
-28.348435 17.920696 32.371873 46.612480 -0.563730 0.803086 0.081399 -0.021756 -280185.000000 0 0 1
-29.265735 16.873896 31.711883 46.334168 -0.523017 0.816993 0.056419 -0.021308 748738.000000 0 0 1
-30.665835 17.110096 31.978663 47.495091 -0.508929 0.832127 0.044616 -0.024964 870529.000000 0 0 1
-31.501935 16.160796 31.353023 47.292233 -0.474001 0.846026 0.053810 -0.018170 788627.000000 0 0 1
-32.996435 16.658096 31.281823 48.423231 -0.467516 0.868452 0.069367 -0.018470 773427.000000 0 0 1
-33.636435 16.469896 32.560019 49.626828 -0.455329 0.855161 0.060121 -0.012859 -570371.000000 0 0 1
-35.009035 16.596896 32.523879 50.585494 -0.442693 0.872454 0.070747 -0.020995 -1039180.000000 0 0 1
-35.537635 16.732296 33.953775 51.920632 -0.440043 0.857995 0.062803 -0.012036 217592.000000 0 0 1
35.579496 16.957596 34.129124 52.136913 0.444762 0.857135 0.059179 -0.017877 398006.000000 0 0 1
35.353496 17.382596 -33.099591 51.454905 0.456969 2.269563 0.044637 -0.018344 1017900.000000 0 0 1
33.831496 17.574896 -32.718241 50.238734 0.479112 2.280034 0.051571 -0.020537 1115620.000000 0 0 1
33.106996 16.352896 -32.744421 49.352684 0.458788 2.296254 0.054127 -0.021988 -367351.000000 0 0 1
31.818296 16.529196 -32.240081 48.218680 0.479116 2.303151 0.043839 -0.022081 -390103.000000 0 0 1
30.912096 15.265696 -32.305581 47.246690 0.458709 2.323705 0.051555 -0.022362 -167897.000000 0 0 1
30.303996 15.087396 -33.558571 47.666963 0.461941 2.351841 0.053804 -0.025141 -235024.000000 0 0 1
29.614596 13.869796 -33.638961 46.914552 0.438003 2.370323 0.049829 -0.020017 -694938.000000 0 0 1
30.463096 12.648996 -33.923541 47.316001 0.393561 2.370224 0.062717 -0.015858 19368.700000 0 0 1
31.307696 12.072696 -32.920941 47.007554 0.368044 2.346660 0.071188 -0.008110 242696.000000 0 0 1
32.044196 11.053396 -33.556071 47.697148 0.332162 2.351140 0.083465 -0.009155 -61603.800000 0 0 1
17.406496 -21.191804 10.589619 29.397597 -0.883155 1.202292 -0.000105 -0.003248 -248516.000000 0 0 1
17.334896 -22.507204 11.050419 30.482530 -0.914496 1.199830 0.007244 -0.007826 -594896.000000 0 0 1
18.549996 -23.092104 11.343119 31.717724 -0.894044 1.205071 0.001162 -0.005465 -1024170.000000 0 0 1
18.265696 -24.437204 12.028019 32.794601 -0.928926 1.195264 0.019216 -0.013264 -238842.000000 0 0 1
17.657296 -25.424634 11.252519 32.936474 -0.963774 1.222132 0.033242 -0.005101 -43246.000000 0 0 1
16.269596 -25.424994 11.518519 32.307993 -1.001550 1.206253 0.049745 -0.011133 -312073.000000 0 0 1
15.394196 -26.230174 10.556019 32.193677 -1.040073 1.236726 0.054389 0.004492 -120926.000000 0 0 1
15.340696 -25.662854 9.274319 31.303866 -1.032012 1.270014 0.044564 -0.001050 -80469.100000 0 0 1
14.474796 -26.447814 8.491919 31.322824 -1.070031 1.296251 0.052176 0.009419 -189161.000000 0 0 1
14.262496 -25.892414 7.028819 30.384868 -1.067311 1.337356 0.056595 0.002483 42477.000000 0 0 1
13.377896 -24.770604 7.106619 29.035409 -1.075608 1.323527 0.062133 -0.010979 199950.000000 0 0 1
12.970796 -24.233404 5.902019 28.112867 -1.079352 1.359283 0.061250 -0.001836 -34627.100000 0 0 1
12.173496 -22.943504 6.061119 26.670875 -1.082981 1.341537 0.074190 -0.009666 -242109.000000 0 0 1
11.710396 -22.379004 4.864119 25.721836 -1.088702 1.380546 0.078826 -0.012329 -144033.000000 0 0 1
10.815696 -21.317104 5.069219 24.435532 -1.101269 1.361826 0.079604 -0.012330 -104032.000000 0 1 0
10.078496 -20.787304 3.784419 23.409612 -1.119351 1.408423 0.061431 -0.012541 1109830.000000 0 1 0
11.003896 -20.157004 2.840419 23.139977 -1.071099 1.447737 0.061345 -0.008145 740874.000000 0 1 0
10.203896 -19.550704 1.852919 22.131038 -1.089767 1.486973 0.042156 -0.000151 348445.000000 0 1 0
11.012396 -19.239404 0.549119 22.174965 -1.050928 1.546031 0.043599 0.003791 340064.000000 0 1 0
11.907396 -18.180904 0.852319 21.749892 -0.990956 1.531599 0.047483 0.007883 -299352.000000 0 1 0
12.540396 -17.607904 -0.267481 21.618774 -0.951928 1.583169 0.052219 -0.004948 241972.000000 0 1 0
13.690196 -16.613104 0.045119 21.527163 -0.881556 1.568700 0.047947 -0.002790 629149.000000 0 1 0
14.828696 -17.220604 0.666619 22.735079 -0.859892 1.541471 0.057671 -0.011532 -219425.000000 0 1 0
15.999696 -16.490904 0.484919 22.982066 -0.800515 1.549695 0.047940 -0.016838 -116967.000000 0 1 0
17.221896 -17.116804 1.192719 24.310518 -0.782338 1.521715 0.039689 -0.007418 102272.000000 0 1 0
17.699096 -18.282004 0.564219 25.452073 -0.801597 1.548627 0.038833 -0.003094 -1347890.000000 0 0 1
18.815596 -18.741804 1.172319 26.583006 -0.783433 1.526682 0.024425 0.006098 -1110780.000000 0 0 1
19.259696 -20.172204 0.808719 27.901752 -0.808535 1.541808 0.009794 0.002959 -407360.000000 0 0 1
18.366396 -21.213404 1.073319 28.079976 -0.857205 1.532563 0.023176 0.006919 -189783.000000 0 0 1
18.765396 -22.374804 0.378219 29.204709 -0.872908 1.557845 0.034800 -0.002106 -99761.100000 0 0 1
17.639596 -23.395604 0.476019 29.304202 -0.924759 1.554552 0.035290 0.000803 -258094.000000 0 0 1
17.550496 -24.152104 1.640119 29.900402 -0.942397 1.515916 0.022136 0.009932 -446237.000000 0 0 1
16.363696 -24.892704 1.638119 29.834556 -0.989258 1.515862 0.030810 0.004804 -545795.000000 0 0 1
16.288096 -26.023284 2.753919 30.823651 -1.011547 1.481333 0.027866 0.011152 -351759.000000 0 0 1
17.186396 -27.076554 2.686919 32.182783 -1.005228 1.487210 0.036684 -0.000324 -645043.000000 0 0 1
18.385396 -26.696284 3.322019 32.584509 -0.967703 1.468668 0.022246 0.014967 -881507.000000 0 0 1
19.425696 -27.792254 3.410719 34.079320 -0.960768 1.470547 0.032704 0.011192 -562649.000000 0 0 1
20.138996 -28.165114 2.262319 34.698284 -0.950052 1.505550 0.052099 0.006115 -459304.000000 0 0 1
21.065796 -29.195654 2.469519 36.086736 -0.945761 1.502310 0.081412 0.005902 -249555.000000 0 0 1
20.646796 -30.632304 2.821219 37.048449 -0.977720 1.494573 0.076546 -0.004171 -358030.000000 0 0 1
20.414996 -30.670184 4.160019 37.077460 -0.983512 1.458362 0.073521 -0.005203 -40140.900000 0 0 1
19.598196 -31.776114 4.490419 37.602854 -1.018145 1.451094 0.071568 -0.019580 -312826.000000 0 0 1
19.330196 -31.969454 6.057319 37.846976 -1.026968 1.410057 0.073734 -0.020784 -174274.000000 0 0 1
20.366196 -32.752484 6.621719 39.132523 -1.014486 1.400766 0.063182 -0.028104 83913.600000 0 0 1
20.011796 -33.481744 7.749019 39.768662 -1.032075 1.374689 0.056055 -0.027312 -344748.000000 0 0 1
21.120496 34.192816 8.363819 41.050914 1.017472 1.365617 0.044305 -0.030932 -51323.300000 0 0 1
22.112996 -33.579254 8.991119 41.199407 -0.988447 1.350792 0.043852 -0.028057 273710.000000 0 0 1
23.146196 34.180643 9.561419 42.373146 0.975556 1.343188 0.064273 -0.033567 109443.000000 0 0 1
24.101696 -33.590164 10.457419 42.644443 -0.948407 1.323046 0.070270 -0.031143 -874326.000000 0 0 1
25.016696 -32.764744 9.860119 42.386148 -0.918695 1.336019 0.063229 -0.027781 -497150.000000 0 0 1
25.772296 -32.118714 10.847719 42.585163 -0.894589 1.313228 0.060062 -0.019502 -55160.000000 0 0 1
26.712996 -31.063084 10.238319 42.229404 -0.860549 1.325911 0.064867 -0.023541 -398405.000000 0 0 1
25.978996 -29.947494 9.905619 40.864189 -0.856239 1.325954 0.053360 -0.022809 31459.900000 0 0 1
26.487596 -29.320164 8.766919 40.473740 -0.836110 1.352458 0.066458 -0.015145 -99381.000000 0 0 1
25.890096 -27.909284 8.616619 39.031671 -0.822912 1.348203 0.055045 -0.003486 -22229.400000 0 0 1
26.289196 -27.180624 9.710819 39.041109 -0.802068 1.319424 0.050627 -0.022606 -72995.800000 0 0 1
25.851396 -25.836704 9.708219 37.816392 -0.785114 1.311170 0.046817 -0.011816 -343370.000000 0 0 1
26.623996 -24.911404 10.634419 37.980338 -0.752179 1.287004 0.050788 -0.030887 -595551.000000 0 0 1
27.975996 -24.837804 10.302319 38.803488 -0.726048 1.302074 0.062187 -0.025860 -1088440.000000 0 0 1
28.668496 -23.999304 11.154219 39.016226 -0.696976 1.280865 0.044525 -0.035465 -477110.000000 0 0 1
30.084896 -23.784204 10.610619 39.791640 -0.668964 1.300876 0.059584 -0.037050 -223626.000000 0 0 1
30.135096 -23.014104 9.425519 39.071901 -0.652210 1.327158 0.081028 -0.036003 274344.000000 0 0 1
31.469296 -22.915704 8.927619 39.939310 -0.629398 1.345362 0.084100 -0.038733 572156.000000 0 0 1
31.418796 -22.174404 7.588819 39.197387 -0.614587 1.375961 0.091746 -0.013841 -43684.000000 0 0 1
31.125996 -20.756804 7.624919 38.181304 -0.588139 1.369742 0.090894 -0.002776 -27611.700000 0 0 1
31.068196 -20.232204 6.310919 37.608544 -0.577232 1.402193 0.076197 -0.002508 -119399.000000 0 0 1
30.821596 -18.705804 6.232719 36.588587 -0.545482 1.399616 0.089737 -0.005001 66317.300000 0 0 1
31.783496 -17.937904 6.937819 37.149594 -0.513815 1.382940 0.092598 0.006473 17032.200000 0 0 1
31.685096 -16.492004 6.740319 36.350563 -0.479911 1.384292 0.093953 0.005379 39945.300000 0 0 1
32.174796 -15.655904 7.953919 36.655009 -0.452861 1.352062 0.087639 -0.023811 -327140.000000 0 0 1
33.564096 -15.691104 8.083419 37.922302 -0.437309 1.355991 0.086031 -0.017235 -745303.000000 0 0 1
33.861296 -15.043504 9.290819 38.199656 -0.418077 1.325115 0.079486 -0.025571 812925.000000 0 0 1
35.422096 -14.959904 9.456419 39.597317 -0.399609 1.329651 0.064211 -0.027597 798597.000000 0 0 1
35.992996 -14.061204 8.518419 39.569896 -0.372433 1.353823 0.071420 -0.013805 -46443.100000 0 0 1
-35.115335 -14.029204 8.660219 38.793101 0.380091 1.345658 0.058139 -0.012231 433681.000000 0 0 1
-34.408235 -12.955404 7.744919 37.573300 0.360103 1.363180 0.051942 -0.016123 -16850.800000 0 0 1
-34.414235 -13.356204 6.396119 37.465158 0.370207 1.399234 0.085210 -0.022954 26592.600000 0 0 1
-33.363735 -12.734804 5.695019 36.162788 0.364628 1.412655 0.061801 -0.012007 -407440.000000 0 0 1
-32.206035 -13.670204 5.421119 35.404684 0.401414 1.417073 0.019836 -0.003515 -1274880.000000 0 0 1
-31.413935 -14.065504 6.452119 35.018617 0.420979 1.385489 0.040528 -0.003389 -347296.000000 0 0 1
-30.529135 -15.071504 6.001419 34.571597 0.458576 1.396318 0.036826 0.006729 -114571.000000 0 0 1
-30.064635 -16.073204 7.047119 34.812240 0.490960 1.366955 0.031031 -0.008595 22000.900000 0 0 1
-31.100635 -16.778004 7.707319 36.168407 0.494726 1.356054 0.034533 -0.014904 -330393.000000 0 0 1
-30.843935 -16.657304 9.068819 36.208529 0.495173 1.317640 0.035611 -0.013590 -367860.000000 0 0 1
-31.850835 -17.218004 10.045019 37.574429 0.495584 1.300168 0.013772 -0.018910 -153058.000000 0 0 1
-33.154735 -16.620304 9.987319 38.408560 0.464683 1.307745 0.036540 -0.014204 1220160.000000 0 0 1
-34.170535 -17.157204 10.845419 39.744411 0.465330 1.294412 0.062847 -0.024494 471080.000000 0 0 1
-34.776135 -18.551904 10.493019 40.787941 0.490061 1.310613 0.071155 -0.032814 -651536.000000 0 0 1
-33.854635 -19.634704 10.398819 40.494362 0.525562 1.311090 0.066533 -0.030802 -5926.310000 0 0 1
-33.291935 -20.129104 11.629619 40.605194 0.543813 1.280322 0.071801 -0.038810 249267.000000 0 0 1
-34.336435 -20.868604 12.551719 42.095547 0.546112 1.268019 0.102091 -0.051097 505663.000000 0 0 1
-34.652235 -22.202304 12.264819 42.943515 0.569822 1.281160 0.114107 -0.051986 -486585.000000 0 0 1
-36.020235 -22.288704 11.980419 44.020155 0.554116 1.295162 0.099102 -0.049598 -378083.000000 0 0 1
36.105396 -23.776604 11.700119 44.786374 -0.582351 1.306487 0.097279 -0.044979 -231147.000000 0 0 1
-36.253735 -24.604404 12.848819 45.659634 0.596268 1.285539 0.114812 -0.039243 246436.000000 0 0 1
35.588696 -25.837534 12.716319 45.780326 -0.627966 1.289326 0.103592 -0.025875 -184461.000000 0 0 1
34.286896 -25.912384 13.536319 45.058571 -0.647172 1.265667 0.103563 -0.036110 -469235.000000 0 0 1
33.353696 -24.980904 13.086219 43.677955 -0.642841 1.266516 0.083907 -0.040501 -371124.000000 0 0 1
32.277296 -24.892104 14.014219 43.102657 -0.656929 1.239641 0.060250 -0.017727 -160672.000000 0 0 1
31.746396 -23.470804 14.188519 41.952669 -0.636632 1.225790 0.069437 -0.019249 -199127.000000 0 0 1
32.401596 -22.555304 15.065119 42.255923 -0.608115 1.206255 0.088815 -0.020009 227480.000000 0 0 1
33.652596 -22.123004 14.508919 42.806930 -0.581555 1.225008 0.076843 -0.034757 355591.000000 0 0 1
34.630696 -21.605104 15.583019 43.690916 -0.557787 1.206101 0.079596 -0.031054 -142685.000000 0 0 1
34.392296 -20.256204 16.047519 43.019376 -0.532273 1.188524 0.106426 -0.020938 698433.000000 0 0 1
33.302496 -20.056904 16.977819 42.421480 -0.542083 1.159042 0.082925 -0.019223 560553.000000 0 0 1
33.505896 -18.626504 17.599719 42.182246 -0.507375 1.140401 0.086869 -0.003471 -162560.000000 0 0 1
33.328096 -17.493304 16.751319 41.199325 -0.483354 1.152076 0.063800 -0.009337 125609.000000 0 0 1
33.423896 -16.247104 17.470019 41.064910 -0.452460 1.131365 0.042742 -0.001347 -2946.810000 0 0 1
34.820896 -15.778304 17.945319 42.231317 -0.425452 1.131913 0.054753 -0.014656 -120058.000000 0 0 1
35.186896 -16.258704 19.198319 43.255504 -0.432843 1.110922 0.046365 0.001623 117555.000000 0 0 1
-36.110035 -15.701904 19.662919 44.012666 0.410171 1.107660 0.060310 -0.005860 41440.300000 0 0 1
-35.820535 -15.795404 21.162719 44.502429 0.415310 1.075218 0.049544 0.002443 -332180.000000 0 0 1
-35.247635 -17.022304 21.481019 44.649622 0.449902 1.068885 0.067269 0.004581 -60313.400000 0 0 1
-34.934835 -17.092604 22.854019 45.109932 0.455028 1.039525 0.056021 0.001873 586284.000000 0 0 1
-33.839335 -18.176104 23.217919 44.883662 0.492908 1.027114 0.055734 0.006035 210039.000000 0 0 1
-34.308335 -19.538304 23.084019 45.734878 0.517685 1.041721 0.044587 0.005348 787056.000000 0 0 1
-33.395835 -20.562004 23.576919 45.759687 0.551888 1.029516 0.038437 0.004296 1381840.000000 0 0 1
-32.083235 -20.888504 22.746219 44.531495 0.577129 1.034693 0.034437 0.016653 1660200.000000 0 0 1
-31.070535 -19.883204 22.671019 43.297749 0.569269 1.019717 0.045951 0.018627 1452970.000000 0 0 1
-29.788635 -20.231504 22.112419 42.256782 0.596608 1.020093 0.054877 0.007325 1523950.000000 0 0 1
-28.666935 -19.146104 22.144719 40.972613 0.588843 0.999793 0.081139 0.010725 444341.000000 0 0 1
-28.316735 -18.890904 23.507019 41.367665 0.588322 0.966423 0.057999 0.011933 -459848.000000 0 0 1
-27.188035 -18.098804 23.617519 40.305622 0.587326 0.944731 0.091274 0.006302 -590872.000000 0 0 1
-26.560635 -17.695104 24.989719 40.534801 0.587690 0.906506 0.075788 -0.009040 -255636.000000 0 0 1
-25.359535 -16.957404 24.806819 39.319688 0.589395 0.888083 0.075954 -0.011604 191208.000000 0 0 1
-24.900835 -16.435604 26.041919 39.602553 0.583402 0.853192 0.072613 -0.019313 330915.000000 0 0 1
-23.892835 -17.396804 26.764319 39.872862 0.629349 0.834914 0.053413 -0.015375 -358938.000000 0 0 1
-24.446035 -18.608504 27.284019 41.088961 0.650635 0.844610 0.063311 -0.010122 578690.000000 0 0 1
-23.545535 -19.195904 28.267619 41.496183 0.683981 0.821382 0.061016 -0.017808 302515.000000 0 0 1
-24.177535 -20.452604 28.867419 42.850789 0.702129 0.831629 0.056947 -0.007769 -384894.000000 0 0 1
-25.210535 -20.170804 29.768119 43.915525 0.674798 0.825963 0.042622 -0.007726 -207758.000000 0 0 1
-25.660835 -21.340804 30.379019 45.130845 0.693743 0.832360 0.030009 -0.003706 310506.000000 0 0 1
-26.898035 -21.075204 31.327519 46.358192 0.664612 0.828786 0.023579 -0.003446 -141141.000000 0 0 1
-26.533735 -20.435304 32.534719 46.692062 0.656281 0.799879 0.036160 -0.008301 -18613.700000 0 0 1
-27.586935 -20.483404 33.448519 47.952187 0.638686 0.798839 0.037699 -0.011276 166216.000000 0 0 1
-28.803735 -19.553904 33.109519 48.044256 0.596401 0.810486 0.031299 -0.014832 -379254.000000 0 0 1
-29.733235 -20.163104 32.274919 48.293751 0.595899 0.838869 0.040276 -0.011898 -1550780.000000 0 0 1
-30.923935 -19.532404 32.253019 48.765375 0.563351 0.848123 0.038336 -0.022250 -890645.000000 0 0 1
-32.041435 -20.087604 31.292419 49.085445 0.559983 0.879535 0.034911 0.005489 124975.000000 0 0 1
-31.940635 -19.731304 29.931619 48.014897 0.553368 0.897736 0.032578 -0.014960 104686.000000 0 0 1
-32.974135 -20.319804 29.176119 48.491586 0.552271 0.925201 0.027947 -0.018006 -73865.000000 0 0 1
-33.453135 -19.489904 27.987319 47.772991 0.527530 0.944880 0.021771 -0.009909 -175035.000000 0 0 1
-34.541835 -19.997104 27.256519 48.331567 0.524778 0.971637 0.001003 -0.008132 -189130.000000 0 0 1
-35.181135 -19.011104 26.499619 47.972535 0.495426 0.985566 0.022550 -0.002739 -573329.000000 0 0 1
36.107096 -19.583504 25.809019 48.511251 -0.496968 1.009810 0.012448 -0.000940 -280770.000000 0 0 1
34.968196 -19.751504 26.650419 48.198978 -0.514167 0.984926 0.011055 -0.002827 325598.000000 0 0 1
33.951396 -20.443504 25.973819 47.384317 -0.541992 0.990643 0.040332 0.004150 323570.000000 0 0 1
32.570396 -20.665804 26.643319 46.880408 -0.565399 0.966327 0.034239 -0.005063 246783.000000 0 0 1
31.801796 -19.544104 26.958319 46.044296 -0.551056 0.945316 0.032173 -0.018166 251760.000000 0 0 1
30.515096 -19.973104 27.374219 45.600920 -0.579555 0.926921 0.027875 -0.012472 135730.000000 0 0 1
-30.721224 -6.253404 33.578435 45.939199 0.200810 0.751110 0.023335 0.004782 -239345.000000 0 0 1
-31.303034 -5.931004 32.343983 45.400330 0.187251 0.777859 0.018749 0.006273 126451.000000 0 0 1
-30.732274 -4.792004 31.796553 44.479847 0.154682 0.774382 0.032146 0.008219 -49143.200000 0 0 1
-31.276134 -4.613204 30.350843 43.825243 0.146443 0.805789 0.031431 0.002015 249573.000000 0 0 1
-30.937844 -5.599704 29.380683 43.031749 0.179060 0.819252 0.027103 -0.002517 -219135.000000 0 0 1
-29.575884 -5.643004 29.022793 41.819839 0.188532 0.803772 0.040641 -0.008845 -202083.000000 0 0 1
-29.279854 -6.778304 28.039223 41.102960 0.227493 0.820069 0.047402 -0.018368 244365.000000 0 0 1
-29.992064 -6.674504 26.785993 40.762266 0.218974 0.853795 0.033053 -0.021941 435928.000000 0 0 1
-29.305434 -7.441804 25.818193 39.758873 0.248683 0.864041 0.051864 -0.018441 288453.000000 0 0 1
-29.953004 -7.221204 24.449733 39.333417 0.236570 0.900010 0.023505 -0.009789 8550.090000 0 0 1
-29.559894 -5.961604 23.929583 38.496143 0.199009 0.900000 0.038170 -0.007483 406996.000000 0 0 1
-30.471464 -5.524304 22.907723 38.520019 0.179346 0.933908 0.047663 -0.010413 293411.000000 0 0 1
-30.136344 -4.123604 22.394023 37.771625 0.135987 0.936166 0.062015 -0.015843 -202142.000000 0 0 1
-28.865964 -4.120004 21.807123 36.411110 0.141771 0.928652 0.073678 -0.010869 -342948.000000 0 0 1
-28.517284 -2.820604 21.387123 35.757521 0.098588 0.929649 0.083383 -0.009104 688077.000000 0 0 1
-27.082264 -2.703204 20.765023 34.233646 0.099485 0.919060 0.077301 -0.005480 578358.000000 0 0 1
-26.864884 -3.346504 19.546223 33.391255 0.123930 0.945461 0.087314 -0.007303 325702.000000 0 0 1
-25.557104 -3.083304 19.043123 32.020507 0.120063 0.933883 0.072407 -0.011591 322094.000000 0 0 1
-25.190874 -3.747404 17.685823 31.006637 0.147677 0.963818 0.078534 -0.016150 251663.000000 0 0 1
-26.079404 -3.294304 16.641323 31.111435 0.125653 1.006414 0.094804 -0.013753 676219.000000 0 0 1
-25.657354 -3.792904 15.402323 30.164839 0.146766 1.034908 0.098788 -0.018435 -106475.000000 0 0 1
-26.772514 -3.696104 14.354223 30.601837 0.137189 1.082566 0.105234 -0.024340 -208311.000000 0 0 1
-27.258004 -2.458104 14.021823 30.751465 0.089936 1.097332 0.114504 -0.028478 -71273.300000 0 0 1
-28.522774 -2.654704 13.426523 31.636492 0.092806 1.132497 0.106252 -0.030377 -25484.600000 0 0 1
-29.051524 -1.446904 12.620323 31.707367 0.049764 1.161433 0.113075 -0.024515 74104.800000 0 0 1
-28.315094 -1.158104 11.423823 30.554697 0.040878 1.187606 0.125612 -0.028561 358755.000000 0 0 1
-28.891404 -0.116804 10.649723 30.791938 0.004043 1.217640 0.122035 -0.025871 468243.000000 0 0 1
-30.174204 -0.433504 9.787323 31.724789 0.014366 1.257173 0.107833 -0.022204 877695.000000 0 0 1
-29.844344 -1.132004 8.609523 31.081991 0.037912 1.290132 0.100160 -0.021210 -585326.000000 0 0 1
-31.013704 -1.662604 8.106123 32.098650 0.053557 1.315494 0.094443 -0.016715 -713771.000000 0 0 1
-30.878754 -2.409404 6.746023 31.698762 0.077870 1.356340 0.088749 -0.016309 -225739.000000 0 0 1
-30.644214 -1.736704 5.560623 31.193020 0.056613 1.391573 0.097289 -0.023398 364513.000000 0 0 1
-31.559854 -0.681704 5.270923 32.004246 0.021597 1.405348 0.101876 -0.023090 -214644.000000 0 0 1
-31.376784 -0.110504 3.882123 31.616225 0.003522 1.447697 0.105480 -0.030145 -163494.000000 0 0 1
-31.601964 -0.918204 2.744523 31.734203 0.029047 1.484203 0.101958 -0.028832 292571.000000 0 0 1
-31.236754 -0.303604 1.517223 31.275053 0.009719 1.522265 0.093401 -0.032811 -384248.000000 0 0 1
-31.870534 -0.921504 0.278723 31.885072 0.028906 1.562055 0.084911 -0.023234 709910.000000 0 0 1
-33.226384 -0.465904 0.088723 33.229769 0.014021 1.568126 0.092616 -0.022435 909538.000000 0 0 1
-33.733994 -0.922504 -1.147977 33.766125 0.027340 1.604801 0.093112 -0.024185 864712.000000 0 0 1
-35.296775 -0.703004 -1.212377 35.324586 0.019914 1.605124 0.110685 -0.025876 969300.000000 0 0 1
-36.007955 -1.467004 -0.252477 36.038711 0.040719 1.577802 0.095248 -0.020464 -301135.000000 0 0 1
35.118356 -1.299504 -0.325777 35.143901 -0.036987 1.580066 0.096040 -0.016877 -150803.000000 0 0 1
34.336796 -2.529904 0.224523 34.430603 -0.073546 1.564275 0.093140 -0.022042 -239171.000000 0 0 1
34.416406 -2.654004 1.623823 34.556759 -0.076962 1.523789 0.085795 -0.022546 156300.000000 0 0 1
33.827646 -3.837104 2.089723 34.108650 -0.112948 1.509491 0.079878 -0.016995 -215625.000000 0 0 1
33.962546 -4.090704 3.624723 34.399521 -0.119870 1.465229 0.081646 -0.018801 -231684.000000 0 0 1
33.232256 -3.176504 4.358623 33.667056 -0.095295 1.440969 0.077888 -0.022839 47215.800000 0 0 1
33.260696 -3.553204 5.746923 33.940040 -0.106425 1.400651 0.076757 -0.023886 -63354.300000 0 0 1
32.694816 -2.395804 6.639323 33.448042 -0.073147 1.370973 0.079447 -0.017606 560074.000000 0 0 1
31.269576 -2.351704 6.709323 32.067615 -0.075066 1.360015 0.070039 -0.017636 642216.000000 0 0 1
30.908556 -1.192104 7.457323 31.817788 -0.038550 1.334220 0.076320 -0.019593 -1146400.000000 0 0 1
29.493836 -1.192104 7.997823 30.582228 -0.040397 1.306201 0.066405 -0.012544 -1340010.000000 0 0 1
28.619186 -0.678904 7.007323 29.472382 -0.023718 1.330738 0.075592 -0.021081 176861.000000 0 0 1
27.254226 -0.902304 7.301323 28.229707 -0.033095 1.309183 0.070961 -0.010377 88271.800000 0 0 1
26.658826 -2.319404 7.039323 27.669925 -0.086785 1.313566 0.095666 -0.025468 -655391.000000 0 0 1
27.073926 -3.295204 8.001723 28.423290 -0.121116 1.285419 0.079261 -0.029304 663659.000000 0 0 1
26.435026 -4.538304 7.750323 27.919068 -0.170020 1.289502 0.098255 -0.041856 -499106.000000 0 0 1
26.648926 -5.548104 8.875523 28.630782 -0.205260 1.255604 0.093959 -0.038521 -457354.000000 0 0 1
25.804626 -5.345304 9.973023 28.176448 -0.204256 1.209006 0.102302 -0.037169 437031.000000 0 0 1
26.281526 -6.204704 10.984423 29.152608 -0.231841 1.184467 0.093755 -0.034300 43688.700000 0 0 1
25.342526 -6.197104 12.206023 28.803381 -0.239827 1.133192 0.094082 -0.030628 275074.000000 0 0 1
24.241426 -7.090804 12.121123 28.015137 -0.284569 1.123351 0.107153 -0.031040 537086.000000 0 0 1
23.170126 -6.669804 12.980923 27.383306 -0.280284 1.076917 0.119119 -0.035416 569350.000000 0 0 1
22.050926 -7.735904 13.040923 26.761040 -0.337405 1.061790 0.106181 -0.040776 81813.300000 0 0 1
22.317026 -8.797004 13.898023 27.723492 -0.375482 1.045686 0.095711 -0.039375 689854.000000 0 0 1
21.280226 -9.772604 13.659023 27.109422 -0.430506 1.042749 0.129698 -0.058076 473553.000000 0 0 1
21.418626 -10.978604 14.576323 28.138168 -0.473655 1.026254 0.121293 -0.050341 -224351.000000 0 0 1
21.449026 -10.673204 15.949623 28.781392 -0.461732 0.983438 0.097384 -0.041720 353401.000000 0 0 1
22.047726 -11.775904 16.609423 30.010783 -0.490562 0.984297 0.097387 -0.034643 -12010.100000 0 0 1
21.934026 -11.690604 18.131423 30.765569 -0.489690 0.940553 0.098491 -0.028540 175288.000000 0 0 1
20.582126 -11.833704 18.533423 30.118902 -0.521797 0.907977 0.099308 -0.023445 26800.900000 0 0 1
20.313526 -12.185104 19.863923 30.914262 -0.540310 0.872976 0.098229 -0.011958 51532.100000 0 0 1
20.654526 -11.189904 21.006323 31.513315 -0.496499 0.841177 0.081428 -0.010318 -247272.000000 0 0 1
19.847726 -10.035104 21.167223 30.703207 -0.468121 0.810116 0.065469 -0.011182 -213177.000000 0 0 1
20.154926 -8.900704 20.391123 30.020685 -0.415859 0.824075 0.081233 -0.011668 -636878.000000 0 0 1
21.270726 -8.033704 21.036723 30.976248 -0.361125 0.824227 0.074289 0.003586 17016.300000 0 0 1
22.605826 -8.415104 20.965623 31.959267 -0.356361 0.855275 0.073052 -0.004067 -307646.000000 0 0 1
23.227526 -8.524004 19.666723 31.606275 -0.351720 0.899194 0.079824 -0.012326 -594141.000000 0 0 1
24.672326 -9.021004 19.763223 32.873807 -0.350533 0.925814 0.076895 -0.014651 -353244.000000 0 0 1
24.636326 -10.396104 20.137723 33.474699 -0.399312 0.925318 0.060399 -0.014348 200982.000000 0 0 1
25.893626 -11.003804 19.911023 34.467557 -0.401838 0.954920 0.056931 -0.021137 193590.000000 0 0 1
25.763126 -12.465104 20.299823 35.088464 -0.450632 0.953868 0.022298 -0.005710 -255187.000000 0 0 1
24.922626 -13.131604 19.390323 34.198845 -0.484931 0.967952 0.058129 -0.017690 2449.110000 0 0 1
24.926126 -14.550904 19.563723 34.868035 -0.528394 0.975108 0.040372 -0.007440 -106125.000000 0 0 1
23.839026 -15.273904 18.736823 33.950845 -0.569817 0.986178 0.069485 -0.009375 -72211.200000 0 0 1
24.124726 -15.228204 17.322823 33.376352 -0.563065 1.025098 0.050435 -0.008646 151845.000000 0 0 1
23.136626 -15.771404 16.476823 32.488866 -0.598314 1.038918 0.044421 -0.014242 -205946.000000 0 0 1
22.895926 -17.311304 16.534723 33.125546 -0.647385 1.048175 0.034690 -0.016340 465688.000000 0 0 1
24.092126 -18.051404 16.248923 34.209812 -0.643031 1.075857 0.027993 -0.009232 650413.000000 0 0 1
23.871926 -19.445504 16.494323 34.929346 -0.683566 1.078989 0.026911 -0.005521 -170558.000000 0 0 1
25.095626 -20.351804 16.265623 36.173981 -0.681394 1.104423 0.015126 0.001426 -139952.000000 0 0 1
25.230326 -20.513604 14.877723 35.759250 -0.682650 1.141696 0.011757 -0.012866 160611.000000 0 0 1
26.146426 -21.562204 14.601723 36.902230 -0.689604 1.163981 0.011280 -0.024032 -175974.000000 0 0 1
26.501526 -21.469304 13.099623 36.535764 -0.680879 1.204090 0.013747 -0.033573 -92743.300000 0 0 1
25.377426 -21.793204 12.306623 35.642819 -0.709560 1.218263 0.018593 -0.019092 299964.000000 0 0 1
25.518026 -21.293204 10.974623 35.000180 -0.695390 1.251858 0.045999 -0.015842 -50187.500000 0 0 1
24.276326 -21.498204 10.080023 33.957616 -0.724781 1.269413 0.016130 -0.009142 -88253.300000 0 0 1
24.012426 -22.811904 9.708923 34.514385 -0.759765 1.285647 0.016729 -0.011905 547347.000000 0 0 1
22.629426 -23.140704 9.881523 33.841212 -0.796568 1.274482 -0.005408 0.006952 623637.000000 0 0 1
22.055626 -24.032604 8.745423 33.771277 -0.828267 1.308851 0.002247 0.011965 -550433.000000 0 0 1
22.325326 -25.395144 8.891123 34.962632 -0.849639 1.313669 0.005669 0.009742 28673.300000 0 0 1
21.933526 -26.206504 7.800723 35.052985 -0.873928 1.346376 0.015627 0.011016 294794.000000 0 0 1
20.411126 -26.536694 7.712123 34.355306 -0.915141 1.344386 0.011717 0.022081 510341.000000 0 0 1
19.635926 -25.378564 7.420023 32.934752 -0.912286 1.343551 0.006273 0.024893 -1314590.000000 0 0 1
18.318826 -25.544364 7.796923 32.386509 -0.948661 1.327662 0.021671 0.012921 -1064710.000000 0 0 1
17.600326 -24.188404 7.767423 30.906039 -0.941763 1.316749 0.023588 0.005974 -525856.000000 0 0 1
17.407726 -23.753504 6.477923 30.153298 -0.938363 1.354276 0.037582 0.013063 -5358.070000 0 0 1
16.823826 -22.458604 6.587623 28.824067 -0.927869 1.340213 0.048625 0.001889 -129020.000000 0 0 1
16.176926 -21.944104 5.287123 27.770314 -0.935546 1.379239 0.045850 0.008680 -360526.000000 0 0 1
15.682226 -20.596404 5.327923 26.429735 -0.920035 1.367817 0.083034 -0.002671 63425.900000 0 0 1
15.199226 -20.175704 4.075323 25.586789 -0.925159 1.410841 0.070673 0.001031 448186.000000 0 0 1
14.335226 -18.902904 4.166323 24.086859 -0.921966 1.396951 0.086126 0.000763 475369.000000 0 1 0
15.237826 -17.869304 4.502523 23.911840 -0.864715 1.381369 0.060304 0.000041 338683.000000 0 1 0
14.606626 -16.612204 4.445523 22.562836 -0.849553 1.372470 0.055037 0.002289 283959.000000 0 1 0
15.612126 -15.442004 4.569023 22.429221 -0.779920 1.365652 0.043646 0.002708 -108439.000000 0 1 0
16.253026 -15.221904 5.819723 23.016004 -0.752650 1.315166 0.061702 -0.008163 178797.000000 0 1 0
17.239426 -14.219204 5.642723 23.048296 -0.689685 1.323461 0.048722 -0.013721 -655913.000000 0 1 0
18.660426 -14.746504 5.664123 24.448992 -0.668771 1.337001 0.056774 -0.012220 -784070.000000 0 1 0
19.524926 -13.704804 5.226923 24.420589 -0.612009 1.355090 0.066136 -0.021254 1930140.000000 0 1 0
20.949726 -14.066904 5.211623 25.766836 -0.591314 1.367130 0.065269 -0.011417 2244220.000000 0 0 1
21.992226 -12.913904 5.310023 26.050399 -0.530957 1.365521 0.066681 -0.013493 -23459.500000 0 0 1
21.926026 -12.216304 6.512623 25.930735 -0.508324 1.316923 0.084982 -0.026275 246569.000000 0 0 1
22.728826 -11.037304 6.555523 26.103573 -0.452068 1.316944 0.084154 -0.031280 -144099.000000 0 0 1
22.867126 -10.416504 7.990723 26.367797 -0.427437 1.262906 0.100109 -0.034800 428709.000000 0 0 1
23.600826 -11.340104 8.873923 27.646763 -0.447923 1.244037 0.099077 -0.029572 883989.000000 0 0 1
23.773226 -10.800204 10.177123 28.024713 -0.426425 1.199152 0.121735 -0.038621 -10820.800000 0 0 1
24.228926 -11.773404 11.270523 29.200661 -0.452323 1.174539 0.091991 -0.028390 -730251.000000 0 0 1
23.224226 -12.610504 11.692123 28.898015 -0.497445 1.154255 0.094978 -0.032271 -276285.000000 0 0 1
23.679226 -13.661104 12.511323 30.064344 -0.523279 1.141587 0.087311 -0.027839 -795605.000000 0 0 1
22.677326 -14.762204 12.776323 29.923540 -0.577055 1.129662 0.060734 -0.022409 -260959.000000 0 0 1
21.587026 -14.319804 13.593123 29.254564 -0.585705 1.087557 0.066151 -0.034503 1159700.000000 0 0 1
20.538826 -15.349104 13.511823 28.982888 -0.641785 1.085806 0.051568 -0.027471 1433740.000000 0 0 1
19.126226 -14.854804 13.976723 27.961161 -0.660354 1.047357 0.056303 -0.031883 366618.000000 0 0 1
18.955526 -14.448104 15.311023 28.328204 -0.651270 0.999781 0.062035 -0.036092 53755.900000 0 0 1
18.619826 -13.071004 15.450323 27.500211 -0.612063 0.974205 0.083930 -0.046145 -620690.000000 0 0 1
17.141126 -12.712204 15.623223 26.448128 -0.638116 0.938856 0.071599 -0.044845 -393110.000000 0 0 1
16.424326 -13.026304 14.396523 25.430356 -0.670526 0.969010 0.067605 -0.052306 357283.000000 0 0 1
15.020126 -12.906004 14.513023 24.551924 -0.709838 0.938355 0.080731 -0.045704 248196.000000 0 1 0
14.435926 -11.477804 14.263523 23.314889 -0.671737 0.912491 0.060741 -0.045020 -508605.000000 0 1 0
14.832226 -10.576204 15.195123 23.722201 -0.619435 0.875589 0.047529 -0.030812 -15211.100000 0 1 0
14.417726 -9.313304 14.794223 22.660042 -0.573531 0.859420 0.033198 -0.028388 -1129860.000000 0 1 0
14.967426 -8.248904 15.742323 23.235512 -0.503706 0.826423 0.037846 -0.026602 -1154740.000000 0 1 0
16.343026 -8.188104 15.708923 24.102071 -0.464459 0.860885 0.045118 -0.036193 -946329.000000 0 1 0
16.853526 -8.986004 16.801623 25.437849 -0.489840 0.849316 0.068162 -0.033913 -290806.000000 0 0 1
18.403726 -9.103304 16.823023 26.543952 -0.459354 0.884366 0.089878 -0.036228 406933.000000 0 0 1
18.953026 -7.904004 17.441223 26.942286 -0.395102 0.866687 0.075087 -0.035957 92349.900000 0 0 1
20.211926 -7.733704 16.820223 27.408978 -0.365444 0.910089 0.068971 -0.026447 -281669.000000 0 0 1
20.798226 -6.378404 17.113123 27.678679 -0.297574 0.904246 0.050564 -0.013240 -381438.000000 0 0 1
21.156226 -6.114804 18.449923 28.729365 -0.281363 0.873435 0.074942 -0.015868 276154.000000 0 0 1
21.881526 -4.893804 18.504023 29.071453 -0.220029 0.880843 0.078516 -0.017300 114586.000000 0 0 1
-5.139404 -32.926894 -6.632181 33.979106 1.415960 1.767241 0.029365 -0.010102 262213.000000 0 0 1
-6.143704 -31.960194 -6.297681 33.149056 1.380883 1.761939 0.018178 -0.014958 526357.000000 0 0 1
-5.773404 -31.186094 -5.152981 32.131882 1.387741 1.731862 0.014956 -0.006943 -567794.000000 0 0 1
-6.456904 -29.805594 -5.177181 30.933287 1.357459 1.738954 0.018260 -0.001493 11185.100000 0 0 1
-7.817204 -29.745394 -4.850281 31.135548 1.313804 1.727213 0.019473 -0.001221 -218603.000000 0 0 1
-8.684804 -30.075894 -5.911081 31.857905 1.289680 1.757423 0.019742 -0.011182 -879074.000000 0 0 1
-10.168704 -30.032794 -5.585981 32.195876 1.244325 1.745179 0.028979 -0.011899 -224015.000000 0 0 1
-11.066704 -30.548194 -6.545181 33.143680 1.223232 1.769582 0.029125 -0.018677 -440304.000000 0 0 1
-12.406504 -30.346394 -6.208581 33.367221 1.182701 1.757955 0.034482 -0.019015 -511685.000000 0 0 1
-13.440604 -30.886594 -7.171281 34.439204 1.160352 1.780561 0.046692 -0.023932 -215565.000000 0 0 1
-13.387204 -30.213394 -8.386781 34.094054 1.153705 1.819337 0.060273 -0.028628 696745.000000 0 0 1
-14.490504 -30.587094 -9.246281 35.086162 1.128372 1.837477 0.073153 -0.031500 724547.000000 0 0 1
-14.560004 -29.792194 -10.564181 34.801874 1.116214 1.879215 0.086236 -0.028752 -396173.000000 0 0 1
-14.907804 -28.429794 -10.410481 33.747206 1.087841 1.884395 0.084948 -0.028636 328558.000000 0 0 1
-13.896404 -27.547794 -9.909081 32.406495 1.103597 1.881548 0.078595 -0.021644 119824.000000 0 0 1
-14.415004 -26.090494 -9.603681 31.316719 1.066036 1.882482 0.067875 -0.006531 161706.000000 0 0 1
-14.752404 -25.291294 -10.721181 31.180550 1.042747 1.921802 0.081178 -0.014924 -117541.000000 0 0 1
-15.469904 -24.162694 -10.408181 30.520222 1.001313 1.918804 0.057584 0.000833 -415278.000000 0 0 1
-16.086104 -23.441294 -11.650081 30.724280 0.969372 1.959708 0.062848 0.000016 -502628.000000 0 0 1
-17.296404 -24.015494 -12.039981 31.951067 0.946629 1.957163 0.062504 -0.013278 -744738.000000 0 0 1
-17.814404 -23.416894 -13.190781 32.244389 0.920451 1.992250 0.059949 -0.013739 -30982.300000 0 0 1
-19.304904 -23.780394 -13.464381 33.458572 0.888902 1.984955 0.051958 -0.000462 223987.000000 0 0 1
-19.624704 -25.127694 -13.729081 34.713365 0.907749 1.977407 0.086272 -0.009590 -133395.000000 0 0 1
-19.432004 -25.963094 -12.640081 34.805986 0.928290 1.942452 0.099641 -0.015046 -1552560.000000 0 0 1
-19.504004 -27.531694 -12.948381 36.139465 0.954442 1.937231 0.110822 -0.025885 547466.000000 0 0 1
-18.523604 -28.047294 -13.868881 36.360974 0.987116 1.962131 0.116146 -0.028439 598073.000000 0 0 1
-17.171204 -27.732394 -13.585681 35.334214 1.016397 1.965453 0.112255 -0.031869 -687374.000000 0 0 1
-16.178504 -28.806694 -13.975181 35.873044 1.059073 1.970965 0.103225 -0.028003 -401005.000000 0 0 1
-16.053904 -29.006094 -15.390481 36.550626 1.065296 2.005424 0.113002 -0.031873 -271432.000000 0 0 1
-15.411504 -30.173894 -15.830581 37.397669 1.098581 2.007885 0.099667 -0.027127 -410418.000000 0 0 1
-16.215104 -31.465394 -15.732381 38.736397 1.094959 1.989022 0.095659 -0.028527 -271336.000000 0 0 1
-16.324204 -31.898894 -14.358181 38.602803 1.097794 1.951902 0.093810 -0.024513 64417.100000 0 0 1
-16.663404 -33.286094 -14.249681 39.858330 1.106660 1.936395 0.069935 -0.019297 -1111000.000000 0 0 1
-17.170804 -33.627894 -12.799581 39.868547 1.098695 1.897629 0.092822 -0.020711 1002830.000000 0 0 1
-18.502504 -33.146194 -12.463481 39.954364 1.061672 1.888034 0.111544 -0.023323 1212680.000000 0 0 1
-18.834904 -31.731694 -12.386481 38.924015 1.035120 1.894650 0.118137 -0.029830 -128377.000000 0 0 1
-18.177604 -30.858694 -11.233381 37.534959 1.038460 1.874732 0.118435 -0.033735 -160625.000000 0 0 1
-18.471604 -31.224194 -9.946581 37.617615 1.036591 1.838391 0.120347 -0.042626 -75248.800000 0 0 1
-18.325704 -30.126394 -9.022781 36.398374 1.024301 1.821298 0.118904 -0.034538 -97191.100000 0 0 1
-18.554604 -30.429594 -7.539581 36.429093 1.023235 1.779269 0.131054 -0.040207 184307.000000 0 0 1
-17.496704 -31.197594 -6.973081 36.442398 1.059673 1.763329 0.111602 -0.042419 365446.000000 0 0 1
-17.825204 -31.510994 -5.672281 36.644992 1.055993 1.726211 0.119424 -0.052408 -38880.300000 0 0 1
-16.863704 -32.641694 -5.152881 37.100093 1.093933 1.710138 0.101405 -0.041413 976319.000000 0 0 1
-15.598104 -32.076394 -4.772881 35.985779 1.118185 1.703821 0.092057 -0.039814 438898.000000 0 0 1
-15.494304 -31.891194 -3.406181 35.619149 1.118533 1.666570 0.074321 -0.038518 -101342.000000 0 0 1
-14.112404 -31.355394 -2.970081 34.512926 1.147877 1.656960 0.073046 -0.030517 220343.000000 0 0 1
-12.989804 -32.182194 -3.228181 34.854695 1.187162 1.663548 0.024641 -0.026885 -454193.000000 0 0 1
-11.906704 -31.591694 -2.569981 33.858670 1.210367 1.646773 0.032134 -0.018449 -504749.000000 0 0 1
-10.585004 -32.352694 -2.677281 34.145380 1.254598 1.649285 0.039863 -0.023491 -779900.000000 0 0 1
-10.628404 -33.571694 -1.925181 35.266527 1.264191 1.625413 0.048017 -0.019960 100113.000000 0 0 1
-9.380904 -34.226294 -1.792081 35.533817 1.303281 1.621251 0.047007 -0.020523 545258.000000 0 0 1
-8.247504 -33.560094 -0.966781 34.572184 1.329819 1.598764 0.048292 -0.018272 -116020.000000 0 0 1
-8.637704 -33.489994 0.403319 34.588326 1.318379 1.559136 0.061269 -0.018389 -91521.300000 0 0 1
-7.682704 -32.750594 1.130719 33.658638 1.340380 1.537196 0.068457 -0.020676 254563.000000 0 0 1
-6.696004 -33.653994 1.889719 34.365664 1.374395 1.515780 0.080164 -0.020346 90392.100000 0 0 1
-7.494504 34.080096 2.747119 35.002388 -1.354333 1.492232 0.093738 -0.031003 688120.000000 0 0 1
-6.736004 33.017896 3.369719 33.866062 -1.369547 1.471130 0.082257 -0.029955 126242.000000 0 0 1
-5.956404 33.377996 4.622619 34.218971 -1.394202 1.435293 0.074170 -0.028456 -97517.000000 0 0 1
-4.930104 -34.255794 4.345819 34.880532 1.427858 1.445880 0.063933 -0.024703 -449813.000000 0 0 1
-4.324504 -33.773394 5.502119 34.490822 1.443445 1.410588 0.053767 -0.028078 138851.000000 0 0 1
-3.180304 -32.733294 5.375319 33.323819 1.473942 1.408783 0.051143 -0.021962 71124.600000 0 0 1
-3.521204 -31.477994 4.836519 32.041456 1.459397 1.419271 0.042197 -0.018495 -33232.700000 0 0 1
-3.556904 -31.500794 3.398519 31.882621 1.458358 1.463999 0.041401 -0.024929 -156239.000000 0 0 1
-3.981604 -30.153294 2.777219 30.541566 1.439510 1.479738 0.036456 -0.019511 -641748.000000 0 0 1
-3.105104 -29.153794 3.001819 29.471958 1.464689 1.468766 0.030011 -0.008407 -1017250.000000 0 0 1
-3.544204 -27.971294 2.359319 28.293481 1.444759 1.487312 0.028266 -0.005999 376763.000000 0 0 1
-2.682504 -26.670794 2.591019 26.930289 1.470555 1.474435 0.028333 -0.014144 -19323.500000 0 0 1
-3.066304 -25.550194 1.843719 25.799495 1.451357 1.499272 0.035574 -0.015845 -391519.000000 0 0 1
-3.008904 -24.270094 2.467019 24.580015 1.447450 1.470260 0.026782 -0.014961 -580797.000000 0 1 0
-4.130704 -23.935694 3.433019 24.530915 1.399905 1.430389 0.024124 -0.014268 -484100.000000 0 1 0
-4.036804 -24.767394 4.609119 25.513988 1.409228 1.389148 0.024265 -0.014161 139020.000000 0 0 1
-5.078404 -24.363394 5.485319 25.484385 1.365295 1.353856 0.017652 -0.010784 212725.000000 0 0 1
-5.684204 -25.486194 6.395519 26.884176 1.351357 1.330602 0.020736 -0.019047 38748.000000 0 0 1
-4.833704 -25.900094 7.453619 27.381308 1.386290 1.295101 0.009138 -0.020921 -68910.800000 0 0 1
-5.443004 -26.913294 8.200119 28.656477 1.371246 1.280587 0.009957 -0.016855 -179683.000000 0 0 1
-4.712804 -27.369894 9.480819 29.346338 1.400279 1.241828 0.004725 -0.013275 -292258.000000 0 0 1
-4.343704 -26.429994 10.440819 28.747575 1.407905 1.199107 0.005211 -0.012738 58075.200000 0 0 1
-5.425904 -25.897294 11.184919 28.726516 1.364267 1.170861 0.014242 -0.012651 14492.300000 0 0 1
-4.965404 -24.938894 12.277319 28.237143 1.374264 1.120988 0.004012 -0.006856 -10130.800000 0 0 1
-4.130804 -25.511494 13.232919 29.034635 1.410270 1.097567 0.004137 -0.007246 -259928.000000 0 0 1
-3.559504 -24.560494 14.133419 28.559438 1.426870 1.053103 0.009512 -0.008564 -42944.500000 0 0 1
-2.481804 -25.141994 15.065319 29.415014 1.472404 1.033094 0.019225 -0.013987 73995.700000 0 0 1
-2.958204 -25.976094 16.125519 30.717109 1.457403 1.018118 0.017823 -0.009220 -357363.000000 0 0 1
-1.844504 -26.471094 16.793919 31.403133 1.501229 1.006543 0.025522 -0.004958 -156004.000000 0 0 1
-2.143304 -26.888994 18.210119 32.545663 1.491255 0.976983 0.030037 -0.016747 36519.900000 0 0 1
-2.378104 -25.781094 19.034919 32.134846 1.478814 0.936830 0.030593 -0.015414 -172232.000000 0 0 1
-2.487804 -26.176794 20.397819 33.278893 1.476042 0.911026 0.041958 -0.023511 19756.600000 0 0 1
-3.077004 -25.106294 21.287919 33.060089 1.448845 0.871191 0.055570 -0.025366 -10445.200000 0 0 1
-2.646604 -25.282194 22.656719 34.051737 1.466494 0.842818 0.033927 -0.025056 -29622.200000 0 0 1
-2.865604 -24.086494 23.441219 33.732205 1.452382 0.802486 0.039222 -0.023410 551199.000000 0 0 1
-1.781704 -22.950694 23.302419 32.755329 1.493320 0.779296 0.026259 -0.017876 561942.000000 0 0 1
-1.997804 -22.123094 22.145019 31.365975 1.480737 0.786933 0.032706 -0.010180 82406.600000 0 0 1
-1.044904 -21.058694 22.070119 30.522952 1.521218 0.762565 0.040820 -0.008934 98556.100000 0 0 1
-1.685104 -19.843394 21.327019 29.179473 1.486079 0.751170 0.030779 -0.002090 63580.400000 0 0 1
-2.528404 -18.984694 22.146419 29.279264 1.438394 0.713026 0.038964 -0.020637 1184600.000000 0 0 1
-3.875504 -19.431394 22.382219 29.892513 1.373934 0.724612 0.050987 -0.020998 789354.000000 0 0 1
-4.875504 -19.191194 21.195419 29.005487 1.322010 0.751394 0.047749 -0.019535 -154898.000000 0 0 1
-4.958104 -20.148094 20.110419 28.895630 1.329508 0.801030 0.053439 -0.020365 -380409.000000 0 0 1
-5.463004 -21.449294 20.401219 30.101933 1.321405 0.826115 0.043662 -0.012910 179736.000000 0 0 1
-5.582604 -22.264994 19.070019 29.842270 1.325126 0.877564 0.026073 -0.012154 -61069.800000 0 0 1
-6.188804 -23.514194 19.095219 30.916760 1.313438 0.905067 0.025670 -0.016209 -372120.000000 0 0 1
-5.912204 -24.364794 17.960319 30.841051 1.332744 0.949179 0.029022 -0.012336 51625.300000 0 0 1
-6.575504 -25.721294 18.158519 32.164484 1.320512 0.970906 0.031046 -0.014969 826962.000000 0 0 1
-7.996504 -25.622994 18.252019 32.459484 1.268291 0.973630 0.046567 -0.018865 124321.000000 0 0 1
-8.648304 -26.871594 18.079519 33.522302 1.259427 1.001157 0.051739 -0.020313 332112.000000 0 0 1
-10.187704 -26.768994 18.181619 33.925501 1.207144 1.005190 0.064076 -0.018703 -697925.000000 0 0 1
-10.769904 -26.189394 17.016219 33.036751 1.180645 1.029708 0.064805 -0.014982 -596826.000000 0 0 1
-12.160204 -26.118094 17.025919 33.465017 1.135057 1.037044 0.038928 -0.011437 -215349.000000 0 0 1
-12.774804 -25.152994 18.099019 33.517805 1.100861 1.000380 0.049532 -0.018915 -953438.000000 0 0 1
-12.491404 -23.768394 17.855619 32.245850 1.086921 0.983955 0.041066 -0.013563 -141428.000000 0 0 1
-12.824904 -22.916894 18.911219 32.361959 1.060592 0.946698 0.041200 -0.014874 53391.700000 0 0 1
-11.622304 -22.222894 19.645519 31.857203 1.088928 0.906285 0.032339 -0.019397 306186.000000 0 0 1
-11.048604 -23.230294 20.444619 32.858799 1.126849 0.899251 0.033791 -0.018381 369532.000000 0 0 1
-9.625504 -23.290194 20.262619 32.336623 1.178889 0.893594 0.053278 -0.023615 758313.000000 0 0 1
-9.066804 -24.385294 21.203219 33.562271 1.214821 0.886978 0.050845 -0.027466 -25189.300000 0 0 1
-9.031204 -23.961194 22.516319 34.098183 1.210353 0.849528 0.050704 -0.027285 407437.000000 0 0 1
-8.170104 -24.863694 23.230519 34.994441 1.253316 0.844862 0.051574 -0.022913 355081.000000 0 0 1
-7.876704 -24.368994 24.683319 35.569040 1.258169 0.803829 0.050577 -0.026191 590745.000000 0 0 1
-6.809404 -25.107494 25.308719 36.294428 1.305957 0.799149 0.058065 -0.027629 406910.000000 0 0 1
-6.654804 -24.567294 26.607119 36.820879 1.306264 0.763226 0.054391 -0.023832 -394306.000000 0 0 1
-5.357104 -25.054894 27.262919 37.412739 1.360153 0.754365 0.064474 -0.022588 -228063.000000 0 0 1
-4.254904 -24.397194 26.678119 36.401227 1.398132 0.748235 0.067744 -0.016473 -764953.000000 0 0 1
-3.061604 -24.710494 27.319019 36.963641 1.447526 0.739096 0.066208 -0.013938 -72784.900000 0 0 1
-1.808604 -23.925194 26.891519 36.039420 1.495346 0.728506 0.053307 -0.013974 -69200.600000 0 0 1
-2.000004 -22.605694 27.418919 35.592338 1.482553 0.691391 0.050398 -0.014654 905545.000000 0 0 1
-0.903104 -21.733994 27.001619 34.673759 1.529268 0.678152 0.044656 -0.014979 1107150.000000 0 0 1
0.152496 -21.572494 28.110519 35.434405 -1.563727 0.654567 0.044139 -0.011530 -303122.000000 0 0 1
0.807596 -22.711394 28.612919 36.539825 -1.535252 0.671224 0.048533 -0.011088 194625.000000 0 0 1
1.589296 -22.521894 29.778819 37.370304 -1.500346 0.648720 0.042889 -0.015738 -107541.000000 0 0 1
2.297896 -23.773594 30.281319 38.567116 -1.474438 0.667843 0.063588 -0.025702 -46234.200000 0 0 1
3.376696 -24.217994 29.454519 38.281615 -1.432260 0.692869 0.056700 -0.025789 568531.000000 0 0 1
3.931296 -25.465994 29.974019 39.527380 -1.417631 0.710079 0.051072 -0.020391 -298311.000000 0 0 1
5.216496 -25.353994 30.810619 40.240913 -1.367881 0.698739 0.045215 -0.020548 166746.000000 0 0 1
6.384396 -24.866994 30.180119 39.622816 -1.319483 0.704886 0.047400 -0.023810 347549.000000 0 0 1
7.031096 -25.666094 29.169619 39.484825 -1.303411 0.739575 0.041017 -0.019969 272444.000000 0 0 1
8.280696 -24.938494 28.595719 38.835726 -1.250206 0.743173 0.049880 -0.016923 626070.000000 0 0 1
7.808596 -24.093794 27.547419 37.421189 -1.257386 0.743440 0.062161 -0.022577 435848.000000 0 0 1
8.903496 -23.759894 26.707119 36.838499 -1.212264 0.759793 0.052251 -0.017543 197972.000000 0 0 1
8.675896 -22.584394 25.721519 35.311791 -1.204024 0.754796 0.067991 -0.016008 -172368.000000 0 0 1
8.038496 -23.164194 24.625819 34.750947 -1.236777 0.783231 0.071357 -0.005115 -158170.000000 0 0 1
7.780496 -22.181294 23.670319 33.359106 -1.233437 0.781921 0.070126 -0.000337 189198.000000 0 0 1
7.064696 -22.594794 22.332119 32.544711 -1.267757 0.814547 0.066076 -0.000355 740746.000000 0 0 1
7.958196 -23.182694 21.363119 32.513890 -1.240119 0.853903 0.071164 0.001485 621382.000000 0 0 1
7.297496 -23.255294 20.113419 31.600819 -1.266728 0.880865 0.078050 0.000072 -34066.500000 0 0 1
8.121396 -24.043394 19.118619 31.773629 -1.245048 0.925152 0.090775 -0.020579 -837028.000000 0 0 1
9.389896 -23.533594 19.001719 31.671210 -1.191153 0.927335 0.091783 -0.024131 -1619140.000000 0 0 1
10.273396 -24.347194 18.321819 32.156144 -1.171508 0.964562 0.093542 -0.022989 -239208.000000 0 0 1
11.469496 -23.554794 17.788419 31.667105 -1.117661 0.974319 0.083685 -0.023052 -88847.200000 0 0 1
11.016196 -22.604894 16.837619 30.262902 -1.117331 0.980776 0.086929 -0.020916 163402.000000 0 0 1
12.090796 -21.906994 16.235719 29.827878 -1.066484 0.995226 0.082997 -0.030440 130078.000000 0 0 1
-11.954404 22.543996 11.771919 28.101914 -1.083227 1.138562 0.014655 -0.011160 -10415.500000 0 0 1
-12.998404 21.758396 11.227119 27.720651 -1.032293 1.153807 0.011588 -0.013477 280937.000000 0 0 1
-12.511304 20.460896 10.943319 26.361662 -1.021983 1.142719 0.017137 -0.014995 -30691.900000 0 0 1
-13.431804 19.677596 9.963719 25.824346 -0.971848 1.174693 0.029843 -0.018847 -369078.000000 0 0 1
-13.477604 20.365596 8.751219 25.941996 -0.986182 1.226709 0.034398 -0.031487 -12475.600000 0 0 1
-14.153004 19.715096 7.702419 25.462124 -0.948173 1.263477 0.034399 -0.030234 -808424.000000 0 0 1
-15.662004 19.824196 7.752619 26.427263 -0.902155 1.273060 0.043210 -0.023629 -938829.000000 0 0 1
-16.386104 18.857696 8.515619 26.393803 -0.855412 1.242282 0.037081 -0.031089 570167.000000 0 0 1
-17.788904 19.026596 8.342419 27.350547 -0.819004 1.260839 0.042577 -0.026090 637914.000000 0 0 1
-18.634204 17.934396 9.126319 27.425641 -0.766264 1.231561 0.043440 -0.021163 138065.000000 0 0 1
-18.690604 16.594296 8.593519 26.430246 -0.726057 1.239637 0.050517 -0.031533 58926.100000 0 0 1
-19.133004 15.619696 9.536019 26.476072 -0.684646 1.202341 0.055719 -0.031989 -461761.000000 0 0 1
-18.157504 15.152396 10.633519 25.929940 -0.695425 1.148247 0.054402 -0.024071 446525.000000 0 0 1
-17.171304 14.270596 10.027419 24.475553 -0.693402 1.148681 0.039890 -0.012287 516415.000000 0 1 0
-16.451904 13.358496 10.845819 23.806435 -0.681999 1.097769 0.028573 -0.020166 414669.000000 0 1 0
-17.295204 12.293696 11.659419 24.211590 -0.617948 1.068358 0.035135 -0.016455 517777.000000 0 1 0
-18.116504 11.390996 10.880519 24.007253 -0.561301 1.100424 0.031701 -0.013101 480312.000000 0 1 0
-19.019904 10.674896 11.705819 24.753512 -0.511438 1.078223 0.047824 -0.012899 -618382.000000 0 1 0
-20.037304 9.822696 10.979519 24.870238 -0.455793 1.113558 0.052636 -0.017100 -803334.000000 0 1 0
-19.522604 8.874596 10.017019 23.669203 -0.426657 1.133812 0.050325 -0.019896 261525.000000 0 1 0
-19.099204 9.470296 8.800419 23.063249 -0.460320 1.179294 0.059724 -0.014991 -48286.900000 0 1 0
-20.125204 9.612896 7.602319 23.563252 -0.445612 1.242285 0.076231 -0.026791 562181.000000 0 1 0
-20.684204 8.324896 7.216819 23.435500 -0.382639 1.257765 0.071087 -0.027754 673944.000000 0 1 0
-21.470204 8.343296 6.052919 23.816340 -0.370639 1.313828 0.081769 -0.025919 -33659.300000 0 1 0
-21.772804 6.938996 5.478619 23.499360 -0.308523 1.335492 0.097487 -0.023991 16046.000000 0 1 0
-22.581704 6.089296 6.311619 24.224975 -0.263391 1.307213 0.100853 -0.017936 502266.000000 0 1 0
-22.361204 4.730196 6.073619 23.649250 -0.208463 1.311065 0.113682 -0.030526 -494030.000000 0 1 0
-23.586504 3.823796 6.249119 24.698099 -0.160720 1.314995 0.156329 -0.028458 -225777.000000 0 1 0
-24.556804 4.012996 5.238719 25.428034 -0.161985 1.363289 0.143319 -0.034837 947790.000000 0 0 1
-25.530124 2.926896 5.134719 26.205329 -0.114146 1.373579 0.143253 -0.038678 -87456.400000 0 0 1
-26.540554 3.118796 4.029019 27.025190 -0.116974 1.421155 0.135823 -0.036994 -650701.000000 0 0 1
-26.048644 3.028796 2.700619 26.362830 -0.115755 1.468176 0.131820 -0.034410 442689.000000 0 0 1
-27.105684 3.081896 1.741919 27.335882 -0.113213 1.507030 0.127648 -0.030899 167916.000000 0 0 1
-26.626034 3.068296 0.298419 26.803902 -0.114731 1.559663 0.137525 -0.028045 -124756.000000 0 0 1
-25.928804 4.258996 -0.140181 26.276635 -0.162804 1.576131 0.131941 -0.029790 507198.000000 0 0 1
-26.165034 4.653096 -1.494881 26.617569 -0.175996 1.626987 0.158749 -0.023177 281340.000000 0 0 1
-27.583024 5.205596 -1.837981 28.130048 -0.186531 1.636182 0.140050 -0.038962 587889.000000 0 0 1
-28.610114 4.220496 -1.795081 28.975395 -0.146461 1.632788 0.119679 -0.040451 -410960.000000 0 0 1
-29.819344 4.800996 -2.156581 30.280252 -0.159633 1.642077 0.110497 -0.026230 -769174.000000 0 0 1
-30.976534 3.823096 -2.411881 31.304614 -0.122798 1.647918 0.099908 -0.020794 -402585.000000 0 0 1
-31.016334 3.230296 -3.688981 31.401534 -0.103774 1.688546 0.100366 -0.023753 462184.000000 0 0 1
-31.864994 2.069496 -3.728081 32.149016 -0.064855 1.687020 0.110994 -0.023755 253668.000000 0 0 1
-31.949434 1.431696 -5.148881 32.393318 -0.044781 1.730422 0.111931 -0.032601 422023.000000 0 0 1
-30.628944 1.112996 -5.608781 31.158135 -0.036322 1.751793 0.121825 -0.029726 862929.000000 0 0 1
-30.684474 0.181596 -6.680281 31.403759 -0.005918 1.785157 0.130223 -0.026735 -87046.500000 0 0 1
-31.168394 0.657396 -8.078181 32.204937 -0.021089 1.824341 0.130794 -0.024268 -376562.000000 0 0 1
-32.523974 1.014596 -8.141581 33.542863 -0.031185 1.815967 0.125017 -0.027713 -41032.600000 0 0 1
-32.804154 1.882796 -9.223481 34.128141 -0.057332 1.844460 0.125737 -0.026903 283936.000000 0 0 1
-34.325652 2.166196 -9.398081 35.654827 -0.063024 1.837533 0.126404 -0.023499 552944.000000 0 0 1
-34.936344 2.938596 -8.399481 36.051835 -0.083915 1.805941 0.096995 -0.019711 1560950.000000 0 0 1
36.173896 2.645196 -8.141181 37.172929 0.072995 1.791594 0.093380 -0.015585 1367850.000000 0 0 1
35.643106 3.420396 -6.909881 36.467473 0.095669 1.761430 0.098171 -0.014521 55756.200000 0 0 1
34.235076 3.285296 -6.895281 35.076752 0.095670 1.768662 0.105561 -0.018957 150810.000000 0 0 1
33.634946 3.979196 -5.859181 34.372571 0.117758 1.742094 0.093999 -0.030193 -238625.000000 0 0 1
32.278956 3.561896 -5.300481 32.904608 0.109903 1.732588 0.093167 -0.023621 -270222.000000 0 0 1
32.382766 2.323096 -4.704181 32.805025 0.071616 1.714691 0.110670 -0.025439 788646.000000 0 0 1
31.104596 1.665496 -4.573181 31.483071 0.053494 1.716570 0.096937 -0.027529 437722.000000 0 0 1
31.151606 0.279396 -3.887181 31.394439 0.008969 1.694932 0.113828 -0.025759 -297719.000000 0 0 1
32.156556 -0.563704 -4.368681 32.456852 -0.017528 1.705806 0.101473 -0.024169 -75963.300000 0 0 1
32.081856 -1.802604 -3.701681 32.344974 -0.056129 1.685491 0.101711 -0.017221 407726.000000 0 0 1
33.305856 -2.728204 -3.996481 33.655535 -0.081731 1.689824 0.091311 -0.011974 353597.000000 0 0 1
33.312136 -3.892904 -3.235981 33.694580 -0.116334 1.666983 0.086537 -0.011851 366382.000000 0 0 1
34.611466 -4.459704 -3.068781 35.032271 -0.128144 1.658507 0.103993 -0.011631 343349.000000 0 0 1
34.617426 -5.791604 -2.270981 35.171953 -0.165768 1.635409 0.084026 -0.011345 -190054.000000 0 0 1
34.209196 -5.822904 -0.921881 34.713473 -0.168599 1.597356 0.094090 -0.027003 230817.000000 0 0 1
34.673086 -7.092904 -0.396481 35.393353 -0.201781 1.581999 0.094734 -0.020956 229083.000000 0 0 1
33.968256 -7.309004 0.983119 34.759610 -0.211940 1.542509 0.086217 -0.019624 -363708.000000 0 0 1
32.615926 -7.572504 0.745719 33.491754 -0.228130 1.548529 0.080554 -0.018574 -579783.000000 0 0 1
31.840696 -7.663204 1.928019 32.806583 -0.236181 1.511993 0.081783 -0.037048 -421245.000000 0 0 1
31.668406 -9.141504 2.293019 33.041081 -0.281024 1.501341 0.094693 -0.037929 -168651.000000 0 0 1
30.539596 -9.780704 1.690619 32.112106 -0.309942 1.518125 0.094306 -0.045297 181009.000000 0 0 1
29.357216 -9.566404 2.416019 30.970944 -0.315011 1.492708 0.088249 -0.046445 -764990.000000 0 0 1
28.242406 -10.583304 1.957519 30.223695 -0.358535 1.505983 0.089559 -0.044466 -636629.000000 0 0 1
26.943926 -10.445904 2.458719 29.002369 -0.369850 1.485918 0.102055 -0.045210 712624.000000 0 0 1
26.164326 -9.285204 1.993119 27.834502 -0.341016 1.499129 0.104490 -0.044824 -53728.300000 0 0 1
25.660826 -9.509804 0.538319 27.371594 -0.354904 1.551128 0.097140 -0.038234 -349463.000000 0 0 1
26.711226 -9.584404 -0.462781 28.382470 -0.344507 1.587102 0.092848 -0.039801 952185.000000 0 0 1
26.254726 -9.922604 -1.773381 28.123187 -0.361342 1.633896 0.087585 -0.026468 -378763.000000 0 0 1
25.443926 -11.195904 -2.082781 27.876148 -0.414526 1.645582 0.076544 -0.022724 241982.000000 0 0 1
24.068826 -11.136704 -1.730681 26.576867 -0.433367 1.635962 0.084856 -0.016955 336060.000000 0 0 1
23.461526 -12.402704 -1.711081 26.593196 -0.486296 1.635184 0.062753 -0.009735 -167911.000000 0 0 1
22.003626 -12.388604 -1.215981 25.280738 -0.512789 1.618914 0.077853 -0.016442 -33463.400000 0 0 1
21.063626 -11.983104 -2.177681 24.331326 -0.517238 1.660417 0.075117 -0.012897 1360190.000000 0 1 0
19.683126 -12.315404 -1.899281 23.295964 -0.559091 1.652415 0.083176 -0.012007 1035670.000000 0 1 0
18.677826 -11.797804 -2.917581 22.283664 -0.563365 1.702102 0.084285 -0.012414 -266305.000000 0 1 0
18.716626 -12.562604 -4.144381 22.919577 -0.591135 1.752619 0.082861 -0.020357 284159.000000 0 1 0
17.833726 -12.000404 -5.082481 22.088076 -0.592309 1.802977 0.078767 -0.018390 -206931.000000 0 1 0
17.974826 -12.618204 -6.457681 22.891376 -0.612062 1.856780 0.075104 -0.023968 -35290.800000 0 1 0
17.188926 -13.795604 -6.699881 23.036195 -0.676316 1.865903 0.076690 -0.027715 552932.000000 0 1 0
17.305126 -14.362904 -8.031181 23.880123 -0.692756 1.913795 0.067042 -0.027771 -234662.000000 0 1 0
16.224826 -15.429204 -8.309281 23.881991 -0.760269 1.926159 0.059827 -0.030222 -636435.000000 0 1 0
14.917326 -14.939404 -8.351081 22.703590 -0.786138 1.947472 0.076701 -0.030583 -320056.000000 0 1 0
13.974026 -15.740904 -9.020081 22.900029 -0.844789 1.975656 0.068376 -0.034616 -103627.000000 0 1 0
14.096826 -15.950204 -10.545281 23.755683 -0.847003 2.030749 0.069435 -0.034272 -823563.000000 0 1 0
13.616726 -14.972904 -11.437981 23.247161 -0.832799 2.085201 0.072655 -0.024077 100780.000000 0 1 0
13.783826 -13.583604 -11.107181 22.313172 -0.778082 2.091840 0.071656 -0.015333 -101752.000000 0 1 0
13.601126 -12.587104 -12.244281 22.211444 -0.746697 2.154670 0.073655 -0.013678 365602.000000 0 1 0
14.826326 -12.378104 -12.955181 23.256701 -0.695646 2.161628 0.069679 -0.019642 526675.000000 0 1 0
14.625626 -11.950104 -14.238481 23.652659 -0.685061 2.216778 0.075949 -0.016328 -547262.000000 0 1 0
15.876026 -11.730804 -15.108281 24.857999 -0.636360 2.224063 0.066144 -0.022898 -169501.000000 0 1 0
16.545026 -12.958104 -15.321881 26.007891 -0.664414 2.200771 0.056010 -0.020246 -11436.000000 0 0 1
17.629426 -12.761604 -16.211781 27.138111 -0.626574 2.211027 0.049070 -0.014513 -613566.000000 0 0 1
18.646026 -13.885704 -16.223481 28.349399 -0.640101 2.180066 0.050559 -0.017198 -862792.000000 0 0 1
19.354126 -13.915904 -15.011381 28.170484 -0.623374 2.132792 0.043949 -0.024587 -356045.000000 0 0 1
20.359626 -14.886204 -15.014181 29.351986 -0.631336 2.107751 0.036458 -0.019189 -304413.000000 0 0 1
21.416226 -14.701504 -13.902781 29.463135 -0.601585 2.062207 0.030799 -0.018995 150422.000000 0 0 1
22.154426 -13.499604 -14.078981 29.517378 -0.547260 2.068003 0.040859 -0.015819 584399.000000 0 0 1
23.234526 -13.293504 -13.160881 29.829000 -0.519686 2.027744 0.043166 -0.013693 652680.000000 0 0 1
23.847826 -11.891504 -13.078981 29.684785 -0.462560 2.027058 0.052329 -0.005288 -464843.000000 0 0 1
23.035326 -10.943704 -12.434681 28.372737 -0.443516 2.024460 0.041152 -0.006965 99668.400000 0 0 1
23.533126 -9.600904 -12.490281 28.319472 -0.387362 2.027564 0.052482 -0.010434 767846.000000 0 0 1
24.810526 -9.313104 -11.605181 28.930544 -0.359094 1.983557 0.067448 -0.008702 641893.000000 0 0 1
25.979326 -9.984104 -12.018981 30.316062 -0.366907 1.978449 0.059572 -0.003571 186786.000000 0 0 1
27.104126 -9.474304 -11.307481 30.858633 -0.336276 1.945964 0.061063 -0.005122 -222466.000000 0 0 1
28.366146 -10.321004 -11.545281 32.318028 -0.348959 1.936107 0.058155 -0.005333 -388486.000000 0 0 1
28.874476 -10.033704 -12.804481 33.141595 -0.334440 1.967475 0.051685 -0.006802 557975.000000 0 0 1
30.156886 -10.673804 -12.940981 34.508505 -0.340183 1.955202 0.051463 -0.007293 528928.000000 0 0 1
30.932716 -10.255204 -14.209681 35.551613 -0.320129 1.981977 0.042924 -0.004229 -136540.000000 0 0 1
30.334136 -10.655004 -15.437881 35.665349 -0.337792 2.018452 0.040525 -0.003186 227681.000000 0 0 1
31.043366 -10.151804 -16.546481 36.613328 -0.316058 2.039719 0.027198 -0.004210 -288572.000000 0 0 1
30.500306 -10.781404 -17.818081 36.932254 -0.339776 2.074249 0.011037 -0.004997 1469590.000000 0 0 1
29.190806 -10.272904 -18.213381 35.907701 -0.338387 2.102761 0.023191 -0.005814 1397100.000000 0 0 1
29.379036 -9.125304 -19.014081 36.165373 -0.301158 2.124397 0.011553 -0.001323 -667102.000000 0 0 1
28.085676 -8.588204 -19.613881 35.316665 -0.296756 2.159606 -0.020567 -0.003701 -449660.000000 0 0 1
27.547826 -9.350104 -20.641581 35.670465 -0.327213 2.187899 -0.011007 -0.001102 -766193.000000 0 0 1
26.198726 -9.055304 -20.738881 34.618969 -0.332785 2.213124 0.027570 0.003923 -705752.000000 0 0 1
25.470826 -9.737004 -21.941481 35.000012 -0.365138 2.248363 0.035316 0.005698 -123201.000000 0 0 1
25.154026 -11.135404 -21.849381 35.130012 -0.416757 2.242037 0.038041 0.007415 -140175.000000 0 0 1
24.451026 -11.501204 -22.982181 35.472680 -0.439670 2.275600 0.041179 -0.000306 -1226490.000000 0 0 1
24.639826 -13.008604 -23.409581 36.391665 -0.485757 2.269555 0.035900 0.010233 817160.000000 0 0 1
25.814626 -13.430004 -24.116781 37.793903 -0.479714 2.262841 0.025504 0.015918 922484.000000 0 0 1
27.065826 -13.069704 -23.514781 38.161775 -0.449863 2.234688 0.020633 0.019790 273527.000000 0 0 1
28.274336 -13.851904 -24.122981 39.663983 -0.455544 2.224567 0.006925 0.022590 354011.000000 0 0 1
28.856666 -13.267604 -25.260771 40.581314 -0.430954 2.242695 0.009527 0.015107 -602771.000000 0 0 1
30.015046 -13.925704 -25.650381 41.866100 -0.434400 2.230239 -0.012800 0.013833 -355742.000000 0 0 1
30.655926 -13.291504 -26.907341 42.900523 -0.409107 2.248753 -0.006090 0.016176 45764.800000 0 0 1
30.130116 -13.834204 -28.083221 43.449700 -0.430436 2.273573 0.001769 0.006641 418587.000000 0 0 1
31.030216 -13.576104 -29.164581 44.696283 -0.412421 2.281683 0.009015 -0.000221 374299.000000 0 0 1
30.958736 -14.601104 -30.304221 45.716314 -0.440696 2.295449 0.011060 -0.005063 -116064.000000 0 0 1
31.481846 -15.830104 -29.944131 46.242295 -0.465911 2.275159 0.009524 -0.000508 -57280.000000 0 0 1
31.938116 -16.608504 -31.051101 47.540052 -0.479536 2.282542 0.014759 -0.004501 399245.000000 0 0 1
30.811756 -17.185904 -31.963421 47.606511 -0.508790 2.306904 -0.004162 -0.000674 411022.000000 0 0 1
30.225766 -16.288504 -32.881071 47.540269 -0.494277 2.334563 -0.022547 0.005246 91515.900000 0 0 1
29.006146 -16.732004 -33.421791 47.311020 -0.523219 2.355234 -0.001246 -0.001490 414771.000000 0 0 1
28.255246 -15.817404 34.016574 46.964631 -0.510339 0.760775 0.020173 -0.003627 455277.000000 0 0 1
27.588356 -14.632204 -34.056731 46.206923 -0.487652 2.399489 0.025395 -0.011501 708476.000000 0 0 1
28.514476 -13.630404 -33.633411 46.152677 -0.445907 2.387280 0.030539 -0.018446 370872.000000 0 0 1
27.701196 -12.335404 -33.238421 44.992345 -0.418940 2.402021 0.043701 -0.011709 454214.000000 0 0 1
27.072926 -11.795104 34.139425 45.139431 -0.410881 0.713141 0.067614 -0.025466 -92107.800000 0 0 1
26.576326 -10.494004 -34.012511 44.421573 -0.376070 2.442887 0.063295 -0.028172 77091.000000 0 0 1
20.548596 -29.857994 9.262119 37.410312 -0.968026 1.320613 0.029587 -0.004560 44048.200000 0 0 1
20.984696 -29.552794 7.931719 37.103063 -0.953341 1.355358 0.025475 -0.007711 245966.000000 0 0 1
22.284296 -30.084594 7.770819 38.236871 -0.933260 1.366142 0.053815 -0.010061 -190293.000000 0 0 1
22.897196 -29.837394 6.401819 38.151474 -0.916252 1.402199 0.049622 -0.004952 -209989.000000 0 0 1
23.321596 -28.510394 6.242819 37.359232 -0.885174 1.402906 0.050336 0.010374 94199.600000 0 0 1
24.029796 -28.323794 5.035619 37.483675 -0.867234 1.436047 0.055512 0.005146 -16643.600000 0 0 1
24.121996 -26.839094 4.620119 36.380670 -0.838665 1.443459 0.056839 0.003289 395529.000000 0 0 1
25.066696 -26.109194 5.410119 36.596430 -0.805766 1.422421 0.050310 0.007929 342352.000000 0 0 1
24.818796 -24.756794 5.282319 35.451014 -0.784148 1.421236 0.042441 0.013863 39738.900000 0 0 1
25.679196 -23.874894 6.208919 35.608740 -0.749003 1.395535 0.038285 0.013004 359625.000000 0 0 1
26.960996 -23.566694 5.662619 36.253960 -0.718322 1.413961 0.045327 0.005271 468718.000000 0 0 1
27.763196 -22.750794 6.546219 36.486253 -0.686494 1.390403 0.053560 -0.001003 292246.000000 0 0 1
27.411296 -21.253194 6.646719 35.316516 -0.659525 1.381463 0.048942 0.006018 -310412.000000 0 0 1
27.583596 -20.524794 5.430819 34.808271 -0.639711 1.414135 0.055823 0.017670 -311275.000000 0 0 1
26.919496 -19.345294 5.546319 33.610435 -0.623124 1.405020 0.056251 0.010356 -494166.000000 0 0 1
26.846896 -18.530794 4.223119 32.893478 -0.604145 1.442053 0.055285 0.012723 213315.000000 0 0 1
28.098196 -18.011894 3.820019 33.593593 -0.570046 1.456837 0.108022 0.000207 89358.900000 0 0 1
27.906996 -17.309494 2.660519 32.946887 -0.555181 1.489957 0.101128 0.004287 701593.000000 0 0 1
29.115096 -16.365794 2.298219 33.478498 -0.512091 1.502095 0.105403 -0.020063 545190.000000 0 0 1
29.081096 -15.073994 2.950019 32.888266 -0.478214 1.480977 0.101972 -0.024181 -514895.000000 0 0 1
30.281096 -14.393794 3.125819 33.673385 -0.443725 1.477835 0.118694 -0.031612 -329774.000000 0 0 1
30.026596 -13.155394 4.047019 33.030883 -0.412935 1.447965 0.118461 -0.031286 197165.000000 0 0 1
29.700496 -13.568194 5.339419 33.086625 -0.428522 1.408711 0.103746 -0.016127 42734.300000 0 0 1
29.669896 -12.439194 6.196619 32.763308 -0.396993 1.380517 0.090343 -0.020352 -92245.800000 0 0 1
29.266396 -12.764494 7.654619 32.833633 -0.411275 1.335498 0.089878 -0.011197 -688246.000000 0 0 1
27.923096 -13.128694 7.742819 31.812154 -0.439503 1.324935 0.080613 -0.006299 -315946.000000 0 0 1
27.405696 -13.260594 9.112819 31.779852 -0.450655 1.279965 0.069754 0.001887 309946.000000 0 0 1
27.790196 -14.570094 9.859119 32.890498 -0.482889 1.266360 0.070098 -0.002321 389001.000000 0 0 1
29.005396 -14.501694 10.613319 34.121176 -0.463620 1.254501 0.059007 0.006547 563006.000000 0 0 1
29.268396 -15.648294 11.483019 35.119337 -0.490980 1.237699 0.051116 0.002390 -29924.800000 0 0 1
29.908096 -15.411394 12.848119 36.014989 -0.475806 1.206016 0.038012 0.006592 510037.000000 0 0 1
31.272696 -14.966494 12.744519 36.937789 -0.446365 1.218529 0.035074 0.004623 1008380.000000 0 0 1
31.975896 -15.149494 13.972019 38.041851 -0.442451 1.194713 0.031181 0.005592 572773.000000 0 0 1
33.522296 -15.007294 13.861619 39.256945 -0.420924 1.209914 0.036536 -0.002786 152619.000000 0 0 1
34.014096 -13.699094 13.835519 39.192416 -0.382873 1.210004 0.036095 -0.000550 -107545.000000 0 0 1
35.281596 -13.719594 13.222319 40.097980 -0.370866 1.234757 0.043936 -0.003180 -619947.000000 0 0 1
35.985196 -12.404094 13.451619 40.370062 -0.331945 1.231093 0.050288 -0.010261 -612722.000000 0 0 1
-35.396035 -12.318294 12.607419 39.541961 0.334904 1.246295 0.066998 -0.013635 229371.000000 0 0 1
-34.712335 -11.092794 12.851419 38.641367 0.309307 1.231756 0.072386 -0.016398 169136.000000 0 0 1
-33.388935 -10.887094 12.057119 37.131171 0.315198 1.240084 0.069098 -0.015499 1318100.000000 0 0 1
-32.258435 -11.741394 12.376019 36.491544 0.349074 1.224786 0.061496 -0.010609 1229650.000000 0 0 1
-32.326735 -12.913094 11.608519 36.695006 0.380037 1.248915 0.052213 -0.011938 -64749.600000 0 0 1
-31.313035 -14.085594 11.905719 36.340834 0.422714 1.237021 0.042510 -0.011438 256180.000000 0 0 1
-29.999135 -13.806794 11.504219 34.970312 0.431337 1.235583 0.051156 -0.008466 -770530.000000 0 0 1
-29.138335 -14.803494 11.893719 34.779973 0.470060 1.221783 0.056441 -0.007059 -621963.000000 0 0 1
-27.813135 -14.817994 11.116419 33.417334 0.489518 1.231680 0.064497 0.004587 -248770.000000 0 0 1
-27.812435 -15.110094 9.719919 33.110773 0.497674 1.272850 0.051322 0.004997 176853.000000 0 0 1
-26.515335 -14.831694 9.209019 31.746624 0.510003 1.276487 0.056626 0.009312 329107.000000 0 0 1
-26.380535 -14.671494 7.682619 31.148162 0.507551 1.321577 0.067799 0.010640 -72005.900000 0 0 1
-26.481435 -15.839894 6.935519 31.627046 0.539059 1.349709 0.070298 0.015027 154279.000000 0 0 1
-26.301535 -15.606294 5.521219 31.077500 0.535523 1.392189 0.074200 0.011426 -253850.000000 0 0 1
-26.634335 -16.873494 4.677319 31.874440 0.564706 1.423523 0.066774 0.011692 -127778.000000 0 0 1
-28.013935 -17.027594 4.462119 33.085193 0.546154 1.435517 0.037393 0.000655 -333806.000000 0 0 1
-28.361335 -18.163094 3.688419 33.880197 0.569609 1.461714 0.037558 0.002038 201377.000000 0 0 1
-29.883135 -18.414094 3.847819 35.311277 0.552249 1.461611 0.050452 -0.008183 323302.000000 0 0 1
-30.697035 -17.421294 3.258919 35.446156 0.516197 1.478726 0.052669 -0.011967 -81521.400000 0 0 1
-32.069835 -17.598894 3.527919 36.751076 0.501897 1.474653 0.054355 -0.012906 475645.000000 0 0 1
-33.038035 -16.635294 2.762919 37.092836 0.466459 1.496241 0.056732 -0.021407 317019.000000 0 0 1
-33.282635 -17.038394 1.455519 37.418701 0.473146 1.531888 0.058760 -0.019755 48050.600000 0 0 1
-34.161535 -16.075494 0.869119 37.764895 0.439830 1.547780 0.078229 -0.025060 2092.780000 0 0 1
-34.650235 -16.645894 -0.448681 38.443801 0.447843 1.582468 0.071672 -0.022186 -9331.680000 0 0 1
-33.640035 -16.714094 -1.455381 37.591635 0.461125 1.609522 0.051566 -0.018391 415573.000000 0 0 1
-34.047935 -17.593994 -2.472581 38.404741 0.476951 1.635223 0.044524 -0.011145 -279581.000000 0 0 1
-32.923835 -18.198794 -3.314881 37.764579 0.504955 1.658687 0.038621 -0.008199 -483656.000000 0 0 1
-33.340135 -19.279994 -4.078081 38.728717 0.524297 1.676291 0.046931 -0.018094 -217341.000000 0 0 1
-32.267335 -19.920294 -4.708081 38.212106 0.553081 1.694319 0.038919 -0.011918 -539323.000000 0 0 1
-32.782535 -20.904694 -5.777781 39.307551 0.567664 1.718320 0.047331 -0.017831 56485.600000 0 0 1
-33.440235 -22.040794 -5.165381 40.382262 0.582753 1.699060 0.047500 -0.014739 127355.000000 0 0 1
-33.587635 -23.050994 -6.113581 41.192880 0.601468 1.719760 0.045170 -0.011874 -103262.000000 0 0 1
-34.361835 -24.221694 -5.567781 42.407857 0.614008 1.702468 0.036273 -0.004202 -57404.200000 0 0 1
-33.578735 -25.092494 -4.759181 42.187847 0.641754 1.683846 0.042961 -0.001101 -157610.000000 0 0 1
-34.330235 -26.214694 -4.358281 43.413936 0.652151 1.671355 0.024624 0.005236 -20302.400000 0 0 1
-33.428435 -27.418294 -3.927881 43.412571 0.686942 1.661398 0.023612 0.007713 -336334.000000 0 0 1
-32.537935 -27.772194 -5.019881 43.072162 0.706541 1.687608 0.004139 0.007215 436681.000000 0 0 1
-31.760135 -28.900394 -4.620081 43.188935 0.738290 1.677975 0.011014 0.003176 505914.000000 0 0 1
-30.688735 -28.793794 -3.458481 42.223715 0.753552 1.652797 0.033093 -0.005948 -193097.000000 0 0 1
-31.216435 -28.442294 -2.156481 42.285698 0.738931 1.621816 0.023532 -0.002772 -418338.000000 0 0 1
-30.207235 -28.386294 -1.189981 41.468961 0.754331 1.599496 0.045370 -0.008639 -253522.000000 0 0 1
-30.700735 -28.112194 0.268919 41.628150 0.741413 1.564336 0.031233 -0.006661 170634.000000 0 0 1
-31.312535 -29.283894 0.803719 42.879683 0.751933 1.552052 0.030471 -0.004641 47865.900000 0 0 1
-31.958435 -29.166194 2.051019 43.315299 0.739749 1.523428 0.034024 -0.001462 -36599.000000 0 0 1
-32.519035 -30.511494 2.624819 44.669101 0.753559 1.512001 0.019676 0.000648 -1129270.000000 0 0 1
-33.522435 -30.244794 3.532819 45.287769 0.734043 1.492709 0.018019 -0.002670 -376348.000000 0 0 1
-34.020335 -31.411394 4.186319 46.492839 0.745547 1.480632 0.024868 0.000678 -138540.000000 0 0 1
-34.990235 -32.279294 3.363419 47.724018 0.745120 1.500261 0.019292 0.004415 -577842.000000 0 0 1
-35.820835 -33.157694 4.073119 48.981172 0.746809 1.487543 0.041666 -0.006817 -561675.000000 0 0 1
35.973496 -33.938394 3.235419 49.561830 -0.756297 1.505469 0.051448 -0.004033 -1125130.000000 0 0 1
34.874496 33.754096 3.917719 48.692073 0.769074 1.490250 0.057517 -0.007649 213536.000000 0 0 1
33.981296 -34.071094 4.790719 48.358235 -0.786718 1.471566 0.041537 -0.008526 1072430.000000 0 0 1
33.248196 -32.907194 4.354419 46.981772 -0.780244 1.477980 0.046274 -0.009031 164922.000000 0 0 1
32.140396 -33.159994 3.263619 46.295156 -0.801011 1.500242 0.050319 -0.001243 29182.600000 0 0 1
32.699296 -33.486394 1.999719 46.846360 -0.797290 1.528097 0.043514 -0.002122 -30826.500000 0 0 1
31.874096 -33.024794 0.948619 45.907460 -0.803127 1.550131 0.041372 0.001926 -813335.000000 0 0 1
32.151796 -33.705094 -0.437181 46.582856 -0.808980 1.580181 0.040864 0.002235 413866.000000 0 0 1
33.276496 -33.272894 -1.190181 47.072574 -0.785344 1.596083 0.016954 0.015096 253240.000000 0 0 1
34.523096 -33.538694 -0.542281 48.135042 -0.770936 1.582062 0.020273 0.015305 -845146.000000 0 0 1
35.684896 -33.285294 -1.489181 48.821514 -0.750620 1.601304 0.008062 0.017677 -625817.000000 0 0 1
35.941896 34.185796 -2.361281 49.659482 0.760362 1.618364 0.019732 0.006109 -91193.900000 0 0 1
-35.813835 -33.946694 -3.445781 49.465970 0.758640 1.640512 0.013940 0.004044 -610848.000000 0 0 1
-35.122035 33.397496 -4.069381 48.636508 -0.760235 1.654564 0.017496 -0.003204 241636.000000 0 0 1
-33.877735 32.972996 -3.512681 47.405256 -0.771865 1.644963 0.025599 -0.000667 457890.000000 0 0 1
-33.301635 31.962996 -4.357881 46.364028 -0.764890 1.664928 0.036840 -0.018410 -490523.000000 0 0 1
-32.025835 31.367396 -3.809481 44.989774 -0.775012 1.655572 0.049657 -0.018637 160409.000000 0 0 1
-30.795835 32.124996 -3.972281 44.678605 -0.806519 1.659822 0.041921 -0.016666 1194710.000000 0 0 1
-29.594035 31.382396 -3.833781 43.305421 -0.814718 1.659441 0.054594 -0.020067 606705.000000 0 0 1
-29.153635 31.078396 -2.383181 42.678808 -0.817343 1.626665 0.046364 -0.013813 -239187.000000 0 0 1
-30.047735 30.216996 -1.682681 42.646976 -0.788207 1.610263 0.044764 -0.009063 115196.000000 0 0 1
-29.704435 30.196896 -0.285681 42.359031 -0.793619 1.577541 0.045935 -0.003969 164115.000000 0 0 1
-30.901735 29.615496 0.506119 42.804800 -0.764147 1.558972 0.043663 -0.001466 236578.000000 0 0 1
-31.355235 28.305196 0.158019 42.241683 -0.734319 1.567055 0.047295 -0.008537 258111.000000 0 0 1
-32.442835 28.353096 -0.757781 43.093036 -0.718229 1.588382 0.061529 -0.007248 117243.000000 0 0 1
-32.823335 26.902896 -1.262181 42.458570 -0.686595 1.600528 0.050611 -0.010099 225181.000000 0 0 1
-33.123135 25.983296 -0.220781 42.098960 -0.665184 1.576041 0.060727 -0.008725 -5355.790000 0 0 1
-33.769335 24.858396 -0.814781 41.940096 -0.634561 1.590225 0.060058 -0.002497 92765.600000 0 0 1
-33.788435 23.606596 0.114719 41.218234 -0.609825 1.568013 0.062364 -0.007065 1236460.000000 0 0 1
-32.477435 23.059796 0.440719 39.833807 -0.617423 1.559732 0.073288 -0.020979 1265440.000000 0 0 1
-32.028235 23.548396 1.731119 39.791098 -0.633987 1.527277 0.069067 -0.027929 -86188.100000 0 0 1
-30.537235 23.247896 2.089819 38.436372 -0.650692 1.516399 0.044547 -0.033378 1040810.000000 0 0 1
-29.526335 24.029196 1.431619 38.095357 -0.683113 1.533208 0.054279 -0.025116 480470.000000 0 0 1
-29.494835 25.429496 1.838719 38.986990 -0.711516 1.523616 0.030264 -0.018820 -646287.000000 0 0 1
-28.804135 26.390196 0.866919 39.075211 -0.741691 1.548609 0.018255 -0.007040 -497302.000000 0 0 1
-27.508935 26.027796 0.538619 37.874500 -0.757739 1.556575 0.019226 -0.010987 -971865.000000 0 0 1
-26.890935 26.928696 -0.342981 38.057780 -0.786100 1.579809 0.030047 -0.015623 1104720.000000 0 0 1
-25.680435 26.392696 -1.233081 36.845347 -0.799075 1.604269 0.028144 -0.010046 514977.000000 0 0 1
-26.093335 25.534196 -2.289681 36.580048 -0.774568 1.633431 0.045980 -0.020522 -796642.000000 0 0 1
-25.077335 24.835296 -2.913481 35.414022 -0.780549 1.653159 0.038968 -0.011745 145185.000000 0 0 1
-24.186735 23.813596 -2.070881 34.005500 -0.777625 1.631732 0.039503 -0.015862 715830.000000 0 0 1
-24.876635 22.608996 -1.733281 33.660331 -0.737680 1.622312 0.029615 -0.018534 809604.000000 0 0 1
-23.909135 21.552796 -1.419881 32.220890 -0.733613 1.614878 0.040521 -0.026291 464296.000000 0 0 1
-24.600835 20.179796 -1.229081 31.842359 -0.686990 1.609405 0.052134 -0.023226 -4553.630000 0 0 1
-25.451235 20.043096 -0.079181 32.395946 -0.667078 1.573240 0.033034 -0.023655 1944500.000000 0 0 1
-26.745635 20.777096 -0.047681 33.867668 -0.660459 1.572204 0.026342 -0.025047 1951090.000000 0 0 1
-27.776935 20.153896 -1.056281 34.334434 -0.627677 1.601566 0.025360 -0.028960 -710242.000000 0 0 1
-28.248235 18.913896 -0.651281 34.001799 -0.590003 1.589952 0.022719 -0.026627 300510.000000 0 0 1
-28.971935 18.336896 -1.764481 34.332610 -0.564274 1.622213 0.034405 -0.026647 124137.000000 0 0 1
-29.296735 16.856596 -1.549781 33.835562 -0.522116 1.616616 0.035544 -0.018884 -209864.000000 0 0 1
-30.139035 16.478596 -0.487481 34.353212 -0.500347 1.584987 0.040870 -0.023310 55802.400000 0 0 1
-30.285535 15.077096 -0.329381 33.832542 -0.461911 1.580532 0.050830 -0.026316 -430447.000000 0 0 1
-29.104935 14.305896 0.265719 32.431874 -0.456847 1.562603 0.065612 -0.024012 -637541.000000 0 0 1
-28.679435 14.699596 1.567019 32.265208 -0.473636 1.522210 0.072692 -0.026266 668523.000000 0 0 1
-27.398635 14.271396 2.032319 30.959461 -0.480212 1.505105 0.079578 -0.024063 286145.000000 0 0 1
-27.193735 12.731496 2.144219 30.102954 -0.437867 1.499506 0.094673 -0.019874 -464128.000000 0 0 1
-26.920235 12.161796 0.837419 29.551812 -0.424326 1.542455 0.094680 -0.020922 415060.000000 0 0 1
-26.464435 10.837296 0.973619 28.614004 -0.388673 1.536764 0.111430 -0.019371 -109206.000000 0 0 1
-26.333535 10.149396 -0.404981 28.224622 -0.367872 1.585145 0.116183 -0.023090 972425.000000 0 0 1
-27.595535 9.622796 -0.906281 29.239238 -0.335524 1.601797 0.108925 -0.026993 1124740.000000 0 0 1
-27.448035 9.213096 -2.220581 29.038022 -0.323839 1.647343 0.109829 -0.026931 1220920.000000 0 0 1
-28.836835 8.967896 -2.980781 30.345860 -0.301506 1.669182 0.103410 -0.030355 1063220.000000 0 0 1
-28.711435 8.550896 -4.317381 30.267211 -0.289457 1.713927 0.118706 -0.028861 -889495.000000 0 0 1
-29.878435 8.200796 -4.948181 31.376080 -0.267875 1.729163 0.097637 -0.035540 -926719.000000 0 0 1
-10.965404 17.734796 -19.767181 28.731594 -1.017030 2.329518 0.061867 -0.008698 269400.000000 0 0 1
-11.570504 16.857896 -20.701981 29.097031 -0.969287 2.362400 0.047629 -0.012072 203084.000000 0 0 1
-11.086504 17.174596 -22.007381 30.036679 -0.997579 2.393053 0.039239 -0.009647 98903.700000 0 0 1
-11.341404 15.939096 -22.909281 30.125029 -0.952363 2.434838 0.037395 -0.008269 -313290.000000 0 0 1
-10.540604 14.816796 -22.693481 29.079818 -0.952463 2.466079 0.037827 -0.010370 -152972.000000 0 0 1
-10.807504 13.714996 -23.605081 29.361592 -0.903411 2.504694 0.036123 -0.011221 -314526.000000 0 0 1
-10.140404 12.410996 -23.218681 28.212900 -0.885745 2.537435 0.006796 -0.007893 -482539.000000 0 0 1
-8.755304 12.338096 -23.415981 27.878165 -0.953646 2.567969 0.020473 -0.009398 -547801.000000 0 0 1
-8.260904 11.201096 -22.842381 26.748485 -0.935338 2.594363 0.010586 -0.010755 774479.000000 0 0 1
-6.734404 11.406396 -22.512581 26.120382 -1.037461 2.609758 0.028488 -0.005752 1258150.000000 0 0 1
-5.840004 11.269396 -23.632381 26.825256 -1.092681 2.648715 0.022713 -0.012364 883828.000000 0 0 1
-4.474304 11.264996 -23.166281 26.145670 -1.192718 2.659543 0.018654 -0.012460 1059880.000000 0 0 1
-3.451304 11.227996 -24.346781 27.032298 -1.272579 2.692071 0.039354 -0.022178 -3649.630000 0 0 1
-3.399104 9.991396 -24.962581 27.101888 -1.242876 2.741601 0.029238 -0.015582 -52065.000000 0 0 1
-2.811204 10.098396 -26.263171 28.277811 -1.299289 2.761838 0.033021 -0.014597 -133867.000000 0 0 1
-2.425404 8.716396 -26.925991 28.405406 -1.299404 2.817430 0.029817 -0.009593 293242.000000 0 0 1
-1.310104 8.002696 -26.413711 27.630484 -1.408528 2.843719 0.041964 -0.007377 166237.000000 0 0 1
-1.623704 7.125196 -25.299211 26.333532 -1.346740 2.860390 0.046430 -0.021244 -100425.000000 0 0 1
-0.465904 6.156096 -24.895281 25.649358 -1.495259 2.898510 -0.002737 -0.011680 51879.500000 0 0 1
0.291796 6.782196 -23.896681 24.842195 1.527799 2.864808 0.020695 -0.009459 -287934.000000 0 1 0
1.079496 5.897896 -23.151981 23.915783 1.389769 2.888181 0.011071 -0.006088 -337212.000000 0 1 0
1.284996 6.532796 -21.787881 22.782458 1.376577 2.845023 0.024103 -0.004804 -12582.100000 0 1 0
2.164596 7.628796 -21.875881 23.268824 1.294323 2.793828 0.030574 -0.015156 -58635.100000 0 1 0
2.250896 8.221796 -20.551381 22.249128 1.303572 2.748408 0.043143 -0.017883 355745.000000 0 1 0
2.916996 9.674096 -20.618181 22.960975 1.277940 2.685922 0.047923 -0.023556 193103.000000 0 1 0
2.773096 10.371896 -19.396681 22.169743 1.309541 2.636060 0.046510 -0.028291 -49997.600000 0 1 0
3.209396 11.713796 -19.524581 22.993966 1.303375 2.585109 0.053252 -0.022544 457827.000000 0 1 0
4.478696 11.880896 -18.607881 22.527042 1.210303 2.542813 0.046594 -0.025345 1029410.000000 0 1 0
5.602796 11.166896 -19.133881 22.851614 1.105764 2.563140 0.059072 -0.021437 165388.000000 0 1 0
6.584896 10.866496 -18.162581 22.165760 1.025990 2.531156 0.054402 -0.021740 803759.000000 0 1 0
7.661596 9.756696 -18.544581 22.311312 0.905105 2.552012 0.078160 -0.032351 562147.000000 0 1 0
7.214396 8.426696 -18.852081 21.873675 0.862751 2.609725 0.076488 -0.024058 -131474.000000 0 1 0
6.513696 8.341396 -20.068381 22.688037 0.907818 2.656294 0.064334 -0.016003 -138847.000000 0 1 0
6.475496 6.886396 -20.534081 22.605375 0.816140 2.710170 0.078809 -0.011435 -3397.650000 0 1 0
7.771196 6.401996 -20.820881 23.127605 0.689092 2.691165 0.077020 -0.004476 196118.000000 0 1 0
7.799696 5.055296 -21.194281 23.142792 0.575067 2.728304 0.069404 0.010036 -319018.000000 0 1 0
7.729196 4.738296 -22.707981 24.450855 0.549952 2.761740 0.078690 0.002739 140089.000000 0 1 0
6.458296 5.054196 -23.265781 24.668827 0.664034 2.802704 0.088141 -0.008735 261758.000000 0 1 0
6.468896 4.684596 -24.588881 25.853532 0.626765 2.827522 0.084739 -0.016057 -160913.000000 0 0 1
5.269096 5.284896 -25.347931 26.423684 0.786895 2.855268 0.060970 -0.024576 -54412.900000 0 0 1
5.271796 6.694896 -25.364911 26.758030 0.903764 2.817489 0.069435 -0.031388 361827.000000 0 0 1
4.595996 7.276096 -24.237181 25.719753 1.007424 2.800401 0.077765 -0.035158 -952747.000000 0 0 1
4.631996 8.843496 -24.243381 26.218396 1.088311 2.750966 0.090203 -0.039292 167125.000000 0 0 1
3.688296 9.470196 -25.089341 27.069598 1.199406 2.756719 0.091783 -0.036243 613862.000000 0 0 1
2.341496 9.323796 -24.604081 26.415461 1.324753 2.769112 0.076549 -0.025654 497859.000000 0 0 1
1.279796 9.917796 -25.605471 27.488919 1.442465 2.769266 0.060341 -0.011410 200311.000000 0 0 1
1.248096 11.332296 -25.706821 28.121509 1.461102 2.724162 0.081916 -0.027158 -248782.000000 0 0 1
0.411596 11.736496 -26.751591 29.215789 1.535741 2.727931 0.088945 -0.025567 -260998.000000 0 0 1
0.259196 13.306496 -26.896471 30.009168 1.551320 2.682094 0.086820 -0.030527 -229310.000000 0 0 1
-0.623304 13.876196 -25.995731 29.473977 -1.525908 2.650863 0.094288 -0.026515 -319815.000000 0 0 1
-0.686604 15.294596 -26.176141 30.324683 -1.525935 2.612362 0.091574 -0.043662 -148247.000000 0 0 1
-1.186804 15.968796 -24.821481 29.538396 -1.496613 2.568656 0.098207 -0.033678 48453.900000 0 0 1
-2.484504 15.549096 -24.499681 29.123556 -1.412351 2.570355 0.076139 -0.027473 -702886.000000 0 0 1
-2.670004 15.750896 -23.114981 28.098433 -1.402878 2.536841 0.074010 -0.031697 -652763.000000 0 0 1
-3.831104 14.911096 -22.550481 27.304621 -1.319306 2.542567 0.063669 -0.026671 -91443.400000 0 0 1
-5.129104 15.294896 -22.948981 28.051689 -1.247234 2.528889 0.054100 -0.018876 -81759.700000 0 0 1
-5.416504 14.825196 -24.283181 28.962006 -1.220506 2.565228 0.045197 -0.015876 -1127660.000000 0 0 1
-6.890504 14.960496 -24.679281 29.670901 -1.139179 2.553080 0.014823 -0.009501 -116394.000000 0 0 1
-7.299204 16.264596 -25.065281 30.758474 -1.148958 2.523364 0.017413 -0.008094 488642.000000 0 0 1
-8.691204 16.201496 -25.417461 31.369935 -1.078420 2.515373 0.022173 -0.006667 619853.000000 0 0 1
-9.328804 17.528796 -25.887881 32.626180 -1.081723 2.487285 0.034331 -0.011652 -129868.000000 0 0 1
-9.701104 18.483496 -24.917881 32.506181 -1.087465 2.444261 0.039350 -0.015606 -56519.700000 0 0 1
-10.697204 19.324496 -25.431051 33.683893 -1.065227 2.426437 0.033741 -0.010262 -122096.000000 0 0 1
-11.214804 20.391696 -24.455381 33.758832 -1.067977 2.380981 0.029345 -0.008629 52247.700000 0 0 1
-10.335304 21.477196 -24.145581 33.927828 -1.122283 2.362676 0.041381 -0.007202 327090.000000 0 0 1
-10.806804 22.710296 -24.638181 35.207733 -1.126651 2.345906 0.033551 -0.013980 -123121.000000 0 0 1
-10.661504 23.051496 -26.145911 36.450621 -1.137589 2.370711 0.022437 -0.012232 -309142.000000 0 0 1
-11.492804 22.285296 -26.952411 36.812381 -1.094658 2.392278 0.013273 -0.012475 -168078.000000 0 0 1
-11.607204 22.920196 -28.202901 38.150572 -1.102027 2.402756 0.037993 -0.010788 105077.000000 0 0 1
-12.304304 22.034796 -29.321351 38.686816 -1.061524 2.430909 0.029576 -0.011929 -51791.900000 0 0 1
-11.553904 20.988196 -29.792521 38.230764 -1.067573 2.464315 0.044921 -0.012275 -535987.000000 0 0 1
-11.094404 19.987996 -28.909051 36.855651 -1.064082 2.472502 0.035206 -0.009337 540421.000000 0 0 1
-10.105304 18.940796 -29.575661 36.545733 -1.080693 2.513718 0.026133 -0.014226 -385560.000000 0 0 1
-8.845104 19.471096 -29.897971 36.759326 -1.144398 2.520673 0.020925 -0.011695 -363731.000000 0 0 1
-7.950904 18.507596 -30.393251 36.462277 -1.165034 2.556305 0.013287 -0.007340 302190.000000 0 0 1
-7.425104 17.358296 -29.493731 35.018891 -1.166594 2.572190 0.029955 -0.018027 -224706.000000 0 0 1
-8.396004 16.296696 -29.436281 34.678088 -1.095065 2.584591 0.018645 -0.018217 558360.000000 0 0 1
-7.854504 15.163896 -28.844851 33.521074 -1.092873 2.607045 0.008871 -0.016602 310938.000000 0 0 1
-8.938804 14.011096 -28.786881 33.239999 -1.002917 2.618006 0.015315 -0.016377 616308.000000 0 0 1
-9.914004 14.386696 -27.829031 32.859084 -0.967417 2.580963 0.021943 -0.012817 -787644.000000 0 0 1
-11.103904 13.702196 -28.042821 33.127732 -0.889762 2.580184 0.050588 -0.022094 -716785.000000 0 0 1
-12.168404 14.031896 -27.016621 32.785087 -0.856403 2.539323 0.043278 -0.016633 -491091.000000 0 0 1
-12.605504 15.340296 -27.158161 33.642073 -0.882948 2.510304 0.031464 -0.015372 -51533.700000 0 0 1
-13.548704 15.665096 -26.109331 33.326562 -0.857717 2.470977 0.020933 -0.016297 62546.800000 0 0 1
-14.458404 16.799596 -26.455981 34.513632 -0.860158 2.444228 0.004328 -0.018658 -294498.000000 0 0 1
-13.866904 18.087796 -26.487621 34.943575 -0.916728 2.431055 0.005265 -0.009332 430509.000000 0 0 1
-14.909704 19.012896 -26.799601 36.083349 -0.905771 2.407910 -0.007454 -0.007168 513373.000000 0 0 1
-14.440104 20.497496 -26.655701 36.594949 -0.957069 2.386778 -0.010312 -0.007292 42650.900000 0 0 1
-15.557904 21.340096 -26.863831 37.671122 -0.940841 2.364727 -0.027251 -0.002547 270922.000000 0 0 1
-15.251404 22.686696 -26.941341 38.381341 -0.978930 2.348912 -0.017239 -0.006690 -143946.000000 0 0 1
-14.857704 23.459496 -25.676701 37.820527 -1.006226 2.317072 -0.038209 -0.007231 164909.000000 0 0 1
-14.217004 24.678196 -25.952261 38.531239 -1.048139 2.309782 -0.011362 -0.019334 137099.000000 0 0 1
-13.872504 25.530096 -24.825181 38.216773 -1.073051 2.277840 0.009884 -0.020302 -8596.270000 0 0 1
-13.358704 26.953696 -25.131061 39.198557 -1.110661 2.266756 0.035352 -0.020395 194141.000000 0 0 1
-14.372004 27.862596 -25.553041 40.445477 -1.094575 2.254656 0.044998 -0.023161 -11497.600000 0 0 1
-14.923304 28.526996 -24.422781 40.409983 -1.088817 2.219777 0.054019 -0.026388 -368652.000000 0 0 1
-16.147904 29.375996 -24.766281 41.678203 -1.068186 2.207100 0.051017 -0.028798 -708158.000000 0 0 1
-17.292104 28.644896 -24.977381 41.754239 -1.027682 2.212049 0.037331 -0.023664 -1210620.000000 0 0 1
-18.414704 29.429496 -25.326081 42.972164 -1.011677 2.201063 0.042806 -0.027396 249213.000000 0 0 1
-19.641304 28.481396 -25.478231 42.966393 -0.967072 2.205552 0.047495 -0.001343 -63497.000000 0 0 1
-20.077604 28.029996 -24.230081 42.141282 -0.949221 2.183367 0.051737 -0.013266 -246256.000000 0 0 1
-21.107304 27.067796 -24.356581 42.088322 -0.908498 2.187932 0.044668 -0.027656 114617.000000 0 0 1
-21.774604 26.894096 -22.939581 41.516865 -0.890203 2.156201 0.050077 -0.022511 -652199.000000 0 0 1
-22.854804 27.686996 -22.634781 42.441078 -0.880716 2.133320 0.042878 -0.012895 -715748.000000 0 0 1
-23.151404 27.723896 -21.268081 41.915786 -0.875034 2.102961 0.026268 -0.006877 -195590.000000 0 0 1
-24.498504 28.364996 -20.892281 42.909638 -0.858409 2.079322 0.017289 0.003495 -163390.000000 0 0 1
-25.625594 27.571396 -21.130881 43.166735 -0.821959 2.082333 -0.006968 0.001905 -237100.000000 0 0 1
-26.824844 28.309896 -21.025581 44.306856 -0.812327 2.065243 0.002374 0.004525 -116139.000000 0 0 1
-28.056904 27.492696 -21.408881 44.736767 -0.775242 2.069801 -0.002972 0.001856 -458391.000000 0 0 1
-28.172354 27.210496 -22.770381 45.305439 -0.768032 2.097397 -0.006811 0.005729 264985.000000 0 0 1
-29.411184 26.595896 -23.124681 45.903271 -0.735174 2.098754 0.003239 0.002324 306504.000000 0 0 1
-29.489624 26.387596 -24.638081 46.615214 -0.729940 2.127678 0.002587 0.012695 133668.000000 0 0 1
-28.831124 25.195296 -24.946481 45.698616 -0.718202 2.148249 0.011541 0.009785 -115674.000000 0 0 1
-29.166844 24.926496 -26.295301 46.513200 -0.707169 2.171629 0.026257 0.001360 34073.300000 0 0 1
-29.028624 23.455496 -26.757661 45.921604 -0.679608 2.192820 0.032717 -0.009017 91843.100000 0 0 1
-27.743444 22.862996 -26.736541 44.802431 -0.689256 2.210260 0.034407 -0.023533 -8313.930000 0 0 1
-27.836134 21.606496 -27.352591 44.607793 -0.660061 2.230876 0.058400 -0.033183 130284.000000 0 0 1
-26.507864 20.814396 -27.454841 43.470383 -0.665661 2.254380 0.056147 -0.028211 -20516.400000 0 0 1
-26.049764 20.471496 -26.177051 42.224523 -0.666060 2.239474 0.062864 -0.031032 -182490.000000 0 0 1
-25.806024 19.077596 -25.932521 41.260164 -0.636598 2.250435 0.030386 -0.037352 -598530.000000 0 0 1
-26.940854 18.068596 -25.813521 41.456261 -0.590773 2.242945 0.039971 -0.024023 -266924.000000 0 0 1
-27.785194 17.718596 -26.928281 42.556996 -0.567679 2.255906 0.047475 -0.028701 712791.000000 0 0 1
-28.629504 16.652496 -26.497781 42.415640 -0.526821 2.245566 0.030893 -0.028117 161120.000000 0 0 1
-29.520424 15.995396 -27.595911 43.460815 -0.496558 2.258754 0.025965 -0.025313 604792.000000 0 0 1
-30.686324 16.713396 -28.002671 44.778763 -0.498729 2.246384 0.029187 -0.022565 731834.000000 0 0 1
-31.457224 15.892996 -28.922731 45.592418 -0.467819 2.257997 0.032050 -0.012178 704328.000000 0 0 1
-32.717464 16.587596 -29.534871 47.094473 -0.469228 2.248673 0.028258 -0.015406 -110460.000000 0 0 1
-33.751884 16.594096 -28.602071 47.250737 -0.456945 2.220971 0.022198 -0.014366 -542323.000000 0 0 1
-34.936526 17.078096 -29.199711 48.629675 -0.454673 2.214861 0.025211 -0.014733 -557724.000000 0 0 1
-36.203374 16.608196 -28.516561 48.986842 -0.430104 2.192138 0.023592 -0.015368 -734975.000000 0 0 1
36.008606 17.270296 -27.311041 48.381565 0.447208 2.170615 0.026535 -0.020784 -69085.000000 0 0 1
34.736266 16.864696 -26.855151 47.034299 0.451986 2.178483 0.037783 -0.021594 -267033.000000 0 0 1
34.316566 17.884296 -25.796921 46.507589 0.480429 2.158777 0.050805 -0.019236 -258892.000000 0 0 1
33.712876 19.027596 -26.383911 46.847819 0.513833 2.169029 0.052860 -0.029226 193234.000000 0 0 1
33.277666 19.874296 -25.299271 46.286540 0.538377 2.149070 0.068962 -0.023112 -557427.000000 0 0 1
32.638196 21.180496 -25.831631 46.702660 0.575635 2.156887 0.062466 -0.026384 1044270.000000 0 0 1
31.261856 21.058596 -26.240931 45.927710 0.592801 2.178950 0.058800 -0.026411 812971.000000 0 0 1
30.323406 21.160896 -25.164581 44.727493 0.609275 2.168348 0.082136 -0.018499 136420.000000 0 0 1
28.882226 21.289396 -25.749841 44.164190 0.635201 2.193272 0.048166 -0.023515 275495.000000 0 0 1
28.470646 19.998696 -26.027001 43.450320 0.612356 2.213055 0.054473 -0.036533 -1100180.000000 0 0 1
27.346826 19.896096 -26.813891 43.158872 0.628976 2.241176 0.046389 -0.034845 -814800.000000 0 0 1
26.885126 18.451596 -27.044031 42.363321 0.601480 2.263192 0.066032 -0.033976 277721.000000 0 0 1
27.836176 17.658396 -27.769401 43.102335 0.565308 2.270860 0.065422 -0.040491 716859.000000 0 0 1
28.816516 16.991296 -26.971061 42.971314 0.532765 2.249331 0.074470 -0.035766 69028.400000 0 0 1
29.500616 15.907996 -27.833341 43.566565 0.494547 2.263824 0.061324 -0.029070 394105.000000 0 0 1
28.598016 14.865696 -28.326161 42.909286 0.479374 2.291802 0.078885 -0.035179 674145.000000 0 0 1
28.009466 13.947496 -27.337421 41.549939 0.462011 2.288878 0.090991 -0.034123 97520.400000 0 0 1
28.846846 13.017296 -26.362521 41.189477 0.423897 2.265334 0.085432 -0.027516 57413.700000 0 0 1
29.520016 13.752696 -25.339451 41.263250 0.435978 2.232032 0.078041 -0.026387 215356.000000 0 0 1
30.226026 12.881196 -24.492381 40.980661 0.402855 2.211372 0.071770 -0.017638 -97593.800000 0 0 1
-14.399904 -31.292394 -23.758181 41.845219 1.139515 2.174583 0.103642 -0.004965 66297.300000 0 0 1
-13.773804 -30.182694 -24.346981 41.152013 1.142676 2.203882 0.089085 -0.023013 60751.300000 0 0 1
-14.181104 -30.048494 -25.682781 41.995487 1.129847 2.228828 0.065794 -0.007780 -390026.000000 0 0 1
-13.429204 -28.975494 -26.382771 41.424309 1.136799 2.261255 0.066648 -0.011199 -344667.000000 0 0 1
-13.840904 -27.666394 -25.999961 40.410369 1.106926 2.269725 0.071528 -0.008505 113996.000000 0 0 1
-13.102704 -26.693394 -26.690281 39.957343 1.114488 2.302273 0.064904 -0.012527 -105919.000000 0 0 1
-13.551504 -25.246994 -26.236911 38.851377 1.078177 2.312188 0.051554 -0.015600 268722.000000 0 0 1
-13.068604 -24.855694 -24.914281 37.540849 1.086739 2.296495 0.061514 -0.025070 170272.000000 0 0 1
-13.532604 -23.590694 -24.588381 36.663888 1.049984 2.305872 0.064393 -0.020719 -271553.000000 0 0 1
-13.134504 -23.011694 -23.243681 35.246588 1.052143 2.290895 0.069228 -0.009594 502038.000000 0 0 1
-11.788204 -22.537294 -23.306681 34.497721 1.088877 2.312575 0.079645 -0.019316 475857.000000 0 0 1
-11.288204 -22.004294 -22.089681 33.159712 1.096803 2.299845 0.063800 -0.010635 1256120.000000 0 0 1
-9.740504 -21.719094 -22.000581 32.413300 1.149210 2.316858 0.059841 -0.009965 1416400.000000 0 0 1
-9.100604 -20.792394 -22.913981 32.252057 1.158227 2.360956 0.063223 -0.017523 369848.000000 0 0 1
-7.708304 -21.031594 -23.065081 32.151887 1.219489 2.370829 0.070313 -0.016382 71866.700000 0 0 1
-7.134504 -19.855994 -23.796181 31.802828 1.225850 2.416203 0.051842 -0.008087 -329043.000000 0 0 1
-7.145104 -18.674894 -22.977581 30.459373 1.205375 2.425487 0.055488 -0.010343 -206946.000000 0 0 1
-7.669404 -17.527094 -23.605781 30.385057 1.158324 2.460504 0.040438 -0.017141 296251.000000 0 0 1
-6.771504 -16.852794 -24.729681 30.682683 1.188737 2.508128 0.049254 -0.016204 483135.000000 0 0 1
-6.508104 -17.642494 -25.862321 31.976126 1.217395 2.512907 0.070860 -0.030350 -38621.100000 0 0 1
-5.546104 -16.975394 -26.645751 32.076772 1.255015 2.551136 0.046188 -0.022055 -59343.400000 0 0 1
-5.355304 -17.565894 -28.046961 33.524199 1.274878 2.561877 0.054229 -0.015727 -208195.000000 0 0 1
-6.371904 -17.217194 -28.943191 34.274498 1.216338 2.576339 0.088580 -0.025104 -25219.800000 0 0 1
-6.046604 -18.006094 -30.085311 35.579584 1.246820 2.578443 0.085062 -0.031277 -253294.000000 0 0 1
-7.072804 -17.838494 -31.187771 36.618485 1.193319 2.590007 0.100267 -0.026314 -268149.000000 0 0 1
-7.065104 -16.604894 -31.914261 36.662764 1.168516 2.626976 0.082412 -0.025129 -85357.900000 0 0 1
-7.012404 -15.355194 -31.277011 35.541626 1.142402 2.646681 0.067944 -0.021692 -144816.000000 0 0 1
-7.396404 -14.203594 -32.272151 36.026943 1.090693 2.680975 0.066207 -0.024004 228097.000000 0 0 1
-6.444404 -13.826794 -33.278571 36.608385 1.134650 2.711776 0.072288 -0.025501 -174034.000000 0 0 1
-6.997504 -13.057494 34.243105 37.310233 1.078843 0.408308 0.076438 -0.022760 -257385.000000 0 0 1
-7.334904 -11.536294 -33.960041 36.608350 1.004460 2.758889 0.057514 -0.022661 290274.000000 0 0 1
-6.258204 -10.616694 -33.921481 36.090804 1.038157 2.793112 0.051647 -0.019169 -51311.200000 0 0 1
-5.813004 -10.215194 33.270319 35.285342 1.053442 0.339583 0.046401 -0.022945 -390750.000000 0 0 1
-4.678704 -9.229794 33.298325 34.869153 1.101634 0.301302 0.040295 -0.018511 -652394.000000 0 0 1
-4.555304 -8.778494 31.951813 33.447438 1.092130 0.300176 0.033973 -0.012813 334591.000000 0 0 1
-3.628604 -7.674194 31.884223 32.994904 1.129118 0.260203 0.018665 -0.016144 -534954.000000 0 0 1
-3.696904 -6.776494 30.622263 31.580231 1.071377 0.246937 0.013965 -0.010715 307080.000000 0 0 1
-4.732904 -5.784794 30.613233 31.512446 0.885078 0.239466 0.024208 -0.009302 -113547.000000 0 0 1
-5.981304 -6.374394 30.392043 31.624124 0.817202 0.280056 0.018751 -0.012203 -1111690.000000 0 0 1
-7.174704 -5.404294 30.379813 31.679896 0.645573 0.287478 0.013424 -0.016604 -277064.000000 0 0 1
-8.317304 -5.987694 29.865563 31.575020 0.623962 0.330561 0.027064 -0.014717 -924934.000000 0 0 1
-9.466104 -5.180594 29.766073 31.661725 0.500751 0.347791 0.028066 -0.019090 18827.100000 0 0 1
-10.544004 -5.864794 28.928903 31.344111 0.507607 0.395133 0.039309 -0.018004 -364587.000000 0 0 1
-10.275104 -5.792694 27.540303 29.959996 0.513346 0.404661 0.037308 -0.016525 -530114.000000 0 0 1
-11.205804 -6.453994 26.813933 29.769298 0.522549 0.449362 0.045757 -0.021130 -767076.000000 0 0 1
-10.911304 -6.282794 25.277523 28.239746 0.522440 0.462131 0.042748 -0.020754 -560685.000000 0 0 1
-9.929404 -7.002294 24.650943 27.482616 0.614213 0.457940 0.034854 -0.016930 -606652.000000 0 0 1
-9.421204 -6.472994 23.445543 26.083563 0.601993 0.453629 0.035745 -0.024042 111712.000000 0 0 1
-10.359804 -6.623694 22.210123 25.386777 0.568862 0.505629 0.053371 -0.027067 527343.000000 0 0 1
-11.571404 -5.893394 22.351223 25.849694 0.471065 0.526321 0.054330 -0.020556 177813.000000 0 0 1
-12.519304 -6.199194 21.330123 25.497787 0.459777 0.579844 0.057272 -0.016856 285903.000000 0 0 1
-13.579804 -5.088094 21.272423 25.745209 0.358491 0.598348 0.051859 -0.011364 30422.000000 0 0 1
-13.033904 -3.916694 20.744623 24.810533 0.291916 0.580622 0.041265 -0.011379 706150.000000 0 1 0
-14.088904 -2.919494 20.767823 25.265058 0.204328 0.605886 0.040472 -0.006536 1018230.000000 0 0 1
-13.693004 -1.533494 20.263123 24.503961 0.111526 0.597166 0.028130 -0.002081 605734.000000 0 1 0
-12.681504 -0.756494 20.958223 24.507957 0.059583 0.544937 0.030890 -0.001022 563337.000000 0 1 0
-12.855604 0.677506 20.814023 24.473437 -0.052652 0.553910 0.026167 0.002318 -345937.000000 0 1 0
-12.545604 1.332506 19.428123 23.165054 -0.105816 0.575937 0.031432 -0.004857 367027.000000 0 1 0
-13.339304 0.925506 18.274923 22.644346 -0.069271 0.631672 0.037276 -0.005312 -444854.000000 0 1 0
-14.573204 1.547506 18.256323 23.410818 -0.105792 0.676411 0.029933 0.002087 -826285.000000 0 1 0
-15.620004 0.850506 17.363323 23.370770 -0.054396 0.733329 0.044361 0.003880 -14136.200000 0 1 0
-15.981604 -0.446494 17.835023 23.952016 0.027931 0.730839 0.031613 0.004224 -557383.000000 0 1 0
-16.951104 -1.047494 17.093923 24.096460 0.061717 0.782156 0.029844 0.008858 -792274.000000 0 1 0
-16.999704 -2.529494 17.344623 24.417703 0.147713 0.780830 0.031659 0.006136 -63658.400000 0 1 0
-17.461004 -2.892494 18.617823 25.688062 0.164164 0.760102 0.034472 0.007592 -61152.000000 0 0 1
-17.439204 -4.326494 18.763423 25.979038 0.243180 0.763743 0.036774 -0.000714 -325616.000000 0 0 1
-18.325204 -4.799294 19.903623 27.477273 0.256143 0.760681 0.033706 -0.001057 -681188.000000 0 0 1
-17.941104 -4.318894 21.159023 28.075618 0.236232 0.717208 0.047220 -0.002126 182317.000000 0 0 1
-18.874504 -4.524794 22.220623 29.503843 0.235290 0.717969 0.051323 -0.009713 -216278.000000 0 0 1
-19.137204 -5.966094 22.588823 30.200692 0.302205 0.725817 0.043292 -0.016242 1336720.000000 0 0 1
-18.029504 -6.717594 23.229823 30.163119 0.356655 0.691736 0.069469 -0.021074 1825480.000000 0 0 1
-16.903804 -7.101594 22.436823 28.975546 0.397728 0.685130 0.045377 -0.011226 -135008.000000 0 0 1
-15.751104 -7.597394 23.314823 29.144445 0.449420 0.643543 0.043839 -0.016403 -399247.000000 0 0 1
-15.885804 -8.806394 23.969213 30.073818 0.506182 0.648464 0.050964 -0.023870 -191252.000000 0 0 1
-14.759204 -8.978794 24.779543 30.207261 0.546538 0.608830 0.064491 -0.017030 -49264.100000 0 0 1
-15.046004 -9.885794 26.006013 31.629478 0.581307 0.605517 0.039395 -0.013613 198151.000000 0 0 1
-15.159404 -11.259794 25.674913 31.871487 0.638851 0.634149 0.033940 -0.013610 -129043.000000 0 0 1
-14.489804 -11.931794 26.702743 32.639832 0.688884 0.612692 0.043339 -0.010541 -40761.800000 0 0 1
-14.739204 -13.463794 26.671443 33.314918 0.740206 0.642524 0.032553 -0.012835 -823675.000000 0 0 1
-15.893604 -13.928694 27.260623 34.492851 0.719606 0.659454 0.029864 -0.014104 -873786.000000 0 0 1
-16.156104 -15.296894 26.966853 34.960347 0.758088 0.689828 0.038629 -0.003969 25445.900000 0 0 1
-15.245104 -16.364494 27.630073 35.547585 0.820796 0.680481 0.040859 0.001618 494683.000000 0 0 1
-13.889504 -16.319394 27.200763 34.628348 0.865662 0.667284 0.041755 -0.005259 430285.000000 0 0 1
-13.076704 -17.239194 27.914293 35.318519 0.921849 0.659402 0.044082 0.004408 -555897.000000 0 0 1
-11.715404 -17.492094 27.295263 34.471081 0.980659 0.656995 0.041401 -0.002421 -461196.000000 0 0 1
-10.913904 -18.349394 28.130753 35.315051 1.034222 0.649204 0.045148 -0.002806 -430724.000000 0 0 1
-9.801504 -18.727394 27.395623 34.602095 1.088622 0.657155 0.035421 -0.005140 -1088260.000000 0 0 1
-8.749404 -19.425794 28.243283 35.377911 1.147609 0.646278 0.058322 -0.012288 -465222.000000 0 0 1
-9.103804 -20.707094 28.712023 36.551926 1.156586 0.667271 0.049078 -0.005035 -140184.000000 0 0 1
-8.208304 -21.156194 29.694513 37.372783 1.200690 0.652532 0.055314 -0.008122 -109902.000000 0 0 1
-8.603304 -22.510994 30.321223 38.731619 1.205744 0.671556 0.047579 -0.008920 119908.000000 0 0 1
-8.385504 -23.613294 29.420363 38.645338 1.229569 0.705494 0.056193 -0.016475 -21906.500000 0 0 1
-8.762904 -24.775494 30.041823 39.913967 1.230836 0.718697 0.047389 -0.021747 -507436.000000 0 0 1
-8.744204 -26.004094 29.123693 40.010793 1.246412 0.755548 0.044335 -0.020861 -234624.000000 0 0 1
-9.772904 -26.027694 28.132363 39.552249 1.211604 0.779492 0.044023 -0.021904 385320.000000 0 0 1
-9.861204 -27.303294 27.562013 40.029711 1.224203 0.811324 0.044646 -0.020912 -374986.000000 0 0 1
-11.264304 -27.565194 26.986413 40.186950 1.182862 0.834536 0.041568 -0.024743 -186010.000000 0 0 1
-11.612104 -26.956194 25.795763 39.075552 1.164043 0.849777 0.050661 -0.031589 143492.000000 0 0 1
-11.896104 -25.580794 25.718263 38.174905 1.135505 0.831598 0.035872 -0.017616 -405028.000000 0 0 1
-11.922004 -25.026694 24.278943 36.850192 1.126230 0.851500 0.044557 -0.032940 -616658.000000 0 0 1
-13.098204 -25.405494 23.647303 37.097130 1.094774 0.879621 0.037905 -0.028939 -352877.000000 0 0 1
-13.099704 -24.955194 22.290723 35.933832 1.087405 0.901637 0.041721 -0.028637 -718044.000000 0 0 1
-14.483904 -25.025694 21.684323 36.142478 1.046140 0.927335 0.037397 -0.031353 -718822.000000 0 0 1
-15.018204 -26.341494 21.670323 37.269608 1.052626 0.950290 0.042019 -0.030368 588851.000000 0 0 1
-16.205804 -26.360594 20.849623 37.312408 1.019584 0.977876 0.040916 -0.024431 720684.000000 0 0 1
-16.365604 -27.736494 20.224023 38.028374 1.037734 1.010055 0.042217 -0.028437 -14870.200000 0 0 1
-15.484304 -28.072794 19.168023 37.353160 1.066743 1.031938 0.033770 -0.019281 -38064.700000 0 0 1
-15.649404 -29.401694 18.755523 38.224771 1.081673 1.057945 0.051060 -0.011203 198297.000000 0 0 1
-14.681604 -29.804194 17.614523 37.604666 1.113085 1.083302 0.048034 -0.017264 66225.200000 0 0 1
-14.925004 -29.186894 16.383423 36.647607 1.098102 1.107328 0.045130 -0.011812 -575023.000000 0 0 1
-13.865904 -29.373494 15.502723 35.991664 1.129754 1.125494 0.044838 -0.011362 -413452.000000 0 0 1
-14.248304 -28.750194 14.134323 35.062329 1.110683 1.155873 0.031393 -0.002971 -317658.000000 0 0 1
-14.160504 -27.299594 14.032623 33.803879 1.092295 1.142723 0.039191 0.001996 -162468.000000 0 0 1
-14.445704 -26.741894 12.717023 32.947381 1.075516 1.174527 0.046721 -0.004253 431277.000000 0 0 1
-13.563804 -27.143194 11.463023 32.436564 1.107378 1.209595 0.033795 0.008708 590367.000000 0 0 1
-13.984904 -26.358594 10.330423 31.576426 1.082998 1.237504 0.033369 -0.001116 -50619.100000 0 0 1
-13.075604 -26.422794 9.277323 30.906378 1.111269 1.265920 0.042908 -0.003076 -113249.000000 0 0 1
-13.678104 -25.571494 8.160023 30.126032 1.079623 1.296507 0.053584 -0.006982 759545.000000 0 0 1
-14.821204 -26.151394 7.504723 30.982001 1.055187 1.326134 0.042448 -0.008157 470771.000000 0 0 1
-14.957104 -25.484994 6.270123 30.207852 1.040066 1.361710 0.047123 -0.007435 -407802.000000 0 0 1
-15.781504 -26.167694 5.204323 30.998211 1.028107 1.402106 0.050661 -0.007032 -77173.600000 0 0 1
-15.173004 -27.344494 4.614723 31.610711 1.064212 1.424287 0.065811 -0.015280 110833.000000 0 0 1
-15.819404 -27.688894 3.389023 32.068893 1.051727 1.464919 0.077874 -0.009463 -397995.000000 0 0 1
-15.310304 -28.896794 2.646223 32.809033 1.083573 1.490053 0.072056 -0.010801 -676296.000000 0 0 1
-14.074204 -28.717594 2.026023 32.045096 1.115108 1.507530 0.062641 -0.000895 -560293.000000 0 0 1
-13.597404 -29.861794 1.385523 32.841069 1.143507 1.528595 0.051191 -0.006814 110491.000000 0 0 1
-12.192304 -29.691794 0.746023 32.106253 1.181161 1.547558 0.034295 -0.008616 297884.000000 0 0 1
-12.157204 -28.936494 -0.457277 31.389925 1.173054 1.585364 0.039390 -0.004397 30260.400000 0 0 1
-11.758004 -27.590594 -0.234977 29.992445 1.167944 1.578631 0.037950 -0.003985 -146786.000000 0 0 1
-11.437804 -26.708994 -1.477777 29.092569 1.166186 1.621614 0.035900 0.008011 84768.900000 0 0 1
-10.256904 -27.069894 -2.143177 29.027168 1.208607 1.644697 0.027589 0.005258 -415494.000000 0 0 1
-9.863704 -26.137394 -3.161177 28.114926 1.209942 1.683472 0.038698 0.001491 162121.000000 0 0 1
-8.634204 -26.600994 -3.940777 28.243443 1.256943 1.710782 0.030690 0.002606 -88176.200000 0 0 1
-8.268704 -25.778594 -5.037177 27.536894 1.260405 1.754757 0.040135 -0.002505 -410378.000000 0 0 1
-7.025904 -26.157194 -5.576677 27.652513 1.308387 1.773859 0.035473 0.001861 -108983.000000 0 0 1
-6.358304 -25.064694 -6.385477 26.635338 1.322361 1.812891 0.034887 0.000205 -479417.000000 0 0 1
-6.846304 -24.727594 -7.616077 26.764350 1.300693 1.859344 0.035359 -0.004454 -348020.000000 0 0 1
-6.125804 -23.584994 -8.028777 25.656163 1.316678 1.889081 0.029311 -0.004078 -106253.000000 0 0 1
-6.165304 -23.369794 -9.549877 25.987659 1.312858 1.947091 0.040141 -0.006680 -149244.000000 0 0 1
-5.532004 -24.419394 -10.248777 27.054525 1.348015 1.959317 0.027718 -0.011454 -96788.500000 0 0 1
-5.934504 -24.684294 -11.614577 27.918293 1.334858 1.999861 0.023495 -0.006789 -286278.000000 0 0 1
-7.285304 -25.344394 -11.899277 28.931069 1.290891 1.994673 0.022472 -0.012267 -116010.000000 0 0 1
-7.555504 -25.338194 -13.319977 29.606275 1.281004 2.037454 0.032848 -0.009773 -70616.700000 0 0 1
-8.678804 -26.135794 -13.613377 30.720114 1.250187 2.029897 0.037304 -0.013507 -547880.000000 0 0 1
-8.791004 -26.192094 -15.179877 31.523582 1.246975 2.073208 0.045100 -0.009631 -263991.000000 0 0 1
-7.881404 -26.916694 -15.972577 32.276124 1.285951 2.088485 0.044852 -0.011229 -201655.000000 0 0 1
-6.661904 -26.262894 -16.217377 31.577268 1.322374 2.110145 0.045807 -0.010749 -389301.000000 0 0 1
-5.568604 -27.130194 -16.827577 32.407162 1.368353 2.116775 0.039292 -0.009486 -419655.000000 0 0 1
-5.646704 -27.135494 -18.218677 33.168366 1.365631 2.152297 0.066069 -0.008591 -185830.000000 0 0 1
-4.502904 -27.548894 -18.911777 33.717548 1.408778 2.166255 0.060969 -0.013534 -272520.000000 0 0 1
-25.676514 14.116996 -5.008881 29.726450 -0.502691 1.740103 0.087620 -0.028098 -306666.000000 0 0 1
-25.556464 12.768396 -4.508381 28.922142 -0.463340 1.727315 0.082242 -0.012810 -258364.000000 0 0 1
-24.299404 12.231696 -4.775581 27.620311 -0.466343 1.744571 0.098038 -0.010486 -851166.000000 0 0 1
-24.150704 10.703096 -4.492781 26.795482 -0.417167 1.739261 0.098331 -0.023307 -227140.000000 0 0 1
-24.569304 9.782796 -5.464481 27.003969 -0.378929 1.774562 0.087293 -0.031566 1155040.000000 0 0 1
-26.000594 9.782996 -5.678881 28.354675 -0.359875 1.772440 0.084636 -0.030065 721382.000000 0 0 1
-26.369774 9.152496 -7.047381 28.788865 -0.334074 1.818105 0.097061 -0.029599 -190038.000000 0 0 1
-26.065824 10.103696 -8.095381 29.104072 -0.369791 1.852667 0.119860 -0.018875 194241.000000 0 0 1
-26.172244 9.555296 -9.426681 29.413472 -0.350057 1.897042 0.115703 -0.024224 -474132.000000 0 0 1
-26.514804 10.600796 -10.490381 30.421371 -0.380340 1.922860 0.097843 -0.023398 52537.300000 0 0 1
-25.560814 11.616796 -10.855981 30.102450 -0.426571 1.939744 0.097914 -0.013327 336140.000000 0 0 1
-25.944184 12.376396 -11.980881 31.141891 -0.445111 1.965700 0.096962 -0.012587 -5842.750000 0 0 1
-24.983404 13.523896 -12.459181 31.020919 -0.496151 1.984101 0.082918 -0.005559 99783.600000 0 0 1
-24.916304 14.649996 -11.590281 31.141278 -0.531526 1.952157 0.076852 0.001386 300863.000000 0 0 1
-24.314404 15.750996 -12.269881 31.461629 -0.574831 1.971423 0.062883 0.001651 33841.200000 0 0 1
-24.400804 17.098096 -11.575481 31.964603 -0.611208 1.941353 0.073926 -0.003533 45511.600000 0 0 1
-23.572804 17.179696 -10.412881 30.971715 -0.629790 1.913682 0.071688 0.002714 240964.000000 0 0 1
-23.307004 18.519796 -10.137581 31.447890 -0.671441 1.899019 0.035039 0.009902 -193536.000000 0 0 1
-22.171804 18.604996 -9.094181 30.338736 -0.698149 1.875232 0.028075 0.002922 -258354.000000 0 0 1
-22.364004 17.979896 -7.820681 29.742030 -0.677154 1.836875 0.050174 -0.007414 182689.000000 0 0 1
-23.321004 18.572496 -6.935081 30.608858 -0.672533 1.799352 0.058703 -0.013861 303888.000000 0 0 1
-23.689304 17.883396 -5.571281 30.199969 -0.646639 1.756339 0.062744 -0.008485 530743.000000 0 0 1
-22.573104 18.011796 -4.684081 29.255947 -0.673479 1.731595 0.069545 -0.015726 534080.000000 0 0 1
-22.833104 17.612396 -3.369481 29.032749 -0.657028 1.687116 0.066787 -0.013378 2338.920000 0 0 1
-21.571004 17.533196 -2.463081 27.906772 -0.682505 1.659172 0.072342 -0.021884 321556.000000 0 0 1
-21.005304 18.772996 -2.002581 28.242848 -0.729338 1.641762 0.073454 -0.030680 719250.000000 0 0 1
-19.919504 18.614396 -1.092281 27.285077 -0.751542 1.610839 0.108503 -0.029275 488582.000000 0 0 1
-19.510304 19.948796 -0.433981 27.906894 -0.796510 1.586348 0.096347 -0.043556 517096.000000 0 0 1
-20.545704 20.287196 0.512919 28.878354 -0.779067 1.553034 0.082297 -0.031135 750056.000000 0 0 1
-20.463804 21.641996 0.928319 29.799413 -0.813373 1.539639 0.085054 -0.028335 -542430.000000 0 0 1
-21.525704 22.083696 1.886519 30.896675 -0.798193 1.509699 0.049573 -0.032811 -700975.000000 0 0 1
-21.262904 21.492396 3.123719 30.393943 -0.790766 1.467840 0.087129 -0.027374 604846.000000 0 0 1
-22.256104 21.831496 4.062719 31.439689 -0.775767 1.441211 0.055254 -0.019868 -169253.000000 0 0 1
-21.731304 21.340296 5.377619 30.928572 -0.776320 1.396036 0.057965 -0.018392 -11628.400000 0 0 1
-20.928204 22.346496 5.999719 31.198593 -0.818161 1.377283 0.051269 -0.007017 476264.000000 0 0 1
-20.140204 21.894396 7.083519 30.580527 -0.827106 1.337038 0.057190 -0.011292 -92472.000000 0 0 1
-20.901804 21.722996 8.414719 31.298266 -0.804661 1.298591 0.052472 -0.031731 -182798.000000 0 0 1
-21.833404 20.629896 8.435019 31.199995 -0.757063 1.297036 0.056528 -0.029418 995899.000000 0 0 1
-22.414204 20.241196 9.676019 31.713213 -0.734499 1.260742 0.065866 -0.028016 301958.000000 0 0 1
-23.087104 21.233996 10.681319 33.135895 -0.743612 1.242587 0.076287 -0.026252 -133935.000000 0 0 1
-24.244104 21.922696 10.217319 34.245799 -0.735157 1.267830 0.078687 -0.022634 585657.000000 0 0 1
-24.892104 22.470996 11.335319 35.398474 -0.734325 1.244834 0.084394 -0.020256 14159.400000 0 0 1
-25.913614 23.601796 10.988719 36.732984 -0.738743 1.266993 0.077216 -0.024606 -190803.000000 0 0 1
-26.658384 23.914496 12.092919 37.799619 -0.731195 1.245149 0.066231 -0.020549 -292936.000000 0 0 1
-27.262484 25.210596 11.920819 38.999014 -0.746314 1.260155 0.060939 -0.016579 34441.300000 0 0 1
-27.920934 25.465496 13.295719 40.060531 -0.739437 1.232489 0.052249 -0.010008 218322.000000 0 0 1
-26.937124 25.676496 14.338419 39.880839 -0.761443 1.203031 0.041546 -0.010094 364622.000000 0 0 1
-27.408554 26.086096 15.594319 40.925493 -0.760682 1.179874 0.015984 -0.007736 -262366.000000 0 0 1
-26.366084 26.311096 16.729419 40.832801 -0.784354 1.148665 0.013790 -0.008283 54291.800000 0 0 1
-25.895584 25.086296 17.338519 40.006596 -0.769525 1.122544 0.028189 -0.015743 538581.000000 0 0 1
-24.708504 25.269896 18.109019 39.711640 -0.796630 1.097286 0.036382 -0.008808 218502.000000 0 0 1
-24.268704 23.944196 18.687419 38.878196 -0.778668 1.069383 0.046302 -0.009882 -151709.000000 0 0 1
-23.068604 23.955496 19.438519 38.521193 -0.804256 1.041856 0.054233 -0.010647 395970.000000 0 0 1
-22.605304 22.646696 19.729619 37.591628 -0.786313 1.018268 0.068796 -0.014755 -767714.000000 0 0 1
-21.182004 22.565596 20.261819 36.992225 -0.817014 0.991145 0.078048 -0.012598 -548114.000000 0 0 1
-20.235904 22.724996 19.165919 35.961781 -0.843272 1.008710 0.061639 -0.012240 597839.000000 0 0 1
-18.892604 22.579396 19.573619 35.353729 -0.874063 0.984054 0.065637 -0.015421 241060.000000 0 0 1
-18.364104 21.079496 19.720819 34.212515 -0.854132 0.956454 0.063006 -0.005245 -588628.000000 0 0 1
-18.997804 20.352896 20.759219 34.728981 -0.819821 0.930106 0.080011 -0.005294 94397.500000 0 0 1
-18.332704 20.348796 22.038519 35.154770 -0.837471 0.893229 0.098647 -0.010672 -485187.000000 0 0 1
-19.234104 19.983196 23.193119 36.155216 -0.804497 0.874361 0.094960 -0.009047 -842247.000000 0 0 1
-20.112904 20.993596 23.534819 37.405183 -0.806820 0.890291 0.067641 0.001749 -335833.000000 0 0 1
-20.982404 20.627496 24.586119 38.343606 -0.776869 0.874729 0.076400 -0.004188 -541266.000000 0 0 1
-22.155704 21.564096 24.725519 39.588341 -0.771867 0.896221 0.073094 -0.015481 -1159890.000000 0 0 1
-21.780004 22.887896 25.146319 40.380214 -0.810196 0.898558 0.076760 -0.017986 94005.600000 0 0 1
-22.872404 23.745696 25.406319 41.623142 -0.804129 0.914244 0.070114 -0.031568 -90308.700000 0 0 1
-23.672604 24.267896 24.188119 41.645985 -0.797815 0.951081 0.043161 -0.020960 186882.000000 0 0 1
-24.508204 23.281496 23.573919 41.211767 -0.759735 0.961831 0.038921 -0.026504 19423.800000 0 0 1
-25.086044 23.801596 22.414419 41.209607 -0.759131 0.995704 0.028152 -0.011691 -68178.500000 0 0 1
-26.197684 22.920296 21.775719 41.058989 -0.718772 1.011781 0.032170 -0.017972 -173246.000000 0 0 1
-27.429474 23.074296 22.409719 42.272860 -0.699376 1.012053 0.033888 -0.028586 -277020.000000 0 0 1
-28.431434 22.232596 21.885919 42.209338 -0.663651 1.025690 0.029339 -0.028160 1454780.000000 0 0 1
-29.942544 22.470196 22.311219 43.580456 -0.643785 1.033338 0.044810 -0.021108 259922.000000 0 0 1
-30.454344 23.640296 21.722119 44.251340 -0.660093 1.057696 0.041300 -0.023279 161230.000000 0 0 1
-31.847404 23.772796 21.925119 45.388477 -0.641231 1.066656 0.050237 -0.014452 546916.000000 0 0 1
-32.844184 22.863196 21.130319 45.254354 -0.608111 1.084988 0.062600 -0.014219 -1129050.000000 0 0 1
-32.714594 21.489296 21.536919 44.675199 -0.581191 1.067772 0.054357 -0.011736 239747.000000 0 0 1
-33.215354 20.654096 20.478519 44.149985 -0.556312 1.088472 0.044525 -0.008005 517320.000000 0 0 1
-34.753658 20.677696 20.210819 45.209082 -0.536719 1.107329 0.049292 -0.001406 -139001.000000 0 0 1
-35.145909 19.839996 19.137619 44.666641 -0.513910 1.128015 0.050960 -0.006804 950.871000 0 0 1
35.956216 19.817896 19.203819 45.325326 0.503739 1.133283 0.081930 -0.007952 -77272.000000 0 0 1
35.268846 19.072396 18.081919 43.984129 0.495731 1.147135 0.082928 -0.011115 -250197.000000 0 0 1
35.585306 17.697896 18.116419 43.677617 0.461515 1.143100 0.083384 -0.022933 279398.000000 0 0 1
34.735476 16.953696 17.281619 42.339526 0.454066 1.150350 0.092171 -0.033717 -31753.800000 0 0 1
35.158666 15.484096 17.243319 42.109632 0.414847 1.148905 0.094515 -0.038952 -70590.000000 0 0 1
34.141766 14.709496 16.660219 40.738095 0.406803 1.149483 0.095083 -0.046066 -68407.100000 0 0 1
34.581706 13.436596 16.304619 40.525019 0.370594 1.156731 0.091994 -0.048273 147608.000000 0 0 1
33.600746 12.601996 15.414519 39.056726 0.358815 1.165088 0.090023 -0.049605 -2793.090000 0 0 1
33.751786 12.992696 14.090219 38.814012 0.367464 1.199291 0.104101 -0.043370 470797.000000 0 0 1
32.990636 12.186596 13.193219 37.562697 0.353848 1.211910 0.102436 -0.037714 -100666.000000 0 0 1
33.078766 12.652696 11.716119 37.303659 0.365332 1.251315 0.110426 -0.028201 -237.694000 0 0 1
34.326126 12.247996 11.188919 38.124641 0.342731 1.272928 0.102381 -0.017816 345487.000000 0 0 1
34.288936 12.509596 9.809319 37.794760 0.349824 1.308249 0.096103 -0.007656 50183.400000 0 0 1
35.679316 12.518596 9.122519 38.896648 0.337445 1.334059 0.079166 0.001076 6494.280000 0 0 1
36.143206 11.168396 8.986119 38.882062 0.299697 1.337576 0.107574 -0.009822 1041110.000000 0 0 1
-35.020898 11.097096 8.465019 37.699673 -0.306862 1.344327 0.113102 -0.011692 1177200.000000 0 0 1
-34.910492 10.954696 6.920419 37.237616 -0.304063 1.383865 0.106026 -0.015945 -275640.000000 0 0 1
-35.306064 12.137196 6.174719 37.841205 -0.331115 1.406889 0.099791 -0.020056 58805.500000 0 0 1
-34.936937 12.090596 4.864319 37.288520 -0.333169 1.439973 0.098913 -0.032238 -334906.000000 0 0 1
-35.831104 13.068196 4.094919 38.359016 -0.349725 1.463840 0.097490 -0.037070 -788781.000000 0 0 1
35.375946 12.559796 4.053219 37.757577 0.341156 1.463241 0.095002 -0.028002 -534346.000000 0 0 1
34.322916 13.480696 4.220519 37.116095 0.374250 1.456839 0.096376 -0.028309 121873.000000 0 0 1
34.286326 14.270696 5.560219 37.551578 0.394411 1.422181 0.071670 -0.008297 -1275720.000000 0 0 1
33.522706 15.443596 5.435719 37.307151 0.431709 1.424574 0.044504 -0.001947 -92638.100000 0 0 1
33.201666 16.059196 6.652119 37.476648 0.450512 1.392350 0.023459 0.005945 815116.000000 0 0 1
31.854446 15.625696 7.376419 36.239201 0.456046 1.365816 0.043449 0.009042 777604.000000 0 0 1
31.867666 14.355596 7.961019 35.847024 0.423249 1.346846 0.064670 0.006208 237767.000000 0 0 1
30.573476 13.813296 8.169819 34.529560 0.424355 1.331928 0.075422 -0.001710 56720.100000 0 0 1
30.537386 12.310096 7.624119 33.796414 0.383189 1.343248 0.098380 0.000389 -243171.000000 0 0 1
30.498976 12.385096 6.206619 33.497765 0.385739 1.384435 0.079433 -0.007350 232166.000000 0 0 1
30.622916 11.145296 5.522319 33.052634 0.349050 1.402933 0.102119 -0.021563 -139808.000000 0 0 1
30.358796 11.156996 4.012319 32.591928 0.352183 1.447375 0.084051 -0.023564 1236150.000000 0 0 1
28.970556 11.300696 3.600719 31.304377 0.371921 1.455518 0.063896 -0.012962 1366940.000000 0 0 1
28.878506 11.300096 2.163919 31.086055 0.372982 1.501129 0.082338 -0.019699 -130447.000000 0 0 1
27.441226 11.155896 1.647819 29.668000 0.386130 1.515226 0.087042 -0.009846 -68149.400000 0 0 1
26.841026 9.871396 1.655519 28.646569 0.352419 1.512973 0.074363 -0.012993 -198107.000000 0 0 1
25.442626 9.902996 1.554519 27.346171 0.371186 1.513920 0.070764 -0.012900 -289502.000000 0 0 1
24.865226 8.502596 1.334419 26.312626 0.329483 1.520061 0.077813 -0.016956 -217391.000000 0 0 1
25.192226 7.638896 2.393819 26.433527 0.294412 1.480112 0.077802 -0.006965 34439.200000 0 0 1
26.490826 7.122496 2.507019 27.545943 0.262655 1.479658 0.098249 -0.013517 -550731.000000 0 0 1
26.880826 6.467196 3.831319 27.912049 0.236101 1.433098 0.096259 -0.015803 -69539.400000 0 0 1
28.289636 6.280496 3.848019 29.232780 0.218464 1.438779 0.124054 -0.018988 472418.000000 0 0 1
28.582426 5.637896 5.083019 29.573266 0.194750 1.398060 0.101208 -0.010689 -193710.000000 0 0 1
30.091346 5.552896 5.373819 31.067696 0.182482 1.396951 0.098138 -0.017541 -59213.600000 0 0 1
30.707576 6.772096 5.766019 31.969728 0.217061 1.389445 0.118525 -0.016950 307685.000000 0 0 1
32.044246 6.507196 6.192719 33.279530 0.200345 1.383623 0.103980 -0.012905 454732.000000 0 0 1
32.677406 7.695896 6.933119 34.279846 0.231296 1.367141 0.090716 -0.012828 -148469.000000 0 0 1
32.159526 7.924896 8.219319 34.126182 0.241611 1.327554 0.090300 -0.018106 -198991.000000 0 0 1
32.820366 8.925496 8.940319 35.167744 0.265528 1.313756 0.105047 -0.017212 -87586.700000 0 0 1
32.389496 8.926396 10.501819 35.200117 0.268920 1.267837 0.087303 -0.017252 -810601.000000 0 0 1
31.125526 9.425896 10.752719 34.252983 0.294056 1.251477 0.077156 -0.023314 -618553.000000 0 0 1
30.837636 9.170396 12.140019 34.386568 0.289048 1.209972 0.081588 -0.027358 653298.000000 0 0 1
29.312186 9.398196 12.502519 33.224138 0.310269 1.184988 0.062979 -0.031460 789600.000000 0 0 1
28.915406 10.763796 12.780519 33.396133 0.356359 1.178085 0.083415 -0.040727 203063.000000 0 0 1
28.905266 11.655296 11.679319 33.283132 0.383283 1.212256 0.085561 -0.032978 -187299.000000 0 0 1
27.773796 11.632196 10.581619 31.916491 0.396624 1.232860 0.073322 -0.021544 34778.500000 0 0 1
27.801816 12.613696 9.564619 31.992628 0.425927 1.267190 0.060148 0.008323 -82717.600000 0 0 1
26.792626 12.467196 8.597419 30.776475 0.435522 1.287679 0.063885 0.004121 -297931.000000 0 0 1
26.762326 13.620096 7.546919 30.962641 0.470764 1.324573 0.054525 0.009144 -127763.000000 0 0 1
26.559626 14.877996 8.185719 31.524189 0.510620 1.308121 0.050213 0.019262 279533.000000 0 0 1
27.037226 16.004196 7.484719 32.298095 0.534466 1.336932 0.047782 0.020011 -1110180.000000 0 0 1
26.711326 17.346396 8.249719 32.900612 0.575955 1.317345 0.048779 0.009748 1114050.000000 0 0 1
25.386026 17.902696 8.143719 32.113502 0.614220 1.314405 0.067186 0.009776 897200.000000 0 0 1
24.319026 17.064096 8.507519 30.902691 0.611850 1.291894 0.089121 0.010176 -1237620.000000 0 0 1
23.003326 17.786496 8.792219 30.377880 0.658193 1.277167 0.098026 -0.008295 -503980.000000 0 0 1
22.484226 18.325096 7.637419 29.994662 0.683833 1.313335 0.109658 -0.009646 -488765.000000 0 0 1
21.458826 19.225296 7.903919 29.875829 0.730554 1.303050 0.147283 -0.025438 -378389.000000 0 0 1
20.773926 19.835496 6.693319 29.492430 0.762294 1.341851 0.121025 -0.021416 -472545.000000 0 0 1
21.540126 20.849996 6.175919 30.607864 0.769119 1.367626 0.073426 -0.005836 -302679.000000 0 0 1
20.998426 21.441496 5.037719 30.431074 0.795838 1.404485 0.093400 -0.015781 -230500.000000 0 0 1
18.764996 17.230096 33.400456 42.007043 0.742782 0.651598 0.063356 -0.014828 -114694.000000 0 0 1
17.744796 17.932696 32.690702 41.293357 0.790665 0.657259 0.069824 -0.022068 545135.000000 0 0 1
17.032596 17.034696 31.862763 39.944034 0.785460 0.647349 0.075533 -0.024650 -193322.000000 0 0 1
16.385996 17.600396 30.600503 38.918705 0.821115 0.666052 0.076173 -0.031421 -404266.000000 0 0 1
17.250496 17.899296 29.570523 38.631338 0.803854 0.699049 0.077963 -0.020541 -527646.000000 0 0 1
16.535096 18.082396 28.384803 37.497726 0.830065 0.712127 0.076665 -0.023091 344900.000000 0 0 1
17.522796 18.391296 27.213333 37.227055 0.809576 0.750996 0.077043 -0.018075 229656.000000 0 0 1
18.084896 19.670096 27.296903 38.198129 0.827360 0.774725 0.071488 -0.024463 400311.000000 0 0 1
18.973296 19.990396 26.205563 38.030691 0.811496 0.810600 0.077673 -0.012914 -69500.300000 0 0 1
19.705996 21.335196 26.403473 39.251245 0.825074 0.832973 0.088308 -0.013412 -530225.000000 0 0 1
18.900496 22.442496 26.321773 39.417383 0.870863 0.839586 0.064216 -0.018936 -197222.000000 0 0 1
19.651696 23.559796 26.750353 40.704232 0.875594 0.853714 0.074439 -0.017836 168625.000000 0 0 1
18.877996 24.857496 26.492433 40.940479 0.921275 0.867027 0.088004 -0.019374 37656.800000 0 0 1
18.853896 25.352496 25.180913 40.401693 0.931359 0.897887 0.090175 -0.021335 649050.000000 0 0 1
17.850896 26.366896 25.021113 40.495972 0.975661 0.904770 0.078964 -0.026275 311733.000000 0 0 1
18.003996 27.040796 23.641853 40.178175 0.983388 0.941686 0.071720 -0.027644 789483.000000 0 0 1
19.072496 28.028096 23.619273 41.318329 0.973293 0.962291 0.096045 -0.031274 722406.000000 0 0 1
19.052896 28.698296 22.405523 41.092730 0.984709 0.994117 0.095162 -0.034999 -432707.000000 0 0 1
20.102396 29.814096 22.309423 42.316628 0.977557 1.015492 0.097343 -0.028297 123919.000000 0 0 1
21.368396 29.164896 22.088623 42.368700 0.938476 1.022372 0.107013 -0.030536 861584.000000 0 0 1
22.387196 30.053596 21.576923 43.243135 0.930561 1.048389 0.100607 -0.037370 520062.000000 0 0 1
22.483096 30.096796 20.059423 42.587406 0.929201 1.080352 0.099566 -0.039096 309987.000000 0 0 1
21.428196 30.829096 19.397023 42.259262 0.963391 1.093926 0.073629 -0.024067 714278.000000 0 0 1
21.740796 30.850996 18.009123 41.818353 0.956921 1.125582 0.080607 -0.011515 -332103.000000 0 0 1
21.281896 32.176896 17.355623 42.302356 0.986447 1.148040 0.094440 -0.017706 306702.000000 0 0 1
22.188396 33.277996 17.657223 43.721018 0.982730 1.155063 0.085581 -0.016828 666719.000000 0 0 1
22.370396 34.129196 16.536423 44.030556 0.990591 1.185788 0.077405 -0.016344 162398.000000 0 0 1
23.389096 33.733596 15.412823 43.847011 0.964549 1.211609 0.059129 -0.013198 -101251.000000 0 0 1
22.991196 32.685196 14.553523 42.529074 0.957783 1.221537 0.085392 -0.024963 477658.000000 0 0 1
22.181396 33.167996 13.444223 42.105551 0.981347 1.245808 0.053840 -0.016966 278217.000000 0 0 1
21.808596 31.961296 12.569023 40.683161 0.972019 1.256709 0.044553 -0.026175 -435738.000000 0 0 1
22.853796 31.422496 11.803023 40.607642 0.941978 1.275880 0.067800 -0.044790 -163854.000000 0 0 1
22.404496 30.396496 10.957023 39.318758 0.935619 1.288386 0.063699 -0.036701 -75051.800000 0 0 1
23.630396 29.724596 10.254023 39.333093 0.899125 1.307052 0.064349 -0.034625 1403390.000000 0 0 1
24.558896 28.895296 11.049323 39.498924 0.866345 1.287276 0.077431 -0.032850 852810.000000 0 0 1
25.364696 29.656696 11.882923 40.793275 0.863247 1.275215 0.087944 -0.043830 267194.000000 0 0 1
26.829196 29.171796 12.285423 41.493747 0.827205 1.270211 0.097054 -0.036974 1518240.000000 0 0 1
26.981696 28.039396 13.207123 41.093159 0.804619 1.243594 0.096845 -0.034428 -735089.000000 0 0 1
28.336496 27.798896 13.404223 41.897599 0.775822 1.245143 0.084170 -0.022118 -571286.000000 0 0 1
28.676296 26.818396 14.571723 41.879487 0.751932 1.215419 0.068834 -0.018772 376399.000000 0 0 1
29.971196 27.077896 15.104423 43.123411 0.734726 1.212947 0.066487 -0.028551 381384.000000 0 0 1
30.241096 26.320996 16.292323 43.275380 0.716203 1.184802 0.071961 -0.028080 -12547.600000 0 0 1
31.523896 26.685596 17.052523 44.684064 0.702470 1.179243 0.086379 -0.032233 1050440.000000 0 0 1
32.759896 26.342996 16.372623 45.113490 0.677250 1.199396 0.091111 -0.022028 628162.000000 0 0 1
33.899196 26.671696 17.130323 46.411020 0.666637 1.192756 0.085454 -0.019482 620528.000000 0 0 1
35.191896 26.622396 16.238623 47.020361 0.647643 1.218181 0.088037 -0.024451 443109.000000 0 0 1
35.392996 27.767296 15.450623 47.564783 0.665244 1.239961 0.106916 -0.021559 -163543.000000 0 0 1
-35.774935 28.191096 15.365023 48.069406 -0.667389 1.245444 0.101840 -0.021768 225966.000000 0 0 1
-35.580335 29.428296 14.476623 48.389641 -0.691045 1.266976 0.095418 -0.017326 -10225.200000 0 0 1
-36.177535 30.567396 15.049623 49.695783 -0.701542 1.263130 0.101432 -0.022133 190691.000000 0 0 1
35.962596 31.572896 14.126123 49.896928 0.720491 1.283765 0.095158 -0.006547 -360816.000000 0 0 1
35.075296 32.671196 14.621923 50.114709 0.749926 1.274720 0.086492 -0.010856 -851954.000000 0 0 1
34.840296 33.570296 13.564023 50.247325 0.766836 1.297460 0.064471 -0.014940 568192.000000 0 0 1
33.793696 -34.043994 13.910623 49.945098 -0.789088 1.288545 0.062544 -0.011189 654751.000000 0 0 1
32.476896 34.052696 13.233823 48.882194 0.809079 1.296646 0.084486 -0.015311 -436722.000000 0 0 1
31.979796 32.924396 13.890923 47.954988 0.799951 1.276919 0.077422 -0.021138 -464032.000000 0 0 1
30.731796 32.555996 13.366823 46.722672 0.814214 1.280654 0.089693 -0.023008 -400951.000000 0 0 1
29.979996 31.528896 14.264323 45.785831 0.810575 1.253978 0.097200 -0.032487 -266765.000000 0 0 1
29.222796 31.938696 15.367023 45.936886 0.829774 1.229695 0.098851 -0.024569 220567.000000 0 0 1
28.849296 30.804496 16.142923 45.186201 0.818162 1.205471 0.095594 -0.037757 -322529.000000 0 0 1
27.988596 31.177696 17.320123 45.336485 0.839247 1.178799 0.085499 -0.031810 -354982.000000 0 0 1
27.744296 30.178096 18.344623 44.910896 0.827392 1.150022 0.072448 -0.027753 -202093.000000 0 0 1
28.832096 30.051396 19.214323 45.864653 0.806102 1.138524 0.072477 -0.029217 -295993.000000 0 0 1
28.665796 28.891396 20.227623 45.448843 0.789318 1.109551 0.064769 -0.025571 92026.800000 0 0 1
27.682296 29.023996 21.260223 45.394922 0.809054 1.083386 0.076159 -0.033476 274444.000000 0 0 1
27.676996 27.874696 22.091623 45.067223 0.788957 1.058486 0.058906 -0.024573 178565.000000 0 0 1
26.478196 27.691096 23.075423 44.725460 0.807785 1.028698 0.072478 -0.029573 803560.000000 0 0 1
25.261296 27.265896 22.442323 43.419120 0.823543 1.027598 0.102490 -0.024880 553772.000000 0 0 1
24.094596 27.266496 23.226023 43.167806 0.847077 1.002686 0.114565 -0.032541 116182.000000 0 0 1
23.870296 26.115896 24.319473 42.933295 0.830292 0.968607 0.089228 -0.029985 -201735.000000 0 0 1
24.811896 26.200596 25.386153 44.119816 0.812614 0.957714 0.073901 -0.024368 448000.000000 0 0 1
24.337796 25.431196 26.451983 44.031596 0.807364 0.926357 0.087172 -0.019400 -158667.000000 0 0 1
25.445196 25.237496 27.513413 45.181601 0.781300 0.916058 0.083723 -0.012498 246561.000000 0 0 1
25.912196 26.345396 28.268023 46.525293 0.793688 0.917781 0.084001 -0.023536 106164.000000 0 0 1
26.845696 27.121396 27.560233 47.072582 0.790507 0.945320 0.058805 -0.009266 -812472.000000 0 0 1
27.229096 28.470796 28.192123 48.443840 0.807687 0.949666 0.038192 -0.001313 -435809.000000 0 0 1
27.857096 28.280896 29.419483 49.409846 0.792947 0.933011 0.053083 -0.000611 -71747.700000 0 0 1
28.270596 29.476996 30.002163 50.677901 0.806286 0.937237 0.062423 0.002099 888022.000000 0 0 1
29.811996 29.705096 30.221233 51.811878 0.783602 0.948026 0.053857 0.003436 906670.000000 0 0 1
30.514896 29.727396 28.991813 51.530594 0.772327 0.973253 0.034234 -0.002182 43599.000000 0 0 1
31.886696 30.038796 29.225873 52.661583 0.755566 0.982463 0.066857 -0.019055 387228.000000 0 0 1
32.547396 30.406096 27.903703 52.559303 0.751397 1.011135 0.056809 -0.010390 -325351.000000 0 0 1
32.212596 31.694596 27.514613 52.907964 0.777293 1.023891 0.051625 -0.010124 196277.000000 0 0 1
32.681296 31.988196 26.199063 52.703915 0.774681 1.050544 0.052147 -0.017506 -18209.100000 0 0 1
32.458396 33.523896 25.862373 53.350365 0.801545 1.064702 0.051941 -0.015371 -367122.000000 0 0 1
33.245196 -34.128394 26.558293 54.546616 -0.798506 1.062269 0.064467 -0.009066 -95680.400000 0 0 1
32.922596 -32.794194 26.283633 53.387132 -0.783444 1.056041 0.055552 -0.004399 -288676.000000 0 0 1
33.898796 -31.871494 27.040943 53.815733 -0.754584 1.044340 0.045432 -0.007612 -101344.000000 0 0 1
33.755796 -31.794194 28.444703 54.400604 -0.755482 1.020576 0.043160 -0.009857 312197.000000 0 0 1
34.706996 -30.880194 28.948943 54.737586 -0.727117 1.013530 0.038880 -0.012749 -222718.000000 0 0 1
34.409196 -30.478294 30.391323 55.104915 -0.724892 0.986614 0.039163 -0.010169 -319630.000000 0 0 1
34.540496 -31.500094 31.359103 56.291164 -0.739392 0.979922 0.047829 -0.008536 246732.000000 0 0 1
33.471396 -32.423894 31.427323 56.207828 -0.769503 0.977464 0.041704 -0.012855 -209182.000000 0 0 1
33.539996 -33.320194 32.664303 57.464105 -0.782111 0.966200 0.060019 -0.010292 -88845.000000 0 0 1
33.130496 -32.632894 33.856731 57.522290 -0.777832 0.941489 0.044827 -0.013989 99286.700000 0 0 1
33.708896 -33.154494 -33.502831 57.947820 -0.777107 2.187262 0.042734 -0.011823 -261466.000000 0 0 1
33.241996 33.973896 -33.056031 57.896088 0.796287 2.178464 0.038049 -0.006185 -118477.000000 0 0 1
33.567796 32.864096 -33.844861 57.899225 0.774806 2.195119 0.044165 -0.008646 -393539.000000 0 0 1
32.701896 31.810496 -33.595821 56.656869 0.771582 2.205539 0.053070 -0.002139 -162770.000000 0 0 1
32.632096 30.855596 33.749938 56.178108 0.757424 0.926336 0.052216 0.010441 270842.000000 0 0 1
33.846096 30.155296 33.515059 56.375165 0.727794 0.934152 0.049817 -0.003043 207051.000000 0 0 1
33.776896 29.210596 32.457616 55.205384 0.713029 0.942283 0.052450 -0.005977 -730230.000000 0 0 1
35.104696 28.538596 32.197453 55.528975 0.682592 0.952274 0.065290 -0.012003 -710395.000000 0 0 1
35.403596 27.490796 33.093947 55.716854 0.660245 0.934816 0.060937 -0.008098 448107.000000 0 0 1
-35.816835 26.945196 32.871078 55.582344 -0.644975 0.938010 0.027911 -0.005609 354983.000000 0 0 1
-35.471935 25.683996 33.686637 55.251383 -0.626695 0.915117 0.029696 -0.004256 142127.000000 0 0 1
-36.131435 24.554696 33.156592 54.843170 -0.596899 0.921569 0.039573 -0.007951 112492.000000 0 0 1
-36.075335 23.489496 34.060410 54.893512 -0.577165 0.901440 0.036398 -0.011177 126309.000000 0 0 1
36.033596 22.200096 33.313243 53.861270 0.552170 0.903963 0.038896 -0.021252 669057.000000 0 0 1
-35.481635 21.820096 32.345243 52.737821 -0.551353 0.910537 0.048400 -0.012292 805899.000000 0 0 1
-35.970735 20.616196 31.811753 52.258099 -0.520434 0.916321 0.037363 -0.010103 412265.000000 0 0 1
-34.850235 19.889296 31.011913 50.713526 -0.518602 0.912827 0.028680 -0.023810 377998.000000 0 0 1
-34.364235 20.688896 29.894773 50.026278 -0.541924 0.930315 0.027639 -0.020991 1411400.000000 0 0 1
-33.334735 20.014496 29.070413 48.547641 -0.540721 0.928792 0.072763 -0.028253 1365840.000000 0 0 1
-34.050735 19.175596 27.932063 48.034947 -0.512881 0.950232 0.072971 -0.022413 -442458.000000 0 0 1
-34.815835 18.131996 28.418153 48.461356 -0.480147 0.944178 0.073836 -0.024790 -113012.000000 0 0 1
-35.343835 17.316296 27.404133 47.958599 -0.455566 0.962571 0.072307 -0.026269 -52891.100000 0 0 1
-36.111635 16.099596 28.016643 48.458017 -0.419379 0.954321 0.062079 -0.031559 74550.500000 0 0 1
-35.321035 14.966796 28.376493 47.715886 -0.400800 0.933908 0.074974 -0.031793 126665.000000 0 0 1
-35.694035 14.448996 29.614493 48.578347 -0.384639 0.915211 0.093805 -0.040629 -196119.000000 0 0 1
-34.881035 13.191296 30.043713 47.888637 -0.361555 0.892630 0.085016 -0.030039 -225806.000000 0 0 1
-33.518435 13.450496 30.223483 47.094163 -0.381615 0.873996 0.082351 -0.023631 -77234.500000 0 0 1
-32.849435 12.427896 30.957393 46.817712 -0.361686 0.848336 0.071575 -0.007128 1160310.000000 0 0 1
-31.280735 12.514696 30.759673 45.620823 -0.380573 0.830853 0.068165 -0.005672 393304.000000 0 0 1
-30.811435 12.215296 29.483423 44.360232 -0.377445 0.843789 0.056821 -0.010969 1302920.000000 0 0 1
-29.389235 12.441096 29.317953 43.336478 -0.400448 0.827771 0.048891 -0.013686 1886470.000000 0 0 1
-28.339235 11.469496 29.957603 42.803265 -0.384570 0.795552 0.055203 -0.014461 27227.400000 0 0 1
-28.006935 10.383696 29.089673 41.694347 -0.355043 0.798630 0.055821 -0.019158 14841.200000 0 0 1
-26.898535 9.657296 29.593553 41.140891 -0.344694 0.767970 0.052149 -0.020676 -133892.000000 0 0 1
-26.617235 8.427096 28.624453 39.985653 -0.306618 0.772930 0.049855 -0.021282 234575.000000 0 0 1
-27.527835 7.315496 28.548193 40.327379 -0.259745 0.784260 0.051699 -0.022481 -86463.100000 0 0 1
-28.801435 7.658896 28.058923 40.932682 -0.259906 0.815521 0.053889 -0.015804 -691893.000000 0 0 1
-29.727235 6.457396 28.094513 41.409034 -0.213899 0.825127 0.064028 -0.018935 -670463.000000 0 0 1
-30.121635 6.131196 29.382053 42.523046 -0.200805 0.807969 0.069424 -0.021533 -116657.000000 0 0 1
-30.598835 4.825796 29.452403 42.743667 -0.156423 0.810623 0.069412 -0.016628 -124962.000000 0 0 1
-31.282835 4.387796 30.781843 44.106580 -0.139353 0.798340 0.064994 -0.026071 658005.000000 0 0 1
-32.561835 4.973296 31.042223 45.261754 -0.151563 0.815042 0.064695 -0.024996 471039.000000 0 0 1
-33.123635 4.479496 32.270133 46.460764 -0.134420 0.802978 0.055312 -0.030602 603434.000000 0 0 1
-34.641135 4.739296 32.494670 47.732303 -0.135967 0.821984 0.042059 -0.023958 302146.000000 0 0 1
-34.834435 6.121496 32.572668 48.082109 -0.173955 0.826522 0.046009 -0.019590 -99652.900000 0 0 1
-36.182135 6.418096 32.271183 48.905706 -0.175557 0.850157 0.043324 -0.010368 134473.000000 0 0 1
36.054296 7.875996 32.617058 49.252574 0.215070 0.846991 0.042215 -0.016464 -238134.000000 0 0 1
36.097496 8.203296 34.036835 50.287468 0.223459 0.827328 0.040107 -0.012970 50673.200000 0 0 1
36.168496 9.594296 -34.190141 50.687043 0.259295 2.311130 0.045880 -0.011438 22.164900 0 0 1
36.159496 9.837496 -32.675041 49.718646 0.265629 2.287893 0.043392 -0.010520 -2177060.000000 0 0 1
34.917096 9.777896 -32.203921 48.496426 0.273038 2.297015 0.067745 -0.003488 -1887780.000000 0 0 1
34.902396 10.162096 -30.828551 47.663875 0.283325 2.274165 0.056221 0.003430 -20148.600000 0 0 1
33.623696 9.536496 -30.249111 46.222358 0.276366 2.284220 0.060160 0.006890 -115110.000000 0 0 1
33.718496 8.146496 -29.942401 45.824117 0.237060 2.282890 0.051502 -0.002148 -519072.000000 0 0 1
32.458096 7.646196 -29.718801 44.667655 0.231353 2.298734 0.061363 -0.009338 -1121250.000000 0 0 1
35.208686 5.917996 -20.678381 41.258571 0.166527 2.095770 0.049156 -0.003860 -476719.000000 0 0 1
34.479936 6.576096 -19.665181 40.234691 0.188459 2.081466 0.035536 -0.018119 220566.000000 0 0 1
34.875826 7.907196 -19.393481 40.681127 0.222955 2.067715 0.032134 -0.005672 -518112.000000 0 0 1
36.221076 8.070196 -18.640281 41.527756 0.219223 2.036289 0.037527 -0.013339 -589372.000000 0 0 1
-35.132444 7.707196 -19.278381 40.808645 -0.215955 2.062819 0.041716 -0.013815 -534757.000000 0 0 1
-34.601317 8.690296 -20.196681 40.996076 -0.246065 2.085928 0.040290 -0.006065 315256.000000 0 0 1
-33.366184 8.048296 -20.952381 40.212928 -0.236690 2.118861 0.038452 -0.001262 604224.000000 0 0 1
-33.764724 7.034696 -21.856181 40.831803 -0.205406 2.135628 0.032409 0.010194 427481.000000 0 0 1
-34.425505 7.436396 -23.052681 42.093247 -0.212745 2.150358 0.029050 0.016339 116659.000000 0 0 1
-34.510840 6.228596 -24.032481 42.512982 -0.178560 2.171590 0.043679 0.008909 190829.000000 0 0 1
-33.287834 5.931996 -24.679981 41.861318 -0.176352 2.201317 0.037156 0.002750 13252.300000 0 0 1
-33.336894 4.749596 -25.381101 42.167611 -0.141520 2.216687 0.033837 0.001377 117227.000000 0 0 1
-32.072074 4.475196 -26.247361 41.684161 -0.138640 2.251928 0.042761 0.002884 54405.800000 0 0 1
-30.930994 4.497096 -25.434031 40.296900 -0.144380 2.253852 0.043440 0.002384 179448.000000 0 0 1
-29.767754 4.129596 -26.211121 39.877257 -0.137847 2.288020 0.041844 -0.000023 695419.000000 0 0 1
-28.415264 4.431496 -25.544341 38.465292 -0.154709 2.297070 0.039192 -0.004232 -95870.400000 0 0 1
-28.161504 5.800196 -25.475381 38.414940 -0.203121 2.295834 0.033125 -0.002345 540822.000000 0 0 1
-26.815464 6.123696 -25.117401 37.248524 -0.224514 2.310839 0.042740 0.002069 700084.000000 0 0 1
-26.467434 7.627996 -25.423931 37.484499 -0.280599 2.316177 0.035142 -0.002156 -97027.900000 0 0 1
-27.077434 8.500996 -24.522181 37.507222 -0.304206 2.283391 0.035190 -0.006125 -308987.000000 0 0 1
-26.815124 9.909596 -24.768781 37.825170 -0.353986 2.284744 0.017349 -0.006367 820849.000000 0 0 1
-25.386864 10.350396 -24.258181 36.607143 -0.387132 2.295165 0.032028 -0.006797 706621.000000 0 0 1
-25.292444 10.458096 -22.844381 35.650319 -0.392079 2.266324 0.021721 -0.005831 -89720.700000 0 0 1
-23.960004 10.326596 -22.420381 34.400492 -0.406936 2.280681 0.048701 -0.010517 -319296.000000 0 0 1
-23.869804 10.725796 -20.947381 33.520188 -0.422310 2.245823 0.062408 -0.016341 -1064350.000000 0 0 1
-24.107804 12.122696 -20.588381 33.941529 -0.465928 2.222553 0.052374 -0.016352 1649020.000000 0 0 1
-25.475504 12.621096 -20.589581 35.103051 -0.459978 2.197585 0.037363 -0.004162 660009.000000 0 0 1
-26.551594 11.877296 -19.835981 35.206866 -0.420630 2.169307 0.057857 -0.003572 -1126420.000000 0 0 1
-26.241714 11.917396 -18.475181 34.234254 -0.426291 2.140841 0.058077 -0.005882 309810.000000 0 0 1
-27.301914 11.356096 -17.719181 34.472087 -0.394176 2.110656 0.066265 -0.004676 -821086.000000 0 0 1
-26.953514 10.980396 -16.280381 33.348340 -0.386855 2.080813 0.086647 -0.008879 286261.000000 0 0 1
-26.048774 9.883396 -16.070181 32.163191 -0.362639 2.093985 0.102704 -0.012653 351031.000000 0 0 1
-24.744404 10.186596 -16.482181 31.427926 -0.390528 2.122858 0.092968 -0.011771 -1212370.000000 0 0 1
-23.784504 8.964096 -16.275981 30.182200 -0.360425 2.140352 0.084347 -0.017312 -40287.200000 0 0 1
-22.428304 9.350996 -16.192781 29.200618 -0.395014 2.158601 0.066198 -0.011548 379701.000000 0 0 1
-21.641804 8.151996 -16.017281 28.131406 -0.360241 2.176540 0.061037 -0.015306 287904.000000 0 0 1
-20.164504 8.404896 -15.605581 26.847414 -0.394919 2.191084 0.073643 -0.011967 -114270.000000 0 0 1
-19.501804 8.865596 -16.715881 27.172409 -0.426676 2.233409 0.078340 -0.020883 -344709.000000 0 0 1
-18.102704 8.883996 -16.506981 26.059810 -0.456224 2.256770 0.068737 -0.020796 -189458.000000 0 0 1
-17.332004 9.491196 -17.680481 26.515666 -0.501007 2.300695 0.052839 -0.018664 -395349.000000 0 0 1
-17.205904 8.688396 -18.815681 26.936243 -0.467612 2.344133 0.072004 -0.030228 352032.000000 0 0 1
-16.009804 7.931596 -18.942781 26.039450 -0.459978 2.385416 0.069007 -0.016002 -135798.000000 0 0 1
-15.809704 7.171196 -20.318081 26.724468 -0.425839 2.434540 0.053103 -0.003644 560057.000000 0 0 1
-16.805704 6.167696 -20.557981 27.259911 -0.351739 2.425151 0.053739 -0.003482 -30956.100000 0 0 1
-17.907604 6.592296 -21.299181 28.597128 -0.352733 2.411033 0.055066 -0.012204 -437802.000000 0 0 1
-18.645904 5.345996 -21.857081 29.222960 -0.279221 2.415753 0.064880 -0.003904 -269530.000000 0 0 1
-19.424104 4.652996 -20.932481 28.932939 -0.235117 2.379630 0.095396 -0.013506 137069.000000 0 0 1
-20.155804 3.602696 -21.537281 29.716835 -0.176874 2.381468 0.068638 0.002099 -373782.000000 0 0 1
-21.116904 2.946996 -20.543781 29.608366 -0.138661 2.337619 0.082896 -0.002719 -387260.000000 0 0 1
-21.844204 1.912696 -21.139481 30.458255 -0.087338 2.337893 0.080681 -0.002823 144253.000000 0 0 1
-22.888604 1.441296 -20.314281 30.637159 -0.062887 2.295696 0.079866 -0.011964 -297284.000000 0 0 1
-23.552504 0.166196 -20.853281 31.458026 -0.007056 2.295471 0.076297 -0.010923 -238511.000000 0 0 1
-22.802704 -0.994504 -20.624981 30.762675 0.043586 2.305618 0.084257 -0.016979 41310.800000 0 0 1
-23.440804 -2.147704 -21.127881 31.630227 0.091367 2.302267 0.080730 -0.017969 -159590.000000 0 0 1
-23.896504 -2.334504 -22.601081 32.974258 0.097383 2.325971 0.063456 -0.020081 -60456.800000 0 0 1
-22.831604 -2.397104 -23.510881 32.860155 0.104607 2.368111 0.049498 -0.018135 -138242.000000 0 0 1
-22.180304 -3.655404 -23.509981 32.527635 0.163336 2.378598 0.056787 -0.025536 -153604.000000 0 0 1
-21.066304 -3.805604 -24.542581 32.567009 0.178721 2.424322 0.046621 -0.013121 -220700.000000 0 0 1
-21.608104 -3.802204 -25.815751 33.879491 0.174179 2.437173 0.037096 -0.014778 -186766.000000 0 0 1
-20.622704 -3.743504 -26.794991 34.018837 0.179568 2.477784 0.042626 -0.022098 -268538.000000 0 0 1
-21.226104 -3.899704 -28.201751 35.511884 0.181696 2.488403 0.035068 -0.022833 131541.000000 0 0 1
-21.675604 -5.187704 -28.552761 36.221599 0.234915 2.478805 0.037764 -0.017154 328436.000000 0 0 1
-22.460704 -5.176804 -29.740561 37.626898 0.226527 2.482269 0.003890 -0.016969 -161898.000000 0 0 1
-22.353504 -6.448804 -30.599311 38.439355 0.280866 2.491522 0.028657 -0.014327 -229195.000000 0 0 1
-21.187904 -6.434704 -31.378651 38.405109 0.294845 2.527061 0.016707 -0.014985 -386497.000000 0 0 1
-20.666404 -7.656404 -31.750801 38.650150 0.354798 2.534819 0.017476 -0.017464 245362.000000 0 0 1
-19.262504 -7.466104 -32.425151 38.447070 0.369769 2.574323 0.027440 -0.017907 257936.000000 0 0 1
-19.226104 -6.882304 -33.712161 39.414705 0.343754 2.596963 0.036131 -0.026026 231065.000000 0 0 1
-19.319504 -7.843504 33.789169 39.704808 0.385659 0.552892 0.040653 -0.026380 -383177.000000 0 0 1
-19.082804 -7.375604 32.273483 38.211656 0.368819 0.564983 0.049815 -0.025309 -110302.000000 0 0 1
-17.754204 -7.030404 31.965983 37.235231 0.377041 0.538483 0.062644 -0.030426 -134940.000000 0 0 1
-17.407804 -5.708604 32.332583 37.162020 0.316883 0.515505 0.055020 -0.032445 -827327.000000 0 0 1
-16.027504 -5.353604 31.805203 36.015454 0.322374 0.488370 0.053259 -0.033106 -510031.000000 0 0 1
-16.048104 -5.395904 30.400143 34.796927 0.324358 0.508153 0.054622 -0.029346 510263.000000 0 0 1
-14.816604 -4.908804 29.865993 33.698749 0.319923 0.481580 0.050805 -0.026696 460751.000000 0 0 1
-14.878504 -4.948804 28.306293 32.359029 0.321103 0.505862 0.056784 -0.020306 867428.000000 0 0 1
-16.015304 -4.174304 27.856293 32.401973 0.254972 0.536095 0.048550 -0.022571 628465.000000 0 0 1
-16.533604 -4.350704 26.570033 31.595179 0.257310 0.571756 0.061532 -0.019917 -258533.000000 0 0 1
-15.669204 -3.924404 25.398443 30.099931 0.245405 0.566464 0.071071 -0.019620 -211782.000000 0 0 1
-15.400004 -2.549604 25.321383 29.746144 0.164070 0.552435 0.067117 -0.008005 79071.000000 0 0 1
-14.420104 -2.252504 24.335223 28.376333 0.154954 0.540233 0.060011 0.000179 133995.000000 0 0 1
-14.126804 -0.746504 24.268243 28.090416 0.052794 0.527768 0.060181 0.001007 -291046.000000 0 0 1
-15.018904 0.066796 23.569203 27.947796 -0.004447 0.567347 0.055634 -0.000509 -223123.000000 0 0 1
-14.965304 1.382196 24.111593 28.411964 -0.092099 0.557383 0.037727 0.003046 -57216.700000 0 0 1
-15.649104 2.530996 23.277023 28.162390 -0.160346 0.597884 0.031675 0.002697 15189.300000 0 0 1
-14.979404 2.885196 22.077223 26.834878 -0.190281 0.604641 0.016452 0.010422 126964.000000 0 0 1
-15.705104 3.864496 21.355023 26.788461 -0.241273 0.648199 0.020853 0.009787 231392.000000 0 0 1
-14.856704 4.827996 20.438623 25.724862 -0.314206 0.652598 0.032315 0.018487 42166.600000 0 0 1
-13.935504 5.665696 21.052523 25.874836 -0.386153 0.620429 0.007822 0.015113 148419.000000 0 0 1
-13.148504 6.343096 20.072323 24.819673 -0.449485 0.628813 0.012253 0.026408 186133.000000 0 1 0
-12.229904 7.497996 20.510623 25.029506 -0.549987 0.610332 0.001661 0.023392 152566.000000 0 0 1
-12.852504 8.716196 20.709123 25.884874 -0.595925 0.643422 0.004702 0.020404 1294290.000000 0 0 1
-11.747004 9.678796 20.841623 25.807837 -0.689167 0.630777 -0.001092 0.022751 1489150.000000 0 0 1
-12.229204 11.126596 20.559223 26.382498 -0.738224 0.677288 -0.003757 0.017758 -183142.000000 0 0 1
-12.592204 11.463696 19.223723 25.681344 -0.738521 0.724926 0.004799 0.011041 409804.000000 0 0 1
-13.225504 12.731496 19.247523 26.598347 -0.766369 0.761740 -0.000770 0.004217 -392476.000000 0 0 1
-13.536104 13.378396 17.884323 26.116213 -0.779539 0.816470 0.005289 0.002088 -365359.000000 0 0 1
-12.473404 14.012996 17.185723 25.442070 -0.843460 0.829175 -0.001636 0.000755 226639.000000 0 0 1
-12.209904 15.304996 17.676523 26.377720 -0.897415 0.836411 0.014244 -0.004822 -269151.000000 0 0 1
-13.241404 16.392296 17.213423 27.209264 -0.891328 0.885851 0.016206 -0.001629 93903.000000 0 0 1
-13.230004 16.636996 15.817323 26.495478 -0.898979 0.931062 0.015407 -0.019476 174745.000000 0 0 1
-13.848004 15.708296 14.913823 25.708751 -0.848256 0.951936 0.031101 -0.018575 -302050.000000 0 0 1
-14.124004 16.400396 13.563323 25.542596 -0.859836 1.011007 0.023944 -0.023365 -780300.000000 0 0 1
-15.139204 17.319196 13.613723 26.729824 -0.852460 1.036415 0.019201 -0.023245 -901780.000000 0 0 1
-15.481304 17.702796 12.360223 26.567553 -0.852243 1.086893 0.016397 -0.020545 -133213.000000 0 0 1
-16.681604 18.680096 12.243323 27.876887 -0.841854 1.116097 0.033492 -0.020130 323694.000000 0 0 1
-17.894404 18.056496 12.644023 28.392218 -0.789907 1.109249 0.044569 -0.023653 370428.000000 0 0 1
-18.973704 18.981896 12.816623 29.741884 -0.785614 1.125275 0.054746 -0.032824 1313440.000000 0 0 1
-20.331604 18.251496 13.158123 30.325359 -0.731538 1.121981 0.054088 -0.015788 694413.000000 0 0 1
-20.909904 17.563196 12.083323 29.861290 -0.698628 1.154202 0.054859 -0.017823 48591.800000 0 0 1
-22.081604 16.923296 12.574523 30.530539 -0.653913 1.146294 0.075785 -0.025599 456046.000000 0 0 1
-22.981404 16.259996 11.484023 30.404197 -0.615761 1.183473 0.075998 -0.027434 204113.000000 0 0 1
-22.421804 15.025296 10.977723 29.137728 -0.590389 1.184508 0.065408 -0.019863 76043.000000 0 0 1
-23.083604 14.580296 9.862123 29.029283 -0.563353 1.224166 0.061547 -0.019187 -594191.000000 0 0 1
-22.381704 13.391096 9.244723 27.671773 -0.539173 1.230162 0.084838 -0.010905 -757264.000000 0 0 1
-22.504504 12.117796 9.934223 27.422299 -0.493941 1.200096 0.074737 -0.013184 1109080.000000 0 0 1
-23.817504 11.581996 10.209123 28.383839 -0.452612 1.202870 0.073717 -0.012784 1113950.000000 0 0 1
-24.848904 11.341196 9.074923 28.782720 -0.428169 1.250033 0.093454 -0.012417 -122522.000000 0 0 1
-25.299384 12.536696 8.428223 29.466295 -0.460068 1.280716 0.108299 -0.015991 56312.000000 0 0 1
-26.419174 12.277896 7.609123 30.110102 -0.435039 1.315316 0.099383 -0.011590 -323626.000000 0 0 1
-26.657524 13.265596 6.356323 30.446715 -0.461750 1.360481 0.087191 -0.014432 -433428.000000 0 0 1
-25.671404 13.112996 5.372423 29.322936 -0.472252 1.386540 0.085513 -0.017468 679345.000000 0 0 1
-24.353704 13.618196 5.568023 28.452786 -0.509867 1.373832 0.087668 -0.019987 150210.000000 0 0 1
-24.256304 15.183796 5.708123 29.180449 -0.559299 1.373912 0.084475 -0.025422 -1071080.000000 0 0 1
-22.943104 15.611796 5.925823 28.376567 -0.597489 1.360420 0.076854 -0.028265 17460.000000 0 0 1
-23.016704 17.012896 6.261623 29.298724 -0.636524 1.355418 0.069101 -0.033627 551197.000000 0 0 1
-21.575704 17.620096 6.375723 28.576715 -0.684820 1.345794 0.074130 -0.029154 627838.000000 0 0 1
-20.984104 17.737696 5.087923 27.943612 -0.701754 1.387697 0.075384 -0.033846 1562280.000000 0 0 1
-19.564504 18.027296 5.172323 27.101774 -0.744529 1.378770 0.076294 -0.026853 1122590.000000 0 0 1
-19.040804 18.992396 4.069323 27.199682 -0.784125 1.420623 0.077885 -0.021547 -46286.400000 0 0 1
-17.627504 19.163396 4.107923 26.359811 -0.827120 1.414318 0.055701 -0.023543 666590.000000 0 0 1
-17.120904 20.270896 3.364423 26.746101 -0.869443 1.444671 0.058883 -0.016222 133499.000000 0 0 1
-17.481104 21.675396 3.997623 28.131704 -0.892107 1.428210 0.062899 -0.024025 -228196.000000 0 0 1
-16.721204 21.915896 5.160123 28.045178 -0.919045 1.385749 0.071363 -0.020142 216059.000000 0 0 1
-16.958804 23.254096 5.552623 29.311868 -0.940687 1.380212 0.056831 -0.016325 -202818.000000 0 0 1
-16.088204 23.675696 6.776123 29.415722 -0.973945 1.338352 0.040511 -0.007468 -34200.400000 0 0 1
-16.423604 23.004696 7.985623 29.372112 -0.950786 1.295453 0.046912 -0.018891 45567.000000 0 0 1
-15.514104 23.291396 9.011123 29.400287 -0.983195 1.259285 0.038908 -0.014817 -272585.000000 0 0 1
-15.930204 22.745696 10.421723 29.660586 -0.959828 1.211767 0.027648 -0.010953 194933.000000 0 0 1
-17.118304 23.328196 10.938023 30.933500 -0.937742 1.209382 0.028806 -0.012066 247537.000000 0 0 1
-18.167704 22.400096 11.096123 30.902325 -0.889351 1.203524 0.024020 -0.018853 -84548.700000 0 0 1
-19.509704 22.926396 11.617123 32.267719 -0.865739 1.202504 0.038059 -0.023737 235499.000000 0 0 1
-20.494704 23.573196 10.801923 33.051626 -0.855143 1.237860 0.058942 -0.023399 449086.000000 0 0 1
-20.116704 24.832396 10.242423 33.559453 -0.889928 1.260645 0.035554 -0.016156 -684783.000000 0 0 1
-21.231204 25.653096 9.586123 34.651682 -0.879435 1.290498 0.037140 -0.005289 -382025.000000 0 0 1
-22.013604 26.232396 10.609023 35.850923 -0.872620 1.270377 0.044710 -0.009359 -131937.000000 0 0 1
-22.967504 27.111296 10.073323 36.932376 -0.867956 1.294546 0.043236 -0.007075 -594429.000000 0 0 1
-24.088904 27.451996 11.058923 38.160020 -0.850557 1.276774 0.035161 -0.004601 -632873.000000 0 0 1
-23.722904 28.235496 12.197423 38.843230 -0.872031 1.251376 0.027394 -0.001543 132377.000000 0 0 1
-24.700604 28.293996 13.201423 39.811400 -0.853101 1.232798 0.024183 -0.000184 -195405.000000 0 0 1
8.507096 -32.812294 27.872503 43.885006 -1.317116 0.882625 0.044748 -0.029089 -951448.000000 0 0 1
9.890396 -32.821194 27.763043 44.111646 -1.278109 0.890040 0.051391 -0.035351 -589357.000000 0 0 1
10.303696 -32.509194 26.460713 43.164606 -1.263865 0.910920 0.046861 -0.028515 -654884.000000 0 0 1
11.800196 -32.688394 26.265483 43.562040 -1.224364 0.923610 0.024468 -0.020757 -581203.000000 0 0 1
12.291396 -34.024394 26.342763 44.751302 -1.224132 0.941411 0.033117 -0.032587 -101823.000000 0 0 1
13.698796 -33.970394 26.258863 45.068532 -1.187485 0.948819 0.042122 -0.026580 235663.000000 0 0 1
14.443196 33.264396 25.959173 44.598258 1.161164 0.949528 0.062361 -0.022629 142024.000000 0 0 1
14.357096 32.910296 24.562913 43.503453 1.159436 0.970824 0.040406 -0.016562 156865.000000 0 0 1
15.292296 31.861096 24.374763 42.931490 1.123303 0.967015 0.047586 -0.015807 -241663.000000 0 0 1
15.343896 31.238296 22.935723 41.681095 1.114223 0.988113 0.048089 -0.025833 -873434.000000 0 0 1
14.276596 30.461696 22.510023 40.477614 1.132522 0.981098 0.043027 -0.017907 -879497.000000 0 0 1
14.366096 29.049496 22.622723 39.522721 1.111527 0.961369 0.045827 -0.017282 -80770.700000 0 0 1
13.964896 28.510296 24.027863 39.814488 1.115326 0.922919 0.049656 -0.021838 198895.000000 0 0 1
14.981796 28.883296 24.956303 41.006293 1.092300 0.916505 0.058692 -0.020591 424809.000000 0 0 1
14.656896 28.412296 26.231513 41.354267 1.094538 0.883678 0.051097 -0.020932 -640707.000000 0 0 1
15.739996 28.705296 27.266043 42.604913 1.069236 0.876332 0.060770 -0.023665 -199056.000000 0 0 1
15.900496 30.093596 27.422733 43.708770 1.084713 0.892591 0.067296 -0.026422 152466.000000 0 0 1
16.612896 30.355596 28.630653 44.912858 1.070047 0.879585 0.069239 -0.026137 69674.000000 0 0 1
16.550396 31.836396 29.077213 46.183937 1.091389 0.889763 0.077609 -0.030524 26894.100000 0 0 1
17.312796 32.726996 28.285853 46.592689 1.084214 0.918406 0.067200 -0.025704 99652.700000 0 0 1
17.175296 34.049096 28.814443 47.797530 1.103613 0.923736 0.078404 -0.017579 311301.000000 0 0 1
18.009296 -33.578594 27.864233 47.204578 -1.078507 0.939382 0.061355 -0.020338 259287.000000 0 0 1
17.380196 -33.305794 26.570443 46.014515 -1.089832 0.955211 0.063790 -0.020596 118746.000000 0 0 1
17.502896 -32.019194 26.064293 44.843367 -1.070538 0.950557 0.067807 -0.023799 -540208.000000 0 0 1
18.875296 -31.384694 25.808953 44.803771 -1.029335 0.956915 0.068805 -0.015456 -208173.000000 0 0 1
19.440096 -30.985494 27.077943 45.510803 -1.010478 0.933558 0.057871 -0.014347 7232.940000 0 0 1
20.536396 -30.098094 26.920063 45.302634 -0.972038 0.934492 0.061183 -0.013000 127429.000000 0 0 1
20.759996 -29.284594 28.177233 45.634651 -0.954119 0.905296 0.058145 -0.008642 -308474.000000 0 0 1
19.616596 -28.492994 28.314113 44.702914 -0.967850 0.884878 0.066955 -0.013701 -163438.000000 0 0 1
19.785496 -27.776594 29.501013 45.092292 -0.951857 0.857624 0.069844 -0.006065 -503233.000000 0 0 1
18.511196 -27.157194 30.005253 44.502728 -0.972505 0.830869 0.069894 -0.012285 -577860.000000 0 0 1
17.841096 -26.216794 29.203733 43.110127 -0.973263 0.826544 0.079427 -0.013937 440390.000000 0 0 1
16.579196 -25.868594 29.782583 42.790842 -1.000845 0.800980 0.075962 -0.014827 638365.000000 0 0 1
15.675296 -25.040794 28.803843 41.260364 -1.011485 0.798056 0.064719 -0.011821 -400574.000000 0 0 1
15.251596 -25.829694 27.687403 40.821276 -1.037415 0.825405 0.062676 -0.015030 37577.400000 0 0 1
14.533096 -25.203194 26.648733 39.453350 -1.047733 0.829223 0.059618 -0.019058 225509.000000 0 0 1
13.039496 -24.833094 27.020193 38.946141 -1.087282 0.804067 0.038526 -0.017156 320581.000000 0 0 1
12.138696 -25.883494 27.121483 39.406574 -1.132276 0.811725 0.040813 -0.015476 -269353.000000 0 0 1
11.947696 -26.673394 25.961353 39.092317 -1.149669 0.844502 0.039301 -0.021667 -778393.000000 0 0 1
11.069896 -27.940994 26.226503 39.888234 -1.193580 0.853301 0.041665 -0.028238 31961.600000 0 0 1
9.701296 -27.664494 26.401843 39.452461 -1.233519 0.837656 0.036833 -0.029386 -284317.000000 0 0 1
9.061596 -28.922194 26.617583 40.337347 -1.267174 0.850145 0.031825 -0.025221 1772540.000000 0 0 1
7.521896 -28.800794 27.114233 40.264703 -1.315333 0.831999 0.029153 -0.026925 2623740.000000 0 0 1
6.491796 -28.490494 26.152403 39.214791 -1.346763 0.840754 0.043915 -0.027657 397365.000000 0 0 1
6.601596 -27.253094 25.547723 37.934132 -1.333141 0.831895 0.063047 -0.027136 -520068.000000 0 0 1
5.462996 -26.895894 24.544123 36.819118 -1.370406 0.841140 0.067401 -0.027096 -36359.600000 0 0 1
5.298696 -27.689094 23.349623 36.605560 -1.381718 0.879066 0.043748 -0.023604 -67877.800000 0 0 1
4.712196 -28.998994 23.493673 37.617803 -1.409709 0.896259 0.030180 -0.018989 652348.000000 0 0 1
3.213496 -29.097194 23.981323 37.842795 -1.460802 0.884458 0.035844 -0.019395 675183.000000 0 0 1
2.280096 -28.640994 22.980023 36.791125 -1.491354 0.896167 0.032348 -0.017383 689013.000000 0 0 1
0.973896 -28.433894 23.500563 36.901372 -1.536558 0.880393 0.038725 -0.020971 351225.000000 0 0 1
0.778496 -26.971094 23.988483 36.103924 -1.541940 0.844067 0.044448 -0.020638 -437406.000000 0 0 1
1.463296 -26.664594 25.168043 36.695670 -1.515973 0.815013 0.039519 -0.023515 -84276.800000 0 0 1
1.256396 -25.326094 25.434933 35.915532 -1.521228 0.783869 0.036274 -0.014227 -230104.000000 0 0 1
2.348896 -24.626294 26.297783 36.104641 -1.475702 0.754846 0.049465 -0.014633 -13435.800000 0 0 1
3.473496 -24.324894 25.478753 35.396787 -1.428959 0.767276 0.051172 -0.014718 983598.000000 0 0 1
4.463496 -23.409894 26.083823 35.331456 -1.382391 0.740308 0.059103 -0.012362 1123730.000000 0 0 1
3.941196 -22.008194 26.510843 34.680231 -1.393596 0.700629 0.041667 0.002756 -430806.000000 0 0 1
3.789896 -21.234394 25.311823 33.255845 -1.394177 0.705752 0.044864 0.003095 229691.000000 0 0 1
3.057796 -20.022694 25.386003 32.476261 -1.419251 0.673443 0.046453 -0.007537 -93459.700000 0 0 1
3.016596 -19.300894 24.012433 30.955150 -1.415758 0.682946 0.051732 -0.012188 -644377.000000 0 0 1
4.200496 -18.658994 23.663673 30.426496 -1.349369 0.679746 0.080478 -0.012717 -559647.000000 0 0 1
4.307396 -18.571594 22.291723 29.332213 -1.342891 0.707523 0.087352 -0.017852 -627906.000000 0 0 1
5.461696 -17.724294 21.810023 28.629667 -1.271882 0.704712 0.071753 -0.006930 629166.000000 0 0 1
6.744696 -18.264594 22.176323 29.510602 -1.217052 0.720509 0.063330 -0.012804 521949.000000 0 0 1
7.850396 -17.516794 21.671723 28.950482 -1.149470 0.724880 0.047100 -0.007607 226249.000000 0 0 1
9.090596 -17.811594 22.519523 30.116785 -1.098883 0.726145 0.065355 0.003412 -270173.000000 0 0 1
9.112596 -17.190694 23.777703 30.723583 -1.083368 0.685783 0.068129 0.000996 367122.000000 0 0 1
10.286696 -17.552494 24.520333 31.861464 -1.040695 0.692594 0.071189 -0.000584 666072.000000 0 0 1
10.462396 -16.692894 25.774053 32.440966 -1.010934 0.652627 0.083384 -0.017862 -52964.600000 0 0 1
10.722996 -15.291694 25.516883 31.621668 -0.959245 0.631839 0.085684 -0.015718 138611.000000 0 0 1
10.533196 -14.495994 26.694333 32.150731 -0.942422 0.591174 0.085258 -0.013789 -149137.000000 0 0 1
10.849996 -12.952894 26.570183 31.487688 -0.873516 0.566420 0.074204 -0.016050 -90976.700000 0 0 1
9.888396 -12.178994 25.897263 30.278318 -0.888828 0.544653 0.070676 -0.015610 -109485.000000 0 0 1
10.403896 -10.857194 25.720933 29.794062 -0.806715 0.529043 0.059632 -0.016791 445041.000000 0 0 1
9.431196 -9.912794 24.925743 28.434198 -0.810290 0.502022 0.058798 -0.018053 1593720.000000 0 0 1
8.156596 -9.673694 25.615353 28.570207 -0.870279 0.458820 0.052348 -0.016173 1006300.000000 0 0 1
7.342096 -8.921894 24.734443 27.300169 -0.882229 0.437018 0.043272 -0.017812 -699442.000000 0 0 1
5.864596 -9.083494 25.025133 27.260973 -0.997498 0.407829 0.036808 -0.013862 -1678210.000000 0 0 1
5.307196 -8.298794 26.064723 27.864065 -1.001828 0.361339 0.037261 -0.007945 839008.000000 0 0 1
3.954296 -8.616294 26.447543 28.095365 -1.140539 0.344190 0.025280 -0.001015 1592870.000000 0 0 1
2.867696 -8.420294 25.341423 26.857267 -1.242547 0.337579 0.022462 -0.002943 -548298.000000 0 0 1
2.894296 -7.098594 24.860383 26.015489 -1.183646 0.299109 0.028080 -0.005004 -812193.000000 0 0 1
1.830796 -6.872394 24.022473 25.053160 -1.310444 0.287838 0.035266 -0.012414 -500737.000000 0 0 1
1.938996 -5.583994 23.147223 23.890053 -1.236581 0.250025 0.032645 -0.020721 -122559.000000 0 1 0
1.825296 -4.394494 23.902203 24.371266 -1.177119 0.196513 0.041278 -0.010659 -150566.000000 0 1 0
2.270696 -3.248494 23.236623 23.572217 -0.960742 0.168942 0.048477 -0.021483 -788681.000000 0 1 0
1.278096 -2.514494 22.286123 22.463916 -1.100538 0.125897 0.042468 -0.020879 355530.000000 0 1 0
0.197496 -1.830494 22.894223 22.968134 -1.463320 0.080246 0.037827 -0.018345 -250745.000000 0 1 0
-0.845904 -2.634494 23.348823 23.512202 1.260107 0.117956 0.035129 -0.018865 -568642.000000 0 1 0
-2.055304 -1.763494 23.816043 23.969524 0.709132 0.113226 0.033876 -0.031585 20590.200000 0 1 0
-1.703304 -0.937494 24.911013 24.986771 0.503148 0.077890 0.037334 -0.025496 710910.000000 0 1 0
-2.723404 0.018506 25.305673 25.451805 -0.006795 0.107210 0.033238 -0.024462 276948.000000 0 0 1
-2.202104 1.017506 26.365063 26.476426 -0.432838 0.091750 0.054252 -0.021765 -201053.000000 0 0 1
-2.039804 0.586506 27.687853 27.769084 -0.279978 0.076507 0.059952 -0.011232 36209.600000 0 0 1
-1.147804 -0.440494 28.041613 28.068551 0.366438 0.043815 0.059847 -0.016170 -473968.000000 0 0 1
0.307596 -0.000494 28.376863 28.378530 -0.001606 0.010839 0.069376 -0.011054 13809.100000 0 0 1
1.130196 0.224506 27.238993 27.263355 0.196091 0.042277 0.064243 -0.011588 99817.100000 0 0 1
1.582696 -0.884494 26.475883 26.537891 -0.509615 0.068374 0.054894 -0.010598 -593503.000000 0 0 1
2.678296 -1.721494 27.134873 27.321020 -0.571267 0.116800 0.042850 -0.007270 -931292.000000 0 0 1
2.221896 -2.583494 28.172673 28.377998 -0.860505 0.120367 0.036872 0.000166 606906.000000 0 0 1
3.220296 -3.455494 28.806523 29.191206 -0.820615 0.162524 0.042992 0.007285 760958.000000 0 0 1
3.819096 -4.533394 27.868123 28.491568 -0.870710 0.209581 0.042404 0.003367 -306704.000000 0 0 1
4.784796 -4.025394 26.981953 27.697001 -0.699415 0.227722 0.040856 -0.003517 -215822.000000 0 0 1
5.291196 -5.021694 26.121993 27.121444 -0.759272 0.272322 0.037824 -0.004781 23948.500000 0 0 1
6.329996 -4.438794 25.056673 26.222292 -0.611552 0.299282 0.027095 -0.000966 1069550.000000 0 0 1
7.637996 -4.234994 25.593013 27.042124 -0.506264 0.328855 0.035603 -0.001031 718288.000000 0 0 1
8.439996 -5.447794 25.715583 27.608028 -0.573187 0.372410 0.048708 -0.011307 251879.000000 0 0 1
9.468696 -5.673394 24.574573 26.939808 -0.539812 0.422167 0.039198 -0.014743 -134829.000000 0 0 1
8.802196 -5.905994 23.373223 25.664508 -0.590975 0.425768 0.036303 -0.015944 39764.700000 0 0 1
9.638196 -5.658094 22.240423 24.890666 -0.530842 0.465662 0.052434 -0.015039 278974.000000 0 1 0
9.627096 -4.210194 21.712923 24.121728 -0.412266 0.450706 0.046429 -0.009297 -514665.000000 0 1 0
8.403796 -3.860494 21.181423 23.112332 -0.430623 0.411666 0.035549 -0.015134 -958827.000000 0 1 0
8.563096 -2.788494 20.297023 22.205213 -0.314811 0.417598 0.027653 -0.016998 -645432.000000 0 1 0
7.215396 -2.132494 20.029523 21.396057 -0.287367 0.359333 0.019650 -0.012337 1119.390000 0 1 0
6.554396 -1.543494 21.142723 22.189124 -0.231276 0.308330 0.021507 -0.011205 -598130.000000 0 1 0
5.316196 -0.978494 20.936023 21.622591 -0.182022 0.252673 0.021223 -0.014076 -646627.000000 0 1 0
4.915196 0.036506 22.068923 22.609685 0.007427 0.219149 0.038139 -0.017993 -206800.000000 0 1 0
3.568696 0.423506 22.054023 22.344907 0.118120 0.161532 0.034552 -0.018979 -318018.000000 0 1 0
3.218696 0.945506 23.319023 23.559092 0.285717 0.142881 0.048314 -0.018977 1390050.000000 0 1 0
1.686096 1.341506 23.518673 23.617166 0.672070 0.091360 0.042767 -0.016866 1541600.000000 0 1 0
1.217496 2.567506 22.924823 23.100258 1.128006 0.123322 0.039728 -0.022626 1474640.000000 0 1 0
-0.195104 2.723506 23.223223 23.383192 -1.499281 0.117038 0.021211 -0.010455 1414870.000000 0 1 0
-0.794604 4.050506 22.616923 22.990503 -1.377082 0.180519 0.031943 -0.017417 -181903.000000 0 1 0
-0.758404 5.205506 23.417723 24.001296 -1.426122 0.220968 0.030889 -0.013594 -17322.900000 0 1 0
-1.697304 6.167506 23.018023 23.890340 -1.302243 0.271064 0.028990 -0.014772 -212607.000000 0 1 0
-1.551504 7.534506 23.778013 24.991396 -1.367715 0.312890 0.036741 -0.008457 -617719.000000 0 1 0
-0.524904 8.328506 23.341923 24.788806 -1.507855 0.343352 0.025924 -0.008152 -661058.000000 0 1 0
-0.619104 9.640506 23.757583 25.646548 -1.506665 0.386202 0.032537 -0.003773 -718970.000000 0 0 1
0.264196 10.668506 22.987723 25.344077 1.546037 0.434631 0.044391 -0.009888 620374.000000 0 0 1
1.674696 10.542506 23.004523 25.360543 1.413261 0.434456 0.042592 -0.017969 361300.000000 0 0 1
2.311596 10.630506 24.309103 26.632379 1.356680 0.420794 0.053137 -0.007856 498628.000000 0 0 1
3.716096 11.380506 24.231923 27.027974 1.255180 0.458879 0.050624 -0.012019 1631570.000000 0 0 1
4.851496 10.708506 23.685523 26.442638 1.145408 0.460721 0.060540 -0.004792 571021.000000 0 0 1
4.766396 10.649506 22.299823 25.167690 1.149965 0.482043 0.057767 -0.014332 -41536.400000 0 0 1
6.117896 10.161506 21.658423 24.693565 1.028859 0.501031 0.071168 -0.011747 310629.000000 0 1 0
7.082496 11.146506 21.547223 25.272301 1.004753 0.549851 0.069707 -0.020143 -321885.000000 0 0 1
8.300996 10.587506 21.088023 25.014127 0.905865 0.567877 0.076345 -0.018808 91517.200000 0 0 1
9.338196 11.631506 20.695423 25.510672 0.894328 0.624517 0.079332 -0.028926 -675529.000000 0 0 1
8.928896 12.269506 19.479923 24.692780 0.941701 0.661793 0.070217 -0.033613 53117.000000 0 1 0
9.784596 13.269506 19.003123 25.158235 0.935425 0.714617 0.077552 -0.027126 46789.600000 0 0 1
11.186896 12.851506 18.500623 25.151161 0.854536 0.744278 0.067846 -0.022335 -236690.000000 0 0 1
12.111696 12.589506 19.516523 26.193196 0.804739 0.730113 0.073452 -0.025006 1058180.000000 0 0 1
13.456896 12.460506 18.956423 26.376092 0.746972 0.768870 0.068590 -0.017513 1867180.000000 0 0 1
14.584996 12.268506 20.029923 27.648439 0.699347 0.760560 0.068998 -0.009039 396643.000000 0 0 1
15.008596 13.489506 20.608723 28.843443 0.732144 0.774883 0.070115 -0.008152 189090.000000 0 0 1
16.261796 13.266506 21.243523 29.861907 0.684306 0.779319 0.068779 -0.010034 366433.000000 0 0 1
16.856796 14.564506 21.836123 31.194434 0.712574 0.795398 0.074659 -0.007826 -44103.600000 0 0 1
16.234596 15.103506 22.986523 31.938351 0.749321 0.767404 0.073052 -0.007424 189943.000000 0 0 1
16.886996 16.315506 23.394223 33.145981 0.768188 0.787253 0.075995 -0.005441 -5878.810000 0 0 1
-20.977904 12.924896 -24.748581 34.923024 -0.552188 2.358395 0.016456 -0.003434 -166616.000000 0 0 1
-21.067104 12.790396 -26.125551 35.916034 -0.545643 2.385331 0.020798 -0.017150 206036.000000 0 0 1
-21.717804 13.859096 -26.831391 37.197595 -0.567996 2.376503 0.013013 -0.018683 -40839.600000 0 0 1
-21.614104 13.703896 -28.386771 38.220086 -0.565063 2.407918 0.015735 -0.015546 353894.000000 0 0 1
-20.285704 13.986396 -28.836541 37.929871 -0.603624 2.434509 0.027140 -0.017018 425959.000000 0 0 1
-20.289304 14.358196 -30.212381 39.122904 -0.615857 2.453160 0.027836 -0.017040 -175723.000000 0 0 1
-18.890904 14.828296 -30.622041 38.915986 -0.665493 2.476526 0.014864 -0.016658 -542334.000000 0 0 1
-17.946404 13.780896 -30.697321 38.135443 -0.654854 2.506396 0.013558 -0.019066 67771.700000 0 0 1
-16.648604 14.370896 -30.782101 37.831685 -0.712101 2.521216 0.012754 -0.013964 526068.000000 0 0 1
-15.692704 14.098296 -29.599231 36.347453 -0.731929 2.522390 0.042700 -0.009163 -174318.000000 0 0 1
-16.153904 14.509596 -28.294841 35.666160 -0.731825 2.487047 0.034704 -0.018700 15065.400000 0 0 1
-16.739104 13.449696 -27.524421 34.909678 -0.676865 2.479076 0.045240 -0.014485 -210805.000000 0 0 1
-17.509404 13.871996 -26.301281 34.507519 -0.670003 2.437486 0.032051 -0.021849 -373060.000000 0 0 1
-16.641404 14.248996 -25.268861 33.443767 -0.708104 2.427309 0.066593 -0.027179 777355.000000 0 0 1
-17.398204 14.543796 -24.037081 33.045434 -0.696273 2.385314 0.048871 -0.020719 686871.000000 0 0 1
-16.502204 15.127996 -22.891981 32.019084 -0.741979 2.367346 0.048902 -0.012123 349724.000000 0 0 1
-15.896904 16.373696 -23.269081 32.592324 -0.800172 2.365911 0.031852 -0.015913 196317.000000 0 0 1
-15.222804 17.083796 -22.250381 31.916599 -0.842939 2.342199 0.034700 -0.008382 -182191.000000 0 0 1
-15.040404 18.579296 -22.564581 32.871938 -0.890274 2.327377 0.040181 -0.014651 243631.000000 0 0 1
-16.234604 19.348396 -22.544981 33.855560 -0.872684 2.299518 0.013723 -0.014727 351979.000000 0 0 1
-16.935604 19.358596 -23.771581 35.023677 -0.852059 2.316827 0.003409 -0.010767 -128725.000000 0 0 1
-18.147904 20.322296 -23.746981 36.142236 -0.841860 2.287685 -0.009075 -0.014305 69883.400000 0 0 1
-17.863704 21.725396 -23.896281 36.907140 -0.882635 2.275057 -0.008955 -0.013340 851815.000000 0 0 1
-19.091604 22.382696 -24.270181 38.138118 -0.864585 2.260587 0.002888 -0.021289 918451.000000 0 0 1
-18.877704 23.915396 -24.378181 39.020630 -0.902581 2.245609 0.005989 -0.025500 244292.000000 0 0 1
-18.343304 24.459096 -23.179181 38.366634 -0.927322 2.219494 0.010597 -0.022698 480411.000000 0 0 1
-17.422904 25.559396 -23.309481 38.732056 -0.972483 2.216566 0.007789 -0.010778 394766.000000 0 0 1
-16.431304 25.655396 -22.100681 37.638108 -1.001156 2.198378 0.018032 -0.024088 377548.000000 0 0 1
-15.366304 24.692396 -22.094881 36.524258 -1.014134 2.220483 0.027137 -0.036258 293251.000000 0 0 1
-15.769104 23.366996 -21.762681 35.613135 -0.977153 2.228228 0.017243 -0.015364 -330794.000000 0 0 1
-14.586004 22.359096 -21.720181 34.415795 -0.992769 2.253781 0.052264 -0.021915 410483.000000 0 0 1
-13.676304 22.524296 -20.657181 33.482896 -1.025114 2.235654 0.071413 -0.034118 -371198.000000 0 0 1
-12.811904 21.451196 -20.510381 32.326064 -1.032395 2.258138 0.066415 -0.028454 292342.000000 0 0 1
-11.871004 21.604696 -19.199681 31.245981 -1.068365 2.232509 0.067801 -0.021685 455626.000000 0 0 1
-12.473104 21.537596 -17.926681 30.672663 -1.045863 2.195000 0.082435 -0.018861 -212159.000000 0 0 1
-13.210904 22.707296 -17.650381 31.649411 -1.043873 2.162390 0.078458 -0.028909 126581.000000 0 0 1
-13.971904 22.733896 -16.291681 31.264404 -1.019722 2.118928 0.089232 -0.023246 369867.000000 0 0 1
-13.075104 23.120896 -15.277481 30.642056 -1.056123 2.092755 0.090220 -0.027430 -139610.000000 0 0 1
-13.776104 23.124996 -14.044981 30.361290 -1.033527 2.051716 0.089367 -0.021232 511464.000000 0 0 1
-12.917604 23.547196 -12.760281 29.734823 -1.069041 2.014332 0.115604 -0.017690 226884.000000 0 0 1
-12.471804 24.876196 -12.803081 30.631518 -1.106065 2.002007 0.103102 -0.015905 376096.000000 0 0 1
-11.666204 25.211896 -11.668781 30.131386 -1.137410 1.968458 0.071326 -0.008673 313963.000000 0 0 1
-11.381304 26.770996 -11.464681 31.267542 -1.168811 1.946217 0.081324 -0.013338 135651.000000 0 0 1
-10.592804 27.258696 -12.540181 31.819807 -1.200154 1.975885 0.080953 -0.016568 99055.800000 0 0 1
-10.806504 28.618796 -12.895681 33.198111 -1.209747 1.969741 0.058752 -0.011238 -739546.000000 0 0 1
-10.194204 29.042696 -14.278481 33.930443 -1.233224 2.005141 0.072665 -0.028130 -459941.000000 0 0 1
-8.809104 29.139096 -14.370281 33.662920 -1.277220 2.011844 0.069049 -0.030224 -674941.000000 0 0 1
-8.254904 27.822696 -14.571481 32.474203 -1.282373 2.036117 0.071914 -0.030392 296716.000000 0 0 1
-6.805904 27.858896 -15.169981 32.443284 -1.331190 2.057353 0.085500 -0.036690 1076660.000000 0 0 1
-5.846204 28.572396 -14.410881 32.530499 -1.368972 2.029734 0.081353 -0.036454 174029.000000 0 0 1
-4.519904 28.282296 -14.861581 32.267388 -1.412323 2.049440 0.094286 -0.041715 946918.000000 0 0 1
-3.427104 29.259496 -14.352881 32.769930 -1.454200 2.024157 0.077781 -0.032859 55824.800000 0 0 1
-3.581804 30.648796 -14.676581 34.169870 -1.454458 2.014756 0.069247 -0.031936 423467.000000 0 0 1
-4.477104 31.284296 -13.721181 34.453192 -1.428651 1.980411 0.053416 -0.034608 262901.000000 0 0 1
-4.481104 32.786296 -13.981881 35.923731 -1.434962 1.970570 0.049430 -0.034757 -306635.000000 0 0 1
-3.436104 33.594096 -13.495681 36.366241 -1.468868 1.950995 0.042447 -0.033472 -165961.000000 0 0 1
-3.763504 -33.565894 -13.624181 36.420482 1.459140 1.954201 0.044386 -0.029670 371258.000000 0 0 1
-2.723104 -32.687594 -12.897181 35.245303 1.487681 1.945424 0.042197 -0.025104 100674.000000 0 0 1
-2.888604 -32.752894 -11.461481 34.820420 1.482830 1.906210 0.036530 -0.028369 -243846.000000 0 0 1
-2.004804 -31.948594 -10.753581 33.769386 1.508128 1.894881 0.036471 -0.023408 -503221.000000 0 0 1
-2.230904 -32.063594 -9.195881 33.430753 1.501331 1.849461 0.023951 -0.013342 -205337.000000 0 0 1
-1.335704 -31.283694 -8.438981 32.429462 1.528126 1.834052 0.018840 -0.015100 -114581.000000 0 0 1
-1.754304 -31.227594 -7.093481 32.071135 1.514677 1.793820 0.018147 -0.019141 -432917.000000 0 0 1
-0.717704 -30.771494 -6.068181 31.372325 1.547477 1.765448 0.032403 -0.013273 -358611.000000 0 0 1
-1.094004 -30.733094 -4.695181 31.108916 1.535214 1.722302 0.041357 -0.003541 694789.000000 0 0 1
0.078996 -30.330194 -3.947181 30.586061 -1.568192 1.700209 0.040155 0.001730 611904.000000 0 0 1
0.006396 -30.487694 -2.391681 30.581361 -1.570587 1.649083 0.039228 0.004432 -345095.000000 0 0 1
0.103696 -31.808594 -1.875781 31.864023 -1.567536 1.629699 0.037137 -0.000861 840957.000000 0 0 1
1.204796 -32.634594 -2.315481 32.738811 -1.533895 1.641581 0.033019 -0.005585 474773.000000 0 0 1
2.629396 -32.381094 -1.804181 32.537733 -1.489773 1.626274 0.042386 -0.006646 -706750.000000 0 0 1
2.815396 -32.744694 -0.391581 32.867838 -1.485027 1.582710 0.024289 -0.002561 -73111.900000 0 0 1
4.066096 -32.363394 0.150119 32.618169 -1.445812 1.566194 0.026656 -0.006462 22031.400000 0 0 1
4.250896 -30.837694 0.400819 31.131883 -1.433812 1.557921 0.019201 -0.006553 -620198.000000 0 0 1
4.455096 -30.143094 -0.790681 30.480800 -1.424060 1.596740 0.035074 -0.014076 80908.900000 0 0 1
4.533796 -28.764494 -0.656181 29.126998 -1.414465 1.593326 0.045727 -0.008046 -310896.000000 0 0 1
4.158696 -28.071994 -1.961481 28.446072 -1.423722 1.639805 0.047412 -0.004881 195745.000000 0 0 1
2.759096 -27.983694 -2.203481 28.205586 -1.472517 1.648998 0.045203 -0.003674 279218.000000 0 0 1
2.352896 -27.064994 -3.199981 27.354888 -1.484079 1.688045 0.042420 -0.003558 101417.000000 0 0 1
2.953596 -27.203394 -4.611381 27.749112 -1.462645 1.737752 0.038475 -0.010973 156181.000000 0 0 1
2.302796 -28.300694 -5.299681 28.884577 -1.489606 1.755320 0.038157 -0.015298 357906.000000 0 0 1
2.848996 -28.238094 -6.579381 29.134086 -1.470245 1.798592 0.042188 -0.022283 -509635.000000 0 0 1
2.154396 -29.010694 -7.688181 30.089366 -1.496670 1.829173 0.029540 -0.016873 57973.400000 0 0 1
0.947996 -28.369094 -8.109381 29.520607 -1.537392 1.849076 0.030027 -0.016120 324643.000000 0 0 1
0.629096 -28.579494 -9.487681 30.119750 -1.548788 1.891252 0.034639 -0.013791 -525514.000000 0 0 1
-0.728604 -28.055394 -9.922581 29.767325 1.544832 1.910638 0.030463 -0.018366 -1171990.000000 0 0 1
-0.810904 -26.643694 -9.820181 28.407393 1.540371 1.923771 0.022587 -0.015276 1015440.000000 0 0 1
-2.135104 -26.039294 -9.897881 27.938711 1.488984 1.932931 0.034974 -0.015093 2127220.000000 0 0 1
-3.191904 -26.462594 -8.776981 28.062297 1.450757 1.888902 0.040117 -0.017237 102458.000000 0 0 1
-2.874304 -26.188194 -7.423381 27.371330 1.461478 1.845446 0.036323 -0.015189 -311087.000000 0 0 1
-2.311204 -27.316794 -6.790981 28.242987 1.486390 1.813624 0.035780 -0.009520 191422.000000 0 0 1
-1.904804 -27.112994 -5.325981 27.696729 1.500657 1.764298 0.033165 0.003086 -230813.000000 0 0 1
-3.019104 -27.046694 -4.513381 27.586396 1.459631 1.735144 0.028376 -0.001819 -482884.000000 0 0 1
-2.573904 -27.270494 -3.202081 27.578219 1.476691 1.687168 0.028743 0.011783 -394983.000000 0 0 1
-3.662004 -27.363494 -2.175681 27.693044 1.437759 1.649442 0.039887 0.004553 -558154.000000 0 0 1
-4.552504 -26.281194 -1.999481 26.747418 1.399275 1.645620 0.036476 0.005139 80934.100000 0 0 1
-5.258404 -26.325794 -0.758981 26.856550 1.373647 1.599061 0.041528 0.000016 131936.000000 0 0 1
-6.232304 -25.139994 -0.631081 25.908670 1.327791 1.595157 0.031746 -0.001302 303848.000000 0 0 1
-5.544504 -23.885694 -0.492781 24.525716 1.342709 1.590890 0.014009 0.000830 -31824.700000 0 1 0
-6.437604 -22.888494 -0.069081 23.776684 1.296620 1.573702 0.030423 -0.009469 -15268.800000 0 1 0
-5.743604 -21.563694 0.315519 22.317738 1.310485 1.556658 0.020864 -0.013713 -452987.000000 0 1 0
-4.951404 -21.730994 1.431019 22.333838 1.346771 1.506678 0.020665 -0.009994 -642852.000000 0 1 0
-4.295804 -20.476894 1.545419 20.979644 1.364007 1.497067 0.007658 -0.010982 678327.000000 0 1 0
-3.224804 -20.380694 2.721419 20.812933 1.413869 1.439665 0.006854 -0.006051 816880.000000 0 1 0
-3.904004 -20.222594 3.977919 20.976616 1.380091 1.380005 0.001543 -0.000537 140683.000000 0 1 0
-3.029204 -20.090094 5.096319 20.946609 1.421143 1.325029 0.017551 -0.003774 350095.000000 0 1 0
-2.189104 -21.333594 5.544619 22.150784 1.468541 1.317793 0.013467 -0.013270 807348.000000 0 1 0
-1.181504 -21.592694 4.537019 22.095813 1.516133 1.363991 0.024628 -0.018479 214568.000000 0 1 0
-0.620604 -22.909994 4.824619 23.420716 1.543714 1.363313 0.026484 -0.018061 -773845.000000 0 1 0
0.379096 -23.308594 3.708819 23.604864 -1.554534 1.413022 0.032747 -0.020719 529671.000000 0 1 0
1.565996 -22.530694 3.589019 22.868441 -1.501403 1.413203 0.027313 -0.024205 216080.000000 0 1 0
2.516896 -22.872494 4.578319 23.461602 -1.461197 1.374395 0.037921 -0.026944 -547738.000000 0 1 0
3.743496 -21.930794 4.689719 22.736907 -1.401730 1.363045 0.045351 -0.030146 287294.000000 0 1 0
4.522796 -21.847994 3.506619 22.585104 -1.366668 1.414903 0.032246 -0.016802 540003.000000 0 1 0
5.772596 -21.188294 3.823719 22.290974 -1.304809 1.398407 0.041570 -0.010495 1223670.000000 0 1 0
6.536096 -20.722594 2.531619 21.875913 -1.265263 1.454810 0.044752 -0.005795 -16668.700000 0 1 0
6.978896 -21.889094 1.894819 23.052717 -1.262155 1.488508 0.046064 -0.001921 -411965.000000 0 1 0
6.815296 -21.817094 0.505219 22.862395 -1.268018 1.548696 0.043178 -0.012117 624924.000000 0 1 0
7.870196 -22.579194 -0.431381 23.915394 -1.235405 1.588835 0.044562 -0.009013 235242.000000 0 1 0
8.998096 -21.814894 -0.714581 23.608599 -1.179582 1.601069 0.048121 -0.007896 -967761.000000 0 1 0
9.843096 -22.633194 -1.509281 24.727029 -1.160573 1.631872 0.050769 -0.009033 -29502.400000 0 1 0
11.223796 -22.058194 -1.848881 24.818459 -1.100112 1.645362 0.057020 -0.009300 112737.000000 0 1 0
11.109896 -21.020794 -2.809881 23.941575 -1.084594 1.688432 0.060808 -0.008810 -91990.000000 0 1 0
12.335196 -21.039394 -3.512081 24.640371 -1.040518 1.713817 0.059104 -0.009695 159969.000000 0 1 0
12.533596 -19.763394 -4.315281 23.797152 -1.005621 1.753141 0.059303 -0.026645 36491.400000 0 1 0
12.589096 -18.537894 -3.606981 22.696898 -0.974235 1.730393 0.066140 -0.023572 -15560.000000 0 1 0
12.825096 -17.468094 -4.462181 22.125290 -0.937483 1.773867 0.077109 -0.029261 -581122.000000 0 1 0
13.404696 -16.232694 -3.683181 21.371758 -0.880530 1.744000 0.091614 -0.020353 -37388.400000 0 1 0
14.773096 -16.214594 -3.399581 22.197175 -0.831883 1.724555 0.079716 -0.014709 -422944.000000 0 1 0
15.630396 -15.957994 -4.473581 22.781128 -0.795769 1.768453 0.075478 -0.021206 -1001440.000000 0 1 0
17.067496 -15.655294 -4.079481 23.516586 -0.742268 1.745151 0.073420 -0.017696 -536317.000000 0 1 0
17.770796 -16.719994 -3.496881 24.649291 -0.754941 1.713142 0.074702 -0.017148 -561191.000000 0 1 0
19.113296 -16.383794 -3.352881 25.396626 -0.708655 1.703204 0.050074 -0.004769 -400167.000000 0 0 1
19.830496 -17.413694 -2.377481 26.497882 -0.720598 1.660641 0.039343 -0.013177 -332938.000000 0 0 1
21.213996 -17.249494 -2.333581 27.441288 -0.682689 1.655938 0.029564 -0.004943 -767798.000000 0 0 1
21.834396 -18.022794 -1.370681 28.345030 -0.690057 1.619172 0.020042 0.001972 882555.000000 0 0 1
23.399896 -17.955794 -1.618981 29.539580 -0.654510 1.625631 0.027112 -0.005913 957897.000000 0 0 1
23.893496 -16.706894 -1.209481 29.180170 -0.610205 1.612257 0.024762 -0.006608 -125497.000000 0 0 1
25.179096 -16.784394 -0.630381 30.267146 -0.587957 1.591625 0.052466 -0.009943 66157.800000 0 0 1
25.752896 -15.459394 -0.178481 30.037250 -0.540638 1.576738 0.046549 -0.011446 94263.500000 0 0 1
25.133496 -14.947994 1.013419 29.260249 -0.536546 1.536155 0.022381 -0.009774 724212.000000 0 0 1
25.907996 -13.815494 1.518619 29.400652 -0.489894 1.519121 0.028446 -0.016539 654506.000000 0 0 1
25.191396 -13.085894 2.688019 28.514426 -0.479093 1.476387 0.034576 -0.014557 125552.000000 0 0 1
24.846096 -13.837394 3.860719 28.700298 -0.508144 1.435869 0.042199 -0.003598 463325.000000 0 0 1
25.980596 -14.346394 4.565619 30.027575 -0.504528 1.418157 0.081264 -0.003796 482145.000000 0 0 1
25.533296 -14.967294 5.866319 30.172550 -0.530201 1.375124 0.055921 0.010112 238083.000000 0 0 1
24.700596 -16.077994 5.623319 30.004051 -0.577018 1.382263 0.045626 0.014329 -433324.000000 0 0 1
23.948196 -16.379894 6.736619 29.785887 -0.599888 1.342654 0.026409 0.023837 -101863.000000 0 0 1
23.147096 -17.710194 6.649019 29.893954 -0.653105 1.346500 0.026722 0.019589 -306866.000000 0 0 1
23.955196 -18.805194 6.575519 31.156447 -0.665537 1.358149 0.048363 0.017159 -619124.000000 0 0 1
23.176196 -19.977594 6.699019 31.322790 -0.711412 1.355261 0.024890 0.026687 253243.000000 0 0 1
2.114996 23.180496 -2.733581 23.436746 1.479808 1.687699 0.019138 -0.020755 -90564.800000 0 1 0
2.924596 24.287396 -2.441181 24.584349 1.450957 1.670258 0.022895 -0.020568 -158340.000000 0 1 0
3.271496 24.980596 -3.600881 25.449935 1.440576 1.712762 0.025224 -0.014959 -118004.000000 0 0 1
4.455796 25.944396 -3.384481 26.540921 1.400712 1.698664 0.014608 -0.011987 -367791.000000 0 0 1
5.558396 25.356196 -2.768681 26.105517 1.354997 1.677053 0.008741 -0.016422 -481066.000000 0 0 1
6.204296 26.255596 -1.872981 27.043625 1.338749 1.640110 0.002407 -0.010678 919062.000000 0 0 1
7.475796 25.577296 -1.195381 26.674229 1.286435 1.615625 -0.000805 -0.015677 648852.000000 0 0 1
8.553296 25.389596 -2.067681 26.871281 1.245855 1.647820 0.004696 -0.018966 -463438.000000 0 0 1
9.508996 24.474596 -1.565681 26.303577 1.200221 1.630355 0.011636 -0.008903 305196.000000 0 0 1
10.609996 24.229596 -2.636681 26.581900 1.158055 1.670151 0.031604 -0.008739 -351967.000000 0 0 1
11.645896 25.217396 -2.690281 27.906658 1.138157 1.667349 0.031795 -0.005028 639346.000000 0 0 1
12.575296 25.061996 -3.778281 28.293411 1.105736 1.704736 0.042161 -0.008859 938360.000000 0 0 1
13.554796 23.830996 -3.679081 27.661968 1.053643 1.704193 0.053424 -0.006975 -581968.000000 0 0 1
12.924696 22.560396 -3.906681 26.292230 1.050547 1.719935 0.052959 -0.012157 -3576.760000 0 0 1
12.834796 22.037996 -5.226381 26.033061 1.043423 1.772929 0.060065 -0.023155 -894317.000000 0 0 1
11.772496 20.980296 -5.272181 24.628446 1.059455 1.786535 0.055718 -0.026110 235723.000000 0 1 0
10.414196 21.421896 -5.205781 24.381412 1.118292 1.785967 0.042010 -0.025305 655945.000000 0 1 0
9.493496 20.346196 -5.077881 23.019101 1.134225 1.793220 0.020893 -0.019672 565657.000000 0 1 0
8.029896 20.813696 -4.846181 22.829249 1.202592 1.784703 0.010139 -0.012876 320125.000000 0 1 0
7.781396 21.331196 -3.561981 22.983858 1.221007 1.726401 0.013901 -0.009131 -59799.200000 0 1 0
6.462396 21.825896 -3.525881 23.033977 1.282932 1.724474 0.011758 0.000418 92009.100000 0 1 0
5.964496 22.367596 -2.192981 23.252821 1.310202 1.665247 0.013520 -0.008477 -84246.800000 0 1 0
5.394196 21.381996 -1.374581 22.094718 1.323675 1.633050 0.007719 -0.015401 68666.000000 0 1 0
4.725596 21.983096 -0.266381 22.486856 1.359054 1.582643 0.015000 -0.014263 265537.000000 0 1 0
4.239096 21.048796 0.895219 21.490071 1.372061 1.529127 0.008959 -0.014770 -28075.700000 0 1 0
3.512196 21.657396 1.935419 22.025534 1.410025 1.482811 0.012370 -0.013269 233567.000000 0 1 0
3.391496 20.797296 3.023919 21.287880 1.409145 1.428265 0.022936 -0.013736 -483019.000000 0 1 0
2.391396 21.298096 4.040419 21.809462 1.458982 1.384460 0.021886 -0.015709 -425829.000000 0 1 0
1.087396 21.432696 3.520719 21.747145 1.520104 1.408187 0.019301 -0.016593 -26647.500000 0 1 0
0.246796 22.174196 4.425219 22.612793 1.559667 1.373830 0.020664 -0.013623 1009340.000000 0 1 0
-1.264304 22.034896 4.046619 22.439033 -1.513482 1.389466 0.024280 -0.017855 923532.000000 0 1 0
-2.158904 22.912096 4.739919 23.496634 -1.476848 1.367675 0.033431 -0.009914 2079160.000000 0 1 0
-3.548204 22.675296 4.283319 23.347497 -1.415576 1.386292 0.042416 -0.018818 1875700.000000 0 1 0
-4.682504 23.056296 5.215919 24.098224 -1.370431 1.352626 0.041543 -0.023756 -247309.000000 0 1 0
-5.017204 24.416896 5.370719 25.499054 -1.368136 1.358583 0.059323 -0.017417 856812.000000 0 0 1
-6.133704 24.551396 6.299519 26.078292 -1.325977 1.326821 0.058033 -0.018351 813749.000000 0 0 1
-6.479604 25.976796 6.771619 27.615829 -1.326347 1.323062 0.065025 -0.021874 -490430.000000 0 0 1
-5.528404 26.576396 7.642019 28.200505 -1.365702 1.296376 0.054419 -0.022649 -58672.200000 0 0 1
-5.814004 27.842296 8.187119 29.597719 -1.364935 1.290528 0.064413 -0.024262 -257758.000000 0 0 1
-5.993704 29.017796 7.139019 30.478231 -1.367108 1.334366 0.076372 -0.028551 813086.000000 0 0 1
-7.274904 28.983396 6.489919 30.579086 -1.324874 1.356936 0.063152 -0.032570 184573.000000 0 0 1
-7.392304 29.949496 5.419919 31.320823 -1.328808 1.396876 0.077696 -0.030328 -868365.000000 0 0 1
-8.832004 30.029196 4.975619 31.694064 -1.284748 1.413155 0.077817 -0.031036 -98840.700000 0 0 1
-9.739804 30.692296 5.865619 32.730510 -1.263511 1.390613 0.073620 -0.020914 531231.000000 0 0 1
-10.414504 29.936596 6.870319 32.432436 -1.236007 1.357344 0.064011 -0.018218 45314.200000 0 0 1
-11.255604 30.708596 7.922119 33.652139 -1.219473 1.333154 0.050425 -0.019077 100309.000000 0 0 1
-10.585804 30.993796 9.125919 33.999368 -1.241673 1.299050 0.053771 -0.013062 397316.000000 0 0 1
-11.551304 31.426896 10.107319 34.974852 -1.218563 1.277627 0.055594 -0.010031 489646.000000 0 0 1
-10.925704 31.888496 11.438119 35.596035 -1.240709 1.243661 0.052474 -0.011164 -190214.000000 0 0 1
-10.339204 33.154296 11.493519 36.581518 -1.268503 1.251194 0.045717 -0.007384 90536.400000 0 0 1
-9.636904 33.281596 12.715619 36.908285 -1.288948 1.219070 0.045023 -0.011040 -11645.300000 0 0 1
-9.094104 -33.866094 12.782619 37.323055 1.308454 1.221235 0.047667 -0.019452 -257366.000000 0 0 1
-10.054004 -32.983194 13.336819 36.970865 1.274922 1.201737 0.042960 -0.008156 -116949.000000 0 0 1
-9.554004 -31.694494 13.543219 35.766447 1.278019 1.182451 0.043596 0.002938 233540.000000 0 0 1
-10.576604 -30.681494 14.162419 35.408936 1.238831 1.159315 0.031938 -0.000976 162354.000000 0 0 1
-10.958104 -30.827794 15.505519 36.205719 1.229264 1.128228 0.024980 -0.013595 -106251.000000 0 0 1
-9.968504 -30.516294 16.472819 36.082808 1.255062 1.096707 0.051195 -0.014258 -167227.000000 0 0 1
-10.345404 -30.971194 17.881919 37.229092 1.248416 1.069776 0.060863 -0.028799 -40637.600000 0 0 1
-10.941204 -29.948094 18.660719 36.943480 1.220522 1.041281 0.050507 -0.032851 106701.000000 0 0 1
-11.608404 -30.502894 19.747619 38.146429 1.207154 1.026660 0.051697 -0.042195 -161200.000000 0 0 1
-11.793204 -29.585894 21.000219 38.149889 1.191490 0.987874 0.053657 -0.042670 -70198.600000 0 0 1
-10.589204 -29.563594 21.725119 38.185313 1.226849 0.965581 0.056455 -0.039078 -26907.600000 0 0 1
-10.662004 -28.733494 22.849019 38.227865 1.215480 0.930160 0.050351 -0.037989 -388498.000000 0 0 1
-9.378104 -28.664194 23.658219 38.331400 1.254602 0.905615 0.058564 -0.041371 -334701.000000 0 0 1
-9.191204 -29.831994 24.443619 39.647404 1.271926 0.906475 0.062458 -0.029211 426416.000000 0 0 1
-7.886004 -29.828394 25.036919 39.733732 1.312331 0.889092 0.063633 -0.022978 627500.000000 0 0 1
-7.598804 -30.937794 26.081019 41.171695 1.329948 0.884767 0.068332 -0.015697 -383939.000000 0 0 1
-7.485304 -32.205494 25.489319 41.748401 1.342428 0.914047 0.076220 -0.008165 204145.000000 0 0 1
-7.425104 -33.284794 26.400819 43.127867 1.351312 0.912017 0.066461 -0.009535 -318914.000000 0 0 1
-7.362404 33.864896 25.659719 43.121425 -1.356722 0.933459 0.049682 -0.010414 473148.000000 0 0 1
-6.088104 33.596796 25.051519 42.348416 -1.391531 0.937807 0.056032 -0.004880 590809.000000 0 0 1
-5.898004 32.341496 24.371919 40.923700 -1.390412 0.932852 0.042665 -0.003984 -370837.000000 0 0 1
-6.768004 31.983896 23.155719 40.061987 -1.362266 0.954524 0.046476 -0.003124 -78954.000000 0 0 1
-8.117404 31.713196 23.461419 40.274771 -1.320213 0.948954 0.059272 -0.011139 -49822.500000 0 0 1
-8.836904 31.363196 22.296419 39.482543 -1.296156 0.970707 0.053996 -0.009966 468252.000000 0 0 1
-9.850804 30.218996 22.579619 38.988014 -1.255678 0.953120 0.055314 -0.017134 619954.000000 0 0 1
-9.149704 28.959896 22.413819 37.746151 -1.264777 0.935018 0.049223 -0.009015 486650.000000 0 0 1
-9.862504 27.835896 22.907819 37.374781 -1.230288 0.911043 0.045584 -0.005146 -343133.000000 0 0 1
-9.236604 26.479496 22.518819 35.966314 -1.235172 0.894244 0.035468 -0.005219 -62822.700000 0 0 1
-8.029704 26.385796 23.249819 36.072711 -1.275382 0.870392 0.013097 -0.004536 116171.000000 0 0 1
-7.315804 25.173996 22.926619 34.826440 -1.287977 0.852224 0.010549 -0.004585 513927.000000 0 0 1
-5.911704 25.094496 23.606319 34.956262 -1.339437 0.829411 -0.000475 -0.005578 447705.000000 0 0 1
-4.985904 25.797596 22.785819 34.778855 -1.379880 0.856398 0.006538 0.001064 -119220.000000 0 0 1
-3.650104 25.530396 23.171619 34.670568 -1.428788 0.838826 0.011557 -0.002063 -6885.550000 0 0 1
-2.671204 26.029196 22.106219 34.254040 -1.468531 0.869301 0.020668 -0.000148 -416634.000000 0 0 1
-2.481404 25.015996 21.136719 32.843847 -1.471927 0.871667 0.018080 0.007754 -17040.400000 0 0 1
-1.547804 25.394696 20.161419 32.461810 -1.509922 0.900675 0.024694 0.006608 -200268.000000 0 0 1
-1.036604 24.199396 19.364719 31.010928 -1.527987 0.896371 0.022158 0.001096 150723.000000 0 0 1
-0.026204 23.364996 19.962919 30.731773 -1.569675 0.863757 0.020554 -0.000294 386903.000000 0 0 1
0.244996 22.337496 19.037819 29.350678 1.559829 0.865009 0.014434 -0.001849 -546935.000000 0 0 1
1.428996 21.431396 19.351019 28.910356 1.504217 0.837469 0.015067 -0.007498 -1450180.000000 0 0 1
2.623096 22.025696 19.062319 29.246947 1.452262 0.860879 0.018016 -0.009921 -2385130.000000 0 0 1
3.621096 21.299996 19.594319 29.167439 1.402402 0.834177 0.020951 -0.008532 -490627.000000 0 0 1
5.092996 21.720196 19.299319 29.498631 1.340475 0.857613 0.028808 -0.014794 706233.000000 0 0 1
6.021096 20.641396 19.345919 28.923786 1.286971 0.838124 0.043278 -0.019840 -249308.000000 0 0 1
7.227396 21.118596 18.812919 29.191716 1.241061 0.870478 0.041367 -0.019384 191967.000000 0 0 1
8.408396 20.078496 18.674819 28.680934 1.174209 0.861733 0.049634 -0.010049 523580.000000 0 0 1
8.932596 19.664196 19.915219 29.378356 1.144408 0.825911 0.060043 -0.014221 32019.000000 0 0 1
9.964196 18.723996 19.645119 28.910274 1.081752 0.823688 0.064177 -0.013602 228077.000000 0 0 1
10.261596 17.948396 20.909119 29.404702 1.051425 0.779762 0.080050 -0.015470 -369633.000000 0 0 1
9.296896 16.957396 21.131519 28.644836 1.069298 0.741128 0.073121 -0.011960 -301523.000000 0 0 1
9.625396 16.049196 22.201319 29.036589 1.030566 0.700379 0.080548 -0.017585 -444954.000000 0 0 1
8.549796 15.062896 22.614419 28.485115 1.054536 0.653595 0.071493 -0.015037 -364347.000000 0 0 1
7.522996 15.584196 23.444319 29.139299 1.121058 0.635862 0.063654 -0.003771 552822.000000 0 0 1
6.459596 14.675796 23.799119 28.696750 1.156161 0.592886 0.057672 0.002098 759896.000000 0 0 1
6.836296 13.496196 24.752119 29.009475 1.101934 0.548625 0.065887 0.006528 -450999.000000 0 0 1
7.146296 14.034096 26.048519 30.439296 1.099808 0.543792 0.067346 -0.000441 78772.300000 0 0 1
7.404496 12.986496 27.002219 30.864145 1.052600 0.505622 0.070318 -0.002177 126011.000000 0 0 1
8.380996 13.444996 28.188419 32.335677 1.013381 0.512047 0.064623 0.003909 1752690.000000 0 0 1
9.764296 13.675896 27.817719 32.499186 0.950750 0.543409 0.083261 0.005117 1273640.000000 0 0 1
10.009696 14.916496 27.188719 32.587149 0.979766 0.583864 0.076701 -0.000167 -1423780.000000 0 0 1
11.391196 14.979396 26.607319 32.589739 0.920636 0.615591 0.084900 -0.010036 -892105.000000 0 0 1
11.434196 14.187596 25.439819 31.292381 0.892451 0.621559 0.091067 -0.013338 -42486.300000 0 0 1
12.745896 13.757996 25.160919 31.381717 0.823566 0.640545 0.097978 -0.023002 -755172.000000 0 0 1
12.817896 12.549096 24.121419 30.060292 0.774802 0.639432 0.092092 -0.023265 -215671.000000 0 0 1
12.291796 11.371496 24.521519 29.693502 0.746526 0.599140 0.090877 -0.016434 1347590.000000 0 0 1
10.830696 11.279496 24.482819 29.050636 0.805694 0.568399 0.096715 -0.009810 1413790.000000 0 0 1
10.335496 9.954796 24.976719 28.805502 0.766638 0.521483 0.094917 -0.006862 -189647.000000 0 0 1
10.486396 8.995396 23.926919 27.629316 0.709014 0.523655 0.091675 -0.007019 121728.000000 0 0 1
10.121896 7.719296 24.434819 27.551782 0.651538 0.480273 0.085809 -0.008988 125158.000000 0 0 1
10.457196 6.566096 23.431919 26.486249 0.560684 0.484984 0.078320 -0.010313 -237998.000000 0 0 1
11.836496 6.291396 23.332719 26.909108 0.488549 0.521458 0.077597 -0.007212 184763.000000 0 0 1
12.099396 5.223196 22.410819 25.998500 0.407524 0.531586 0.078564 -0.011887 50463.600000 0 0 1
11.705496 3.814296 22.932919 26.028567 0.315005 0.492682 0.069362 -0.012324 -303792.000000 0 0 1
12.746296 3.255596 23.686719 27.094790 0.250069 0.506976 0.066320 -0.009181 -8587.130000 0 0 1
12.426396 1.952696 24.029119 27.122443 0.155866 0.482259 0.054537 -0.010580 -630307.000000 0 0 1
13.513496 1.253896 24.842519 28.307907 0.092523 0.500000 0.041133 -0.007760 741082.000000 0 0 1
14.656796 0.847496 24.058119 28.183914 0.057758 0.547916 0.060662 -0.015185 337499.000000 0 0 1
15.890396 1.261096 24.559019 29.278669 0.079196 0.575716 0.056248 -0.017501 -150067.000000 0 0 1
17.109296 0.709696 23.759319 29.287146 0.041456 0.624502 0.058262 -0.025882 115031.000000 0 0 1
17.326396 -0.563704 24.288619 29.840556 -0.032523 0.619883 0.059336 -0.027776 56968.900000 0 0 1
18.140296 -1.339604 23.422219 29.655779 -0.073713 0.660309 0.043756 -0.011346 6178.390000 0 0 1
18.345896 -2.842804 23.743919 30.140125 -0.153733 0.663593 0.040293 -0.004005 -154543.000000 0 0 1
17.363696 -3.703804 23.236119 29.242663 -0.210158 0.652454 0.040757 0.001044 117504.000000 0 0 1
17.847296 -5.038404 23.467719 29.910623 -0.275146 0.668754 0.036675 0.003086 152450.000000 0 0 1
16.966596 -6.226304 23.045919 29.287312 -0.351716 0.665042 0.038276 -0.000212 -139196.000000 0 0 1
16.864596 -6.307104 21.677619 28.180017 -0.357880 0.693122 0.034744 -0.000149 318402.000000 0 0 1
15.891196 -7.229004 21.173419 27.442709 -0.426926 0.689522 0.037643 -0.005898 103261.000000 0 0 1
16.267796 -8.714304 21.154519 28.073012 -0.491781 0.717345 0.045551 -0.009709 -167689.000000 0 0 1
16.319496 -9.245104 22.442919 29.248633 -0.515428 0.696152 0.039450 -0.003256 -141761.000000 0 0 1
16.892096 -10.524404 22.333019 29.914374 -0.557187 0.727913 0.046792 -0.003859 -117415.000000 0 0 1
16.721296 -11.331904 23.637919 31.092845 -0.595597 0.707119 0.061075 -0.008344 -10250.300000 0 0 1
15.411496 -11.842804 23.650319 30.612152 -0.655198 0.687903 0.071790 -0.012435 -224323.000000 0 0 1
15.351196 -12.835004 24.627819 31.732098 -0.696364 0.682312 0.076314 -0.005316 -310369.000000 0 0 1
14.276196 -13.876004 24.398319 31.490177 -0.771184 0.684411 0.073828 -0.010701 -476180.000000 0 0 1
14.514296 -14.746604 23.262219 31.132908 -0.793337 0.726971 0.078792 -0.017122 240926.000000 0 0 1
13.531296 -15.755204 23.103019 31.065607 -0.861189 0.732231 0.082581 -0.016509 9134.520000 0 0 1
13.714096 -16.507804 21.813619 30.600948 -0.877576 0.777255 0.081101 -0.016142 -64206.000000 0 0 1
14.808496 -17.388504 21.721419 31.519386 -0.865359 0.810488 0.093265 -0.015552 -94747.000000 0 0 1
14.961296 -17.986004 20.454219 31.075904 -0.876946 0.852368 0.085829 -0.004969 35910.600000 0 0 1
-24.026804 -32.057994 26.711743 48.151008 0.927629 0.982735 0.012170 -0.017377 -775757.000000 0 0 1
-24.011704 -33.436994 26.395273 48.900971 0.948014 1.000633 0.013202 -0.004552 434084.000000 0 0 1
-25.196904 -34.125094 26.777753 50.164271 0.934781 1.007707 0.013245 -0.013722 -276046.000000 0 0 1
-25.550864 34.124996 28.277303 51.156308 -0.928100 0.985120 0.003693 -0.005004 -136089.000000 0 0 1
-26.459794 -33.508294 28.846503 51.527150 0.902399 0.976614 0.031789 -0.009451 190799.000000 0 0 1
-26.573944 -33.546194 30.262673 52.415179 0.900854 0.955299 0.010741 -0.014918 -1010460.000000 0 0 1
-27.695604 -32.766894 30.865373 52.852503 0.869077 0.947160 0.006801 -0.017244 -1076550.000000 0 0 1
-27.608754 -31.331494 30.809113 51.895157 0.848476 0.935172 0.008950 -0.013488 -205310.000000 0 0 1
-28.565384 -30.706794 31.594823 52.508297 0.821511 0.925155 0.009098 -0.005445 -758811.000000 0 0 1
-28.811034 -29.249494 31.087983 51.498265 0.792950 0.922699 0.005727 -0.010158 83411.800000 0 0 1
-29.611704 -29.254894 29.899013 51.250881 0.779337 0.947906 0.009900 -0.004206 259559.000000 0 0 1
-30.320564 -28.062594 29.733973 50.901424 0.746742 0.946966 0.026057 0.004902 -260487.000000 0 0 1
-30.877244 -27.986394 28.270533 50.357378 0.736327 0.974722 0.021396 -0.011786 -106066.000000 0 0 1
-29.989534 -27.807494 27.170713 49.100678 0.747663 0.984395 0.026597 -0.010121 125579.000000 0 0 1
-29.322054 -26.586394 27.096423 47.967024 0.736506 0.970488 0.012643 -0.001086 -390785.000000 0 0 1
-28.236074 -26.432394 26.025083 46.618154 0.752417 0.978508 0.018901 0.000818 -421114.000000 0 0 1
-28.673094 -26.243994 24.675043 46.040757 0.741195 1.005177 0.010956 -0.002347 13303.100000 0 0 1
-27.612314 -26.108894 23.751913 44.813699 0.757420 1.012179 0.021320 0.008841 -44187.200000 0 0 1
-28.158554 -26.420294 22.351223 44.615169 0.753560 1.046068 0.000995 0.018361 384429.000000 0 0 1
-29.028394 -25.450594 21.770223 44.320684 0.719819 1.057332 0.000796 0.007549 235764.000000 0 0 1
-29.503984 -25.798994 20.473423 44.218031 0.718504 1.089407 -0.000661 0.016550 -208300.000000 0 0 1
-30.039904 -24.562394 19.761123 43.545482 0.685416 1.099766 0.015919 0.010548 -1236710.000000 0 0 1
-31.323864 -24.311794 20.159223 44.481930 0.660024 1.100444 0.040120 0.006702 -1333950.000000 0 0 1
-31.910954 -23.290494 19.426423 44.024334 0.630486 1.113788 0.071284 0.003887 -1056880.000000 0 0 1
-33.372344 -22.992494 19.656523 45.041615 0.603284 1.119194 0.071114 0.010936 -1069020.000000 0 0 1
-34.198761 -24.010994 19.175723 45.975988 0.612135 1.140565 0.057068 0.000553 -360246.000000 0 0 1
-35.534304 -23.557094 19.186223 46.751841 0.585418 1.147921 0.046232 -0.000677 474094.000000 0 0 1
36.009616 -24.316494 18.193623 47.106181 -0.593940 1.174260 0.058374 -0.003772 582949.000000 0 0 1
35.697236 -25.675494 18.599523 47.743753 -0.623534 1.170632 0.047899 0.000439 -177672.000000 0 0 1
34.940136 -26.386194 17.647823 47.206886 -0.646810 1.187651 0.057814 0.004425 203471.000000 0 0 1
34.497806 -27.810294 18.142023 47.881563 -0.678478 1.182196 0.056090 0.012319 848530.000000 0 0 1
33.497246 -27.983794 19.185423 47.678493 -0.695960 1.156669 0.044851 0.005109 582351.000000 0 0 1
33.886336 -27.383894 20.393623 48.104691 -0.679667 1.133002 0.046762 0.007455 -723731.000000 0 0 1
32.752556 -27.531294 21.376423 47.829422 -0.699002 1.107465 0.037818 0.001873 -26873.200000 0 0 1
31.689466 -26.639894 21.052923 46.444933 -0.699043 1.100346 0.037230 0.000188 -725788.000000 0 0 1
30.776006 -26.391794 22.069323 46.159987 -0.708858 1.072300 0.040998 0.006760 -635477.000000 0 0 1
29.696386 -25.525094 21.428723 44.638503 -0.710004 1.070084 0.039403 0.010006 -483095.000000 0 0 1
30.157116 -24.246594 20.908223 43.982983 -0.677181 1.075411 0.015753 0.013450 23969.500000 0 0 1
30.690146 -23.330394 21.856023 44.315665 -0.649992 1.055044 0.032108 0.005950 -16160.300000 0 0 1
31.328986 -22.075394 21.293023 43.843144 -0.613828 1.063674 0.019928 0.011851 525165.000000 0 0 1
30.367986 -21.100894 20.859823 42.456973 -0.607255 1.057195 0.017279 0.006113 579478.000000 0 0 1
31.107246 -20.006594 20.337023 42.208046 -0.571544 1.068057 0.015564 0.007229 315837.000000 0 0 1
30.363956 -18.651794 20.611723 41.166763 -0.550849 1.046402 -0.010595 0.012127 259850.000000 0 0 1
30.391316 -18.161294 21.929723 41.645858 -0.538639 1.016228 -0.000094 0.003006 176121.000000 0 0 1
29.427136 -18.752794 22.807423 41.686955 -0.567368 0.991886 0.022121 0.000155 -73271.000000 0 0 1
29.519916 -18.286494 24.261303 42.360739 -0.554608 0.960963 0.017327 0.002260 -74610.100000 0 0 1
29.071366 -16.965094 24.551513 41.662160 -0.528249 0.940604 0.011933 -0.004181 79151.500000 0 0 1
29.303686 -16.699694 25.907643 42.529893 -0.517981 0.915791 0.007765 0.001641 34889.500000 0 0 1
29.207806 -15.175194 26.220743 42.082180 -0.479173 0.898117 0.011042 -0.000262 -768892.000000 0 0 1
27.886016 -14.771094 26.330983 41.099098 -0.487121 0.875425 0.020739 0.000465 -654612.000000 0 0 1
27.617876 -13.428594 26.759313 40.732482 -0.452570 0.854027 0.014861 -0.006500 105176.000000 0 0 1
28.129476 -12.282994 25.831643 40.117492 -0.411704 0.871212 0.025620 -0.011479 -282354.000000 0 0 1
27.412026 -12.351694 24.654443 38.882195 -0.423348 0.883977 0.022881 -0.005222 -153793.000000 0 0 1
27.703346 -11.252394 23.795553 38.214135 -0.385818 0.898621 0.033597 -0.003873 -127572.000000 0 0 1
28.863916 -11.381394 22.778823 38.490734 -0.375593 0.937506 0.043639 -0.012094 -366823.000000 0 0 1
28.746666 -12.339594 21.753123 38.102950 -0.405467 0.963190 0.024593 -0.012457 -123671.000000 0 0 1
28.854156 -13.687394 22.226023 38.908909 -0.442930 0.962790 0.019905 -0.015468 -534536.000000 0 0 1
28.307076 -14.738794 21.251023 38.342256 -0.480051 0.983340 0.005577 0.000578 -338316.000000 0 0 1
28.970186 -14.730994 19.999723 38.161012 -0.470415 1.019153 0.000154 0.003630 -190040.000000 0 0 1
28.603286 -15.792894 19.180223 37.887260 -0.504481 1.039972 -0.007718 0.003777 -276984.000000 0 0 1
29.184166 -15.677294 17.743123 37.580734 -0.492951 1.079087 0.004433 0.003530 196505.000000 0 0 1
28.605226 -16.456694 16.692823 36.982862 -0.522063 1.102500 0.003218 -0.005427 403449.000000 0 0 1
27.259826 -16.116694 16.347423 35.638241 -0.533942 1.094260 0.030508 -0.000907 229107.000000 0 0 1
27.021826 -15.349694 15.058723 34.533424 -0.516594 1.119578 0.039918 -0.007886 -527405.000000 0 0 1
27.005726 -16.097594 13.886923 34.369877 -0.537533 1.154863 0.050165 -0.005718 380019.000000 0 0 1
25.969326 -17.081694 13.723223 33.978185 -0.581814 1.155038 0.049095 -0.014816 53529.300000 0 0 1
26.050226 -17.866094 12.464223 33.958334 -0.601154 1.194966 0.038586 0.002897 -203179.000000 0 0 1
25.583326 -17.122494 11.374223 32.818582 -0.589812 1.216875 0.048965 -0.003186 -29908.400000 0 0 1
25.332826 -17.895794 10.242123 32.663629 -0.615026 1.251853 0.043643 0.000058 58936.500000 0 0 1
26.606926 -18.060994 9.364823 33.493700 -0.596361 1.287419 0.049476 0.006925 150376.000000 0 0 1
27.549626 -18.840694 10.026223 34.849373 -0.599826 1.278970 0.050679 0.011018 -751172.000000 0 0 1
28.816586 -18.831494 9.387823 35.681256 -0.578828 1.304560 0.063223 0.008005 235622.000000 0 0 1
29.786416 -19.667294 10.262923 37.139745 -0.583566 1.290820 0.072072 -0.021435 -197287.000000 0 0 1
29.984806 -19.016394 11.524523 37.329968 -0.565188 1.256949 0.053189 -0.028952 119978.000000 0 0 1
30.202356 -19.988494 12.544823 38.328773 -0.584639 1.237357 0.029744 -0.029153 -55228.500000 0 0 1
29.920846 -19.399394 13.928623 38.283157 -0.575219 1.198418 0.030233 -0.022020 112964.000000 0 0 1
29.749826 -20.405594 14.909023 39.034849 -0.601204 1.178900 0.026271 -0.021730 -14611.800000 0 0 1
29.528416 -19.913694 16.240323 39.143718 -0.593331 1.142975 0.022032 -0.016924 -26008.500000 0 0 1
29.426906 -20.999094 17.345123 40.096859 -0.619796 1.123443 0.007790 -0.008050 -35969.200000 0 0 1
28.222946 -21.735594 17.351223 39.623676 -0.656266 1.117534 -0.021416 0.000801 -101406.000000 0 0 1
28.214186 -22.784194 18.317223 40.628567 -0.679324 1.103084 0.008270 0.001747 1107010.000000 0 0 1
26.778826 -23.445294 18.250823 39.998499 -0.719122 1.096978 0.010531 0.002560 1750690.000000 0 0 1
25.698326 -22.610494 18.755123 39.030668 -0.721566 1.069546 0.011680 0.006870 590633.000000 0 0 1
24.484126 -23.301194 18.515423 38.538799 -0.760648 1.069645 0.029288 -0.004377 -537491.000000 0 0 1
23.290026 -22.657394 19.180623 37.731673 -0.771630 1.037537 0.026844 -0.003367 -912528.000000 0 0 1
22.859426 -21.455294 18.636123 36.471744 -0.753723 1.034478 0.031023 -0.004084 342114.000000 0 0 1
21.664226 -20.868594 19.161523 35.665122 -0.766694 1.003609 0.028747 -0.003162 612306.000000 0 0 1
21.765826 -20.243694 20.606623 36.168927 -0.749181 0.964616 0.022733 -0.003946 -202338.000000 0 0 1
22.074626 -21.186294 21.612023 37.459682 -0.764867 0.955818 0.033108 -0.008409 -272319.000000 0 0 1
22.022226 -20.574994 22.897623 37.849835 -0.751436 0.921081 0.031418 -0.001880 124262.000000 0 0 1
22.496226 -21.439794 24.098403 39.325285 -0.761358 0.911202 0.029090 -0.004531 50031.700000 0 0 1
21.663226 -22.545994 24.395263 39.657863 -0.805363 0.908229 0.041260 -0.009532 150668.000000 0 0 1
22.223826 -23.475594 25.385793 41.102804 -0.812783 0.905087 0.043919 -0.010212 545203.000000 0 0 1
21.121826 -24.241194 26.220233 41.488163 -0.854055 0.886674 0.043922 -0.009890 244296.000000 0 0 1
20.537126 -25.292894 25.558863 41.409655 -0.888798 0.905592 0.059468 -0.009551 1363140.000000 0 0 1
19.300526 -25.716194 26.258493 41.513148 -0.926962 0.885975 0.063267 -0.012214 1707720.000000 0 0 1
18.548426 -26.864094 25.565263 41.464519 -0.966506 0.906434 0.065829 -0.012518 -163860.000000 0 0 1
17.679926 -26.455794 24.541563 40.184290 -0.981676 0.913820 0.058918 -0.017471 188528.000000 0 0 1
17.019826 -27.605094 23.956363 40.319016 -1.018299 0.934563 0.063720 -0.026137 -398436.000000 0 0 1
16.025526 -27.114494 22.891223 38.936119 -1.036997 0.942314 0.065493 -0.032285 -51760.400000 0 0 1
14.852426 -26.509194 23.427823 38.369191 -1.060099 0.913992 0.054884 -0.026668 42757.500000 0 0 1
14.283026 -25.853094 22.328723 37.026466 -1.066060 0.923480 0.043002 -0.022540 417000.000000 0 0 1
12.883726 -25.163194 22.402823 36.070254 -1.097589 0.900665 0.039398 -0.019575 877248.000000 0 0 1
11.788826 -26.031894 22.525923 36.387541 -1.145566 0.903256 0.040990 -0.024820 -369497.000000 0 0 1
10.521026 -25.446194 22.632523 35.643119 -1.178739 0.882819 0.050158 -0.020641 293360.000000 0 0 1
9.341726 -26.440894 22.560523 35.991193 -1.231179 0.893312 0.055268 -0.022859 51767.500000 0 0 1
9.158126 -27.082394 21.328923 35.668618 -1.244710 0.929825 0.052030 -0.022833 1114770.000000 0 0 1
7.797826 -27.575794 21.412623 35.773327 -1.295213 0.929089 0.050173 -0.022378 1002620.000000 0 0 1
7.226226 -28.326594 20.187423 35.526699 -1.321020 0.966440 0.058295 -0.018623 -51391.600000 0 0 1
7.639326 -29.685094 20.052823 36.628948 -1.318916 0.991472 0.064927 -0.019337 -68356.500000 0 0 1
7.240426 -30.366494 18.873323 36.479447 -1.336732 1.027023 0.048169 -0.014468 -68893.800000 0 0 1
7.992826 -31.693994 18.619923 37.617763 -1.323760 1.052988 0.040828 -0.002086 45247.400000 0 0 1
7.726926 -32.660494 19.624423 38.878416 -1.338484 1.041688 0.039837 -0.008044 32903.200000 0 0 1
8.541626 -33.785594 19.445623 39.906867 -1.323167 1.061830 0.031707 -0.003806 -338575.000000 0 0 1
8.454726 33.622796 20.500923 40.277322 1.324446 1.036780 0.036648 -0.022958 176643.000000 0 0 1
7.326126 32.785396 20.298723 39.250382 1.350951 1.027267 0.045225 -0.022208 32300.800000 0 0 1
7.264326 31.732096 21.272123 38.887010 1.345747 0.991991 0.041406 -0.027445 116604.000000 0 0 1
6.352826 30.503996 21.005023 37.577429 1.365469 0.977641 0.049692 -0.018762 931986.000000 0 0 1
4.950726 30.698396 21.258523 37.667307 1.410903 0.971119 0.055313 -0.022371 252775.000000 0 0 1
4.318326 29.503796 20.923623 36.426912 1.425463 0.958925 0.050356 -0.018443 556964.000000 0 0 1
2.824826 29.425996 21.403323 36.496179 1.475092 0.944123 0.038994 -0.011243 627871.000000 0 0 1
2.514326 29.412196 22.759023 37.274284 1.485518 0.914000 0.036296 -0.015377 -874584.000000 0 0 1
1.217426 29.018696 23.047723 37.077815 1.528868 0.900007 0.034567 -0.008313 -635206.000000 0 0 1
1.109626 28.356096 24.465423 37.468071 1.531684 0.859301 0.033176 -0.007819 -219905.000000 0 0 1
1.239226 29.252596 25.545663 38.856543 1.528459 0.853386 0.037900 -0.013962 225101.000000 0 0 1
1.195226 28.638596 26.831633 39.262377 1.529086 0.818396 0.039530 -0.018218 -306204.000000 0 0 1
2.461726 27.954196 27.367583 39.197982 1.482960 0.797932 0.038594 -0.010496 -505245.000000 0 0 1
2.835926 26.706996 26.859223 37.983206 1.465006 0.785359 0.042492 -0.003741 760334.000000 0 0 1
3.979826 26.228796 27.599163 38.281883 1.420210 0.765630 0.038187 0.001865 704367.000000 0 0 1
4.427026 24.802796 27.149993 37.039160 1.394167 0.748063 0.030727 0.005344 247164.000000 0 0 1
3.337826 23.865296 27.275113 36.395401 1.431837 0.723624 0.035012 0.012035 479309.000000 0 0 1
3.635826 22.614396 26.679463 35.162820 1.411386 0.709419 0.042787 0.012980 387534.000000 0 0 1
2.488726 21.539196 26.738193 34.424725 1.455762 0.681363 0.033598 0.010679 196439.000000 0 0 1
2.901126 20.197396 26.682143 33.590000 1.428133 0.652863 0.046340 0.009407 -43236.100000 0 0 1
3.558326 19.794396 25.485003 32.464830 1.392932 0.668095 0.044805 0.007946 135757.000000 0 0 1
4.139926 18.362196 25.602803 31.777551 1.349045 0.633960 0.046568 0.002410 70262.700000 0 0 1
5.099926 18.223896 26.636783 32.674728 1.297928 0.617704 0.045456 -0.000448 252710.000000 0 0 1
6.306926 17.668396 26.129453 32.166720 1.227934 0.622689 0.055411 0.003404 -1275090.000000 0 0 1
7.411426 17.642596 27.133203 33.202427 1.173094 0.614251 0.041706 -0.004229 -776106.000000 0 0 1
7.994426 18.836796 27.607733 34.364555 1.169430 0.637850 0.049651 -0.008498 89597.800000 0 0 1
8.505626 19.687096 26.613693 34.179176 1.162977 0.678281 0.041856 -0.015879 -661550.000000 0 0 1
9.079626 21.069396 27.196323 35.580880 1.163906 0.700760 0.037352 -0.006712 954678.000000 0 0 1
10.161926 20.804296 28.122113 36.427143 1.116429 0.688799 0.044269 -0.030807 446790.000000 0 0 1
10.373026 21.940796 28.879363 37.722882 1.129166 0.698875 0.049476 -0.033271 -400929.000000 0 0 1
11.363926 21.703896 30.056443 38.776123 1.088456 0.683879 0.070246 -0.035491 350460.000000 0 0 1
12.691826 21.404596 29.677913 38.730062 1.035578 0.697772 0.061267 -0.037261 -401630.000000 0 0 1
13.491826 21.357096 30.830713 39.858347 1.007375 0.686440 0.065163 -0.027925 309621.000000 0 0 1
14.986726 21.082496 30.512333 40.000951 0.952818 0.703179 0.043246 -0.031688 503709.000000 0 0 1
15.642426 22.125996 29.796773 40.275214 0.955407 0.737980 0.037920 -0.037057 -164478.000000 0 0 1
16.943126 21.755496 29.407263 40.313252 0.909118 0.753251 0.088860 -0.020659 -109412.000000 0 0 1
-8.683904 16.632796 4.369919 19.265416 -1.089629 1.341978 0.010790 -0.016676 -301379.000000 0 1 0
-8.492504 17.951396 4.829519 20.437698 -1.128913 1.332235 0.012737 -0.017216 -472901.000000 0 1 0
-7.185604 18.202096 5.243719 20.259461 -1.194808 1.308987 0.015609 -0.014861 -672130.000000 0 1 0
-7.070204 19.667496 5.727219 21.670238 -1.225695 1.303329 0.020561 -0.012400 -123526.000000 0 1 0
-7.082204 20.762596 4.800619 22.456378 -1.242069 1.355358 0.021417 -0.018471 684677.000000 0 1 0
-8.401104 21.050496 4.284919 23.066479 -1.191072 1.383947 0.013708 -0.022277 979445.000000 0 1 0
-8.555204 22.209296 3.288419 24.026195 -1.203106 1.433497 0.045814 -0.026136 -75627.200000 0 1 0
-7.912204 22.043696 2.052819 23.510456 -1.226186 1.483370 0.031521 -0.028196 -165112.000000 0 1 0
-8.568104 21.132996 1.161919 22.833440 -1.185611 1.519888 0.047978 -0.028663 -676086.000000 0 1 0
-7.954004 21.103696 -0.301881 22.554895 -1.210360 1.584181 0.032221 -0.016707 161163.000000 0 1 0
-6.649004 20.621796 -0.512481 21.673263 -1.258894 1.594444 0.031489 -0.015110 -517840.000000 0 1 0
-5.713004 21.545896 -0.018281 22.290455 -1.311606 1.571616 0.037270 -0.017009 -1690220.000000 0 1 0
-4.297504 21.312696 -0.496581 21.747325 -1.371824 1.593632 0.035076 -0.014193 -690600.000000 0 1 0
-4.204404 21.428596 -1.889381 21.918747 -1.377052 1.657103 0.030931 -0.022426 691332.000000 0 1 0
-2.832204 21.421796 -2.312381 21.731585 -1.439347 1.677405 0.024393 -0.012338 677069.000000 0 1 0
-2.694104 21.689796 -3.812681 22.186527 -1.447219 1.743500 0.025344 -0.013522 281575.000000 0 1 0
-1.342804 21.880996 -4.209281 22.322615 -1.509505 1.760498 0.029344 -0.012586 327281.000000 0 1 0
-1.271304 22.337996 -5.531381 23.047742 -1.513945 1.813159 0.032599 -0.016583 95728.300000 0 1 0
0.139296 22.834296 -5.899981 23.584618 1.564696 1.823644 0.034715 -0.017533 -179816.000000 0 1 0
1.181196 21.898396 -5.935781 22.719341 1.516909 1.835129 0.026462 -0.016153 -671180.000000 0 1 0
2.308396 22.553096 -6.461781 23.573829 1.468798 1.848459 0.016049 -0.007813 -141849.000000 0 1 0
3.531396 21.627596 -6.601381 22.886718 1.408943 1.863391 0.013128 -0.002356 -198698.000000 0 1 0
3.225396 20.605396 -7.567481 22.186759 1.415525 1.918863 0.013905 -0.010355 263352.000000 0 1 0
4.082896 19.467496 -7.595481 21.291894 1.364064 1.935563 0.014388 -0.013246 282329.000000 0 1 0
3.697896 18.618496 -8.840781 20.939967 1.374734 2.006663 0.012232 -0.015652 238776.000000 0 1 0
4.283896 19.022896 -10.031081 21.928176 1.349295 2.045924 0.020286 -0.017621 -32807.300000 0 1 0
3.281296 18.787596 -10.985881 22.009776 1.397888 2.093398 0.017377 -0.017740 -59853.000000 0 1 0
3.526096 19.281996 -12.449381 23.221020 1.389925 2.136637 0.023148 -0.015934 -95533.100000 0 1 0
3.739196 20.660296 -12.697781 24.536973 1.391750 2.114718 0.041431 -0.015614 -17406.000000 0 1 0
3.986996 20.795696 -14.099381 25.439136 1.381373 2.158246 0.051194 -0.015402 -86493.300000 0 0 1
4.368096 22.225096 -14.522481 26.906088 1.376731 2.140933 0.041166 -0.010863 -507837.000000 0 0 1
3.403496 23.195296 -14.409281 27.517865 1.425104 2.121907 0.058701 -0.015070 -707751.000000 0 0 1
3.821596 24.321396 -15.166781 28.916537 1.414942 2.122926 0.050711 -0.009180 84949.200000 0 0 1
2.678096 25.322496 -15.437181 29.777635 1.465428 2.115793 0.062688 -0.009199 96289.100000 0 0 1
2.040396 25.794696 -14.253781 29.541493 1.491859 2.074303 0.077128 -0.019789 1218.510000 0 0 1
1.717996 27.179496 -14.432281 30.821538 1.507671 2.058109 0.058082 -0.014766 -710935.000000 0 0 1
0.791896 27.756696 -13.330881 30.802169 1.542274 2.018382 0.069881 -0.015428 1026260.000000 0 0 1
-0.614004 27.466696 -13.468481 30.597326 -1.548446 2.026601 0.073574 -0.023777 936408.000000 0 0 1
-1.140404 26.143296 -13.480681 29.436392 -1.527203 2.046495 0.055741 -0.019550 -368754.000000 0 0 1
-0.788704 25.250296 -12.241881 28.072462 -1.539571 2.022036 0.080911 -0.017525 -386276.000000 0 0 1
-1.573004 25.476696 -11.090581 27.830511 -1.509132 1.980682 0.077151 -0.013945 -207690.000000 0 0 1
-1.676704 24.257496 -10.352681 26.427550 -1.501785 1.973316 0.074453 -0.007694 -62613.500000 0 0 1
-2.702704 24.279996 -9.191081 26.101700 -1.459939 1.930638 0.069468 -0.016318 -49862.500000 0 0 1
-2.260604 24.682696 -7.904081 26.015770 -1.479465 1.879495 0.066001 -0.015266 -36437.100000 0 0 1
-1.779004 26.021696 -7.822181 27.230130 -1.502536 1.862163 0.070423 -0.020346 78444.300000 0 0 1
-1.649604 26.588796 -6.439281 27.407108 -1.508834 1.807963 0.072961 -0.015956 543276.000000 0 0 1
-0.632404 25.972796 -5.615881 26.580522 -1.546452 1.783679 0.054376 -0.017960 470031.000000 0 0 1
-0.727504 26.280996 -4.210181 26.626033 -1.543122 1.729585 0.055980 -0.017201 -70718.700000 0 0 1
-1.743204 25.535796 -3.286681 25.805385 -1.502637 1.698507 0.054510 -0.023693 -279558.000000 0 0 1
-3.067404 25.894896 -3.560581 26.317909 -1.452890 1.706504 0.053978 -0.022138 -627176.000000 0 0 1
-3.899204 25.220296 -2.634881 25.655598 -1.417405 1.673680 0.056170 -0.023799 -211468.000000 0 0 1
-5.084404 24.477696 -3.280181 25.214447 -1.365993 1.701257 0.065601 -0.025540 -392468.000000 0 0 1
-6.067504 25.407096 -3.705181 26.383015 -1.336376 1.711700 0.069376 -0.027800 197068.000000 0 0 1
-7.171904 24.660896 -4.252281 26.032247 -1.287782 1.734878 0.057322 -0.021684 243801.000000 0 0 1
-8.500404 25.410896 -4.262281 27.131854 -1.247980 1.728545 0.056140 -0.022324 -618902.000000 0 0 1
-9.194104 25.381496 -3.029381 27.164849 -1.223262 1.682547 0.058658 -0.024220 1263600.000000 0 0 1
-10.457304 26.104696 -3.285081 28.312578 -1.189781 1.687087 0.067794 -0.023961 1321730.000000 0 0 1
-11.312004 26.378996 -2.063381 28.776212 -1.165689 1.642562 0.066472 -0.025909 -503735.000000 0 0 1
-11.908904 25.282396 -1.373781 27.980507 -1.130588 1.619914 0.061409 -0.025474 -141867.000000 0 0 1
-11.058404 24.341396 -0.740181 26.745835 -1.144369 1.598474 0.061579 -0.030146 -268574.000000 0 0 1
-11.673304 22.997496 -0.222881 25.791481 -1.101095 1.579438 0.061447 -0.025665 -247654.000000 0 0 1
-12.446804 23.067796 0.953919 26.228917 -1.075992 1.534419 0.073470 -0.025231 -163580.000000 0 0 1
-12.939204 21.780596 1.136919 25.359612 -1.034748 1.525949 0.072479 -0.025752 -412195.000000 0 0 1
-13.817504 21.601696 2.398719 25.754815 -1.001732 1.477524 0.078766 -0.024385 -461475.000000 0 0 1
-13.244704 21.696496 3.669619 25.683189 -1.022726 1.427425 0.071366 -0.024479 -89093.700000 0 0 1
-12.792004 23.019696 4.017519 26.639861 -1.063589 1.419410 0.067176 -0.019921 49068.100000 0 0 1
-12.588904 23.238496 5.503419 26.996218 -1.074327 1.365498 0.053994 -0.015405 -794812.000000 0 0 1
-11.545804 22.526196 6.058119 26.027599 -1.097159 1.335884 0.040953 -0.014740 -462599.000000 0 0 1
-11.565804 22.480496 7.454719 26.357415 -1.095631 1.284051 0.029938 -0.008147 -499852.000000 0 0 1
-10.237104 22.007396 8.057219 25.574255 -1.135402 1.250285 0.022657 -0.011807 -569115.000000 0 0 1
-9.199304 22.992296 8.018519 26.030165 -1.190201 1.257657 0.025356 -0.011865 712368.000000 0 0 1
-8.026704 22.489496 8.680319 25.407742 -1.227980 1.222134 0.026420 -0.007559 179208.000000 0 0 1
-8.075804 22.190596 10.225319 25.733214 -1.221767 1.162159 0.029521 -0.014533 -1002700.000000 0 0 1
-8.844604 21.128096 10.706519 25.283453 -1.174344 1.133536 0.029893 -0.010671 -116185.000000 0 0 1
-8.494604 20.777396 12.043219 25.473468 -1.182694 1.078359 0.028428 -0.006594 244340.000000 0 0 1
-9.426904 19.635696 12.635619 25.181063 -1.123203 1.045129 0.026617 -0.014317 140034.000000 0 0 1
-9.464504 18.439596 11.909319 23.904548 -1.096589 1.049271 0.026363 -0.023085 305929.000000 0 1 0
-10.440704 17.530396 12.430819 23.892433 -1.033635 1.023614 0.029719 -0.022480 190074.000000 0 1 0
-10.732604 16.266496 11.538619 22.647901 -0.987564 1.036218 0.028682 -0.032653 -149525.000000 0 1 0
-11.389604 15.228996 12.243619 22.617506 -0.928647 0.998774 0.022656 -0.024461 55701.400000 0 1 0
-11.558804 14.117696 11.354519 21.490472 -0.884729 1.014139 0.015489 -0.018417 53509.000000 0 1 0
-11.775104 12.790996 12.140519 21.205067 -0.826728 0.961209 0.013438 -0.019616 -165607.000000 0 1 0
-12.948104 12.872296 12.931919 22.373733 -0.782462 0.954526 0.023684 -0.014464 275561.000000 0 1 0
-13.250104 11.614096 13.533819 22.217487 -0.719695 0.915806 0.017858 -0.002085 133256.000000 0 1 0
-14.215604 11.823096 14.719119 23.633059 -0.693773 0.898456 0.020652 -0.006392 771067.000000 0 1 0
-15.545104 12.281096 14.446119 24.518685 -0.668632 0.940743 0.039500 -0.019078 739152.000000 0 1 0
-16.168004 12.748696 15.644019 25.858634 -0.667698 0.921053 0.033625 -0.009879 2118.400000 0 0 1
-17.248904 13.828996 15.336319 26.906663 -0.675796 0.964312 0.045835 -0.011996 -145939.000000 0 0 1
-18.449904 13.276196 14.899519 27.178153 -0.623747 0.990566 0.050512 -0.012711 -968781.000000 0 0 1
-19.298204 14.208096 14.392419 27.954112 -0.634636 1.029953 0.066548 -0.016883 -561078.000000 0 0 1
-20.436504 13.684496 13.490019 28.051680 -0.590038 1.069117 0.062414 -0.017152 -143311.000000 0 0 1
-21.244704 12.843496 14.240119 28.619466 -0.543759 1.050004 0.062908 -0.006873 450704.000000 0 0 1
-22.464004 12.404696 13.632819 29.057903 -0.504533 1.082456 0.051834 -0.007264 706955.000000 0 0 1
-23.401204 11.455096 14.415419 29.776499 -0.455219 1.065438 0.058869 -0.004463 -314010.000000 0 0 1
-24.086804 12.147596 15.391819 31.058756 -0.467102 1.052304 0.066571 -0.003880 452297.000000 0 0 1
-25.105774 11.290096 15.950819 31.815009 -0.422605 1.045625 0.059702 -0.004692 541967.000000 0 0 1
-25.954414 11.908996 17.114319 33.291977 -0.430183 1.030876 0.054061 -0.001282 -103768.000000 0 0 1
-26.812344 12.917096 16.687719 34.120861 -0.448949 1.059765 0.047088 -0.000673 528696.000000 0 0 1
-27.680724 13.382996 17.756819 35.505375 -0.450342 1.047063 0.041539 0.009024 954196.000000 0 0 1
-28.743034 14.501896 17.459519 36.623787 -0.467270 1.073870 0.032337 0.003465 343132.000000 0 0 1
-28.201724 15.770396 17.145819 36.578979 -0.509879 1.082939 0.039763 0.001565 -294810.000000 0 0 1
-29.193544 16.769396 16.958019 37.696818 -0.521399 1.104196 0.039622 0.003627 -179754.000000 0 0 1
-28.761734 18.260396 16.920519 38.039235 -0.565676 1.109826 0.046568 -0.005007 -682315.000000 0 0 1
-28.302424 18.805096 18.073319 38.487708 -0.586455 1.081974 0.039913 -0.007356 -527196.000000 0 0 1
-29.148964 18.791696 19.197419 39.640016 -0.572625 1.065240 0.036373 -0.009893 -747992.000000 0 0 1
-28.458624 18.937496 20.634919 39.928961 -0.587153 1.027698 0.042012 -0.023376 391470.000000 0 0 1
-28.039094 17.670596 21.205719 39.346198 -0.562339 1.001604 0.038941 -0.018308 269132.000000 0 0 1
-26.905244 17.120596 20.527619 37.926114 -0.566705 0.998870 0.049737 -0.006257 -305214.000000 0 0 1
-26.438454 15.894396 21.268119 37.469408 -0.541290 0.967193 0.057125 -0.006113 -100953.000000 0 0 1
-27.457894 14.914996 21.364219 37.852647 -0.497604 0.971084 0.019921 -0.004053 215596.000000 0 0 1
-26.981514 13.612296 21.664919 37.184209 -0.467245 0.948826 0.029925 0.002671 -376063.000000 0 0 1
-28.138604 12.638796 21.885219 37.821727 -0.422157 0.953734 0.034641 -0.001223 -456555.000000 0 0 1
-28.890304 12.443996 20.728319 37.671819 -0.406716 0.988152 0.037049 -0.005602 -335880.000000 0 0 1
-29.978514 11.601796 21.023419 38.409597 -0.369253 0.991604 0.051054 -0.005713 -18112.400000 0 0 1
-30.897754 11.384096 19.757019 38.400633 -0.353011 1.030375 0.052850 -0.001677 -113933.000000 0 0 1
-30.306144 10.777396 18.611419 37.161802 -0.341670 1.046249 0.063446 -0.008022 299298.000000 0 0 1
-29.919204 9.404296 18.749919 36.539828 -0.304545 1.031961 0.067698 -0.006781 -147156.000000 0 0 1
-29.034164 8.927496 17.589019 35.100662 -0.298307 1.045924 0.076554 -0.013327 -120860.000000 0 0 1
-29.713254 8.738396 16.338719 35.017007 -0.286027 1.085361 0.078247 -0.001629 684492.000000 0 0 1
-30.272634 9.930996 15.710719 35.523003 -0.316990 1.112669 0.074758 -0.002183 237799.000000 0 0 1
-29.242754 10.952696 15.099419 34.685626 -0.358371 1.120400 0.069444 -0.003164 289329.000000 0 0 1
-28.680174 10.572396 13.830519 33.550130 -0.353175 1.145891 0.069404 -0.011026 309415.000000 0 0 1
-27.676294 11.483196 13.466319 32.850918 -0.393294 1.148428 0.048916 -0.008454 -379521.000000 0 0 1
-27.389214 11.496696 11.932619 32.011411 -0.397418 1.188813 0.069374 -0.010379 -413826.000000 0 0 1
-26.827854 10.288296 11.371719 30.901436 -0.366196 1.193939 0.075635 -0.008452 768720.000000 0 0 1
-27.712914 9.184196 11.098319 31.233439 -0.320014 1.207524 0.081894 -0.010834 -304337.000000 0 0 1
-27.049704 8.009496 10.363919 30.054107 -0.287878 1.218726 0.090685 -0.021087 -351425.000000 0 0 1
-26.788414 8.277696 8.996719 29.446228 -0.299696 1.260301 0.094320 -0.015893 287488.000000 0 0 1
-26.072694 7.218796 8.395319 28.326273 -0.270106 1.269897 0.114582 -0.032676 -140394.000000 0 0 1
-25.561964 7.701596 7.018019 27.604006 -0.292641 1.313735 0.107888 -0.021028 -711896.000000 0 0 1
-26.569654 7.972696 6.115819 28.406225 -0.291519 1.353799 0.104697 -0.022783 -84323.400000 0 0 1
-26.069274 8.673796 4.966419 27.919654 -0.321199 1.391962 0.116454 -0.018437 451264.000000 0 0 1
-27.298014 8.829396 4.027019 28.971653 -0.312824 1.431346 0.123227 -0.019144 50980.000000 0 0 1
-27.766844 7.655696 3.358719 28.998074 -0.269029 1.454710 0.115951 -0.026837 339591.000000 0 0 1
-26.906034 6.578696 2.877519 27.847693 -0.239802 1.467281 0.132117 -0.026360 791186.000000 0 0 1
-25.832724 6.891296 1.750319 26.793342 -0.260695 1.505423 0.149705 -0.024524 770349.000000 0 0 1
-24.719504 7.722296 1.985719 25.973656 -0.302791 1.494270 0.134278 -0.017752 752788.000000 0 0 1
-23.609304 7.377996 1.159019 24.762419 -0.302888 1.523974 0.134584 -0.012593 -69571.600000 0 1 0
-22.301804 7.982396 1.674319 23.746420 -0.343718 1.500229 0.116586 -0.015624 -482189.000000 0 1 0
-22.348204 9.350896 1.515419 24.272988 -0.396283 1.508323 0.091776 -0.020784 -206164.000000 0 1 0
-21.250804 10.052396 1.974319 23.591212 -0.441845 1.487010 0.100765 -0.019603 -1009010.000000 0 1 0
-21.578504 11.568896 2.120219 24.575730 -0.492133 1.484416 0.092558 -0.022762 -904369.000000 0 1 0
-20.643104 12.395096 2.678519 24.227063 -0.540748 1.460011 0.103849 -0.021846 -79455.700000 0 1 0
-21.267804 13.597896 3.115419 25.434781 -0.568863 1.448001 0.110037 -0.033143 172557.000000 0 0 1
-20.166604 14.315196 3.921919 25.039932 -0.617304 1.413522 0.083579 -0.024225 158593.000000 0 0 1
-19.801504 13.522696 4.961819 24.486374 -0.599166 1.366747 0.083845 -0.029851 -150811.000000 0 1 0
-18.725504 14.041796 5.674419 24.083512 -0.643421 1.332946 0.064149 -0.034357 -458497.000000 0 1 0
-18.129704 13.264796 6.838619 23.482072 -0.631660 1.275287 0.045777 -0.034832 -377259.000000 0 1 0
-17.206304 12.304596 6.440919 22.112110 -0.620803 1.275227 0.053656 -0.032241 -104410.000000 0 1 0
-16.557204 11.679496 7.497319 21.604662 -0.614343 1.216401 0.033038 -0.021996 -496027.000000 0 1 0
10.839196 -32.688094 -13.847081 37.117938 -1.250611 1.953097 0.036844 0.013915 -590913.000000 0 0 1
12.218396 -32.736694 -13.673581 37.522622 -1.213576 1.943794 0.023704 0.004635 -604837.000000 0 0 1
12.819396 -31.502794 -13.612181 36.634061 -1.184331 1.951498 0.030811 -0.003298 152108.000000 0 0 1
14.286796 -31.520794 -13.104281 37.005340 -1.145243 1.932768 0.047922 -0.003660 275081.000000 0 0 1
15.182396 -32.196394 -13.967281 38.238696 -1.130162 1.944714 0.032044 0.000603 -559101.000000 0 0 1
16.499096 -31.905094 -13.579781 38.400073 -1.093538 1.932255 0.036896 -0.001490 -324677.000000 0 0 1
17.500296 -32.962494 -14.046481 39.875933 -1.082723 1.930775 0.038626 -0.002027 -185361.000000 0 0 1
17.639896 -34.102894 -13.219981 40.607157 -1.093440 1.902398 0.036865 -0.006892 -608172.000000 0 0 1
18.285396 33.455696 -13.890281 40.578063 1.070601 1.920171 0.038086 -0.002035 -555155.000000 0 0 1
18.298096 32.151596 -13.177281 39.270678 1.053393 1.912985 0.036613 -0.011911 -344871.000000 0 0 1
19.135296 32.094196 -12.041481 39.258046 1.033159 1.882548 0.035847 -0.021654 -122952.000000 0 0 1
18.929096 30.954496 -11.260581 37.990685 1.021954 1.871721 0.029740 -0.020592 -450048.000000 0 0 1
19.847396 30.804396 -10.071081 38.003376 0.998436 1.839005 0.038656 -0.018396 -54880.600000 0 0 1
21.163196 30.399296 -10.433581 38.481913 0.962643 1.845363 0.039429 -0.020049 75080.000000 0 0 1
21.803896 30.081596 -9.230381 38.282009 0.943603 1.814311 0.032308 -0.015244 -493625.000000 0 0 1
23.073496 29.254996 -9.442881 38.437078 0.902982 1.819008 0.033640 -0.007267 -820099.000000 0 0 1
24.049096 29.892696 -10.179181 39.693173 0.893309 1.830140 0.035877 -0.012881 -934915.000000 0 0 1
25.145196 29.042396 -10.354881 39.786495 0.857195 1.834089 0.027652 0.000520 -42006.000000 0 0 1
26.198996 29.700996 -11.310381 41.188120 0.847964 1.848973 0.027745 -0.003564 438271.000000 0 0 1
26.946196 30.835396 -10.735481 42.334025 0.852605 1.827186 0.027225 -0.005245 913273.000000 0 0 1
27.880496 31.288296 -11.716781 43.515083 0.842929 1.843419 0.033886 0.000545 348935.000000 0 0 1
28.466096 32.723496 -11.460381 44.860741 0.854863 1.829126 0.026115 0.000606 -465755.000000 0 0 1
27.638996 33.774196 -11.879781 45.229853 0.884968 1.836568 0.038408 -0.001303 128819.000000 0 0 1
28.206896 -33.479194 -11.566881 45.279997 -0.870661 1.829112 0.044992 0.002537 146050.000000 0 0 1
27.138896 -32.374394 -11.676981 43.828905 -0.873144 1.840475 0.031510 -0.005776 -87022.700000 0 0 1
26.168796 -32.537794 -10.657381 43.094010 -0.893464 1.820695 0.035868 -0.008968 47544.000000 0 0 1
24.959996 -31.815594 -10.879481 41.875966 -0.905565 1.833614 0.034345 -0.015650 438430.000000 0 0 1
25.058096 -30.301094 -10.562981 40.714138 -0.879825 1.833241 0.034902 -0.020065 -802848.000000 0 0 1
25.704696 -29.606594 -11.587581 40.884641 -0.855826 1.858156 0.026880 -0.013643 -244673.000000 0 0 1
25.992096 -28.317794 -11.119981 40.014254 -0.828195 1.852404 0.013965 -0.019268 -76594.600000 0 0 1
26.952396 -27.672794 -12.191581 40.507405 -0.798585 1.876508 0.033544 -0.019294 257225.000000 0 0 1
28.279196 -28.145194 -12.243881 41.734608 -0.783023 1.868551 0.019670 -0.013096 -48776.200000 0 0 1
28.431196 -29.100994 -13.245981 42.786175 -0.797040 1.885553 0.031799 -0.014569 6312.200000 0 0 1
29.917296 -29.441894 -13.527581 44.100625 -0.777389 1.882566 0.032887 -0.018502 80740.900000 0 0 1
30.425996 -30.479394 -12.754281 44.915547 -0.786275 1.858719 0.040243 -0.013637 -337306.000000 0 0 1
31.617096 -30.899994 -13.362081 46.184365 -0.773928 1.864313 0.040568 -0.017203 -542962.000000 0 0 1
32.116796 -32.154894 -12.694481 47.186604 -0.785991 1.843179 0.028210 -0.009285 -722997.000000 0 0 1
33.141396 -32.809694 -13.351381 48.508633 -0.780369 1.849633 0.022795 -0.001468 -224694.000000 0 0 1
33.985496 -33.684194 -12.615781 49.485319 -0.780946 1.828582 0.018980 -0.002920 107083.000000 0 0 1
33.276096 33.687396 -11.914681 48.827234 0.791540 1.817302 0.006442 0.000839 -179235.000000 0 0 1
32.691996 34.042596 -10.675981 48.390510 0.805634 1.793248 0.003275 0.002322 81912.400000 0 0 1
31.890996 32.960996 -10.212981 46.986890 0.801896 1.789903 0.000909 0.006569 -224650.000000 0 0 1
31.139396 33.203396 -8.897481 46.382029 0.817465 1.763823 -0.006176 0.002932 409011.000000 0 0 1
30.145396 34.237296 -9.035581 46.503538 0.848869 1.766339 -0.001210 -0.002531 173060.000000 0 0 1
29.593196 -33.893094 -7.777881 45.661740 -0.853024 1.741968 0.002406 -0.002263 1835.630000 0 0 1
28.617696 -32.752594 -7.982581 44.220205 -0.852673 1.752310 0.002819 -0.012556 -666336.000000 0 0 1
29.226196 -31.484394 -8.241981 43.742060 -0.822577 1.760352 -0.008184 -0.008565 -196177.000000 0 0 1
28.441396 -30.321894 -8.503781 42.434002 -0.817388 1.772563 0.008004 -0.015084 -281565.000000 0 0 1
27.494896 -29.904594 -7.363981 41.285376 -0.827355 1.750124 0.025233 -0.024439 -107186.000000 0 0 1
26.627796 -28.900094 -7.804981 40.064606 -0.826297 1.766860 0.017587 -0.030772 98430.100000 0 0 1
25.591296 -28.638394 -6.850581 39.012850 -0.841528 1.747310 0.038840 -0.038187 521090.000000 0 0 1
24.442696 -27.808794 -7.487281 37.773454 -0.849730 1.770333 0.073404 -0.041704 -133953.000000 0 0 1
23.432696 -28.547994 -8.124081 37.816397 -0.883490 1.787314 0.082715 -0.040569 70761.300000 0 0 1
22.716196 -27.834294 -9.127981 37.068767 -0.886302 1.819600 0.087243 -0.040083 379413.000000 0 0 1
21.495396 -28.633094 -9.688481 37.091411 -0.926835 1.835067 0.070761 -0.027846 212905.000000 0 0 1
21.792196 -29.325794 -10.886381 38.123684 -0.931722 1.860381 0.066131 -0.021697 -157700.000000 0 0 1
20.760596 -30.143494 -11.386381 38.331218 -0.967677 1.872401 0.052872 -0.015154 86843.400000 0 0 1
20.436296 -31.473494 -10.658881 39.010701 -0.994901 1.847545 0.051159 -0.020820 222029.000000 0 0 1
21.508396 -32.386494 -10.796381 40.349200 -0.984561 1.841670 0.039654 -0.018190 135296.000000 0 0 1
21.115596 -33.693794 -10.411381 41.103978 -1.010982 1.826880 0.027469 -0.012627 16695.600000 0 0 1
22.283096 33.867296 -10.431281 41.860981 0.988850 1.822639 0.027220 -0.014303 101329.000000 0 0 1
23.242896 34.049696 -9.389081 42.282015 0.971832 1.794721 0.034019 -0.013644 19973.800000 0 0 1
24.316196 33.164196 -9.586781 42.226148 0.938130 1.799828 0.026793 -0.002574 -416473.000000 0 0 1
25.647596 33.492096 -8.911381 43.115338 0.917272 1.778984 0.028957 -0.004967 -452462.000000 0 0 1
25.780696 33.285296 -7.529181 42.769659 0.911776 1.747759 0.028746 -0.018274 90011.000000 0 0 1
25.799496 31.916296 -7.060781 41.642749 0.890985 1.741176 0.016974 -0.011210 -418659.000000 0 0 1
25.603096 31.871796 -5.484381 41.248131 0.894037 1.704152 0.010510 -0.002608 -1110150.000000 0 0 1
26.662496 32.425696 -4.726081 42.245121 0.882626 1.682904 0.006430 -0.000658 -87853.400000 0 0 1
27.765996 31.605996 -4.454481 42.305223 0.849985 1.676286 0.018884 -0.001234 -401251.000000 0 0 1
27.436596 30.440296 -3.455881 41.125679 0.837250 1.654928 0.030927 0.005118 -1124950.000000 0 0 1
26.986996 30.878896 -2.194881 41.068499 0.852554 1.624266 0.029651 -0.004250 -23227.500000 0 0 1
26.566096 29.819296 -1.337381 39.959185 0.843030 1.604271 0.025086 -0.000077 661170.000000 0 0 1
25.210796 29.108496 -1.783581 38.549577 0.857031 1.617080 0.022255 0.004147 248882.000000 0 0 1
24.096396 29.752896 -1.218581 38.306083 0.890058 1.602613 0.021074 -0.001674 -354886.000000 0 0 1
22.872496 29.138396 -1.636581 37.079314 0.905293 1.614948 0.041413 0.001780 366997.000000 0 0 1
21.733096 29.772296 -0.823981 36.869988 0.940233 1.593146 0.058714 -0.005133 -311118.000000 0 0 1
21.554496 29.310596 0.476619 36.385910 0.936716 1.557697 0.066338 -0.013052 -113372.000000 0 0 1
20.461296 29.952196 1.081319 36.290052 0.971481 1.540995 0.060441 -0.015816 -214402.000000 0 0 1
19.796996 29.268396 2.298219 35.409629 0.976089 1.505847 0.049794 -0.024092 -170276.000000 0 0 1
19.086596 28.130596 1.871219 34.045998 0.974646 1.515807 0.062079 -0.014398 206441.000000 0 0 1
18.564896 27.340296 2.932919 33.177540 0.974283 1.482280 0.071195 -0.021363 -62522.900000 0 0 1
17.985396 25.987996 2.454019 31.699725 0.965415 1.493304 0.071486 0.003323 202097.000000 0 0 1
18.956996 25.103596 1.937519 31.516856 0.924007 1.509282 0.071606 0.000621 188658.000000 0 0 1
19.934096 24.555496 2.778719 31.749989 0.888903 1.483165 0.070406 0.002162 -745646.000000 0 0 1
21.182096 23.985196 2.131619 32.070463 0.847379 1.504281 0.058273 0.004934 -563426.000000 0 0 1
20.967896 22.822496 1.327019 31.020637 0.827725 1.528005 0.062157 0.007031 -490995.000000 0 0 1
22.193596 22.383696 0.869419 31.533180 0.789663 1.543221 0.029201 0.008184 -677826.000000 0 0 1
22.030496 21.177196 -0.106081 30.558593 0.765652 1.574268 0.046780 0.001923 -336798.000000 0 0 1
21.447096 21.488896 -1.372281 30.391343 0.786372 1.615965 0.029517 0.004991 429319.000000 0 0 1
21.618096 20.602296 -2.392981 29.958688 0.761343 1.650758 0.062221 -0.003989 -146993.000000 0 0 1
21.502396 21.393796 -3.766281 30.565215 0.782866 1.694331 0.042010 -0.010807 -313986.000000 0 0 1
22.546396 22.275196 -3.989381 31.944318 0.779348 1.696009 0.038082 -0.002153 -124246.000000 0 0 1
22.179396 22.962796 -5.161281 32.339672 0.802750 1.731078 0.045240 -0.009274 279786.000000 0 0 1
23.147096 24.146696 -5.602681 33.915203 0.806531 1.736754 0.041440 0.001661 325417.000000 0 0 1
23.109496 25.330896 -4.812981 34.624671 0.831224 1.710252 0.028666 0.000874 -91883.800000 0 0 1
23.434696 25.226996 -3.425781 34.602345 0.822213 1.669963 0.038216 -0.000757 -571427.000000 0 0 1
22.385496 24.903796 -2.352881 33.568520 0.838601 1.640946 0.030567 -0.001574 -1089560.000000 0 0 1
21.365396 25.856496 -2.225281 33.615330 0.880219 1.637043 0.042456 -0.007124 928835.000000 0 0 1
20.263596 25.509196 -1.365381 32.606696 0.899501 1.612683 0.055775 0.003125 735980.000000 0 0 1
19.316396 24.303896 -1.697981 31.091568 0.899243 1.625436 0.060235 -0.004011 -660953.000000 0 0 1
18.442896 24.614296 -2.738581 30.878857 0.927759 1.659601 0.048502 -0.007330 29399.000000 0 0 1
17.827796 23.498696 -3.364681 29.687372 0.921768 1.684377 0.055316 -0.014503 -10314.400000 0 0 1
17.177896 23.897496 -4.674781 29.799731 0.947554 1.728320 0.057464 -0.019192 -441729.000000 0 0 1
16.560196 22.833196 -5.349881 28.709165 0.943312 1.758240 0.065465 -0.021327 193130.000000 0 0 1
16.198396 23.304596 -6.674181 29.155392 0.963385 1.801762 0.060464 -0.026187 -55270.200000 0 0 1
15.441296 22.269496 -7.526181 28.124855 0.964525 1.841697 0.062431 -0.027956 -812131.000000 0 0 1
16.201896 21.154096 -7.826281 27.771350 0.917197 1.856478 0.057238 -0.021762 -378323.000000 0 0 1
15.488996 20.279396 -8.625881 26.936382 0.918534 1.896770 0.069208 -0.018129 -696892.000000 0 0 1
16.210496 19.023096 -8.988081 26.560195 0.865056 1.916017 0.061431 -0.018015 -830365.000000 0 0 1
17.375696 19.206196 -9.719581 27.663387 0.835395 1.929811 0.060359 -0.016012 -393186.000000 0 0 1
18.021796 18.003296 -10.015981 27.371950 0.784885 1.945419 0.058565 -0.017644 -1220450.000000 0 0 1
19.444596 18.091396 -10.463381 28.545985 0.749363 1.946089 0.046821 -0.016301 -1342070.000000 0 0 1
19.598796 18.687996 -11.756681 29.522424 0.761614 1.980381 0.046568 -0.015432 289846.000000 0 0 1
20.924296 19.050296 -12.097881 30.774968 0.738553 1.974805 0.045768 -0.011911 51919.400000 0 0 1
21.091296 19.283096 -13.604981 31.650846 0.740642 2.015118 0.041808 -0.014687 -92403.800000 0 0 1
20.840696 18.114696 -14.358581 31.123073 0.715535 2.050311 0.035258 -0.001464 314659.000000 0 0 1
20.860796 18.449296 -15.763681 32.000671 0.724129 2.085877 0.034784 -0.002626 -68508.600000 0 0 1
20.945396 17.239496 -16.698781 31.855284 0.688650 2.122581 0.038644 -0.001135 -704607.000000 0 0 1
22.001696 16.356196 -16.498081 31.996663 0.639268 2.112526 0.051824 -0.002037 -342206.000000 0 0 1
22.211496 15.413496 -17.519681 32.215922 0.606649 2.145779 0.066852 -0.009148 -552144.000000 0 0 1
22.856296 15.948696 -18.897481 33.673223 0.609235 2.166634 0.075453 -0.009560 -848172.000000 0 0 1
24.143096 16.374096 -18.585181 34.589146 0.595952 2.138044 0.100622 -0.009010 -494028.000000 0 0 1
24.774796 16.798896 -19.764981 35.869874 0.595852 2.154381 0.127615 -0.012369 -162520.000000 0 0 1
26.281796 17.113596 -19.673881 37.022554 0.577189 2.131052 0.120143 -0.016679 16502.800000 0 0 1
26.610496 18.216496 -18.871581 37.364365 0.600289 2.100258 0.100475 -0.014397 -235103.000000 0 0 1
27.971696 18.282796 -18.521681 38.206401 0.578914 2.076907 0.091275 -0.021562 -174057.000000 0 0 1
28.394896 19.453696 -17.580481 38.649576 0.600664 2.043021 0.087640 -0.014726 445457.000000 0 0 1
27.771596 19.306196 -16.276281 37.535424 0.607482 2.019308 0.084037 -0.021983 450740.000000 0 0 1
26.411196 19.698196 -16.200581 36.715514 0.640825 2.027783 0.079632 -0.020258 195532.000000 0 0 1
25.581996 18.992596 -15.087681 35.253302 0.638632 2.013052 0.072878 -0.011120 -993.059000 0 0 1
25.949396 19.397496 -13.798481 35.214089 0.641907 1.973433 0.069492 -0.022467 275124.000000 0 0 1
25.028396 19.052896 -12.779481 33.952151 0.650663 1.956700 0.065950 -0.027660 -23515.400000 0 0 1
25.609096 19.475596 -11.412781 34.137607 0.650184 1.911677 0.063381 -0.025484 -155392.000000 0 0 1
25.598596 20.907196 -11.326781 34.938444 0.684861 1.900954 0.063818 -0.023519 40596.700000 0 0 1
25.959996 21.433896 -10.061081 35.136286 0.690187 1.861206 0.060384 -0.022110 20799.600000 0 0 1
24.921896 21.318196 -8.910181 33.984668 0.707621 1.836079 0.055470 -0.021862 -409412.000000 0 0 1
24.993196 20.111196 -8.229281 33.118591 0.677580 1.821906 0.065145 -0.025865 273385.000000 0 0 1
24.312896 20.049796 -6.992181 32.280053 0.689596 1.789137 0.061187 -0.023985 -494802.000000 0 0 1
22.811796 19.717996 -7.021081 30.959214 0.712782 1.799572 0.056011 -0.020023 -504000.000000 0 0 1
22.126496 20.833596 -7.534881 31.311259 0.755312 1.813826 0.052161 -0.019815 -532521.000000 0 0 1
20.833296 20.493196 -7.956881 30.287113 0.777169 1.836631 0.049354 -0.022237 -589832.000000 0 0 1
19.906296 21.725396 -7.890981 30.504442 0.829065 1.832455 0.042313 -0.020343 -499854.000000 0 0 1
20.089896 22.707296 -8.914881 31.602220 0.846480 1.856775 0.050574 -0.023140 279719.000000 0 0 1
19.526796 22.297896 -10.152681 31.329999 0.851557 1.900810 0.047098 -0.013571 -809281.000000 0 0 1
18.084596 22.697396 -10.383481 30.822736 0.898028 1.914395 0.046294 -0.017778 -996109.000000 0 0 1
17.899296 24.070396 -10.459881 31.767560 0.931389 1.906319 0.052691 -0.024990 263942.000000 0 0 1
16.510796 24.360996 -10.429581 31.222438 0.975156 1.911384 0.050558 -0.016426 370192.000000 0 0 1
16.206296 25.781096 -9.906081 32.022482 1.009604 1.885303 0.057904 -0.022883 -94434.400000 0 0 1
16.789896 26.716396 -10.777581 33.344005 1.009721 1.899931 0.065865 -0.017168 211952.000000 0 0 1
16.763496 27.980196 -10.159381 34.163126 1.031024 1.872742 0.075067 -0.026352 -122162.000000 0 0 1
20.120996 28.738296 33.996173 48.851652 0.959973 0.801115 0.028547 0.002221 520923.000000 0 0 1
18.764996 29.027896 33.674464 48.256744 0.996923 0.798449 0.040583 -0.009132 305947.000000 0 0 1
17.957396 27.848896 33.743651 47.293372 0.998074 0.776321 0.040139 -0.010714 1479490.000000 0 0 1
16.408696 28.198196 33.631962 46.856082 1.043788 0.770200 0.058565 -0.022351 1261990.000000 0 0 1
15.944296 28.640696 32.372163 46.070240 1.062823 0.791654 0.064351 -0.024903 -521489.000000 0 0 1
14.700496 29.278196 32.517034 46.159233 1.105472 0.789143 0.084487 -0.033764 -121275.000000 0 0 1
13.909596 29.221896 31.179143 44.939237 1.126533 0.804035 0.085279 -0.032745 42195.300000 0 0 1
13.499396 27.924996 30.821963 43.726794 1.120504 0.788548 0.073897 -0.033779 -698844.000000 0 0 1
12.120896 27.742096 30.815743 43.198959 1.158878 0.776537 0.076423 -0.022593 -752406.000000 0 0 1
11.625996 26.265596 30.864253 42.162156 1.154086 0.749489 0.056628 -0.019766 -94645.100000 0 0 1
11.811396 25.354796 29.799443 40.870302 1.134844 0.753758 0.052197 -0.018575 -185702.000000 0 0 1
13.162596 25.064696 29.568643 40.936506 1.087236 0.763667 0.035945 -0.016381 -446883.000000 0 0 1
13.308796 24.356596 28.159223 39.538711 1.070710 0.778178 0.039281 -0.019658 -335957.000000 0 0 1
12.935996 25.267196 27.154143 39.282549 1.097620 0.807576 0.033146 -0.019767 291149.000000 0 0 1
12.807896 24.716196 25.807033 37.959656 1.092696 0.823232 0.038963 -0.019201 585326.000000 0 0 1
11.914596 23.406596 25.536413 36.632427 1.099953 0.799454 0.035085 -0.014519 289406.000000 0 0 1
11.777396 23.087496 24.179053 35.445255 1.099085 0.820095 0.051975 -0.016934 333615.000000 0 0 1
10.782396 22.093796 23.915653 34.298022 1.116772 0.799187 0.062208 -0.019519 450999.000000 0 0 1
10.690296 21.827696 22.389023 33.045409 1.115376 0.826407 0.076098 -0.026775 25698.700000 0 0 1
10.441196 23.013296 21.643823 33.272893 1.144867 0.862561 0.071002 -0.028782 -5601.300000 0 0 1
10.493396 22.677996 20.264123 32.171999 1.137421 0.889413 0.073526 -0.025351 -303109.000000 0 0 1
9.858996 23.771696 19.278823 32.155347 1.177651 0.927854 0.054516 -0.031662 1138840.000000 0 0 1
8.439496 24.011896 19.347523 31.970656 1.232811 0.920823 0.042855 -0.028950 768180.000000 0 0 1
8.073496 24.792096 20.494623 33.164121 1.255978 0.904631 0.039232 -0.020791 -421728.000000 0 0 1
6.829496 25.608496 20.098423 33.262346 1.310173 0.921985 0.039218 -0.017254 -411000.000000 0 0 1
7.074196 26.578496 19.127323 33.500973 1.310665 0.963136 0.039838 -0.027258 -48740.600000 0 0 1
5.883996 27.253496 18.743923 33.596266 1.358161 0.978923 0.035423 -0.023488 32473.500000 0 0 1
5.967396 28.282496 17.643123 33.864276 1.362854 1.022780 0.045516 -0.024978 -58886.600000 0 0 1
6.141396 27.727996 16.377623 32.783914 1.352828 1.047702 0.044284 -0.020508 -233485.000000 0 0 1
6.660796 28.741496 15.581323 33.364913 1.343068 1.084904 0.035018 -0.017398 -166066.000000 0 0 1
7.263696 28.289996 14.240823 32.494402 1.319467 1.117140 0.033182 -0.017031 65620.500000 0 0 1
6.299496 27.979396 13.277923 31.604327 1.349341 1.137208 0.037895 -0.018430 -285275.000000 0 0 1
6.687996 26.832796 12.570423 30.376697 1.326526 1.144152 0.027580 -0.016180 67668.200000 0 0 1
5.973296 26.799996 11.167923 29.641905 1.351497 1.184499 0.016475 -0.012416 -142144.000000 0 0 1
6.426696 27.616496 10.128023 30.108970 1.342154 1.227727 0.017613 -0.012686 -39148.500000 0 0 1
6.463796 29.007296 10.330923 31.463182 1.351545 1.236241 0.017793 -0.014468 -215290.000000 0 0 1
6.896396 29.763796 9.063223 31.868257 1.343110 1.282419 0.009384 -0.000016 82078.300000 0 0 1
5.914696 29.863996 8.013223 31.481004 1.375272 1.313423 -0.003646 -0.001023 239785.000000 0 0 1
6.021696 28.776096 7.095623 30.243551 1.364513 1.333973 -0.006736 0.004483 1225150.000000 0 0 1
4.614196 28.230596 6.551423 29.345843 1.408782 1.345650 -0.014629 0.007750 856777.000000 0 0 1
4.013696 29.212996 5.846123 30.061371 1.434257 1.375076 -0.023084 0.004867 -1372420.000000 0 0 1
2.811696 28.724396 5.375423 29.357992 1.473222 1.386658 0.005682 -0.011192 361502.000000 0 0 1
1.836996 29.752396 4.595723 30.161238 1.509132 1.417829 0.013831 -0.010633 608211.000000 0 0 1
2.490896 30.010096 3.390023 30.303509 1.487984 1.458693 -0.008190 -0.010170 577071.000000 0 0 1
1.606096 30.681196 2.481923 30.823291 1.518496 1.490188 -0.003828 -0.015888 1861690.000000 0 0 1
0.332896 29.854496 1.950623 29.920004 1.559646 1.505555 0.038822 -0.021138 1129370.000000 0 0 1
0.750996 28.817996 1.122323 28.849618 1.544742 1.531884 0.042823 -0.017359 504945.000000 0 0 1
-0.381204 27.951396 0.894023 27.968288 -1.557159 1.538825 0.055474 -0.023463 637587.000000 0 0 1
-0.840304 27.823796 -0.561577 27.842146 -1.540605 1.590968 0.046027 -0.026200 -62268.100000 0 0 1
-1.513604 29.001096 -0.889477 29.054186 -1.518652 1.601416 0.049921 -0.021613 -58752.600000 0 0 1
-1.165504 29.236496 -2.234877 29.344944 -1.530953 1.647029 0.039663 -0.018917 -195371.000000 0 0 1
-1.985604 30.376896 -2.903377 30.579863 -1.505524 1.665884 0.043089 -0.018544 1385600.000000 0 0 1
-3.307404 30.044996 -3.415577 30.418857 -1.461156 1.683318 0.067589 -0.018201 1103550.000000 0 0 1
-3.343204 29.168596 -4.517677 29.705107 -1.456678 1.723473 0.058000 -0.018679 -357625.000000 0 0 1
-4.776604 28.896696 -5.038777 29.719089 -1.406978 1.741166 0.067070 -0.013388 125535.000000 0 0 1
-5.349904 30.019296 -5.650477 31.011409 -1.394432 1.754026 0.058031 -0.014769 362144.000000 0 0 1
-6.449404 29.673296 -6.512677 31.056630 -1.356778 1.782068 0.063082 -0.012609 506052.000000 0 0 1
-7.146704 30.867096 -7.190777 32.489386 -1.343274 1.793971 0.057230 -0.016192 406936.000000 0 0 1
-8.193804 31.405796 -6.360777 33.074490 -1.315584 1.764319 0.046701 -0.009917 526459.000000 0 0 1
-8.345604 32.748996 -6.727877 34.458818 -1.321272 1.767303 0.050255 -0.020432 199364.000000 0 0 1
-9.297904 33.575396 -5.804377 35.319244 -1.300640 1.735886 0.036719 -0.023808 406081.000000 0 0 1
-10.659304 33.305796 -6.046377 35.488807 -1.261054 1.742006 0.049144 -0.020417 -339611.000000 0 0 1
-11.527104 34.262996 -5.466977 36.561111 -1.246261 1.720889 0.051214 -0.016845 -471522.000000 0 0 1
-12.975504 33.922096 -5.755977 36.772320 -1.205459 1.727973 0.057471 -0.023790 -478689.000000 0 0 1
-13.436604 34.163696 -7.107877 37.392811 -1.196079 1.762047 0.045062 -0.021801 -36719.200000 0 0 1
-14.805704 33.912096 -7.306877 37.717762 -1.159149 1.765754 0.058923 -0.026053 -140071.000000 0 0 1
-15.437404 34.229396 -8.698077 38.543761 -1.147112 1.798425 0.084318 -0.019567 12753.500000 0 0 1
-16.715904 33.667996 -8.865877 38.620709 -1.109959 1.802425 0.116759 -0.023243 -462784.000000 0 0 1
-17.702404 -33.941894 -9.114477 39.350997 1.090058 1.804539 0.115777 -0.039339 -811132.000000 0 0 1
-19.122804 34.029096 -9.239177 40.112633 -1.058821 1.803214 0.120483 -0.033665 51782.300000 0 0 1
-19.630604 33.335196 -8.084577 39.521592 -1.038590 1.776812 0.109614 -0.034605 97576.900000 0 0 1
-19.949804 34.157096 -6.966777 40.165132 -1.042180 1.745131 0.106433 -0.035985 -369645.000000 0 0 1
-20.315104 33.333396 -5.740377 39.455933 -1.023456 1.716803 0.096259 -0.030498 -459995.000000 0 0 1
-20.149504 34.089896 -4.545777 39.859598 -1.036969 1.685090 0.085349 -0.039312 243901.000000 0 0 1
-21.227904 33.886496 -3.655277 40.153201 -1.011161 1.661956 0.079652 -0.030807 -803.935000 0 0 1
-22.411004 -33.719794 -3.876977 40.673192 0.984209 1.666261 0.107737 -0.043461 -242443.000000 0 0 1
-23.117104 -33.833594 -5.109777 41.294339 0.971395 1.694855 0.115150 -0.046893 517274.000000 0 0 1
-24.091304 -32.799394 -5.321577 41.042787 0.937286 1.700822 0.125102 -0.056614 212554.000000 0 0 1
-24.684704 -32.793494 -6.681577 41.585951 0.925549 1.732165 0.153154 -0.043090 -1042490.000000 0 0 1
-23.815204 -32.384394 -7.656077 40.921002 0.936710 1.758999 0.157146 -0.040153 -615137.000000 0 0 1
-24.083804 -32.839894 -8.991877 41.705421 0.938023 1.788107 0.111932 -0.034641 -470070.000000 0 0 1
-25.264584 -32.257494 -9.767877 42.121925 0.906374 1.804822 0.094247 -0.026296 -46011.200000 0 0 1
-26.515714 -32.646094 -9.162277 43.044139 0.888650 1.785295 0.100619 -0.017704 1175460.000000 0 0 1
-27.659264 -32.046694 -9.824077 43.457312 0.858750 1.798830 0.029383 -0.010306 671982.000000 0 0 1
-27.960994 -30.535594 -9.678777 42.519624 0.829383 1.800440 0.011176 0.002442 -1127120.000000 0 0 1
-27.064874 -29.761794 -10.392777 41.548545 0.832821 1.823617 0.028579 0.005610 -521771.000000 0 0 1
-27.236874 -29.682794 -11.831177 41.986811 0.828343 1.856448 0.014242 0.004554 -4034.790000 0 0 1
-26.102944 -28.834294 -12.453577 40.839586 0.835075 1.880671 0.050342 0.006856 51074.500000 0 0 1
-24.823204 -29.426394 -12.524577 40.484184 0.870047 1.885326 0.059553 -0.005594 79278.000000 0 0 1
-23.996304 -28.674494 -13.390977 39.716086 0.873985 1.914703 0.057679 -0.010695 150412.000000 0 0 1
-22.644504 -29.331694 -13.784977 39.536659 0.913354 1.926941 0.085784 -0.020747 -15107.300000 0 0 1
-22.563804 -30.512594 -14.558577 40.645981 0.934055 1.937114 0.091994 -0.023226 -117444.000000 0 0 1
-23.030004 -31.709294 -13.913677 41.586666 0.942646 1.911946 0.080997 -0.023404 41657.900000 0 0 1
-22.962604 -33.023294 -14.746877 42.840279 0.963201 1.922214 0.071676 -0.014185 -1046.740000 0 0 1
-23.445104 -34.071194 -13.956377 43.649738 0.968087 1.896247 0.060435 -0.021380 -72715.100000 0 0 1
-23.332104 33.195196 -14.531577 43.098432 -0.958143 1.914708 0.053563 -0.013418 -179869.000000 0 0 1
-23.974104 32.055496 -13.698377 42.307895 -0.928645 1.900516 0.043536 -0.016207 -91093.400000 0 0 1
-23.340904 31.738696 -12.462177 41.321283 -0.936699 1.877158 0.046533 -0.014437 128507.000000 0 0 1
-23.415004 32.709596 -11.460677 41.827349 -0.949515 1.848346 0.095141 -0.021254 30925.300000 0 0 1
-22.653404 32.426896 -10.154577 40.838654 -0.961011 1.822084 0.096817 -0.022678 310794.000000 0 0 1
-23.478004 31.666596 -9.272777 40.496597 -0.932814 1.801823 0.092757 -0.014074 637867.000000 0 0 1
-22.701104 31.170596 -8.178377 39.418676 -0.941338 1.779789 0.078932 -0.016635 -4121.980000 0 0 1
-23.376004 30.098296 -7.348777 38.811718 -0.910453 1.761291 0.076517 -0.011592 -279760.000000 0 0 1
-23.583204 29.024496 -8.247977 38.296449 -0.888463 1.787869 0.078783 0.003033 95745.100000 0 0 1
-24.152804 27.856096 -7.737177 37.672057 -0.856483 1.777651 0.070052 0.004984 -735125.000000 0 0 1
-23.123004 27.006396 -7.041577 36.243655 -0.862711 1.766324 0.069842 0.008227 -480711.000000 0 0 1
-22.942004 27.480796 -5.728177 36.253851 -0.875171 1.729463 0.071336 0.004438 -46601.400000 0 0 1
-22.154804 26.626796 -4.950677 34.990438 -0.876816 1.712759 0.057112 0.004067 216773.000000 0 0 1
-20.720404 27.134296 -4.587577 34.447801 -0.918633 1.704368 0.053273 -0.008632 610222.000000 0 0 1
-19.951004 27.321196 -5.788877 34.322025 -0.940063 1.740270 0.056276 -0.003168 306047.000000 0 0 1
-18.756604 28.039296 -5.491577 34.178498 -0.981222 1.732169 0.053396 -0.004078 251499.000000 0 0 1
-17.659304 27.911196 -6.584477 33.678497 -1.006682 1.767574 0.062564 -0.004473 -439444.000000 0 0 1
-17.913904 28.421496 -7.855077 34.502052 -1.008399 1.800480 0.072053 -0.005606 -19707.600000 0 0 1
-18.012704 29.824596 -8.016977 35.752425 -1.027474 1.796955 0.086413 -0.013865 -93310.200000 0 0 1
-18.089304 30.429396 -9.426477 36.633721 -1.034454 1.831041 0.086271 -0.016619 -446675.000000 0 0 1
-16.864004 30.295796 -10.076077 36.107578 -1.062866 1.853608 0.078189 -0.015936 -576022.000000 0 0 1
-16.781504 31.130096 -11.234677 37.106868 -1.076378 1.878389 0.079559 -0.016380 -685133.000000 0 0 1
-15.376204 31.239496 -11.795777 36.762400 -1.113405 1.897439 0.078289 -0.022233 -484023.000000 0 0 1
-15.254004 32.021696 -13.015677 37.782026 -1.126235 1.922496 0.070881 -0.019688 -47083.500000 0 0 1
-15.679904 31.311396 -14.214077 37.792894 -1.106530 1.956385 0.078344 -0.020833 108804.000000 0 0 1
-15.229704 32.063096 -15.499177 38.732550 -1.127355 1.982487 0.097549 -0.023512 492931.000000 0 0 1
-13.831904 31.864896 -15.663377 38.105571 -1.161260 1.994404 0.086704 -0.031453 -24535.500000 0 0 1
-13.402204 32.496796 -16.882877 38.996055 -1.179632 2.018546 0.066794 -0.037184 -614890.000000 0 0 1
-11.883304 32.602496 -16.900377 38.597388 -1.221271 2.024017 0.088780 -0.042710 -805133.000000 0 0 1
-11.327404 31.285396 -16.934077 37.334287 -1.223412 2.041574 0.094718 -0.053237 478681.000000 0 0 1
-9.971204 31.196496 -17.385177 37.079517 -1.261433 2.058798 0.092922 -0.048883 769892.000000 0 0 1
-9.668404 31.418396 -18.897777 37.917273 -1.272262 2.092543 0.089291 -0.060521 130151.000000 0 0 1
-10.414404 30.454996 -19.680277 37.726381 -1.241302 2.119590 0.081790 -0.055213 461938.000000 0 0 1
-9.794504 30.301696 -20.938177 38.112102 -1.258164 2.152423 0.073747 -0.054768 -1063570.000000 0 0 1
-10.526804 29.500896 -22.019077 38.287807 -1.228050 2.183515 0.070753 -0.050460 -878540.000000 0 0 1
-11.576004 30.203796 -22.538977 39.424340 -1.204801 2.179375 0.086228 -0.049346 -460277.000000 0 0 1
-12.833504 30.006496 -21.913777 39.310332 -1.166649 2.162115 0.089691 -0.056122 -371795.000000 0 0 1
-13.717904 31.259296 -21.795577 40.501501 -1.157260 2.139028 0.107502 -0.051691 -34800.200000 0 0 1
-14.113704 31.739096 -23.076777 41.702571 -1.152376 2.157196 0.089030 -0.036962 259394.000000 0 0 1
-14.923404 32.926896 -22.976277 42.834539 -1.145261 2.136957 0.099239 -0.042040 350691.000000 0 0 1
-15.643904 33.254096 -24.282877 44.047982 -1.131079 2.154697 0.109681 -0.031471 180478.000000 0 0 1
-14.753304 33.709396 -25.305177 44.657981 -1.158250 2.173223 0.102401 -0.028518 180135.000000 0 0 1
-15.175104 33.379396 -26.645277 45.325915 -1.144103 2.199207 0.105002 -0.018966 311347.000000 0 0 1
-15.924204 -34.038794 -27.412277 46.515080 1.133218 2.201013 0.082761 -0.011085 517292.000000 0 0 1
-17.226404 -33.743194 -26.938677 46.487035 1.098772 2.188897 0.075721 -0.005962 6411.050000 0 0 1
-17.821304 -32.777894 -27.809877 46.533627 1.072804 2.211338 0.060413 -0.000147 29872.200000 0 0 1
-19.252504 -32.348594 -27.447777 46.588313 1.033945 2.200810 0.072843 -0.007196 118991.000000 0 0 1
-20.203004 -33.366194 -27.612977 47.790593 1.026347 2.186816 0.077359 -0.005421 -474798.000000 0 0 1
-21.541504 -32.916494 -27.456577 47.972863 0.991314 2.180148 0.061304 0.000816 808219.000000 0 0 1
-22.541704 -34.105394 -27.635677 49.346094 0.986767 2.165228 0.042289 0.004644 29221.600000 0 0 1
-22.496704 33.461796 -26.609477 48.310017 -0.978897 2.154127 0.074651 -0.004482 -121689.000000 0 0 1
-23.693804 32.704396 -26.488277 48.297025 -0.943827 2.151300 0.044938 -0.003247 545225.000000 0 0 1
-23.640704 31.424296 -27.378577 47.916132 -0.925821 2.178989 0.063023 -0.006976 483032.000000 0 0 1
-22.746004 30.354396 -27.009777 46.564988 -0.927713 2.189580 0.079984 -0.032747 105247.000000 0 0 1
-23.300704 29.549196 -25.979277 45.727460 -0.903083 2.175032 0.050198 -0.023092 68573.700000 0 0 1
31.774836 9.678096 -26.357411 42.403053 0.295657 2.241570 0.040210 -0.004263 -113047.000000 0 0 1
31.308186 8.355796 -26.266721 41.712857 0.260810 2.251967 0.037766 -0.001830 -520937.000000 0 0 1
29.917476 8.297896 -26.389011 40.746661 0.270558 2.275274 0.040261 -0.006871 -373734.000000 0 0 1
29.405946 6.880396 -26.068501 39.895066 0.229845 2.282899 0.033589 -0.003904 -110532.000000 0 0 1
29.531236 6.625796 -24.699481 39.064811 0.220711 2.255275 0.021890 -0.003546 -107029.000000 0 0 1
28.822716 5.483696 -24.397981 38.158634 0.188009 2.264492 0.011378 0.002456 -220499.000000 0 0 1
28.786016 5.239196 -22.848281 37.123144 0.180034 2.233782 0.015478 -0.001282 348191.000000 0 0 1
30.025726 4.767396 -22.304081 37.706025 0.157463 2.203746 0.032562 -0.001339 614935.000000 0 0 1
29.979146 4.684296 -20.896081 36.842069 0.154998 2.173874 0.025130 -0.003852 -178515.000000 0 0 1
31.316236 4.318896 -20.222381 37.527379 0.137048 2.139891 0.025601 0.001355 -131398.000000 0 0 1
31.802906 3.022496 -20.391181 37.899348 0.094754 2.138901 0.041364 0.006349 -40585.000000 0 0 1
32.838446 2.756896 -19.482181 38.282103 0.083757 2.104715 0.051502 -0.001549 -351116.000000 0 0 1
33.311456 1.320796 -19.424181 38.583629 0.039629 2.098361 0.057425 -0.003000 232644.000000 0 0 1
32.356926 0.467296 -18.789281 37.419595 0.014441 2.096850 0.053254 -0.003676 129870.000000 0 0 1
32.766466 -0.874604 -18.890881 37.832151 -0.026686 2.093626 0.051386 0.000088 621443.000000 0 0 1
31.760006 -1.939504 -18.264781 36.688716 -0.060992 2.091892 0.047025 -0.002658 619206.000000 0 0 1
31.761996 -1.984604 -16.882581 36.024778 -0.062402 2.058545 0.050675 -0.008446 -981473.000000 0 0 1
30.540706 -1.617704 -16.369681 34.688877 -0.052919 2.062241 0.043088 -0.008985 -1193450.000000 0 0 1
30.212066 -2.162304 -14.986481 33.794069 -0.071449 2.030257 0.046284 -0.016348 -373705.000000 0 0 1
29.897836 -3.501704 -15.032681 33.647051 -0.116591 2.033954 0.042982 -0.017984 454646.000000 0 0 1
29.085856 -3.785804 -13.895281 32.456096 -0.129432 2.013214 0.044694 -0.017826 -109033.000000 0 0 1
28.877566 -5.283804 -13.737881 32.412371 -0.180971 2.008485 0.043887 -0.016961 -433197.000000 0 0 1
27.948856 -5.908404 -14.558681 32.062486 -0.208333 2.042127 0.038696 -0.016460 63107.800000 0 0 1
27.878146 -7.293504 -14.186081 32.119015 -0.255886 2.028258 0.042405 -0.016220 -237473.000000 0 0 1
27.282226 -8.208204 -15.302881 32.339955 -0.292248 2.063702 0.034959 -0.007057 59585.800000 0 0 1
25.965126 -7.783704 -15.589281 31.269786 -0.291251 2.092712 0.047713 -0.015110 279583.000000 0 0 1
25.278626 -8.584804 -16.549981 31.410344 -0.327386 2.125741 0.039504 -0.009609 316281.000000 0 0 1
23.837126 -8.144504 -16.862081 30.312890 -0.329237 2.160684 0.055430 -0.010595 -32092.300000 0 0 1
23.810026 -7.435504 -18.097181 30.817398 -0.302689 2.198440 0.048458 -0.008836 -86572.400000 0 0 1
22.505926 -7.262804 -18.591381 30.081630 -0.312156 2.237032 0.060322 -0.010373 -86201.300000 0 0 1
22.346926 -7.599404 -20.082781 30.991195 -0.327797 2.275773 0.045530 -0.007037 -49506.000000 0 0 1
23.137726 -6.720304 -20.860681 31.869811 -0.282671 2.284396 0.045437 -0.010075 347244.000000 0 0 1
23.156526 -7.137804 -22.219981 32.877051 -0.299001 2.312915 0.054573 -0.014310 -479778.000000 0 0 1
23.803826 -6.080104 -23.058081 33.693692 -0.250078 2.324500 0.062540 -0.014753 -325467.000000 0 0 1
23.756726 -6.424904 -24.440081 34.683988 -0.264127 2.352726 0.059365 -0.016058 81241.600000 0 0 1
23.702026 -5.255004 -25.249131 35.027414 -0.218182 2.375809 0.071400 -0.027746 -119347.000000 0 0 1
23.469526 -5.620004 -26.706421 35.994945 -0.235034 2.406769 0.088763 -0.026959 150898.000000 0 0 1
22.214726 -6.205604 -27.005141 35.514521 -0.272403 2.434721 0.099563 -0.031932 -120943.000000 0 0 1
21.973226 -6.340104 -28.371961 36.441566 -0.280908 2.463165 0.097099 -0.028377 111873.000000 0 0 1
20.784126 -7.232504 -28.786441 36.234627 -0.334876 2.488891 0.102892 -0.043509 199868.000000 0 0 1
21.014726 -8.589204 -28.421651 36.375588 -0.388004 2.467604 0.081733 -0.030166 19077.800000 0 0 1
20.328526 -9.450304 -29.276991 36.874102 -0.435158 2.488110 0.089925 -0.037476 -317331.000000 0 0 1
20.412926 -10.930404 -28.938791 37.062311 -0.491615 2.466765 0.090054 -0.036351 -223027.000000 0 0 1
19.599526 -11.252204 -27.793241 35.822029 -0.521162 2.458889 0.090479 -0.035883 444640.000000 0 0 1
19.559426 -12.613704 -27.331231 35.898090 -0.572775 2.436199 0.090245 -0.028383 -326886.000000 0 0 1
19.242026 -13.795604 -28.386121 36.964120 -0.622013 2.446411 0.076736 -0.022336 -206682.000000 0 0 1
17.974126 -13.644204 -28.970341 36.722121 -0.649301 2.479825 0.071256 -0.029030 -33406.700000 0 0 1
17.772226 -14.560804 -30.047631 37.824981 -0.686400 2.488792 0.070234 -0.020389 196539.000000 0 0 1
16.386826 -14.620504 -30.778271 37.809908 -0.728495 2.521848 0.066826 -0.026607 608682.000000 0 0 1
15.400626 -15.363004 -30.040941 37.089882 -0.784175 2.514863 0.064326 -0.030612 782573.000000 0 0 1
14.465626 -15.880204 -31.018051 37.730024 -0.831980 2.535895 0.058819 -0.028860 701308.000000 0 0 1
13.246626 -16.644304 -30.361821 37.072175 -0.898582 2.530449 0.058377 -0.027490 459369.000000 0 0 1
13.573226 -17.771504 -29.600241 37.097616 -0.918545 2.494602 0.055444 -0.028443 326375.000000 0 0 1
12.608126 -17.997304 -28.564591 36.038919 -0.959697 2.485864 0.058926 -0.027691 231999.000000 0 0 1
12.792026 -19.398304 -27.958351 36.353810 -0.987813 2.448169 0.055961 -0.025264 349076.000000 0 0 1
14.033326 -19.376604 -27.268591 36.276206 -0.943986 2.421423 0.055577 -0.016187 98299.700000 0 0 1
14.230326 -20.579604 -26.539041 36.473867 -0.965813 2.385639 0.038263 -0.004626 286747.000000 0 0 1
15.247426 -20.517204 -25.339591 35.993535 -0.931692 2.351816 0.035552 0.001483 1101860.000000 0 0 1
16.597726 -20.480404 -25.827831 36.905397 -0.889734 2.345968 0.046842 -0.006528 714539.000000 0 0 1
17.532526 -20.422304 -24.781681 36.586770 -0.861389 2.314937 0.045000 -0.006777 84663.600000 0 0 1
18.897026 -21.120304 -25.018081 37.803032 -0.840899 2.294015 0.022869 0.006140 15086.100000 0 0 1
18.931726 -22.544004 -25.008481 38.627277 -0.872273 2.275005 0.035275 -0.000966 319253.000000 0 0 1
18.715626 -23.176604 -23.749481 38.098130 -0.891485 2.243850 0.030901 -0.000018 -391710.000000 0 0 1
19.072026 -24.663604 -23.856281 39.257582 -0.912558 2.223940 0.029773 -0.001833 -1026940.000000 0 0 1
20.450626 -24.801304 -24.009981 40.122463 -0.881247 2.212321 0.043211 -0.000290 -337118.000000 0 0 1
20.912526 -26.137154 -23.747981 41.042066 -0.895990 2.187839 0.046142 -0.012957 132579.000000 0 0 1
21.125026 -26.440764 -22.249881 40.502320 -0.896692 2.152380 0.062426 -0.008785 -699412.000000 0 0 1
19.929326 -26.657704 -21.551681 39.652064 -0.928832 2.145421 0.050187 -0.001622 -141303.000000 0 0 1
20.130226 -26.696934 -20.187481 39.057480 -0.924723 2.113982 0.045638 -0.004149 -386330.000000 0 0 1
18.874826 -27.072374 -19.396481 38.280491 -0.961953 2.102142 0.043891 -0.000007 -610639.000000 0 0 1
18.545026 -28.463754 -19.537081 39.189295 -0.993345 2.092700 0.039478 0.004397 1108920.000000 0 0 1
17.352826 -28.866944 -18.807981 38.576693 -1.029545 2.080075 0.024141 0.011835 1838380.000000 0 0 1
15.957526 -28.396944 -19.357881 37.891380 -1.058828 2.107002 0.029738 0.012074 344279.000000 0 0 1
15.379326 -27.255994 -18.696381 36.455007 -1.057075 2.109311 0.025329 0.012762 592057.000000 0 0 1
14.172326 -26.778504 -19.300381 35.922804 -1.084029 2.137998 0.030537 0.019062 964754.000000 0 0 1
13.220026 -25.873414 -18.445381 34.415618 -1.098427 2.136440 0.032172 0.008543 -379084.000000 0 0 1
12.827526 -26.666364 -17.315681 34.285175 -1.122433 2.100235 0.039488 0.004150 36730.100000 0 0 1
11.856126 -26.030634 -16.502381 33.022572 -1.143404 2.094084 0.052883 -0.012130 421547.000000 0 0 1
10.380626 -26.026504 -16.983381 32.765402 -1.191283 2.115697 0.066183 -0.003470 -241502.000000 0 0 1
9.689626 -27.224004 -16.751781 33.401459 -1.228855 2.096161 0.080196 -0.001433 -480313.000000 0 0 1
8.312526 -27.003004 -16.599781 32.769087 -1.272165 2.101996 0.077087 0.009598 110702.000000 0 0 1
7.380426 -27.679734 -17.632581 33.638465 -1.310222 2.122547 0.073040 0.016505 -13545.600000 0 0 1
7.383826 -27.069384 -18.889781 33.824492 -1.304501 2.163330 0.071647 0.017596 -142681.000000 0 0 1
6.651826 -27.904214 -19.755881 34.830831 -1.336783 2.173893 0.063725 0.020180 -104359.000000 0 0 1
6.680526 -27.391494 -21.179181 35.263027 -1.331576 2.215055 0.051660 0.007148 -99933.000000 0 0 1
5.922926 -26.223914 -21.429381 34.380127 -1.348664 2.243761 0.064164 -0.000106 -52365.100000 0 0 1
6.096826 -25.626524 -22.739081 34.798791 -1.337228 2.282922 0.048255 -0.006146 22418.800000 0 0 1
4.803726 -24.972404 -23.285381 34.480512 -1.380756 2.312195 0.041363 -0.003644 415752.000000 0 0 1
3.715426 -25.860914 -23.490181 35.133743 -1.428103 2.303112 0.032993 0.001664 169774.000000 0 0 1
2.631026 -25.207534 -24.114581 34.983640 -1.466798 2.331333 0.033252 -0.001030 1071700.000000 0 0 1
1.481326 -26.182624 -24.626481 35.974820 -1.514280 2.324779 0.028140 -0.012033 644168.000000 0 0 1
2.009826 -26.984734 -25.623581 37.266381 -1.496453 2.328946 0.029420 -0.009243 205833.000000 0 0 1
1.013826 -27.728624 -26.294601 38.227091 -1.534250 2.329323 0.029789 -0.019969 -18937.700000 0 0 1
1.588826 -28.677394 -27.364991 39.670645 -1.515449 2.332015 0.030066 -0.021901 -479354.000000 0 0 1
2.057726 -27.983684 -28.477461 39.978577 -1.497395 2.363592 0.034370 -0.025474 -27823.800000 0 0 1
2.499426 -28.813174 -29.500311 41.312401 -1.484267 2.366104 0.029129 -0.025236 215968.000000 0 0 1
4.024826 -29.112714 -29.508881 41.647610 -1.433417 2.358219 0.031167 -0.026123 -210394.000000 0 0 1
4.413026 -30.043314 -28.529451 41.665395 -1.424950 2.325026 0.021263 -0.027035 381815.000000 0 0 1
5.652926 -30.678324 -28.888941 42.516892 -1.388576 2.317836 0.027724 -0.021708 635669.000000 0 0 1
6.139726 -31.726784 -27.851611 42.661427 -1.379640 2.282140 0.041425 -0.026290 218807.000000 0 0 1
5.336626 -32.927944 -27.758341 43.396481 -1.410124 2.264833 0.039507 -0.034255 689466.000000 0 0 1
6.030826 -33.963344 -27.084111 43.856912 -1.395059 2.236428 0.067075 -0.043973 153418.000000 0 0 1
4.918926 33.618181 -26.695261 43.208968 1.425510 2.236761 0.063414 -0.044071 62355.000000 0 0 1
4.149026 33.133899 -27.781261 43.438096 1.446225 2.264722 0.054946 -0.046928 51401.300000 0 0 1
3.089626 32.377745 -27.240131 42.425097 1.475660 2.267999 0.053239 -0.050170 16377.800000 0 0 1
1.777126 32.428775 -28.066251 42.924330 1.516050 2.283464 0.054234 -0.038189 -186550.000000 0 0 1
1.662626 31.652085 -29.231931 43.117567 1.518316 2.315779 0.064535 -0.043563 253384.000000 0 0 1
0.561326 32.034245 -30.051401 43.927151 1.553275 2.324192 0.060605 -0.040440 226174.000000 0 0 1
0.262026 30.988795 -31.158941 43.946031 1.562341 2.358914 0.049313 -0.029175 -421461.000000 0 0 1
1.341926 30.665315 -31.984581 44.330303 1.527064 2.376771 0.063768 -0.029977 -218358.000000 0 0 1
1.073026 29.575445 -32.869111 44.229366 1.534531 2.408564 0.056401 -0.020754 -636463.000000 0 0 1
2.124826 29.381395 -33.933621 44.936309 1.498603 2.426678 0.063903 -0.019828 -287249.000000 0 0 1
2.021426 30.372135 33.545545 45.297421 1.504339 0.736890 0.050337 -0.013182 367324.000000 0 0 1
2.991626 30.118705 32.505857 44.415279 1.471793 0.749746 0.052770 -0.012423 268588.000000 0 0 1
2.519626 29.331655 31.281453 42.956069 1.485105 0.755076 0.052849 -0.004023 -172904.000000 0 0 1
2.172126 27.987255 31.579263 42.252272 1.493340 0.726659 0.061049 -0.012345 451866.000000 0 0 1
3.314626 27.101805 31.546143 41.721143 1.449098 0.713434 0.052814 -0.009124 542767.000000 0 0 1
3.000426 25.578195 31.984793 41.064262 1.454026 0.677893 0.056970 -0.011570 -218266.000000 0 0 1
2.294226 24.919885 30.963413 39.812022 1.478991 0.679733 0.066025 0.000066 15910.100000 0 0 1
2.488326 23.525095 31.050913 39.035639 1.465415 0.651046 0.057999 0.001682 423595.000000 0 0 1
1.526226 22.695285 30.107033 37.733788 1.503649 0.647026 0.049569 0.010790 252504.000000 0 0 1
0.189626 22.627485 30.516463 37.990704 1.562416 0.638046 0.029837 0.009013 -520709.000000 0 0 1
-0.655674 22.366885 29.421153 36.963654 -1.541490 0.650224 0.037552 0.015168 304022.000000 0 0 1
-2.106374 21.965285 29.788783 37.071312 -1.475193 0.637555 0.031170 0.016099 249695.000000 0 0 1
-2.972474 23.049185 30.078863 38.011032 -1.442542 0.657833 0.043218 0.009342 64074.300000 0 0 1
-4.327174 22.624585 30.076103 37.883615 -1.381819 0.653587 0.013016 0.002881 120741.000000 0 0 1
-5.168174 23.777675 30.646293 39.131613 -1.356771 0.671066 -0.013696 -0.005271 -607672.000000 0 0 1
-5.205974 23.864435 32.067393 40.310435 -1.356013 0.650946 -0.010515 -0.004022 50284.300000 0 0 1
-4.728574 25.145055 32.424483 41.303515 -1.384915 0.668052 -0.000472 -0.015527 -120547.000000 0 0 1
-5.109074 25.592545 33.907918 42.788175 -1.373755 0.655964 0.014019 -0.011316 510656.000000 0 0 1
-6.420674 26.128335 34.171155 43.492330 -1.329835 0.666998 0.010254 -0.006594 670706.000000 0 0 1
-6.635474 26.246245 -32.961311 42.653756 -1.323169 2.453982 0.025916 -0.003799 532111.000000 0 0 1
-8.112874 26.683045 -32.691471 42.971338 -1.275632 2.435301 0.047578 -0.004668 547252.000000 0 0 1
-8.451474 28.024155 -33.067341 44.161405 -1.277892 2.417021 0.040171 -0.012191 320956.000000 0 0 1
-9.674374 28.487695 -32.485481 44.276955 -1.243418 2.394530 0.041863 -0.015202 510094.000000 0 0 1
-9.561874 28.916975 -30.930861 43.408974 -1.251448 2.363916 0.046999 -0.008632 123420.000000 0 0 1
-8.782974 30.078385 -30.600691 43.797856 -1.286692 2.344347 0.056077 -0.004440 367891.000000 0 0 1
-8.916374 30.287055 -29.192161 42.999880 -1.284489 2.317045 0.066851 -0.009817 -215133.000000 0 0 1
-8.340474 31.593605 -28.741821 43.517946 -1.312692 2.292226 0.060661 -0.021895 674150.000000 0 0 1
-6.906874 31.630485 -28.676501 43.249673 -1.355810 2.295676 0.050974 -0.027369 371841.000000 0 0 1
-6.462274 32.945405 -28.408431 43.979537 -1.377104 2.273059 0.054743 -0.016165 -1314800.000000 0 0 1
-4.967274 32.814525 -28.244101 43.579767 -1.420563 2.275885 0.061157 -0.021839 -1255380.000000 0 0 1
-4.300674 34.011041 -27.840471 44.162637 -1.445015 2.252875 0.062524 -0.026146 -49998.900000 0 0 1
-4.068674 -33.547444 -28.846851 44.431137 1.450105 2.277392 0.062884 -0.032683 -154252.000000 0 0 1
-2.969174 -33.847274 -29.924341 45.276044 1.483298 2.292855 0.066635 -0.037863 20807.600000 0 0 1
-3.392674 33.696111 -30.857291 45.816051 -1.470450 2.309735 0.062675 -0.037431 372399.000000 0 0 1
-4.361674 34.192189 -31.780541 46.884249 -1.443918 2.315632 0.066814 -0.028905 451276.000000 0 0 1
-3.690774 -33.570444 -32.956181 47.187990 1.461295 2.343958 0.050867 -0.017418 200445.000000 0 0 1
-3.176374 -32.284024 -32.606231 45.994716 1.472724 2.358751 0.071246 -0.026970 -28861.800000 0 0 1
-2.587874 -31.633874 -33.675191 46.275453 1.489171 2.385776 0.052166 -0.023311 -120750.000000 0 0 1
31.935776 19.321096 12.370423 39.322079 0.544087 1.250769 0.071663 -0.010656 -198802.000000 0 0 1
33.129596 18.707296 12.776723 40.134495 0.514037 1.246810 0.065189 -0.023150 15545.200000 0 0 1
32.840576 17.352296 13.131523 39.395971 0.486093 1.230972 0.072329 -0.014199 -867306.000000 0 0 1
33.990556 16.577596 13.718023 40.228830 0.453769 1.222816 0.090561 -0.030416 -476327.000000 0 0 1
34.963136 16.212396 12.745323 40.591944 0.434188 1.251407 0.100694 -0.010082 58143.000000 0 0 1
35.934136 15.394696 13.321023 41.300224 0.404759 1.242383 0.094457 -0.010692 -207125.000000 0 0 1
-35.638633 14.595596 12.410423 40.461861 -0.388707 1.259052 0.096758 -0.011458 729872.000000 0 0 1
-34.628192 13.751096 12.969523 39.451399 -0.378010 1.235820 0.082592 -0.011025 354790.000000 0 0 1
-35.169001 12.509296 13.182723 39.586933 -0.341736 1.231306 0.083278 -0.015701 -348104.000000 0 0 1
-34.427184 11.721496 14.200223 39.041911 -0.328162 1.198541 0.081596 -0.018781 -344380.000000 0 0 1
-34.545525 12.278296 15.440923 39.781553 -0.341498 1.172181 0.086037 -0.020808 59870.000000 0 0 1
-33.822614 11.653296 16.472423 39.384124 -0.331804 1.139278 0.075379 -0.016772 -245477.000000 0 0 1
-33.842804 12.365496 17.880823 40.223932 -0.350310 1.110145 0.072717 -0.015519 893274.000000 0 0 1
-35.157671 12.505796 18.476623 41.639433 -0.341749 1.111041 0.075680 -0.018475 1009110.000000 0 0 1
-35.056140 13.318596 19.604923 42.316320 -0.363079 1.089087 0.072577 -0.018670 -208698.000000 0 0 1
-36.200254 13.310296 20.628723 43.739760 -0.352342 1.079665 0.076542 -0.027100 -136788.000000 0 0 1
35.984856 12.037496 21.236923 43.483538 0.322814 1.060553 0.066562 -0.008902 3368.670000 0 0 1
34.939376 12.161096 22.167123 43.128107 0.334948 1.030974 0.064018 -0.021594 18926.000000 0 0 1
34.630726 10.831696 22.937623 42.927234 0.303137 1.007073 0.051182 -0.010498 640059.000000 0 0 1
35.653586 10.550596 23.930303 44.217109 0.287709 0.998933 0.055544 -0.002404 971834.000000 0 0 1
35.428906 11.249096 25.155673 44.883822 0.307444 0.975853 0.057405 -0.009446 -495575.000000 0 0 1
-35.747225 11.263096 25.921613 45.570291 -0.305230 0.965717 0.063445 -0.015004 179699.000000 0 0 1
-34.846502 12.325296 25.794553 45.072726 -0.339969 0.961504 0.057680 -0.020590 319259.000000 0 0 1
-34.160139 12.436996 24.556303 43.870332 -0.349162 0.976715 0.061838 -0.018472 -460706.000000 0 0 1
-33.254084 13.663296 24.217533 43.347534 -0.389847 0.977999 0.053473 -0.017855 423558.000000 0 0 1
-32.218524 13.913696 25.143083 43.171737 -0.407662 0.949122 0.041657 -0.021673 53638.700000 0 0 1
-32.729894 14.414796 26.343903 44.418842 -0.414856 0.935918 0.045218 -0.022002 -725968.000000 0 0 1
-31.630064 14.979196 27.246353 44.353140 -0.442285 0.909292 0.040334 -0.019354 -301787.000000 0 0 1
-31.058224 16.153596 26.762383 44.065600 -0.479603 0.918100 0.051705 -0.027422 -580840.000000 0 0 1
-30.432914 16.874596 27.779183 44.526366 -0.506280 0.897097 0.055256 -0.032002 -320996.000000 0 0 1
-29.923714 18.185896 27.196083 44.337145 -0.546093 0.910447 0.060020 -0.024072 195127.000000 0 0 1
-30.972474 18.972296 26.595613 45.017428 -0.549599 0.938765 0.048140 -0.042327 640779.000000 0 0 1
-30.491334 20.270196 26.285243 45.072345 -0.586699 0.948160 0.052283 -0.044217 -59857.500000 0 0 1
-31.402474 21.181596 25.394973 45.603509 -0.593420 0.980190 0.067594 -0.025213 228835.000000 0 0 1
-32.571404 21.614796 26.093533 46.999662 -0.585885 0.982210 0.059734 -0.026847 934581.000000 0 0 1
-33.461304 22.445296 25.337503 47.596630 -0.590847 1.009436 0.061114 -0.014223 195835.000000 0 0 1
-33.177154 23.976696 25.518673 48.237000 -0.625790 1.013343 0.057510 -0.023307 156711.000000 0 0 1
-34.204406 24.704196 24.861773 48.972915 -0.625505 1.038325 0.063766 -0.019088 295043.000000 0 0 1
-33.906454 26.039496 24.754923 49.401510 -0.654910 1.045931 0.067915 -0.021718 181609.000000 0 0 1
-34.647277 26.709296 23.555033 49.685610 -0.656738 1.076876 0.078584 -0.017210 170031.000000 0 0 1
-34.248400 26.188196 22.273423 48.527105 -0.652814 1.093939 0.081494 -0.014759 378495.000000 0 0 1
-35.101950 26.778996 21.278123 49.010407 -0.651701 1.121696 0.091442 -0.015369 346483.000000 0 0 1
-34.742849 26.574296 19.814123 48.019353 -0.652960 1.145459 0.091573 -0.033417 -28613.600000 0 0 1
-34.893495 25.232496 19.344223 47.206290 -0.626081 1.148583 0.095637 -0.032422 -55653.000000 0 0 1
-34.153091 25.039596 18.187423 46.089015 -0.632634 1.165147 0.104816 -0.029848 -122889.000000 0 0 1
-34.536175 23.650496 17.499023 45.368592 -0.600454 1.174821 0.082150 -0.019934 979256.000000 0 0 1
-35.879197 23.577996 16.995723 46.174595 -0.581385 1.193858 0.099127 -0.026084 472914.000000 0 0 1
-36.055874 22.411396 16.147323 45.420620 -0.556132 1.207340 0.070670 -0.024289 347716.000000 0 0 1
35.102686 22.410696 15.378323 44.395165 0.568200 1.217069 0.081237 -0.018272 475129.000000 0 0 1
34.042466 21.766796 16.063123 43.482259 0.568888 1.192414 0.081086 -0.027261 77279.900000 0 0 1
32.900546 21.818696 15.209223 42.306287 0.585579 1.203061 0.072736 -0.025053 389206.000000 0 0 1
31.675426 20.936296 15.678823 41.079029 0.584044 1.179189 0.065280 -0.026359 867724.000000 0 0 1
30.929916 21.382596 16.796923 41.182663 0.604879 1.150683 0.063823 -0.022435 273738.000000 0 0 1
30.016816 22.423796 16.441823 40.916616 0.641605 1.157274 0.062002 -0.008102 -171625.000000 0 0 1
29.224966 22.994396 17.664823 41.169004 0.666644 1.127322 0.057037 -0.006987 302313.000000 0 0 1
30.005516 23.753296 18.583423 42.542845 0.669617 1.118740 0.044315 -0.005164 -624348.000000 0 0 1
29.251436 24.203396 19.630423 42.741133 0.691242 1.093605 0.039942 0.004746 -591866.000000 0 0 1
30.050546 24.818696 20.746023 44.152016 0.690334 1.081645 0.045187 0.001398 -483085.000000 0 0 1
30.714166 25.969196 20.336823 45.070451 0.701883 1.102661 0.066444 -0.005331 -91053.600000 0 0 1
31.553286 26.458896 21.362023 46.389860 0.697807 1.092250 0.064775 -0.006242 -826009.000000 0 0 1
32.524816 27.510396 20.838823 47.423012 0.702067 1.115839 0.088125 -0.014253 1213800.000000 0 0 1
33.705246 27.755396 21.698623 48.756906 0.688891 1.109581 0.087319 -0.007368 1674200.000000 0 0 1
33.374886 28.467496 22.845123 49.458882 0.706211 1.090659 0.068157 -0.007778 181601.000000 0 0 1
34.550096 28.606396 23.879463 50.815980 0.691564 1.081596 0.065717 -0.015016 131828.000000 0 0 1
35.696356 29.301396 23.538733 51.835062 0.687326 1.099425 0.095421 -0.018412 -583006.000000 0 0 1
-36.196964 29.803296 24.722433 53.006182 -0.688826 1.085572 0.097801 -0.017352 204248.000000 0 0 1
-35.004396 30.740196 24.415023 52.596204 -0.720629 1.088068 0.112682 -0.017292 1135810.000000 0 0 1
-33.794164 30.081696 23.961493 51.196749 -0.727343 1.083739 0.092778 -0.017381 1945970.000000 0 0 1
-32.679664 31.015696 23.807393 50.958079 -0.759280 1.084680 0.086920 -0.016215 2089010.000000 0 0 1
-31.207454 30.453896 23.713853 49.635590 -0.773178 1.072694 0.070873 -0.012052 1091200.000000 0 0 1
-30.744934 29.988296 22.434723 48.454779 -0.772940 1.089416 0.046931 -0.006992 382763.000000 0 0 1
-31.395194 28.803996 21.895123 47.903286 -0.742381 1.096099 0.059656 -0.005126 12965.000000 0 0 1
-30.864534 27.525796 22.576423 47.116704 -0.728281 1.071099 0.053912 -0.007486 -110455.000000 0 0 1
-29.469674 27.326996 22.407223 46.014237 -0.747691 1.062187 0.002177 -0.006511 233613.000000 0 0 1
-28.937594 26.294696 23.245123 45.487703 -0.737584 1.034425 0.011161 -0.012193 25668.000000 0 0 1
-28.708084 26.633696 24.764133 46.333251 -0.747932 1.006906 0.031595 -0.011853 -539216.000000 0 0 1
-29.886144 26.780596 25.533903 47.564295 -0.730649 1.004122 0.029832 -0.007547 8537.290000 0 0 1
-29.646564 27.462496 26.766713 48.472305 -0.747173 0.985788 0.047717 -0.008602 -439443.000000 0 0 1
-30.964004 27.871396 27.445053 49.888026 -0.732883 0.988273 0.055840 -0.019474 92532.600000 0 0 1
-31.563534 26.656496 27.945123 49.877403 -0.701313 0.976077 0.036378 -0.015432 -408344.000000 0 0 1
-32.560974 26.868396 28.880193 51.148737 -0.689902 0.970809 0.038861 -0.011624 -557286.000000 0 0 1
-33.247114 25.583296 29.381183 51.216497 -0.655858 0.959821 0.035470 -0.015781 -95623.300000 0 0 1
-32.501634 24.896496 30.328223 50.950886 -0.653667 0.933227 0.027974 -0.015773 -86958.700000 0 0 1
-33.130804 23.648896 30.615123 50.933351 -0.619930 0.925942 0.028074 -0.025700 540658.000000 0 0 1
-32.369934 22.820596 31.754783 50.763752 -0.614070 0.894972 0.037146 -0.030252 334520.000000 0 0 1
-31.199714 22.132196 31.295413 49.423265 -0.616988 0.885100 0.040434 -0.023235 239792.000000 0 0 1
-30.766774 21.215996 32.296563 49.394138 -0.603695 0.858129 0.038920 -0.021825 253715.000000 0 0 1
-29.789574 21.747896 33.384210 49.748318 -0.630611 0.835156 0.030135 -0.024134 -331619.000000 0 0 1
-30.452334 22.602496 -34.213410 51.076167 -0.638507 2.304804 0.048395 -0.027041 137741.000000 0 0 1
-30.262344 22.381696 -32.806091 49.929844 -0.636805 2.287687 0.036351 -0.020255 -177170.000000 0 0 1
-28.881894 22.736296 -32.208451 48.872152 -0.666897 2.290331 0.060443 -0.030710 -248840.000000 0 0 1
-28.679074 24.138396 -31.970551 49.267307 -0.699640 2.276961 0.049967 -0.026583 333054.000000 0 0 1
-27.785594 24.360096 -30.865631 48.147073 -0.719801 2.266688 0.074267 -0.023145 -37555.900000 0 0 1
-28.087714 25.623896 -29.969981 48.411811 -0.739559 2.238346 0.045624 -0.017563 -222222.000000 0 0 1
-28.156414 26.915096 -30.568611 49.514099 -0.762862 2.236194 0.039694 -0.013633 595768.000000 0 0 1
-29.277934 27.232596 -31.420601 50.853376 -0.749220 2.236823 0.023265 -0.006948 317933.000000 0 0 1
-29.139814 28.598996 -32.120291 51.949441 -0.776032 2.237373 0.029368 -0.004449 -70657.900000 0 0 1
-29.486024 29.600196 -31.212191 52.151683 -0.787330 2.212410 0.013493 -0.008849 -113839.000000 0 0 1
-28.942814 30.810896 -31.654611 52.811099 -0.816651 2.213539 0.031908 -0.023846 -11809.000000 0 0 1
-29.310804 31.992396 -30.763361 53.188542 -0.829113 2.187542 0.023362 -0.008842 315299.000000 0 0 1
-28.423914 32.122396 -29.658301 52.147694 -0.846408 2.175765 0.014858 -0.007134 82436.600000 0 0 1
-28.804794 33.236196 -28.890371 52.621425 -0.856704 2.151991 0.005295 -0.004375 -376509.000000 0 0 1
-28.028674 33.485396 -27.567991 51.641770 -0.873873 2.133921 -0.005175 -0.002653 -282611.000000 0 0 1
-26.686654 33.851796 -27.767581 51.275336 -0.903207 2.143063 0.016983 -0.003313 -110674.000000 0 0 1
-26.330714 -33.326294 -28.096811 50.925231 0.902128 2.155229 0.013611 0.011275 -489648.000000 0 0 1
-26.740844 -32.242194 -27.103481 49.892189 0.878399 2.145089 -0.000562 0.013691 354615.000000 0 0 1
-28.148564 -32.092694 -26.917931 50.466401 0.850777 2.133392 -0.019084 0.008702 275449.000000 0 0 1
-28.379654 -31.290194 -25.798331 49.497827 0.834137 2.119054 -0.019017 0.013144 439650.000000 0 0 1
-29.903984 -31.043794 -25.603691 50.134962 0.804097 2.106790 -0.016177 0.011874 335476.000000 0 0 1
-30.464304 -30.178094 -26.571741 50.446492 0.780679 2.125547 -0.005367 0.011380 -573186.000000 0 0 1
-31.851424 -30.299594 -26.473051 51.316674 0.760435 2.112826 0.000798 0.004926 -892510.000000 0 0 1
-32.486134 -29.327494 -27.490811 51.683609 0.734343 2.131646 0.012266 -0.005452 624257.000000 0 0 1
-33.918744 -29.430394 -27.419821 52.616308 0.714665 2.118968 0.013092 -0.005611 586392.000000 0 0 1
-34.491585 -28.498594 -28.319451 52.951210 0.690542 2.135093 0.035421 -0.013158 -215488.000000 0 0 1
-36.006265 -28.526894 -28.489821 54.054645 0.670013 2.125929 0.045554 -0.018455 44947.800000 0 0 1
35.714176 -28.151694 -27.357941 53.070493 -0.667535 2.112390 0.028945 -0.013541 -424554.000000 0 0 1
34.350866 -28.243294 -27.639971 52.360612 -0.688132 2.126895 0.036417 -0.019376 -157665.000000 0 0 1
33.465956 -27.515594 -26.571631 50.824499 -0.688130 2.120942 0.041259 -0.015066 -6412.820000 0 0 1
33.413446 -28.233094 -25.321701 50.544580 -0.701562 2.095524 0.036729 -0.008303 651390.000000 0 0 1
32.491066 -27.637894 -24.380281 49.131667 -0.704860 2.090040 0.039946 -0.004574 437257.000000 0 0 1
32.323036 -28.376094 -23.048481 48.797683 -0.720465 2.062726 0.033118 0.005098 -46392.500000 0 0 1
31.737696 -29.651694 -23.205281 49.244181 -0.751431 2.061480 0.050747 -0.001057 -40312.300000 0 0 1
31.356986 -30.365094 -22.030381 48.894143 -0.769329 2.038203 0.058831 -0.007797 198857.000000 0 0 1
32.472786 -30.523494 -20.923081 49.233534 -0.754465 2.009732 0.048560 0.001002 555031.000000 0 0 1
33.600496 -31.270694 -21.435181 50.658826 -0.749499 2.007691 0.030395 -0.001057 1094710.000000 0 0 1
34.772176 -31.307294 -20.621081 51.131985 -0.733011 1.985907 0.023230 0.002730 871001.000000 0 0 1
35.648296 -30.026294 -20.706481 51.001350 -0.700002 1.988868 0.012144 0.004315 -128179.000000 0 0 1
34.958996 -28.871994 -20.134381 49.609644 -0.690324 1.988712 0.018265 0.002924 305607.000000 0 0 1
35.531426 -27.658094 -20.591181 49.512111 -0.661438 1.999708 0.006416 0.001196 -416865.000000 0 0 1
34.771116 -26.453094 -20.151881 48.113356 -0.650363 2.002966 0.010338 0.000843 -802049.000000 0 0 1
33.614696 -26.275994 -20.904481 47.511820 -0.663471 2.026378 0.023750 -0.001254 -7997.790000 0 0 1
32.667786 -25.532294 -20.081281 46.068863 -0.663404 2.021831 0.049488 -0.006841 684543.000000 0 0 1
31.366326 -25.132794 -20.830681 45.270532 -0.675513 2.048947 0.044924 -0.008696 835790.000000 0 0 1
30.525196 -26.259594 -21.183781 45.498423 -0.710420 2.055102 0.057360 -0.007894 245379.000000 0 0 1
29.334976 -25.951594 -21.861681 44.854868 -0.724277 2.079891 0.055022 -0.013801 -55265.200000 0 0 1
28.736686 -27.209994 -22.497181 45.522567 -0.758117 2.087709 0.058765 -0.015340 -147171.000000 0 0 1
28.365496 -28.195994 -21.540581 45.426997 -0.782401 2.064829 0.060970 -0.010789 -16511.000000 0 0 1
27.720256 -29.325894 -22.152381 46.034212 -0.813537 2.072837 0.062852 -0.009994 414652.000000 0 0 1
26.824526 -30.105294 -21.076081 45.498188 -0.842963 2.052432 0.072369 -0.000226 174541.000000 0 0 1
27.407526 -30.770594 -19.965781 45.789020 -0.843140 2.021988 0.076861 -0.003852 -197541.000000 0 0 1
28.279046 -31.844394 -20.234281 47.150780 -0.844629 2.014337 0.077712 -0.002997 202285.000000 0 0 1
29.186496 -32.366994 -19.048081 47.563676 -0.837023 1.982832 0.055871 0.002421 65996.700000 0 0 1
28.657306 -32.979694 -17.881181 47.208453 -0.855410 1.959264 0.063815 0.001076 -302186.000000 0 0 1
27.989326 -32.058594 -17.050081 45.846059 -0.853062 1.951850 0.047009 0.001768 -151452.000000 0 0 1
27.417926 -32.634194 -15.733981 45.434474 -0.872043 1.924421 0.048208 0.004567 862124.000000 0 0 1
26.183626 -33.369994 -15.950181 45.316080 -0.905488 1.930478 0.048798 0.008193 829988.000000 0 0 1
25.842826 -34.073194 -14.828281 45.262701 -0.921909 1.904564 0.043045 0.005716 853237.000000 0 0 1
24.306426 34.110996 -14.761881 44.410309 0.951685 1.909641 0.035241 0.002552 1266260.000000 0 0 1
23.484926 -33.303594 -14.590281 43.284494 -0.956604 1.914609 0.035273 0.011209 451311.000000 0 0 1
22.172826 -33.544094 -14.093881 42.608426 -0.986723 1.907923 0.030156 0.002403 479440.000000 0 0 1
-0.770004 -7.346704 -28.607361 29.545694 1.466368 2.888894 0.032235 -0.015602 154981.000000 0 0 1
-0.327504 -8.676704 -28.687131 29.972386 1.533069 2.847683 0.040330 -0.010308 -80946.300000 0 0 1
-0.375504 -9.168304 -30.017051 31.388248 1.529862 2.844921 0.025104 -0.011677 -182499.000000 0 0 1
-0.144504 -10.712104 -30.006951 31.862002 1.557307 2.798678 0.039525 -0.006943 -219137.000000 0 0 1
1.148496 -10.954904 -29.532191 31.519506 -1.466339 2.784593 0.020047 -0.011494 -516174.000000 0 0 1
1.342796 -12.280904 -29.152531 31.662182 -1.461889 2.740761 0.028446 -0.009696 -658831.000000 0 0 1
2.779796 -12.515804 -28.747291 31.476648 -1.352241 2.722085 0.029774 -0.007498 -946472.000000 0 0 1
3.699096 -12.583304 -29.853891 32.607938 -1.284882 2.727646 0.036721 -0.011839 802894.000000 0 0 1
5.035096 -12.922904 -29.449601 32.551999 -1.199265 2.701457 0.055501 -0.018030 899642.000000 0 0 1
5.365096 -14.304104 -28.897171 32.686972 -1.211961 2.655270 0.058168 -0.024961 -1027110.000000 0 0 1
4.733796 -14.564804 -27.662231 31.618687 -1.256550 2.635963 0.054396 -0.019898 -268719.000000 0 0 1
5.383596 -15.565504 -26.943811 31.579059 -1.237808 2.592920 0.064740 -0.018225 -178079.000000 0 0 1
5.350096 -17.088904 -27.387591 32.722077 -1.267388 2.562530 0.055091 -0.019424 -73904.600000 0 0 1
5.854996 -17.532404 -28.660341 34.103978 -1.248488 2.568782 0.063261 -0.032665 240372.000000 0 0 1
5.411696 -18.863204 -28.855711 34.896403 -1.291408 2.544362 0.054255 -0.032140 -401630.000000 0 0 1
5.638296 -19.366604 -30.284851 36.387195 -1.287492 2.554030 0.060451 -0.031772 -395960.000000 0 0 1
6.988796 -19.508204 -30.624831 36.976933 -1.226792 2.546710 0.062436 -0.031529 -345450.000000 0 0 1
7.162896 -20.162904 -31.846831 38.367570 -1.229451 2.549986 0.064683 -0.032140 -765055.000000 0 0 1
8.597696 -20.065204 -32.316061 38.998213 -1.165975 2.547497 0.068507 -0.026487 -718942.000000 0 0 1
8.880896 -18.809804 -32.821381 38.857716 -1.129683 2.576717 0.068944 -0.023162 61087.100000 0 0 1
10.109796 -18.805904 -33.520431 39.742789 -1.077534 2.574440 0.060194 -0.021103 -63306.300000 0 0 1
10.520496 -17.433604 -34.118150 39.732349 -1.027836 2.603523 0.057658 -0.014615 -510437.000000 0 0 1
9.712796 -17.129504 33.292495 38.680080 -1.054979 0.534125 0.077321 -0.017454 82134.300000 0 0 1
9.940096 -15.807804 32.793474 37.737304 -1.009462 0.517632 0.060471 -0.013588 92807.900000 0 0 1
8.845096 -15.296004 31.817413 36.394385 -1.046514 0.506929 0.075141 -0.022687 98970.400000 0 0 1
8.953996 -15.780204 30.538673 35.521817 -1.054678 0.536083 0.066506 -0.021245 -350074.000000 0 0 1
7.889896 -15.390204 29.726503 34.391479 -1.097074 0.526927 0.070886 -0.017582 -559279.000000 0 0 1
7.763496 -16.114604 28.361143 33.530684 -1.121841 0.562684 0.070639 -0.007863 -525188.000000 0 0 1
7.341596 -17.423604 28.539623 34.234356 -1.172014 0.585104 0.075623 -0.015377 189783.000000 0 0 1
7.317096 -18.265504 27.404383 33.736757 -1.189776 0.622711 0.074090 -0.014276 -247226.000000 0 0 1
6.792896 -19.630604 27.772633 34.681742 -1.237657 0.642191 0.069325 -0.014047 -315714.000000 0 0 1
7.699696 -20.332304 28.601193 35.926539 -1.208792 0.649970 0.078887 -0.015630 219997.000000 0 0 1
7.109496 -21.412104 29.303253 36.982480 -1.250218 0.656137 0.064670 -0.011862 -57296.600000 0 0 1
7.619496 -21.649204 30.776173 38.391635 -1.232383 0.640767 0.067709 -0.018292 95404.100000 0 0 1
7.097496 -20.735304 31.770723 38.596712 -1.241006 0.603867 0.076071 -0.027582 273142.000000 0 0 1
7.199796 -19.296804 31.536653 37.666487 -1.213685 0.578543 0.071942 -0.025326 -60.593000 0 0 1
6.538096 -18.496304 32.729959 38.159012 -1.231024 0.539967 0.074350 -0.024182 508478.000000 0 0 1
5.136396 -18.689604 32.839363 38.132764 -1.302592 0.533200 0.080308 -0.029532 -299398.000000 0 0 1
4.642196 -17.856704 33.828868 38.533157 -1.316457 0.499304 0.075825 -0.027312 245404.000000 0 0 1
3.107096 -18.105104 33.935018 38.588007 -1.400838 0.496156 0.071348 -0.027647 428066.000000 0 0 1
2.683796 -19.183604 -33.756361 38.919215 -1.431798 2.620638 0.064288 -0.030958 14215.500000 0 0 1
2.299296 -18.803804 -32.461681 37.584978 -1.449122 2.613337 0.051437 -0.035914 -205872.000000 0 0 1
1.774396 -20.015104 -31.698541 37.530659 -1.482375 2.576621 0.046888 -0.020966 -239861.000000 0 0 1
0.603296 -20.648704 -32.213781 38.268272 -1.541588 2.571384 0.038395 -0.015019 668192.000000 0 0 1
0.006096 -21.560404 -31.239101 37.956982 -1.570514 2.537492 0.036746 -0.015829 596322.000000 0 0 1
-0.742004 -20.882704 -30.027431 36.582571 1.535279 2.533628 0.036654 -0.013413 -540166.000000 0 0 1
-1.914904 -20.203904 -30.412791 36.562309 1.476300 2.553152 0.042217 -0.021745 -122921.000000 0 0 1
-2.335304 -19.126104 -29.536391 35.265562 1.449297 2.563565 0.043401 -0.011012 -4949.230000 0 0 1
-1.778104 -17.702504 -29.885071 34.780135 1.470688 2.604612 0.031486 -0.011266 -235778.000000 0 0 1
-2.193404 -16.678704 -29.004211 33.529605 1.440037 2.616012 0.039528 -0.011273 -292732.000000 0 0 1
-2.123804 -15.522504 -29.794521 33.662622 1.434820 2.657488 0.044900 -0.014641 13199.400000 0 0 1
-3.026604 -14.344404 -29.290951 32.754878 1.362851 2.677542 0.037360 -0.002939 294853.000000 0 0 1
-2.752604 -13.865204 -28.019131 31.382996 1.374818 2.674347 0.031067 -0.007909 -125113.000000 0 0 1
-3.641504 -12.814604 -27.695831 30.733267 1.293927 2.693252 0.018427 -0.010222 100152.000000 0 0 1
-3.837804 -12.562904 -26.206141 29.314111 1.274313 2.676939 0.025276 -0.012384 -114469.000000 0 0 1
-4.426904 -13.718104 -25.582631 29.364177 1.258641 2.628477 0.025198 -0.009735 338493.000000 0 0 1
-4.642104 -13.759904 -24.137881 28.169512 1.245422 2.599982 0.018340 -0.007161 -577935.000000 0 0 1
-5.552804 -12.750304 -23.475581 27.285652 1.160063 2.606779 0.025642 -0.011678 -1341250.000000 0 0 1
-6.866404 -12.966804 -23.831381 27.986072 1.083799 2.589720 0.027260 -0.007461 -1001830.000000 0 0 1
-7.737004 -11.971004 -23.336381 27.345070 0.997018 2.593277 0.011011 -0.005692 1773360.000000 0 0 1
-9.276004 -12.155904 -23.755881 28.251586 0.918972 2.569683 0.040314 -0.007754 1596400.000000 0 0 1
-9.885204 -13.289404 -23.187081 28.495021 0.931249 2.521327 0.030854 -0.011691 -189008.000000 0 0 1
-10.137404 -14.263704 -24.217881 29.878520 0.952916 2.515878 0.045061 -0.018786 12560.500000 0 0 1
-11.139104 -15.387604 -23.837481 30.480871 0.944209 2.468740 0.041283 -0.028242 -369961.000000 0 0 1
-10.639804 -16.410904 -23.009981 30.199047 0.995591 2.437106 0.042433 -0.017627 -154458.000000 0 0 1
-11.641004 -17.269804 -22.438281 30.614303 0.977688 2.393422 0.049069 -0.020430 193814.000000 0 0 1
-12.249104 -18.311904 -23.308281 32.072455 0.981239 2.384358 0.047615 -0.007432 -79885.800000 0 0 1
-13.116804 -17.767504 -24.282381 32.823296 0.934860 2.403556 0.047684 0.001516 1229.440000 0 0 1
-14.048404 -18.763404 -24.697381 34.049723 0.928119 2.382314 0.034715 -0.012516 689137.000000 0 0 1
-15.296604 -18.212204 -25.482221 34.857052 0.872190 2.390655 0.048727 -0.018758 558485.000000 0 0 1
-16.216104 -17.578004 -24.598581 34.307994 0.825676 2.370275 0.043524 -0.007214 144585.000000 0 0 1
-17.326904 -17.135704 -25.359741 35.170590 0.779850 2.376112 0.021511 -0.006627 349991.000000 0 0 1
-18.083804 -15.870604 -24.835781 34.579127 0.720309 2.372052 0.034361 -0.008141 54096.200000 0 0 1
-18.880104 -16.004304 -23.684581 34.257196 0.703146 2.334187 0.025769 -0.005809 -142461.000000 0 0 1
-19.556904 -14.806904 -23.510481 33.977340 0.648042 2.334977 0.044034 -0.010815 -280503.000000 0 0 1
-20.158804 -14.688904 -22.088081 33.317032 0.629703 2.295571 0.030668 -0.013158 13809.000000 0 0 1
-19.240304 -14.358804 -21.036481 31.920183 0.641121 2.290330 0.045926 -0.007915 416716.000000 0 0 1
-19.715404 -14.473504 -19.683881 31.394819 0.633261 2.248465 0.031921 -0.011647 207218.000000 0 0 1
-20.637304 -13.405904 -18.991981 31.085558 0.576091 2.228067 0.026023 -0.025835 -347415.000000 0 0 1
-21.836704 -13.094604 -19.609381 32.137799 0.540170 2.227066 0.038510 -0.030637 -514470.000000 0 0 1
-22.388404 -11.948404 -18.935981 31.663486 0.490233 2.211848 0.041862 -0.034574 497252.000000 0 0 1
-23.812104 -11.428404 -19.287181 32.705046 0.447472 2.201522 0.046977 -0.031466 387556.000000 0 0 1
-24.019904 -10.734004 -20.512681 33.360826 0.420256 2.233022 0.039490 -0.030707 759046.000000 0 0 1
-25.413874 -10.364704 -20.544281 34.283517 0.387244 2.213356 0.039411 -0.025422 811835.000000 0 0 1
-25.778584 -9.527704 -21.757181 35.052638 0.354026 2.240432 0.056148 -0.022094 -310692.000000 0 0 1
-25.778454 -10.264204 -22.998181 36.038853 0.378928 2.262889 0.029615 -0.020689 90678.800000 0 0 1
-26.357004 -9.406604 -23.928381 36.820419 0.342801 2.278206 0.022041 -0.017887 -519401.000000 0 0 1
-26.471924 -9.751904 -25.386651 37.951870 0.352960 2.303547 0.018817 -0.012266 -170323.000000 0 0 1
-25.291384 -9.703004 -26.143661 37.646957 0.366331 2.338442 0.001885 -0.020512 -105741.000000 0 0 1
-24.576504 -10.924204 -26.279191 37.602376 0.418269 2.344613 0.015700 -0.018374 -103451.000000 0 0 1
-23.577204 -10.913604 -27.437101 37.786053 0.433520 2.383454 0.022013 -0.018748 -34009.600000 0 0 1
-24.102204 -11.160404 -28.771331 39.156868 0.433649 2.396125 0.023053 -0.008648 281535.000000 0 0 1
-23.070304 -11.029604 -29.730231 39.214509 0.445964 2.431258 0.026458 -0.005908 437612.000000 0 0 1
-23.619504 -11.470004 -31.094951 40.698132 0.452074 2.440346 0.023153 -0.008996 60378.300000 0 0 1
-24.577204 -10.663904 -31.711541 41.513608 0.409380 2.440105 0.029090 -0.015850 -171084.000000 0 0 1
-23.960204 -9.604704 -32.445131 41.461165 0.381248 2.469536 0.029697 -0.020503 -532407.000000 0 0 1
-24.870904 -8.406704 -32.859241 42.059057 0.325957 2.467485 0.029207 -0.014396 -920974.000000 0 0 1
-25.835244 -8.606404 -33.879381 43.466567 0.321564 2.464560 0.050572 -0.016871 384554.000000 0 0 1
-26.980134 -9.289104 -33.427441 43.950073 0.331583 2.434999 0.045717 -0.015216 -881282.000000 0 0 1
-27.944084 -8.460404 -32.542201 43.720077 0.293989 2.410329 0.032430 -0.002505 -1381060.000000 0 0 1
-29.266444 -8.912304 -32.614161 44.717305 0.295601 2.388154 0.033029 -0.001787 173515.000000 0 0 1
-30.157274 -8.361204 -31.611001 44.481752 0.270460 2.361219 0.028634 0.000378 -35197.000000 0 0 1
-31.566214 -8.874004 -31.804281 45.680259 0.274050 2.340938 0.027890 0.000574 -829928.000000 0 0 1
-31.759614 -10.264104 -31.533391 45.917095 0.312586 2.327800 0.028595 -0.006321 1065860.000000 0 0 1
-33.146064 -10.625604 -31.336841 46.835485 0.310219 2.303771 0.022503 -0.005609 933864.000000 0 0 1
-33.378754 -12.144804 -31.437101 47.433414 0.348958 2.295299 0.026709 -0.007853 -330611.000000 0 0 1
-34.713969 -12.543304 -31.285491 48.385701 0.346735 2.273896 0.027015 -0.005596 -436116.000000 0 0 1
-34.873087 -13.934504 -31.421761 48.965597 0.380142 2.267523 0.031793 -0.011826 725472.000000 0 0 1
-36.245824 -14.552204 -30.976901 49.850725 0.381787 2.241316 0.038843 -0.020884 663269.000000 0 0 1
36.062126 -14.603704 -29.598111 48.885512 -0.384775 2.221137 0.039522 -0.019654 -26335.200000 0 0 1
35.836876 -15.880304 -29.167011 48.858779 -0.417124 2.210510 0.047664 -0.015722 -39074.900000 0 0 1
36.105406 -16.010504 -27.634051 48.203500 -0.417383 2.181298 0.065679 -0.015954 498704.000000 0 0 1
-35.056441 -15.878104 -27.202461 47.127933 0.425288 2.186098 0.062590 -0.023647 422418.000000 0 0 1
-34.986714 -15.945504 -25.791931 46.298520 0.427633 2.161661 0.081648 -0.024708 -555229.000000 0 0 1
-33.617194 -15.692304 -25.183181 44.839232 0.436732 2.167154 0.082762 -0.021984 -383720.000000 0 0 1
-32.658264 -16.725104 -25.390631 44.620348 0.473300 2.176131 0.076474 -0.019954 546388.000000 0 0 1
-31.377034 -16.171904 -25.059181 43.289852 0.475896 2.188138 0.074435 -0.015039 805673.000000 0 0 1
-30.173154 -17.151904 -25.177731 42.878027 0.516897 2.198385 0.060700 -0.014605 279178.000000 0 0 1
-30.016394 -18.248504 -24.295281 42.711269 0.546246 2.175874 0.056195 -0.030787 -42797.500000 0 0 1
-30.946134 -19.269404 -24.574881 43.964735 0.556926 2.163937 0.050721 -0.030808 -160887.000000 0 0 1
-30.599514 -20.577504 -23.849481 43.915392 0.592015 2.144895 0.043746 -0.030053 -1315910.000000 0 0 1
-29.387944 -21.148104 -24.077781 43.481411 0.623772 2.157656 0.038328 -0.022033 -1302910.000000 0 0 1
-29.191004 -22.334404 -23.345481 43.542529 0.653103 2.136670 0.025527 -0.019606 121916.000000 0 0 1
-27.759144 -22.947104 -23.462681 42.984149 0.690781 2.148194 0.028895 -0.016653 1126440.000000 0 0 1
-26.623354 -22.237004 -22.927881 41.580946 0.695865 2.154842 0.024760 -0.018089 569979.000000 0 0 1
-26.520594 -21.958704 -21.530881 40.609179 0.691575 2.129630 0.021036 -0.018019 -544468.000000 0 0 1
-26.463814 -23.258204 -20.674381 40.849817 0.721017 2.101461 0.014786 -0.012692 -233731.000000 0 0 1
-26.441334 -22.919204 -19.294781 39.959012 0.714164 2.074719 0.017182 -0.008788 66302.500000 0 0 1
-26.413314 -24.083604 -18.489281 40.243467 0.739295 2.048156 0.013520 0.012774 -187258.000000 0 0 1
-26.328064 -23.782604 -16.956081 39.322867 0.734645 2.016620 0.017292 0.010346 -95413.000000 0 0 1
-27.506194 -23.241604 -16.418081 39.576714 0.701560 1.998565 0.027822 0.002156 -254262.000000 0 0 1
-27.227934 -21.973804 -15.833481 38.404526 0.679014 1.995753 0.028639 -0.004687 618505.000000 0 0 1
-28.458544 -21.321204 -15.102081 38.633604 0.642990 1.972411 0.040991 -0.004146 660684.000000 0 0 1
-29.478024 -20.876604 -15.950481 39.486762 0.616214 1.986622 0.047623 -0.002011 -139989.000000 0 0 1
-30.541624 -20.205004 -15.310981 39.692054 0.584456 1.966811 0.064216 -0.007464 -104123.000000 0 0 1
-31.521694 -19.536404 -16.254681 40.490776 0.554834 1.983887 0.075758 -0.025675 -31851.100000 0 0 1
-32.379524 -20.445704 -16.973081 41.887300 0.563216 1.988003 0.043786 -0.011134 276400.000000 0 0 1
-33.150854 -19.729204 -17.951581 42.549734 0.536834 2.006332 0.043249 -0.015326 148796.000000 0 0 1
-33.780104 -20.639704 -19.041981 43.928235 0.548470 2.019146 0.032507 -0.007699 1228570.000000 0 0 1
-34.872406 -21.544104 -18.696581 45.053249 0.553404 1.998726 0.031673 -0.009800 819691.000000 0 0 1
-34.581846 -22.396804 -17.568481 44.790316 0.574719 1.973860 0.028881 -0.004316 -216947.000000 0 0 1
-35.582492 -23.574904 -17.437181 46.107973 0.585142 1.958627 0.021881 0.011141 -355584.000000 0 0 1
35.611136 -23.271304 -17.146481 45.866202 -0.578820 1.953939 0.023128 0.000859 -748639.000000 0 0 1
34.902946 -24.429504 -16.812981 45.800575 -0.610677 1.946676 0.036532 -0.000558 -77617.300000 0 0 1
33.528396 -24.248904 -16.143181 44.415819 -0.626150 1.942771 0.034554 -0.010879 -12273.900000 0 0 1
32.490196 -23.846604 -17.028281 43.751980 -0.633158 1.970560 0.042834 -0.013560 694837.000000 0 0 1
31.287716 -24.295104 -16.356181 42.856714 -0.660250 1.962375 0.059563 -0.014730 948931.000000 0 0 1
29.956846 -24.396004 -17.148981 42.268963 -0.683443 1.988553 0.057098 -0.024088 238864.000000 0 0 1
29.492796 -23.163304 -17.574081 41.415118 -0.665768 2.009029 0.054222 -0.025009 -837959.000000 0 0 1
28.336356 -23.228204 -18.303581 40.957535 -0.686657 2.034084 0.080062 -0.032421 -940930.000000 0 0 1
34.542426 29.865096 -18.391781 49.227642 0.712905 1.953691 0.033947 -0.014022 -453394.000000 0 0 1
33.619886 29.615996 -19.404681 48.825665 0.722166 1.979508 0.030253 -0.022575 -548630.000000 0 0 1
34.139056 28.973396 -20.532181 49.259550 0.703732 2.000736 0.038594 -0.022787 -494211.000000 0 0 1
33.223946 28.970396 -21.755281 49.156960 0.717113 2.029256 0.034862 -0.023139 -387154.000000 0 0 1
32.021916 28.226296 -21.553481 47.819237 0.722482 2.038377 0.043758 -0.020941 521658.000000 0 0 1
31.075366 28.257896 -22.594781 47.693932 0.737948 2.064335 0.054925 -0.010509 277086.000000 0 0 1
30.169726 29.527996 -22.640881 47.903282 0.774649 2.063077 0.048737 -0.008707 -433174.000000 0 0 1
30.927246 30.719396 -22.775181 49.182158 0.782027 2.052261 0.049295 -0.012944 152477.000000 0 0 1
30.116866 31.869496 -23.066181 49.545324 0.813665 2.055060 0.054471 -0.006313 200267.000000 0 0 1
30.900846 33.179196 -22.834381 50.765444 0.820938 2.037340 0.049688 -0.010373 -100891.000000 0 0 1
31.120626 33.528596 -21.446081 50.523207 0.822628 2.009184 0.056935 -0.004102 1023370.000000 0 0 1
32.399556 33.081696 -20.920181 50.811257 0.795815 1.995141 0.061599 -0.007912 664196.000000 0 0 1
32.635506 33.279096 -19.374781 50.477288 0.795162 1.964739 0.047437 -0.005354 -466035.000000 0 0 1
32.717756 -33.911194 -19.020581 50.815383 -0.803308 1.954446 0.050323 -0.001945 277114.000000 0 0 1
32.639676 -33.769494 -17.614281 50.159646 -0.802409 1.929611 0.034143 -0.008632 -703887.000000 0 0 1
32.583536 -32.316694 -17.100181 48.974195 -0.781287 1.927479 0.036710 0.013823 56812.300000 0 0 1
33.807736 -31.627994 -17.187881 49.383361 -0.752099 1.926287 0.048042 -0.003326 -376315.000000 0 0 1
34.790966 -32.017994 -16.279981 50.006010 -0.743916 1.902401 0.045225 -0.001036 -264552.000000 0 0 1
36.155056 -31.325694 -16.591981 50.633794 -0.713953 1.904650 0.034692 0.003971 250653.000000 0 0 1
-35.600307 -31.909894 -17.609481 50.948180 0.730788 1.923712 0.033611 -0.000933 -639346.000000 0 0 1
-34.425399 -31.173194 -17.841181 49.751220 0.735861 1.937573 0.010819 0.007093 -557749.000000 0 0 1
-33.452434 -31.879494 -18.736681 49.864122 0.761327 1.956007 0.001042 -0.001030 -1245780.000000 0 0 1
-32.864744 -32.992694 -18.139881 49.976640 0.787341 1.942247 0.017125 -0.009006 -27740.500000 0 0 1
-31.928384 -33.600494 -18.988681 50.089768 0.810910 1.959612 0.013005 -0.008502 1020700.000000 0 0 1
-30.531544 -33.009494 -19.423381 48.980298 0.824376 1.978557 0.001108 -0.004708 -381074.000000 0 0 1
-30.633964 -31.868594 -20.322381 48.652299 0.805149 2.001716 -0.008009 0.003656 -466214.000000 0 0 1
-29.444404 -31.422494 -20.918081 47.873919 0.817885 2.022991 -0.001480 0.003577 -540558.000000 0 0 1
-28.744684 -32.515794 -21.772981 48.555086 0.846879 2.035791 -0.006623 0.010614 -1125030.000000 0 0 1
-29.458864 -33.049894 -22.838281 49.816737 0.842784 2.047042 -0.004990 0.019335 -455683.000000 0 0 1
-28.772124 -34.141594 -23.390781 50.404486 0.870538 2.053371 -0.009372 0.013399 -659116.000000 0 0 1
-29.509654 33.736996 -24.489781 51.075962 -0.852138 2.070856 -0.014708 0.007448 -459407.000000 0 0 1
-30.603034 32.889596 -24.104481 50.983303 -0.821396 2.063253 -0.023536 -0.000144 260667.000000 0 0 1
-31.092094 32.168896 -25.208981 51.352204 -0.802418 2.083923 -0.027637 0.003070 9969.140000 0 0 1
-32.144084 32.888196 -26.041881 52.849362 -0.796840 2.086051 -0.019556 -0.007366 -760109.000000 0 0 1
-31.552064 33.800296 -26.953171 53.520708 -0.819786 2.098560 -0.026995 -0.005213 180050.000000 0 0 1
-32.526274 -34.014394 -27.707241 54.613448 0.807759 2.102884 -0.024739 -0.008930 698194.000000 0 0 1
-31.829454 -33.117594 -28.785541 54.207901 0.805229 2.130602 -0.010220 -0.005934 218437.000000 0 0 1
-31.568394 -33.745994 -30.024681 55.107505 0.818726 2.146993 -0.003421 -0.003529 -178885.000000 0 0 1
-32.675514 -33.776794 -30.896311 56.241827 0.801969 2.152380 -0.006550 -0.001776 -563223.000000 0 0 1
-32.595404 33.893296 -32.137841 56.956621 -0.804916 2.170322 0.013552 0.000564 -203484.000000 0 0 1
-31.657294 -34.152294 -33.047751 57.102691 0.823292 2.187982 0.018524 -0.016040 -192737.000000 0 0 1
-31.643714 33.744796 34.217822 57.540379 -0.817519 0.933935 0.009593 -0.020600 -641689.000000 0 0 1
-30.672974 -34.268094 33.181130 56.710854 0.840701 0.945801 0.022586 -0.021702 -271624.000000 0 0 1
-29.322564 33.913096 33.229393 55.804152 -0.857865 0.932953 0.020208 -0.019232 -269530.000000 0 0 1
-29.069104 32.575096 32.724808 54.562466 -0.842212 0.927585 0.020589 -0.021754 -524816.000000 0 0 1
-27.656724 32.005096 32.890567 53.581806 -0.858153 0.909883 0.027407 -0.016957 -613601.000000 0 0 1
-27.363704 31.631096 34.193597 54.023149 -0.857607 0.885447 0.035932 -0.019995 -464795.000000 0 0 1
-26.021064 31.312496 -34.103279 53.109338 -0.877429 2.268074 0.045408 -0.018226 -788379.000000 0 0 1
-25.626074 29.886996 34.090459 52.077707 -0.862003 0.857133 0.046194 -0.016279 -500795.000000 0 0 1
-25.897154 29.009896 -33.363961 51.238565 -0.842029 2.279894 0.048133 -0.015840 68187.000000 0 0 1
-25.562954 27.715696 -33.826861 50.654525 -0.825782 2.302039 0.042250 -0.010821 -100145.000000 0 0 1
-25.562734 26.572096 -32.707271 49.287881 -0.804756 2.296413 0.058846 -0.024256 478736.000000 0 0 1
-24.364204 26.485696 -31.903091 48.092761 -0.827095 2.296104 0.060031 -0.018435 586540.000000 0 0 1
-24.306804 27.372696 -30.766511 47.819069 -0.844654 2.269720 0.052417 -0.018428 -942840.000000 0 0 1
-23.024204 27.506596 -30.017311 46.773558 -0.873873 2.267585 0.087111 -0.016212 -563745.000000 0 0 1
-21.992004 28.303796 -30.618971 47.141006 -0.910239 2.277748 0.078303 -0.020804 -34166.300000 0 0 1
-20.827504 28.256896 -29.843181 46.074424 -0.935617 2.275380 0.052513 -0.019078 -138162.000000 0 0 1
-20.515204 29.567296 -29.019771 46.230354 -0.964211 2.249419 0.044932 -0.012184 -122169.000000 0 0 1
-19.947004 30.575596 -29.872521 47.171151 -0.992748 2.256580 0.042234 -0.002455 79704.800000 0 0 1
-20.054204 31.826996 -29.216981 47.631510 -1.008538 2.231150 0.054176 -0.011694 37804.700000 0 0 1
-19.493704 33.066596 -29.971591 48.700108 -1.038112 2.233730 0.056012 -0.000815 898122.000000 0 0 1
-18.083804 33.056996 -30.228621 48.306919 -1.070221 2.246904 0.054275 -0.002255 455466.000000 0 0 1
-17.673504 34.154496 -31.045891 49.423978 -1.093280 2.249975 0.054873 0.004488 544653.000000 0 0 1
-16.173604 34.179596 -31.475761 49.199123 -1.128822 2.264986 0.045166 0.007401 490907.000000 0 0 1
-15.270604 -33.845394 -30.468631 48.031651 1.146956 2.257957 0.058560 -0.003925 1331530.000000 0 0 1
-13.872404 -33.920194 -30.823001 47.886120 1.182580 2.270084 0.068186 0.000463 1418050.000000 0 0 1
-13.281204 33.196396 -30.810831 47.198499 -1.190221 2.282061 0.067099 -0.004033 -851828.000000 0 0 1
-13.236904 32.718496 -29.514101 46.008670 -1.186357 2.267235 0.076373 -0.016714 -115800.000000 0 0 1
-12.976004 31.375096 -29.559761 45.017250 -1.178641 2.287141 0.058942 -0.015953 -147584.000000 0 0 1
-12.897404 30.801396 -28.157681 43.679789 -1.174250 2.271347 0.056597 -0.020507 196277.000000 0 0 1
-11.723104 31.183896 -27.454011 43.169309 -1.211207 2.260050 0.063720 -0.018049 163835.000000 0 0 1
-11.694104 30.606896 -26.215421 41.961678 -1.205838 2.245603 0.048241 -0.022995 -123102.000000 0 0 1
-10.470504 30.920496 -25.335191 41.322880 -1.244289 2.230779 0.057746 -0.024659 -135571.000000 0 0 1
-9.331604 30.233396 -25.764691 40.803876 -1.271421 2.254189 0.060695 -0.014135 -361088.000000 0 0 1
-8.154004 30.617396 -25.051481 40.391699 -1.310518 2.239811 0.062244 -0.019912 806583.000000 0 0 1
-6.866904 29.987896 -25.663281 40.062853 -1.345688 2.266044 0.065569 -0.029823 37474.500000 0 0 1
-6.573004 28.612896 -25.347791 38.786759 -1.344992 2.283017 0.058686 -0.035574 284408.000000 0 0 1
-5.373704 28.219196 -26.019711 38.758548 -1.382622 2.306796 0.065089 -0.046551 474204.000000 0 0 1
-4.720804 26.969496 -25.345101 37.309701 -1.397510 2.317627 0.076663 -0.034947 -307500.000000 0 0 1
-5.529104 25.824496 -25.425501 36.659673 -1.359878 2.337209 0.087504 -0.027361 -53715.200000 0 0 1
-5.084604 24.698596 -24.711881 35.306527 -1.367767 2.346087 0.084834 -0.036124 -302929.000000 0 0 1
-6.043704 23.478796 -24.776781 34.665099 -1.318855 2.367059 0.085120 -0.035322 10329.200000 0 0 1
-6.251604 22.951196 -26.071601 35.292610 -1.304861 2.401976 0.086740 -0.027530 95626.800000 0 0 1
-6.924004 21.733596 -25.897681 34.510591 -1.262377 2.419504 0.071616 -0.030364 -303331.000000 0 0 1
-7.047404 20.786396 -27.022191 34.812913 -1.243919 2.459431 0.049552 -0.025298 113270.000000 0 0 1
-5.959504 19.915696 -27.308491 34.320610 -1.280040 2.490939 0.074482 -0.032538 -70030.000000 0 0 1
-5.931304 18.732096 -26.420691 32.926048 -1.264146 2.502144 0.071570 -0.024464 -385283.000000 0 0 1
-4.629404 17.932296 -26.584441 32.399554 -1.318152 2.533114 0.068794 -0.031104 -112334.000000 0 0 1
-4.476104 17.466496 -27.872541 33.196272 -1.319927 2.567395 0.057902 -0.032217 -172732.000000 0 0 1
-3.383404 16.596296 -28.068121 32.782676 -1.369687 2.598641 0.064178 -0.036152 -411688.000000 0 0 1
-3.038204 16.324296 -29.523531 33.872587 -1.386786 2.629264 0.056427 -0.033810 -1556.640000 0 0 1
-2.486404 17.512796 -30.114071 34.924740 -1.429762 2.610504 0.068340 -0.039564 72851.600000 0 0 1
-2.249504 17.434696 -31.481631 36.057204 -1.442481 2.632326 0.061327 -0.036911 -132877.000000 0 0 1
-1.484604 18.702596 -31.914021 37.020209 -1.491583 2.610137 0.064129 -0.024023 -891309.000000 0 0 1
-0.210304 18.775996 -31.365451 36.556446 -1.559596 2.602161 0.079775 -0.032134 -1025400.000000 0 0 1
0.504596 19.781896 -32.024881 37.645332 1.545294 2.588112 0.089269 -0.016268 -13991.800000 0 0 1
0.549596 21.134196 -31.252771 37.731843 1.544797 2.546839 0.084247 -0.023149 8616.350000 0 0 1
1.486096 21.223696 -30.175481 36.921719 1.500890 2.527476 0.097107 -0.042483 76333.400000 0 0 1
1.156696 22.247396 -29.252731 36.769645 1.518851 2.490740 0.096473 -0.043980 -270224.000000 0 0 1
2.196996 22.251296 -28.152841 35.951765 1.472380 2.470387 0.103622 -0.043056 602795.000000 0 0 1
3.458496 22.756896 -28.616761 36.725420 1.419975 2.464198 0.084973 -0.044835 332075.000000 0 0 1
4.418396 22.877896 -27.595251 36.116730 1.380016 2.440375 0.072656 -0.047094 123036.000000 0 0 1
5.065696 24.290096 -27.432311 36.989210 1.365193 2.406293 0.078682 -0.044617 -125306.000000 0 0 1
5.801896 24.758796 -28.527411 38.216137 1.340613 2.413546 0.069148 -0.050097 -250182.000000 0 0 1
6.289496 26.013996 -28.276051 38.933543 1.333575 2.383668 0.063030 -0.046092 -383987.000000 0 0 1
7.076196 26.639996 -29.422111 40.316529 1.311169 2.388793 0.062598 -0.036387 -605148.000000 0 0 1
8.416696 26.251096 -29.462901 40.348771 1.260529 2.389419 0.053601 -0.034986 -535137.000000 0 0 1
9.100896 27.068196 -30.387831 41.700525 1.246449 2.387241 0.061287 -0.026875 309283.000000 0 0 1
10.632696 27.138196 -30.126461 41.918248 1.197380 2.372721 0.056196 -0.030161 412751.000000 0 0 1
11.352996 28.116096 -30.853901 43.259317 1.187027 2.364894 0.056726 -0.025424 -231471.000000 0 0 1
12.601196 28.343196 -30.253481 43.328974 1.152448 2.343715 0.051823 -0.024165 -441651.000000 0 0 1
13.454496 29.392996 -30.969831 44.767199 1.141520 2.334772 0.053334 -0.019292 -653633.000000 0 0 1
12.927696 30.721596 -30.995761 45.515700 1.172487 2.319911 0.057323 -0.018645 174326.000000 0 0 1
13.728096 31.564996 -31.799101 46.861417 1.160557 2.316621 0.081200 -0.023724 -59696.400000 0 0 1
13.205996 33.010496 -31.925841 47.784416 1.190243 2.302479 0.079946 -0.027700 461740.000000 0 0 1
12.179896 33.090396 -32.944351 48.256133 1.218107 2.322245 0.070467 -0.027214 514511.000000 0 0 1
11.320096 34.158896 -32.562081 48.531060 1.250791 2.306290 0.064034 -0.024610 85581.300000 0 0 1
10.172796 -34.215694 -33.600111 49.022107 -1.281806 2.325959 0.047048 -0.020790 280912.000000 0 0 1
10.561096 -33.579794 33.685800 48.722402 -1.266084 0.807396 0.043672 -0.008892 171187.000000 0 0 1
9.430696 -33.499694 32.834351 47.846235 -1.296382 0.814479 0.052110 -0.019343 242516.000000 0 0 1
9.524296 -32.619594 31.591493 46.397980 -1.286713 0.821832 0.055862 -0.014536 -140997.000000 0 0 1
9.077196 -31.311294 31.866023 45.587674 -1.288630 0.796791 0.038261 -0.015300 -14371.100000 0 0 1
9.425096 -30.469594 30.800603 44.338536 -1.270804 0.802837 0.064880 -0.016576 -242892.000000 0 0 1
8.930696 -28.984594 30.989353 43.361320 -1.271908 0.774634 0.052113 -0.023048 -120214.000000 0 0 1
7.553296 -28.721994 30.994043 42.925936 -1.313639 0.764057 0.033686 -0.014137 -584591.000000 0 0 1
6.981496 -28.976594 32.263243 43.923811 -1.334367 0.745826 0.027899 -0.002303 959713.000000 0 0 1
5.394396 -28.803994 32.194343 43.534415 -1.385661 0.738447 0.034928 0.001866 1446600.000000 0 0 1
4.662696 -29.844394 31.552463 43.680505 -1.415816 0.763607 0.042139 -0.006586 -83024.600000 0 0 1
4.905696 -30.228694 30.186343 43.000641 -1.409913 0.792598 0.053749 -0.011536 -506655.000000 0 0 1
4.393496 -29.212494 29.087783 41.458072 -1.421517 0.793129 0.037074 -0.021601 689205.000000 0 0 1
2.969396 -29.268694 28.945713 41.271395 -1.469689 0.793506 0.051430 -0.023808 739789.000000 0 0 1
2.466796 -28.509794 27.859353 39.937914 -1.484487 0.798801 0.051725 -0.023882 -1717.070000 0 0 1
1.066796 -28.968494 27.402273 39.889802 -1.533987 0.813514 0.053415 -0.022934 -40081.800000 0 0 1
1.018496 -30.228094 26.731413 40.365127 -1.537115 0.846992 0.060337 -0.024918 72968.300000 0 0 1
0.767896 -31.363394 27.509503 41.725591 -1.546317 0.850915 0.079540 -0.029860 -338653.000000 0 0 1
1.126296 -32.697194 26.757843 42.265319 -1.536364 0.885255 0.078831 -0.034446 91955.800000 0 0 1
2.517096 -32.961394 26.788033 42.548655 -1.494579 0.889776 0.068359 -0.027906 441507.000000 0 0 1
3.170196 -32.547194 25.558433 41.504259 -1.473700 0.907392 0.063211 -0.036081 328701.000000 0 0 1
4.650196 -32.129094 25.796813 41.465390 -1.427060 0.899337 0.069577 -0.016746 256475.000000 0 0 1
5.271496 -31.845194 24.560913 40.560369 -1.406749 0.920352 0.061789 -0.035196 -70836.800000 0 0 1
6.665196 -31.791994 24.790213 40.862090 -1.364139 0.918919 0.061623 -0.034787 -335101.000000 0 0 1
7.517296 -31.426794 23.564933 39.993240 -1.336008 0.940700 0.053206 -0.027629 -1437130.000000 0 0 1
8.813096 -31.125894 23.905603 40.223995 -1.294875 0.934386 0.042826 -0.017352 -1111630.000000 0 0 1
9.494496 -30.866794 22.687223 39.466626 -1.272386 0.958381 0.033205 -0.019150 -668030.000000 0 0 1
10.621896 -29.875894 22.855223 39.086506 -1.229200 0.946244 0.026735 -0.014024 -201952.000000 0 0 1
11.756796 -30.460794 23.485743 40.220174 -1.202447 0.947236 0.039842 -0.014106 280203.000000 0 0 1
12.875696 -29.610894 23.589313 39.988052 -1.160629 0.939850 0.057146 -0.013566 324258.000000 0 0 1
14.111796 -30.101394 24.378853 41.225783 -1.132412 0.938065 0.062331 -0.017912 134455.000000 0 0 1
14.005796 -29.973294 25.794953 41.951642 -1.133669 0.908571 0.054455 -0.020005 249622.000000 0 0 1
15.066696 -29.155794 26.241853 42.020239 -1.093827 0.896299 0.061769 -0.023861 -278366.000000 0 0 1
-10.907704 -13.792304 25.745893 31.177824 0.901657 0.599220 0.053080 -0.014812 -128342.000000 0 0 1
-9.512104 -13.901404 25.616763 30.658567 0.970716 0.581663 0.046489 -0.020720 -623451.000000 0 0 1
-8.932804 -14.408304 26.792183 31.705131 1.015818 0.564152 0.042058 -0.019301 871573.000000 0 0 1
-7.357604 -14.464604 26.719503 31.261653 1.100243 0.545813 0.062494 -0.022398 1234960.000000 0 0 1
-6.702204 -15.388704 25.856733 30.826976 1.160043 0.575777 0.060487 -0.019586 151911.000000 0 0 1
-6.893804 -15.037404 24.485183 29.549488 1.140943 0.594165 0.060883 -0.022341 -747785.000000 0 0 1
-6.311204 -16.075804 23.519593 29.179343 1.196694 0.633373 0.055585 -0.023735 176243.000000 0 0 1
-6.984304 -17.351604 23.359123 29.925028 1.188123 0.675190 0.061750 -0.020154 -99784.700000 0 0 1
-7.115004 -18.143804 24.478483 31.289248 1.197080 0.672400 0.063865 -0.017376 -226704.000000 0 0 1
-7.437204 -19.624204 24.291193 32.101144 1.208540 0.712534 0.061218 -0.015418 -1207980.000000 0 0 1
-8.701904 -19.755404 23.755603 32.098720 1.155886 0.737608 0.044847 -0.016461 -1119740.000000 0 0 1
-9.063404 -21.102704 23.643693 32.962003 1.165129 0.770875 0.037886 -0.019807 368371.000000 0 0 1
-10.606804 -21.297304 23.601863 33.513093 1.108722 0.789419 0.018492 -0.009449 511730.000000 0 0 1
-11.173404 -21.234304 24.926363 34.598616 1.086412 0.766354 0.019301 -0.010549 736045.000000 0 0 1
-12.576804 -20.960604 24.946373 34.926272 1.030361 0.775233 0.036082 -0.005645 648069.000000 0 0 1
-13.261404 -20.773704 26.284193 36.031520 1.002637 0.753238 0.041324 -0.007885 -240063.000000 0 0 1
-13.324304 -21.954404 27.100193 37.335686 1.025313 0.758524 0.039010 -0.005383 395233.000000 0 0 1
-12.178704 -21.996604 27.950163 37.594987 1.065145 0.732575 0.045745 -0.000260 378886.000000 0 0 1
-11.954704 -23.415804 28.636143 38.874716 1.098752 0.742728 0.034011 -0.003750 -385452.000000 0 0 1
-12.737204 -23.743404 29.752933 40.140038 1.078414 0.735898 0.048173 -0.000571 -191175.000000 0 0 1
-12.385904 -25.011504 30.258963 41.165408 1.110989 0.745044 0.024974 -0.000126 -865054.000000 0 0 1
-13.397204 -25.601754 31.189733 42.517460 1.088689 0.747229 0.026382 -0.011819 -415682.000000 0 0 1
-13.437704 -24.898904 32.420853 43.030676 1.075903 0.717524 0.025723 -0.009223 208036.000000 0 0 1
-14.719204 -25.126564 33.009582 44.018538 1.040882 0.722883 0.038370 -0.011695 365275.000000 0 0 1
-14.863604 -24.671604 -34.008061 44.566389 1.028571 2.438874 0.036663 -0.015848 -74694.400000 0 0 1
-14.853204 -23.247104 -33.727221 43.572594 1.002245 2.456004 0.043054 -0.019438 57835.600000 0 0 1
-15.968904 -22.523604 -34.226766 43.974881 0.954065 2.462791 0.047417 -0.021372 -166462.000000 0 0 1
-15.947604 -21.028604 -33.828481 42.905645 0.921956 2.479063 0.039718 -0.020820 80322.400000 0 0 1
-16.473804 -20.814204 -32.517861 41.976524 0.901279 2.456986 0.042204 -0.020090 227331.000000 0 0 1
-16.412704 -19.431704 -32.166891 41.008253 0.869425 2.472525 0.028337 -0.018958 -310102.000000 0 0 1
-16.399404 -19.245804 -30.646861 39.731241 0.865083 2.451763 0.027097 -0.010862 528568.000000 0 0 1
-17.648904 -19.561204 -30.017361 39.939535 0.836745 2.421235 0.024405 -0.010199 608477.000000 0 0 1
-17.565304 -19.472904 -28.610661 38.811130 0.836856 2.399679 0.023524 -0.011366 257792.000000 0 0 1
-16.755704 -20.596004 -27.831741 38.464982 0.887853 2.379743 0.017421 -0.010615 571934.000000 0 0 1
-15.351604 -20.432704 -27.918701 37.849980 0.926448 2.400327 0.024086 -0.018317 68811.300000 0 0 1
-14.608904 -21.575204 -27.536621 37.910091 0.975595 2.383817 0.034524 -0.022304 393400.000000 0 0 1
-13.082004 -21.471904 -27.732911 37.433886 1.023595 2.405132 0.078707 -0.028098 89530.000000 0 0 1
-12.463304 -20.502704 -26.885341 36.034933 1.024599 2.412968 0.076902 -0.034097 -110681.000000 0 0 1
-11.066204 -20.399204 -26.966861 35.578083 1.073743 2.430981 0.055390 -0.045756 55409.600000 0 0 1
-10.292504 -21.270104 -25.929911 35.081523 1.120115 2.402579 0.076044 -0.039093 -353897.000000 0 0 1
-10.339104 -22.651704 -26.278301 36.201462 1.142601 2.383125 0.077710 -0.040751 372871.000000 0 0 1
-9.475604 -23.506904 -25.527341 35.972305 1.187621 2.359782 0.096195 -0.037037 254041.000000 0 0 1
-9.710504 -24.990704 -25.890571 37.271314 1.200187 2.338732 0.093071 -0.036452 -63947.800000 0 0 1
-8.767704 -25.439174 -26.852551 38.014257 1.238892 2.355169 0.087616 -0.036482 321107.000000 0 0 1
-9.227504 -26.578854 -27.589511 39.405119 1.236641 2.346404 0.078740 -0.029247 85929.300000 0 0 1
-8.906004 -27.955984 -26.953371 39.841413 1.262389 2.313818 0.081904 -0.019771 -90449.700000 0 0 1
-9.826304 -28.155244 -25.910151 39.504556 1.235009 2.286141 0.077781 -0.023305 8457.850000 0 0 1
-9.409604 -29.189234 -25.062481 39.606565 1.258949 2.255942 0.099142 -0.021450 -977402.000000 0 0 1
-10.360704 -29.519384 -23.943281 39.395672 1.233249 2.224038 0.098739 -0.025347 -481637.000000 0 0 1
-10.516004 -28.406934 -23.046181 38.061355 1.216248 2.221191 0.085900 -0.026770 -312795.000000 0 0 1
-11.486904 -27.467674 -23.400381 37.868191 1.174702 2.236920 0.088014 -0.029887 -683540.000000 0 0 1
-11.602804 -26.323044 -22.403081 36.461291 1.155632 2.232466 0.088879 -0.022103 -109320.000000 0 0 1
-11.966004 -26.695514 -21.088581 36.063333 1.149407 2.195387 0.069880 -0.021768 194854.000000 0 0 1
-11.801904 -25.645014 -20.135281 34.675369 1.139490 2.190360 0.064703 -0.015039 -187505.000000 0 0 1
-12.324604 -26.014394 -18.748081 34.353095 1.128359 2.148076 0.076895 -0.016810 701249.000000 0 0 1
-13.744104 -26.218974 -18.728581 35.029912 1.087973 2.134884 0.091953 -0.019938 663542.000000 0 0 1
-14.209104 -26.472644 -17.422681 34.731101 1.078185 2.096296 0.088596 -0.020002 -975230.000000 0 0 1
-15.712204 -26.596954 -17.404281 35.456739 1.037205 2.083872 0.093187 -0.028014 -1490510.000000 0 0 1
-16.418704 -25.342944 -17.350881 34.826595 0.995926 2.092327 0.081873 -0.020429 996793.000000 0 0 1
-17.843204 -25.461284 -17.162481 35.513486 0.959535 2.075178 0.088784 -0.019798 1464630.000000 0 0 1
-18.739604 -26.227984 -18.216881 37.026135 0.950412 2.085183 0.080672 -0.021860 -599557.000000 0 0 1
-18.649304 -27.666044 -18.268081 38.038524 0.977675 2.071738 0.098046 -0.023116 -127153.000000 0 0 1
-18.961904 -28.439974 -17.135781 38.236382 0.982747 2.035495 0.096389 -0.025953 -430497.000000 0 0 1
-20.452904 -28.748644 -16.914781 39.126917 0.952434 2.017844 0.085606 -0.017385 -137409.000000 0 0 1
-21.003504 -29.534034 -17.927981 40.432893 0.952618 2.030186 0.072641 -0.016696 63979.900000 0 0 1
-22.319904 -29.957314 -17.579881 41.287662 0.930466 2.010631 0.074673 -0.012244 439553.000000 0 0 1
-22.822904 -30.951774 -18.624781 42.729144 0.935428 2.021812 0.043853 -0.016430 59493.500000 0 0 1
-22.145904 -32.195644 -18.511681 43.239830 0.968269 2.013204 0.047950 -0.015116 293627.000000 0 0 1
-22.535904 -32.944084 -19.658581 44.493140 0.970845 2.028438 0.032486 0.009449 126974.000000 0 0 1
-21.923704 34.221844 -19.703281 45.166389 -1.001033 2.022210 0.037574 0.002217 88648.100000 0 0 1
-22.614104 33.230705 -18.885181 44.410894 -0.973265 2.010021 0.029844 0.005658 417592.000000 0 0 1
-21.863504 32.022825 -18.614381 43.011270 -0.971743 2.018370 0.025147 -0.001569 -53089.300000 0 0 1
-22.761704 30.793645 -18.307981 42.444386 -0.934263 2.016774 0.025528 -0.004844 389576.000000 0 0 1
-23.420004 30.889645 -17.009281 42.331813 -0.922079 1.984287 0.015566 -0.009265 310568.000000 0 0 1
-24.089004 29.678455 -16.581581 41.665809 -0.888982 1.980095 0.023304 -0.007108 234284.000000 0 0 1
-23.188504 28.443485 -16.269481 40.142678 -0.886827 1.988094 0.026182 -0.014484 90239.700000 0 0 1
-22.732004 27.816645 -17.482881 39.951982 -0.885650 2.023721 0.013839 -0.014109 -188498.000000 0 0 1
-21.940904 26.710915 -17.188881 38.604843 -0.883130 2.032252 0.019127 -0.016321 -138835.000000 0 0 1
-21.373304 26.033885 -18.461981 38.411275 -0.883393 2.072180 0.029235 -0.010563 -675477.000000 0 0 1
-21.094404 24.649875 -18.284381 37.241225 -0.862967 2.084001 0.038806 -0.023720 37272.500000 0 0 1
-20.479804 24.002525 -19.389081 37.033499 -0.864427 2.121815 0.031840 -0.019371 187765.000000 0 0 1
-18.984504 24.345015 -19.654781 36.597835 -0.908488 2.137730 0.029859 -0.022991 104868.000000 0 0 1
-18.144104 23.955895 -18.532881 35.306672 -0.922578 2.123408 0.047134 -0.024099 932931.000000 0 0 1
-16.883204 24.629395 -18.489981 35.121633 -0.969875 2.125223 0.062441 -0.038142 612348.000000 0 0 1
-16.929304 25.707085 -17.347181 35.332425 -0.988437 2.084000 0.068661 -0.029499 370554.000000 0 0 1
-17.783804 26.809065 -17.711481 36.724463 -0.985093 2.074052 0.057803 -0.020878 625055.000000 0 0 1
-17.187704 28.048605 -17.317681 37.175845 -1.021031 2.055370 0.073615 -0.029274 113100.000000 0 0 1
-18.154304 29.215755 -17.731581 38.698166 -1.014799 2.046768 0.062717 -0.024859 502124.000000 0 0 1
-18.262104 29.553145 -19.075181 39.632756 -1.017289 2.072932 0.047889 -0.024867 16700.100000 0 0 1
-19.163004 28.798095 -19.849681 39.881836 -0.983653 2.091756 0.051193 -0.014600 -356164.000000 0 0 1
-19.414904 29.462425 -21.206781 41.166741 -0.988140 2.111971 0.060537 -0.025094 -153438.000000 0 0 1
-20.234904 30.606645 -21.271581 42.411062 -0.986638 2.096194 0.060893 -0.020986 120461.000000 0 0 1
-20.457004 30.843945 -22.618281 43.375392 -0.985168 2.119351 0.068710 -0.025135 -180752.000000 0 0 1
-21.084204 32.152705 -23.005081 44.805958 -0.990388 2.109983 0.068917 -0.025128 37900.100000 0 0 1
-20.153004 33.247297 -23.016581 45.180630 -1.025864 2.105324 0.055345 -0.015044 267170.000000 0 0 1
-20.451204 34.231094 -23.971981 46.526072 -1.032257 2.112081 0.052123 -0.007093 -103005.000000 0 0 1
-19.359504 -33.215814 -23.951981 45.296557 1.043090 2.127961 0.069294 -0.003116 236261.000000 0 0 1
-19.312104 -32.218364 -22.961681 44.025210 1.030809 2.119472 0.071080 -0.004397 277551.000000 0 0 1
-18.664004 -32.765734 -21.777781 43.545495 1.053015 2.094529 0.085310 -0.015287 38463.600000 0 0 1
-18.442304 -31.758144 -20.657181 42.135703 1.044681 2.083177 0.094375 -0.028715 -535431.000000 0 0 1
-17.410904 -30.891584 -20.969881 41.196668 1.057562 2.104841 0.097183 -0.028572 -374374.000000 0 0 1
-17.025604 -30.183354 -19.762681 39.893228 1.057213 2.089079 0.092439 -0.029118 179445.000000 0 0 1
-15.731904 -29.371054 -19.983181 38.852016 1.079056 2.111035 0.107746 -0.030729 857858.000000 0 0 1
-14.499204 -30.088214 -19.956781 38.907591 1.121742 2.109388 0.115820 -0.033149 182025.000000 0 0 1
-13.413204 -29.392524 -20.468981 38.246748 1.142676 2.135520 0.096922 -0.028800 79569.600000 0 0 1
-12.061604 -30.201704 -20.611381 38.502653 1.190835 2.135687 0.093474 -0.028429 1442590.000000 0 0 1
-11.312004 -30.600274 -19.431081 37.972426 1.216707 2.107977 0.089627 -0.027118 772514.000000 0 0 1
-10.773104 -29.555154 -18.590581 36.540069 1.221255 2.104555 0.073574 -0.023434 -524577.000000 0 0 1
-10.111004 -29.996494 -17.276681 36.062526 1.245684 2.070398 0.058953 -0.013750 -321853.000000 0 0 1
-10.847204 -30.556504 -16.197981 36.245502 1.229684 2.034089 0.075177 -0.027173 -220024.000000 0 0 1
-11.270704 -31.900094 -16.420981 37.607092 1.231174 2.022663 0.078949 -0.034190 313827.000000 0 0 1
-12.405204 -32.329244 -15.434781 37.911761 1.204407 1.990099 0.082866 -0.041125 77811.300000 0 0 1
-11.958304 -32.782994 -14.200481 37.674652 1.221023 1.957269 0.075244 -0.033226 717960.000000 0 0 1
-13.104804 -33.261484 -13.458681 38.199454 1.195479 1.930852 0.072636 -0.022981 666164.000000 0 0 1
-12.650004 -33.803934 -12.084781 38.062718 1.212712 1.893885 0.054471 -0.021033 169674.000000 0 0 1
-12.082604 -32.859304 -11.185181 36.753659 1.218435 1.880030 0.042946 -0.015271 127338.000000 0 0 1
-11.704404 -33.471214 -10.000381 36.841863 1.234402 1.845686 0.050842 -0.019464 -244755.000000 0 0 1
-10.480304 -32.792744 -9.321781 35.666461 1.261463 1.835227 0.042043 -0.023432 232585.000000 0 0 1
-9.312304 -33.297474 -9.945181 35.977040 1.298094 1.850875 0.039595 -0.021165 -188506.000000 0 0 1
-8.137404 -32.692484 -9.411781 34.979959 1.326846 1.843215 0.022813 -0.024748 245273.000000 0 0 1
-6.878204 -33.177934 -10.147781 35.370362 1.366379 1.861786 0.032849 -0.025412 -187415.000000 0 0 1
-6.419004 34.116691 -9.719281 36.050196 -1.384822 1.843778 0.028291 -0.013569 536099.000000 0 0 1
-5.242604 33.669129 -10.439781 35.638240 -1.416327 1.868094 0.046647 -0.014726 1038190.000000 0 0 1
-4.463604 32.525227 -9.695281 34.231749 -1.434413 1.857951 0.056330 -0.018329 -31258.400000 0 0 1
-3.912704 33.098568 -8.558881 34.410448 -1.453129 1.822164 0.063168 -0.020817 -214947.000000 0 0 1
-3.273604 32.127065 -7.737881 33.207523 -1.469251 1.805974 0.056955 -0.017752 106176.000000 0 0 1
-2.978804 32.627478 -6.350681 33.372994 -1.479751 1.762258 0.053585 -0.012936 53331.600000 0 0 1
-2.112104 33.782462 -6.366581 34.441967 -1.508357 1.756715 0.038987 -0.006325 306939.000000 0 0 1
-1.712704 34.220873 -5.086581 34.639209 -1.520790 1.718174 0.035261 -0.007636 615552.000000 0 0 1
-0.525604 33.423953 -4.447981 33.722713 -1.555072 1.703080 0.040125 -0.014433 477102.000000 0 0 1
0.813196 33.695889 -4.843881 34.051981 1.546668 1.713530 0.039800 -0.013825 592070.000000 0 0 1
1.692796 32.740099 -4.223681 33.054790 1.519138 1.698925 0.032185 -0.018662 215888.000000 0 0 1
3.171796 32.883892 -4.600881 33.355341 1.474639 1.709173 0.032362 -0.010478 -123318.000000 0 0 1
3.768996 34.122948 -4.274481 34.595550 1.460789 1.694669 0.031996 -0.009781 -451872.000000 0 0 1
5.164596 34.023973 -4.351581 34.687751 1.420153 1.696578 0.045442 -0.011293 -230375.000000 0 0 1
5.897696 -33.280744 -3.876381 34.020833 -1.395407 1.684986 0.040404 -0.003395 -20059.200000 0 0 1
5.716696 -32.171054 -4.801181 33.025879 -1.394935 1.716690 0.040579 -0.005303 -80398.900000 0 0 1
6.012896 -30.933904 -4.131881 31.782602 -1.378812 1.701170 0.038412 -0.008039 123712.000000 0 0 1
5.763796 -29.675444 -4.949481 30.632511 -1.378957 1.733084 0.040367 -0.011695 -351718.000000 0 0 1
6.811596 -29.400544 -5.851581 30.741354 -1.343130 1.762314 0.055678 -0.011087 -89020.600000 0 0 1
6.657596 -28.156054 -6.546881 29.663928 -1.338607 1.793330 0.061931 -0.017717 60610.600000 0 0 1
7.240896 -26.910854 -5.826081 28.470474 -1.307952 1.776888 0.056056 -0.019898 -299105.000000 0 0 1
6.355596 -26.418054 -4.874781 27.605628 -1.334705 1.748314 0.042158 -0.016076 -657651.000000 0 0 1
6.742696 -25.257014 -4.261881 26.486683 -1.309917 1.732405 0.041295 -0.025780 207669.000000 0 0 1
5.697196 -24.838504 -3.164081 25.679189 -1.345327 1.694326 0.041183 -0.024897 323649.000000 0 0 1
4.563496 -24.233504 -3.732481 24.940322 -1.384663 1.721017 0.042944 -0.027260 -829747.000000 0 1 0
3.740596 -23.675704 -2.756481 24.127354 -1.414099 1.685293 0.036206 -0.024071 74139.600000 0 1 0
2.479396 -23.025104 -3.364081 23.401279 -1.463527 1.715052 0.037641 -0.021717 320773.000000 0 1 0
1.528396 -23.864804 -3.966281 24.240385 -1.506840 1.735158 0.038634 -0.018567 -557088.000000 0 1 0
0.450996 -23.165104 -4.534781 23.609102 -1.551330 1.764075 0.025730 -0.014132 -61869.900000 0 1 0
-15.310104 23.310496 17.951223 33.166623 -0.989663 0.998881 0.011774 -0.009896 1602.080000 0 0 1
-15.379404 22.734196 19.286323 33.545968 -0.976025 0.958287 0.027114 -0.001203 234993.000000 0 0 1
-15.018904 23.734096 20.171223 34.579662 -1.006609 0.947979 0.031209 0.002888 -685173.000000 0 0 1
-14.883204 23.182796 21.564823 34.985617 -1.000070 0.906645 0.060825 -0.004904 884216.000000 0 0 1
-13.767704 22.326796 21.999123 34.234440 -1.018228 0.872907 0.052551 -0.001805 1310970.000000 0 0 1
-12.464004 22.866196 22.026023 34.108063 -1.071735 0.868763 0.022325 -0.011530 -37512.900000 0 0 1
-12.128604 23.919596 23.114923 35.405505 -1.101519 0.859439 0.037912 0.004188 -531490.000000 0 0 1
-12.106204 23.307096 24.393353 35.844338 -1.091733 0.822303 0.018278 0.012255 72148.000000 0 0 1
-11.904704 24.257496 25.416603 37.096520 -1.114565 0.815990 0.039998 0.002895 13861.400000 0 0 1
-11.446804 23.615896 26.776513 37.492953 -1.119457 0.775352 0.026714 0.004267 1420040.000000 0 0 1
-10.015204 23.378396 26.764993 36.921790 -1.166053 0.759892 -0.009434 0.007561 986658.000000 0 0 1
-9.614304 22.685296 27.969683 37.274129 -1.169932 0.722163 -0.022224 0.006063 -28385.700000 0 0 1
-8.090004 22.453396 28.148613 36.904574 -1.224973 0.703256 -0.013366 -0.004171 1073220.000000 0 0 1
-7.185704 23.576096 28.300333 37.528329 -1.274953 0.716505 -0.015057 -0.004440 421398.000000 0 0 1
-7.021404 24.317096 27.108243 37.087439 -1.289698 0.751116 -0.011507 0.001627 -917409.000000 0 0 1
-6.120004 25.545996 27.360613 37.929612 -1.335660 0.765043 -0.007441 -0.007186 677722.000000 0 0 1
-4.748404 25.131296 27.446983 37.516213 -1.384054 0.750126 -0.003384 -0.007137 208684.000000 0 0 1
-3.913104 26.230396 27.814653 38.431770 -1.422706 0.761588 0.008799 -0.001396 -503269.000000 0 0 1
-2.495204 25.696096 27.919423 38.026432 -1.473995 0.746293 0.012158 0.003706 -851353.000000 0 0 1
-1.872104 25.397896 26.683773 36.886063 -1.497218 0.762067 0.009784 -0.004506 150669.000000 0 0 1
-0.497004 25.112396 26.905723 36.807572 -1.551008 0.751034 0.025799 0.005465 464765.000000 0 0 1
0.225796 24.671396 25.598183 35.552718 1.561644 0.766985 0.021402 -0.002777 -194821.000000 0 0 1
-0.221404 23.519196 24.932243 34.275623 -1.561383 0.756264 0.016637 0.004032 -226700.000000 0 0 1
0.165996 23.404796 23.576353 33.221325 1.563704 0.781759 0.022963 0.009338 -33040.500000 0 0 1
-0.344404 22.140896 22.823623 31.800246 -1.555242 0.770276 0.013490 0.007781 146042.000000 0 0 1
0.317296 21.009796 23.316723 31.387605 1.555695 0.733458 0.022488 0.007291 302553.000000 0 0 1
-0.197804 19.828596 22.636523 30.093596 -1.560821 0.719396 0.026922 0.003446 693922.000000 0 0 1
0.813696 18.656996 22.889423 29.541010 1.527210 0.684341 0.031705 0.002889 1283070.000000 0 0 1
2.093596 18.833096 22.256123 29.230184 1.460085 0.705313 0.037044 -0.001145 -90014.000000 0 0 1
2.838096 17.683996 22.243623 28.557963 1.411664 0.677896 0.029753 -0.007101 -843927.000000 0 0 1
4.231796 17.932796 21.674623 28.447892 1.339055 0.704545 0.028726 -0.005724 -621067.000000 0 0 1
5.048196 18.634996 22.563923 29.696430 1.306247 0.707761 0.024008 -0.002349 -706769.000000 0 0 1
6.328396 18.808796 22.003623 29.630707 1.246235 0.733859 0.042511 -0.009722 -136169.000000 0 0 1
7.388196 19.419896 22.933123 30.945855 1.207261 0.736130 0.056033 -0.017002 -429023.000000 0 0 1
7.020496 20.583896 23.657723 32.135214 1.242101 0.743368 0.038922 -0.013469 5573.520000 0 0 1
6.702496 21.738296 22.880323 32.264317 1.271718 0.782501 0.037682 -0.016394 -141607.000000 0 0 1
5.616396 22.656396 23.449063 33.086474 1.327800 0.783113 0.020545 -0.007367 -263101.000000 0 0 1
5.407196 23.806496 22.725923 33.353479 1.347454 0.821169 0.015017 -0.010048 375205.000000 0 0 1
4.224096 24.499596 23.106823 33.941103 1.400060 0.821953 0.007861 0.000449 27139.000000 0 0 1
4.000296 25.859796 22.396023 34.442898 1.417321 0.862901 0.011289 -0.003700 -135646.000000 0 0 1
3.827396 25.963196 21.008723 33.617004 1.424434 0.895737 0.015823 -0.005527 -632995.000000 0 0 1
2.655096 25.360896 20.572123 32.763346 1.466484 0.891944 0.019385 -0.001939 -876295.000000 0 0 1
2.421396 25.619896 19.099923 32.047610 1.476564 0.932303 0.026306 -0.011488 -299684.000000 0 0 1
1.623496 26.793796 19.024423 32.900941 1.510278 0.954235 0.024406 -0.012838 241367.000000 0 0 1
1.106796 27.044596 17.736323 32.360660 1.529894 0.990726 0.032371 -0.013387 613532.000000 0 0 1
-0.070104 28.099796 17.745323 33.234018 -1.568302 1.007530 0.009517 -0.002170 282411.000000 0 0 1
0.326096 29.295696 18.332023 34.560197 1.559666 1.011680 0.024538 -0.004225 441148.000000 0 0 1
-0.725204 30.257196 18.539223 35.492627 -1.546833 1.021203 0.012350 -0.006393 234241.000000 0 0 1
-0.203804 31.656396 19.051123 36.947452 -1.564358 1.029056 0.015751 -0.002599 91963.700000 0 0 1
0.388796 31.544796 20.356323 37.544709 1.558472 0.997756 0.022713 -0.003728 97256.000000 0 0 1
0.848596 32.824096 20.747123 38.840501 1.544949 1.007280 0.022857 -0.007742 -64927.100000 0 0 1
1.421596 32.766396 22.215323 39.612854 1.527438 0.975431 0.033492 -0.014662 184036.000000 0 0 1
0.402096 32.655196 23.171423 40.042956 1.558484 0.953707 0.024519 -0.009685 85642.600000 0 0 1
0.973896 32.873296 24.409953 40.956658 1.541179 0.932292 0.045985 -0.023793 160025.000000 0 0 1
-0.089404 32.647896 25.507443 41.430939 -1.568058 0.907571 0.041251 -0.015153 -171890.000000 0 0 1
-1.174504 33.549696 25.553313 42.189256 -1.535803 0.920172 0.036330 -0.010864 663109.000000 0 0 1
-2.169004 33.234296 26.551823 42.593688 -1.505625 0.897745 0.028314 -0.008038 690326.000000 0 0 1
-1.731304 33.660196 27.987743 43.810044 -1.519407 0.877803 0.048260 -0.014387 -107590.000000 0 0 1
-0.679704 32.891196 28.578753 43.577952 -1.550134 0.855544 0.055521 -0.019612 482262.000000 0 0 1
-0.304704 33.355196 29.892883 44.791142 -1.561661 0.840106 0.054760 -0.016190 -117103.000000 0 0 1
0.699196 32.362396 30.616823 44.555621 1.549194 0.813224 0.053642 -0.015965 741720.000000 0 0 1
2.045396 32.372896 30.149483 44.285205 1.507698 0.821938 0.045952 -0.015372 398744.000000 0 0 1
2.338896 32.062096 28.805313 43.164737 1.497976 0.840172 0.049715 -0.020952 -425033.000000 0 0 1
3.785996 31.716496 28.335793 42.698794 1.451989 0.845148 0.042034 -0.019486 387580.000000 0 0 1
4.338896 30.611696 28.968543 42.368366 1.429994 0.817934 0.045857 -0.019175 313341.000000 0 0 1
5.735896 30.480996 28.690853 42.251114 1.384792 0.824321 0.053518 -0.029459 424632.000000 0 0 1
6.231496 29.210896 29.314973 41.850635 1.360619 0.794745 0.063373 -0.025249 -251798.000000 0 0 1
6.321096 29.369596 30.705093 42.957329 1.358804 0.774485 0.069491 -0.029456 -26900.000000 0 0 1
6.976196 28.326396 31.353893 42.826611 1.329323 0.749378 0.058788 -0.023412 -129341.000000 0 0 1
7.194196 28.497796 32.921791 44.133039 1.323516 0.728811 0.087315 -0.031984 64851.300000 0 0 1
5.971296 28.551496 33.655715 44.537079 1.364627 0.714107 0.083631 -0.031423 246575.000000 0 0 1
6.025896 28.295996 -33.474721 44.244002 1.360971 2.428884 0.105381 -0.034790 -189447.000000 0 0 1
6.209896 26.811196 -33.171171 43.101387 1.343194 2.449023 0.090313 -0.028929 155330.000000 0 0 1
7.458496 26.270496 -33.574021 43.277973 1.294164 2.458741 0.076958 -0.028408 262909.000000 0 0 1
7.540296 24.935196 -33.078441 42.104671 1.277143 2.474500 0.075602 -0.032353 385884.000000 0 0 1
8.967796 24.445596 -33.464141 42.401146 1.219192 2.480346 0.067421 -0.030670 120191.000000 0 0 1
9.052196 24.025296 33.667224 42.339569 1.210468 0.651506 0.057207 -0.019664 402797.000000 0 0 1
10.320196 23.470796 33.330315 42.051095 1.156538 0.655711 0.064583 -0.033890 138802.000000 0 0 1
10.548896 21.975196 33.676759 41.572978 1.123247 0.626536 0.064672 -0.038654 33633.100000 0 0 1
9.608696 21.151296 32.976521 40.338013 1.144386 0.613731 0.057574 -0.035129 217011.000000 0 0 1
9.599896 19.771396 33.425898 40.004459 1.118780 0.581655 0.058105 -0.025835 2045360.000000 0 0 1
8.237696 19.363096 34.255862 40.202652 1.168559 0.550850 0.071675 -0.027314 2125030.000000 0 0 1
8.267096 20.120296 -33.028751 39.548319 1.180943 2.559200 0.073011 -0.030964 -235038.000000 0 0 1
7.183596 21.002296 -32.962181 39.739223 1.241232 2.548940 0.080061 -0.030130 -273309.000000 0 0 1
6.863996 21.387596 -31.511321 38.697636 1.260247 2.522311 0.083974 -0.041658 -53317.600000 0 0 1
7.834196 22.309096 -31.078531 39.050550 1.233083 2.491213 0.083578 -0.038264 55312.800000 0 0 1
7.519896 22.617996 -29.742151 38.114539 1.249819 2.465999 0.063960 -0.033359 -765425.000000 0 0 1
8.683196 23.060596 -28.850911 37.941587 1.210678 2.434730 0.064068 -0.041108 -492491.000000 0 0 1
9.531196 21.993596 -28.562881 37.288069 1.161864 2.443401 0.076750 -0.031624 430923.000000 0 0 1
10.929396 22.336096 -28.641211 37.929827 1.115733 2.426619 0.073515 -0.036565 830676.000000 0 0 1
11.825096 21.115396 -28.770851 37.595940 1.060291 2.442249 0.073178 -0.045853 -301340.000000 0 0 1
11.804296 20.336496 -29.943191 38.072419 1.044877 2.475885 0.070791 -0.041846 14881.800000 0 0 1
10.573296 19.662296 -30.168431 37.530450 1.077411 2.504517 0.077172 -0.037663 110151.000000 0 0 1
10.569496 18.695196 -31.362861 38.011230 1.056238 2.541166 0.075407 -0.027793 -316134.000000 0 0 1
11.149296 17.448196 -31.105081 37.366728 1.002197 2.554270 0.069994 -0.021544 17227.900000 0 0 1
11.158596 16.528996 -32.244311 37.913290 0.976983 2.587684 0.067108 -0.007408 119307.000000 0 0 1
12.522296 16.356996 -32.981431 38.886167 0.917410 2.583286 0.060411 0.003373 224296.000000 0 0 1
12.953596 17.592896 -33.526221 40.016410 0.936123 2.564059 0.065436 -0.007205 37898.200000 0 0 1
13.583596 17.424896 33.699410 40.296294 0.908649 0.580314 0.065232 -0.007887 47112.500000 0 0 1
12.697896 16.963096 32.510540 38.806164 0.928217 0.577615 0.072330 -0.017578 -308096.000000 0 0 1
12.881296 17.723596 31.314883 38.218785 0.942317 0.610505 0.062942 -0.019117 207043.000000 0 0 1
12.139596 17.314796 30.160053 36.834776 0.959325 0.611491 0.068359 -0.021459 -54289.100000 0 0 1
10.671496 17.730796 29.998423 36.444030 1.029009 0.603883 0.060838 -0.016258 -129406.000000 0 0 1
9.867196 17.060496 30.960373 36.701046 1.046437 0.566876 0.060495 -0.009045 -248377.000000 0 0 1
8.508996 17.426096 30.828363 36.420596 1.116560 0.561506 0.060206 -0.015211 -207691.000000 0 0 1
7.682096 16.425496 31.630733 36.459769 1.133326 0.520538 0.067591 -0.006130 -330982.000000 0 0 1
7.948596 16.350696 33.058177 37.727556 1.118305 0.502805 0.077253 -0.006151 -97327.800000 0 0 1
7.282096 15.318996 33.691554 37.720305 1.127051 0.466397 0.088759 -0.012853 -374427.000000 0 0 1
7.228396 15.544496 -33.328331 37.478776 1.135528 2.666518 0.084947 -0.014443 75921.700000 0 0 1
6.363396 16.647596 -33.036851 37.537565 1.205692 2.646871 0.079799 -0.018858 156174.000000 0 0 1
6.246196 16.865196 -31.655361 36.407577 1.216100 2.624928 0.081403 -0.025567 -76746.400000 0 0 1
5.529696 18.128996 -31.164031 36.475126 1.274741 2.595175 0.077107 -0.030514 -355806.000000 0 0 1
5.374596 18.166696 -29.787271 35.301510 1.283152 2.575114 0.069123 -0.040686 -182101.000000 0 0 1
4.422796 19.100096 -29.374081 35.315880 1.343248 2.553054 0.072187 -0.045861 1120480.000000 0 0 1
2.920596 18.606796 -29.334881 34.860837 1.415103 2.570823 0.093245 -0.048401 122585.000000 0 0 1
2.462096 17.840996 -28.205661 33.465241 1.433660 2.573325 0.110714 -0.040675 776559.000000 0 0 1
1.093196 17.419896 -28.310501 33.258567 1.508123 2.589110 0.115857 -0.039679 1138760.000000 0 0 1
0.028496 18.536596 -28.032091 33.606611 1.569259 2.557340 0.116818 -0.045146 -415240.000000 0 0 1
-0.083404 18.754296 -26.623881 32.566264 -1.566349 2.527904 0.116758 -0.050263 35495.300000 0 0 1
-0.696004 20.031596 -26.375801 33.127513 -1.536065 2.491768 0.117899 -0.045002 203817.000000 0 0 1
-1.223704 20.269296 -24.886581 32.119833 -1.510497 2.457202 0.104532 -0.040065 434376.000000 0 0 1
-2.413504 19.611896 -24.483681 31.462709 -1.448349 2.462561 0.101135 -0.032609 117021.000000 0 0 1
-2.798404 20.081396 -23.212481 30.820655 -1.432335 2.423629 0.085143 -0.026335 -155572.000000 0 0 1
-3.828004 19.120496 -22.633881 29.875400 -1.373204 2.430439 0.067828 -0.020471 1896540.000000 0 0 1
-5.261604 19.386196 -22.864781 30.435296 -1.305771 2.420763 0.070022 -0.014543 2071810.000000 0 0 1
-6.092004 18.472396 -22.157481 29.483824 -1.252239 2.421149 0.066145 -0.021643 405356.000000 0 0 1
-7.556804 18.957096 -21.983681 29.995983 -1.191474 2.393353 0.063154 -0.013301 248406.000000 0 0 1
-7.880104 20.053896 -21.116481 30.168867 -1.196385 2.346114 0.050022 -0.015608 294468.000000 0 0 1
-7.506204 21.297696 -21.756281 31.357147 -1.231948 2.337579 0.058720 -0.019280 -174522.000000 0 0 1
-7.635904 22.486996 -20.822081 31.583715 -1.243444 2.290639 0.059499 -0.021255 -71959.500000 0 0 1
-6.764704 22.563096 -19.715581 30.717399 -1.279511 2.267688 0.065534 -0.022200 248552.000000 0 0 1
-7.249804 23.563296 -18.820281 31.015988 -1.272314 2.222816 0.070319 -0.020849 83613.500000 0 0 1
-6.502404 23.543696 -17.441481 30.013199 -1.301329 2.190909 0.088168 -0.024060 109820.000000 0 0 1
-5.180204 24.023296 -17.607481 30.232046 -1.358416 2.192488 0.088553 -0.027349 -299322.000000 0 0 1
-4.498304 23.753196 -16.363781 29.192848 -1.383636 2.165835 0.082272 -0.025193 241158.000000 0 0 1
-3.006304 24.157196 -16.458981 29.385473 -1.446985 2.165310 0.083414 -0.022535 199759.000000 0 0 1
-2.807304 25.555096 -16.447581 30.519941 -1.461382 2.139942 0.071575 -0.033436 202967.000000 0 0 1
-1.785704 25.878096 -17.406681 31.238712 -1.501901 2.161824 0.064062 -0.033406 616271.000000 0 0 1
-1.303404 27.357196 -17.483181 32.492716 -1.523188 2.138936 0.065806 -0.047748 65224.400000 0 0 1
-2.260104 28.264196 -18.002781 33.586797 -1.491003 2.136497 0.063548 -0.051712 -60246.400000 0 0 1
-1.698304 29.307796 -18.773981 34.846714 -1.512914 2.139760 0.065897 -0.042229 -475687.000000 0 0 1
-2.762604 29.948896 -19.697981 35.952451 -1.478813 2.150636 0.088522 -0.042842 902369.000000 0 0 1
-3.772804 30.837296 -19.177281 36.509464 -1.449056 2.123827 0.072244 -0.043178 676091.000000 0 0 1
-4.701904 30.221396 -18.293681 35.638454 -1.416452 2.109837 0.052678 -0.042914 -615387.000000 0 0 1
-5.392104 31.218396 -17.346881 36.118932 -1.399762 2.071760 0.060360 -0.029550 321412.000000 0 0 1
-6.184504 32.214596 -18.010081 37.421802 -1.381126 2.072902 0.075192 -0.030879 281214.000000 0 0 1
-6.497904 33.330896 -17.197381 38.064698 -1.378260 2.039571 0.076073 -0.039314 -220796.000000 0 0 1
-6.972304 -34.049094 -17.979781 39.130887 1.368816 2.048204 0.069009 -0.022273 200813.000000 0 0 1
-8.231304 34.263796 -18.587581 39.840434 -1.335031 2.056183 0.078519 -0.035609 334660.000000 0 0 1
-8.797704 -33.217194 -19.346281 39.434251 1.311887 2.083570 0.108035 -0.041793 -117442.000000 0 0 1
29.720196 -20.957004 -25.900871 44.646850 -0.614170 2.189682 0.044038 0.000847 -342080.000000 0 0 1
28.957496 -21.954004 -25.325121 44.293076 -0.648694 2.179449 0.050981 -0.009011 -961932.000000 0 0 1
27.731496 -22.054904 -25.980591 43.936838 -0.671870 2.203487 0.049474 -0.007591 -201816.000000 0 0 1
26.934596 -23.355104 -25.611041 43.895999 -0.714341 2.193764 0.046181 -0.012356 142153.000000 0 0 1
27.359096 -24.633004 -26.185581 45.177314 -0.733013 2.189056 0.041963 -0.001946 -147237.000000 0 0 1
28.618096 -25.010404 -25.668151 45.862509 -0.718227 2.164791 0.049467 -0.000049 3939.210000 0 0 1
29.130796 -26.331094 -26.315391 47.269754 -0.734961 2.161212 0.042980 0.000660 209183.000000 0 0 1
28.366196 -27.419144 -25.866551 47.175513 -0.768423 2.151132 0.057545 -0.009649 -300232.000000 0 0 1
28.986496 -28.530894 -26.393451 48.485494 -0.777477 2.146420 0.044689 -0.007112 618171.000000 0 0 1
28.001096 -29.454974 -27.220241 48.914194 -0.810697 2.160951 0.048849 -0.005804 312824.000000 0 0 1
27.539596 -28.758714 -28.403071 48.910402 -0.807049 2.190405 0.038369 -0.009741 344945.000000 0 0 1
28.468296 -28.585474 -29.491291 49.973087 -0.787452 2.202033 0.028819 -0.016303 -43187.800000 0 0 1
28.821296 -29.886374 -30.278861 51.387468 -0.803538 2.200898 0.042202 -0.012231 125342.000000 0 0 1
29.532296 -30.892254 -29.533231 51.949010 -0.807901 2.175483 0.050231 -0.013465 258808.000000 0 0 1
30.885796 -30.697064 -29.163611 52.409525 -0.782333 2.160911 0.037885 -0.012208 215726.000000 0 0 1
31.944596 -30.863774 -30.282641 53.759354 -0.768192 2.169171 0.025180 -0.007496 -237725.000000 0 0 1
32.061096 -29.583474 -30.879711 53.447660 -0.745228 2.186773 0.034247 -0.014830 175419.000000 0 0 1
33.394196 -29.196854 -31.192051 54.227047 -0.718439 2.183660 0.030164 -0.018133 101039.000000 0 0 1
33.515796 -27.735214 -31.778041 53.873877 -0.691302 2.201682 0.030357 -0.009498 140692.000000 0 0 1
33.018096 -26.567984 -31.043841 52.533537 -0.677569 2.203012 0.025271 -0.002224 -403564.000000 0 0 1
31.758996 -26.571944 -30.446431 51.397346 -0.696707 2.204798 0.039324 -0.004174 -551235.000000 0 0 1
31.454696 -25.333684 -29.528881 50.031473 -0.678026 2.202110 0.039266 -0.018240 -498486.000000 0 0 1
32.147896 -25.235404 -28.343731 49.736103 -0.665514 2.177159 0.040083 -0.006423 -334849.000000 0 0 1
31.837496 -24.055004 -27.723201 48.588530 -0.647047 2.177997 0.030422 -0.008503 -135538.000000 0 0 1
32.872596 -23.560204 -26.675491 48.448659 -0.621855 2.153871 0.015285 -0.007255 -47673.100000 0 0 1
32.954296 -24.271504 -25.475791 48.208998 -0.634818 2.127564 0.033511 -0.011579 642509.000000 0 0 1
32.032496 -23.794304 -24.472481 46.809743 -0.638889 2.120937 0.035516 -0.001118 399189.000000 0 0 1
32.520996 -22.503404 -23.671481 46.090752 -0.605313 2.110153 0.041173 -0.004895 17225.100000 0 0 1
32.711496 -21.342804 -24.473481 46.092391 -0.578100 2.130536 0.042184 -0.006564 24050.800000 0 0 1
32.915796 -20.214404 -23.690881 45.313680 -0.550741 2.120952 0.033462 -0.012069 -90139.500000 0 0 1
33.184796 -19.038704 -24.646881 45.510127 -0.520870 2.143099 0.030602 -0.015261 149840.000000 0 0 1
31.967596 -18.678504 -25.258851 44.819898 -0.528792 2.169489 0.042110 -0.008933 290426.000000 0 0 1
32.114096 -17.464704 -25.961301 44.836594 -0.498096 2.188323 0.033135 -0.008594 883851.000000 0 0 1
31.012396 -17.222604 -27.106851 44.644912 -0.506938 2.223285 0.019308 0.006469 1322470.000000 0 0 1
29.657996 -17.125904 -26.667341 43.405534 -0.523671 2.232392 0.021046 0.009999 190259.000000 0 0 1
28.809496 -17.150204 -27.795861 43.551423 -0.536954 2.262994 0.006943 0.006719 -165066.000000 0 0 1
27.349296 -16.984304 -27.315601 42.220761 -0.555728 2.274401 0.010304 0.010714 232541.000000 0 0 1
26.793196 -18.108304 -26.548261 41.840127 -0.594337 2.258179 0.020575 0.012431 232218.000000 0 0 1
27.012196 -17.963604 -25.166641 41.057394 -0.586861 2.230601 0.034483 0.018712 -34705.200000 0 0 1
26.034596 -18.782004 -24.259681 40.237992 -0.624961 2.217933 0.051455 0.020657 145798.000000 0 0 1
25.915096 -18.178204 -22.988281 39.121610 -0.611700 2.198899 0.063964 0.019571 328607.000000 0 0 1
25.262296 -19.110304 -22.093781 38.620234 -0.647632 2.179833 0.077082 0.012147 48571.600000 0 0 1
25.207496 -18.674304 -20.576081 37.516964 -0.637602 2.151303 0.082333 0.003192 246294.000000 0 0 1
24.228196 -17.686904 -20.219181 36.175231 -0.630586 2.163883 0.076186 0.003262 380373.000000 0 0 1
24.280996 -16.403504 -20.889081 35.986045 -0.594141 2.190111 0.074315 0.006036 101605.000000 0 0 1
25.538996 -15.503404 -20.667281 36.328121 -0.545586 2.175971 0.064029 0.001279 394121.000000 0 0 1
25.700496 -14.823804 -19.386481 35.441449 -0.523179 2.149573 0.063275 -0.013992 -281391.000000 0 0 1
26.988796 -14.318804 -19.181981 36.074529 -0.487785 2.131441 0.052226 -0.004758 -428165.000000 0 0 1
27.245396 -13.239004 -18.145581 35.310692 -0.452318 2.110502 0.062570 -0.009147 -198178.000000 0 0 1
27.263296 -13.698804 -16.802781 34.832140 -0.465616 2.074181 0.045650 -0.009899 282108.000000 0 0 1
27.011296 -12.579404 -15.920181 33.783186 -0.435840 2.061499 0.030227 -0.002502 78977.900000 0 0 1
27.434796 -12.849204 -14.438281 33.559411 -0.438012 2.015544 0.043134 -0.005653 -408920.000000 0 0 1
26.848896 -13.918104 -13.806481 33.244485 -0.478248 1.999070 0.061590 -0.016768 83785.700000 0 0 1
27.538496 -14.254804 -12.598981 33.470921 -0.477653 1.956721 0.062657 -0.021247 -28333.400000 0 0 1
27.011896 -15.485604 -11.826381 33.306302 -0.520547 1.933795 0.062659 -0.034576 517838.000000 0 0 1
25.640696 -15.284904 -11.456281 31.973739 -0.537561 1.937246 0.041841 -0.032654 778213.000000 0 0 1
25.078396 -16.500504 -11.024681 31.980247 -0.581949 1.922752 0.034270 -0.028991 534503.000000 0 0 1
23.600796 -16.499804 -10.503781 30.652415 -0.610136 1.920558 0.042122 -0.029311 543281.000000 0 0 1
23.481996 -15.843704 -9.287381 29.810779 -0.593555 1.887614 0.040092 -0.024716 -196004.000000 0 0 1
22.135396 -15.655004 -8.983581 28.561506 -0.615568 1.890763 0.051721 -0.027897 -864845.000000 0 0 1
21.843396 -15.328304 -7.517181 27.723616 -0.611890 1.845381 0.057203 -0.026387 -320327.000000 0 0 1
22.233096 -14.006004 -7.162381 27.235609 -0.562160 1.836904 0.063234 -0.019582 512082.000000 0 0 1
21.865296 -13.677904 -5.807781 26.436841 -0.558997 1.792288 0.060275 -0.018133 -292284.000000 0 0 1
22.733596 -14.268304 -4.651181 27.240308 -0.560489 1.742383 0.053050 -0.018359 -131197.000000 0 0 1
24.100596 -13.974704 -4.846281 28.277509 -0.525471 1.743029 0.046200 -0.011844 451826.000000 0 0 1
24.901696 -14.898804 -4.075581 29.303228 -0.539172 1.710332 0.040632 -0.014497 113206.000000 0 0 1
26.422996 -14.781704 -4.288181 30.578783 -0.510051 1.711494 0.054482 -0.015896 -247663.000000 0 0 1
26.968296 -13.652404 -3.609181 30.441802 -0.468626 1.689636 0.057789 -0.015856 452365.000000 0 0 1
28.269596 -13.432004 -4.160681 31.573724 -0.443562 1.702957 0.072172 -0.023606 220713.000000 0 0 1
28.946496 -12.224304 -3.500281 31.616218 -0.399587 1.681735 0.094344 -0.027831 -1305610.000000 0 0 1
29.331996 -12.369704 -2.152181 31.906229 -0.399084 1.638301 0.101920 -0.040439 419485.000000 0 0 1
29.818596 -11.175704 -1.532181 31.880913 -0.358586 1.618874 0.105118 -0.039373 -910178.000000 0 0 1
31.166296 -10.641104 -1.944481 32.990182 -0.329020 1.629772 0.101664 -0.032474 -1285030.000000 0 0 1
31.174296 -10.246404 -3.309681 32.981503 -0.317558 1.671315 0.096886 -0.022783 -1330420.000000 0 0 1
32.350796 -10.591604 -3.879381 34.260848 -0.316400 1.684270 0.094301 -0.015978 -1485550.000000 0 0 1
32.344596 -10.374204 -5.416381 34.396718 -0.310374 1.728922 0.090330 -0.016792 -75685.200000 0 0 1
31.358296 -11.204304 -5.990881 33.834447 -0.343163 1.748799 0.081472 -0.018753 242124.000000 0 0 1
31.088796 -10.959304 -7.345181 33.772345 -0.338915 1.790040 0.072122 -0.018587 -178526.000000 0 0 1
29.859996 -11.753204 -7.814181 33.027543 -0.374986 1.809657 0.062576 -0.017591 -142751.000000 0 0 1
30.004196 -13.169704 -7.888181 33.703357 -0.413609 1.807035 0.065944 -0.016186 -425764.000000 0 0 1
28.805196 -13.814104 -8.189981 32.979457 -0.447170 1.821758 0.061171 -0.018799 -357330.000000 0 0 1
28.891196 -15.327604 -8.172881 33.711017 -0.487771 1.815676 0.070263 -0.028394 87685.000000 0 0 1
29.431496 -15.931504 -9.360481 34.751178 -0.496145 1.843522 0.080910 -0.035535 271389.000000 0 0 1
29.288196 -17.286404 -9.220081 35.236743 -0.533195 1.835539 0.076933 -0.038674 -371583.000000 0 0 1
29.514896 -18.015904 -10.501981 36.138532 -0.548032 1.865654 0.077638 -0.044288 -136547.000000 0 0 1
30.784096 -17.839604 -11.102181 37.271577 -0.525215 1.873260 0.093959 -0.038715 134543.000000 0 0 1
30.861596 -18.167004 -12.500681 37.930795 -0.532040 1.906640 0.074865 -0.030147 126531.000000 0 0 1
30.165796 -17.262104 -13.572881 37.311909 -0.519758 1.943106 0.078760 -0.034339 416450.000000 0 0 1
31.022696 -16.147804 -13.878181 37.626628 -0.479925 1.948556 0.073619 -0.027129 606312.000000 0 0 1
30.482296 -15.343104 -14.907581 37.239994 -0.466320 1.982653 0.057633 -0.025034 -530556.000000 0 0 1
31.513296 -14.348404 -15.459581 37.920485 -0.427263 1.990713 0.050245 -0.016309 320427.000000 0 0 1
32.443596 -14.858004 -16.404381 39.274049 -0.429457 2.001698 0.034501 -0.018523 1565530.000000 0 0 1
33.779996 -15.126504 -15.903981 40.284437 -0.421019 1.976638 0.044485 -0.019524 947328.000000 0 0 1
34.741596 -15.699104 -16.966881 41.729072 -0.424418 1.989522 0.057099 -0.014137 -426998.000000 0 0 1
36.077496 -15.709504 -16.548681 42.687622 -0.410678 1.968898 0.071635 -0.015502 -738525.000000 0 0 1
-35.589835 -16.026704 -17.608581 42.820015 0.423117 1.994592 0.077984 -0.011903 705722.000000 0 0 1
-34.065435 -15.946604 -17.192781 41.356254 0.437817 1.999535 0.089389 -0.013657 801990.000000 0 0 1
-33.646935 -16.889304 -16.222781 40.994432 0.465212 1.977660 0.080245 -0.022054 151301.000000 0 0 1
-34.103735 -16.699004 -14.854381 40.774675 0.455336 1.943682 0.084098 -0.025834 -389724.000000 0 0 1
-33.404435 -17.596104 -13.767481 40.187345 0.484825 1.920461 0.082999 -0.030748 -1006230.000000 0 0 1
-32.129135 -17.145604 -13.517981 38.845706 0.490201 1.926224 0.082726 -0.030102 -1094050.000000 0 0 1
-31.508035 -17.871704 -12.483281 38.314310 0.515961 1.902667 0.080635 -0.021577 -210618.000000 0 0 1
-29.969735 -17.883204 -12.566681 37.093334 0.537996 1.916422 0.090876 -0.026882 -70251.800000 0 0 1
-29.513035 -16.575704 -12.191381 35.977812 0.511736 1.916499 0.083798 -0.027006 1210330.000000 0 0 1
-28.166935 -16.632804 -11.619481 34.713668 0.533411 1.912108 0.076205 -0.020131 1460900.000000 0 0 1
-27.971835 -16.463904 -10.094881 33.991033 0.531987 1.872332 0.083411 -0.022822 40980.300000 0 0 1
-28.687935 -17.449404 -9.382581 34.864195 0.546463 1.843273 0.080135 -0.021431 -187440.000000 0 0 1
-29.051835 -17.017204 -8.129481 34.636437 0.529878 1.807715 0.074822 -0.020118 -182377.000000 0 0 1
-29.695335 -18.138004 -7.269281 35.547750 0.548325 1.776742 0.069315 -0.013627 1175370.000000 0 0 1
-30.943435 -18.716504 -7.754881 36.985698 0.543987 1.782036 0.056602 -0.013856 1030280.000000 0 0 1
-30.775335 -19.646904 -8.807881 37.559298 0.568176 1.807507 0.057574 -0.013775 -7736.160000 0 0 1
-32.045035 -20.496204 -9.144981 39.123002 0.569034 1.806729 0.049351 -0.020409 -238181.000000 0 0 1
-33.090835 -19.677804 -9.551181 39.666666 0.536484 1.813972 0.055792 -0.022922 -1163090.000000 0 0 1
-34.154735 -20.522304 -9.857381 41.047275 0.541054 1.813314 0.059760 -0.027626 -456970.000000 0 0 1
-35.446535 -19.758604 -10.225281 41.849918 0.508522 1.817627 0.063000 -0.037421 -86625.300000 0 0 1
-35.511735 -19.282604 -11.576481 42.034712 0.497447 1.849805 0.065737 -0.036927 71880.600000 0 0 1
35.673796 -18.918004 -11.892981 42.094579 -0.487597 1.857227 0.076927 -0.041635 145569.000000 0 0 1
35.323396 -18.669504 -13.411281 42.144456 -0.486211 1.894649 0.069733 -0.036198 -63402.700000 0 0 1
35.347096 -19.862204 -14.186781 42.955664 -0.511948 1.907381 0.059438 -0.031283 255212.000000 0 0 1
34.635196 -19.690104 -15.403781 42.715026 -0.516936 1.939726 0.047025 -0.025937 212094.000000 0 0 1
33.375796 -20.551104 -15.605381 42.187908 -0.551919 1.949700 0.066738 -0.032266 43894.700000 0 0 1
32.305396 -20.187504 -14.726181 40.841576 -0.558524 1.939674 0.082204 -0.038984 495956.000000 0 0 1
31.088396 -20.898004 -14.847481 40.294697 -0.591832 1.948162 0.095565 -0.041553 700182.000000 0 0 1
30.213996 -20.522004 -16.096181 39.913973 -0.596644 1.985886 0.096042 -0.037194 -280484.000000 0 0 1
29.430196 -19.333004 -15.848181 38.614328 -0.581218 1.993713 0.090295 -0.040893 271762.000000 0 0 1
28.485096 -19.160804 -16.862581 38.247663 -0.592141 2.027374 0.088741 -0.040240 -26676.500000 0 0 1
27.629696 -17.858504 -16.776181 36.929210 -0.573806 2.042360 0.084956 -0.037273 307026.000000 0 0 1
26.368096 -17.984304 -16.141281 35.766641 -0.598576 2.039012 0.089446 -0.046413 75754.400000 0 0 1
25.800596 -16.714904 -16.114781 34.709436 -0.574862 2.053614 0.065725 -0.028811 -362210.000000 0 0 1
24.403396 -16.738004 -15.418381 33.367844 -0.601192 2.051128 0.041912 -0.022891 1740000.000000 0 0 1
23.217596 -17.243704 -16.112381 33.106056 -0.638813 2.079093 0.034836 -0.025836 1529430.000000 0 0 1
22.863896 -16.552904 -17.292081 33.102454 -0.626636 2.120437 0.056031 -0.017677 -969640.000000 0 0 1
21.748696 -17.286804 -18.059881 33.136063 -0.671589 2.147212 0.043413 -0.015997 -533133.000000 0 0 1
20.520196 -17.026604 -17.465881 31.875393 -0.692619 2.150699 0.019487 -0.016534 -295907.000000 0 0 1
19.457896 -17.812204 -18.027681 31.951238 -0.741271 2.170290 0.013191 -0.017552 1300420.000000 0 0 1
18.007896 -17.625804 -17.466181 30.659758 -0.774676 2.176910 0.014369 -0.014450 523714.000000 0 0 1
17.415896 -16.387804 -17.732881 29.771272 -0.754994 2.208855 0.022093 -0.016591 -495913.000000 0 0 1
16.080196 -16.541704 -17.345281 28.862769 -0.799544 2.215494 0.023441 -0.014871 -747601.000000 0 0 1
15.229796 -15.285404 -17.536081 27.804755 -0.787220 2.253234 0.028098 -0.013385 -308802.000000 0 0 1
14.666496 -15.030604 -18.815981 28.196920 -0.797658 2.301382 0.029250 -0.001574 719713.000000 0 0 1
13.363996 -14.456104 -18.632881 27.106449 -0.824634 2.328695 0.033458 -0.000734 603601.000000 0 0 1
12.825896 -13.923204 -19.972681 27.518488 -0.826397 2.382980 0.038164 0.003231 -43122.900000 0 0 1
13.473996 -12.778304 -20.495281 27.656648 -0.758904 2.405446 0.035667 0.000959 146511.000000 0 0 1
12.699596 -12.240904 -21.563581 27.858706 -0.767009 2.455984 0.035050 -0.005286 59324.600000 0 0 1
13.310796 -10.940104 -22.063681 27.994092 -0.687951 2.478602 0.043791 -0.009017 -460766.000000 0 0 1
14.433296 -11.102804 -22.886681 29.247093 -0.655707 2.469513 0.044133 -0.012995 -316016.000000 0 0 1
14.867696 -9.805204 -23.352881 29.369158 -0.583023 2.490051 0.053580 -0.021438 447268.000000 0 0 1
16.065296 -9.808004 -24.336381 30.766055 -0.548111 2.483261 0.055044 -0.020726 525879.000000 0 0 1
15.660396 -10.278904 -25.602371 31.723576 -0.580835 2.509928 0.065241 -0.024431 79965.100000 0 0 1
16.806996 -10.292904 -26.413421 32.955846 -0.549500 2.500561 0.071144 -0.027887 -357202.000000 0 0 1
22.406296 5.759596 -7.378181 24.282763 0.251605 1.879522 0.119868 0.037949 -240453.000000 0 1 0
22.112696 7.140296 -7.365681 24.376390 0.312336 1.877759 0.088233 0.024720 243720.000000 0 1 0
21.352696 7.424896 -6.255281 23.456241 0.334648 1.840742 0.076751 0.020756 -663434.000000 0 1 0
21.006096 8.932796 -6.072781 23.620533 0.402080 1.830814 0.066097 0.016455 -501291.000000 0 1 0
19.934696 9.346196 -6.913481 23.076821 0.438411 1.875054 0.016145 0.008538 701667.000000 0 1 0
19.526896 10.733196 -6.914981 23.330626 0.502584 1.871708 0.018743 0.009555 -18345.300000 0 1 0
19.114796 11.269796 -5.540481 22.870956 0.532726 1.815480 0.039630 0.006955 -1664910.000000 0 1 0
20.116596 11.469596 -4.651881 23.619252 0.518186 1.769045 0.058922 0.004778 -672991.000000 0 1 0
19.794396 12.634196 -3.858281 23.797633 0.568086 1.733644 0.080093 -0.013217 -50269.200000 0 1 0
20.861296 12.933896 -2.795181 24.704096 0.554992 1.684186 0.078273 -0.026247 -442892.000000 0 1 0
22.115196 13.277996 -3.368181 26.014067 0.540715 1.700636 0.080526 -0.037181 238382.000000 0 0 1
23.064396 13.561296 -2.375081 26.861052 0.531531 1.659333 0.076413 -0.044676 -124820.000000 0 0 1
23.894696 12.311096 -1.961881 26.951225 0.475752 1.643655 0.075567 -0.039495 -642297.000000 0 0 1
25.022396 11.934996 -2.749881 27.859043 0.445057 1.669664 0.069673 -0.035680 188829.000000 0 0 1
25.709796 10.964796 -2.064081 28.026430 0.403126 1.644511 0.083695 -0.030819 -445703.000000 0 0 1
27.119496 10.709396 -2.650181 29.277665 0.376099 1.661439 0.093487 -0.033194 508226.000000 0 0 1
28.057096 11.767196 -2.347481 30.515212 0.397119 1.647801 0.076582 -0.037119 1241600.000000 0 0 1
29.413496 11.289296 -2.441981 31.600082 0.366475 1.648151 0.080361 -0.027507 799783.000000 0 0 1
30.449096 12.356196 -2.068781 32.925717 0.385495 1.633669 0.064169 -0.019365 -554190.000000 0 0 1
30.301096 12.710596 -0.690681 32.866285 0.397183 1.591813 0.081635 -0.022302 -22554.800000 0 0 1
31.092896 13.745896 -0.226581 33.996605 0.416258 1.577461 0.079178 -0.017128 -237920.000000 0 0 1
32.560596 13.353496 0.114019 35.192631 0.389193 1.567556 0.082485 -0.021741 344334.000000 0 0 1
33.472496 14.403196 0.361019 36.441602 0.406351 1.560889 0.077823 -0.024843 816661.000000 0 0 1
34.395796 14.823396 -0.675781 37.460119 0.406912 1.588837 0.074680 -0.019238 395270.000000 0 0 1
33.768696 15.776196 -1.705581 37.311154 0.437052 1.616525 0.052254 0.002485 -447453.000000 0 0 1
32.759296 15.210996 -2.492881 36.204424 0.434703 1.639707 0.063075 0.000582 -410649.000000 0 0 1
32.336996 16.280896 -3.375081 36.361244 0.466424 1.663751 0.056945 0.014417 -525120.000000 0 0 1
31.024896 15.876996 -4.013781 35.081813 0.473003 1.685459 0.068563 -0.001483 -1499350.000000 0 0 1
31.170796 14.904896 -5.039181 34.916583 0.446030 1.715623 0.048158 -0.004693 1047710.000000 0 0 1
29.991496 14.654296 -5.856981 33.890152 0.454498 1.744491 0.050250 -0.019105 1057020.000000 0 0 1
28.680796 14.229296 -5.157081 32.429252 0.460544 1.730500 0.050158 -0.024191 -823229.000000 0 0 1
27.604196 14.059596 -6.032681 31.560372 0.471082 1.763127 0.067594 -0.036670 52057.000000 0 0 1
26.517596 13.461596 -5.346581 30.215615 0.469747 1.748681 0.069034 -0.020896 272064.000000 0 0 1
25.311096 13.062396 -6.252381 29.161105 0.476424 1.786882 0.060933 -0.022605 -200307.000000 0 0 1
25.637696 12.115596 -7.235081 29.264748 0.441463 1.820615 0.059914 -0.011616 590680.000000 0 0 1
24.684696 11.825796 -8.280181 28.596242 0.446767 1.864558 0.065250 -0.009519 183396.000000 0 0 1
24.414496 13.007496 -9.275181 29.176901 0.489525 1.894304 0.063267 -0.003275 -128313.000000 0 0 1
23.813496 14.138096 -8.656981 29.015714 0.535775 1.873765 0.068319 -0.019201 -40950.300000 0 0 1
23.605796 15.207796 -9.519081 29.650018 0.572315 1.897632 0.060782 -0.020659 -782990.000000 0 0 1
22.737696 16.413196 -8.953681 29.437463 0.625240 1.879852 0.059701 -0.019985 330892.000000 0 0 1
21.393296 16.079296 -8.714581 28.145351 0.644527 1.885598 0.067372 -0.022622 74609.100000 0 0 1
21.224896 15.147096 -7.646781 27.173590 0.619827 1.856054 0.083313 -0.024790 -90131.800000 0 0 1
19.815696 14.385796 -7.725581 25.676789 0.627950 1.876409 0.105507 -0.022595 987330.000000 0 0 1
18.717196 15.187896 -7.418081 25.219705 0.681678 1.869350 0.110223 -0.038562 159675.000000 0 0 1
17.499996 14.472996 -7.678881 23.972540 0.691006 1.896863 0.106493 -0.050100 217902.000000 0 1 0
16.383896 14.847096 -6.714981 23.107558 0.736230 1.865647 0.101712 -0.031391 -400597.000000 0 1 0
16.438896 14.153596 -5.493381 22.377194 0.710835 1.818822 0.079855 -0.028653 218341.000000 0 1 0
16.160296 14.978796 -4.421081 22.473661 0.747474 1.768811 0.082265 -0.012644 -291966.000000 0 1 0
15.716596 14.190196 -3.174481 21.411454 0.734404 1.719606 0.054302 0.005815 -870791.000000 0 1 0
16.679396 13.320696 -2.669681 21.512098 0.673906 1.695218 0.043280 -0.008291 -78709.500000 0 1 0
16.351396 12.612796 -1.492681 20.704561 0.657031 1.642953 0.028265 -0.009466 -152633.000000 0 1 0
16.345996 13.397796 -0.181181 21.135878 0.686601 1.579369 0.030143 -0.013586 -210516.000000 0 1 0
15.313696 14.350696 -0.081381 20.987100 0.752946 1.574674 0.038950 -0.014846 92128.900000 0 1 0
15.350396 15.133196 1.088519 21.583168 0.778273 1.520341 0.033599 -0.010620 -902770.000000 0 1 0
14.183096 16.062796 1.314819 21.468637 0.847466 1.509514 0.045749 -0.002365 -918425.000000 0 1 0
14.117796 17.140396 0.391519 22.209426 0.881796 1.553167 0.053038 -0.004685 257926.000000 0 1 0
13.314396 18.173796 0.947219 22.548996 0.938515 1.528777 0.049806 -0.002431 -24946.200000 0 1 0
13.377696 19.541696 0.145419 23.682520 0.970500 1.564656 0.043356 0.002065 -153041.000000 0 1 0
12.937896 19.398096 -1.194381 23.347415 0.982586 1.621976 0.046909 -0.009154 191187.000000 0 1 0
12.333996 20.566296 -1.677181 24.039819 1.030584 1.640620 0.040983 -0.009280 336009.000000 0 1 0
10.793996 20.706796 -1.537081 23.401802 1.090272 1.636526 0.036988 -0.011317 354425.000000 0 1 0
10.366396 21.020796 -0.196581 23.438743 1.112644 1.579183 0.039815 0.005075 -40524.700000 0 1 0
9.060096 20.570196 0.080519 22.477205 1.155914 1.567214 0.031577 -0.012660 157339.000000 0 1 0
8.723296 20.430896 1.581919 22.271503 1.167262 1.499708 0.029469 -0.016237 36228.000000 0 1 0
8.663096 21.690996 2.201019 23.460456 1.190819 1.476840 0.037499 -0.002727 48139.800000 0 1 0
7.651396 21.526796 3.163619 23.064156 1.229287 1.433196 0.020438 -0.011751 -225945.000000 0 1 0
7.149596 22.875496 3.536819 24.226310 1.267871 1.424282 0.015655 -0.003858 -458746.000000 0 1 0
7.807896 23.370796 4.631619 25.072081 1.248367 1.384997 0.017947 -0.000681 89858.000000 0 0 1
7.083596 24.442796 5.218519 25.978078 1.288721 1.368538 0.010301 0.000844 256876.000000 0 0 1
7.687196 24.813196 6.637019 26.811148 1.270371 1.320649 0.003572 0.005490 42120.900000 0 0 1
7.097696 24.040996 7.668319 26.213544 1.283719 1.273922 0.005146 -0.012376 111390.000000 0 0 1
7.862296 24.108796 8.877919 26.867586 1.255554 1.234035 0.014307 -0.016665 -116956.000000 0 0 1
7.512996 23.239296 10.121419 26.437721 1.258113 1.177928 0.021046 -0.010847 91830.600000 0 0 1
6.389196 23.696696 10.855719 26.836577 1.307435 1.154351 0.015674 -0.007264 345147.000000 0 0 1
5.632196 22.713396 11.539819 26.091903 1.327731 1.112662 0.018272 -0.001023 170851.000000 0 0 1
4.286496 23.221396 12.092119 26.529731 1.388259 1.097531 0.023389 -0.010005 -145215.000000 0 0 1
3.375596 23.543096 11.089319 26.242046 1.428387 1.134508 0.011175 -0.002562 -18583.800000 0 0 1
2.073896 23.809896 11.588119 26.561187 1.483913 1.119336 0.014795 -0.005066 1232530.000000 0 0 1
0.948696 23.980296 10.464519 26.181306 1.531255 1.159613 0.033765 -0.005279 532328.000000 0 0 1
1.038996 25.215896 9.771319 27.062882 1.529616 1.201392 0.031779 -0.000609 591666.000000 0 0 1
0.031996 25.413496 8.756719 26.879861 1.569537 1.238968 0.032701 -0.002721 1011300.000000 0 0 1
-1.332304 26.003596 9.232619 27.626134 -1.519606 1.230041 0.041373 -0.007652 340620.000000 0 0 1
-2.129204 25.088596 9.948919 27.073089 -1.486132 1.194494 0.036324 -0.006504 1380.000000 0 0 1
-3.481204 25.475796 9.815919 27.522486 -1.434990 1.206116 0.045010 -0.009030 186586.000000 0 0 1
-4.614104 24.547596 10.383319 27.049727 -1.384999 1.176823 0.039523 -0.011060 567324.000000 0 0 1
-4.885904 24.539296 11.810019 27.668134 -1.374261 1.129795 0.033197 -0.003651 547409.000000 0 0 1
-5.664604 25.714296 12.192919 29.016892 -1.353969 1.137130 0.032071 -0.000332 157086.000000 0 0 1
-6.150804 25.697696 13.657319 29.744349 -1.335864 1.093751 0.033896 -0.010057 -311583.000000 0 0 1
-7.261004 24.898396 13.949719 29.449057 -1.287040 1.077321 0.036614 -0.012177 -73091.200000 0 0 1
-7.791604 24.991296 15.259419 30.300558 -1.268574 1.043033 0.031876 0.005749 -260603.000000 0 0 1
-9.107204 24.247496 15.462919 30.165942 -1.211505 1.032592 0.027856 -0.003331 -425851.000000 0 0 1
-10.293604 24.917396 15.107019 30.903995 -1.179040 1.060040 0.031348 -0.003972 -538892.000000 0 0 1
-11.357504 24.046796 15.345819 30.703997 -1.129546 1.047430 0.018766 -0.009268 -382615.000000 0 0 1
-12.732604 24.730896 15.175319 31.686381 -1.095343 1.071369 0.017708 -0.006651 -103664.000000 0 0 1
-13.112604 25.747996 16.093219 33.074029 -1.099763 1.062624 0.019858 -0.007671 158579.000000 0 0 1
-14.334004 26.307496 15.653419 33.802034 -1.071905 1.089317 0.016815 -0.006535 -240403.000000 0 0 1
-15.036404 27.250296 16.665219 35.304413 -1.066581 1.079189 0.032583 -0.006653 43582.500000 0 0 1
-16.094104 26.641096 17.371419 35.644556 -1.027362 1.061742 0.027623 -0.006411 44405.400000 0 0 1
-16.555104 27.357996 18.519519 36.952726 -1.026614 1.045848 0.047985 -0.012948 -594851.000000 0 0 1
-17.795704 26.767696 19.157719 37.419444 -0.984073 1.033317 0.032958 -0.009580 -466276.000000 0 0 1
-18.916104 27.100596 18.382819 37.817844 -0.961417 1.063188 0.032928 0.002083 -951288.000000 0 0 1
-20.106704 26.505596 18.747619 38.187686 -0.921824 1.057635 0.052249 0.006798 -156455.000000 0 0 1
-21.314804 26.868796 17.825119 38.652140 -0.900159 1.091486 0.041879 0.002300 -41328.000000 0 0 1
-21.717704 28.192596 17.888319 39.830555 -0.914408 1.105027 0.027737 0.000499 -152139.000000 0 0 1
-22.214204 28.604196 16.675919 39.871759 -0.910483 1.139291 0.023122 0.006278 -593858.000000 0 0 1
-23.179104 29.788196 16.714719 41.279405 -0.909533 1.153909 0.009696 0.004730 -1014180.000000 0 0 1
-24.405204 29.398896 17.226419 41.912511 -0.877946 1.147236 0.006709 0.006121 -1193030.000000 0 0 1
-25.290274 30.441796 17.100619 43.113015 -0.877570 1.162936 -0.013094 0.007636 -286252.000000 0 0 1
-26.635554 30.216396 17.838919 44.053494 -0.848300 1.153886 -0.006929 0.011774 369610.000000 0 0 1
-27.466944 29.124196 17.400619 43.651270 -0.814674 1.160776 0.009753 0.009921 728051.000000 0 0 1
-28.630264 29.092596 18.244619 44.709476 -0.793407 1.150457 0.025101 -0.006183 348440.000000 0 0 1
-28.801004 27.857096 19.046519 44.365364 -0.768740 1.127067 0.020740 -0.009384 -479534.000000 0 0 1
-29.116724 26.672596 18.335919 43.536386 -0.741616 1.136069 0.020922 -0.007268 -28500.600000 0 0 1
-29.432674 25.679896 19.273919 43.557127 -0.717410 1.112415 0.025115 -0.008484 -124419.000000 0 0 1
-29.445104 24.264296 18.632019 42.460833 -0.689236 1.116528 0.026904 -0.015837 556630.000000 0 0 1
-30.624844 23.890696 17.889719 42.763167 -0.662494 1.139175 0.037257 -0.016964 673850.000000 0 0 1
-30.340694 23.060396 16.785919 41.642606 -0.649901 1.155900 0.042201 -0.017251 -444574.000000 0 0 1
-30.789894 21.584696 16.908919 41.228973 -0.611418 1.148208 0.038711 -0.020790 140349.000000 0 0 1
-32.160534 21.463596 16.560519 42.062295 -0.588503 1.166128 0.047423 -0.014904 -98005.000000 0 0 1
-32.449634 20.099596 16.457819 41.567202 -0.554569 1.163713 0.049429 -0.016596 97436.100000 0 0 1
-33.810454 19.672096 15.861419 42.210458 -0.526956 1.185569 0.067187 -0.024245 -151746.000000 0 0 1
-34.025664 20.032096 14.523819 42.071035 -0.532095 1.218322 0.066912 -0.023725 194141.000000 0 0 1
-35.271776 19.536096 14.049019 42.698152 -0.505812 1.235519 0.074541 -0.022712 445992.000000 0 0 1
-35.631834 19.954696 12.581019 42.732886 -0.510507 1.271957 0.075168 -0.021102 3567.330000 0 0 1
-35.732652 21.369796 12.423919 43.449331 -0.538982 1.280809 0.061564 -0.028470 -50062.300000 0 0 1
-35.698713 21.821696 11.086719 43.283945 -0.548668 1.311770 0.053104 -0.025420 533117.000000 0 0 1
-34.406485 21.616496 10.203119 41.894901 -0.560946 1.324781 0.071105 -0.029284 375270.000000 0 0 1
-34.325197 20.296596 9.714619 41.043206 -0.534000 1.331836 0.077883 -0.025278 134546.000000 0 0 1
-33.093544 20.108296 9.030219 39.762684 -0.546004 1.341695 0.103154 -0.022636 137898.000000 0 0 1
-32.341434 18.903596 9.672719 38.689479 -0.528945 1.318107 0.092781 -0.026682 -166716.000000 0 0 1
-32.041174 19.318296 10.987419 38.994317 -0.542565 1.285158 0.088709 -0.028556 197061.000000 0 0 1
-31.461094 18.268296 11.771419 38.237382 -0.526080 1.257863 0.078401 -0.026245 -10410.300000 0 0 1
-31.157594 18.546496 13.259119 38.607932 -0.536918 1.220230 0.056470 -0.015830 722742.000000 0 0 1
-29.970324 19.348396 13.465019 38.129876 -0.573265 1.209876 0.054415 -0.011989 739389.000000 0 0 1
-30.143254 20.694396 13.179119 38.865961 -0.601632 1.224845 0.048515 -0.010669 -354230.000000 0 0 1
-28.853654 21.484396 13.387819 38.384193 -0.640035 1.214522 0.044561 -0.016852 -91648.800000 0 0 1
-28.465794 21.569996 14.746519 38.639694 -0.648444 1.179225 0.039914 -0.012237 -517532.000000 0 0 1
-27.172714 22.089496 14.893119 38.054004 -0.682575 1.168679 0.058830 -0.021660 -563586.000000 0 0 1
-26.583794 22.028296 16.306919 38.181927 -0.691960 1.129530 0.058266 -0.021039 -350288.000000 0 0 1
-26.025074 20.721196 16.510719 37.138609 -0.672420 1.110102 0.082125 -0.027694 54599.100000 0 0 1
-25.482084 20.643396 17.829919 37.328172 -0.680878 1.072815 0.067541 -0.013023 -183600.000000 0 0 1
-24.664204 19.360096 18.028719 36.168646 -0.665495 1.048972 0.068308 -0.014196 -55989.800000 0 0 1
-24.205604 19.191496 19.361519 36.456730 -0.670368 1.010919 0.065242 -0.017650 408171.000000 0 0 1
-23.156704 18.205496 19.344019 35.240092 -0.666261 0.989724 0.066779 -0.010394 447667.000000 0 0 1
-22.557004 18.216996 20.769719 35.665930 -0.679357 0.949191 0.068742 -0.013514 -156644.000000 0 0 1
-23.460704 17.690096 21.695619 36.524567 -0.646076 0.934773 0.076024 -0.008965 282538.000000 0 0 1
-22.887804 17.820696 23.012819 37.027269 -0.661562 0.900128 0.109026 -0.010676 73987.300000 0 0 1
-23.713104 17.193796 24.134519 37.952772 -0.627358 0.881610 0.094340 -0.016052 -375030.000000 0 0 1
-23.565004 15.813396 24.096819 37.229418 -0.591034 0.866822 0.100588 -0.026931 138176.000000 0 0 1
-24.337004 15.178296 25.098719 38.113202 -0.557643 0.851931 0.088812 -0.030108 -25781.100000 0 0 1
20.872596 24.603696 33.778300 46.711676 0.867260 0.762483 0.072961 -0.007539 -18405.100000 0 0 1
21.826396 23.666996 33.351306 46.355451 0.825835 0.767759 0.084719 -0.021848 -170747.000000 0 0 1
21.564996 22.318896 33.744865 45.846462 0.802576 0.743593 0.082599 -0.028184 -221415.000000 0 0 1
20.549796 21.486096 32.947188 44.378639 0.807668 0.734134 0.079313 -0.035586 -131738.000000 0 0 1
20.895596 20.947096 31.645843 43.322813 0.786629 0.751792 0.082249 -0.031191 -310419.000000 0 0 1
19.953996 19.996096 31.230563 42.111208 0.786452 0.735312 0.093903 -0.036418 -368562.000000 0 0 1
20.175396 19.409096 29.847553 40.922317 0.766042 0.753394 0.087067 -0.022983 180049.000000 0 0 1
21.386296 18.659196 29.756913 41.121930 0.717403 0.761754 0.088979 -0.017652 195020.000000 0 0 1
21.607196 18.136696 28.429203 40.050346 0.698297 0.781530 0.074878 -0.019161 338663.000000 0 0 1
22.909996 17.290796 28.378293 40.362942 0.646520 0.791080 0.074370 -0.009978 728097.000000 0 0 1
24.130396 17.951296 28.668813 41.550281 0.639604 0.809337 0.067380 -0.005644 711977.000000 0 0 1
25.202796 17.013596 28.897753 41.949058 0.593796 0.810857 0.050792 0.007055 436178.000000 0 0 1
26.600096 17.595596 29.127893 43.192641 0.584408 0.830683 0.028372 0.001276 -277996.000000 0 0 1
27.359896 17.633096 27.930963 42.890893 0.572490 0.861619 0.035867 0.006607 -486573.000000 0 0 1
28.662796 17.997296 28.270173 44.098313 0.560680 0.874903 0.015887 0.013394 -666769.000000 0 0 1
29.684696 17.894696 27.144503 44.025281 0.542495 0.906422 0.027034 0.018769 -388466.000000 0 0 1
29.312296 18.588096 25.977053 43.353608 0.565145 0.928307 0.029723 0.017905 -76076.800000 0 0 1
30.370496 18.560996 25.069583 43.535751 0.548579 0.957166 0.031229 0.027586 -446108.000000 0 0 1
30.618896 19.629296 24.083563 43.621601 0.570082 0.985913 0.039656 0.021291 146066.000000 0 0 1
29.628596 19.614196 23.031923 42.344301 0.584766 0.995694 0.037130 0.024695 627383.000000 0 0 1
29.728396 20.694196 22.127723 42.446006 0.608110 1.022406 0.032064 0.014735 -56636.200000 0 0 1
30.574596 20.334296 20.885123 42.243081 0.586898 1.053648 0.057724 0.013945 -156289.000000 0 0 1
29.974896 19.239896 20.189023 40.942211 0.570637 1.055135 0.061059 -0.009437 476110.000000 0 0 1
30.764396 18.700896 19.144823 40.776167 0.546190 1.082060 0.066341 -0.013004 -447235.000000 0 0 1
31.891196 17.740696 19.509323 41.381087 0.507658 1.079856 0.077370 -0.019778 -842621.000000 0 0 1
31.493396 16.529096 20.067323 40.838003 0.483324 1.057113 0.080782 -0.025214 2114.230000 0 0 1
32.482696 15.526996 20.183123 41.274345 0.445900 1.059854 0.074659 -0.031092 -455738.000000 0 0 1
31.751396 14.176996 20.493923 40.362597 0.419939 1.038231 0.076036 -0.036890 375190.000000 0 0 1
31.234696 14.160596 21.827723 40.651915 0.425645 1.003988 0.059044 -0.039010 423259.000000 0 0 1
30.010496 14.844596 22.057423 40.093912 0.459356 0.988260 0.048727 -0.025207 -466427.000000 0 0 1
29.217196 14.201796 23.203223 39.921487 0.452447 0.950567 0.031630 -0.024766 -289162.000000 0 0 1
28.651196 12.967996 22.885823 38.894998 0.425027 0.941718 0.033384 -0.023129 -212076.000000 0 0 1
27.828496 12.576096 23.949543 38.809329 0.424445 0.905734 0.019489 -0.004834 -160330.000000 0 0 1
27.262396 11.123796 23.764543 37.838216 0.387407 0.891743 0.031492 -0.006914 117233.000000 0 0 1
26.211996 11.022396 22.819723 36.459590 0.398061 0.894523 0.030633 0.000881 88403.600000 0 0 1
25.892896 9.716196 22.550023 35.684031 0.358986 0.886748 0.024563 0.004132 248898.000000 0 0 1
24.660496 9.521196 21.592123 34.132287 0.368459 0.885889 0.022741 -0.000063 1039310.000000 0 0 1
23.420196 9.548096 22.334123 33.741440 0.387115 0.847419 0.020260 0.003419 767930.000000 0 0 1
22.414096 8.917896 21.568623 32.359327 0.378669 0.841245 0.018344 0.017286 -186264.000000 0 0 1
20.974396 9.099196 22.077223 31.782455 0.409321 0.802883 0.026085 0.008177 -134183.000000 0 0 1
20.607896 8.460696 23.310223 32.243375 0.389573 0.762739 0.033368 0.011879 871254.000000 0 0 1
19.191296 8.363496 23.494913 31.468474 0.410980 0.727833 0.047316 0.005648 658222.000000 0 0 1
18.810396 7.547296 24.782813 32.015317 0.381566 0.685516 0.055439 0.001805 -175554.000000 0 0 1
19.003696 6.147396 24.687023 31.755000 0.312860 0.680240 0.056847 -0.002138 208529.000000 0 0 1
18.858396 5.563096 26.010383 32.605631 0.286857 0.647280 0.064829 -0.014764 -288632.000000 0 0 1
19.012796 4.000296 26.033183 32.484079 0.207375 0.641141 0.060386 -0.021560 -388502.000000 0 0 1
20.296396 3.625996 25.632963 32.895902 0.176787 0.677385 0.071514 -0.014027 -439025.000000 0 0 1
20.446596 2.238096 25.805343 32.999820 0.109026 0.672953 0.060078 -0.019845 614869.000000 0 0 1
21.950496 1.914796 25.505723 33.705083 0.087012 0.712496 0.048964 -0.017522 302722.000000 0 0 1
22.774296 2.190096 26.604553 35.089419 0.095870 0.710259 0.054034 -0.024369 128477.000000 0 0 1
24.123696 2.006696 26.172183 35.650564 0.082993 0.746410 0.057443 -0.016860 295503.000000 0 0 1
25.138596 2.552896 27.183123 37.113185 0.101206 0.748900 0.036290 -0.014426 -1136070.000000 0 0 1
25.229796 1.708896 28.304583 37.955400 0.067630 0.729162 0.040111 -0.018103 730906.000000 0 0 1
26.067596 2.305496 29.347363 39.320511 0.088213 0.728216 0.034689 -0.003978 1064510.000000 0 0 1
27.574296 2.561996 29.083623 40.159218 0.092646 0.760911 0.022886 0.002695 -562225.000000 0 0 1
27.678696 3.782296 28.359333 39.807886 0.135809 0.777877 0.022579 0.014067 708890.000000 0 0 1
28.985396 4.182296 27.892603 40.443072 0.143301 0.809755 0.022064 0.011791 796471.000000 0 0 1
29.660296 3.348496 26.777143 40.099389 0.112419 0.839588 0.034962 0.006435 -333006.000000 0 0 1
29.183196 3.501496 25.444203 38.875788 0.119412 0.857275 0.025208 0.012143 -263730.000000 0 0 1
29.576996 2.456696 24.619743 38.561196 0.082871 0.878302 0.040073 0.021616 -499936.000000 0 0 1
29.314196 2.432696 23.086423 37.392821 0.082797 0.905360 0.037638 0.012098 67656.200000 0 0 1
30.057096 3.353896 22.269623 37.558138 0.111124 0.936095 0.042417 0.007383 368440.000000 0 0 1
31.411896 2.891896 22.102123 38.517193 0.091805 0.959628 0.053058 0.000341 538864.000000 0 0 1
32.180096 4.111596 21.494523 38.916299 0.127080 0.985643 0.061651 -0.004770 -591390.000000 0 0 1
31.785896 4.470396 20.157523 37.903210 0.139724 1.010053 0.053093 -0.012323 -62059.900000 0 0 1
32.095796 5.828596 19.845123 38.183001 0.179642 1.024253 0.053493 -0.005098 564949.000000 0 0 1
33.619296 6.190896 19.663023 39.436262 0.182107 1.048810 0.041832 0.001332 673053.000000 0 0 1
34.377296 6.085996 20.875523 40.677086 0.175220 1.031886 0.044946 -0.000100 134194.000000 0 0 1
34.213696 7.155296 21.808323 41.199250 0.206164 1.012976 0.043576 -0.005166 -751203.000000 0 0 1
34.876896 6.884596 23.138423 42.416767 0.194891 0.993809 0.051052 0.002551 -242694.000000 0 0 1
34.144096 5.999596 23.917083 42.116995 0.173938 0.966877 0.058548 0.012331 100946.000000 0 0 1
34.981796 5.497296 24.936163 43.310028 0.155873 0.957263 0.059028 0.007057 210150.000000 0 0 1
34.251396 4.505996 25.870123 43.159303 0.130805 0.928032 0.058526 0.010035 88003.200000 0 0 1
34.119996 3.236496 25.227003 42.556442 0.094573 0.936278 0.064072 0.005598 100692.000000 0 0 1
33.441396 2.343996 26.091053 42.480164 0.069978 0.909432 0.048967 0.003571 -76880.400000 0 0 1
33.397796 0.863096 25.658263 42.124864 0.025837 0.915871 0.057089 0.000804 -465694.000000 0 0 1
32.534496 0.553196 24.610073 40.797735 0.017002 0.923262 0.068652 -0.001517 -158427.000000 0 0 1
32.705696 -0.807404 24.242433 40.718669 -0.024682 0.933078 0.064971 -0.006836 638705.000000 0 0 1
31.560196 -1.239704 23.229923 39.207297 -0.039260 0.936650 0.068382 0.001578 899902.000000 0 0 1
30.265196 -1.323804 23.797623 38.523518 -0.043712 0.904927 0.056044 0.006273 -617581.000000 0 0 1
29.411096 -1.899704 22.883723 37.313352 -0.064502 0.910583 0.069735 -0.004377 -42004.300000 0 0 1
27.913096 -1.888604 23.291923 36.403591 -0.067557 0.876526 0.034455 0.012470 59097.300000 0 0 1
27.340996 -0.648604 23.157323 35.835909 -0.023718 0.868196 0.046395 0.009324 -260372.000000 0 0 1
25.950596 -0.844104 22.941923 34.647912 -0.032516 0.847119 0.043355 0.013503 368161.000000 0 0 1
25.170496 0.513196 22.787323 33.957022 0.020386 0.835154 0.045554 0.011784 57768.900000 0 0 1
25.332896 1.215696 21.557623 33.286103 0.047952 0.866305 0.036641 0.003619 422769.000000 0 0 1
24.402596 2.298896 21.524223 32.619991 0.093930 0.850180 0.021998 0.006969 125069.000000 0 0 1
24.595196 3.145496 20.258023 32.018828 0.127200 0.885773 0.020797 -0.002487 -68979.400000 0 0 1
24.172796 2.581296 19.019423 30.866254 0.106382 0.906903 0.040397 -0.011091 241941.000000 0 0 1
24.139696 3.611996 18.069723 30.369167 0.148527 0.933528 0.034900 -0.012013 -59925.100000 0 0 1
23.664896 3.239396 16.640723 29.110731 0.136041 0.962299 0.045994 -0.020738 28360.900000 0 0 1
24.683196 2.694096 15.820323 29.441483 0.108717 1.003507 0.039248 -0.026364 270855.000000 0 0 1
24.401596 2.858596 14.434123 28.494795 0.116616 1.039614 0.031422 -0.035301 306604.000000 0 0 1
23.445296 1.786196 13.761223 27.244149 0.076039 1.041290 0.040413 -0.020146 667505.000000 0 0 1
22.098596 1.791796 14.208923 26.333476 0.080905 1.000862 0.039413 -0.018146 222642.000000 0 0 1
21.643596 0.497496 13.986723 25.774429 0.022982 0.997197 0.046710 -0.012254 -665932.000000 0 0 1
20.108196 0.343696 14.071023 24.544885 0.017091 0.960296 0.050429 -0.025859 87725.800000 0 1 0
19.321996 1.075296 13.122823 23.381708 0.055594 0.974909 0.060883 -0.026400 379446.000000 0 1 0
19.518696 0.840796 11.714223 22.779584 0.043050 1.030673 0.073632 -0.021410 -1144350.000000 0 1 0
19.291496 -0.553204 11.079023 22.253373 -0.028668 1.049669 0.072375 -0.014315 -606606.000000 0 1 0
20.224296 -1.495404 11.455023 23.291113 -0.073807 1.056618 0.075262 -0.024327 -463635.000000 0 1 0
21.403496 -1.485204 10.713223 23.981006 -0.069280 1.107681 0.072504 -0.019988 -1194160.000000 0 1 0
22.483496 -2.456004 11.114923 25.200815 -0.108804 1.114023 0.085475 -0.032894 -479608.000000 0 0 1
23.072596 -2.019304 12.374023 26.259069 -0.087297 1.080113 0.085244 -0.039285 308075.000000 0 0 1
23.781696 -3.022404 13.070623 27.304673 -0.126412 1.071628 0.072487 -0.032158 -294620.000000 0 0 1
24.228796 -2.408204 14.417723 28.296727 -0.099069 1.036170 0.121741 -0.033851 50002.600000 0 0 1
25.449696 -1.696504 14.316823 29.249557 -0.066563 1.059313 0.078931 -0.032381 177394.000000 0 0 1
25.703596 -1.126404 15.592323 30.084285 -0.043795 1.025948 0.068895 -0.034879 -366894.000000 0 0 1
27.005996 -0.355504 15.712623 31.246388 -0.013163 1.043890 0.080155 -0.032269 -890039.000000 0 0 1
28.180396 -1.094104 15.688023 32.271440 -0.038806 1.063144 0.084607 -0.029075 -442140.000000 0 0 1
29.264396 -0.235904 15.993923 33.350654 -0.008061 1.070633 0.066045 -0.023862 336627.000000 0 0 1
30.662696 -0.911704 15.951823 34.575899 -0.029725 1.091273 0.058177 -0.015001 412291.000000 0 0 1
31.159096 -1.256804 14.652923 34.455435 -0.040313 1.131534 0.058570 -0.011814 1027880.000000 0 0 1
32.441596 -1.925504 14.702823 35.669843 -0.059283 1.145938 0.053607 -0.010472 769788.000000 0 0 1
32.907196 -2.413204 13.383823 35.606654 -0.073203 1.185450 0.050764 -0.013002 -246224.000000 0 0 1
33.436396 -1.318204 12.634723 35.768233 -0.039404 1.209766 0.045520 -0.019366 174397.000000 0 0 1
33.780596 -1.704004 11.294523 35.659481 -0.050401 1.248513 0.049485 -0.022803 145513.000000 0 0 1
32.968296 -0.900304 10.217923 34.527164 -0.027301 1.270358 0.058779 -0.012420 -124122.000000 0 0 1
33.412796 0.418896 10.088023 34.904994 0.012536 1.277600 0.065542 -0.011482 844518.000000 0 0 1
32.382096 1.175896 9.430723 33.747910 0.036297 1.287579 0.051414 -0.014062 234847.000000 0 0 1
32.864096 2.479196 8.859623 34.127528 0.075295 1.308185 0.049331 -0.011902 -282679.000000 0 0 1
33.809796 2.382296 7.840723 34.788713 0.070345 1.343462 0.075884 -0.017625 69409.300000 0 0 1
34.107496 3.641696 7.206923 35.050292 0.106368 1.363703 0.074249 -0.016347 -194427.000000 0 0 1
34.956896 3.626996 5.934023 35.642002 0.103386 1.403528 0.086481 -0.012524 -199488.000000 0 0 1
35.065296 4.954096 5.376623 35.819354 0.140353 1.420123 0.074273 -0.005261 159091.000000 0 0 1
35.613996 4.943796 4.067323 36.184816 0.137935 1.458154 0.094507 -0.019721 -207649.000000 0 0 1
36.063696 6.369996 3.635023 36.801908 0.174829 1.471862 0.097365 -0.028695 -444526.000000 0 0 1
35.021096 7.293096 3.678423 35.961051 0.205314 1.468328 0.100996 -0.026360 -139142.000000 0 0 1
35.425596 8.576896 3.210723 36.590227 0.237539 1.482935 0.099837 -0.031657 444659.000000 0 0 1
34.149696 9.529496 3.176523 35.596395 0.272128 1.481440 0.115369 -0.030209 1417580.000000 0 0 1
33.210196 9.385796 2.113223 34.575656 0.275435 1.509639 0.128633 -0.032416 463411.000000 0 0 1
32.461096 8.178096 2.114023 33.542109 0.246799 1.507729 0.128008 -0.023057 -525250.000000 0 0 1
31.229296 8.184996 1.175223 32.305483 0.256328 1.534410 0.148845 -0.026320 126059.000000 0 0 1
31.527196 8.158496 -0.215777 32.566420 0.253222 1.577422 0.146188 -0.021886 -526082.000000 0 0 1
30.438996 7.705496 -0.938077 31.413168 0.247937 1.600663 0.146437 -0.023402 -901265.000000 0 0 1
30.632596 7.480096 -2.435877 31.626591 0.239501 1.647893 0.113407 -0.016778 -392613.000000 0 0 1
29.671496 6.664196 -3.071577 30.565401 0.220933 1.671458 0.117801 -0.027630 595545.000000 0 0 1
30.049596 6.476796 -4.386677 31.051087 0.212289 1.712543 0.111118 -0.027005 -26469.200000 0 0 1
28.919296 5.772296 -5.196077 29.944019 0.197011 1.745206 0.110351 -0.015725 -161154.000000 0 0 1
28.905896 4.307496 -4.980577 29.646441 0.147929 1.739596 0.110344 -0.023513 102255.000000 0 0 1
28.008596 3.748096 -5.853977 28.858252 0.133029 1.775067 0.105877 -0.020064 -830519.000000 0 0 1
27.699996 2.261496 -5.588677 28.348500 0.081462 1.769238 0.106595 -0.007675 -630268.000000 0 0 1
27.211396 2.031396 -4.286877 27.621802 0.074514 1.726625 0.103079 -0.022078 535659.000000 0 0 1
26.952096 0.623696 -4.117877 27.271989 0.023137 1.722369 0.087151 -0.018870 72082.100000 0 0 1
26.704396 0.274996 -2.625477 26.834558 0.010297 1.668792 0.091474 -0.014790 160933.000000 0 0 1
27.942596 0.456996 -1.967477 28.015504 0.016353 1.641082 0.107110 -0.017088 462465.000000 0 0 1
27.934696 0.193196 -0.584777 27.941484 0.006916 1.591726 0.104559 -0.012047 23040.900000 0 0 1
29.335896 0.559296 -0.011577 29.341229 0.019063 1.571191 0.110554 -0.011641 682938.000000 0 0 1
30.403196 -0.174704 -0.637577 30.410382 -0.005746 1.591764 0.102494 -0.012201 679966.000000 0 0 1
31.609196 0.517996 -0.308577 31.614946 0.016386 1.580557 0.090079 -0.016154 156072.000000 0 0 1
-2.557704 -21.333504 -8.653681 23.163472 1.451474 1.953674 0.014094 0.006125 157115.000000 0 1 0
-3.165604 -21.914504 -7.507781 23.380191 1.427336 1.897705 0.015712 0.002608 -76859.500000 0 1 0
-2.528904 -23.111904 -7.150481 24.324573 1.461810 1.869165 0.018121 0.004315 -58126.000000 0 1 0
-3.050804 -23.690404 -5.803281 24.580902 1.442723 1.809135 0.014215 0.004716 -374213.000000 0 1 0
-2.809204 -22.778104 -4.691581 23.425298 1.448087 1.772438 0.010579 -0.001531 -121650.000000 0 1 0
-3.479504 -23.208704 -3.528981 23.731932 1.421982 1.720052 0.016455 -0.001437 -355578.000000 0 1 0
-3.097104 -22.401404 -2.334281 22.734640 1.433412 1.673653 0.019861 -0.013370 304000.000000 0 1 0
-1.713004 -22.466604 -2.003581 22.620721 1.494697 1.659485 0.027414 -0.018508 19890.400000 0 1 0
-1.542904 -22.563104 -0.606681 22.623932 1.502521 1.597615 0.032524 -0.014144 -577606.000000 0 1 0
-0.063804 -22.596104 -0.290381 22.598060 1.567973 1.583646 0.032414 -0.016650 -286717.000000 0 1 0
0.666996 -21.397604 -0.591381 21.416164 -1.539635 1.598414 0.015622 -0.019733 1039060.000000 0 1 0
1.970796 -21.271104 0.022619 21.362220 -1.478409 1.569737 0.018322 -0.017177 1032340.000000 0 1 0
2.901596 -20.165304 -0.469681 20.378404 -1.427887 1.593846 0.019495 -0.016268 -46943.800000 0 1 0
3.548596 -20.561704 -1.619781 20.928447 -1.399897 1.648270 0.015836 -0.014682 -1117670.000000 0 1 0
4.601396 -19.696804 -1.900181 20.316192 -1.341301 1.664464 0.023374 -0.011611 -30422.200000 0 1 0
5.406196 -20.147504 -3.181881 21.101499 -1.308641 1.722163 0.028218 -0.011423 -249504.000000 0 1 0
6.369896 -21.152804 -2.920981 22.283376 -1.278297 1.702258 0.035444 -0.014011 -215716.000000 0 1 0
7.045696 -21.718604 -4.017581 23.183627 -1.257100 1.744970 0.040811 -0.016800 324920.000000 0 1 0
8.249596 -20.877404 -4.527981 22.900316 -1.194483 1.769834 0.059158 -0.020421 -399438.000000 0 1 0
7.912796 -19.757804 -5.257781 21.923217 -1.189868 1.812984 0.041569 -0.015899 -471442.000000 0 1 0
8.959996 -19.425904 -6.119481 22.250738 -1.138635 1.849411 0.050201 -0.009780 -532473.000000 0 1 0
8.788296 -18.179504 -6.965881 21.360057 -1.120502 1.902990 0.036169 -0.008426 507070.000000 0 1 0
10.003196 -17.836504 -7.660181 21.837655 -1.059679 1.929199 0.052997 -0.008292 927288.000000 0 1 0
9.767296 -16.585104 -8.310981 20.965165 -1.038564 1.978409 0.048940 -0.009368 300629.000000 0 1 0
10.178396 -16.492304 -9.812581 21.722859 -1.017854 2.039485 0.050612 -0.014284 -359699.000000 0 1 0
9.218196 -17.055104 -10.637781 22.113663 -1.075280 2.072648 0.046461 -0.024671 -250510.000000 0 1 0
9.059696 -16.318004 -11.842181 22.104131 -1.063972 2.136186 0.043107 -0.025602 -59989.400000 0 1 0
8.507496 -17.108704 -13.029781 23.127050 -1.109342 2.169292 0.055416 -0.027845 -363254.000000 0 1 0
7.136996 -17.384304 -13.010281 22.856469 -1.181235 2.176349 0.046098 -0.027858 -335795.000000 0 1 0
6.790796 -18.138004 -14.158981 23.991224 -1.212555 2.202070 0.057784 -0.017163 275696.000000 0 1 0
5.451096 -18.893204 -13.940781 24.104211 -1.289903 2.187507 0.060852 -0.008605 247635.000000 0 1 0
5.684496 -20.029504 -13.142181 24.621362 -1.294262 2.133851 0.068159 -0.021784 -62147.300000 0 1 0
4.555396 -20.871304 -12.972081 24.992756 -1.355905 2.116516 0.085113 -0.019223 30324.800000 0 1 0
4.804996 -22.263804 -12.368481 25.918030 -1.358236 2.068280 0.074909 -0.012573 -215697.000000 0 0 1
5.356996 -23.137904 -13.308581 27.224591 -1.343280 2.081561 0.087641 -0.021397 -379851.000000 0 0 1
5.009696 -24.527604 -13.151581 28.278340 -1.369320 2.054517 0.069348 -0.023396 128124.000000 0 0 1
3.601996 -24.953004 -13.588581 28.640467 -1.427435 2.065140 0.068164 -0.018337 -116289.000000 0 0 1
2.468196 -24.484604 -12.855381 27.764161 -1.470330 2.052197 0.077000 -0.016123 596675.000000 0 0 1
1.236596 -24.921704 -13.426881 28.335519 -1.521218 2.064458 0.051189 -0.021188 441390.000000 0 0 1
0.721096 -26.261834 -12.957281 29.293260 -1.543345 2.028991 0.029222 -0.012016 -993276.000000 0 0 1
1.455996 -27.275704 -13.588981 30.508103 -1.517466 2.032442 0.038510 -0.003563 -5030.840000 0 0 1
0.993896 -28.586324 -13.267181 31.530681 -1.536042 2.005091 0.037887 -0.003104 193868.000000 0 0 1
-0.446204 -29.019614 -13.665581 32.079358 1.555422 2.010855 0.031972 -0.009985 344481.000000 0 0 1
-1.492104 -28.416484 -12.961481 31.268562 1.518336 1.998213 0.018648 -0.015202 348250.000000 0 0 1
-2.794104 -28.737714 -13.470681 31.860987 1.473873 2.007324 0.023687 -0.013943 1984130.000000 0 0 1
-4.039804 -27.923514 -12.830481 30.994579 1.427119 1.997595 0.018281 -0.020008 1466490.000000 0 0 1
-4.341904 -28.061594 -11.464481 30.622533 1.417286 1.954525 0.023416 -0.020401 29425.700000 0 0 1
-4.764304 -29.408534 -11.133581 31.804357 1.410188 1.928436 0.008713 -0.020812 -605634.000000 0 0 1
-5.374404 -29.656744 -9.734481 31.672809 1.391522 1.883198 0.024703 -0.023150 -355371.000000 0 0 1
-6.673404 -29.190654 -9.526481 31.422643 1.346044 1.878816 0.029541 -0.018168 -716156.000000 0 0 1
-6.852304 -27.793174 -9.347681 30.113016 1.329071 1.886431 0.027604 -0.015069 -365548.000000 0 0 1
-8.315104 -27.497524 -8.872181 30.066100 1.277144 1.870345 0.030019 -0.011513 497128.000000 0 0 1
-9.356204 -27.624584 -9.787681 30.764507 1.244231 1.894572 0.042574 -0.014005 -321377.000000 0 0 1
-9.606504 -28.979704 -10.226881 32.197784 1.250705 1.894022 0.050177 -0.022628 -1487790.000000 0 0 1
-10.852404 -29.140844 -11.075781 33.009641 1.214296 1.912966 0.047385 -0.018554 -824404.000000 0 0 1
-10.762104 -28.499954 -12.342281 32.869472 1.209732 1.955726 0.058712 -0.022403 66428.300000 0 0 1
-11.630904 -29.056964 -13.312881 34.012026 1.190049 1.972967 0.058777 -0.025560 -124285.000000 0 0 1
-11.838504 -28.141524 -14.585581 33.835407 1.172593 2.016480 0.061607 -0.023631 -233577.000000 0 0 1
-12.895604 -27.199354 -14.560181 33.438008 1.128071 2.021321 0.048247 -0.029557 48284.800000 0 0 1
-12.736604 -26.142584 -13.689081 32.141044 1.117443 2.010760 0.063458 -0.021421 7334.180000 0 0 1
-13.793204 -25.023604 -13.888281 31.769759 1.067026 2.023228 0.086897 -0.018042 -159413.000000 0 0 1
-13.597704 -24.355704 -15.111881 31.724861 1.061606 2.067286 0.073846 -0.015275 -390920.000000 0 0 1
-14.522704 -23.366104 -15.363281 31.510541 1.014697 2.080089 0.078437 -0.013960 -858828.000000 0 0 1
-14.281404 -22.649904 -16.737181 31.577047 1.008232 2.129447 0.074255 -0.012122 144640.000000 0 0 1
-13.473404 -21.486804 -16.593281 30.307629 1.010721 2.150164 0.063913 -0.003736 357170.000000 0 0 1
-13.666504 -20.647904 -17.679981 30.425171 0.986113 2.190873 0.057520 0.005372 -208217.000000 0 0 1
-13.519504 -19.121304 -17.552581 29.265925 0.955362 2.214000 0.049395 0.002496 -364595.000000 0 0 1
-12.264504 -18.565404 -17.810181 28.500787 0.986998 2.245802 0.051018 0.009582 -175168.000000 0 0 1
-12.390204 -17.157204 -17.904281 27.720932 0.945354 2.272966 0.045117 0.006159 1194600.000000 0 0 1
-10.934904 -16.539204 -17.957081 26.750218 0.986622 2.306740 0.045722 0.002808 1334570.000000 0 0 1
-10.315704 -16.257104 -16.670481 25.467864 1.005370 2.284409 0.042727 0.011523 1339000.000000 0 0 1
-9.033604 -15.606104 -16.927881 24.732765 1.046073 2.324620 0.030648 0.006970 601450.000000 0 1 0
-8.435404 -14.889804 -15.709481 23.230370 1.055357 2.313453 0.025494 0.007335 64511.100000 0 1 0
-7.984004 -15.695604 -14.590381 22.868658 1.100231 2.262705 0.033818 0.005696 496543.000000 0 1 0
-6.938204 -16.623404 -14.921181 23.390551 1.175401 2.262584 0.033703 0.007886 -414882.000000 0 1 0
-6.552004 -17.379204 -13.685481 23.070715 1.210271 2.205821 0.031786 0.004382 -434281.000000 0 1 0
-5.849104 -16.630104 -12.664781 21.706429 1.232592 2.193776 0.027305 0.001331 414951.000000 0 1 0
-5.664004 -17.327304 -11.453481 21.529019 1.254862 2.131759 0.024182 -0.006884 -452742.000000 0 1 0
-4.591504 -18.412104 -11.522781 22.200495 1.326407 2.116515 0.029837 -0.007316 -337818.000000 0 1 0
-3.317604 -17.836004 -11.779381 21.630612 1.386892 2.146673 0.026083 -0.001455 163869.000000 0 1 0
-2.260304 -18.802404 -11.577181 22.196182 1.451157 2.119503 0.013310 0.000471 1416000.000000 0 1 0
-0.870204 -18.352304 -12.130681 22.016306 1.523415 2.154342 0.021110 0.002543 316408.000000 0 1 0
-0.748404 -18.365404 -13.594281 22.861598 1.530068 2.207607 0.030794 0.006075 -3886.610000 0 1 0
0.352196 -17.671804 -14.196681 22.670740 -1.550869 2.247481 0.029697 -0.003263 526877.000000 0 1 0
1.652296 -18.458804 -14.471381 23.513366 -1.481522 2.233757 0.037884 -0.006624 25162.900000 0 1 0
1.469796 -19.541504 -15.313281 24.870208 -1.495724 2.234106 0.047868 -0.007261 5463.500000 0 1 0
1.040196 -20.781904 -14.692781 25.472483 -1.520785 2.185614 0.049188 -0.005016 -881346.000000 0 0 1
1.003096 -21.923404 -15.757181 27.017228 -1.525074 2.193492 0.052892 -0.008054 -373269.000000 0 0 1
2.238396 -22.444704 -16.106981 27.716602 -1.471396 2.190914 0.084197 -0.012202 -350212.000000 0 0 1
3.206596 -21.552804 -16.656781 27.427249 -1.423101 2.223464 0.086916 -0.016592 -944181.000000 0 0 1
4.553996 -22.187004 -16.950681 28.290062 -1.368353 2.213266 0.086575 -0.018705 -584794.000000 0 0 1
4.703196 -22.983904 -18.083181 29.620624 -1.368953 2.227479 0.065483 -0.007336 1250360.000000 0 0 1
6.091096 -23.375504 -18.292781 30.300850 -1.315889 2.218937 0.073628 -0.008451 1449890.000000 0 0 1
6.515596 -23.416304 -19.763581 31.326912 -1.299411 2.253486 0.072292 -0.003330 -121959.000000 0 0 1
6.799396 -22.114804 -20.189981 30.707193 -1.272511 2.288292 0.079922 -0.019546 -132010.000000 0 0 1
7.224696 -22.096104 -21.525981 31.682833 -1.254786 2.317770 0.051912 -0.012388 49016.100000 0 0 1
7.437096 -20.653304 -22.046581 31.111430 -1.225159 2.358355 0.050916 -0.017479 -798711.000000 0 0 1
6.278996 -19.902104 -22.012381 30.332564 -1.265186 2.382849 0.071254 -0.017558 -888960.000000 0 0 1
6.459096 -18.568304 -22.419181 29.818141 -1.236033 2.421681 0.077135 -0.016194 68567.300000 0 0 1
5.115396 -17.863804 -22.716681 29.348430 -1.291904 2.455984 0.072136 -0.014560 -311589.000000 0 0 1
4.356296 -18.411904 -23.788281 30.395030 -1.338467 2.469688 0.068480 -0.014723 409010.000000 0 0 1
3.329996 -17.534104 -24.249281 30.109157 -1.383116 2.507111 0.071407 -0.008964 609165.000000 0 0 1
1.992796 -17.383404 -23.499281 29.297955 -1.456657 2.501565 0.068144 0.000206 -121017.000000 0 0 1
2.238896 -16.813404 -22.201181 27.939142 -1.438414 2.489188 0.085287 -0.004527 -288626.000000 0 0 1
1.233996 -15.864504 -21.904681 27.074347 -1.493169 2.513342 0.067358 -0.009662 140312.000000 0 0 1
1.364996 -15.063704 -20.614881 25.568569 -1.480428 2.508596 0.078139 -0.018087 -37269.300000 0 0 1
2.408596 -14.118304 -20.663081 25.141415 -1.401822 2.535490 0.082708 -0.015745 -216365.000000 0 0 1
2.521296 -13.534904 -19.368181 23.762933 -1.386626 2.523626 0.080507 -0.019316 387401.000000 0 1 0
3.671396 -12.492304 -19.187781 23.188526 -1.284952 2.545381 0.077403 -0.019077 762232.000000 0 1 0
4.979096 -13.082904 -19.088381 23.671081 -1.207142 2.508837 0.064228 -0.016173 809653.000000 0 1 0
6.100796 -12.291004 -19.438781 23.794005 -1.110063 2.526918 0.058696 -0.005976 524361.000000 0 1 0
6.425796 -11.077904 -18.507281 22.506227 -1.045171 2.536269 0.051388 -0.004341 -1658110.000000 0 1 0
5.558196 -9.992704 -18.597881 21.831831 -1.063186 2.590342 0.037775 0.008392 -536222.000000 0 1 0
5.688596 -9.013204 -19.595881 22.306872 -1.007794 2.643443 0.048534 0.002897 -142478.000000 0 1 0
4.829596 -9.197804 -20.892781 23.333086 -1.087286 2.680157 0.061844 -0.016553 -38036.800000 0 1 0
3.489196 -8.798004 -20.699981 22.761120 -1.193234 2.712743 0.054861 -0.020071 -451618.000000 0 1 0
2.740496 -9.201504 -21.820381 23.839191 -1.281330 2.727087 0.060669 -0.025602 101380.000000 0 1 0
1.223896 -8.964504 -21.661781 23.475370 -1.435108 2.745939 0.049958 -0.028845 38464.200000 0 1 0
0.855496 -7.586804 -21.656681 22.963085 -1.458510 2.802655 0.046447 -0.024437 -439868.000000 0 1 0
-0.536904 -7.461204 -21.818381 23.065116 1.498961 2.811299 0.044190 -0.020995 -24456.100000 0 1 0
-0.880904 -6.433504 -22.930681 23.832375 1.434718 2.865637 0.044738 -0.018663 -23113.000000 0 1 0
-0.667504 -6.902604 -24.264781 25.236305 1.474393 2.863216 0.042138 -0.017389 -119256.000000 0 0 1
-1.222904 -6.073904 -25.324261 26.071172 1.372115 2.901648 0.044469 -0.022429 264982.000000 0 0 1
-0.367904 -4.838504 -25.745221 26.198528 1.494906 2.955298 0.050077 -0.021994 -148765.000000 0 0 1
-0.908804 -4.194904 -26.877521 27.218087 1.357449 2.983234 0.026761 -0.016792 -109366.000000 0 0 1
-0.351604 -2.888004 -27.010961 27.167190 1.449646 3.034297 0.019198 -0.012978 -450863.000000 0 0 1
-0.988304 -1.692104 -26.201171 26.274347 1.042174 3.066942 0.023999 -0.020382 964976.000000 0 0 1
-2.408604 -1.509704 -26.317001 26.470079 0.559890 3.033995 0.019909 -0.015066 546447.000000 0 0 1
-2.834504 -0.967404 -27.545831 27.708177 0.328900 3.033289 0.027020 -0.011146 -579213.000000 0 0 1
-4.367404 -0.989004 -27.506181 27.868303 0.222695 2.980209 0.040712 -0.017772 -342198.000000 0 0 1
-4.950304 -0.096704 -26.528971 26.987055 0.019533 2.957080 0.042927 -0.024672 35086.900000 0 0 1
-6.346604 -0.334204 -26.543811 27.294046 0.052610 2.906586 0.053474 -0.029187 -92125.600000 0 0 1
-7.211004 0.724796 -25.849411 26.846153 -0.100176 2.868243 0.049657 -0.021395 -669116.000000 0 0 1
-7.441504 1.951096 -26.607831 27.697643 -0.256419 2.860141 0.049362 -0.024896 1031400.000000 0 0 1
-8.460304 1.974396 -27.657491 28.989856 -0.229268 2.837237 0.072737 -0.034876 -98518.500000 0 0 1
-9.882304 1.736096 -27.223771 29.013922 -0.173903 2.788478 0.077238 -0.026683 -1352610.000000 0 0 1
-10.936904 1.954396 -28.124011 30.238973 -0.176831 2.765368 0.081624 -0.038840 -444496.000000 0 0 1
-12.130604 1.378396 -27.733981 30.302231 -0.113144 2.726913 0.068105 -0.024606 -456604.000000 0 0 1
-13.351404 2.131896 -28.331311 31.392167 -0.158339 2.696327 0.051255 -0.022366 -732107.000000 0 0 1
-14.547904 1.436496 -28.162781 31.730856 -0.098423 2.662800 0.042567 -0.015548 936847.000000 0 0 1
-15.748104 1.980996 -28.785271 32.871248 -0.125135 2.637675 0.034365 -0.013290 1350020.000000 0 0 1
-16.355804 3.310596 -28.224871 32.788957 -0.199713 2.607644 0.013583 0.002860 -501813.000000 0 0 1
-15.572104 4.492796 -28.375921 32.678257 -0.280888 2.622647 0.024535 -0.002599 -46645.200000 0 0 1
-15.470004 5.107696 -29.633891 33.816816 -0.318899 2.638937 0.017486 -0.007527 224842.000000 0 0 1
-16.737904 5.778796 -30.293071 35.088774 -0.332439 2.612621 -0.003899 0.007481 367080.000000 0 0 1
-17.279304 6.865296 -29.612501 34.965795 -0.378188 2.580923 -0.001411 0.015072 254907.000000 0 0 1
-18.037704 7.685096 -30.525871 36.280136 -0.402766 2.570653 -0.002273 0.011480 25265.200000 0 0 1
-18.837904 8.746596 -29.761391 36.292009 -0.434689 2.532301 -0.004229 0.012010 -71717.500000 0 0 1
-17.948204 9.675996 -29.124421 35.552705 -0.494441 2.530794 0.000644 0.008465 445761.000000 0 0 1
-18.592504 10.821296 -28.656011 35.832228 -0.527097 2.497637 0.017840 0.000666 -329639.000000 0 0 1
-8.686604 24.911696 31.052683 40.747010 -1.235284 0.704269 -0.002254 -0.003081 -93413.400000 0 0 1
-9.646204 25.965796 31.273903 41.777133 -1.215101 0.724865 0.004711 -0.004806 279627.000000 0 0 1
-9.282704 26.992696 32.213363 43.040388 -1.239569 0.725082 0.021623 -0.013682 -522184.000000 0 0 1
-7.994404 27.760096 31.961773 43.082344 -1.290401 0.734932 0.018555 -0.016326 -503725.000000 0 0 1
-7.965604 28.454896 30.763213 42.655682 -1.297845 0.765265 0.033504 0.000497 -1089090.000000 0 0 1
-6.657604 28.601696 30.376733 42.250759 -1.342099 0.768487 0.023918 -0.001475 -942264.000000 0 0 1
-6.313604 29.742896 29.342973 42.255313 -1.361628 0.803182 0.050745 -0.012569 -208005.000000 0 0 1
-6.580204 31.037696 29.856453 43.566563 -1.361883 0.815772 0.051926 -0.007554 -19849.400000 0 0 1
-6.002304 32.051696 29.111153 43.712676 -1.385671 0.842008 0.055107 0.001961 -331488.000000 0 0 1
-6.249604 33.386496 29.740853 45.146805 -1.385748 0.851629 0.049708 -0.002749 -75890.500000 0 0 1
-5.376804 33.596596 30.849183 45.927262 -1.412102 0.834300 0.056160 -0.011281 159112.000000 0 0 1
-5.928104 -34.055894 31.817323 46.981788 1.398453 0.826809 0.060918 -0.001846 -320109.000000 0 0 1
-7.171204 34.152396 32.598736 47.754475 -1.363827 0.819438 0.048868 -0.005870 -545011.000000 0 0 1
-6.947804 33.237796 33.649614 47.805016 -1.364730 0.789933 0.055837 -0.010156 35609.100000 0 0 1
-6.795204 31.858096 33.345778 46.616027 -1.360649 0.773702 0.057760 -0.003415 -198362.000000 0 0 1
-6.847404 30.876096 -33.990751 46.428346 -1.352558 2.392214 0.056022 -0.006258 -441017.000000 0 0 1
-5.628804 31.009196 -33.332881 45.873027 -1.391231 2.384205 0.048903 -0.006600 -529864.000000 0 0 1
-5.689404 30.460196 -32.021801 44.559943 -1.386142 2.372616 0.061962 -0.014097 543598.000000 0 0 1
-4.269204 30.121296 -31.418751 43.733928 -1.430000 2.372306 0.059862 -0.017992 1163950.000000 0 0 1
-3.627404 28.942296 -31.864661 43.199203 -1.446114 2.400337 0.054965 -0.011072 130534.000000 0 0 1
-3.052504 28.965996 -33.150801 44.128475 -1.465802 2.420726 0.041664 -0.012774 -432055.000000 0 0 1
-2.565404 27.544496 -33.529091 43.468154 -1.477928 2.451753 0.043302 -0.017633 -1089630.000000 0 0 1
-1.390204 27.178196 -32.843501 42.653048 -1.519689 2.449661 0.064360 -0.017392 41434.100000 0 0 1
-0.923404 25.869396 -33.108911 42.027113 -1.535117 2.478023 0.084829 -0.018639 239045.000000 0 0 1
-0.448604 25.529996 33.943042 42.474840 -1.553226 0.644945 0.065527 -0.006739 -965586.000000 0 0 1
-1.519204 25.457596 33.077009 41.767041 -1.511191 0.656816 0.059155 -0.002702 -316167.000000 0 0 1
-1.087304 25.307996 31.689523 40.569727 -1.527860 0.674351 0.075864 -0.000546 238976.000000 0 0 1
-0.538104 26.560296 30.907343 40.755401 -1.550539 0.710000 0.045532 -0.002323 -909630.000000 0 0 1
-1.599104 27.349196 30.544133 41.030229 -1.512393 0.731116 0.034974 -0.009810 -943128.000000 0 0 1
-1.299904 28.641296 30.066593 41.545320 -1.525442 0.761639 0.027024 -0.012395 269988.000000 0 0 1
-2.423904 29.744196 30.211263 42.465432 -1.489484 0.779263 0.032171 -0.007976 477155.000000 0 0 1
-2.556404 30.101396 31.577183 43.700660 -1.486073 0.763270 0.039735 -0.016487 112216.000000 0 0 1
-3.404004 31.224496 31.762523 44.670060 -1.462208 0.779810 0.039739 -0.010871 134022.000000 0 0 1
-2.860304 32.020696 33.002655 46.072568 -1.481706 0.772284 0.052125 -0.004381 1076080.000000 0 0 1
-1.599004 32.713596 32.955545 46.462933 -1.521956 0.782310 0.074946 -0.012516 399242.000000 0 0 1
-1.051304 32.828196 34.238350 47.445340 -1.538783 0.764631 0.053356 -0.012595 -421618.000000 0 0 1
0.364696 33.414796 34.199588 47.815201 1.559883 0.773822 0.056900 -0.013322 -247837.000000 0 0 1
0.499496 -33.767494 33.823102 47.796395 -1.556005 0.784630 0.074428 -0.007972 -864060.000000 0 0 1
1.824296 -33.541294 33.522837 47.456581 -1.516460 0.786412 0.056351 -0.005124 -877307.000000 0 0 1
2.073896 -32.020794 33.177945 46.156347 -1.506119 0.768698 0.064320 -0.011628 -39653.700000 0 0 1
1.819096 -31.071794 34.237733 46.270810 -1.512318 0.737812 0.061923 -0.008273 270210.000000 0 0 1
2.033196 -29.743494 33.744458 45.027745 -1.502545 0.723619 0.046702 -0.008154 -202419.000000 0 0 1
1.471796 -28.760194 -33.736291 44.355972 -1.519666 2.435003 0.050059 -0.010182 311240.000000 0 0 1
0.084196 -28.522194 -33.899181 44.302112 -1.567844 2.442120 0.044379 -0.010745 183655.000000 0 0 1
-0.542604 -28.122394 -32.716051 43.145144 1.551504 2.431465 0.048935 -0.015108 -497850.000000 0 0 1
-1.986404 -27.654394 -32.804681 42.951815 1.499090 2.439907 0.064694 -0.008939 -390754.000000 0 0 1
-2.488004 -27.261294 -31.548211 41.769102 1.479783 2.426908 0.054058 -0.017457 113339.000000 0 0 1
-3.745404 -26.624994 -31.560611 41.460710 1.431041 2.435985 0.073693 -0.019880 -82795.000000 0 0 1
-4.052604 -26.036794 -30.134401 40.030243 1.416386 2.423088 0.071877 -0.029394 -185983.000000 0 0 1
-4.285804 -27.018594 -29.128391 39.960427 1.413483 2.387555 0.070481 -0.031020 -132081.000000 0 0 1
-4.475804 -26.424994 -27.869261 38.665344 1.403011 2.375725 0.068732 -0.027134 28872.300000 0 0 1
-3.260704 -25.935794 -27.031381 37.603100 1.445730 2.372958 0.063622 -0.026084 -318719.000000 0 0 1
-2.608604 -24.824694 -27.557231 37.181598 1.466100 2.405582 0.065215 -0.022983 -286298.000000 0 0 1
-1.765504 -24.354994 -26.542461 36.066397 1.498432 2.397840 0.060333 -0.016951 -1612430.000000 0 0 1
-0.795804 -23.332094 -27.100481 35.769484 1.536702 2.430490 0.056591 -0.015618 -82137.200000 0 0 1
-0.104204 -23.585494 -28.332481 36.864832 1.566378 2.447369 0.039670 -0.021342 242221.000000 0 0 1
0.780696 -24.683294 -28.200381 37.485143 -1.539178 2.422355 0.047604 -0.023954 -378324.000000 0 0 1
1.708596 -24.900294 -29.451581 38.604916 -1.502286 2.438579 0.031211 -0.027455 1035960.000000 0 0 1
2.605796 -23.821394 -29.845011 38.274974 -1.461841 2.465067 0.032661 -0.019877 432983.000000 0 0 1
3.522796 -24.275194 -30.791101 39.367334 -1.426683 2.468903 0.038723 -0.021384 -790873.000000 0 0 1
4.503296 -23.133194 -31.194041 39.095940 -1.378533 2.494574 0.051771 -0.023659 -519750.000000 0 0 1
5.644096 -22.930494 -30.383231 38.481217 -1.329455 2.480888 0.048311 -0.028466 826578.000000 0 0 1
6.714996 -23.893594 -30.479361 39.306316 -1.296826 2.458195 0.050005 -0.019795 567337.000000 0 0 1
7.473096 -24.011794 -31.844331 40.576777 -1.269072 2.473157 0.052731 -0.017518 -738665.000000 0 0 1
6.756696 -24.961694 -32.587461 41.601463 -1.306448 2.470793 0.033994 -0.017283 79811.200000 0 0 1
6.803296 -24.818094 -34.035551 42.668974 -1.303242 2.494210 0.040006 -0.018655 -29598.600000 0 0 1
6.207196 -23.504094 33.935773 41.744562 -1.312601 0.621615 0.049042 -0.018516 -689580.000000 0 0 1
4.821996 -23.398894 34.042833 41.589354 -1.367563 0.611920 0.059771 -0.018913 -838346.000000 0 0 1
4.368396 -22.180494 33.494601 40.409720 -1.376337 0.593703 0.073430 -0.026952 -381800.000000 0 0 1
2.864296 -21.972094 33.745498 40.369986 -1.441167 0.581016 0.055344 -0.019727 -294110.000000 0 0 1
1.978396 -22.891494 33.195141 40.371425 -1.484586 0.605455 0.053828 -0.019935 -275394.000000 0 0 1
1.808796 -24.010294 33.985143 41.650401 -1.495604 0.616405 0.046118 -0.014632 -309753.000000 0 0 1
0.496396 -24.799494 33.680472 41.828645 -1.550783 0.634782 0.054658 -0.009498 396020.000000 0 0 1
0.417496 -25.376794 32.392493 41.151301 -1.554346 0.664612 0.056192 -0.011664 72370.600000 0 0 1
-0.916504 -25.669494 31.999883 41.033589 1.535107 0.676376 0.058997 -0.019549 211203.000000 0 0 1
-1.074104 -26.518094 30.763433 40.629446 1.530314 0.711825 0.057795 -0.030982 -487420.000000 0 0 1
-2.359104 -26.710394 30.259573 40.430834 1.482703 0.725107 0.066165 -0.033087 -581910.000000 0 0 1
-2.528704 -27.894094 29.545603 40.711393 1.480390 0.758697 0.064334 -0.033854 272148.000000 0 0 1
-3.935404 -28.092394 28.912073 40.504049 1.431614 0.775877 0.066904 -0.022012 395959.000000 0 0 1
-4.923604 -28.596094 29.804003 41.596359 1.400291 0.772017 0.066437 -0.016339 238620.000000 0 0 1
-6.102704 -28.858294 29.044913 41.396269 1.362395 0.793112 0.033421 -0.012135 -33066.800000 0 0 1
-7.209804 -29.489694 29.897743 42.608666 1.331014 0.793041 0.029683 -0.008219 -168642.000000 0 0 1
-8.359004 -29.853394 29.106153 42.523714 1.297786 0.816922 0.044517 -0.009342 651714.000000 0 0 1
-9.451004 -30.327494 29.880763 43.611219 1.268703 0.815970 0.049976 -0.009714 -12528.600000 0 0 1
-9.282704 -31.531694 30.862813 45.088020 1.284492 0.816877 0.037410 0.003624 -987644.000000 0 0 1
-9.105804 -32.772194 30.271633 45.533550 1.299781 0.843543 0.049802 0.000493 298406.000000 0 0 1
-10.181704 -33.306694 29.518223 45.654446 1.274123 0.867733 0.048136 0.001221 -146274.000000 0 0 1
-9.932804 33.771896 29.160253 45.711288 -1.284748 0.878999 0.053684 0.000703 -326748.000000 0 0 1
-10.017404 32.893196 30.289413 45.823130 -1.275177 0.848636 0.063060 0.001586 258688.000000 0 0 1
-9.819604 31.523796 29.893353 44.539722 -1.268824 0.835022 0.058608 -0.002665 -664184.000000 0 0 1
-10.576204 30.605496 30.788113 44.681768 -1.238077 0.810615 0.053188 0.000803 -821870.000000 0 0 1
-11.962304 30.791096 30.716133 45.107307 -1.200244 0.821728 0.046798 0.012645 -182697.000000 0 0 1
-12.770604 29.652896 31.049713 44.793607 -1.164133 0.804914 0.042096 0.007721 253486.000000 0 0 1
-12.858704 29.343496 32.567977 45.684353 -1.157788 0.777184 0.044204 -0.006020 -493173.000000 0 0 1
-13.697004 30.206996 33.337272 47.025995 -1.145087 0.782843 0.044881 0.000271 377755.000000 0 0 1
-13.838204 29.743796 -33.865531 47.149374 -1.135336 2.372095 0.042854 -0.004664 -502789.000000 0 0 1
-15.018004 30.345496 -33.123231 47.366000 -1.111237 2.345220 0.041487 -0.007373 -472727.000000 0 0 1
-15.186304 29.786196 -31.834331 46.165635 -1.099305 2.331688 0.027903 -0.003549 550195.000000 0 0 1
-16.404904 30.246996 -31.225131 46.465153 -1.073834 2.307718 0.043747 -0.008374 815698.000000 0 0 1
-16.470104 29.718996 -29.790241 45.187846 -1.064738 2.290622 0.056088 -0.015777 9296.070000 0 0 1
-16.418904 28.314996 -29.639971 44.157075 -1.045313 2.306676 0.036781 -0.013344 61993.300000 0 0 1
-16.400704 28.083196 -28.216961 43.056310 -1.042221 2.285442 0.032271 -0.017083 -72961.900000 0 0 1
-16.718404 26.598196 -27.891841 42.010996 -1.009645 2.296842 0.012696 -0.017113 1071890.000000 0 0 1
-18.101104 26.348796 -28.215531 42.638306 -0.968862 2.293935 0.019545 -0.013091 853393.000000 0 0 1
-18.559104 25.036796 -27.869001 41.808644 -0.932904 2.300414 0.011083 -0.015226 569955.000000 0 0 1
-20.058904 24.708596 -28.096311 42.453233 -0.888890 2.294037 0.014361 -0.014099 940563.000000 0 0 1
-21.049104 25.193196 -27.139311 42.594648 -0.874776 2.261595 0.018258 -0.017323 911135.000000 0 0 1
-22.274904 24.541496 -27.415241 43.012228 -0.833775 2.261893 0.040551 -0.026254 27002.200000 0 0 1
-23.391904 24.678096 -26.384641 43.038806 -0.812148 2.230703 0.073529 -0.038224 -97367.000000 0 0 1
-23.927504 25.979496 -26.230151 43.994096 -0.826491 2.209581 0.046545 -0.015909 1619240.000000 0 0 1
-25.259654 26.020796 -25.594031 44.386781 -0.800240 2.185374 0.044404 -0.016279 1972410.000000 0 0 1
-25.282674 25.906696 -24.023781 43.445512 -0.797588 2.156713 0.030523 -0.005773 -559806.000000 0 0 1
-24.954004 24.614096 -23.494781 42.196691 -0.778541 2.161315 0.023095 -0.019592 -718940.000000 0 0 1
-25.913894 23.618196 -23.552481 42.238234 -0.739084 2.162301 0.029636 -0.009572 -958326.000000 0 0 1
-26.735744 23.611496 -22.212381 42.020145 -0.723424 2.127762 0.011531 -0.006333 -92313.400000 0 0 1
-26.096574 23.282196 -20.959881 40.772643 -0.728464 2.110716 -0.004206 -0.004970 118850.000000 0 0 1
-25.118434 24.221796 -20.568181 40.505323 -0.767228 2.103413 0.002669 0.001364 248599.000000 0 0 1
-24.206604 23.801996 -19.349081 39.075332 -0.776971 2.088831 0.006084 -0.004116 194379.000000 0 0 1
-24.920104 23.607296 -18.142881 38.826281 -0.758352 2.057012 -0.001433 -0.005100 114274.000000 0 0 1
-23.941204 23.623296 -17.154881 37.756208 -0.778715 2.042449 0.015793 -0.012128 -304096.000000 0 0 1
-24.519504 23.645396 -15.737481 37.523048 -0.767252 2.003590 0.008631 -0.010831 -379250.000000 0 0 1
-24.964404 24.902096 -15.336781 38.451953 -0.784149 1.981065 0.024711 -0.018695 104013.000000 0 0 1
-25.434324 24.844496 -13.964581 38.198996 -0.773668 1.945046 0.004000 -0.014609 54725.900000 0 0 1
-25.616444 26.249896 -13.304781 39.016361 -0.797611 1.918782 0.009021 -0.015335 -294624.000000 0 0 1
-24.432704 26.817496 -12.839681 38.483665 -0.831897 1.910958 0.035642 -0.021979 -563830.000000 0 0 1
-24.631404 27.727896 -11.797981 38.919592 -0.844469 1.878779 0.039155 -0.017543 409625.000000 0 0 1
-23.296404 28.374296 -11.291981 38.410050 -0.883358 1.869190 0.058574 -0.017270 696971.000000 0 0 1
-22.507804 27.383096 -10.588981 36.994076 -0.882808 1.861091 0.063491 -0.015239 163484.000000 0 0 1
-21.257104 27.956896 -10.275581 36.592896 -0.920702 1.855432 0.063419 -0.008847 150342.000000 0 0 1
-20.160204 26.910396 -9.838381 35.034225 -0.927833 1.855447 0.080853 -0.010936 392617.000000 0 0 1
-19.739604 26.143196 -10.978581 34.549209 -0.924067 1.894169 0.074679 -0.017420 89889.000000 0 0 1
-18.972704 25.063896 -10.450081 33.126523 -0.922847 1.891737 0.071266 -0.008877 15028.000000 0 0 1
-18.320304 24.052196 -11.459281 32.333524 -0.919856 1.933078 0.068515 -0.014956 33612.800000 0 0 1
-17.640404 22.982696 -10.801581 30.920257 -0.916157 1.927659 0.052913 -0.010897 308548.000000 0 0 1
-17.223804 22.085896 -11.851781 30.412348 -0.908460 1.971105 0.069850 -0.008744 40246.500000 0 0 1
-16.883104 20.631596 -11.348681 28.974031 -0.884988 1.973258 0.061018 -0.001296 514455.000000 0 0 1
-17.963704 19.724196 -11.047581 28.875380 -0.832077 1.963400 0.052597 -0.003880 560104.000000 0 0 1
-17.439504 18.468396 -10.735081 27.576437 -0.814044 1.970651 0.077997 -0.016036 -592436.000000 0 0 1
-18.598404 17.462496 -10.667081 27.651871 -0.753909 1.966831 0.061689 -0.003355 144116.000000 0 0 1
-19.097404 17.074296 -11.953281 28.268769 -0.729526 2.007378 0.034349 0.004906 425328.000000 0 0 1
-20.091704 17.920896 -12.517681 29.690527 -0.728353 2.006011 0.031486 0.009956 -568763.000000 0 0 1
-20.807704 17.329296 -13.745481 30.367800 -0.694442 2.040513 0.041483 0.009672 44279.000000 0 0 1
-20.015504 17.221296 -14.926481 30.331390 -0.710500 2.085312 0.063510 0.007008 -80848.100000 0 0 1
-20.800104 16.875096 -16.010581 31.204998 -0.681592 2.109563 0.042849 0.016550 -365161.000000 0 0 1
-19.939904 16.439396 -17.193581 31.039857 -0.689471 2.157861 0.067327 0.002130 -42126.700000 0 0 1
-19.257604 17.610196 -17.660081 31.509566 -0.740744 2.165746 0.044049 -0.005663 380523.000000 0 0 1
-18.322304 17.353796 -18.679681 31.397317 -0.758258 2.207994 0.041076 -0.004322 329432.000000 0 0 1
-17.485204 18.586296 -19.243381 31.960764 -0.815914 2.216917 0.025714 0.000299 779958.000000 0 0 1
-16.490604 19.166796 -18.376481 31.257017 -0.860311 2.199276 0.048058 -0.001966 689716.000000 0 0 1
-16.207904 20.524496 -18.756581 32.183231 -0.902376 2.192974 0.055638 -0.011963 -243915.000000 0 0 1
32.997136 31.487596 1.580519 45.637460 0.761993 1.536157 0.082031 -0.014580 283400.000000 0 0 1
34.198496 30.899696 1.098419 46.103523 0.734767 1.546969 0.088668 -0.015579 193102.000000 0 0 1
34.488596 31.280096 -0.206581 46.561254 0.736652 1.575233 0.070546 -0.014533 438245.000000 0 0 1
35.980416 30.970596 -0.540081 47.476940 0.710709 1.582172 0.055251 -0.008274 259668.000000 0 0 1
-35.621641 31.806396 0.118019 47.755230 -0.728876 1.568325 0.051570 -0.002653 118405.000000 0 0 1
-34.398082 31.854096 -0.604181 46.885781 -0.747018 1.583683 0.059538 -0.000600 238837.000000 0 0 1
-33.452224 33.003496 -0.197281 46.992775 -0.778646 1.574994 0.035816 0.001216 82774.400000 0 0 1
-32.883014 32.855996 1.095119 46.497401 -0.784987 1.547242 0.022423 0.004559 99482.600000 0 0 1
-32.324294 34.047596 1.583719 46.974535 -0.811357 1.537076 0.012941 0.003756 263741.000000 0 0 1
-31.466354 33.977296 2.913619 46.401263 -0.823747 1.507963 0.029546 0.004420 269795.000000 0 0 1
-31.065794 -33.379494 3.539619 45.736234 0.821285 1.493327 0.026426 0.006635 -93726.300000 0 0 1
-30.450474 -33.585994 4.756419 45.583702 0.834324 1.466261 0.041447 -0.000022 -518158.000000 0 0 1
-30.268314 -32.335194 5.606819 44.644955 0.818402 1.444877 0.046769 -0.005664 778895.000000 0 0 1
-31.478864 -31.801894 6.182819 45.171967 0.790503 1.433492 0.055314 -0.012555 664344.000000 0 0 1
-31.982784 -32.550394 7.272519 46.209481 0.794194 1.412758 0.051106 -0.020323 92486.200000 0 0 1
-33.112904 -31.770394 8.113819 46.601035 0.764710 1.395792 0.068069 -0.023247 2234230.000000 0 0 1
-34.447172 -31.543294 7.610319 47.323398 0.741422 1.409280 0.054902 -0.024180 967803.000000 0 0 1
-35.187083 -32.722994 7.333419 48.607656 0.749129 1.419348 0.046889 -0.018002 -375535.000000 0 0 1
35.796896 -32.518094 7.247419 48.901629 -0.737440 1.422044 0.052095 -0.013023 115203.000000 0 0 1
35.117416 -32.305694 8.483119 48.464978 -0.743720 1.394854 0.047516 -0.012945 -757497.000000 0 0 1
33.771656 -32.310894 8.198019 47.452357 -0.763297 1.397162 0.042077 -0.003687 -1075640.000000 0 0 1
32.830416 -32.643494 9.398519 47.241572 -0.782543 1.370514 0.059370 -0.019335 -507636.000000 0 0 1
31.474766 -32.515794 9.031019 46.146474 -0.801665 1.373822 0.057344 -0.024956 88232.100000 0 0 1
30.629076 -32.619894 10.174619 45.888132 -0.816864 1.347212 0.060541 -0.026589 71267.200000 0 0 1
30.680296 -31.376494 11.202919 45.290952 -0.796616 1.320847 0.061450 -0.022002 -354778.000000 0 0 1
30.048576 -30.107594 10.812019 43.889451 -0.786379 1.321887 0.053422 -0.023722 670255.000000 0 0 1
30.626506 -29.535694 9.622119 43.622532 -0.767269 1.348391 0.060792 -0.025224 54191.200000 0 0 1
30.006076 -28.174394 9.259819 42.188925 -0.753926 1.349510 0.056332 -0.026861 -340957.000000 0 0 1
30.355556 -27.661794 8.008919 41.842293 -0.739001 1.378201 0.059706 -0.030623 -330431.000000 0 0 1
29.706116 -26.464694 7.695219 40.522214 -0.727756 1.379735 0.059970 -0.026294 -72090.400000 0 0 1
29.897896 -25.899694 6.247419 40.046331 -0.713865 1.414152 0.051126 -0.014222 886671.000000 0 0 1
31.243746 -25.464794 6.002119 40.751109 -0.683843 1.422971 0.049590 -0.015470 366067.000000 0 0 1
31.488506 -24.987294 4.679319 40.469580 -0.670788 1.454912 0.049764 -0.011794 252555.000000 0 0 1
32.913686 -24.473594 4.340019 41.244434 -0.639372 1.465374 0.056300 -0.016439 691968.000000 0 0 1
33.834246 -25.562494 4.191419 42.611798 -0.647025 1.472274 0.039562 -0.013242 -276355.000000 0 0 1
35.179046 -25.174494 4.308219 43.472764 -0.621126 1.471532 0.039941 -0.017560 -483903.000000 0 0 1
36.076956 -26.343894 4.202619 44.868804 -0.630717 1.476994 0.036239 -0.017453 -776164.000000 0 0 1
35.757816 -27.204594 5.275819 45.238763 -0.650378 1.453909 0.028195 -0.013121 -189010.000000 0 0 1
-36.138984 -28.441394 5.045319 46.264396 0.666764 1.461525 0.029148 -0.013023 -585645.000000 0 0 1
35.665546 -29.544794 5.919019 46.690051 -0.691811 1.443682 0.044217 -0.019724 1053970.000000 0 0 1
34.290186 -29.891994 5.744619 45.851378 -0.716978 1.445178 0.033697 -0.015295 434270.000000 0 0 1
33.373086 -28.828394 5.977119 44.503541 -0.712464 1.436083 0.036964 -0.017316 -878035.000000 0 0 1
31.964996 -29.421794 5.760619 43.824510 -0.743993 1.438967 0.044140 -0.015060 -671551.000000 0 0 1
31.686876 -29.688694 4.376719 43.642094 -0.752853 1.470341 0.030038 -0.011716 1444150.000000 0 0 1
30.339176 -29.254394 3.987119 42.334174 -0.767197 1.476474 0.034898 -0.005727 1530620.000000 0 0 1
29.182776 -30.189894 4.327119 42.211232 -0.802359 1.468105 0.044452 -0.010846 -377321.000000 0 0 1
29.267826 -31.254294 3.435419 42.956241 -0.818209 1.490736 0.045307 -0.003503 -369643.000000 0 0 1
28.146586 -32.100594 3.508319 42.836746 -0.850934 1.488805 0.057958 -0.004002 -160823.000000 0 0 1
28.081396 -33.411694 2.715119 43.729601 -0.871863 1.508668 0.058959 -0.004202 -256016.000000 0 0 1
27.933186 -33.212594 1.311419 43.417268 -0.871526 1.540587 0.054523 -0.010644 212013.000000 0 0 1
27.902396 34.114896 0.606219 44.076494 0.885239 1.557042 0.048666 -0.006729 -95935.600000 0 0 1
27.675696 34.256496 -0.925781 44.048936 0.891259 1.591815 0.034077 -0.001784 -207877.000000 0 0 1
28.808596 -33.727094 -1.562881 44.383496 -0.863888 1.606017 0.025764 -0.001697 289076.000000 0 0 1
28.565486 -33.653594 -2.925881 44.239261 -0.866994 1.636982 0.024042 -0.000614 -19419.900000 0 0 1
29.768216 -33.136794 -3.746081 44.701532 -0.838897 1.654697 0.008085 0.002488 8217.240000 0 0 1
29.935126 -31.744694 -3.718581 43.791155 -0.814728 1.655815 -0.000303 0.010412 -607282.000000 0 0 1
30.879756 -31.315094 -4.633481 44.222886 -0.792398 1.675765 -0.008221 0.013592 -770112.000000 0 0 1
31.083586 -29.817994 -4.465881 43.304113 -0.764620 1.674108 -0.016879 0.018975 -1034940.000000 0 0 1
29.962476 -28.960594 -4.629681 41.927317 -0.768397 1.681444 -0.007613 -0.010038 -363481.000000 0 0 1
30.218356 -27.556594 -4.828981 41.180505 -0.739359 1.688331 -0.008233 -0.010391 2549.860000 0 0 1
31.241826 -27.129894 -5.947281 41.802548 -0.715070 1.713551 0.007194 -0.014460 1161760.000000 0 0 1
32.583216 -27.522794 -5.571381 43.014073 -0.701405 1.700686 -0.009406 0.005058 406719.000000 0 0 1
33.517846 -27.103894 -6.539881 43.598591 -0.679987 1.721367 -0.002600 -0.002076 46220.200000 0 0 1
33.888176 -28.017394 -7.753081 44.648551 -0.690846 1.745328 -0.000823 -0.016855 102771.000000 0 0 1
32.851016 -28.050594 -8.766381 44.078051 -0.706738 1.771014 0.011313 -0.021252 527825.000000 0 0 1
32.909506 -29.133094 -9.666181 45.002309 -0.724605 1.787276 0.000893 -0.009308 103815.000000 0 0 1
32.396156 -30.448094 -9.209081 45.402693 -0.754410 1.775045 -0.003593 -0.005642 -225440.000000 0 0 1
33.365386 -30.994894 -8.353481 46.300250 -0.748583 1.752210 -0.004474 -0.002177 -507257.000000 0 0 1
33.137626 -32.336094 -7.997581 46.986025 -0.773157 1.741841 -0.001771 -0.003986 895242.000000 0 0 1
34.369816 -33.018594 -7.245081 48.207915 -0.765350 1.721656 -0.005951 -0.000399 469112.000000 0 0 1
34.097796 -34.208394 -6.543781 48.741102 -0.787017 1.705459 -0.000834 0.001917 97197.300000 0 0 1
33.413816 -34.005394 -5.299781 47.968090 -0.794173 1.681508 0.014933 0.006732 -80938.100000 0 0 1
33.061966 33.286596 -4.520881 47.133103 0.788784 1.666861 0.012187 0.005654 -128569.000000 0 0 1
32.167056 32.457996 -5.226481 45.995186 0.789900 1.684673 0.016513 -0.003524 38162.400000 0 0 1
32.052106 31.269396 -4.535081 45.007550 0.773038 1.671730 0.023059 -0.002935 -73712.200000 0 0 1
30.974926 30.403896 -5.200781 43.713740 0.776095 1.690052 0.030132 -0.010046 -425289.000000 0 0 1
31.249926 30.128896 -6.602981 43.907945 0.767136 1.721751 0.016565 0.001644 -783053.000000 0 0 1
30.117006 29.623396 -7.206981 42.854641 0.777136 1.739772 0.014545 0.003765 -579101.000000 0 0 1
30.195066 29.301196 -8.754081 42.975994 0.770375 1.775929 0.016253 0.002846 10863.900000 0 0 1
31.097546 28.252296 -9.101881 42.989462 0.737495 1.784134 0.018179 -0.006571 152632.000000 0 0 1
31.218606 28.079096 -10.527081 43.288063 0.732503 1.816446 0.017759 -0.003688 -192371.000000 0 0 1
32.378746 28.896296 -11.110381 44.797541 0.728626 1.821425 0.016297 -0.006219 -1819510.000000 0 0 1
33.579416 28.415196 -10.663781 45.262753 0.702289 1.808629 0.013933 -0.012171 -1032380.000000 0 0 1
34.722296 29.196196 -10.881381 46.652547 0.699157 1.806208 0.013594 -0.007516 -106109.000000 0 0 1
34.788996 30.462696 -10.007581 47.311751 0.719193 1.783931 0.008475 -0.003189 -1036720.000000 0 0 1
35.374456 30.247996 -8.718981 47.353078 0.707436 1.755980 0.001174 -0.001771 4349.210000 0 0 1
35.187556 31.421196 -7.911781 47.833586 0.728914 1.736962 0.001305 -0.000586 -925589.000000 0 0 1
36.242956 31.458396 -6.803381 48.471317 0.714844 1.711620 0.000862 -0.004432 1154150.000000 0 0 1
-34.933021 31.744896 -7.278881 47.760198 -0.737621 1.723797 0.010664 -0.004341 875471.000000 0 0 1
-34.245071 30.685196 -7.930481 46.660461 -0.730627 1.741587 0.018108 -0.004439 -452740.000000 0 0 1
-32.827614 31.075396 -8.431481 45.982848 -0.757985 1.755201 0.051023 -0.011529 155674.000000 0 0 1
-31.817674 31.383196 -7.487781 45.313753 -0.778524 1.736801 0.053522 -0.015920 571344.000000 0 0 1
-30.618374 31.906896 -8.065981 44.951027 -0.806003 1.751213 0.059830 -0.030585 170879.000000 0 0 1
-30.718304 33.336196 -8.677981 46.154344 -0.826245 1.759943 0.033768 -0.019420 -502229.000000 0 0 1
-30.976934 -34.097794 -7.820681 46.726792 0.833320 1.738958 0.015101 -0.010894 -733065.000000 0 0 1
-29.860894 -33.680694 -7.152881 45.576593 0.845441 1.728390 0.050087 -0.026250 -797990.000000 0 0 1
-30.115084 -32.311794 -6.513381 44.647446 0.820572 1.717204 0.025027 -0.025926 249840.000000 0 0 1
-31.041814 -32.251394 -5.418881 45.090031 0.804507 1.691267 0.013590 -0.023318 252031.000000 0 0 1
-30.660984 -32.961794 -4.269281 45.219493 0.821546 1.665350 0.025863 -0.020179 -703783.000000 0 0 1
-31.815364 -33.058594 -3.305881 46.000183 0.804560 1.642725 0.019594 -0.014044 -701330.000000 0 0 1
-32.180434 -31.791494 -2.821081 45.323702 0.779318 1.633080 0.013041 -0.008054 -149196.000000 0 0 1
-32.786774 -31.889794 -1.572181 45.764651 0.771530 1.605157 0.021849 -0.001005 -128940.000000 0 0 1
-33.629964 -30.707394 -1.143681 45.554654 0.740004 1.595905 0.024374 0.002262 -128800.000000 0 0 1
-34.526127 -30.741894 -0.074381 46.229028 0.727483 1.572405 0.011608 0.005207 -204735.000000 0 0 1
-35.226129 -29.511994 0.057419 45.954774 0.697361 1.569547 0.023513 0.002199 -13260.100000 0 0 1
36.234636 -29.507694 1.172719 46.744285 -0.683430 1.545706 0.024359 0.008136 -776483.000000 0 0 1
35.067256 -30.255794 0.896419 46.324174 -0.711875 1.551444 0.002431 0.005465 272057.000000 0 0 1
34.040946 -30.006094 1.857619 45.415883 -0.722483 1.529882 0.015885 0.002778 357993.000000 0 0 1
33.340116 -28.640094 1.916719 43.994229 -0.709712 1.527215 0.002601 0.016514 -1262760.000000 0 0 1
32.493256 -28.430994 0.811219 43.183228 -0.718819 1.552010 -0.005336 0.010514 49282.500000 0 0 1
31.846026 -27.157694 0.920019 41.863542 -0.706107 1.548818 -0.002675 0.008535 310272.000000 0 0 1
30.618436 -27.040494 -0.068081 40.849500 -0.723424 1.572463 0.000244 -0.005061 729064.000000 0 0 1
29.461996 -27.684894 0.487219 40.431423 -0.754311 1.558746 0.015560 0.001366 200564.000000 0 0 1
29.324866 -29.103094 0.368119 41.316745 -0.781603 1.561887 0.022616 0.003091 -421454.000000 0 0 1
29.095796 -29.624194 -1.117081 41.538008 -0.794397 1.597693 0.010942 0.002069 -433496.000000 0 0 1
27.763636 -29.395794 -1.471381 40.461058 -0.813945 1.607170 0.028272 0.003175 -563995.000000 0 0 1
27.583566 -29.573294 -2.873681 40.542458 -0.820196 1.641737 0.027191 0.003963 841962.000000 0 0 1
26.137626 -30.114694 -3.263781 40.009031 -0.855981 1.652463 0.057459 -0.006724 1288000.000000 0 0 1
25.115126 -29.192294 -2.958081 38.622660 -0.860333 1.647461 0.073343 -0.015768 -1083190.000000 0 0 1
23.920626 -29.697594 -3.443581 38.288402 -0.892727 1.660856 0.055620 -0.012555 -1063100.000000 0 0 1
22.758626 -28.737994 -3.382781 36.814000 -0.900992 1.662815 0.055643 -0.014279 -471263.000000 0 0 1
22.868726 -27.691394 -4.358681 36.177204 -0.880495 1.691571 0.063728 -0.021238 -524481.000000 0 0 1
21.892026 -26.725694 -4.206981 34.802618 -0.884494 1.691974 0.066368 -0.024926 -402577.000000 0 0 1
21.558526 -26.028694 -5.520181 34.245224 -0.879060 1.732698 0.071429 -0.035153 -388991.000000 0 0 1
20.378226 -26.475894 -6.106781 33.963773 -0.914812 1.751582 0.078943 -0.031677 -786565.000000 0 0 1
20.046626 -25.813194 -7.267381 33.481384 -0.910485 1.789595 0.085678 -0.031253 -479462.000000 0 0 1
18.556926 -25.889194 -7.614481 32.750423 -0.948895 1.805444 0.075017 -0.026026 -516222.000000 0 0 1
17.834726 -25.156294 -6.657581 31.547424 -0.954084 1.783429 0.069104 -0.026400 -238407.000000 0 0 1
16.480726 -25.574194 -6.703781 31.154364 -0.998348 1.787672 0.057396 -0.030700 195710.000000 0 0 1
15.513626 -24.708994 -5.866981 29.759510 -1.010148 1.769243 0.054028 -0.025385 -45671.600000 0 0 1
15.622526 -24.947094 -4.503581 29.777560 -1.011316 1.722620 0.054742 -0.016929 -97028.100000 0 0 1
14.839226 -23.981694 -3.828681 28.460202 -1.016687 1.705733 0.055462 -0.021521 -111814.000000 0 0 1
14.626526 -24.227594 -2.343781 28.397269 -1.027651 1.653426 0.045998 -0.012003 -191060.000000 0 0 1
13.838226 -25.383194 -2.061381 28.983657 -1.071667 1.641979 0.052994 -0.007392 194269.000000 0 0 1
14.461626 -26.463594 -1.367981 30.188273 -1.070665 1.616127 0.049535 -0.007000 -140966.000000 0 0 1
13.836526 -27.895294 -1.729981 31.186371 -1.110341 1.626297 0.050662 -0.005303 131098.000000 0 0 1
12.557726 -28.062794 -1.168181 30.766566 -1.150034 1.608775 0.053191 -0.013250 -495294.000000 0 0 1
12.035426 -29.381494 -1.240881 31.775202 -1.182019 1.609858 0.053343 -0.010795 -203308.000000 0 0 1
12.703626 -30.600594 -0.548981 33.137288 -1.177304 1.587364 0.053342 -0.004352 -680711.000000 0 0 1
13.851426 -31.006294 -1.219781 33.981468 -1.150665 1.606700 0.053801 0.002952 -1070950.000000 0 0 1
14.280526 -32.175694 -0.659181 35.208568 -1.153086 1.589520 0.050342 -0.002223 100153.000000 0 0 1
15.648326 -32.640194 -1.258781 36.219289 -1.123749 1.605558 0.051932 0.002763 551127.000000 0 0 1
16.683226 -31.745494 -0.926681 35.874297 -1.086934 1.596631 0.052849 0.000723 -803939.000000 0 0 1
17.923126 -32.045394 -1.472781 36.746630 -1.060838 1.610886 0.059742 -0.009926 158748.000000 0 0 1
19.038326 -31.031894 -0.961581 36.419239 -1.020503 1.597202 0.054214 -0.006788 403882.000000 0 0 1
18.746726 -29.846794 -1.534581 35.279255 -1.009972 1.614308 0.043487 -0.005699 122690.000000 0 0 1
19.223326 -28.771294 -0.773181 34.611002 -0.981773 1.593137 0.047508 -0.004872 -154708.000000 0 0 1
18.532626 -27.456894 -1.215481 33.148404 -0.977066 1.607472 0.044891 -0.000913 228374.000000 0 0 1
18.949126 -26.908594 -2.468281 33.003549 -0.957255 1.645655 0.062319 -0.015409 -15967.300000 0 0 1
17.896726 -26.113394 -2.912681 31.791286 -0.969973 1.662544 0.074812 -0.014923 -644757.000000 0 0 1
32.246016 -28.954694 13.849419 45.497102 -0.731671 1.261486 0.062343 -0.028909 -419113.000000 0 0 1
32.999166 -29.433294 14.908219 46.663892 -0.728344 1.245615 0.074616 -0.018348 -176904.000000 0 0 1
32.272566 -30.271794 15.792419 46.981918 -0.753419 1.227983 0.068300 -0.013873 587803.000000 0 0 1
33.256906 -31.114594 16.724019 48.516313 -0.752130 1.218867 0.067081 -0.009515 799999.000000 0 0 1
32.575996 -31.608494 17.873519 48.782734 -0.770326 1.195670 0.052322 -0.014788 224640.000000 0 0 1
33.390236 -31.559594 19.017619 49.725101 -0.757220 1.178344 0.045667 -0.010238 950538.000000 0 0 1
34.399696 -32.816694 19.215119 51.278605 -0.761852 1.186702 0.051235 -0.010315 1406890.000000 0 0 1
35.482236 -32.969894 18.268119 51.766082 -0.748712 1.210130 0.064968 -0.005143 685264.000000 0 0 1
36.109016 -34.246694 18.474519 53.084885 -0.758934 1.215340 0.079457 -0.005021 -82298.700000 0 0 1
-35.188764 34.218896 17.533519 52.121073 -0.771426 1.227705 0.075645 -0.002285 313200.000000 0 0 1
-34.038798 -33.554594 17.898219 51.038190 0.778235 1.212496 0.062440 -0.002499 311904.000000 0 0 1
-33.121824 -33.512594 16.862819 50.045018 0.791262 1.227118 0.073999 0.005694 -587344.000000 0 0 1
-31.867764 -32.697094 17.271819 48.815675 0.798242 1.209147 0.049351 -0.001017 887816.000000 0 0 1
-30.744934 -32.710194 16.360019 47.779263 0.816359 1.221317 0.036999 -0.005791 742705.000000 0 0 1
-30.935284 -31.871894 15.237519 46.957336 0.800310 1.240316 0.052710 -0.008332 32803.800000 0 0 1
-29.666524 -31.773294 14.336819 45.773237 0.819675 1.252221 0.038298 -0.008421 265660.000000 0 0 1
-28.504114 -31.354694 14.999519 44.950939 0.832984 1.230585 0.031799 -0.011561 -783853.000000 0 0 1
-27.475864 -31.196394 14.057719 43.883455 0.848725 1.244706 0.032260 -0.007167 -1030950.000000 0 0 1
-26.285644 -30.567594 14.720819 42.918707 0.860572 1.220695 0.028499 -0.008031 -1504270.000000 0 0 1
-25.173354 -30.672694 13.927119 42.053259 0.883555 1.233244 0.023169 -0.002284 -803035.000000 0 0 1
-23.979204 -30.473694 14.672419 41.459958 0.904105 1.209065 0.017089 0.003868 367411.000000 0 0 1
-22.702804 -30.426294 13.789019 40.389525 0.929759 1.222389 0.018589 0.014296 354141.000000 0 0 1
-22.378704 -31.743894 13.293419 41.051141 0.956738 1.241026 0.012801 -0.003423 -367666.000000 0 0 1
-21.104604 -31.770594 12.721019 40.206956 0.984447 1.248876 0.011066 -0.002232 -160658.000000 0 0 1
-20.646204 -33.166794 12.242119 40.941073 1.014000 1.267133 0.010171 0.004575 -205958.000000 0 0 1
-21.272904 -33.584694 11.069219 41.267369 1.006172 1.299239 0.011385 0.005182 -235089.000000 0 0 1
-21.297004 33.563696 10.894119 41.216088 -1.005377 1.303300 0.014624 0.006872 199929.000000 0 0 1
-22.378804 32.981796 9.935019 41.076932 -0.974632 1.326510 0.008038 0.007073 -117640.000000 0 0 1
-22.058704 33.123796 8.560219 40.706874 -0.983292 1.358925 -0.001474 0.004237 17269.700000 0 0 1
-23.135004 32.852096 7.655719 40.903528 -0.957246 1.382521 0.006550 0.000872 -324056.000000 0 0 1
-22.892304 33.219196 6.134719 40.806952 -0.967404 1.419889 0.011031 0.002445 -916085.000000 0 0 1
-22.147404 32.256396 5.448219 39.505261 -0.969117 1.432444 0.008060 0.001641 295414.000000 0 0 1
-20.741104 32.181096 5.673019 38.703998 -0.998289 1.423692 0.002345 -0.005771 549277.000000 0 0 1
-19.855304 33.447096 5.315419 39.258056 -1.035072 1.434982 0.014129 -0.009884 -951997.000000 0 0 1
-20.031304 -33.918794 6.056619 39.854992 1.037342 1.418239 0.009966 -0.005394 -26024.400000 0 0 1
-19.528104 -33.909194 7.402219 39.824278 1.048290 1.383837 0.006364 -0.008880 -302008.000000 0 0 1
-19.501104 -32.548794 8.158119 38.810720 1.031013 1.359014 0.005239 -0.006076 -692326.000000 0 0 1
-18.514104 -31.686094 7.661619 37.489746 1.042003 1.364981 0.019918 -0.010481 -275646.000000 0 0 1
-18.455604 -30.405294 8.243419 36.510891 1.025256 1.343053 0.020638 -0.011463 214616.000000 0 0 1
-17.976904 -30.363294 9.755219 36.609603 1.036235 1.301072 0.009201 -0.001426 -337998.000000 0 0 1
-16.612804 -30.593894 9.905219 36.195096 1.073335 1.293598 0.022968 -0.012025 -960686.000000 0 0 1
-16.116004 -30.720994 11.209119 36.457502 1.087669 1.258277 0.037125 -0.006816 641497.000000 0 0 1
-14.676604 -31.309494 11.084519 36.311895 1.132452 1.260586 0.037631 -0.007282 499331.000000 0 0 1
-13.696004 -30.518694 10.456019 35.047105 1.148962 1.267841 0.045142 -0.007324 -27066.300000 0 0 1
-12.644104 -31.329694 9.920819 35.211444 1.187206 1.285179 0.049307 0.000921 -13824.100000 0 0 1
-11.519804 -30.476394 9.380319 33.904378 1.209406 1.290469 0.058195 0.005444 -765782.000000 0 0 1
-10.708204 -29.871894 10.329319 33.372002 1.226595 1.256108 0.043948 0.001961 -706701.000000 0 0 1
-9.776804 -29.036594 9.690619 32.134371 1.246013 1.264462 0.057343 -0.003255 -92050.100000 0 0 1
-8.832604 -28.399794 10.711319 31.611636 1.269270 1.225112 0.049325 0.002554 40461.800000 0 0 1
-9.448404 -27.446994 11.542619 31.238468 1.239260 1.192325 0.045198 -0.000238 -330581.000000 0 0 1
-8.625604 -27.264894 12.665219 31.275922 1.264396 1.153871 0.038599 -0.001850 -164023.000000 0 0 1
-8.904704 -26.012494 13.580119 30.665343 1.240976 1.112022 0.054425 -0.002513 -5362.060000 0 0 1
-8.582804 -24.702094 13.064419 29.232465 1.236393 1.107483 0.036892 -0.001654 798408.000000 0 0 1
-9.446804 -24.211694 11.961719 28.609980 1.198788 1.139448 0.038821 -0.000519 664733.000000 0 0 1
-8.932104 -22.916894 11.359819 27.092656 1.199148 1.138128 0.031074 -0.000180 -114130.000000 0 0 1
-7.831804 -23.128394 10.507619 26.583262 1.244293 1.164432 0.015758 -0.001913 -359453.000000 0 0 1
-7.256304 -21.894594 10.261619 25.245357 1.250769 1.152203 0.018645 0.008027 -173857.000000 0 0 1
-6.080104 -21.930794 9.253919 24.567507 1.300348 1.184594 0.013134 0.000022 -1417.160000 0 1 0
-4.867904 -22.357094 9.803919 24.892830 1.356408 1.165985 -0.008107 -0.007606 -474365.000000 0 1 0
-3.839704 -22.376294 8.816319 24.355068 1.400854 1.200393 -0.000632 -0.013479 -281496.000000 0 1 0
-2.674804 -23.248894 9.222519 25.153936 1.456249 1.195398 0.012207 -0.017046 -427580.000000 0 0 1
-2.012804 -22.642594 10.335919 24.971377 1.482135 1.144051 0.017095 -0.012111 -261259.000000 0 1 0
-1.131704 -23.556694 10.969619 26.010212 1.522792 1.135430 0.026287 -0.015540 226094.000000 0 0 1
-0.258704 -22.980094 12.089019 25.967211 1.559539 1.086541 0.030630 -0.008714 41686.900000 0 0 1
-0.997704 -22.774394 13.301919 26.393361 1.527016 1.042587 0.027153 -0.008508 399528.000000 0 0 1
-0.167304 -22.358194 14.392019 26.590356 1.563314 0.998874 0.040860 -0.016200 279153.000000 0 0 1
0.611296 -21.013594 14.297519 25.423687 -1.541714 0.973547 0.031235 -0.018443 139692.000000 0 0 1
1.710096 -20.946494 13.411419 24.930829 -1.489336 1.002799 0.039733 -0.020577 -188298.000000 0 1 0
2.123096 -19.669994 13.172319 23.768176 -1.463277 0.983395 0.037114 -0.020748 296814.000000 0 1 0
3.611596 -19.510594 12.707619 23.562481 -1.387759 1.001172 0.042731 -0.016194 765090.000000 0 1 0
3.871796 -20.072794 11.429819 23.421115 -1.380249 1.060984 0.043780 -0.012086 -175977.000000 0 1 0
5.246796 -20.136294 11.099219 23.583721 -1.315900 1.080791 0.051832 -0.018094 365006.000000 0 1 0
5.626296 -20.846294 9.760719 23.695882 -1.307183 1.146240 0.059764 -0.030333 -305108.000000 0 1 0
5.706996 -20.138594 8.562219 22.615136 -1.294651 1.182507 0.053498 -0.028420 -391225.000000 0 1 0
6.013596 -20.960094 7.461419 23.046945 -1.291394 1.241107 0.052950 -0.031101 1187150.000000 0 1 0
7.489796 -21.514194 7.200119 23.891407 -1.235786 1.264669 0.060389 -0.016846 889024.000000 0 1 0
8.478896 -20.630994 6.747819 23.303705 -1.180862 1.277029 0.070149 -0.028463 -443154.000000 0 1 0
9.077896 -19.695994 7.655819 22.998955 -1.138915 1.231444 0.080833 -0.019303 278967.000000 0 1 0
9.906896 -20.279394 8.845619 24.241398 -1.116375 1.197274 0.071136 -0.017642 -405432.000000 0 1 0
9.149396 -20.476194 9.984919 24.549635 -1.150581 1.151931 0.085389 -0.021122 -797764.000000 0 1 0
9.746896 -19.914494 11.142719 24.814295 -1.115635 1.105101 0.082320 -0.018755 378484.000000 0 1 0
8.886396 -19.900994 12.456919 25.103634 -1.150832 1.051557 0.081749 -0.020957 255497.000000 0 0 1
8.925696 -21.217094 13.020119 26.445352 -1.172587 1.056020 0.074017 -0.026119 -119789.000000 0 0 1
8.017396 -21.354894 14.100919 26.816899 -1.211643 1.017115 0.084564 -0.023566 201954.000000 0 0 1
7.945096 -22.748194 14.843119 28.300584 -1.234778 1.018691 0.090732 -0.022986 87011.300000 0 0 1
7.588896 -23.849694 13.999219 28.677123 -1.262730 1.060808 0.083860 -0.019365 -123392.000000 0 0 1
7.436496 -25.065994 14.707619 29.998660 -1.282391 1.058390 0.088555 -0.018176 81663.500000 0 0 1
7.416796 -26.230094 13.735719 30.523707 -1.295231 1.104029 0.075719 -0.023615 1554970.000000 0 0 1
8.710596 -26.562894 13.133819 30.886227 -1.253923 1.131578 0.084975 -0.015452 1254670.000000 0 0 1
8.580696 -27.699694 12.295719 31.497398 -1.270395 1.169760 0.070644 -0.007528 69229.900000 0 0 1
9.947096 -28.155294 11.730619 32.082281 -1.231190 1.196474 0.068506 -0.007306 22289.400000 0 0 1
10.718696 -28.927194 12.647019 33.340967 -1.215941 1.181731 0.074836 -0.008389 -761157.000000 0 0 1
11.870496 -29.265294 11.979119 33.776699 -1.185457 1.208250 0.069697 -0.004471 -586809.000000 0 0 1
12.973896 -29.960494 12.836819 35.081863 -1.162141 1.196185 0.061229 -0.012269 78755.900000 0 0 1
13.664396 -29.206194 13.841419 35.089919 -1.133190 1.165321 0.068584 -0.010976 993918.000000 0 0 1
14.736296 -29.954394 14.443019 36.373410 -1.113603 1.162467 0.072450 -0.007770 633267.000000 0 0 1
16.127896 -30.026794 13.816719 36.777971 -1.077898 1.185667 0.066622 -0.001897 -538582.000000 0 0 1
16.873396 -28.845794 13.948019 36.212409 -1.041515 1.175402 0.057055 -0.011338 -694795.000000 0 0 1
18.140796 -28.924094 13.412519 36.682249 -1.010626 1.196475 0.045110 -0.007003 -480369.000000 0 0 1
18.995296 -27.605294 13.526219 36.136299 -0.968099 1.187143 0.027581 -0.010766 1585430.000000 0 0 1
20.405596 -27.788294 13.228719 36.926639 -0.937404 1.204411 0.014137 -0.010417 1091640.000000 0 0 1
21.098096 -26.573094 13.155719 36.391372 -0.899746 1.200913 0.011892 -0.021471 -1066040.000000 0 0 1
22.387396 -26.850594 12.442319 37.107428 -0.875797 1.228867 0.024135 -0.012841 -1118450.000000 0 0 1
23.276796 -27.722294 13.073019 38.486863 -0.872347 1.224225 0.028466 -0.018705 -127395.000000 0 0 1
24.274296 -28.243994 12.220919 39.195861 -0.860842 1.253719 0.023558 -0.020530 -344493.000000 0 0 1
25.462996 -28.843594 12.995519 40.610351 -0.847568 1.245061 0.039177 -0.020637 -332923.000000 0 0 1
26.465296 -28.030894 13.554419 40.863984 -0.814119 1.232696 0.023671 -0.021688 486217.000000 0 0 1
27.570396 -27.960794 12.627819 41.247964 -0.792428 1.259656 0.006863 -0.022801 -132022.000000 0 0 1
28.857696 -27.528794 13.351319 42.057804 -0.761835 1.247755 0.034658 -0.032896 -679749.000000 0 0 1
28.999296 -26.179694 13.738019 41.413388 -0.734343 1.232661 0.038828 -0.030857 71646.200000 0 0 1
28.158296 -25.646994 14.722619 40.833974 -0.738758 1.201941 0.034133 -0.030701 -178622.000000 0 0 1
28.912996 -25.662894 16.123319 41.886834 -0.725916 1.175669 0.022687 -0.026062 366900.000000 0 0 1
29.349896 -26.907794 16.605719 43.141577 -0.742016 1.175684 0.043077 -0.024002 159201.000000 0 0 1
30.119296 -26.760794 17.788819 44.042641 -0.726421 1.155020 0.054080 -0.006322 154.874000 0 0 1
30.358996 -28.107594 18.460019 45.304280 -0.746910 1.151117 0.044075 0.006421 -632966.000000 0 0 1
29.272796 -28.751194 19.058719 45.241160 -0.776409 1.135952 0.019280 0.003568 -470342.000000 0 0 1
29.633596 -29.873894 19.794419 46.501813 -0.789436 1.131094 0.044311 -0.002577 -569494.000000 0 0 1
28.395796 -30.606194 20.270319 46.410626 -0.822844 1.118802 0.041371 -0.001236 -2127810.000000 0 0 1
27.697396 -29.841794 21.214519 45.910067 -0.822649 1.090447 0.042707 0.004074 750381.000000 0 0 1
26.473996 -30.403594 21.733919 45.799719 -0.854377 1.076352 0.049168 0.000988 1312650.000000 0 0 1
25.364396 -30.712694 20.679519 44.880560 -0.880485 1.091936 0.067820 -0.008112 -1345650.000000 0 0 1
25.690896 -31.823194 19.858019 45.465138 -0.891619 1.118786 0.054561 -0.001105 -159296.000000 0 0 1
24.990696 -32.009094 18.612819 44.671624 -0.907912 1.141030 0.066715 -0.003296 -58993.700000 0 0 1
25.570796 -31.154394 17.433219 43.913313 -0.883515 1.162559 0.059514 -0.000404 712794.000000 0 0 1
26.918896 -31.480994 17.066019 44.798761 -0.863358 1.179974 0.051828 -0.011178 761954.000000 0 0 1
27.426596 -30.464294 16.178719 44.068609 -0.837823 1.194879 0.054031 -0.026393 -1994.800000 0 0 1
28.569396 -31.006594 15.305619 44.853999 -0.826284 1.222569 0.062174 -0.030318 -296490.000000 0 0 1
28.147696 -31.954094 14.284619 44.915557 -0.848646 1.247143 0.076270 -0.021308 443909.000000 0 0 1
28.129996 -33.237494 14.830219 45.999599 -0.868435 1.242534 0.054475 -0.024909 -78849.600000 0 0 1
27.294896 -34.212894 13.928619 45.929728 -0.897401 1.262685 0.078648 -0.027722 80435.100000 0 0 1
27.733096 34.275096 12.566819 45.845738 0.890512 1.293131 0.087902 -0.029254 525987.000000 0 0 1
27.074796 33.162996 11.984719 44.457422 0.886126 1.297842 0.090955 -0.030570 -314937.000000 0 0 1
27.651796 32.843896 10.603519 44.224178 0.871014 1.328670 0.094263 -0.035208 -2615.250000 0 0 1
28.957896 32.323996 10.789919 44.719378 0.840271 1.327111 0.092049 -0.035699 199903.000000 0 0 1
29.435196 31.642496 9.665019 44.284206 0.821522 1.350776 0.100153 -0.038158 -610872.000000 0 0 1
30.899996 31.233596 9.805219 45.016548 0.790767 1.351223 0.083017 -0.035582 -497222.000000 0 0 1
31.144496 30.347996 10.872219 44.823940 0.772446 1.325799 0.084087 -0.026311 269641.000000 0 0 1
32.552296 30.196396 10.914719 45.723138 0.747871 1.329756 0.081475 -0.021252 137521.000000 0 0 1
33.069996 29.273496 12.023819 45.772638 0.724577 1.304992 0.070754 -0.010919 -18753.800000 0 0 1
32.735196 27.883996 11.854119 44.605273 0.705541 1.301808 0.067660 -0.017189 247116.000000 0 0 1
32.997296 27.242496 13.120819 44.756352 0.690156 1.273265 0.070977 -0.021720 130449.000000 0 0 1
32.693096 25.732096 13.045019 43.602199 0.666813 1.266960 0.060669 -0.017851 566536.000000 0 0 1
33.632496 25.121596 12.129119 43.696166 0.641542 1.289524 0.059259 -0.013792 404669.000000 0 0 1
33.621496 23.680396 11.995519 42.837584 0.613621 1.286978 0.051226 -0.015698 -304844.000000 0 0 1
32.444696 23.120996 11.171719 41.376878 0.619151 1.297404 0.039659 -0.007979 637798.000000 0 0 1
31.220396 23.089196 11.922119 40.619712 0.636783 1.272904 0.040923 -0.012334 354457.000000 0 0 1
30.121496 22.850996 11.056119 39.391754 0.649000 1.286303 0.041562 -0.004884 -193109.000000 0 0 1
28.911896 22.341096 11.852519 38.412296 0.657890 1.257117 0.042709 0.002877 -551677.000000 0 0 1
28.402696 23.304496 12.654119 38.857939 0.687118 1.239096 0.055972 -0.000602 -877192.000000 0 0 1
27.542596 22.734196 13.565219 38.202793 0.690050 1.207792 0.071559 -0.004840 -429067.000000 0 0 1
24.315296 9.352496 26.046083 36.838855 0.367190 0.785510 0.024954 0.002718 -449942.000000 0 0 1
23.838696 8.037496 26.224873 36.340456 0.325192 0.764622 0.032628 -0.007983 43122.900000 0 0 1
22.452596 7.998396 26.468803 35.618688 0.342218 0.733082 0.042942 -0.003527 -364341.000000 0 0 1
22.016396 6.689196 27.101933 35.552522 0.294965 0.703926 0.056147 -0.012624 -506922.000000 0 0 1
22.423896 6.471796 28.467293 36.811711 0.280976 0.686733 0.063195 -0.010493 416093.000000 0 0 1
23.797596 6.208396 28.699083 37.795597 0.255195 0.708524 0.051954 -0.009248 59995.200000 0 0 1
24.134996 6.133696 30.239063 39.172965 0.248872 0.688914 0.061029 -0.012181 -163381.000000 0 0 1
23.994196 7.302396 30.952253 39.838278 0.295434 0.680994 0.065024 -0.006710 234215.000000 0 0 1
24.040796 7.033296 32.319333 40.889686 0.284614 0.659330 0.068347 -0.002966 -200077.000000 0 0 1
23.983396 8.217696 33.282107 41.838170 0.330104 0.650970 0.087914 0.001742 92089.900000 0 0 1
25.056996 9.156896 33.340102 42.699697 0.350365 0.674844 0.070978 -0.001166 -190.076000 0 0 1
25.131996 9.780296 -33.910211 43.326364 0.371124 2.469739 0.081044 0.001297 -236272.000000 0 0 1
26.288296 10.760496 -33.818421 44.165013 0.388520 2.442970 0.054890 0.004720 -338953.000000 0 0 1
25.980796 12.011296 34.056305 44.487132 0.433047 0.698929 0.031772 0.001829 395676.000000 0 0 1
26.137096 13.118996 -33.606451 44.549404 0.465191 2.425481 0.037040 -0.002452 -637602.000000 0 0 1
25.592896 14.465896 -34.151764 45.062195 0.514462 2.430855 0.035674 -0.003775 -263649.000000 0 0 1
26.466896 15.185196 33.479018 45.298250 0.520889 0.739093 0.022399 -0.004797 270003.000000 0 0 1
26.313796 16.608096 33.467569 45.698172 0.563013 0.749013 0.020565 -0.010283 -214332.000000 0 0 1
26.949396 17.480096 -33.905301 46.705386 0.575409 2.383196 0.015828 -0.017587 -192513.000000 0 0 1
26.403296 17.106096 -32.650691 45.341153 0.574882 2.374759 0.033384 -0.022772 343216.000000 0 0 1
27.326696 16.450996 -31.769511 45.018723 0.541898 2.354201 0.034548 -0.026394 -437987.000000 0 0 1
26.697996 15.824196 -30.519741 43.527494 0.535043 2.347820 0.050291 -0.024051 362835.000000 0 0 1
25.661596 14.881296 -30.890311 42.827348 0.525513 2.376438 0.052968 -0.017304 901022.000000 0 0 1
24.907696 14.392296 -29.769701 41.397664 0.523955 2.373325 0.069867 -0.026882 211724.000000 0 0 1
23.980596 13.252496 -30.193711 40.772022 0.504863 2.404684 0.061725 -0.015378 -520630.000000 0 0 1
22.935396 13.533496 -31.142361 40.976024 0.533086 2.434131 0.065186 -0.015256 1050390.000000 0 0 1
22.160296 12.405996 -31.577661 40.523278 0.510359 2.464260 0.053283 -0.002236 373478.000000 0 0 1
21.387496 11.690496 -30.438131 38.994518 0.500232 2.466381 0.058532 0.005443 -907259.000000 0 0 1
20.303796 12.400696 -29.852441 38.173153 0.548292 2.468708 0.063225 0.013336 112104.000000 0 0 1
19.575396 11.437796 -29.147801 36.927139 0.528791 2.480518 0.052794 0.012882 -616870.000000 0 0 1
18.239096 11.941196 -28.581841 35.946883 0.579674 2.489991 0.039447 0.007909 -223536.000000 0 0 1
17.313796 12.181796 -29.628981 36.414834 0.613131 2.521202 0.025490 0.018990 -252759.000000 0 0 1
16.121596 12.671296 -29.075631 35.578925 0.666135 2.527358 0.025741 -0.000768 -61353.100000 0 0 1
15.051996 13.122896 -30.186461 36.193858 0.717036 2.557153 0.034385 0.002912 638968.000000 0 0 1
14.532696 12.166796 -31.032471 36.362679 0.697017 2.593299 0.025543 0.015809 -598752.000000 0 0 1
13.470196 11.525796 -30.372391 35.167773 0.707766 2.613248 0.031880 0.003305 -920777.000000 0 0 1
12.416896 10.960696 -31.329131 35.437700 0.723188 2.655280 0.044176 0.013257 -422314.000000 0 0 1
11.777596 12.010996 -31.979841 36.134277 0.795209 2.657350 0.050313 0.016114 -5212.250000 0 0 1
10.840596 11.389096 -32.872231 36.439176 0.810067 2.695436 0.064871 0.019249 238395.000000 0 0 1
10.342596 12.239296 -34.089798 37.668076 0.869194 2.702188 0.075023 0.005216 458913.000000 0 0 1
11.289196 12.298296 33.358912 37.302962 0.828153 0.463999 0.058665 0.008949 559332.000000 0 0 1
10.652496 12.868596 32.231393 36.303431 0.879338 0.478181 0.073004 -0.000352 -172462.000000 0 0 1
11.556796 12.848996 31.015173 35.504890 0.838295 0.508355 0.066308 0.003999 -398924.000000 0 0 1
11.841396 11.557596 30.516023 34.713461 0.773270 0.496861 0.050427 0.004566 59706.000000 0 0 1
11.662096 11.375996 29.100873 33.350841 0.772980 0.510362 0.066538 0.005972 -20316.500000 0 0 1
12.436396 10.150296 28.573993 32.774465 0.684527 0.511856 0.056484 0.005485 20815.700000 0 0 1
11.819396 8.956496 29.038183 32.605721 0.648461 0.472165 0.063706 -0.001954 424584.000000 0 0 1
12.514096 7.801096 28.589393 32.168511 0.557437 0.476210 0.033881 -0.005436 -112158.000000 0 0 1
11.652096 6.500296 28.630203 31.586607 0.508861 0.436106 0.047666 -0.007543 675626.000000 0 0 1
10.453596 6.533996 27.813103 30.422680 0.558634 0.417211 0.053225 -0.008584 672683.000000 0 0 1
9.609896 5.418196 28.042043 30.134086 0.513387 0.374815 0.035406 -0.009150 113910.000000 0 0 1
10.161496 4.016196 27.656733 29.736858 0.376393 0.376250 0.026007 -0.007297 398966.000000 0 0 1
11.093296 3.315896 28.542313 30.801299 0.290456 0.385370 0.026259 -0.002204 1001710.000000 0 0 1
11.597496 2.105996 27.997913 30.377957 0.179633 0.398479 -0.003705 0.001973 -27109.400000 0 0 1
11.832596 1.004396 29.012193 31.348469 0.084681 0.388511 0.015035 0.007468 16508.600000 0 0 1
10.597296 0.564796 29.530743 31.379714 0.053246 0.344994 0.016232 0.003693 -146894.000000 0 0 1
10.733996 -0.615804 30.339753 32.188484 -0.057307 0.340567 0.023260 -0.003798 -321682.000000 0 0 1
9.650496 -0.711504 31.389283 32.847000 -0.073594 0.299036 0.043674 -0.004265 -479235.000000 0 0 1
9.733796 0.365696 32.335013 33.770307 0.037552 0.292596 0.036474 -0.009914 54799.900000 0 0 1
8.486296 0.564896 32.961949 34.041540 0.066468 0.252519 0.051648 -0.016507 -269825.000000 0 0 1
8.377296 1.931996 33.750040 34.827818 0.226660 0.249427 0.039346 -0.017325 -269110.000000 0 0 1
8.449196 3.173896 33.042617 34.253132 0.359336 0.266647 0.045243 -0.021150 1288510.000000 0 0 1
9.764496 3.515496 32.512692 34.128862 0.345581 0.308977 0.036578 -0.011363 878049.000000 0 0 1
10.060096 4.861296 31.817053 33.721842 0.450138 0.337714 0.036286 -0.008501 -91382.200000 0 0 1
10.163496 5.973496 32.684270 34.745371 0.531356 0.346168 0.039425 -0.006924 184205.000000 0 0 1
10.524996 7.133696 31.972213 34.407667 0.595661 0.378506 0.041754 -0.002500 -223143.000000 0 0 1
10.600796 8.448196 32.822280 35.511279 0.672872 0.391658 0.069865 -0.008000 -18514.900000 0 0 1
9.386096 9.022496 33.267226 35.724117 0.765649 0.373034 0.074521 -0.013233 69212.400000 0 0 1
8.823196 8.422096 -34.096671 36.212752 0.762144 2.798044 0.061797 -0.016345 -176738.000000 0 0 1
7.422496 8.873896 -33.653871 35.586830 0.874226 2.810486 0.067869 -0.010862 -76096.400000 0 0 1
6.924696 8.202196 -32.519021 34.244914 0.869650 2.822758 0.068526 -0.010796 222158.000000 0 0 1
5.515496 8.374496 -32.459661 33.973261 0.988395 2.841968 0.053841 -0.009089 361314.000000 0 0 1
4.893196 7.750096 -31.193401 32.512084 1.007628 2.855806 0.056298 -0.011612 -348146.000000 0 0 1
5.405896 8.358996 -29.994871 31.603620 0.996733 2.821150 0.072016 -0.020977 38314.700000 0 0 1
5.081896 7.797996 -28.741441 30.211005 0.993232 2.828406 0.061645 -0.020549 -429676.000000 0 0 1
3.617496 7.706796 -28.290241 29.543505 1.131935 2.849277 0.055074 -0.014440 -463165.000000 0 0 1
2.878496 6.741796 -28.960861 29.874220 1.167264 2.893679 0.038628 -0.008345 461225.000000 0 0 1
1.531996 6.707296 -28.455061 29.274995 1.346241 2.904360 0.056761 -0.001876 1165030.000000 0 0 1
0.456496 6.035196 -29.381011 29.997929 1.495301 2.938436 0.040354 -0.007166 235360.000000 0 0 1
0.186896 6.923996 -30.444581 31.222574 1.543810 2.917888 0.042610 -0.013130 134099.000000 0 0 1
-0.294604 6.321696 -31.620201 32.247290 -1.524228 2.944060 0.055126 -0.015935 -803763.000000 0 0 1
-0.349504 7.407896 -32.768741 33.597462 -1.523651 2.919025 0.061398 -0.016817 808717.000000 0 0 1
0.955696 7.870296 -33.196501 34.130083 1.449957 2.907160 0.044288 -0.008351 1868300.000000 0 0 1
1.859496 6.861796 -33.766611 34.506897 1.306160 2.934081 0.043232 -0.014822 118037.000000 0 0 1
1.595096 6.462296 33.241488 33.901359 1.328802 0.197625 0.051329 -0.027194 -64340.300000 0 0 1
0.456296 5.628696 32.987692 33.467570 1.489907 0.169546 0.049743 -0.026654 367666.000000 0 0 1
0.161196 5.378496 31.604193 32.058996 1.540835 0.168642 0.054810 -0.017731 -358271.000000 0 0 1
1.147896 4.510696 30.821943 31.171401 1.321603 0.149879 0.067100 -0.013415 -276208.000000 0 0 1
0.966696 4.561096 29.440273 29.807177 1.361943 0.157064 0.062277 -0.016704 75528.300000 0 0 1
1.714296 3.563896 28.779763 29.050214 1.122450 0.136560 0.058132 -0.012836 -478751.000000 0 0 1
1.703296 3.678196 27.252083 27.551885 1.137119 0.147656 0.060289 -0.010104 -13979.800000 0 0 1
2.212296 4.913496 26.822473 27.358395 1.147735 0.198258 0.065121 -0.012304 -68167.900000 0 0 1
2.059696 5.119396 25.407783 26.000116 1.188281 0.213864 0.054601 -0.008066 -223536.000000 0 0 1
2.362996 6.588196 24.922363 25.886527 1.226418 0.273786 0.048510 0.000992 222139.000000 0 0 1
3.730196 6.951096 24.966453 26.183122 1.078273 0.306046 0.053576 0.003755 186800.000000 0 0 1
4.371196 6.821396 23.694643 25.041464 1.000911 0.329462 0.051471 -0.005192 -463401.000000 0 0 1
5.906796 6.908096 23.701883 25.384863 0.863375 0.366181 0.056878 -0.002996 86945.800000 0 0 1
6.678796 5.966496 24.459133 26.047161 0.729128 0.350991 0.054129 -0.003926 313985.000000 0 0 1
6.527396 4.545896 24.174623 25.449646 0.608328 0.317880 0.049728 -0.006694 -600245.000000 0 0 1
6.958296 3.979396 22.762323 24.132485 0.519496 0.338592 0.042986 -0.007639 918464.000000 0 1 0
5.968396 4.327896 21.760523 22.975483 0.627397 0.326660 0.041520 -0.021233 406975.000000 0 1 0
4.784096 3.569296 21.780523 22.583592 0.640985 0.267479 0.031021 -0.021893 -865285.000000 0 1 0
3.687396 4.093996 20.885523 21.600064 0.837603 0.257932 0.021254 -0.021516 -462664.000000 0 1 0
3.186596 5.335896 21.352723 22.238817 1.032438 0.283238 0.015291 -0.014219 -685860.000000 0 1 0
1.991096 5.541296 20.681523 21.503391 1.225843 0.277367 0.019155 -0.010016 -698053.000000 0 1 0
1.530896 7.029896 20.778023 21.988391 1.356375 0.333342 0.024707 -0.007171 426.937000 0 1 0
2.182696 7.835896 19.821123 21.425274 1.299132 0.389423 0.017868 -0.019340 294180.000000 0 1 0
1.630596 9.136996 19.965623 22.017485 1.394195 0.435148 0.030926 -0.022540 492011.000000 0 1 0
2.662596 10.207296 19.507323 22.176879 1.315630 0.495724 0.036028 -0.031536 -307024.000000 0 1 0
2.830496 10.351596 18.125923 21.064575 1.303885 0.534559 0.030478 -0.031308 889955.000000 0 1 0
3.811196 11.312496 17.593223 21.260745 1.245838 0.596160 0.032272 -0.034092 1049080.000000 0 1 0
5.312996 11.032196 17.831223 21.630760 1.121985 0.601751 0.043403 -0.031588 -178534.000000 0 1 0
5.887196 10.145696 16.936023 20.601531 1.045014 0.605749 0.042702 -0.028929 -312662.000000 0 1 0
7.181596 9.707896 17.272123 21.074743 0.933876 0.610145 0.048064 -0.021068 -347128.000000 0 1 0
7.186196 8.263196 17.896223 20.980863 0.854997 0.549131 0.049370 -0.016551 -165250.000000 0 1 0
6.697296 8.172196 19.256423 21.964708 0.884264 0.501841 0.055890 -0.014330 91163.500000 0 1 0
6.608096 6.888796 19.746723 21.932978 0.806193 0.450290 0.046501 -0.020932 595144.000000 0 1 0
7.979296 6.160196 20.070223 22.459542 0.657447 0.465457 0.060309 -0.017999 570489.000000 0 1 0
8.719296 5.961496 18.899523 21.650809 0.599711 0.509631 0.046482 -0.019290 -451743.000000 0 1 0
10.035196 5.538496 19.190023 22.352563 0.504306 0.538429 0.047184 -0.018672 45774.100000 0 1 0
10.376696 4.003096 19.105523 22.107049 0.368186 0.527183 0.047984 -0.013576 -243656.000000 0 1 0
9.735396 3.254696 20.101623 22.570916 0.322634 0.472137 0.049813 -0.014312 168286.000000 0 1 0
10.034796 1.856196 19.951723 22.410128 0.182908 0.472794 0.040078 -0.026710 188715.000000 0 1 0
9.256096 0.907096 20.912723 22.887554 0.097688 0.418460 0.038274 -0.016386 90139.800000 0 1 0
9.616496 1.095396 22.240323 24.255079 0.113419 0.410467 0.029006 -0.005799 170554.000000 0 1 0
8.835196 0.204396 23.020423 24.658515 0.023130 0.366551 0.037386 -0.017091 -107411.000000 0 1 0
9.166396 0.228196 24.532463 26.190010 0.024890 0.357682 0.038980 -0.002312 406382.000000 0 0 1
10.380896 -0.385204 25.008163 27.079875 -0.037090 0.393699 0.033624 -0.003279 727874.000000 0 0 1
10.396096 -1.823104 25.013243 27.148938 -0.173599 0.399298 0.037563 -0.005932 14825.400000 0 0 1
11.874096 -2.256104 25.116273 27.873129 -0.187764 0.448513 0.036029 -0.007476 88035.700000 0 0 1
12.018896 -3.661204 25.175543 28.136564 -0.295691 0.462897 0.042466 -0.005407 1334630.000000 0 0 1
13.375296 -4.121004 25.470713 29.062664 -0.298876 0.502447 0.041814 -0.006290 1236130.000000 0 0 1
13.444996 -5.663104 25.495353 29.374338 -0.398652 0.519744 0.048164 -0.008081 -144969.000000 0 0 1
13.335796 -6.358704 24.211643 28.363361 -0.444928 0.547893 0.051921 -0.013238 248995.000000 0 0 1
13.156796 -7.768804 24.429053 28.813786 -0.533389 0.558926 0.065440 -0.020153 51210.700000 0 0 1
13.112596 -8.640904 23.206323 28.020329 -0.582660 0.594915 0.073909 -0.022752 -63705.200000 0 0 1
12.654596 -9.971704 23.465453 28.464033 -0.667375 0.601673 0.070203 -0.013936 -227992.000000 0 0 1
12.612096 -10.670504 22.264023 27.723841 -0.702198 0.638377 0.058049 -0.012348 -289226.000000 0 0 1
11.851696 -11.967304 22.385823 28.014356 -0.790252 0.645026 0.073708 -0.011746 284511.000000 0 0 1
10.441296 -11.756204 22.405723 27.372348 -0.844566 0.611909 0.079026 -0.013867 -32665.100000 0 0 1
9.773396 -12.980404 22.192423 27.504796 -0.925420 0.631985 0.075431 -0.015708 1204630.000000 0 0 1
8.225496 -12.883604 22.503323 27.203779 -1.002586 0.596667 0.048753 -0.014915 1366150.000000 0 0 1
7.466496 -12.037704 21.660423 25.881052 -1.015613 0.579161 0.039179 -0.016879 -64181.200000 0 0 1
6.065396 -12.160304 21.828023 25.712344 -1.108120 0.556836 0.030333 -0.020138 639281.000000 0 0 1
5.331196 -10.901904 21.197923 24.425911 -1.115975 0.519946 0.021677 -0.018320 254941.000000 0 1 0
5.439596 -9.706604 21.983023 24.638602 -1.060002 0.468562 0.024078 -0.009568 -306588.000000 0 1 0
4.834996 -8.628304 21.327623 23.509410 -1.060031 0.434228 0.021302 -0.008277 -61556.800000 0 1 0
5.354096 -7.270804 21.830623 23.624289 -0.936067 0.392187 0.028661 -0.007512 263784.000000 0 1 0
4.709896 -6.126204 21.163323 22.529975 -0.915364 0.350093 0.013481 -0.009926 122373.000000 0 1 0
5.311996 -4.907504 21.479823 22.664592 -0.745838 0.324764 0.032787 -0.025034 -132029.000000 0 1 0
-8.677804 -15.367004 -20.938181 27.383508 1.056734 2.441259 0.024439 0.007652 -394968.000000 0 0 1
-7.959004 -14.940904 -19.820481 26.065836 1.081333 2.434726 0.013225 0.006849 71335.000000 0 0 1
-7.121704 -13.839004 -20.203981 25.503677 1.095528 2.485200 0.011042 -0.000330 331751.000000 0 0 1
-6.353204 -13.278704 -18.985081 24.023332 1.124536 2.482057 -0.003492 -0.000942 94213.200000 0 1 0
-5.477804 -14.151504 -18.306881 23.778421 1.201475 2.449472 0.016976 0.000230 -63044.200000 0 1 0
-4.878804 -13.598004 -17.189681 22.454255 1.226314 2.442680 0.045648 -0.005461 -882820.000000 0 1 0
-3.872404 -14.505104 -16.585981 22.371596 1.309912 2.405929 0.041403 -0.001130 -1203610.000000 0 1 0
-2.770304 -14.683004 -17.412881 22.945013 1.384314 2.432413 0.029937 -0.001558 -388159.000000 0 1 0
-1.794604 -15.466804 -16.715581 22.844108 1.455283 2.391644 0.030179 -0.000050 1441230.000000 0 1 0
-0.368404 -15.616404 -17.392081 23.377174 1.547210 2.409799 0.040255 0.000963 1293640.000000 0 1 0
-0.585404 -16.532604 -18.454881 24.784114 1.535402 2.410770 0.063463 -0.014558 17034.400000 0 1 0
-0.503804 -17.900004 -18.236681 25.558570 1.542658 2.365313 0.057893 -0.010111 -319579.000000 0 0 1
-0.734004 -18.616504 -19.550581 27.006262 1.531389 2.380275 0.071001 -0.016096 -807832.000000 0 0 1
-2.081804 -18.564004 -19.844981 27.253980 1.459121 2.386415 0.051000 -0.009877 -1307780.000000 0 0 1
-2.359104 -18.757404 -21.199581 28.404715 1.445684 2.413343 0.036843 -0.011630 145459.000000 0 0 1
-3.526404 -17.838804 -21.647281 28.271244 1.375631 2.442925 0.033529 -0.010092 80636.200000 0 0 1
-3.325704 -16.449604 -21.777481 27.493789 1.371310 2.485017 0.033788 -0.000605 -345769.000000 0 0 1
-3.480304 -15.666604 -20.595781 26.110174 1.352198 2.479655 0.014064 -0.001081 -256381.000000 0 0 1
-2.511004 -14.481304 -20.473981 25.203119 1.399107 2.518982 0.032241 -0.009672 -278213.000000 0 0 1
-2.575004 -13.501204 -21.507881 25.524539 1.382336 2.572955 0.028451 -0.014930 510065.000000 0 0 1
-1.718104 -12.400504 -21.084181 24.520748 1.433122 2.605773 0.041062 -0.015571 470302.000000 0 1 0
-1.630704 -11.290604 -22.115881 24.884717 1.427358 2.665371 0.050559 -0.024666 522374.000000 0 1 0
-2.790304 -10.473404 -22.364781 24.852795 1.310426 2.690313 0.031137 -0.017927 632101.000000 0 1 0
-2.622604 -9.972004 -23.667981 25.816511 1.313623 2.730731 0.035081 -0.012013 255947.000000 0 0 1
-3.646404 -8.850704 -24.034681 25.870777 1.179996 2.762574 0.030243 -0.012226 581835.000000 0 0 1
-5.025604 -9.218404 -24.074581 26.264446 1.071668 2.730344 0.044332 -0.015851 650449.000000 0 0 1
-5.742304 -7.988004 -24.032681 25.968289 0.947521 2.753051 0.042435 -0.019486 -445398.000000 0 0 1
-7.273004 -8.150304 -23.928381 26.303830 0.842218 2.713338 0.023857 -0.013264 236398.000000 0 0 1
-8.068104 -8.559804 -25.024581 27.651296 0.814960 2.702189 0.031278 -0.005590 206794.000000 0 0 1
-8.220204 -7.564604 -26.017771 28.314650 0.743888 2.736029 0.042673 -0.011034 -459660.000000 0 0 1
-8.997704 -7.991204 -27.256541 29.794916 0.726223 2.725821 0.044426 -0.012575 -87533.700000 0 0 1
-9.585004 -6.887904 -27.894411 30.288838 0.623109 2.741300 0.050329 -0.013710 164662.000000 0 0 1
-10.504404 -7.363804 -28.887041 31.607424 0.611411 2.723665 0.056928 -0.016731 108699.000000 0 0 1
-11.366504 -6.296504 -29.563211 32.292829 0.505873 2.727478 0.069921 -0.022925 172032.000000 0 0 1
-10.624504 -5.392704 -30.385781 32.638275 0.469687 2.767901 0.048087 -0.011850 147842.000000 0 0 1
-11.505004 -4.746504 -31.273481 33.658952 0.391287 2.762844 0.078246 -0.022010 154448.000000 0 0 1
-10.747304 -3.767004 -32.173221 34.129328 0.337126 2.801385 0.060681 -0.033615 75129.600000 0 0 1
-9.762104 -4.373404 -32.988041 34.679045 0.421188 2.828023 0.058905 -0.028506 -84123.800000 0 0 1
-9.159904 -3.380704 -33.775651 35.158606 0.353567 2.860184 0.053540 -0.029612 -405058.000000 0 0 1
-8.027004 -3.956304 33.887569 35.049287 0.457931 0.258186 0.040439 -0.024002 155730.000000 0 0 1
-6.774604 -4.086704 -33.961481 34.870884 0.542798 2.912711 0.033008 -0.024675 -241453.000000 0 0 1
-5.814404 -4.548604 33.639469 34.439962 0.663854 0.216027 0.023377 -0.019119 -254121.000000 0 0 1
-4.397804 -4.211904 34.171629 34.709956 0.763810 0.176349 0.023073 -0.017527 -7331.890000 0 0 1
-4.119604 -2.828804 34.149901 34.513606 0.601723 0.145304 0.035750 -0.023082 748470.000000 0 0 1
-2.702004 -2.619504 -34.209830 34.416204 0.769896 3.032026 0.033531 -0.026571 1028530.000000 0 0 1
-2.372804 -1.119004 -34.012211 34.113236 0.440667 3.064613 0.051657 -0.030653 -41069.200000 0 0 1
-2.667704 -0.785604 -32.674001 32.792135 0.286391 3.056685 0.036990 -0.035517 -20451.100000 0 0 1
-2.940704 0.570396 -32.499631 32.637388 -0.191587 3.049682 0.062495 -0.040407 -422142.000000 0 0 1
-3.567504 0.810196 -31.140321 31.354475 -0.223316 3.024649 0.096049 -0.041567 196555.000000 0 0 1
-4.753304 0.049596 -30.971231 31.333903 -0.010434 2.989298 0.067788 -0.041468 478463.000000 0 0 1
-5.902104 0.822396 -30.582561 31.157731 -0.138448 2.949150 0.070036 -0.039630 1053910.000000 0 0 1
-7.181504 -0.092904 -30.659681 31.489659 0.012936 2.911489 0.059049 -0.044005 458257.000000 0 0 1
-7.443404 -0.932204 -29.523911 30.462019 0.124590 2.892774 0.040489 -0.035483 -496154.000000 0 0 1
-8.690104 -1.529404 -29.641291 30.926738 0.174210 2.852264 0.057631 -0.023304 -537180.000000 0 0 1
-9.099004 -2.438304 -28.495501 30.012177 0.261823 2.822322 0.055234 -0.016605 -165595.000000 0 0 1
-9.437404 -1.768804 -27.318781 28.957021 0.185275 2.803609 0.055109 -0.015213 13675.800000 0 0 1
-9.774004 -2.498404 -26.229141 28.102331 0.250259 2.774414 0.040888 -0.010762 125158.000000 0 0 1
-10.818904 -1.777204 -25.329971 27.600988 0.162814 2.733098 0.051129 -0.005617 566125.000000 0 0 1
-10.254404 -0.619204 -24.664081 26.718029 0.060311 2.746927 0.039915 -0.011289 447472.000000 0 0 1
-11.260404 -0.025304 -23.854081 26.378296 0.002247 2.700550 0.052845 -0.016563 331185.000000 0 0 1
-10.844704 1.297296 -23.210681 25.652023 -0.119059 2.701773 0.057470 -0.018439 135835.000000 0 0 1
-10.718704 2.344396 -24.207281 26.577796 -0.215329 2.716034 0.043942 -0.021371 -132215.000000 0 0 1
-10.047404 3.427396 -23.662181 25.934459 -0.328744 2.719867 0.039804 -0.014028 -589967.000000 0 0 1
-9.901004 4.584396 -24.655481 26.961812 -0.433631 2.724966 0.040248 -0.021301 1210070.000000 0 0 1
-11.108004 5.402996 -24.812081 27.716772 -0.452713 2.679678 0.044572 -0.021797 1120170.000000 0 0 1
-12.019704 4.866696 -25.741761 28.823536 -0.384717 2.674944 0.042417 -0.026468 -374964.000000 0 0 1
-13.214104 5.789696 -26.044321 29.773138 -0.412952 2.635735 0.038111 -0.015232 -18138.000000 0 0 1
-12.907904 7.078296 -26.581101 30.385378 -0.501590 2.635817 0.035611 -0.016665 -85177.900000 0 0 1
-14.125404 7.713896 -26.916131 31.360952 -0.499845 2.602683 0.035548 -0.007884 -64528.400000 0 0 1
-14.280704 9.204796 -27.027531 31.924194 -0.572543 2.580390 0.044152 -0.009282 -293397.000000 0 0 1
-14.204004 9.755696 -25.744121 30.978817 -0.601830 2.551741 0.057104 -0.024986 19086.800000 0 0 1
-14.496904 11.122096 -25.673191 31.511489 -0.654422 2.523051 0.050073 -0.022685 -287842.000000 0 0 1
-14.008404 11.736796 -24.369881 30.461104 -0.697392 2.498146 0.045882 -0.021237 -299714.000000 0 0 1
-14.763904 11.368496 -23.241581 29.789035 -0.656191 2.465791 0.050885 -0.018785 -27304.800000 0 0 1
-14.474704 12.259196 -22.188981 29.191708 -0.702714 2.434282 0.038880 -0.011806 21878.900000 0 0 1
-15.340404 12.123996 -20.853981 28.586846 -0.668817 2.388381 0.041967 -0.012225 384077.000000 0 0 1
-16.709004 12.410696 -21.064581 29.613050 -0.638848 2.362182 0.036473 -0.012270 -187170.000000 0 0 1
-17.275404 12.807896 -19.852581 29.267845 -0.637971 2.316252 0.035583 -0.002368 -789870.000000 0 0 1
-18.751104 13.125096 -20.034581 30.418029 -0.610702 2.289808 0.038043 -0.007566 -838697.000000 0 0 1
-19.029304 14.120396 -20.975381 31.645957 -0.638384 2.295367 0.038065 -0.010208 -373856.000000 0 0 1
-20.400804 14.388696 -21.001881 32.623709 -0.614274 2.270200 0.024299 -0.010015 -444318.000000 0 0 1
-20.748004 15.752896 -21.553381 33.810969 -0.649394 2.262003 0.014270 -0.014181 -253953.000000 0 0 1
-20.565004 15.879196 -22.947781 34.665096 -0.657525 2.294261 0.018486 -0.017526 217933.000000 0 0 1
-21.000704 17.121396 -23.471981 35.848370 -0.683987 2.284658 -0.004042 -0.005421 -380250.000000 0 0 1
-21.021204 17.309196 -24.968181 36.944679 -0.688857 2.312881 -0.007441 -0.007689 821937.000000 0 0 1
-19.709604 17.326696 -25.558641 36.632322 -0.721147 2.342989 0.007382 -0.015814 809334.000000 0 0 1
-19.825204 16.912596 -26.876141 37.435298 -0.706283 2.371629 0.005719 -0.022292 -630913.000000 0 0 1
-18.866804 17.434996 -27.923601 37.942889 -0.745977 2.397847 -0.018300 -0.010997 -572030.000000 0 0 1
-19.196504 18.737896 -28.329251 39.014881 -0.773309 2.383450 -0.028817 -0.026919 428632.000000 0 0 1
-18.566904 19.756696 -27.565481 38.664101 -0.816434 2.364489 -0.039597 -0.028450 -1032550.000000 0 0 1
-19.298604 21.144296 -27.706251 39.839097 -0.831003 2.339848 0.004909 -0.024700 1476850.000000 0 0 1
-20.484204 21.318396 -26.884411 39.960582 -0.805351 2.308747 0.014591 -0.016508 873237.000000 0 0 1
-21.604404 20.485696 -27.061081 40.233271 -0.758826 2.308519 0.050845 -0.040694 -822510.000000 0 0 1
-22.640604 20.981496 -26.029581 40.377706 -0.747383 2.271365 0.042586 -0.023113 -463255.000000 0 0 1
-22.265904 20.712296 -24.724381 39.192661 -0.749265 2.253434 0.001327 -0.009527 438778.000000 0 0 1
-23.167404 21.410196 -23.833881 39.537058 -0.745999 2.217832 0.003036 -0.019067 -65253.400000 0 0 1
-23.085704 21.127996 -22.293581 38.423244 -0.741149 2.189784 -0.002778 -0.003745 -595349.000000 0 0 1
-21.992504 21.751296 -21.655481 37.759091 -0.779884 2.181589 -0.000610 -0.003866 -165207.000000 0 0 1
-20.961004 20.817196 -21.424881 36.493079 -0.781956 2.198261 0.002536 -0.000766 -448013.000000 0 0 1
-21.077604 20.016796 -20.118281 35.350852 -0.759590 2.176211 0.019211 -0.010521 -410683.000000 0 0 1
-22.094704 19.003496 -20.278581 35.503938 -0.710324 2.178720 0.032345 -0.011277 834054.000000 0 0 1
-22.645304 18.371396 -19.104281 34.861031 -0.681574 2.150783 0.024106 -0.000503 239521.000000 0 0 1
-23.686404 19.334996 -18.447181 35.709750 -0.684596 2.113656 0.004877 -0.000036 -165850.000000 0 0 1
-24.837504 19.546396 -19.253281 37.008810 -0.666746 2.117923 -0.001015 0.008307 684444.000000 0 0 1
-25.755594 20.470496 -18.659181 37.822703 -0.671561 2.086713 -0.002428 -0.000336 -465090.000000 0 0 1
-27.218524 20.439496 -19.136881 39.049215 -0.644103 2.082967 -0.009567 0.008265 347661.000000 0 0 1
-28.053984 19.336796 -18.755381 38.893470 -0.603489 2.073988 0.003159 0.011638 431232.000000 0 0 1
-28.297654 19.335496 -17.337781 38.408557 -0.599423 2.039135 0.000502 0.004669 -983344.000000 0 0 1
-29.255964 18.184196 -16.940881 38.387105 -0.556118 2.027862 0.004233 0.009217 -448526.000000 0 0 1
-28.680414 16.925896 -16.776981 37.289666 -0.533149 2.037461 0.015880 0.004001 -307277.000000 0 0 1
-29.592574 15.955896 -16.311481 37.368107 -0.494503 2.022510 0.016592 0.006547 -49747.100000 0 0 1
-28.965934 14.753596 -15.562081 36.039871 -0.471094 2.017286 0.049082 0.005375 8903.550000 0 0 1
-28.348884 15.038696 -14.278381 35.123977 -0.487738 1.989431 0.056841 0.006392 182883.000000 0 0 1
-29.272374 15.247196 -13.244481 35.563536 -0.480206 1.952409 0.031145 0.012284 84521.000000 0 0 1
-28.594554 15.793996 -11.955481 34.785519 -0.504640 1.921641 0.044352 -0.003522 -148520.000000 0 0 1
-28.038554 17.085796 -11.995781 34.956883 -0.547279 1.921075 0.034847 0.000631 -48126.700000 0 0 1
-28.880154 18.222496 -12.255581 36.281151 -0.562880 1.915369 0.019693 0.001277 70399.000000 0 0 1
-28.112064 19.538896 -12.495481 36.444391 -0.607387 1.920761 0.034366 -0.013538 103971.000000 0 0 1
-27.587754 20.168296 -11.321681 36.000344 -0.631269 1.890714 0.032459 -0.025712 928400.000000 0 0 1
-26.370994 20.878296 -11.668481 35.601770 -0.669668 1.904717 0.031262 -0.018330 864797.000000 0 0 1
-25.876034 22.087796 -10.823181 35.701276 -0.706581 1.878803 0.031653 -0.016467 -175042.000000 0 0 1
-26.762884 23.155796 -10.603481 36.944237 -0.713264 1.861904 0.044310 -0.027566 -594271.000000 0 0 1
-26.121014 24.249296 -10.042781 37.029625 -0.748256 1.845446 0.047359 -0.023348 -189429.000000 0 0 1
-26.914074 25.107896 -9.044881 37.902291 -0.750693 1.811758 0.068365 -0.005047 -178283.000000 0 0 1
-26.756074 24.480896 -7.760381 37.086726 -0.741022 1.781604 0.065603 -0.007617 -163379.000000 0 0 1
-27.589994 25.020796 -6.801781 37.861751 -0.736603 1.751425 0.074476 -0.016662 -225158.000000 0 0 1
-27.622084 24.146696 -5.504781 37.099125 -0.718366 1.719727 0.077885 -0.015507 -83189.200000 0 0 1
-28.003764 22.794896 -5.709981 36.557105 -0.683216 1.727632 0.078502 -0.016198 -78760.200000 0 0 1
-27.535604 22.080396 -4.566181 35.589371 -0.675889 1.699453 0.070069 -0.012180 118452.000000 0 0 1
-27.310224 20.595096 -4.879681 34.551665 -0.646131 1.712499 0.068192 -0.013944 -361100.000000 0 0 1
-26.280304 20.380696 -5.785781 33.756516 -0.659630 1.743044 0.065555 -0.023836 -399864.000000 0 0 1
-26.621824 20.454696 -7.160381 34.327644 -0.655138 1.780929 0.053817 -0.017771 -275612.000000 0 0 1
-27.357784 19.200796 -7.743581 34.308628 -0.611960 1.798462 0.052910 -0.015960 92274.200000 0 0 1
-26.578764 18.029596 -7.802781 33.051178 -0.596045 1.809128 0.052391 -0.013151 135626.000000 0 0 1
-27.158024 17.231096 -8.810281 33.348013 -0.565384 1.838162 0.029230 -0.010305 277364.000000 0 0 1
-26.635504 15.732196 -8.784881 32.157832 -0.533514 1.847494 0.059938 -0.001191 575454.000000 0 0 1
-27.436794 14.856396 -7.942381 32.195831 -0.496276 1.820059 0.046254 0.003761 375946.000000 0 0 1
-27.596334 13.614996 -8.612381 31.954637 -0.458324 1.843690 0.055256 -0.013555 146288.000000 0 0 1
-28.504344 12.487596 -8.054981 32.145301 -0.412909 1.824076 0.049368 -0.021103 -240275.000000 0 0 1
-29.892774 12.688296 -8.200381 33.493537 -0.401413 1.818146 0.050287 -0.018378 -416696.000000 0 0 1
-30.606454 11.765096 -7.439781 33.623248 -0.366985 1.793912 0.057558 -0.022528 -229102.000000 0 0 1
-31.074204 10.493896 -8.145781 33.794700 -0.325679 1.814231 0.061043 -0.024969 -508185.000000 0 0 1
-30.017234 9.673496 -8.607681 32.691024 -0.311756 1.837242 0.077239 -0.021376 70713.400000 0 0 1
-30.494094 8.406596 -9.010581 32.889986 -0.268998 1.848306 0.069668 -0.014665 -395781.000000 0 0 1
-29.384114 7.395696 -9.418781 31.730678 -0.246569 1.872173 0.099342 -0.014773 -21252.400000 0 0 1
-28.815224 7.584896 -10.695981 31.658360 -0.257387 1.915435 0.102043 -0.024268 131948.000000 0 0 1
-27.842324 6.586596 -10.921681 30.624522 -0.232297 1.935457 0.114271 -0.032271 -362688.000000 0 0 1
-27.081694 6.812896 -12.231681 30.486845 -0.246454 1.983636 0.101363 -0.031615 -156003.000000 0 0 1
-26.191804 7.908796 -12.234881 29.970852 -0.293251 1.991306 0.114810 -0.028060 -112919.000000 0 0 1
-25.323694 7.941896 -13.281881 29.677795 -0.303901 2.034804 0.111880 -0.017182 -727179.000000 0 0 1
-30.640584 25.760796 34.064581 52.562912 -0.699094 0.865745 0.006070 0.010455 -93888.000000 0 0 1
-31.139714 27.074796 34.057361 53.503553 -0.715685 0.880788 0.001918 -0.002330 124453.000000 0 0 1
-31.695404 27.294396 32.780435 53.142634 -0.710930 0.906076 0.017364 -0.007508 -207970.000000 0 0 1
-32.203124 28.740896 32.647466 54.119657 -0.728649 0.923232 0.019928 -0.018636 -87326.800000 0 0 1
-32.354614 29.155096 31.301553 53.634204 -0.733429 0.947627 0.036354 -0.015237 49738.000000 0 0 1
-32.604354 30.572696 31.214343 54.516684 -0.753251 0.961165 0.043903 -0.018377 -34774.800000 0 0 1
-32.424924 31.266596 29.850733 54.037413 -0.767214 0.985545 0.072788 -0.021308 -589291.000000 0 0 1
-31.100994 31.181596 29.414363 52.960065 -0.786692 0.981945 0.048908 -0.018554 -402137.000000 0 0 1
-30.794654 32.047396 28.341323 52.712208 -0.805330 1.003135 0.049386 -0.006209 -248084.000000 0 0 1
-29.382104 31.897096 27.781633 51.502931 -0.826417 1.001050 0.044169 -0.005022 -597263.000000 0 0 1
-29.092964 30.743396 27.076353 50.246252 -0.812974 1.001698 0.051204 -0.008903 -632445.000000 0 0 1
-27.785794 30.640096 26.618573 49.187542 -0.834213 0.998975 0.024091 0.005667 -448674.000000 0 0 1
-27.369054 31.398296 25.273103 48.720097 -0.853854 1.025419 0.032411 0.000903 -365422.000000 0 0 1
-27.292384 32.805596 25.390963 49.656644 -0.876879 1.034064 0.018760 0.001629 174435.000000 0 0 1
-28.233084 33.523596 24.579983 50.250513 -0.870857 1.059683 0.026136 -0.001013 203364.000000 0 0 1
-28.462684 -33.626094 25.144963 50.725810 0.868369 1.052152 0.047700 -0.007999 -243575.000000 0 0 1
-29.329934 -33.634894 26.255683 51.777524 0.853663 1.038995 0.056841 -0.017690 179017.000000 0 0 1
-29.607434 -32.274094 26.609213 51.247122 0.828465 1.024843 0.048095 -0.017321 -141302.000000 0 0 1
-30.099954 -32.069794 28.022693 52.151225 0.817072 1.003522 0.051082 -0.020800 805469.000000 0 0 1
-31.392964 -32.658094 28.296663 53.411333 0.805147 1.012446 0.068213 -0.029622 893795.000000 0 0 1
-31.686624 -32.758194 29.675963 54.385699 0.802024 0.993623 0.050374 -0.021633 -799991.000000 0 0 1
-33.033294 -33.398394 29.864493 55.664524 0.790894 1.004502 0.063716 -0.025495 -662893.000000 0 0 1
-33.383444 -33.665294 31.239203 56.777585 0.789602 0.988189 0.039221 -0.020185 -21925.300000 0 0 1
-34.768942 -33.900994 31.368363 57.811166 0.772759 0.997267 0.046392 -0.022597 -14485.400000 0 0 1
-35.208031 34.152896 32.740220 58.974128 -0.770187 0.982238 0.051213 -0.014515 -186611.000000 0 0 1
-34.958930 32.795496 32.991077 58.190055 -0.753478 0.967993 0.027314 0.001526 -240691.000000 0 0 1
-35.635141 32.347496 34.129093 59.000159 -0.737076 0.953960 0.034900 0.001487 -100444.000000 0 0 1
-35.280799 30.958496 -33.872921 57.883832 -0.720238 2.195908 0.014952 0.004455 480818.000000 0 0 1
-34.057105 30.897796 -33.149081 56.687051 -0.736798 2.195397 0.015804 0.011920 -212682.000000 0 0 1
-33.798374 29.599696 -32.663921 55.546411 -0.719268 2.199439 0.006996 0.003174 -42195.500000 0 0 1
-32.876134 29.678696 -31.448351 54.320014 -0.734328 2.188232 0.002656 0.000331 -252115.000000 0 0 1
-33.439854 29.908696 -30.148831 54.052807 -0.729714 2.162488 0.006168 -0.002818 -408218.000000 0 0 1
-33.892944 31.222796 -29.893541 54.929213 -0.744415 2.146255 -0.011112 0.008090 -430697.000000 0 0 1
-34.935897 31.316296 -28.824001 55.064056 -0.730819 2.121707 -0.012986 0.008012 -480229.000000 0 0 1
-34.459379 31.155496 -27.517241 53.993631 -0.735088 2.105561 -0.025000 -0.001056 -184789.000000 0 0 1
-35.522931 30.844896 -26.615401 54.052435 -0.715028 2.085641 0.008709 -0.006690 71413.900000 0 0 1
-35.162284 30.469596 -25.171061 52.899572 -0.714019 2.066701 0.018092 -0.018257 -339871.000000 0 0 1
-34.939093 31.682096 -24.445181 53.123086 -0.736549 2.048973 0.006045 -0.013846 -171383.000000 0 0 1
-34.563552 31.419296 -23.117381 52.117411 -0.737782 2.030367 0.010397 -0.020253 -261033.000000 0 0 1
-35.684489 31.037696 -22.119581 52.211083 -0.715867 2.008275 0.009681 -0.016425 -348483.000000 0 0 1
35.859996 32.028996 -21.922081 52.842914 0.729028 1.998578 0.021294 -0.021038 -381851.000000 0 0 1
36.192086 33.237996 -21.170781 53.505452 0.742876 1.977599 0.033763 -0.028151 -435011.000000 0 0 1
-36.141964 33.082096 -19.637381 52.785351 -0.741225 1.951984 0.032031 -0.024373 354738.000000 0 0 1
-35.005944 32.257796 -19.353781 51.386285 -0.744565 1.956955 0.025666 -0.024665 380835.000000 0 0 1
-34.863334 32.146896 -17.970881 50.713189 -0.744883 1.933029 0.038953 -0.016356 -33827.000000 0 0 1
-33.598784 31.320896 -17.664481 49.212912 -0.750325 1.937928 0.039056 -0.009796 -66853.200000 0 0 1
-33.505684 31.133496 -16.296781 48.554201 -0.748716 1.913082 0.029405 -0.005064 480828.000000 0 0 1
-32.301684 30.386996 -16.052681 47.164148 -0.754865 1.918094 0.028698 -0.003571 569273.000000 0 0 1
-31.869794 30.232096 -14.579881 46.284299 -0.759033 1.891260 0.040787 -0.009064 -47325.100000 0 0 1
-32.875784 29.412096 -14.028781 46.289256 -0.729848 1.878706 0.029777 -0.006442 6712.460000 0 0 1
-32.672764 28.997696 -12.724581 45.500448 -0.725877 1.854235 0.038525 -0.006847 244861.000000 0 0 1
-33.932474 28.503196 -11.939081 45.895388 -0.698658 1.833960 0.029968 -0.004048 304971.000000 0 0 1
-33.500074 28.242596 -10.642181 45.090522 -0.700452 1.809062 0.025240 0.001656 -93754.900000 0 0 1
-34.326069 27.368096 -9.988681 45.022943 -0.673091 1.794515 0.036209 -0.008279 -167545.000000 0 0 1
-33.436174 26.594396 -8.988081 43.658049 -0.671916 1.778154 0.036146 -0.003357 268967.000000 0 0 1
-33.051524 27.410996 -7.851181 43.650967 -0.692378 1.751643 0.052549 -0.011938 -251229.000000 0 0 1
-31.915744 26.813196 -7.301281 42.318682 -0.698733 1.744195 0.055674 -0.021263 -372302.000000 0 0 1
-31.518444 27.476996 -5.920581 42.230923 -0.717001 1.711455 0.067624 -0.025709 -395104.000000 0 0 1
-30.443404 26.873696 -5.263981 40.947599 -0.723199 1.699707 0.075807 -0.018645 173326.000000 0 0 1
-30.064974 27.558796 -4.011481 40.981482 -0.741933 1.668839 0.073143 -0.013183 111695.000000 0 0 1
-29.254044 26.558296 -3.134281 39.635412 -0.737135 1.649957 0.072830 -0.010740 -198449.000000 0 0 1
-30.027664 25.461296 -2.785381 39.467664 -0.703290 1.641429 0.055759 -0.002580 -299045.000000 0 0 1
-29.234834 24.452096 -2.234181 38.178162 -0.696547 1.629350 0.044914 -0.009090 36235.700000 0 0 1
-30.032844 23.161896 -1.846581 37.971766 -0.656943 1.619446 0.038065 -0.016167 54233.300000 0 0 1
-30.394354 22.340596 -2.883481 37.831646 -0.633848 1.647089 0.029552 -0.007777 -467609.000000 0 0 1
-31.455234 21.548096 -2.462281 38.207525 -0.600615 1.635286 0.036238 -0.011048 -538011.000000 0 0 1
-31.913334 20.600796 -3.580881 38.153327 -0.573222 1.664790 0.043325 -0.007500 185218.000000 0 0 1
-30.933894 19.613896 -3.933481 36.838607 -0.565087 1.677776 0.027787 -0.012747 536638.000000 0 0 1
-31.306454 19.056796 -5.169081 37.013172 -0.546805 1.710909 0.036810 -0.005809 -510678.000000 0 0 1
-30.301564 18.058996 -5.656581 35.725467 -0.537455 1.729800 0.033343 -0.013991 -716531.000000 0 0 1
-30.218944 16.912596 -4.855781 34.968544 -0.510236 1.710108 0.030924 -0.006369 25017.500000 0 0 1
-29.484924 15.886096 -5.495281 33.940048 -0.494194 1.733424 0.035886 -0.015981 -415398.000000 0 0 1
-29.197554 14.620496 -4.660781 32.984526 -0.464243 1.712573 0.044867 -0.011491 11790.500000 0 0 1
-30.369954 13.890096 -4.317581 33.673586 -0.428960 1.699369 0.042764 -0.013004 546865.000000 0 0 1
-29.992674 12.810096 -3.474581 32.798350 -0.403654 1.676933 0.049133 -0.028134 -15740.600000 0 0 1
-31.184294 12.065396 -2.871181 33.560060 -0.369168 1.656455 0.049275 -0.038312 -704578.000000 0 0 1
-32.147514 11.566496 -3.737781 34.368845 -0.345374 1.679767 0.060346 -0.020267 -232376.000000 0 0 1
-32.979724 10.675596 -3.024181 34.796210 -0.313057 1.657817 0.056399 -0.020717 -314075.000000 0 0 1
-34.033345 10.019696 -3.923981 35.693984 -0.286319 1.680953 0.053366 -0.010657 -267910.000000 0 0 1
-33.433214 9.402796 -5.021981 35.091490 -0.274159 1.714400 0.048594 -0.020688 -393520.000000 0 0 1
-34.349091 8.721596 -5.783081 35.907803 -0.248656 1.732554 0.048129 -0.012607 -570157.000000 0 0 1
-33.733194 7.939996 -7.009881 35.356899 -0.231169 1.770379 0.054530 -0.021863 3220.900000 0 0 1
-32.989994 6.798296 -6.555381 34.315150 -0.203227 1.763012 0.052712 -0.022041 509347.000000 0 0 1
-32.666384 5.880296 -7.604281 34.051367 -0.178103 1.796013 0.072418 -0.016746 -231478.000000 0 0 1
-31.650634 4.801696 -7.144381 32.800321 -0.150561 1.790371 0.094268 -0.021793 44362.400000 0 0 1
-30.338084 5.295196 -6.980881 31.578017 -0.172799 1.793705 0.102722 -0.029549 367980.000000 0 0 1
-29.515114 4.293696 -6.340981 30.492389 -0.144461 1.780278 0.104145 -0.030820 625654.000000 0 0 1
-28.031714 4.749596 -6.223681 29.104464 -0.167842 1.786300 0.117247 -0.032845 578897.000000 0 0 1
-27.304364 4.843096 -7.441881 28.711765 -0.175549 1.832983 0.120895 -0.028125 1761190.000000 0 0 1
-25.864484 4.984796 -7.217281 27.311332 -0.190393 1.838232 0.137123 -0.031872 1852730.000000 0 0 1
-25.077104 5.439996 -8.477081 27.024352 -0.213621 1.889866 0.126712 -0.033022 -20232.800000 0 0 1
-24.950704 4.396496 -9.365881 27.010859 -0.174417 1.924895 0.122481 -0.041499 855277.000000 0 0 1
-24.054004 4.775796 -10.444781 26.655145 -0.195996 1.973436 0.109036 -0.042610 395276.000000 0 0 1
-24.210404 3.872296 -11.669381 27.153504 -0.158600 2.015019 0.111427 -0.051014 5045.290000 0 0 1
-25.347374 4.272996 -12.396481 28.538055 -0.167007 2.020151 0.125248 -0.036924 146033.000000 0 0 1
-25.869234 3.366596 -13.345981 29.303011 -0.129412 2.043671 0.121961 -0.036741 -63197.600000 0 0 1
-26.882134 3.945296 -14.306581 30.706559 -0.145722 2.055462 0.106679 -0.028986 -123466.000000 0 0 1
-26.207844 4.890796 -15.169981 30.674082 -0.184494 2.088118 0.091612 -0.023126 982358.000000 0 0 1
-27.080024 5.829196 -15.819381 31.899217 -0.212023 2.089687 0.129415 -0.034834 778468.000000 0 0 1
-27.987954 5.454196 -17.066081 33.231385 -0.192464 2.110117 0.077793 -0.006727 667245.000000 0 0 1
-29.076334 4.600396 -16.804381 33.896667 -0.156917 2.089498 0.087843 -0.020828 -154660.000000 0 0 1
-29.765714 4.111296 -17.952381 35.002692 -0.137253 2.109339 0.080024 -0.009261 -23893.700000 0 0 1
-31.128834 3.538296 -17.520881 35.895753 -0.113180 2.080713 0.075919 -0.008792 -341672.000000 0 0 1
-31.121064 2.387296 -16.680881 35.390275 -0.076560 2.061607 0.084796 -0.020391 78111.700000 0 0 1
-30.701924 1.201196 -17.313281 35.267559 -0.039104 2.083933 0.092271 -0.026668 -130842.000000 0 0 1
-30.821914 -0.041304 -16.418881 34.922367 0.001340 2.060261 0.093938 -0.022889 -223231.000000 0 0 1
-30.539044 -1.285104 -17.019781 34.985106 0.042056 2.078860 0.090107 -0.011921 420947.000000 0 0 1
-31.136174 -2.322104 -16.226381 35.187341 0.074441 2.050079 0.097093 -0.017268 104578.000000 0 0 1
-31.061824 -3.768204 -16.813781 35.520973 0.120723 2.063884 0.072297 -0.012813 376998.000000 0 0 1
-31.971744 -3.942804 -17.920681 36.863111 0.122702 2.078465 0.082421 -0.012082 534312.000000 0 0 1
-31.688634 -5.130404 -18.639981 37.120607 0.160508 2.096875 0.074906 -0.012103 -407859.000000 0 0 1
-32.650644 -5.345104 -19.769181 38.541604 0.162267 2.109392 0.079581 -0.018028 -518753.000000 0 0 1
-32.470294 -6.525804 -20.439381 38.918818 0.198335 2.123723 0.090016 -0.018170 160164.000000 0 0 1
-33.429584 -6.646204 -21.476481 40.285833 0.196253 2.133060 0.099968 -0.014605 -148819.000000 0 0 1
-33.155534 -7.741004 -22.472081 40.794693 0.229367 2.154188 0.101443 -0.016930 -152392.000000 0 0 1
-31.905064 -7.469604 -23.072881 40.076002 0.229978 2.184291 0.086141 -0.020384 30729.300000 0 0 1
-31.662554 -8.479104 -24.041381 40.649730 0.261656 2.203625 0.078434 -0.016613 176431.000000 0 0 1
-30.212634 -8.553604 -24.592481 39.884302 0.275894 2.235207 0.061631 -0.014732 -68851.200000 0 0 1
-29.765594 -7.442404 -25.364471 39.808747 0.245010 2.261602 0.056137 -0.014255 -17237.700000 0 0 1
-29.972454 -7.328304 -26.762171 40.844410 0.239797 2.285273 0.032649 -0.007242 -1178360.000000 0 0 1
-31.358314 -6.984304 -27.260131 42.133586 0.219149 2.274430 0.051403 -0.013898 -885327.000000 0 0 1
-32.205484 -8.117204 -27.044381 42.830839 0.246902 2.254183 0.058164 -0.019221 -699731.000000 0 0 1
-33.263524 -8.165904 -27.941461 44.202593 0.240731 2.255086 0.067766 -0.018635 -357556.000000 0 0 1
-34.232647 -9.318904 -27.612561 44.957420 0.265782 2.232160 0.076059 -0.024970 -971598.000000 0 0 1
-33.692364 -10.638004 -27.836131 44.979914 0.305833 2.238083 0.071165 -0.013554 20614.700000 0 0 1
-34.552761 -11.690404 -27.407711 45.626105 0.326245 2.215176 0.060197 -0.008277 239842.000000 0 0 1
-35.892100 -11.742204 -28.189461 47.125024 0.316178 2.212030 0.042045 -0.000168 -693361.000000 0 0 1
35.711466 -10.741804 -27.847741 46.542366 -0.292185 2.212213 0.028281 -0.008163 -967701.000000 0 0 1
34.832766 -10.498204 -28.890071 46.456109 -0.292730 2.241936 0.021007 -0.003457 -175411.000000 0 0 1
33.735606 -9.418604 -28.598831 45.218297 -0.272256 2.255523 0.024410 -0.004612 198095.000000 0 0 1
32.814636 -9.927904 -27.665041 44.053583 -0.293790 2.249759 0.006830 0.002134 -643160.000000 0 0 1
31.818876 -8.988604 -27.392561 42.937027 -0.275319 2.262656 0.002249 0.002086 366532.000000 0 0 1
30.599456 -9.484904 -26.554741 41.610628 -0.300578 2.262918 -0.000509 0.010140 366802.000000 0 0 1
30.964886 -9.655104 -25.218601 41.085558 -0.302254 2.231670 -0.002350 0.006719 50390.900000 0 0 1
29.907696 -10.278504 -24.523981 40.019290 -0.331028 2.230400 -0.021698 0.013600 -208863.000000 0 0 1
30.168156 -10.419204 -23.044981 39.366847 -0.332545 2.196158 -0.028528 0.009199 -352251.000000 0 0 1
31.070146 -11.451304 -22.865881 40.240960 -0.353115 2.175142 -0.021703 0.008525 -209264.000000 0 0 1
31.412526 -11.528104 -21.455781 39.749145 -0.351730 2.140972 -0.001815 0.002898 58294.300000 0 0 1
32.332146 -12.711604 -21.012381 40.601388 -0.374593 2.114757 0.028152 0.003965 -9962.500000 0 0 1
33.638786 -12.484004 -21.466681 41.811921 -0.355364 2.109951 0.024486 0.000367 -310403.000000 0 0 1
34.628856 -13.249904 -20.823281 42.524425 -0.365440 2.082517 0.059461 0.004561 29107.200000 0 0 1
36.003286 -13.163904 -21.526481 43.964922 -0.350531 2.082460 0.073451 -0.011039 -674683.000000 0 0 1
-35.792507 -11.994104 -21.388581 43.387020 0.323341 2.086299 0.084461 -0.006093 -143431.000000 0 0 1
-36.194524 -10.804704 -22.048481 43.736949 0.290096 2.099154 0.085319 -0.009295 -953618.000000 0 0 1
-35.747691 -10.628804 -23.538681 44.101456 0.289004 2.133813 0.075325 -0.018845 40064.100000 0 0 1
-36.247464 -11.525004 -24.514081 45.250906 0.307845 2.143298 0.078170 -0.013159 -556733.000000 0 0 1
34.877806 -11.552004 -24.640581 44.238766 -0.319842 2.161554 0.087147 -0.005776 -720775.000000 0 0 1
34.376616 -12.699204 -25.582621 44.693311 -0.353864 2.180231 0.046724 -0.008627 -233694.000000 0 0 1
34.506786 -14.064904 -25.177821 44.971797 -0.387039 2.165011 0.055618 -0.006367 383481.000000 0 0 1
33.659336 -14.409704 -24.092981 43.829924 -0.404497 2.152792 0.037777 -0.010600 -198646.000000 0 0 1
-29.262874 8.118896 -19.512081 36.096448 -0.270640 2.141892 0.053334 0.000737 -334330.000000 0 0 1
-28.072114 7.429396 -19.704081 35.092596 -0.258722 2.166980 0.054622 -0.001525 -495403.000000 0 0 1
-27.378854 7.892996 -20.837081 35.299929 -0.280678 2.202210 0.064799 -0.013715 211194.000000 0 0 1
-26.064634 7.111196 -21.155981 34.314862 -0.266347 2.235118 0.063132 -0.018034 675961.000000 0 0 1
-25.061424 7.470496 -20.180081 33.032089 -0.289701 2.228023 0.076198 -0.017107 614289.000000 0 0 1
-23.937604 6.598596 -20.296281 32.070070 -0.268978 2.256055 0.072713 -0.020418 74424.400000 0 0 1
-22.629504 7.119796 -19.705881 30.840034 -0.304819 2.263956 0.064277 -0.019635 -68003.600000 0 0 1
-22.049504 8.163796 -20.478881 31.180326 -0.354598 2.287348 0.065332 -0.016860 60763.000000 0 0 1
-20.808404 8.614996 -19.962081 30.094725 -0.392530 2.296027 0.061805 -0.014482 319741.000000 0 0 1
-20.177304 9.749596 -20.870381 30.622720 -0.450114 2.320651 0.052757 -0.013126 -75520.500000 0 0 1
-19.809304 9.215696 -22.132981 31.099942 -0.435439 2.362673 0.050151 -0.019099 247271.000000 0 0 1
-19.192704 10.237296 -22.944081 31.616340 -0.490005 2.382852 0.038511 -0.015583 -95591.500000 0 0 1
-18.228304 9.601096 -23.943181 31.586833 -0.484789 2.431055 0.052513 -0.011347 -239388.000000 0 0 1
-18.811904 8.911296 -25.007381 32.537179 -0.442391 2.447413 0.052077 -0.005279 67673.700000 0 0 1
-17.832804 8.061996 -25.557191 32.189667 -0.424589 2.488085 0.041888 0.002271 138731.000000 0 0 1
-18.515704 6.967496 -26.424511 33.009575 -0.359912 2.498943 0.028217 0.008704 272851.000000 0 0 1
-19.094104 5.901196 -25.663201 32.527047 -0.299747 2.479944 0.051115 0.002515 195695.000000 0 0 1
-19.712504 4.963196 -26.499641 33.398310 -0.246652 2.487241 0.043698 0.000184 -519683.000000 0 0 1
-20.049604 3.578896 -25.913311 32.958986 -0.176642 2.475479 0.052306 -0.000138 617879.000000 0 0 1
-18.939504 2.705596 -25.635211 31.987327 -0.141895 2.500458 0.053342 -0.000791 942946.000000 0 0 1
-17.965404 3.117496 -24.680381 30.685432 -0.171817 2.505298 0.049553 0.000118 -333033.000000 0 0 1
-17.201304 1.907896 -24.077281 29.651988 -0.110464 2.518359 0.056779 -0.004459 -226227.000000 0 0 1
-17.753304 1.039696 -23.091981 29.146189 -0.058497 2.485335 0.062106 -0.004311 93462.800000 0 0 1
-18.927204 0.323296 -23.456181 30.141931 -0.017079 2.462577 0.061023 -0.002412 140270.000000 0 0 1
-19.537404 -0.539804 -22.362981 29.700243 0.027622 2.423339 0.075851 -0.007707 -46823.800000 0 0 1
-18.763004 -1.696104 -22.043481 28.997278 0.090151 2.434404 0.082819 -0.009225 214884.000000 0 0 1
-19.271604 -2.358104 -20.930681 28.549059 0.121756 2.393735 0.075089 -0.006463 -249579.000000 0 0 1
-18.488904 -3.622504 -20.576681 27.899138 0.193478 2.400214 0.065392 -0.017145 -132524.000000 0 0 1
-18.505404 -4.596004 -21.633481 28.837141 0.243435 2.419153 0.069227 -0.020752 248823.000000 0 0 1
-18.615704 -5.960004 -21.165781 28.810699 0.309848 2.395947 0.079260 -0.016474 5987.780000 0 0 1
-18.871704 -6.977204 -22.302581 30.037105 0.354132 2.407593 0.050439 -0.019639 -31923.200000 0 0 1
-17.761404 -6.851504 -23.153681 29.975048 0.368164 2.453458 0.058351 -0.008802 8182.940000 0 0 1
-17.816804 -7.851904 -24.184581 31.048105 0.415095 2.463768 0.073358 -0.018711 574770.000000 0 0 1
-16.524504 -7.823904 -25.073881 31.031793 0.442202 2.511556 0.076583 -0.010827 -49741.100000 0 0 1
-16.452804 -8.594304 -26.236311 32.138775 0.481376 2.525850 0.087017 -0.037873 622716.000000 0 0 1
-15.199004 -8.555504 -26.961161 32.110910 0.512693 2.567391 0.092827 -0.033229 991196.000000 0 0 1
-14.081504 -9.465504 -26.389161 31.373115 0.591820 2.570183 0.079692 -0.027276 -576886.000000 0 0 1
-13.589804 -8.987104 -25.184461 29.995131 0.584287 2.567376 0.070236 -0.010803 51347.400000 0 0 1
-12.710404 -9.992004 -24.646081 29.475818 0.666225 2.561015 0.034146 -0.002719 337908.000000 0 0 1
-11.847504 -9.397404 -23.487481 27.934500 0.670579 2.569566 0.045576 -0.000405 15304.000000 0 0 1
-12.612804 -9.024104 -22.390681 27.237105 0.621034 2.535825 0.048188 0.005702 -121123.000000 0 0 1
-11.739304 -8.905004 -21.302681 25.902019 0.648959 2.536472 0.044734 0.003086 -204229.000000 0 0 1
-12.398504 -8.888404 -19.865881 25.047552 0.621974 2.486722 0.033473 0.004555 216661.000000 0 0 1
-13.010404 -7.670804 -19.372981 24.564695 0.532730 2.479409 0.028947 0.006629 759532.000000 0 1 0
-14.352304 -7.436804 -19.771481 25.538327 0.478071 2.456228 0.033997 -0.007525 80900.900000 0 0 1
-14.842904 -6.003404 -19.443881 25.187639 0.384348 2.452717 0.056436 -0.008248 -138690.000000 0 0 1
-14.931604 -5.594204 -18.067381 24.097265 0.358468 2.418509 0.040956 -0.004391 297032.000000 0 1 0
-15.160804 -4.254004 -17.928881 23.861921 0.273558 2.420916 0.040089 -0.007927 -550197.000000 0 1 0
-14.953404 -3.681504 -16.489881 22.562667 0.241398 2.390360 0.047278 -0.009573 -90055.500000 0 1 0
-15.998704 -3.960304 -15.589481 22.686438 0.242661 2.328385 0.061135 -0.014175 329833.000000 0 1 0
-17.045504 -2.992604 -15.718181 23.378753 0.173794 2.308145 0.057755 -0.013123 -421724.000000 0 1 0
-18.159704 -3.064904 -14.732281 23.584075 0.167199 2.245506 0.063274 -0.019642 -801436.000000 0 1 0
-17.662204 -2.775804 -13.473881 22.387586 0.155886 2.216607 0.055751 -0.021346 920177.000000 0 1 0
-18.654004 -2.266804 -12.590881 22.619473 0.120925 2.161131 0.060286 -0.017464 218942.000000 0 1 0
-17.991804 -1.071904 -11.870681 21.581637 0.059507 2.153204 0.042725 -0.018512 182237.000000 0 1 0
-17.630304 -0.108004 -12.869681 21.828146 0.006126 2.201349 0.052862 -0.020857 491714.000000 0 1 0
-16.838304 0.908396 -12.327081 20.888049 -0.053896 2.202041 0.052213 -0.013047 -866149.000000 0 1 0
-16.333504 1.942996 -13.349181 21.183938 -0.118401 2.252550 0.054750 -0.009344 80861.400000 0 1 0
-15.613804 1.429196 -14.455581 21.325977 -0.091280 2.315616 0.056857 -0.011220 630477.000000 0 1 0
-14.301304 0.991096 -14.131681 20.129927 -0.069190 2.349031 0.048455 -0.015023 -434900.000000 0 1 0
-13.588704 0.119596 -15.231681 20.412527 -0.008801 2.413121 0.040828 -0.011823 83873.500000 0 1 0
-13.283504 0.704196 -16.457881 21.161503 -0.052963 2.461839 0.043560 -0.013136 -70916.800000 0 1 0
-12.550304 -0.237404 -17.175381 21.273462 0.018914 2.510464 0.014513 -0.008714 -322090.000000 0 1 0
-12.020104 0.413596 -18.467981 22.039062 -0.034395 2.564341 0.028424 -0.015249 -502657.000000 0 1 0
-11.032204 1.367396 -18.318181 21.427437 -0.123317 2.596142 0.017999 -0.010823 -528105.000000 0 1 0
-10.613104 1.968896 -19.563481 22.343776 -0.183430 2.637405 0.020286 -0.001109 62072.300000 0 1 0
-9.212004 2.573996 -19.414581 21.642837 -0.272469 2.683831 0.010862 -0.001303 -1359710.000000 0 1 0
-8.148004 1.648896 -19.549881 21.243979 -0.199671 2.739528 0.006183 0.001875 -971533.000000 0 1 0
-6.896104 2.140596 -19.282281 20.589919 -0.300976 2.783284 0.007492 0.001892 -609630.000000 0 1 0
-6.443304 3.215496 -20.325081 21.563035 -0.462883 2.801096 0.014669 0.005645 -1642050.000000 0 1 0
-6.503804 2.754096 -21.656581 22.779201 -0.400565 2.826338 0.018089 0.004226 242696.000000 0 1 0
-6.079804 3.798096 -22.503081 23.617328 -0.558389 2.833194 0.008601 0.002982 -532940.000000 0 1 0
-5.433804 3.348796 -23.798781 24.639858 -0.552311 2.879559 0.012473 -0.009093 174195.000000 0 1 0
-4.156804 2.741796 -23.614481 24.133797 -0.583089 2.933767 0.021853 -0.015417 107606.000000 0 1 0
-3.685004 2.266496 -24.840881 25.214790 -0.551419 2.969164 0.034414 -0.018364 81013.800000 0 0 1
-2.247304 1.695096 -24.765181 24.924644 -0.646234 3.028414 0.030692 -0.020316 -286403.000000 0 1 0
-1.230304 2.658696 -24.610381 24.784131 -1.137393 3.023113 0.026324 -0.018675 66329.200000 0 1 0
0.101196 2.203196 -24.625581 24.724149 1.524897 3.052269 0.031257 -0.017484 159577.000000 0 1 0
0.614096 1.254796 -23.529581 23.571016 1.115665 3.082290 0.038998 -0.023816 -1126400.000000 0 1 0
0.297496 -0.110004 -23.690181 23.692304 -0.354176 3.128205 0.038120 -0.022836 -145546.000000 0 1 0
0.828496 -0.825404 -22.641581 22.671764 -0.783529 3.089986 0.041409 -0.019385 -664893.000000 0 1 0
0.299896 -2.277304 -22.652981 22.769137 -1.439861 3.040540 0.042463 -0.027808 -80242.600000 0 1 0
-0.920804 -2.526004 -21.999881 22.163559 1.221236 3.019986 0.038694 -0.024676 10891.600000 0 1 0
-2.087804 -2.560204 -22.823681 23.061526 0.886685 2.997848 0.046586 -0.025456 284830.000000 0 1 0
-2.859704 -1.239104 -22.860281 23.071752 0.408878 3.006095 0.044547 -0.021552 -1321870.000000 0 1 0
-3.480004 -0.954904 -21.642581 21.941367 0.267806 2.976375 0.032888 -0.014407 541555.000000 0 1 0
-4.508304 0.063396 -21.650781 22.115269 -0.014061 2.936278 0.013560 -0.010994 2279870.000000 0 1 0
-5.874104 -0.320104 -22.404481 23.163944 0.054440 2.884816 0.022797 -0.007898 818074.000000 0 1 0
-6.572604 -1.395804 -21.826381 22.837213 0.209258 2.842953 0.027655 0.001844 -628002.000000 0 1 0
-7.948904 -1.175604 -21.864781 23.294543 0.146831 2.789411 0.023346 0.003793 -555352.000000 0 1 0
-8.796404 -2.339004 -21.358981 23.217530 0.259891 2.738751 0.027052 0.001077 -450814.000000 0 1 0
-8.896504 -3.331404 -22.391281 24.323147 0.358299 2.740346 0.058619 -0.002280 22768.500000 0 1 0
-9.269904 -4.673404 -21.980881 24.309071 0.466961 2.700359 0.036234 0.004006 -127298.000000 0 1 0
-10.251204 -5.319104 -23.006181 25.742269 0.478634 2.676349 0.042084 0.001324 327266.000000 0 0 1
-11.513604 -4.657204 -22.917681 26.066698 0.384376 2.644964 0.037230 -0.000863 -55663.200000 0 0 1
-12.408904 -5.440804 -23.683981 27.285787 0.413216 2.621951 0.044067 -0.004211 337633.000000 0 0 1
-13.927804 -5.251104 -23.409281 27.740805 0.360543 2.575228 0.058907 -0.003194 430869.000000 0 0 1
-14.395104 -3.971804 -23.777381 28.077715 0.269215 2.580815 0.068043 -0.014914 -186225.000000 0 0 1
-15.810204 -4.007404 -23.843381 28.888209 0.248241 2.541649 0.090182 -0.013363 211148.000000 0 0 1
-16.364404 -2.706704 -24.404881 29.507934 0.163918 2.544656 0.077538 -0.016226 -344958.000000 0 0 1
-16.012704 -2.442504 -25.746301 30.417832 0.151369 2.580025 0.072021 -0.017446 79408.900000 0 0 1
-16.369204 -1.130904 -26.234631 30.943265 0.068978 2.582676 0.063976 -0.016378 882214.000000 0 0 1
-17.865704 -0.944404 -26.727921 32.162976 0.052812 2.551727 0.068857 -0.012619 934019.000000 0 0 1
-18.145704 -1.708004 -27.925051 33.346549 0.093851 2.563341 0.076417 -0.020230 149880.000000 0 0 1
-17.792904 -0.963804 -29.055671 34.084430 0.054115 2.591472 0.063157 -0.018620 -420361.000000 0 0 1
-17.932604 -1.906904 -30.295411 35.256581 0.105939 2.604664 0.047124 -0.020163 -373914.000000 0 0 1
-19.250304 -2.192204 -30.647901 36.258431 0.113390 2.577853 0.034930 -0.020984 -745934.000000 0 0 1
-19.347304 -2.836804 -31.942381 37.452387 0.145588 2.592273 0.035392 -0.026827 300163.000000 0 0 1
-20.790404 -3.363704 -32.363831 38.613119 0.160401 2.564691 0.012782 -0.015726 1261890.000000 0 0 1
-21.785604 -2.354204 -32.437011 39.144789 0.107645 2.547473 0.003176 -0.021318 185107.000000 0 0 1
-22.209304 -1.784204 -31.208161 38.345611 0.080164 2.521570 -0.002737 -0.009438 -870714.000000 0 0 1
-23.324204 -0.729004 -31.438551 39.152681 0.031245 2.503063 -0.005847 -0.012404 -203416.000000 0 0 1
-22.905904 0.305096 -32.260301 39.566407 -0.013319 2.524122 0.006614 -0.015422 -317444.000000 0 0 1
-23.966404 1.043296 -32.761351 40.605210 -0.043504 2.509557 0.011339 -0.016949 -505134.000000 0 0 1
-23.465404 2.327396 -33.518201 40.981846 -0.098861 2.528512 0.016966 -0.018391 -440107.000000 0 0 1
-22.900904 3.345896 -32.661161 40.029962 -0.145077 2.525111 0.014836 -0.018689 187227.000000 0 0 1
-23.708504 4.175596 -31.864251 39.935689 -0.174334 2.494582 0.019838 -0.019739 -970838.000000 0 0 1
-24.776604 4.996696 -32.588361 41.241342 -0.199001 2.481910 0.025042 -0.023851 -626158.000000 0 0 1
-25.982104 4.307896 -32.803101 42.067459 -0.164308 2.465101 0.030220 -0.031156 -270824.000000 0 0 1
-26.612624 4.803896 -33.981851 43.428969 -0.178589 2.469418 0.045119 -0.041374 201887.000000 0 0 1
-28.026344 4.213896 -34.215830 44.429223 -0.149237 2.449825 0.053208 -0.038642 200868.000000 0 0 1
-27.887154 2.909496 33.790686 43.908644 -0.103955 0.692632 0.047851 -0.030793 600925.000000 0 0 1
-29.157204 2.474196 33.326419 44.349909 -0.084654 0.720550 0.055417 -0.026153 271686.000000 0 0 1
-29.333874 0.948796 33.032980 44.187715 -0.032333 0.726415 0.054358 0.001589 -83505.900000 0 0 1
-29.242554 0.114496 34.204884 45.001269 -0.003915 0.707349 0.040197 0.003025 47942.400000 0 0 1
-29.349764 -1.235304 33.856359 44.823963 0.042064 0.714657 0.026853 0.006333 -910968.000000 0 0 1
-29.064514 -2.144104 -33.489601 44.394780 0.073637 2.425473 -0.006422 0.008149 1350760.000000 0 0 1
-27.680294 -2.217904 -33.037651 43.157898 0.079955 2.442624 0.003006 -0.001531 1563780.000000 0 0 1
-27.048884 -1.021904 -32.607071 42.378149 0.037762 2.448747 0.001277 -0.002264 -1032210.000000 0 0 1
-27.362774 -0.563404 -31.184411 41.491039 0.020587 2.421271 0.011585 0.000130 -544431.000000 0 0 1
-26.735034 -1.343604 -30.213481 40.366096 0.050214 2.416573 0.000507 -0.005527 182667.000000 0 0 1
-26.725224 -0.755604 -28.921021 39.385708 0.028266 2.395435 -0.000626 -0.009780 13342.500000 0 0 1
-25.568734 -1.390704 -28.093781 38.012560 0.054337 2.402479 0.007766 -0.007850 236086.000000 0 0 1
-25.824334 -2.766104 -27.660081 37.942425 0.106705 2.387658 -0.007492 -0.001101 -63687.200000 0 0 1
-24.831304 -3.142204 -26.749521 36.633372 0.125873 2.389404 0.021862 -0.008081 -235111.000000 0 0 1
-25.215194 -4.434704 -26.026781 36.508436 0.174094 2.364418 0.025882 -0.014134 75959.500000 0 0 1
-26.218994 -4.246604 -25.049281 36.509393 0.160572 2.326918 0.029296 -0.004075 -92060.000000 0 0 1
-26.372494 -5.446804 -24.282981 36.260713 0.203670 2.304571 0.022036 -0.006577 148635.000000 0 0 1
-27.676194 -5.492404 -23.452281 36.689885 0.195907 2.264258 0.035409 -0.009026 135297.000000 0 0 1
-27.725224 -6.645904 -22.539581 36.344034 0.235267 2.239759 0.039736 -0.011578 -421916.000000 0 0 1
-28.881084 -6.604104 -21.766281 36.762783 0.224800 2.204426 0.063014 -0.013234 -492851.000000 0 0 1
-29.063184 -7.826804 -20.879381 36.631627 0.263062 2.177281 0.063713 -0.015429 -4708.090000 0 0 1
-28.150774 -7.883204 -19.793981 35.304570 0.273041 2.165983 0.056183 -0.017280 362990.000000 0 0 1
-28.550114 -8.884404 -18.871581 35.357859 0.301688 2.133803 0.078102 -0.019741 92288.700000 0 0 1
-29.357624 -8.315504 -17.684581 35.267011 0.276019 2.096068 0.077174 -0.016691 -11687.100000 0 0 1
-28.549644 -7.647304 -16.728581 33.961873 0.261716 2.085836 0.077115 -0.019989 130786.000000 0 0 1
-29.250024 -6.891504 -15.792881 33.948075 0.231387 2.054665 0.078713 -0.014802 24980.100000 0 0 1
-28.255774 -5.959904 -14.999081 32.540462 0.207880 2.049846 0.090146 -0.012974 438600.000000 0 0 1
-27.883764 -4.788204 -15.634881 32.324614 0.170062 2.075655 0.081334 -0.013926 343797.000000 0 0 1
-27.222114 -3.866604 -14.749881 31.201812 0.141095 2.063177 0.091019 -0.013457 231406.000000 0 0 1
-14.152904 20.999696 -5.119981 25.836140 -0.977763 1.770288 0.054013 -0.020307 61797.100000 0 0 1
-14.256804 20.517096 -6.413281 25.794144 -0.963519 1.822065 0.079717 -0.023593 287631.000000 0 0 1
-15.136204 19.387896 -6.523881 25.447125 -0.907933 1.830061 0.064497 -0.036508 -132437.000000 0 0 1
-15.279904 18.794196 -7.919681 25.483693 -0.888172 1.886804 0.087777 -0.039824 -1013920.000000 0 0 1
-14.108404 18.280996 -8.486781 24.602181 -0.913518 1.922993 0.078890 -0.035106 -373353.000000 0 1 0
-14.206304 17.165696 -9.326181 24.154872 -0.879452 1.967196 0.061898 -0.039744 -389443.000000 0 1 0
-14.639804 15.791596 -8.699881 23.224691 -0.823229 1.954758 0.063628 -0.047895 1414670.000000 0 1 0
-16.054204 15.799896 -8.346381 24.021579 -0.777415 1.925650 0.074385 -0.037731 1436230.000000 0 1 0
-16.396504 14.794096 -7.435981 23.302455 -0.734069 1.895584 0.085704 -0.033376 -308372.000000 0 1 0
-17.863704 14.990696 -7.027481 24.356074 -0.698173 1.863488 0.113854 -0.029743 -174084.000000 0 1 0
-18.789704 14.703996 -8.037781 25.176703 -0.664013 1.895739 0.106733 -0.020465 -574025.000000 0 0 1
-20.053704 15.249696 -7.847281 26.387195 -0.650151 1.872754 0.077148 -0.016262 -1198610.000000 0 0 1
-21.151104 14.603196 -8.614881 27.107908 -0.604269 1.894204 0.075330 -0.004733 -930504.000000 0 0 1
-21.391604 13.311196 -8.168881 26.486209 -0.556628 1.884328 0.093415 -0.010343 -328337.000000 0 0 1
-22.290204 12.724496 -9.037381 27.211031 -0.518714 1.909349 0.091660 -0.013678 -371617.000000 0 0 1
-22.862904 11.408396 -8.461481 26.915804 -0.462841 1.890588 0.086561 -0.012718 -119992.000000 0 0 1
-21.940104 10.365096 -8.373181 25.669311 -0.441347 1.903071 0.094994 -0.016295 49508.500000 0 0 1
-22.654504 9.227096 -7.947281 25.720131 -0.386780 1.884928 0.102180 -0.028295 -187228.000000 0 0 1
-21.743604 8.136996 -7.333881 24.347091 -0.358091 1.876770 0.131012 -0.015487 -7024.000000 0 1 0
-21.067104 7.358396 -8.338681 23.822310 -0.336037 1.928407 0.076388 -0.017190 198708.000000 0 1 0
-20.085404 6.657796 -7.632781 22.494645 -0.320077 1.916985 0.081314 -0.016856 -974175.000000 0 1 0
-19.607904 5.423896 -8.426381 22.020273 -0.269870 1.963475 0.048325 -0.018572 -735463.000000 0 1 0
-20.476004 4.372596 -8.728581 22.684234 -0.210387 1.965773 0.056458 -0.014617 -244975.000000 0 1 0
-20.073704 3.622696 -9.827481 22.641928 -0.178548 2.019768 0.035315 -0.005247 -186492.000000 0 1 0
-20.694404 2.193296 -9.911581 23.050127 -0.105591 2.015290 0.014713 -0.003285 33399.800000 0 1 0
-20.530404 1.431496 -8.736081 22.357678 -0.069613 1.972234 0.037512 -0.015728 1178270.000000 0 1 0
-21.599804 0.472696 -8.411081 23.184505 -0.021881 1.942055 0.061352 -0.012328 1000340.000000 0 1 0
-21.466204 -0.885804 -9.236181 23.385671 0.041242 1.976810 0.039224 -0.017800 -296924.000000 0 1 0
-20.389904 -1.700104 -8.863281 22.297899 0.083187 1.979581 0.032504 -0.007099 85991.200000 0 1 0
-20.429804 -3.100004 -9.226981 22.630159 0.150591 1.990762 0.033293 -0.007961 -427471.000000 0 1 0
-21.463804 -3.951604 -8.463281 23.408058 0.182067 1.940731 0.051189 -0.009002 -72962.600000 0 1 0
-21.163504 -4.126604 -7.079481 22.694533 0.192571 1.888037 0.048444 -0.015693 941385.000000 0 1 0
-22.195704 -4.876804 -6.392881 23.607232 0.216282 1.845022 0.062786 -0.010985 72946.200000 0 1 0
-22.382604 -6.399404 -6.669981 24.216151 0.278480 1.849839 0.069947 -0.012509 -81112.800000 0 1 0
-21.320104 -7.217804 -6.201481 23.347417 0.326433 1.839641 0.064563 -0.021309 856137.000000 0 1 0
-21.598804 -8.561104 -6.540881 24.136776 0.377373 1.845220 0.074817 -0.021507 -242485.000000 0 1 0
-20.584504 -9.505004 -5.855081 23.416850 0.432587 1.823515 0.074196 -0.023784 -857713.000000 0 1 0
-19.364504 -9.495404 -6.514881 22.529767 0.455899 1.864154 0.068770 -0.017261 -1211680.000000 0 1 0
-18.463504 -10.022704 -5.625381 21.748575 0.497328 1.832426 0.066389 -0.015332 -309905.000000 0 1 0
-17.539304 -11.243804 -6.099681 21.708441 0.570067 1.855613 0.044026 -0.018922 240567.000000 0 1 0
-16.429104 -11.095004 -6.922881 20.998592 0.593974 1.906764 0.043940 -0.021500 269889.000000 0 1 0
-16.799504 -10.506404 -8.171581 21.433213 0.558887 1.961953 0.044137 -0.027334 -402841.000000 0 1 0
-15.878004 -11.013504 -9.290281 21.441026 0.606440 2.018941 0.049100 -0.014974 81155.900000 0 1 0
-16.189204 -12.237504 -9.973181 22.612191 0.647270 2.027568 0.068929 -0.018381 -35638.200000 0 1 0
-15.157404 -12.618604 -10.853981 22.511885 0.694249 2.073897 0.051307 -0.007434 31419.600000 0 1 0
-15.343604 -13.967504 -11.556081 23.749955 0.738485 2.078959 0.063558 -0.006397 922.653000 0 1 0
-16.290004 -13.982004 -12.598981 24.891665 0.709303 2.101514 0.057768 -0.011117 15323.300000 0 1 0
-16.316004 -15.212004 -13.272481 25.957192 0.750396 2.107519 0.042427 -0.005482 -38055.300000 0 0 1
-16.583304 -15.059304 -14.753581 26.822691 0.737272 2.153210 0.057438 -0.008518 -162163.000000 0 0 1
-16.682704 -16.311104 -15.433481 27.974222 0.774136 2.155202 0.047014 -0.001959 158920.000000 0 0 1
-16.820304 -16.048204 -16.810681 28.689135 0.761912 2.196860 0.045091 0.006187 -194834.000000 0 0 1
-17.237104 -17.317104 -17.591081 30.107241 0.787713 2.194790 0.043585 -0.003663 642743.000000 0 0 1
-18.525904 -17.845204 -17.237081 30.964131 0.766685 2.161179 0.003706 0.000620 240541.000000 0 0 1
-19.412804 -17.863104 -18.323581 32.120104 0.743848 2.177875 0.004169 0.002509 708599.000000 0 0 1
-20.925904 -17.849504 -17.886081 32.808690 0.706225 2.147380 -0.002389 0.002722 865008.000000 0 0 1
-21.397904 -16.577904 -17.306081 32.127833 0.659150 2.139646 -0.002606 -0.000250 269232.000000 0 0 1
-20.941304 -16.425804 -15.997781 31.052766 0.665140 2.112015 -0.007060 0.001550 -572602.000000 0 0 1
-21.070104 -14.988104 -15.475981 30.134673 0.618299 2.110126 0.006076 -0.013406 -833341.000000 0 0 1
-22.236204 -14.653404 -14.824681 30.478553 0.582668 2.078758 0.022439 -0.015668 -524944.000000 0 0 1
-22.402304 -13.221004 -14.738081 29.897646 0.533155 2.086275 0.026426 -0.018195 417125.000000 0 0 1
-23.865704 -12.832304 -14.351881 30.662947 0.493342 2.057882 0.045389 -0.026090 315345.000000 0 0 1
-24.354104 -13.414804 -13.178681 30.769416 0.503475 2.013412 0.053275 -0.021966 110406.000000 0 0 1
-25.694484 -13.064004 -12.914781 31.585856 0.470374 1.992021 0.065637 -0.030796 138458.000000 0 0 1
-26.290254 -13.373604 -11.468981 31.647563 0.470576 1.941635 0.078491 -0.034909 1096440.000000 0 0 1
-27.410464 -12.465204 -11.241881 32.141791 0.426806 1.928110 0.084314 -0.032888 770560.000000 0 0 1
-28.090234 -12.635004 -10.051681 32.399705 0.422688 1.886242 0.077060 -0.029998 -298547.000000 0 0 1
-28.916034 -11.492704 -9.563681 32.552777 0.378307 1.868986 0.071436 -0.023936 -309279.000000 0 0 1
-28.120084 -10.444904 -9.068081 31.337920 0.355645 1.864359 0.076275 -0.024650 330162.000000 0 0 1
-28.934704 -9.517904 -8.392781 31.595037 0.317795 1.839660 0.076324 -0.022354 376458.000000 0 0 1
-28.017424 -8.361504 -7.890281 30.284440 0.290024 1.834377 0.096001 -0.016613 728541.000000 0 0 1
-27.412284 -8.626704 -6.576581 29.480583 0.304890 1.795771 0.094129 -0.022741 403928.000000 0 0 1
-26.497814 -7.661104 -6.110981 28.251916 0.281447 1.788823 0.086106 -0.022801 366192.000000 0 0 1
-27.208644 -6.354304 -5.543681 28.485433 0.229428 1.766661 0.095050 -0.022981 -128782.000000 0 0 1
-28.057924 -6.442604 -4.415281 29.124714 0.225706 1.722982 0.090410 -0.018509 76236.600000 0 0 1
-27.511654 -6.806704 -3.167781 28.517664 0.242541 1.682107 0.091012 -0.012324 -358704.000000 0 0 1
-26.808894 -5.611904 -2.460281 27.500241 0.206350 1.660380 0.086309 -0.010065 360769.000000 0 0 1
-27.730574 -4.696604 -1.898281 28.189471 0.167773 1.638187 0.093249 -0.009379 392863.000000 0 0 1
-27.002704 -3.809304 -1.072981 27.291173 0.140146 1.610122 0.088864 -0.017433 -226902.000000 0 0 1
-27.851454 -2.669804 -0.465881 27.983002 0.095567 1.587446 0.091933 -0.021179 136646.000000 0 0 1
-28.673924 -3.141504 0.613119 28.852017 0.109124 1.549544 0.084760 -0.016105 467076.000000 0 0 1
-27.966654 -3.331604 1.815919 28.222879 0.118569 1.506410 0.080951 -0.015216 572636.000000 0 0 1
-29.037024 -3.736204 2.892019 29.418901 0.127967 1.472332 0.081234 -0.009305 827246.000000 0 0 1
-29.562804 -5.043004 2.824219 30.122541 0.168960 1.476901 0.082523 -0.006270 555056.000000 0 0 1
-30.675214 -5.242904 3.710419 31.340453 0.169281 1.452127 0.090704 -0.015811 60335.600000 0 0 1
-31.281364 -6.613304 3.617619 32.176804 0.208346 1.458129 0.074800 -0.007900 -669869.000000 0 0 1
-30.569174 -7.695404 4.132019 31.792566 0.246613 1.440460 0.065871 0.000542 75532.000000 0 0 1
-31.064614 -8.879804 3.542519 32.502471 0.278425 1.461587 0.074658 -0.002773 -36945.000000 0 0 1
-30.405404 -10.140304 4.206219 32.326563 0.321904 1.440310 0.064073 0.007224 121263.000000 0 0 1
-30.664604 -10.302404 5.573519 32.825624 0.324122 1.400178 0.048599 0.013385 116766.000000 0 0 1
-29.644334 -11.040904 6.187919 32.233189 0.356529 1.377624 0.043628 0.014504 -336603.000000 0 0 1
-29.763484 -11.270904 7.724619 32.750084 0.361995 1.332687 0.046422 0.009525 -195827.000000 0 0 1
-29.695534 -10.118504 8.489119 32.500370 0.328403 1.306530 0.065753 0.012220 485401.000000 0 0 1
-29.587174 -10.510404 9.874019 32.914521 0.341331 1.266114 0.063467 0.004966 -295390.000000 0 0 1
-29.496544 -9.350704 10.867619 32.796142 0.306988 1.233042 0.065258 0.005024 -442113.000000 0 0 1
-28.428604 -8.470604 10.759919 31.554913 0.289585 1.222826 0.070280 0.004916 -201117.000000 0 0 1
-28.583044 -7.543804 11.863519 31.853453 0.258042 1.189159 0.089282 -0.009626 233993.000000 0 0 1
-27.685384 -6.290004 11.704019 30.708773 0.223404 1.179779 0.084972 -0.008841 251809.000000 0 0 1
-28.068864 -5.494604 10.551919 30.485977 0.193310 1.217360 0.085243 -0.016022 1201820.000000 0 0 1
-27.207674 -4.290804 10.518419 29.483990 0.156417 1.206009 0.091053 -0.019447 700292.000000 0 0 1
-27.349224 -3.495304 9.234419 29.076996 0.127114 1.247615 0.097611 -0.023189 -83306.400000 0 0 1
-26.501714 -4.031904 8.244919 28.045959 0.150980 1.272409 0.072075 -0.005585 241643.000000 0 0 1
-26.849704 -3.588204 6.959719 27.968187 0.132853 1.319310 0.070268 -0.021542 137811.000000 0 0 1
-25.982914 -4.276604 5.834019 26.971039 0.163130 1.352766 0.063935 -0.008926 2248770.000000 0 0 1
-24.549804 -3.916604 5.890219 25.548529 0.158204 1.338153 0.085763 -0.020584 2553810.000000 0 0 1
-23.897104 -4.453504 4.714719 24.761540 0.184248 1.379222 0.096403 -0.010743 1142620.000000 0 1 0
-22.400504 -3.952104 4.554619 23.197980 0.174632 1.373176 0.103270 -0.016200 1180570.000000 0 1 0
-22.216704 -2.560304 4.236919 22.761559 0.114736 1.383561 0.089443 -0.019933 -1042500.000000 0 1 0
-20.882104 -2.280504 4.137619 21.409878 0.108777 1.376315 0.082067 -0.013504 -1683300.000000 0 1 0
-20.465004 -0.828704 4.483719 20.966804 0.040472 1.355283 0.065352 -0.026178 -413271.000000 0 1 0
-20.846504 0.241896 3.647419 21.164567 -0.011603 1.397596 0.084049 -0.022954 258769.000000 0 1 0
-22.171904 0.681496 3.785919 22.503132 -0.030727 1.401753 0.083650 -0.040776 -397232.000000 0 1 0
-22.446004 1.861896 2.820519 22.699011 -0.082761 1.446217 0.118977 -0.029851 -224540.000000 0 1 0
-21.764704 2.984796 3.363619 22.224430 -0.136289 1.418865 0.095317 -0.039360 381999.000000 0 1 0
-21.811204 4.141296 2.501319 22.341342 -0.187637 1.458602 0.104248 -0.023696 -845464.000000 0 1 0
-20.705004 4.190896 1.511819 21.178914 -0.199712 1.499352 0.086614 -0.012643 -1228750.000000 0 1 0
-20.880804 5.052796 0.400219 21.487180 -0.237419 1.552169 0.096744 -0.013842 229673.000000 0 1 0
-21.711704 4.691796 -0.673781 22.223074 -0.212823 1.601120 0.108221 -0.014135 -340628.000000 0 1 0
-21.162304 3.629396 -1.625481 21.532715 -0.169850 1.646357 0.093300 -0.012707 -346036.000000 0 1 0
-21.246504 2.285596 -1.122481 21.398548 -0.107163 1.623276 0.079805 -0.012178 397377.000000 0 1 0
-20.741904 1.312596 -1.991281 20.878570 -0.063198 1.666316 0.068775 -0.013205 -293714.000000 0 1 0
-19.830904 0.363696 -1.204781 19.870796 -0.018338 1.631464 0.056807 -0.014849 -394008.000000 0 1 0
-20.627004 -0.440004 -0.331081 20.634353 0.021328 1.586842 0.070672 -0.020643 810330.000000 0 1 0
-19.922104 -1.135904 0.691119 19.966426 0.056956 1.536175 0.062395 -0.018361 -457411.000000 0 1 0
-18.871004 -2.150004 0.244819 18.994664 0.113442 1.557907 0.024146 -0.016847 -466512.000000 0 1 0
-18.181904 -2.762404 1.319919 18.437860 0.150778 1.499148 0.031084 -0.014313 582200.000000 0 1 0
-17.479004 -3.997204 1.030119 17.959799 0.224820 1.513408 0.021224 -0.012798 -34891.300000 0 1 0
-18.329204 -5.199004 0.580819 19.061131 0.276386 1.540320 0.018209 -0.015033 67950.900000 0 1 0
-19.151404 -5.755704 1.619219 20.063058 0.291949 1.490002 0.057156 -0.017235 644040.000000 0 1 0
-20.126604 -6.638504 1.108219 21.222113 0.318601 1.518553 0.056249 -0.012330 118147.000000 0 1 0
-21.115804 -7.141704 2.167019 22.395917 0.326139 1.473885 0.081385 -0.010817 -307980.000000 0 1 0
-20.497804 -8.141604 2.945019 22.251266 0.378085 1.438054 0.084555 -0.011009 323877.000000 0 1 0
-21.231504 -8.659104 4.021119 23.279310 0.387249 1.397192 0.095018 -0.018521 329802.000000 0 1 0
-20.268104 -9.332604 5.087619 22.886184 0.431516 1.346623 0.068307 -0.008531 613052.000000 0 1 0
-19.714504 -10.619504 4.803619 22.902190 0.494099 1.359482 0.058701 -0.005944 438096.000000 0 1 0
-18.778604 -11.010504 5.802919 22.528672 0.530309 1.310280 0.067946 -0.011120 63015.700000 0 1 0
-18.065304 -12.356704 5.427119 22.549878 0.599908 1.327738 0.050063 -0.007741 -12959.200000 0 1 0
-18.859504 -13.521904 5.466819 23.841328 0.622032 1.339438 0.052293 -0.006963 664286.000000 0 1 0
-18.124204 -14.522004 4.697119 23.694690 0.675502 1.371239 0.042071 -0.010661 316181.000000 0 1 0
-18.835504 -15.899504 4.910719 25.133357 0.701073 1.374145 0.053403 -0.010467 359646.000000 0 0 1
-18.088404 -17.052704 4.467919 25.257620 0.755934 1.392967 0.054780 -0.022502 114114.000000 0 0 1
-18.693804 -18.247904 4.840019 26.568216 0.773328 1.387600 0.058458 -0.020124 -169829.000000 0 0 1
-17.753404 -19.470004 4.697119 26.764293 0.831482 1.394383 0.052922 -0.019997 -373607.000000 0 0 1
-17.337604 -19.732304 3.374719 26.482921 0.849908 1.443019 0.053679 -0.021468 397280.000000 0 0 1
-16.641304 -20.974104 3.168619 26.960827 0.900080 1.452997 0.042091 -0.013557 -140201.000000 0 0 1
-15.166504 -21.068504 3.560019 26.202642 0.946861 1.434510 0.046412 -0.010141 -802781.000000 0 0 1
-14.708704 -22.321704 3.687619 26.985237 0.988161 1.433714 0.044643 -0.011307 -332680.000000 0 0 1
-13.336304 -22.249904 4.033019 26.252247 1.030828 1.416560 0.047262 -0.004833 73603.300000 0 0 1
-12.715304 -23.673604 4.174419 27.194563 1.077904 1.416685 0.049584 0.002292 -221618.000000 0 0 1
-12.672504 -24.443104 3.017219 27.697677 1.092499 1.461646 0.051435 -0.005340 52019.600000 0 0 1
-12.351504 -25.784794 3.421219 28.794444 1.124071 1.451700 0.050055 -0.003189 36571.300000 0 0 1
18.423396 18.941096 -24.032281 35.717463 0.799253 2.308843 0.060910 -0.010098 3722.340000 0 0 1
17.723396 19.677696 -25.053981 36.455897 0.837603 2.328480 0.055061 -0.020098 261077.000000 0 0 1
18.338696 19.398796 -26.287091 37.465079 0.813482 2.348496 0.056375 -0.021538 -105792.000000 0 0 1
17.354396 19.562396 -27.452151 37.914152 0.845137 2.380468 0.055550 -0.023905 46324.300000 0 0 1
17.235096 20.909896 -27.792421 38.816117 0.881439 2.368855 0.046525 -0.018528 952237.000000 0 0 1
16.298696 21.008696 -28.924851 39.289436 0.910982 2.398233 0.042404 -0.020257 618926.000000 0 0 1
15.916996 22.405196 -29.338661 40.200753 0.953114 2.388831 0.048954 -0.015386 -35907.800000 0 0 1
15.118496 23.145396 -28.420671 39.648616 0.992177 2.370018 0.048901 -0.022970 266808.000000 0 0 1
14.779696 24.377096 -28.950221 40.630007 1.025761 2.363898 0.046728 -0.011810 121183.000000 0 0 1
13.927396 25.261296 -27.975831 40.183983 1.066930 2.340878 0.039409 -0.013003 -646224.000000 0 0 1
12.615596 24.871796 -27.804141 39.380575 1.101385 2.354683 0.047615 -0.025285 -1280400.000000 0 0 1
12.052096 25.671396 -26.796811 39.017209 1.131865 2.327866 0.037409 -0.014640 -1427680.000000 0 0 1
10.585196 25.386396 -26.596131 38.260549 1.175752 2.339400 0.045293 -0.021705 -786293.000000 0 0 1
9.977296 26.208996 -25.615591 37.981790 1.207053 2.310972 0.034791 -0.012229 -26512.700000 0 0 1
9.583196 27.494996 -26.058111 39.074769 1.235420 2.300808 0.040166 -0.020743 -522460.000000 0 0 1
8.987996 28.393196 -24.955581 38.855355 1.264222 2.268251 0.037571 -0.013695 -341526.000000 0 0 1
9.965296 28.900796 -24.093781 38.923943 1.238752 2.238261 0.030695 -0.006087 -441128.000000 0 0 1
9.434496 29.687296 -23.030481 38.739492 1.263094 2.207435 0.053078 -0.009277 -526955.000000 0 0 1
10.426196 30.164396 -21.972381 38.747669 1.238006 2.173732 0.034177 -0.012349 380495.000000 0 0 1
11.420196 31.125996 -22.415081 40.021048 1.219144 2.165281 0.013241 -0.017541 662616.000000 0 0 1
12.256596 31.610096 -21.416181 40.100811 1.200901 2.134190 0.002884 -0.006014 -617347.000000 0 0 1
13.523196 32.312096 -21.887281 41.303770 1.174429 2.129291 0.011006 -0.006452 -229136.000000 0 0 1
14.496096 31.370296 -22.336681 41.148020 1.137929 2.144608 0.014737 -0.012001 41417.000000 0 0 1
15.634996 32.115296 -22.761681 42.354922 1.117732 2.138151 0.017330 -0.012263 286854.000000 0 0 1
16.807396 31.202396 -23.216781 42.368585 1.076703 2.150734 0.012316 -0.012156 -76194.800000 0 0 1
17.649596 30.765396 -22.205881 41.846373 1.049952 2.130166 0.017734 -0.004235 -555648.000000 0 0 1
18.782096 30.203296 -22.827581 42.262331 1.014461 2.141400 0.022495 -0.003630 16895.500000 0 0 1
19.823596 29.591296 -21.847981 41.784614 0.980550 2.121012 0.025946 0.002472 -262619.000000 0 0 1
20.524896 30.564696 -21.134081 42.451400 0.979439 2.091905 0.030377 0.004242 364415.000000 0 0 1
21.599996 29.781896 -20.568881 42.149733 0.943309 2.080588 0.038899 0.014663 531377.000000 0 0 1
22.293696 30.355296 -19.312481 42.325226 0.937338 2.044615 0.048386 0.004397 -58135.600000 0 0 1
23.353796 31.263596 -19.483781 43.616853 0.929220 2.033873 0.050643 0.006611 -28176.500000 0 0 1
23.820596 31.720696 -18.261981 43.670622 0.926689 2.002232 0.055458 0.002680 -375705.000000 0 0 1
25.047096 32.621996 -18.412381 45.061817 0.916002 1.991719 0.059233 0.005600 561921.000000 0 0 1
26.252996 31.958496 -18.817281 45.438478 0.883099 1.997779 0.065529 0.006116 178558.000000 0 0 1
27.379796 32.779396 -18.651581 46.604973 0.874913 1.982538 0.061990 0.005450 607634.000000 0 0 1
28.701196 32.117196 -19.189481 47.154099 0.841506 1.989912 0.063280 -0.002170 629450.000000 0 0 1
29.088696 30.982496 -18.472781 46.339086 0.816914 1.980834 0.062008 0.009763 -775957.000000 0 0 1
30.297096 30.456496 -18.885781 46.927442 0.788022 1.984984 0.045269 0.000285 -796993.000000 0 0 1
30.729996 29.126496 -18.251381 46.106380 0.758615 1.977794 0.038046 -0.007864 -258229.000000 0 0 1
31.329996 29.326596 -16.959781 46.143819 0.752382 1.947161 0.043999 -0.001825 130911.000000 0 0 1
31.627496 28.157996 -16.258781 45.359885 0.727431 1.937392 0.050897 -0.011756 -295127.000000 0 0 1
31.993596 28.465996 -14.800681 45.309637 0.727118 1.903560 0.042638 -0.002452 1039350.000000 0 0 1
33.292196 29.112596 -14.688881 46.601253 0.718522 1.891467 0.003314 0.006472 936742.000000 0 0 1
33.187596 30.525696 -14.707781 47.429457 0.743643 1.886092 0.019476 0.000882 -735297.000000 0 0 1
34.552896 31.148596 -14.890681 48.845368 0.733630 1.880581 0.017040 -0.006096 122776.000000 0 0 1
35.324896 31.101596 -13.645381 49.003611 0.721905 1.852983 0.018114 -0.006480 810188.000000 0 0 1
-35.859835 31.606196 -13.769681 49.744180 -0.722433 1.851269 0.027839 -0.012829 523376.000000 0 0 1
-35.220535 31.940596 -12.438581 49.146780 -0.736600 1.826670 0.020909 -0.007227 -297801.000000 0 0 1
-35.838335 33.063796 -11.835381 50.176459 -0.745152 1.808915 0.034082 -0.012194 294988.000000 0 0 1
-35.153135 33.433396 -10.656081 49.669778 -0.760329 1.787016 0.020811 -0.008597 9052.810000 0 0 1
-35.670435 -33.765194 -10.070481 50.138636 0.757966 1.773025 0.018798 -0.002692 367417.000000 0 0 1
-34.841235 -33.137294 -9.062981 48.929843 0.760338 1.757096 0.016393 -0.002556 159446.000000 0 0 1
-34.741835 -33.830994 -7.828081 49.120363 0.772116 1.730844 -0.010824 0.000235 -371644.000000 0 0 1
-34.204135 -32.862994 -6.798181 47.917789 0.765404 1.713148 -0.007986 -0.005495 138914.000000 0 0 1
-35.088135 -31.765594 -6.532481 47.779739 0.735740 1.707947 -0.009552 0.002870 172304.000000 0 0 1
-34.641135 -31.024294 -5.411381 46.816643 0.730374 1.686642 0.015967 0.001748 628410.000000 0 0 1
-35.872035 -30.158594 -4.957681 47.126662 0.699086 1.676190 0.003352 0.010457 1049550.000000 0 0 1
35.578896 -30.959894 -4.415381 47.369489 -0.716091 1.664143 -0.014165 0.013604 584005.000000 0 0 1
34.462796 -30.259894 -3.865481 46.024857 -0.720552 1.654882 -0.009863 0.020774 -334071.000000 0 0 1
34.685396 -29.236594 -2.705781 45.444212 -0.700362 1.630372 -0.018370 0.016155 -550786.000000 0 0 1
35.215596 -27.986194 -3.138981 45.091224 -0.671507 1.640467 -0.001687 0.008993 240310.000000 0 0 1
34.897196 -27.024294 -2.145881 44.189722 -0.658933 1.619376 -0.014979 0.009622 -109049.000000 0 0 1
35.239496 -25.630794 -2.602981 43.652436 -0.628835 1.630461 -0.004306 0.000604 -634351.000000 0 0 1
34.619296 -25.309294 -3.794481 43.051761 -0.631279 1.659048 0.005877 -0.004574 23323.900000 0 0 1
34.441596 -23.925294 -3.881181 42.115399 -0.607135 1.663083 0.023422 -0.013143 -210609.000000 0 0 1
33.980696 -23.344194 -5.241981 41.558603 -0.601937 1.697268 0.028711 -0.021489 -320456.000000 0 0 1
35.009396 -23.434694 -6.200081 42.582669 -0.589881 1.716917 0.031319 -0.026759 349359.000000 0 0 1
34.510896 -23.220294 -7.535581 42.272556 -0.592264 1.750016 0.030393 -0.032528 271874.000000 0 0 1
35.674396 -23.230194 -8.576181 43.426436 -0.577199 1.769591 0.035671 -0.033814 305381.000000 0 0 1
36.165596 -24.511094 -8.883481 44.583184 -0.595634 1.771395 0.023858 -0.016436 552700.000000 0 0 1
-35.150335 -24.324594 -9.669181 43.826076 0.605347 1.793253 0.025169 -0.012511 899999.000000 0 0 1
-34.550835 -25.594394 -10.338281 44.223447 0.637571 1.806754 0.013090 0.001167 79017.700000 0 0 1
-33.824735 -26.501994 -9.526881 44.013973 0.664604 1.788974 0.022166 -0.001811 -206486.000000 0 0 1
-34.610835 -27.456094 -8.902081 45.066551 0.670630 1.769636 0.009017 -0.001567 -395031.000000 0 0 1
-33.763735 -28.595594 -8.328081 45.022824 0.702710 1.756842 -0.003888 0.002391 -39844.700000 0 0 1
-33.097035 -29.296494 -9.370381 45.182987 0.724561 1.779700 0.010858 -0.002433 184565.000000 0 0 1
-32.600235 -30.554694 -8.898881 45.558256 0.753020 1.767390 0.013951 -0.009036 -150730.000000 0 0 1
-32.240835 -31.547994 -10.020581 46.207785 0.774537 1.789392 0.021587 -0.006869 -268967.000000 0 0 1
-30.967335 -31.309994 -10.572681 45.288775 0.790900 1.806421 0.005567 0.014774 -92850.500000 0 0 1
-30.814735 -32.063494 -11.752481 45.997134 0.805256 1.829166 0.001626 0.007070 -237694.000000 0 0 1
-31.007235 -31.214894 -13.111881 45.910125 0.788736 1.860428 -0.004683 0.015289 -561212.000000 0 0 1
-29.972335 -30.326594 -13.453881 44.710738 0.791273 1.876442 -0.012037 0.016326 -322546.000000 0 0 1
-30.285435 -29.556794 -14.594081 44.763811 0.773223 1.902891 -0.023802 0.028806 111736.000000 0 0 1
-29.246935 -28.492694 -15.031881 43.510622 0.772336 1.923542 -0.013608 0.008142 -67621.700000 0 0 1
-28.008735 -28.946894 -15.502581 43.159494 0.801868 1.938199 -0.000792 0.003302 -27587.700000 0 0 1
-27.252735 -27.871694 -16.123581 42.184271 0.796626 1.962992 0.023473 0.009341 -15289.800000 0 0 1
-25.934935 -28.410194 -16.689881 41.932232 0.830914 1.980154 0.027796 0.003718 -580051.000000 0 0 1
-25.965035 -29.215294 -17.821381 42.957165 0.844233 1.998590 0.011823 0.003303 -22648.800000 0 0 1
-26.347835 -28.592594 -19.046781 43.295781 0.826234 2.026309 0.012146 0.001100 -661765.000000 0 0 1
-25.199035 -27.878694 -19.718981 42.438793 0.835841 2.054030 0.027400 0.000660 -412506.000000 0 0 1
-24.721835 -26.724694 -19.125181 41.123605 0.824309 2.054505 0.025963 -0.000015 -232724.000000 0 0 1
-23.332935 -26.568394 -19.328481 40.297588 0.850145 2.071045 0.048784 -0.010991 194326.000000 0 0 1
-22.802135 -25.340494 -18.523981 38.797111 0.838075 2.068555 0.040046 -0.010227 -209523.000000 0 0 1
-22.876535 -25.685494 -17.156481 38.437290 0.843176 2.033479 0.053189 -0.007545 230169.000000 0 0 1
-22.290235 -24.667294 -16.342381 37.045963 0.835976 2.027663 0.046302 -0.006652 11632.900000 0 0 1
-22.680035 -24.705494 -14.838281 36.673151 0.828116 1.987347 0.044510 -0.007860 -47015.800000 0 0 1
-24.050735 -24.567194 -14.511681 37.317204 0.796021 1.970205 0.016465 0.006770 88535.900000 0 0 1
-24.303935 -24.584494 -13.138381 36.982369 0.791137 1.933989 0.015354 0.008682 407487.000000 0 0 1
-25.809935 -24.479994 -12.759081 37.791758 0.758959 1.915179 0.012281 0.020691 -96553.200000 0 0 1
-26.595235 -25.637994 -13.041881 39.175297 0.767074 1.910185 0.021421 0.013605 1190540.000000 0 0 1
-27.988335 -25.547494 -12.695881 39.965069 0.739837 1.894072 0.014309 0.019972 1261300.000000 0 0 1
-28.889035 -24.388794 -13.329681 40.088277 0.701131 1.909758 0.018132 0.018934 -805945.000000 0 0 1
-29.011235 -23.148094 -12.652581 39.211909 0.673460 1.899347 0.021043 0.015304 503997.000000 0 0 1
-29.643635 -23.127894 -11.345081 39.272833 0.662549 1.863852 0.043095 0.011199 1059870.000000 0 0 1
-31.146335 -23.576194 -11.156181 40.625010 0.647934 1.848984 0.025776 0.014431 1176940.000000 0 0 1
-32.228335 -22.752494 -11.570181 41.112171 0.614727 1.856080 0.052270 0.000252 436111.000000 0 0 1
-32.501335 -22.785894 -12.986681 41.763472 0.611448 1.886997 0.052216 0.000169 -956066.000000 0 0 1
-33.927935 -22.352794 -13.308281 42.753508 0.582559 1.887335 0.026067 -0.008072 -239461.000000 0 0 1
-34.840535 -23.314294 -12.751881 43.818143 0.589735 1.866087 0.031740 -0.003661 -453609.000000 0 0 1
-36.131835 -22.950694 -13.148281 44.778579 0.565896 1.868817 0.058393 -0.018601 -524249.000000 0 0 1
35.326196 -23.976994 -12.691881 44.541219 -0.596309 1.859747 0.050143 -0.009678 -496776.000000 0 0 1
35.342496 -25.169494 -13.493481 45.438634 -0.618840 1.872304 0.026761 0.002863 79289.700000 0 0 1
34.485796 -26.142194 -12.946481 45.169634 -0.648638 1.861492 0.028929 -0.007739 -9046.010000 0 0 1
34.385896 -27.433794 -13.766581 46.092534 -0.673411 1.874098 0.031143 -0.017928 589221.000000 0 0 1
33.506696 -27.274794 -14.903681 45.702656 -0.683226 1.902972 0.038490 -0.018398 334086.000000 0 0 1
33.463896 -28.342494 -15.806181 46.615069 -0.702725 1.916734 0.038047 0.000334 147786.000000 0 0 1
32.569296 -28.160694 -17.093781 46.324735 -0.712932 1.948728 0.040770 -0.005548 919431.000000 0 0 1
31.176796 -28.002794 -16.775781 45.139516 -0.731816 1.951574 0.061674 -0.006374 485931.000000 0 0 1
30.482096 -27.785794 -17.984281 44.996032 -0.739157 1.981971 0.059879 -0.012697 -933041.000000 0 0 1
29.009296 -28.126794 -17.835281 44.167330 -0.769954 1.986476 0.060761 -0.012774 -761805.000000 0 0 1
28.410696 -27.045894 -17.137581 42.805896 -0.760793 1.982701 0.057341 -0.018407 -1123570.000000 0 0 1
27.107496 -27.374994 -16.811481 42.033707 -0.790308 1.982261 0.058772 -0.012486 -736498.000000 0 0 1
26.556396 -26.390394 -15.732481 40.610418 -0.782263 1.968606 0.053476 -0.020746 -148442.000000 0 0 1
26.379696 -25.077294 -16.195581 39.837870 -0.760093 1.989457 0.071139 -0.033170 66234.900000 0 0 1
26.316196 -24.242894 -15.091481 38.833141 -0.744414 1.969934 0.070999 -0.028945 -397628.000000 0 0 1
25.881096 -22.836394 -15.520581 37.844689 -0.722982 1.993374 0.068560 -0.033943 -452160.000000 0 0 1
24.502096 -22.608494 -15.538481 36.782348 -0.745225 2.006936 0.066861 -0.032140 -508674.000000 0 0 1
24.247596 -21.307994 -16.060781 36.054475 -0.720960 2.032483 0.066143 -0.036516 -825158.000000 0 0 1
22.811896 -20.840394 -16.098481 34.840576 -0.740265 2.051114 0.046309 -0.033715 -817438.000000 0 0 1
22.306396 -20.408694 -14.821081 33.671272 -0.741000 2.026584 0.042663 -0.033089 -145040.000000 0 0 1
20.945496 -20.089994 -14.927181 32.636519 -0.764553 2.045839 0.025600 -0.033590 -218714.000000 0 0 1
20.575896 -18.839294 -14.108881 31.262550 -0.741367 2.039021 0.011501 -0.026810 -98490.400000 0 0 1
20.460296 -19.064594 -12.694381 30.712046 -0.750101 1.996910 0.026604 -0.036810 29294.200000 0 0 1
20.162496 -17.816994 -12.100181 29.502303 -0.723719 1.993408 0.028738 -0.036939 -898603.000000 0 0 1
19.422496 -17.789694 -10.809881 28.470337 -0.741548 1.960257 0.038142 -0.029119 -660007.000000 0 0 1
20.062196 -18.234194 -9.609481 28.763165 -0.737701 1.911436 0.048365 -0.031413 191936.000000 0 0 1
19.165696 -18.292094 -8.521781 27.830655 -0.762080 1.881996 0.044948 -0.044140 19390.200000 0 0 1
19.893296 -19.030594 -7.392481 28.505359 -0.763238 1.833131 0.055511 -0.039942 325604.000000 0 0 1
20.941196 -18.291294 -6.789981 28.621827 -0.717957 1.810311 0.063358 -0.036739 -101400.000000 0 0 1
21.645296 -19.072494 -5.877481 29.441869 -0.722296 1.771777 0.068170 -0.027297 -384609.000000 0 0 1
23.045496 -18.500394 -5.597681 30.078123 -0.676432 1.757992 0.064953 -0.024761 -391725.000000 0 0 1
23.911296 -18.642394 -6.724681 31.056566 -0.662207 1.789055 0.045617 -0.030656 -80205.300000 0 0 1
24.857796 -17.598294 -6.634581 31.170942 -0.616047 1.785282 0.040181 -0.022599 -692200.000000 0 0 1
25.921896 -17.824694 -7.710281 32.390011 -0.602376 1.811149 0.039681 -0.033417 -795138.000000 0 0 1
26.906896 -18.770694 -7.465881 33.646090 -0.609124 1.794553 0.056763 -0.043139 -236522.000000 0 0 1
26.534096 -20.006794 -8.059981 34.194932 -0.646058 1.808742 0.063925 -0.052016 -186354.000000 0 0 1
27.467896 -21.229194 -7.832581 35.588106 -0.657980 1.792703 0.062676 -0.054173 411870.000000 0 0 1
28.716696 -21.097994 -8.503681 36.634500 -0.633633 1.805055 0.051100 -0.033900 508692.000000 0 0 1
29.551896 -22.256894 -8.298681 37.915063 -0.645512 1.791458 0.057509 -0.039894 448055.000000 0 0 1
-29.222494 29.923396 4.247419 42.040508 -0.797248 1.469592 0.035377 -0.002298 330446.000000 0 0 1
-28.732994 30.911896 3.347219 42.335967 -0.821913 1.491650 0.032192 0.005334 -185856.000000 0 0 1
-27.786784 31.764096 3.943519 42.386489 -0.852088 1.477624 0.025508 0.015136 -4812.130000 0 0 1
-27.393734 32.874296 2.966019 42.894443 -0.876085 1.501594 0.029297 0.011492 393336.000000 0 0 1
-26.266314 32.516096 2.134219 41.854159 -0.891321 1.519782 0.020767 0.006021 605143.000000 0 0 1
-25.863274 33.555596 1.298219 42.385992 -0.914141 1.540163 0.046258 -0.009292 -214887.000000 0 0 1
-24.630304 -34.165194 1.699119 42.152098 0.946169 1.530476 0.035695 -0.006497 322819.000000 0 0 1
-23.381704 33.739096 1.466019 41.075295 -0.964774 1.535098 0.033842 -0.011976 -122303.000000 0 0 1
-22.346504 -34.141194 2.147719 40.860740 0.991242 1.518210 0.035733 -0.014614 932418.000000 0 0 1
-20.950604 33.774996 1.752119 39.783766 -1.015584 1.526741 0.045282 -0.020927 817900.000000 0 0 1
-20.528204 -34.271494 0.494719 39.952312 1.031121 1.558413 0.060870 -0.030009 724273.000000 0 0 1
-19.127604 34.019496 0.349119 39.029645 -1.058594 1.561851 0.060682 -0.028890 609993.000000 0 0 1
-18.381804 -33.823794 -0.860781 38.505593 1.072990 1.593153 0.077677 -0.033252 110866.000000 0 0 1
-18.307504 -32.347994 -0.839781 37.178793 1.055786 1.593386 0.083089 -0.041365 377692.000000 0 0 1
-17.789104 -31.702394 0.314919 36.353723 1.059450 1.562134 0.079480 -0.033428 -301686.000000 0 0 1
-17.598004 -30.232794 0.125819 34.981816 1.043655 1.567200 0.081989 -0.040338 -132646.000000 0 0 1
-16.597704 -29.916794 -0.821481 34.222408 1.064279 1.594803 0.071880 -0.028402 153225.000000 0 0 1
-16.291904 -28.539994 -0.907981 32.875246 1.052090 1.598419 0.064142 -0.017817 101424.000000 0 0 1
-15.482304 -28.113094 -2.167081 32.167438 1.067404 1.638216 0.050904 -0.009316 160589.000000 0 0 1
-16.138504 -28.383594 -3.394181 32.826821 1.053796 1.674378 0.051423 -0.014929 -166659.000000 0 0 1
-15.269604 -28.078994 -4.451681 32.270856 1.072719 1.709185 0.038045 -0.009623 55533.100000 0 0 1
-16.007404 -28.129094 -5.818981 32.883787 1.053431 1.748689 0.071637 -0.016239 71144.700000 0 0 1
-16.880104 -27.026294 -5.942981 32.414156 1.012499 1.755185 0.074442 -0.004665 -305460.000000 0 0 1
-17.460704 -26.874794 -7.220981 32.852295 0.994628 1.792407 0.083128 -0.010645 250632.000000 0 0 1
-18.278104 -25.568694 -7.351881 32.278435 0.950165 1.800578 0.062833 -0.001592 -155592.000000 0 0 1
-17.474004 -24.425594 -7.387181 30.927672 0.949811 1.811981 0.036259 0.013165 -399377.000000 0 0 1
-18.151704 -23.220294 -7.652581 30.450425 0.907303 1.824833 0.016966 0.024796 -143988.000000 0 0 1
-17.276204 -21.964394 -7.562681 28.949887 0.904307 1.835096 0.017186 0.024854 283628.000000 0 0 1
-16.135704 -21.826994 -8.390681 28.410951 0.934208 1.870600 0.028897 0.010566 -386621.000000 0 0 1
-15.233204 -20.939094 -7.807481 27.045386 0.941851 1.863645 0.070119 -0.004835 -337630.000000 0 0 1
-13.958804 -20.712194 -8.604781 26.417522 0.977774 1.902572 0.080213 -0.007449 -316441.000000 0 0 1
-14.233504 -19.970994 -9.811081 26.413832 0.951592 1.951353 0.074917 -0.007888 -1192510.000000 0 0 1
-13.177004 -19.873994 -10.654781 26.117684 0.985317 1.991007 0.068379 -0.006662 -922177.000000 0 0 1
-13.621604 -19.176094 -11.960581 26.387993 0.953162 2.041214 0.075034 -0.009171 -804315.000000 0 0 1
-14.520104 -19.850594 -12.707681 27.683292 0.939261 2.047708 0.057684 0.007287 -1197200.000000 0 0 1
-14.926504 -19.061394 -13.792681 27.863512 0.906461 2.088641 0.059480 -0.008966 -1092980.000000 0 0 1
-15.996904 -19.773494 -14.509981 29.281932 0.890587 2.089237 0.055379 -0.006339 -789386.000000 0 0 1
-17.241704 -19.727494 -13.806881 29.615542 0.852537 2.055791 0.033536 -0.003197 -460316.000000 0 0 1
-18.210904 -20.165494 -14.701081 30.893461 0.836286 2.066742 0.022228 0.000648 -1833310.000000 0 0 1
-19.563004 -20.072394 -14.065481 31.360004 0.798249 2.035901 0.002676 0.012572 -1019480.000000 0 0 1
-20.533704 -20.569794 -14.972881 32.694596 0.786276 2.046498 -0.000967 0.011650 -228617.000000 0 0 1
-21.858404 -20.376894 -14.582481 33.251412 0.750335 2.024783 -0.001240 0.015297 -33927.900000 0 0 1
-23.012804 -20.890094 -15.484081 34.723795 0.737086 2.033000 0.005098 0.007307 130133.000000 0 0 1
-22.976704 -20.259294 -16.771981 34.923735 0.722630 2.071731 0.000960 -0.002660 360433.000000 0 0 1
-23.781804 -20.944694 -17.720281 36.307888 0.722051 2.080657 0.020728 -0.011079 -113805.000000 0 0 1
-24.089704 -20.234094 -19.017481 36.761352 0.698629 2.114516 0.017159 -0.008338 90807.100000 0 0 1
-22.942804 -20.078294 -19.839681 36.374759 0.718912 2.147692 -0.003140 -0.008280 169281.000000 0 0 1
-23.286504 -19.595394 -21.109881 37.038734 0.699534 2.177230 0.004133 -0.009122 -147608.000000 0 0 1
-22.139304 -18.957694 -21.935281 36.478754 0.708135 2.215944 -0.009134 0.003755 -586064.000000 0 0 1
-21.100804 -19.820994 -22.239181 36.506121 0.754134 2.225836 -0.018238 -0.001233 -871191.000000 0 0 1
-20.243404 -19.089994 -23.104881 36.167095 0.756083 2.263782 -0.008507 -0.003943 -298077.000000 0 0 1
-18.860304 -19.782294 -23.108281 35.791659 0.809253 2.272648 0.005802 0.001388 -417900.000000 0 0 1
-18.895704 -21.006494 -23.780381 36.930028 0.838248 2.270421 -0.001802 0.004202 -441382.000000 0 0 1
-17.669304 -21.649794 -23.709981 36.648071 0.886290 2.274392 0.009268 0.005144 -558597.000000 0 0 1
-17.862104 -23.081594 -24.225981 37.930369 0.912194 2.263599 0.020576 0.000847 -84347.400000 0 0 1
-17.841204 -23.114094 -25.683941 38.887462 0.913441 2.292239 0.022883 -0.000716 158823.000000 0 0 1
-17.940204 -24.408394 -26.199991 40.050720 0.936964 2.283881 0.037130 -0.007741 -87475.100000 0 0 1
-18.080204 -24.461294 -27.774091 41.190397 0.934285 2.310793 0.032751 -0.001352 -719739.000000 0 0 1
-16.909004 -24.028894 -28.359111 40.835540 0.957595 2.338481 0.042512 -0.006231 -731847.000000 0 0 1
-16.899304 -24.146894 -29.788691 41.904953 0.960168 2.361521 0.049086 -0.008129 101525.000000 0 0 1
-15.515504 -23.834294 -30.401491 41.629978 0.993737 2.389526 0.036623 -0.014837 140898.000000 0 0 1
-14.503004 -24.716594 -30.036691 41.514455 1.040160 2.379690 0.038207 -0.013646 -621277.000000 0 0 1
-13.273304 -24.597894 -30.683861 41.505859 1.075964 2.402776 0.039045 -0.013563 108843.000000 0 0 1
-12.224104 -25.601794 -30.162531 41.408439 1.125334 2.386802 0.054674 -0.014208 -907133.000000 0 0 1
-12.541104 -26.877894 -30.692271 42.681565 1.134228 2.373301 0.045059 -0.003243 667300.000000 0 0 1
-11.661504 -28.040194 -30.480191 43.026564 1.176671 2.358031 0.037698 -0.002334 847628.000000 0 0 1
-10.292204 -27.936794 -31.227441 43.145648 1.217815 2.380044 0.038761 -0.008629 216272.000000 0 0 1
-9.535204 -26.859294 -30.728201 41.911384 1.229669 2.393769 0.060836 -0.025569 -72542.700000 0 0 1
-8.391804 -26.585994 -31.536001 42.092242 1.265047 2.417667 0.057376 -0.020569 -168731.000000 0 0 1
-7.652804 -25.307194 -31.243711 40.929072 1.277142 2.439299 0.080602 -0.024238 -824179.000000 0 0 1
-8.298204 -24.065794 -31.278811 40.328484 1.238750 2.458463 0.081790 -0.023988 -194146.000000 0 0 1
-8.893004 -23.763794 -30.013061 39.301237 1.212705 2.439771 0.079511 -0.018411 -181523.000000 0 0 1
-9.221504 -22.273494 -29.789981 38.322156 1.178269 2.461249 0.095374 -0.038055 -83450.300000 0 0 1
-10.208104 -21.901694 -30.726481 39.089720 1.134645 2.475189 0.076051 -0.030813 -159225.000000 0 0 1
-10.517604 -20.593494 -30.567781 38.328856 1.098606 2.493959 0.083635 -0.035501 -346776.000000 0 0 1
-11.276704 -20.017494 -31.702261 39.152234 1.057767 2.514467 0.054472 -0.027026 -397553.000000 0 0 1
-11.750404 -18.710394 -31.529691 38.500289 1.010032 2.530370 0.059949 -0.030669 -284482.000000 0 0 1
-12.573504 -18.412094 -32.597061 39.492614 0.971644 2.541700 0.052460 -0.010965 -1015880.000000 0 0 1
-13.324504 -17.141594 -32.373361 38.979625 0.910038 2.550837 0.068396 -0.022989 -681571.000000 0 0 1
-12.705704 -15.916394 -32.721671 38.541851 0.897106 2.584869 0.072334 -0.023280 157912.000000 0 0 1
-11.768804 -15.354794 -31.793531 37.216973 0.916845 2.594951 0.059342 -0.019476 320397.000000 0 0 1
-11.518604 -13.861194 -32.038191 36.759442 0.877439 2.629179 0.054968 -0.020781 85590.600000 0 0 1
-10.567004 -13.450794 -33.026421 37.193143 0.904895 2.663710 0.060196 -0.024987 414556.000000 0 0 1
-11.002904 -13.617094 34.079582 38.313275 0.891183 0.474551 0.067550 -0.020903 79220.400000 0 0 1
-11.570204 -12.313194 33.445582 37.471206 0.816497 0.467789 0.068247 -0.012249 614093.000000 0 0 1
-12.882604 -11.994894 33.911696 38.207880 0.749730 0.478780 0.046565 -0.007928 333710.000000 0 0 1
-13.577004 -11.136894 32.993489 37.375604 0.686983 0.489103 0.053806 -0.017116 1071890.000000 0 0 1
-14.824504 -10.475894 33.656788 38.239896 0.615182 0.494621 0.066461 -0.017093 803982.000000 0 0 1
-14.297904 -9.617594 -33.860271 37.992711 0.592139 2.670848 0.069726 -0.021313 308587.000000 0 0 1
-15.305304 -9.084894 -33.015901 37.507830 0.535684 2.647165 0.074679 -0.024060 440506.000000 0 0 1
-14.719604 -7.922294 -32.150361 36.236379 0.493749 2.662123 0.070983 -0.033117 116163.000000 0 0 1
-14.501704 -6.675994 -32.815531 36.492840 0.431435 2.688807 0.074870 -0.038930 704597.000000 0 0 1
-15.645504 -5.788494 -32.901551 36.889030 0.354361 2.672339 0.072506 -0.032879 820946.000000 0 0 1
-16.044904 -4.963794 -31.626401 35.809320 0.300030 2.653415 0.080690 -0.032884 -51365.100000 0 0 1
-16.602904 -5.737194 -30.592501 35.277088 0.332708 2.620360 0.091861 -0.031328 -277130.000000 0 0 1
-16.778504 -5.180694 -29.322021 34.178044 0.299483 2.602003 0.097040 -0.034810 153115.000000 0 0 1
-15.521304 -4.642894 -28.578131 32.850828 0.290659 2.625870 0.091806 -0.033783 170484.000000 0 0 1
-15.013804 -3.463494 -29.189751 33.006842 0.226721 2.655906 0.090312 -0.029800 -191025.000000 0 0 1
-13.927004 -3.016494 -28.398731 31.773394 0.213298 2.676521 0.084768 -0.025486 -13045.700000 0 0 1
-13.390804 -1.739494 -29.056041 32.040490 0.129179 2.706554 0.067168 -0.016337 -80306.400000 0 0 1
-13.178404 -1.896494 -30.453641 33.236896 0.142928 2.729439 0.071880 -0.022624 183064.000000 0 0 1
-13.159604 -0.688494 -31.152171 33.824650 0.052271 2.741411 0.066574 -0.030427 -130760.000000 0 0 1
-13.338504 -0.926494 -32.683211 35.312411 0.069349 2.753268 0.060684 -0.036256 -134686.000000 0 0 1
-14.673904 -1.276494 -32.976551 36.116558 0.086772 2.721519 0.053878 -0.037622 127657.000000 0 0 1
-14.816404 -1.512494 34.157184 37.262940 0.101730 0.411172 0.039854 -0.033255 -209597.000000 0 0 1
-16.285804 -1.593494 33.692185 37.455707 0.097535 0.452125 0.023356 -0.030551 23836.600000 0 0 1
-16.313404 -1.806494 32.315013 36.244319 0.110287 0.469956 0.039631 -0.028048 -97598.300000 0 0 1
-17.595004 -1.827494 31.745803 36.341711 0.103493 0.508376 0.031005 -0.021014 -212121.000000 0 0 1
-17.459504 -1.878494 30.210783 34.943589 0.107179 0.526525 0.046708 -0.017636 50305.800000 0 0 1
-16.907504 -0.701494 29.678073 34.163487 0.041466 0.518210 0.050375 -0.010759 65262.600000 0 0 1
-17.100404 -0.619494 28.237753 33.017848 0.036211 0.544808 0.056987 -0.013140 -113579.000000 0 0 1
-16.490404 0.704506 27.722523 32.264036 -0.042696 0.537016 0.043974 -0.011145 -41682.200000 0 0 1
-17.077304 1.946506 28.064543 32.909600 -0.113492 0.549517 0.039642 -0.008351 1130060.000000 0 0 1
-18.428904 2.196506 27.576153 33.239936 -0.118628 0.592389 0.039995 -0.012355 1298240.000000 0 0 1
-18.457304 2.921506 26.181843 32.166694 -0.156982 0.619890 0.052862 -0.016642 -367189.000000 0 0 1
-18.080504 4.244506 26.486353 32.348839 -0.230581 0.611526 0.042824 -0.010765 91416.300000 0 0 1
-18.425404 5.138506 25.474973 31.857087 -0.271971 0.644061 0.053983 -0.013517 -543683.000000 0 0 1
-18.080604 6.598506 25.862263 32.238257 -0.349930 0.639787 0.051945 -0.009427 118130.000000 0 0 1
-16.762104 7.039506 25.600993 31.399580 -0.397599 0.617499 0.038696 -0.007942 73049.800000 0 0 1
-16.406004 7.183506 24.232613 30.132694 -0.412711 0.636474 0.033115 -0.001489 -455921.000000 0 0 1
-15.234404 8.166506 24.050773 29.617876 -0.492075 0.623164 0.017259 0.005809 103876.000000 0 0 1
-14.044304 7.687506 24.653543 29.396214 -0.500826 0.575971 0.006247 0.010009 201363.000000 0 0 1
-12.922404 8.248506 23.986543 28.467185 -0.568114 0.568697 0.003527 0.017292 -482351.000000 0 0 1
-11.629604 8.257506 24.763473 28.577328 -0.617434 0.522563 -0.005091 0.028757 -875148.000000 0 0 1
-10.521304 8.666506 23.972873 27.577252 -0.689032 0.517014 -0.016562 0.018558 820490.000000 0 0 1
-9.270004 8.701506 24.674083 27.757153 -0.753775 0.475799 -0.007965 0.006824 424935.000000 0 0 1
-9.069304 9.967506 25.488993 28.832139 -0.832546 0.486343 -0.008786 -0.008846 -997924.000000 0 0 1
-9.976904 10.129506 26.596773 30.158479 -0.792988 0.490918 -0.010226 -0.006194 557194.000000 0 0 1
-9.910304 11.466506 27.165083 31.106858 -0.858069 0.508896 -0.017550 -0.009640 -356738.000000 0 0 1
-10.494704 12.632506 26.293853 31.001383 -0.877573 0.558311 -0.027626 -0.013871 94866.900000 0 0 1
-11.894304 12.651506 26.085923 31.337046 -0.816237 0.587316 -0.014862 -0.014465 291395.000000 0 0 1
-12.286004 11.824506 24.973993 30.240125 -0.766260 0.599078 -0.014044 -0.005343 -529353.000000 0 0 1
-13.805004 11.731506 24.733713 30.658815 -0.704379 0.632181 0.008966 -0.009261 -415534.000000 0 0 1
-14.289204 12.894506 24.131023 30.866745 -0.734137 0.673280 -0.004535 -0.003927 -290482.000000 0 0 1
-15.609004 12.688506 23.673913 31.065952 -0.682555 0.704318 0.018547 0.005811 14044.400000 0 0 1
-15.861204 12.157506 22.269923 29.922103 -0.653973 0.731365 0.017760 0.006985 -330847.000000 0 0 1
-15.679604 10.733506 22.094723 29.141636 -0.600283 0.710273 0.023613 0.004669 51245.600000 0 0 1
-15.875204 10.378506 20.751723 28.113511 -0.579011 0.740486 0.021658 -0.003267 -231063.000000 0 0 1
-16.296304 8.900506 20.593423 27.728642 -0.499896 0.733737 0.018238 0.000067 1246870.000000 0 0 1
-17.703404 8.625506 20.765923 28.618760 -0.453374 0.758883 0.039108 -0.005734 786760.000000 0 0 1
-18.105804 7.255506 20.778823 28.499509 -0.381134 0.753799 0.031735 0.000543 558474.000000 0 0 1
-19.586104 7.020506 21.198423 29.703133 -0.344177 0.776064 0.054197 -0.014037 449737.000000 0 0 1
-19.841704 7.504506 22.479323 30.908426 -0.361590 0.756434 0.062593 -0.019156 -1043130.000000 0 0 1
-21.180104 7.463506 22.808123 32.007987 -0.338796 0.777633 0.061391 -0.017571 -988587.000000 0 0 1
-21.445304 8.317506 24.092203 33.309401 -0.369986 0.762248 0.072693 -0.021059 -809422.000000 0 0 1
-21.398504 9.737506 24.017103 33.608574 -0.427050 0.774726 0.079781 -0.016664 -266735.000000 0 0 1
-20.252004 10.407506 23.595493 32.790351 -0.474706 0.767590 0.074813 -0.014002 503762.000000 0 0 1
-18.914204 10.209506 24.425143 32.535653 -0.494963 0.721646 0.081015 -0.019388 419928.000000 0 0 1
-18.970604 10.767506 25.672803 33.688512 -0.516247 0.704301 0.095320 -0.016030 96153.000000 0 0 1
-19.072604 9.840506 26.750773 34.295826 -0.476326 0.676129 0.068164 -0.011447 41916.900000 0 0 1
-30.570144 -13.815304 20.617223 39.375960 0.424451 1.019726 0.081987 -0.004429 -198778.000000 0 0 1
-30.014504 -15.122404 20.651123 39.446501 0.466712 1.019816 0.095866 -0.010414 -57714.400000 0 0 1
-30.577874 -16.053504 19.768323 39.793316 0.483450 1.050918 0.090462 -0.006053 26550.500000 0 0 1
-30.239764 -15.863804 18.225323 38.707442 0.483134 1.080545 0.096710 -0.004321 -65178.800000 0 0 1
-30.821684 -14.724604 17.669723 38.457890 0.445678 1.093413 0.108590 -0.016808 -408914.000000 0 0 1
-30.475504 -14.622604 16.313223 37.532628 0.447370 1.121157 0.102408 -0.021503 -1521680.000000 0 0 1
-31.287844 -13.636604 15.479523 37.476683 0.411019 1.145002 0.084395 -0.017130 751662.000000 0 0 1
-32.663954 -14.012604 15.263123 38.681390 0.405248 1.165179 0.091142 -0.017106 1422930.000000 0 0 1
-33.551084 -14.089304 16.392223 39.911010 0.397573 1.147553 0.097778 -0.015013 -638765.000000 0 0 1
-34.124759 -12.762904 16.917323 40.169475 0.357900 1.136085 0.076390 -0.019155 -34302.700000 0 0 1
-35.157564 -13.017104 17.867023 41.529867 0.354600 1.126059 0.065647 -0.012023 277645.000000 0 0 1
-35.750130 -11.817404 18.344923 41.883876 0.319248 1.117429 0.059272 -0.013578 -254595.000000 0 0 1
35.718066 -12.005304 19.405523 42.384926 -0.324250 1.095232 0.053932 -0.012612 -466931.000000 0 0 1
-36.217674 -12.425904 20.628323 43.493111 0.330505 1.076640 0.037885 -0.004107 -395281.000000 0 0 1
35.557766 -12.003904 21.731923 43.367326 -0.325576 1.045912 0.024063 -0.010178 -1282820.000000 0 0 1
-36.253324 -12.404804 23.056623 44.719018 0.329682 1.029102 0.018448 -0.007598 539650.000000 0 0 1
-34.959521 -11.840404 23.165923 43.577784 0.326563 1.010309 0.031398 -0.011576 231385.000000 0 0 1
-33.922144 -12.437304 22.417623 42.519974 0.351424 1.015464 0.047257 -0.015262 -1097530.000000 0 0 1
-32.682014 -11.529204 22.304723 41.213314 0.339140 0.998931 0.059981 -0.014131 -439598.000000 0 0 1
-32.785574 -10.439404 21.393323 40.516038 0.308264 1.014528 0.062286 -0.020491 -502086.000000 0 0 1
-31.618334 -9.699804 21.456723 39.423295 0.297663 0.995283 0.066318 -0.025068 -931203.000000 0 0 1
-31.844614 -8.261304 20.929623 38.992021 0.253830 1.004196 0.050341 -0.020033 39006.500000 0 0 1
-32.140974 -8.154704 19.529523 38.483031 0.248474 1.038534 0.053240 -0.021052 113015.000000 0 0 1
-33.450924 -8.506304 19.163523 39.478629 0.249014 1.063958 0.054143 -0.021825 -786185.000000 0 0 1
-33.635894 -8.476104 17.642623 38.916319 0.246856 1.100279 0.065458 -0.024204 21611.500000 0 0 1
-35.028719 -8.636104 17.439923 40.071740 0.241723 1.120516 0.022449 -0.020386 219887.000000 0 0 1
-35.315814 -8.700004 16.063523 39.760955 0.241539 1.154908 0.033368 -0.018715 -1081660.000000 0 0 1
35.732126 -8.780004 15.780423 40.036172 -0.240944 1.165649 0.035820 -0.019276 -1086960.000000 0 0 1
35.054336 -9.977804 16.047823 39.823306 -0.277305 1.156030 0.034370 -0.002228 293192.000000 0 0 1
33.674526 -9.943004 15.715623 38.468401 -0.287110 1.149950 0.027162 0.005069 73708.300000 0 0 1
33.034926 -11.280604 16.127723 38.453373 -0.329060 1.138001 0.019229 0.008058 -190958.000000 0 0 1
32.953736 -11.585604 17.456323 39.049945 -0.338074 1.107359 0.014936 -0.005770 31672.400000 0 0 1
31.710846 -12.208004 17.691423 38.309263 -0.367490 1.090767 0.015180 -0.009229 82592.700000 0 0 1
31.454286 -12.613204 19.172323 38.936397 -0.381369 1.055950 0.013075 -0.009251 364982.000000 0 0 1
32.370856 -13.625104 19.603123 40.221863 -0.398398 1.061716 0.006769 0.005013 130522.000000 0 0 1
32.283246 -13.804004 21.011723 40.917613 -0.404063 1.031523 0.002590 0.005235 -7801.030000 0 0 1
32.782506 -15.239904 21.414223 42.018048 -0.435158 1.036026 0.000482 0.003683 249604.000000 0 0 1
32.713016 -15.364504 22.808523 42.736848 -0.439095 1.007830 -0.003273 -0.002588 -173048.000000 0 0 1
33.097276 -16.671004 23.184823 43.713706 -0.466601 1.011749 0.007050 0.000645 18887.300000 0 0 1
33.651826 -16.768004 24.617143 44.940128 -0.462270 0.991092 0.012407 0.004114 259603.000000 0 0 1
34.931236 -16.187004 24.787023 45.788720 -0.433938 0.998773 0.022616 0.011537 35794.200000 0 0 1
35.152696 -15.681104 26.065493 46.486762 -0.419594 0.975556 0.012656 0.013341 -325528.000000 0 0 1
-36.226854 -14.646804 26.073103 46.975744 0.384215 0.982393 0.015589 0.008659 245474.000000 0 0 1
-34.910739 -15.181604 25.944163 46.068866 0.410200 0.972591 0.007092 0.007274 -125707.000000 0 0 1
-33.983014 -14.143204 25.962943 45.043866 0.394380 0.956489 0.013697 -0.000436 -1004550.000000 0 0 1
-32.579374 -14.647204 25.735133 44.025598 0.422509 0.946472 0.040233 -0.005029 -1100490.000000 0 0 1
-32.264024 -14.850104 24.355043 43.065775 0.431360 0.969719 0.042400 -0.002748 -905628.000000 0 0 1
-30.978734 -15.265904 24.086783 42.105854 0.457860 0.961790 0.070680 -0.011459 -608318.000000 0 0 1
-30.475304 -16.714004 24.537223 42.546180 0.501648 0.956089 0.074745 -0.007872 -567906.000000 0 0 1
-30.280834 -16.819604 25.926213 43.266575 0.507021 0.928269 0.074721 -0.011635 110079.000000 0 0 1
-30.041874 -18.154004 26.311353 43.867635 0.543568 0.927558 0.080036 -0.016514 -338128.000000 0 0 1
-29.874644 -18.224504 27.814863 44.702277 0.547764 0.899215 0.056716 -0.018232 -185609.000000 0 0 1
-28.736904 -17.559704 28.326823 44.006384 0.548505 0.871476 0.062606 -0.018489 -134512.000000 0 0 1
-28.362514 -18.030504 29.614173 44.794314 0.566268 0.848493 0.049202 -0.023282 688627.000000 0 0 1
-27.015784 -17.356404 30.049483 43.978049 0.571052 0.818546 0.057332 -0.024831 500528.000000 0 0 1
-27.149534 -16.013204 30.409073 43.797622 0.532897 0.803337 0.071830 -0.031017 433699.000000 0 0 1
-25.942274 -15.307504 30.085073 42.572678 0.533079 0.786008 0.058344 -0.024931 448351.000000 0 0 1
-25.694464 -13.888204 30.711923 42.382897 0.495531 0.760299 0.064606 -0.022784 -188747.000000 0 0 1
-25.200984 -13.878504 32.036023 43.058208 0.503390 0.731734 0.060128 -0.022738 159494.000000 0 0 1
-24.866104 -12.579904 32.555955 42.854024 0.468361 0.707954 0.060531 -0.020719 -144222.000000 0 0 1
-24.194804 -12.596404 33.936842 43.540409 0.480011 0.677036 0.058140 -0.020960 1266730.000000 0 0 1
-22.771304 -12.901604 33.935097 42.855274 0.515478 0.656958 0.033867 -0.017429 1141190.000000 0 0 1
-22.434904 -14.266504 34.229496 43.341856 0.566404 0.660385 0.028456 -0.015831 -311940.000000 0 0 1
-22.537704 -14.828004 -32.868411 42.522350 0.581923 2.454302 0.024087 -0.013326 -534487.000000 0 0 1
-21.515404 -14.456104 -31.979671 41.165409 0.591614 2.460457 0.013143 -0.007146 -223974.000000 0 0 1
-21.607704 -15.185604 -30.765741 40.546594 0.612594 2.432227 0.019226 -0.011438 425203.000000 0 0 1
-20.288504 -15.332804 -29.920191 39.267494 0.647164 2.437128 0.019938 -0.013000 571534.000000 0 0 1
-19.892504 -14.161804 -29.234341 38.090879 0.618679 2.445712 0.034230 -0.016732 298228.000000 0 0 1
-20.613904 -13.971704 -28.017661 37.485075 0.595657 2.414989 0.039202 -0.010193 55595.900000 0 0 1
-20.111104 -12.751604 -27.229461 36.173242 0.565086 2.423028 0.042527 -0.015096 92098.300000 0 0 1
-18.799604 -12.837004 -26.711981 35.096206 0.599112 2.435815 0.040969 -0.016102 31310.200000 0 0 1
-18.343804 -11.736304 -25.921901 33.855294 0.569169 2.442875 0.054181 -0.020449 409473.000000 0 0 1
-16.885104 -11.929304 -25.446691 32.786417 0.615074 2.459310 0.071154 -0.024699 -327958.000000 0 0 1
-16.902204 -12.838704 -24.370681 32.317904 0.649609 2.425067 0.074901 -0.030753 -533489.000000 0 0 1
-15.645004 -13.037604 -23.822981 31.341342 0.694742 2.434284 0.083192 -0.034176 -716350.000000 0 0 1
-14.654004 -13.945404 -24.547381 31.808616 0.760627 2.452339 0.061327 -0.022679 -988705.000000 0 0 1
-13.957004 -13.229004 -25.489391 31.929822 0.758626 2.495254 0.071256 -0.023929 -559664.000000 0 0 1
-13.249904 -14.042104 -26.392031 32.699846 0.814417 2.510019 0.066985 -0.025010 -471768.000000 0 0 1
-12.384304 -13.212004 -27.372231 32.820223 0.817724 2.557123 0.068386 -0.026580 31355.700000 0 0 1
-13.079304 -12.269904 -28.194551 33.414839 0.753479 2.575072 0.082920 -0.029678 70537.800000 0 0 1
-12.208204 -11.654904 -29.149101 33.683039 0.762216 2.616732 0.079022 -0.027898 159739.000000 0 0 1
-12.935804 -10.636404 -30.031551 34.385493 0.688159 2.632893 0.053726 -0.028029 372656.000000 0 0 1
-12.063104 -9.650604 -30.657471 34.329771 0.674747 2.674828 0.055205 -0.021339 677657.000000 0 0 1
-11.471804 -10.106904 -31.882651 35.358948 0.722230 2.694448 0.067912 -0.015398 -54859.100000 0 0 1
-10.748704 -9.071804 -32.712591 35.608227 0.700995 2.735524 0.057960 -0.017981 -356590.000000 0 0 1
-9.529304 -8.655504 -32.178291 34.657868 0.737384 2.761029 0.042777 -0.013128 -700368.000000 0 0 1
-9.028204 -7.480104 -32.741541 34.777420 0.691895 2.797731 0.036762 -0.015737 264557.000000 0 0 1
-7.493704 -7.355804 -32.490281 34.145011 0.776112 2.828996 0.036509 -0.013106 465822.000000 0 0 1
-7.023104 -7.192804 -31.121331 32.704704 0.797335 2.829151 0.030651 -0.009911 -53062.900000 0 0 1
-7.371604 -6.024304 -30.385151 31.841642 0.685160 2.837965 0.039760 -0.014755 -688034.000000 0 0 1
-6.741304 -4.729704 -30.847501 31.927787 0.611800 2.880718 0.027340 -0.018566 -1063520.000000 0 0 1
-5.374104 -4.680404 -30.667941 31.485072 0.716513 2.913268 0.028742 -0.020908 -1106470.000000 0 0 1
-4.905804 -3.377004 -30.912151 31.480663 0.602877 2.951258 0.029692 -0.027125 -565760.000000 0 0 1
-3.462604 -3.227404 -30.479301 30.844668 0.750256 2.987522 0.020274 -0.016666 -1684330.000000 0 0 1
-2.473504 -3.994904 -31.051481 31.404967 1.016404 2.991413 0.008482 -0.015167 -122532.000000 0 0 1
-1.207304 -3.674604 -30.463341 30.707905 1.253354 3.015301 0.017071 -0.015303 531221.000000 0 0 1
-0.431004 -2.491104 -31.147531 31.249961 1.399475 3.060604 0.009980 -0.015542 -236237.000000 0 0 1
0.689696 -2.151604 -30.273201 30.357400 -1.260595 3.067096 0.025501 -0.016762 926520.000000 0 0 1
1.253296 -0.863904 -30.668401 30.706154 -0.603513 3.091999 0.003007 -0.012708 -45109.200000 0 0 1
1.338096 0.174996 -29.568461 29.599240 0.130041 3.095985 0.010392 -0.012019 -334443.000000 0 0 1
0.159096 0.784296 -29.078621 29.089631 1.370660 3.114079 0.022205 -0.018121 -402509.000000 0 0 1
0.341696 2.155296 -28.735551 28.818292 1.413567 3.065797 0.044263 -0.023023 -658106.000000 0 0 1
-0.868704 2.910096 -28.213361 28.376346 -1.280703 3.034362 0.032901 -0.023050 -274820.000000 0 0 1
-1.946304 2.978496 -29.127171 29.343681 -0.991998 3.020040 0.025686 -0.032477 175397.000000 0 0 1
-3.009804 3.778296 -28.650191 29.054567 -0.898130 2.974558 0.068533 -0.037761 508127.000000 0 0 1
-4.240704 3.897896 -29.613691 30.168657 -0.743302 2.949488 0.086952 -0.039039 55454.700000 0 0 1
-3.985604 4.600696 -30.796671 31.392457 -0.856912 2.946457 0.082091 -0.036308 420177.000000 0 0 1
-5.151604 4.859496 -31.579851 32.364188 -0.756228 2.920988 0.097270 -0.035304 -57498.200000 0 0 1
-4.690604 5.758596 -32.808401 33.638584 -0.887252 2.918964 0.098367 -0.025775 189255.000000 0 0 1
-4.257604 4.927796 -33.858251 34.478856 -0.858232 2.951572 0.100039 -0.027899 -289045.000000 0 0 1
-2.944404 4.461296 -33.749411 34.170095 -0.987431 2.984514 0.082315 -0.027062 -1039020.000000 0 0 1
-2.488204 3.752596 33.506990 33.808158 -0.985293 0.133577 0.060434 -0.025043 -523366.000000 0 0 1
-3.306704 2.673796 33.156509 33.428096 -0.679962 0.127558 0.058429 -0.027716 -207970.000000 0 0 1
-2.904004 1.952196 31.989553 32.180364 -0.591853 0.108952 0.054551 -0.018466 -195220.000000 0 0 1
-2.804604 2.715896 30.616253 30.864168 -0.769331 0.126832 0.053390 -0.012663 361611.000000 0 0 1
-3.996104 3.348396 30.147023 30.594503 -0.697436 0.171242 0.047555 -0.014451 280845.000000 0 0 1
-3.731504 4.195096 29.025183 29.563224 -0.843817 0.191077 0.041809 -0.019811 -411550.000000 0 0 1
-4.742304 5.300796 28.818203 29.682937 -0.840950 0.241971 0.042054 -0.011908 -283501.000000 0 0 1
-4.606504 6.092096 27.657273 28.692478 -0.923374 0.269438 0.037009 -0.002341 -752906.000000 0 0 1
-5.753304 6.851596 27.475913 28.895859 -0.872311 0.314795 0.015288 0.003238 -588742.000000 0 0 1
-5.908404 7.503196 26.144553 27.834239 -0.903754 0.350227 0.016968 0.002161 -413465.000000 0 0 1
-5.193704 8.692396 26.037813 27.937430 -1.032217 0.370892 0.029390 -0.004902 -60652.200000 0 0 1
-5.552504 9.479696 24.948113 27.259921 -1.040939 0.414808 0.033464 -0.008974 -733212.000000 0 0 1
-4.581004 10.645096 24.887543 27.453478 -1.164412 0.435794 0.028702 -0.013111 -742848.000000 0 0 1
-4.992204 11.602096 23.919043 27.049055 -1.164458 0.485838 0.043215 -0.014521 334284.000000 0 0 1
-4.412704 12.875396 24.149903 27.721212 -1.240618 0.513215 0.042993 -0.013439 -1519510.000000 0 0 1
-2.910904 13.072396 24.023813 27.504627 -1.351695 0.508561 0.035892 -0.008402 -882621.000000 0 0 1
-2.130404 12.649796 25.147593 28.230434 -1.403948 0.471700 0.048900 -0.008418 124102.000000 0 0 1
-2.418604 13.184896 26.438913 29.642997 -1.389376 0.469243 0.044067 -0.008109 -1251190.000000 0 0 1
-1.495804 12.642996 27.527863 30.329293 -1.453033 0.433186 0.036743 -0.003009 -156431.000000 0 0 1
-0.131904 12.951396 27.370133 30.280030 -1.560612 0.441994 0.037765 -0.000180 -293187.000000 0 0 1
0.652496 12.261696 28.357213 30.901561 1.517632 0.408638 0.038369 -0.005398 -375924.000000 0 0 1
2.116496 12.554596 28.054723 30.808520 1.403783 0.426025 0.036640 0.000634 -556097.000000 0 0 1
2.532096 13.915296 28.133003 31.488297 1.390801 0.465843 0.032693 -0.002419 -465101.000000 0 0 1
3.926896 13.987196 28.119133 31.650400 1.297093 0.476885 0.046615 0.000374 -499451.000000 0 0 1
4.497796 15.370396 28.533783 32.720880 1.286117 0.511450 0.055020 -0.001113 -287464.000000 0 0 1
4.194096 15.738696 29.856953 34.010802 1.310365 0.499407 0.057194 0.003568 391843.000000 0 0 1
3.139896 16.701296 29.943283 34.429528 1.384962 0.516207 0.048058 0.001515 108157.000000 0 0 1
3.321796 18.150596 29.418213 34.726211 1.389786 0.560203 0.053943 0.002716 981.989000 0 0 1
4.248596 18.880396 30.238123 35.900752 1.349456 0.569316 0.073473 0.004708 382856.000000 0 0 1
4.931996 19.836296 29.440533 35.840594 1.327103 0.606883 0.055860 0.002847 -69767.000000 0 0 1
6.196496 20.430196 30.065543 36.874467 1.276314 0.617465 0.069970 -0.002057 -196014.000000 0 0 1
5.882996 21.290796 31.168723 38.202054 1.301207 0.616527 0.074805 -0.014904 -450357.000000 0 0 1
6.971996 22.014396 31.617383 39.152283 1.264088 0.630812 0.062600 -0.018352 -771351.000000 0 0 1
7.293896 23.412596 30.966193 39.500072 1.268789 0.669789 0.062907 -0.009058 -206112.000000 0 0 1
7.785796 23.343396 29.670163 38.546742 1.248866 0.692395 0.042209 -0.003878 -175386.000000 0 0 1
8.098396 24.614096 29.225513 39.058525 1.252938 0.725377 0.043262 -0.005684 -52974.100000 0 0 1
8.571096 24.763696 27.760113 38.174968 1.237586 0.756590 0.040111 -0.010377 -409906.000000 0 0 1
7.507896 24.515396 26.897363 37.159673 1.273613 0.761456 0.035268 -0.008255 -232938.000000 0 0 1
7.848496 24.703196 25.548803 36.394891 1.263170 0.792610 0.034903 -0.013668 -281455.000000 0 0 1
28.154876 2.453796 6.615019 29.025449 0.086934 1.340872 0.065526 -0.006015 -127875.000000 0 0 1
28.511026 3.253996 7.726819 29.718191 0.113639 1.307771 0.059955 -0.011088 428500.000000 0 0 1
27.684996 3.087096 8.891219 29.241118 0.111049 1.261839 0.056563 -0.007558 -268735.000000 0 0 1
28.188906 3.785796 10.159619 30.202062 0.133502 1.227717 0.055925 -0.012798 -180888.000000 0 0 1
28.151496 5.188096 10.089119 30.351498 0.182247 1.231939 0.053115 -0.013217 466099.000000 0 0 1
29.148446 5.803496 9.265519 31.131372 0.196531 1.268591 0.068545 -0.019166 -148197.000000 0 0 1
28.930176 7.298096 9.076719 31.186602 0.247110 1.275477 0.078776 -0.015741 224833.000000 0 0 1
27.904426 7.588996 8.127119 30.038308 0.265541 1.296823 0.079319 -0.011465 235791.000000 0 0 1
28.023816 8.915196 7.580219 30.368976 0.308005 1.318525 0.094294 -0.026395 -253322.000000 0 0 1
27.208026 9.278896 6.343519 29.438323 0.328666 1.353608 0.090913 -0.014517 -390767.000000 0 0 1
25.866926 9.569696 6.654619 28.371833 0.354344 1.334040 0.078649 -0.007102 -452679.000000 0 0 1
25.197526 9.766696 5.461019 27.570390 0.369776 1.371402 0.093224 -0.013657 -98788.300000 0 0 1
23.722526 10.208296 5.631319 26.432543 0.406369 1.356106 0.047743 -0.008463 143976.000000 0 0 1
23.661226 11.578996 5.972319 27.011023 0.455104 1.347847 0.041890 -0.001784 -424945.000000 0 0 1
22.358526 12.021196 6.155519 26.120935 0.493317 1.332904 0.045941 -0.006531 -677392.000000 0 0 1
22.294726 13.560396 6.348119 26.855870 0.546451 1.332160 0.053903 0.001962 -63476.200000 0 0 1
22.413226 14.402396 5.204719 27.145365 0.571145 1.377867 0.061531 -0.002989 323761.000000 0 0 1
22.400626 15.697096 5.741219 27.949034 0.611225 1.363906 0.091868 -0.003228 -199639.000000 0 0 1
22.136926 16.728296 4.603819 28.126047 0.647122 1.406371 0.092755 -0.011156 442870.000000 0 0 1
20.772226 16.681796 4.176619 26.966866 0.676617 1.415291 0.107242 -0.012112 777216.000000 0 0 1
20.480726 17.615196 3.192919 27.202022 0.710321 1.453147 0.098243 -0.012822 440608.000000 0 0 1
18.979226 17.638196 2.761919 26.056576 0.748792 1.464600 0.096769 -0.011230 440710.000000 0 0 1
18.067926 17.824896 3.798619 25.663327 0.778627 1.422233 0.092743 -0.019489 1009690.000000 0 0 1
16.702826 18.059596 3.411419 24.834878 0.824408 1.432997 0.079552 -0.022259 863840.000000 0 1 0
15.846126 18.843896 4.406619 25.012205 0.871600 1.393693 0.089571 -0.038578 -316025.000000 0 0 1
14.462626 18.778496 4.171519 24.066596 0.914511 1.396584 0.080010 -0.034467 -234103.000000 0 1 0
13.834926 19.982796 4.543719 24.725750 0.965229 1.385981 0.063230 -0.030768 519862.000000 0 1 0
12.308726 20.023396 4.219919 23.879883 1.019626 1.393149 0.057985 -0.017006 223027.000000 0 1 0
11.580826 19.168596 5.018519 22.950733 1.027326 1.350350 0.042246 -0.025267 207033.000000 0 1 0
10.176226 19.319796 4.768819 22.350654 1.085998 1.355780 0.037231 -0.011832 432860.000000 0 1 0
9.355226 18.768396 5.920319 21.790436 1.108384 1.295644 0.022661 -0.011899 -1107860.000000 0 1 0
9.447826 19.398896 7.134519 22.726195 1.117579 1.251463 0.036867 -0.014732 -205149.000000 0 1 0
8.803026 18.652596 8.125119 22.168224 1.129842 1.195529 0.033057 -0.012458 -62683.400000 0 1 0
7.665726 19.460196 8.824119 22.700829 1.195544 1.171561 0.026483 -0.014033 1190730.000000 0 1 0
6.512626 19.740896 7.995819 22.272189 1.252134 1.203595 0.026731 -0.017382 564525.000000 0 1 0
6.603826 21.020996 7.422019 23.250358 1.266405 1.245888 0.024627 -0.012733 37106.500000 0 1 0
5.399326 21.449796 6.471919 23.046305 1.324200 1.286145 0.019024 0.000771 1178450.000000 0 1 0
4.164226 21.560796 7.218719 23.115332 1.380007 1.253192 0.028901 -0.000335 742111.000000 0 1 0
3.939426 22.750296 8.019119 24.441794 1.399337 1.236515 0.014830 -0.003745 -549380.000000 0 1 0
3.839926 24.019096 7.167019 25.358000 1.412268 1.284258 0.013902 -0.003090 -187437.000000 0 0 1
2.716326 24.072096 6.295519 25.029538 1.458430 1.316542 0.016347 -0.003337 554845.000000 0 0 1
2.940326 25.184496 5.447619 25.934165 1.454571 1.359164 0.022372 -0.001517 -846769.000000 0 0 1
1.767726 25.325296 4.524519 25.786949 1.501109 1.394426 0.029261 -0.008535 257845.000000 0 0 1
0.671826 26.000296 5.251019 26.533751 1.544963 1.371582 0.045235 -0.015284 768987.000000 0 0 1
-0.381774 26.281796 4.380319 26.647058 -1.556271 1.405664 0.061210 -0.016483 -829635.000000 0 0 1
-1.698374 26.792696 4.919919 27.293564 -1.507492 1.389546 0.055859 -0.019279 -244820.000000 0 0 1
-2.551774 27.201996 3.829019 27.588431 -1.477262 1.431556 0.078703 -0.025874 136447.000000 0 0 1
-3.715374 27.778296 4.390819 28.367534 -1.437834 1.415388 0.067098 -0.028727 -549974.000000 0 0 1
-4.743174 28.193696 3.374919 28.788405 -1.404122 1.453294 0.071023 -0.034978 -473739.000000 0 0 1
-4.264374 29.329096 2.671219 29.757623 -1.426411 1.480909 0.070102 -0.035918 -111649.000000 0 0 1
-5.020374 29.543596 1.534619 30.006387 -1.402473 1.519631 0.082836 -0.039366 -417832.000000 0 0 1
-4.338474 30.538496 0.577419 30.850534 -1.429675 1.552079 0.074112 -0.026387 -12937.200000 0 0 1
-3.987274 31.907396 0.871719 32.167377 -1.446477 1.543694 0.067409 -0.017321 99309.300000 0 0 1
-3.082174 31.976796 1.968719 32.185262 -1.474705 1.509590 0.061566 -0.020678 -516030.000000 0 0 1
-2.251774 33.260396 1.878619 33.389424 -1.503198 1.514503 0.053736 -0.018563 -278024.000000 0 0 1
-1.369974 33.294196 0.755619 33.330935 -1.529672 1.548124 0.031257 -0.005073 -98008.800000 0 0 1
-0.576274 -34.155594 0.586019 34.165481 1.553926 1.553643 0.016707 -0.005656 305740.000000 0 0 1
0.745426 -34.046594 1.421019 34.084388 -1.548906 1.529093 0.008759 -0.002977 -285640.000000 0 0 1
0.544226 -34.045794 2.827619 34.167349 -1.554813 1.487944 0.012413 -0.009867 565260.000000 0 0 1
1.711026 34.225096 3.621119 34.458631 1.520845 1.465516 0.002311 -0.009386 649974.000000 0 0 1
1.317526 -34.127494 5.131719 34.536304 -1.532209 1.421655 0.006007 -0.014139 124017.000000 0 0 1
0.349326 33.571096 5.692319 34.052063 1.560391 1.402843 0.024902 -0.021325 -267114.000000 0 0 1
-0.002374 33.944696 7.058119 34.670728 -1.570726 1.365788 0.029479 -0.023515 -202430.000000 0 0 1
0.992026 33.924296 8.230319 34.922487 1.541562 1.332884 0.011212 -0.016031 -429730.000000 0 0 1
1.361126 32.569396 8.474719 33.681435 1.529029 1.316449 0.011618 -0.024805 -412932.000000 0 0 1
2.422226 32.282796 9.321219 33.688740 1.495905 1.290452 0.015143 -0.019254 -893762.000000 0 0 1
2.897426 30.821796 9.257619 32.312253 1.477066 1.280220 0.008427 -0.016027 4122.720000 0 0 1
2.091926 29.865396 9.955019 31.550284 1.500865 1.249783 0.026485 -0.023621 379179.000000 0 0 1
2.620626 28.552896 9.852019 30.318275 1.479271 1.239834 0.023194 -0.020290 -68945.700000 0 0 1
2.308426 27.702896 11.122719 29.941512 1.487660 1.190192 0.025364 -0.022329 -477740.000000 0 0 1
2.762226 28.204296 12.326219 30.903849 1.473171 1.160526 0.030854 -0.017801 -297126.000000 0 0 1
2.632926 27.317296 13.424319 30.551257 1.474710 1.115862 0.033197 -0.017684 353207.000000 0 0 1
1.204726 26.895996 13.981219 30.336784 1.526034 1.091825 0.022506 -0.016211 912612.000000 0 0 1
0.484526 27.905696 14.647819 31.520172 1.553435 1.087486 0.021798 -0.021180 220705.000000 0 0 1
-0.074974 28.908796 13.760819 32.016937 -1.568203 1.126527 0.026356 -0.023120 -577353.000000 0 0 1
-0.889674 29.974796 14.484619 33.302914 -1.541124 1.120830 0.016683 -0.017600 315745.000000 0 0 1
-2.130674 29.647096 15.097519 33.338043 -1.499052 1.100824 0.013180 -0.013201 222181.000000 0 0 1
-2.716074 30.773296 15.699019 34.653023 -1.482764 1.100630 0.007737 -0.008478 -178234.000000 0 0 1
-4.101174 30.443096 16.281619 34.766260 -1.436886 1.083412 0.006699 -0.007453 341048.000000 0 0 1
-5.111074 30.084696 15.321819 34.146305 -1.402514 1.105474 0.021832 -0.011236 183184.000000 0 0 1
-6.301674 29.804596 15.996419 34.408000 -1.362432 1.087270 0.032357 -0.012483 -963844.000000 0 0 1
-7.432874 29.201596 15.155819 33.729507 -1.321553 1.104776 0.034001 -0.016684 120662.000000 0 0 1
-8.613674 28.967896 15.913519 34.155152 -1.281770 1.086124 0.039170 -0.014920 -527009.000000 0 0 1
-9.605774 28.468696 15.089719 33.621974 -1.245377 1.105368 0.036037 -0.010884 41424.700000 0 0 1
-10.919774 28.164496 15.890519 34.131933 -1.200926 1.086527 0.045050 -0.009809 173136.000000 0 0 1
-11.623074 29.251696 16.409119 35.496714 -1.192579 1.090241 0.038717 -0.020436 274355.000000 0 0 1
-11.201774 29.638696 17.706819 36.296879 -1.209447 1.061191 0.045870 -0.025461 93753.900000 0 0 1
-12.201574 30.720996 18.237719 37.752780 -1.192729 1.066624 0.054281 -0.020922 395302.000000 0 0 1
-13.432774 30.262496 18.748119 38.049310 -1.153047 1.055570 0.067545 -0.017107 201895.000000 0 0 1
-14.323374 31.330496 18.978319 39.331102 -1.141996 1.067259 0.072417 -0.016590 489588.000000 0 0 1
-15.311874 31.115296 20.162419 40.114065 -1.113488 1.044161 0.064683 -0.012612 189349.000000 0 0 1
-14.566674 31.034396 21.372419 40.399282 -1.131950 1.013340 0.066313 -0.012079 -151978.000000 0 0 1
-15.309374 30.766596 22.502919 41.077265 -1.109073 0.991041 0.069191 -0.004307 77103.300000 0 0 1
-14.387274 30.844396 23.779219 41.518931 -1.134350 0.960962 0.060958 0.003818 767970.000000 0 0 1
-13.327574 29.854496 23.890919 40.493100 -1.150925 0.939738 0.063664 -0.001081 1041710.000000 0 0 1
-12.971874 29.509496 25.258819 40.952262 -1.156639 0.906142 0.058731 0.000569 -115938.000000 0 0 1
-12.530374 30.597396 26.194619 42.182567 -1.182107 0.900801 0.057049 0.002042 -407868.000000 0 0 1
-13.599174 31.472396 26.593719 43.389804 -1.162929 0.911068 0.058915 0.005321 451479.000000 0 0 1
-13.227274 32.665696 27.246719 44.546517 -1.186048 0.912656 0.058405 0.003618 216931.000000 0 0 1
-14.449974 33.449696 27.843019 45.857579 -1.163019 0.918311 0.072027 -0.000489 586990.000000 0 0 1
-15.146174 32.894696 28.974319 46.378645 -1.139291 0.896005 0.049697 -0.002941 295187.000000 0 0 1
-14.508874 33.013396 30.230119 47.055837 -1.156721 0.873130 0.058077 -0.000536 -106215.000000 0 0 1
-15.313974 32.241996 31.305419 47.477293 -1.127373 0.850807 0.041820 0.000523 -162567.000000 0 0 1
-16.593574 32.752996 31.579919 48.429296 -1.101861 0.860468 0.048201 0.000860 -499031.000000 0 0 1
-16.973674 32.230296 32.789919 49.010982 -1.086067 0.837891 0.035270 0.000220 -723378.000000 0 0 1
-18.315074 32.775196 33.229719 50.138504 -1.061215 0.846300 0.034213 -0.003231 -624641.000000 0 0 1
-18.371574 34.102596 33.691919 51.338554 -1.076659 0.854933 0.036422 -0.009124 484906.000000 0 0 1
-19.762674 -34.184194 33.897519 52.040025 1.046618 0.861402 0.036451 -0.016275 774856.000000 0 0 1
-20.234074 -32.719194 34.077119 51.392737 1.016946 0.845880 0.044525 -0.007093 216386.000000 0 0 1
-19.675174 -32.139394 -33.225685 50.239419 1.021467 2.293409 0.053068 -0.003410 49277.000000 0 0 1
-20.528574 -32.247094 -32.121385 49.930760 1.003897 2.269621 0.054820 -0.001173 -247935.000000 0 0 1
-20.170874 -31.244594 -31.011485 48.423145 0.997535 2.265850 0.071827 -0.003861 -49521.700000 0 0 1
-20.579274 -29.921094 -31.381385 47.995517 0.968316 2.283445 0.071081 -0.004950 -196343.000000 0 0 1
-19.911874 -28.957594 -30.646485 46.628661 0.968426 2.287955 0.064959 -0.004509 -227003.000000 0 0 1
-20.405474 -27.530594 -30.929785 46.162415 0.932956 2.305033 0.053499 -0.010279 218051.000000 0 0 1
-21.712974 -27.367094 -30.418385 46.321584 0.900095 2.287202 0.050792 -0.006589 101299.000000 0 0 1
-22.303974 -26.062394 -30.548685 45.934059 0.862950 2.298364 0.047036 -0.006352 -68070.700000 0 0 1
-23.549774 -25.892194 -29.690785 45.897061 0.832740 2.274308 0.044280 -0.012140 -1071880.000000 0 0 1
-23.366174 -26.099494 -28.286385 45.025340 0.840599 2.250076 0.041353 -0.011648 10308.600000 0 0 1
-22.651574 -25.102494 -27.586285 43.637508 0.836677 2.255146 0.050760 -0.016644 -431636.000000 0 0 1
-22.423574 -25.547994 -26.095185 42.854117 0.850437 2.225508 0.043954 -0.012372 343865.000000 0 0 1
-23.598374 -25.602794 -25.283985 43.030991 0.826115 2.198856 0.034627 -0.010151 369914.000000 0 0 1
-23.241074 -25.912694 -23.976285 42.266742 0.839697 2.173973 0.034330 -0.008109 -165693.000000 0 0 1
-24.462974 -25.820094 -23.003185 42.358716 0.812381 2.144869 0.027998 -0.007522 -164257.000000 0 0 1
-25.600374 -26.522694 -23.307185 43.612582 0.803091 2.134611 0.021621 0.001961 -972510.000000 0 0 1
-25.490674 -27.916794 -23.355885 44.436687 0.830794 2.124216 0.030773 0.004770 -1449890.000000 0 0 1
-26.813574 -28.683394 -23.588185 45.805101 0.819078 2.111767 -0.005630 0.015736 591051.000000 0 0 1
-27.677274 -28.597594 -22.441185 45.688736 0.801751 2.084235 -0.012120 0.017497 -229232.000000 0 0 1
-28.627974 -27.598494 -22.506185 45.692079 0.767091 2.085828 -0.008673 0.016752 -650353.000000 0 0 1
-29.138974 -27.124394 -21.140685 45.074839 0.749607 2.058969 -0.007158 0.012960 82125.600000 0 0 1
-29.683274 -28.125294 -20.265385 45.637865 0.758454 2.030907 -0.007379 0.018527 289490.000000 0 0 1
-30.061274 -27.501394 -19.053285 44.978156 0.740956 2.008225 -0.008162 0.016176 -325257.000000 0 0 1
-30.963274 -28.498794 -18.196385 45.847726 0.743976 1.978920 -0.013476 0.018570 467457.000000 0 0 1
-32.239174 -28.862694 -18.720985 47.147584 0.730194 1.979121 -0.007569 0.020409 730117.000000 0 0 1
-33.255274 -27.878794 -18.667985 47.240174 0.697678 1.977051 -0.006051 0.023064 -100355.000000 0 0 1
-33.882574 -27.467094 -17.283885 46.916977 0.681205 1.948076 0.009145 0.024372 -447397.000000 0 0 1
-33.084674 -26.546894 -16.561085 45.536828 0.676198 1.943018 0.003834 0.024531 502042.000000 0 0 1
-33.768174 -26.040694 -15.408785 45.341349 0.656907 1.917543 0.009805 0.021496 169018.000000 0 0 1
-33.531674 -26.814094 -14.080585 45.184418 0.674536 1.887699 0.027421 0.024777 124106.000000 0 0 1
-34.188274 -28.084894 -14.100285 46.437241 0.687700 1.879309 0.023774 0.012326 390134.000000 0 0 1
-33.994074 -28.802794 -12.878985 46.379589 0.702918 1.852181 0.009924 0.001138 122883.000000 0 0 1
-34.793974 -30.136094 -12.723585 47.756616 0.713784 1.840479 0.025324 0.004759 29581.000000 0 0 1
-34.202874 -31.055194 -13.579585 48.152536 0.737201 1.856687 0.016720 0.003020 55931.800000 0 0 1
-34.703974 -32.338794 -13.417785 49.297062 0.750134 1.846456 0.016755 -0.006426 -262997.000000 0 0 1
-34.076474 -33.362194 -14.419585 49.821345 0.774807 1.864423 0.017410 0.016319 1371360.000000 0 0 1
-32.665974 -33.682994 -14.281385 49.046589 0.800725 1.866256 0.003671 0.009669 1352510.000000 0 0 1
-32.136574 34.076696 -15.342285 49.288601 -0.814691 1.887330 0.025945 -0.015517 2154800.000000 0 0 1
-30.563774 33.764096 -15.164085 48.001124 -0.835107 1.892213 0.027928 -0.009765 2002210.000000 0 0 1
-30.150774 32.919196 -16.201285 47.489201 -0.829264 1.918944 0.043732 -0.009401 31425.000000 0 0 1
-28.725874 32.829796 -16.178785 46.526598 -0.851970 1.925947 0.031213 -0.007898 243115.000000 0 0 1
9.403396 19.686096 -8.913381 23.567235 1.125174 1.958659 0.022581 -0.020141 -1921420.000000 0 1 0
8.089896 19.941896 -9.158481 23.388103 1.185409 1.973152 0.022493 -0.019022 -1471790.000000 0 1 0
7.734296 20.108696 -10.501881 23.968072 1.203615 2.024348 0.029773 -0.017842 250252.000000 0 1 0
7.635696 18.878396 -11.408881 23.342241 1.186445 2.081470 0.023591 -0.009911 -582207.000000 0 1 0
8.917496 18.504996 -11.808481 23.693814 1.121736 2.092523 0.036760 -0.014065 -504917.000000 0 1 0
8.783596 17.330196 -12.616481 23.165984 1.101694 2.146723 0.038745 -0.018542 511508.000000 0 1 0
10.104296 16.777696 -13.286281 23.666709 1.028727 2.166862 0.051770 -0.021250 760903.000000 0 1 0
9.948596 15.532896 -13.972681 23.140467 1.001139 2.219081 0.060572 -0.033481 73708.700000 0 1 0
11.141796 15.164796 -14.654581 23.850941 0.937150 2.232452 0.073912 -0.034957 -225621.000000 0 1 0
11.021796 13.797496 -15.404181 23.433729 0.896772 2.288094 0.065533 -0.038315 -821611.000000 0 1 0
11.075196 12.733996 -14.479181 22.236485 0.854956 2.279889 0.078535 -0.047446 460386.000000 0 1 0
12.352796 12.249596 -14.079281 22.380132 0.781203 2.251188 0.098663 -0.039661 -11216.800000 0 1 0
13.265896 11.633096 -15.164581 23.265369 0.719915 2.280764 0.094529 -0.039121 -607618.000000 0 1 0
13.790696 12.602096 -16.061781 24.636901 0.740394 2.280936 0.064938 -0.025371 261709.000000 0 1 0
14.715196 11.928696 -16.923181 25.401276 0.681194 2.299943 0.067211 -0.030358 -149344.000000 0 0 1
15.338596 12.822796 -17.941781 26.862690 0.696300 2.302189 0.040485 -0.025227 -467209.000000 0 0 1
16.338596 13.631496 -17.387781 27.479125 0.695316 2.255913 0.023740 -0.011754 -312677.000000 0 0 1
17.133696 14.097096 -18.476481 28.873378 0.688472 2.265183 0.023377 -0.009420 -157454.000000 0 0 1
18.173296 15.109596 -17.972981 29.691692 0.693607 2.220964 0.011666 0.001810 -382142.000000 0 0 1
17.608796 16.300696 -17.424181 29.654417 0.746841 2.198854 0.013522 -0.001130 442277.000000 0 0 1
16.973296 17.248496 -18.311881 30.346801 0.793440 2.218580 0.017296 0.006196 146338.000000 0 0 1
16.842496 18.666596 -17.711581 30.754049 0.836723 2.184514 0.024187 0.011953 1494020.000000 0 0 1
18.143896 19.331896 -17.759581 31.911218 0.817088 2.161001 0.026293 0.007148 1606360.000000 0 0 1
17.918996 20.647896 -17.313681 32.360308 0.856038 2.135338 0.018209 0.009816 1838.870000 0 0 1
19.004296 21.658796 -17.721281 33.827658 0.850586 2.122184 0.032611 0.001753 566750.000000 0 0 1
20.169196 21.785996 -16.897381 34.160614 0.823915 2.088223 0.033959 -0.000285 209188.000000 0 0 1
19.990996 22.843396 -15.970481 34.300392 0.851891 2.055116 0.038604 -0.004921 256505.000000 0 0 1
21.226696 23.316496 -15.114781 34.966958 0.832280 2.017793 0.053019 -0.013701 313347.000000 0 0 1
21.563396 22.438496 -14.062181 34.149832 0.805283 1.995202 0.050185 -0.013145 704663.000000 0 0 1
22.607996 22.933296 -13.163781 34.789979 0.792541 1.958840 0.050191 -0.016001 1208190.000000 0 0 1
24.061296 22.525296 -13.532281 35.629447 0.752439 1.960383 0.048964 -0.015326 95318.300000 0 0 1
24.448496 23.030596 -14.804181 36.705600 0.755543 1.985941 0.049408 -0.012414 321268.000000 0 0 1
25.690496 23.722696 -14.656381 37.915397 0.745596 1.967689 0.058305 -0.019172 422003.000000 0 0 1
26.263196 24.359396 -15.978781 39.223170 0.747808 1.990381 0.052152 -0.005038 -45039.300000 0 0 1
26.692796 23.415996 -16.989781 39.363268 0.720097 2.017079 0.061260 -0.015694 287128.000000 0 0 1
26.866896 24.018796 -18.283081 40.410440 0.729486 2.040290 0.047232 0.001499 -802722.000000 0 0 1
27.276096 23.047196 -19.373381 40.626180 0.701560 2.067886 0.046478 -0.008915 -809918.000000 0 0 1
28.579196 22.580796 -19.392781 41.264303 0.668683 2.060048 0.042508 -0.006642 -894384.000000 0 0 1
28.928896 22.067896 -20.643481 41.833316 0.651663 2.086871 0.064670 -0.008340 428697.000000 0 0 1
30.437396 22.032496 -21.017781 43.053607 0.626562 2.080796 0.079372 -0.011274 411591.000000 0 0 1
30.931596 23.269496 -21.499381 44.277042 0.644964 2.077806 0.060684 -0.010561 344216.000000 0 0 1
32.328296 23.223496 -21.769781 45.369294 0.622945 2.071263 0.088961 -0.012407 381334.000000 0 0 1
32.729396 24.612896 -22.280881 46.620228 0.644787 2.069085 0.088158 -0.011601 -148018.000000 0 0 1
32.941096 24.764696 -23.699681 47.540307 0.644644 2.092684 0.072904 -0.009728 532708.000000 0 0 1
31.726996 24.707796 -24.455881 47.065566 0.661656 2.117194 0.053714 -0.009436 336607.000000 0 0 1
31.763296 25.232896 -25.933701 48.147303 0.671320 2.139609 0.053776 -0.019037 -750031.000000 0 0 1
31.843896 26.665096 -26.106701 49.057322 0.697115 2.131955 0.054423 -0.019670 103959.000000 0 0 1
30.620996 27.351696 -26.416731 48.822170 0.729064 2.142518 0.051424 -0.015326 570214.000000 0 0 1
30.028696 27.026196 -27.792541 49.036345 0.732822 2.173382 0.051650 -0.007172 -461133.000000 0 0 1
29.596496 25.679696 -27.901241 48.102792 0.714658 2.189566 0.039319 -0.015094 -251816.000000 0 0 1
29.310196 25.462096 -29.246261 48.608123 0.715257 2.216392 0.046514 -0.020550 -443051.000000 0 0 1
28.730396 24.105996 -29.632741 47.797845 0.698098 2.239488 0.042096 -0.027638 -369764.000000 0 0 1
27.481296 23.919096 -29.043111 46.592350 0.716206 2.243810 0.050619 -0.022121 -305812.000000 0 0 1
26.798296 22.681496 -29.380261 45.779893 0.702388 2.267603 0.059519 -0.032484 1083180.000000 0 0 1
25.320396 22.778196 -28.837131 44.626772 0.732593 2.273371 0.051913 -0.018034 642681.000000 0 0 1
25.294396 22.699996 -27.478101 43.705175 0.731394 2.250696 0.048617 -0.007048 373825.000000 0 0 1
24.023196 22.937396 -26.887921 42.734042 0.762281 2.251310 0.046398 -0.010610 75425.200000 0 0 1
24.143196 22.985696 -25.370481 41.891496 0.760843 2.221346 0.037742 -0.005744 -184803.000000 0 0 1
24.452496 21.731496 -24.822881 41.065288 0.726550 2.219901 0.034004 -0.011367 218966.000000 0 0 1
24.746596 21.920396 -23.452181 40.532734 0.724911 2.187806 0.038189 -0.003300 -153855.000000 0 0 1
25.167496 20.603996 -22.739481 39.686414 0.686025 2.180932 0.057035 0.001655 959037.000000 0 0 1
26.432996 20.148196 -23.272381 40.574090 0.651287 2.181663 0.049881 0.004448 750402.000000 0 0 1
26.666096 18.803096 -22.861081 39.840508 0.614161 2.181953 0.091251 0.000197 -40174.500000 0 0 1
27.922596 18.050496 -23.350581 40.629317 0.573874 2.183061 0.099755 -0.010251 -218850.000000 0 0 1
29.075896 18.355796 -22.600081 41.147377 0.563121 2.152259 0.114520 -0.024455 -1088230.000000 0 0 1
30.097096 17.642996 -23.174981 41.883054 0.530213 2.157148 0.108305 -0.020433 -756208.000000 0 0 1
31.395496 17.614696 -22.337081 42.366258 0.511293 2.126143 0.113209 -0.020672 -67727.700000 0 0 1
31.987096 18.861996 -22.206981 43.267761 0.532793 2.109758 0.093924 -0.020214 617260.000000 0 0 1
33.404996 18.776496 -21.980981 44.177076 0.512075 2.091586 0.089530 -0.019389 1006260.000000 0 0 1
33.957396 19.790096 -20.955981 44.541057 0.527670 2.060639 0.087396 -0.024943 -104370.000000 0 0 1
33.441296 19.613196 -19.667881 43.472097 0.530431 2.040279 0.104936 -0.020508 200746.000000 0 0 1
33.934196 20.625496 -18.787581 43.930785 0.546141 2.012702 0.086439 -0.011968 94737.700000 0 0 1
33.160196 20.573496 -17.436781 42.742352 0.555304 1.991005 0.086148 -0.021972 8603.760000 0 0 1
33.338296 19.438796 -16.663581 42.035505 0.527883 1.978407 0.085333 -0.031805 88050.000000 0 0 1
32.932696 19.546596 -15.322381 41.248118 0.535650 1.951387 0.078621 -0.030117 -421579.000000 0 0 1
33.427196 18.350796 -14.483481 40.790935 0.502058 1.933781 0.070428 -0.019352 172109.000000 0 0 1
34.852796 18.237996 -14.567081 41.946892 0.482103 1.925459 0.049327 -0.020608 813979.000000 0 0 1
35.532796 17.363296 -13.641281 41.834772 0.454531 1.902945 0.029114 -0.005535 380508.000000 0 0 1
35.342196 17.698496 -12.150681 41.351501 0.464268 1.869037 0.046232 -0.022909 -377988.000000 0 0 1
36.078196 18.898796 -11.806581 42.405142 0.482528 1.852948 0.033342 -0.030768 -178892.000000 0 0 1
35.864496 19.390596 -10.501681 42.101574 0.495646 1.822895 0.027247 -0.025746 -45142.700000 0 0 1
34.557196 20.221296 -10.284881 41.338594 0.529432 1.822233 0.026836 -0.030816 139631.000000 0 0 1
33.361696 19.541996 -10.537781 40.074146 0.529884 1.836882 0.062899 -0.042470 -1705460.000000 0 0 1
32.325396 20.314096 -10.110381 39.494474 0.561059 1.829673 0.056025 -0.028902 -1479320.000000 0 0 1
31.006096 19.593396 -10.356681 38.112202 0.563561 1.845999 0.060992 -0.022517 -642751.000000 0 0 1
30.795696 19.421196 -11.739881 38.254183 0.562649 1.882721 0.073817 -0.033985 708823.000000 0 0 1
29.491196 18.874996 -12.029581 37.023059 0.569328 1.901725 0.076887 -0.030191 953850.000000 0 0 1
29.343896 18.467496 -13.503681 37.208359 0.561719 1.942197 0.112194 -0.027555 -351922.000000 0 0 1
30.208496 17.398296 -13.714781 37.461302 0.522541 1.945617 0.107043 -0.020151 -240872.000000 0 0 1
29.774896 16.414596 -14.652981 37.022874 0.503833 1.977715 0.096856 -0.018516 -43785.600000 0 0 1
30.957896 15.766096 -15.423481 38.011115 0.471040 1.988609 0.110757 -0.024679 707011.000000 0 0 1
31.806996 14.974996 -14.527481 38.039232 0.440023 1.962656 0.093411 -0.020296 1244540.000000 0 0 1
32.894396 14.337096 -15.231581 38.981978 0.411027 1.972225 0.093644 -0.019311 382727.000000 0 0 1
33.742096 13.443396 -14.340581 39.050047 0.379140 1.946832 0.062709 -0.029747 -716621.000000 0 0 1
34.369196 14.162896 -13.348381 39.496943 0.390878 1.915545 0.053440 -0.014168 -285099.000000 0 0 1
35.011796 13.234996 -12.526681 39.470352 0.361412 1.893750 0.041286 -0.008694 -611330.000000 0 0 1
35.997196 13.866796 -11.545981 40.266559 0.367699 1.861617 0.053184 -0.009265 -343852.000000 0 0 1
-35.262935 14.200596 -12.087981 39.890484 -0.382837 1.878666 0.033005 -0.015726 -267861.000000 0 0 1
-34.332135 14.247996 -11.032981 38.774057 -0.393374 1.859329 0.016705 -0.018674 -987571.000000 0 0 1
-32.910735 14.663696 -11.454281 37.806626 -0.419155 1.878604 0.044592 -0.023657 336702.000000 0 0 1
-32.100835 13.698196 -12.187281 36.968012 -0.403330 1.906751 0.045711 -0.016096 713006.000000 0 0 1
-31.782435 12.559296 -11.368181 36.015199 -0.376331 1.891937 0.058882 -0.008696 -1433910.000000 0 0 1
-30.719335 11.627796 -11.891381 34.932622 -0.361851 1.918148 0.086691 -0.013342 -531942.000000 0 0 1
-31.115635 10.894696 -13.022481 35.446609 -0.336796 1.946990 0.066769 0.001407 263403.000000 0 0 1
-30.251335 9.793996 -13.183081 34.421784 -0.313105 1.963824 0.090027 -0.010073 -70631.100000 0 0 1
-30.472335 9.170296 -14.519381 34.978135 -0.292317 1.998848 0.095008 -0.017687 -314731.000000 0 0 1
-31.652135 8.445096 -14.703981 35.907998 -0.260736 1.992692 0.065491 -0.009902 -103771.000000 0 0 1
-31.601035 7.818896 -15.945681 36.249486 -0.242554 2.026269 0.085954 -0.024425 -598803.000000 0 0 1
-32.929835 7.301796 -16.514881 37.555712 -0.218207 2.026109 0.090741 -0.027090 -403848.000000 0 0 1
-33.491235 6.296396 -15.685181 37.514428 -0.185832 2.002161 0.093608 -0.026449 169060.000000 0 0 1
-34.466935 5.560396 -16.417581 38.580105 -0.159947 2.010361 0.060369 -0.027130 -116869.000000 0 0 1
-35.249235 4.709896 -15.374481 38.743597 -0.132830 1.978853 0.061137 -0.022401 512477.000000 0 0 1
36.126796 4.014196 -15.894481 39.672329 0.110660 1.983016 0.060265 -0.020826 569804.000000 0 0 1
35.183596 3.611596 -14.932181 38.391393 0.102292 1.970284 0.062813 -0.015599 263289.000000 0 0 1
34.147796 2.572596 -15.369381 37.535424 0.075195 1.992662 0.064059 -0.011423 -302545.000000 0 0 1
34.713596 1.283396 -15.500081 38.038577 0.036954 1.990493 0.071412 -0.012349 86782.200000 0 0 1
33.767296 0.242296 -15.454381 37.136597 0.007175 2.000003 0.061404 -0.011186 -39754.300000 0 0 1
33.070996 0.054696 -14.077481 35.942582 0.001654 1.973238 0.066117 -0.018875 -411137.000000 0 0 1
33.970296 -0.456104 -13.107781 36.414323 -0.013426 1.939024 0.083158 -0.018482 359697.000000 0 0 1
33.646396 -0.104804 -11.815881 35.660987 -0.003115 1.908519 0.085145 -0.011474 -195033.000000 0 0 1
34.100196 1.263196 -11.322781 35.953086 0.037027 1.891181 0.085940 -0.019978 -86197.300000 0 0 1
33.128996 2.240896 -11.663981 35.193756 0.067539 1.908607 0.075125 -0.016237 409673.000000 0 0 1
33.414496 3.534696 -11.150681 35.402829 0.105391 1.891217 0.076644 -0.019462 378048.000000 0 0 1
32.310296 4.614196 -11.534381 34.616296 0.141850 1.910499 0.070369 -0.017806 460536.000000 0 0 1
32.322896 4.974596 -12.913981 35.160875 0.152705 1.946882 0.067264 -0.014976 -62072.000000 0 0 1
31.306296 5.813896 -13.350281 34.527026 0.183618 1.967805 0.067757 -0.016317 -620840.000000 0 0 1
31.585796 6.474996 -14.722981 35.445088 0.202196 1.999151 0.044933 -0.015994 -474154.000000 0 0 1
31.393096 5.703096 -15.900981 35.649586 0.179707 2.033127 0.038615 -0.004454 168139.000000 0 0 1
31.869396 6.187296 -17.129681 36.706498 0.191760 2.056314 0.032944 -0.004160 -602369.000000 0 0 1
30.879596 7.246996 -17.726781 36.336031 0.230514 2.080429 0.044498 -0.008626 1353780.000000 0 0 1
29.634496 6.769696 -18.291881 35.477106 0.224586 2.112500 0.026280 -0.004169 1104750.000000 0 0 1
28.708696 6.230596 -17.397481 34.142084 0.213714 2.105471 0.018376 -0.000798 -674080.000000 0 0 1
27.268596 6.027796 -17.965481 33.206462 0.217554 2.142450 0.016966 -0.004731 334767.000000 0 0 1
27.213996 4.991596 -18.959081 33.540488 0.181404 2.171544 0.021358 -0.002219 187520.000000 0 0 1
26.068496 5.113396 -19.775881 33.117952 0.193693 2.210721 0.018485 -0.004378 -84065.700000 0 0 1
25.712396 3.838596 -20.537981 33.131115 0.148195 2.239412 0.022105 0.008924 -311245.000000 0 0 1
25.045296 2.887596 -19.782081 32.045839 0.114788 2.236110 0.027701 -0.001954 -47552.000000 0 0 1
24.761696 1.731996 -20.542081 32.219846 0.069833 2.262123 0.036728 -0.007957 114330.000000 0 0 1
23.688096 0.854396 -19.803281 30.887308 0.036053 2.266787 0.046183 -0.014102 415620.000000 0 0 1
22.396796 1.431896 -19.816681 29.939399 0.063846 2.294138 0.046560 -0.020214 -144350.000000 0 0 1
21.508696 0.634696 -19.102481 28.773801 0.029500 2.296798 0.051572 -0.017336 -658224.000000 0 0 1
20.172296 1.275396 -18.757781 27.575397 0.063141 2.318881 0.046275 -0.021159 -1284300.000000 0 0 1
19.351496 1.532896 -19.855281 27.768009 0.079048 2.367480 0.055484 -0.017799 -25899.800000 0 0 1
18.325496 2.473196 -19.621281 26.961735 0.134149 2.385825 0.031630 -0.012022 171744.000000 0 0 1
17.074496 2.041496 -18.855881 25.519607 0.118999 2.402200 0.046921 -0.014877 -1016950.000000 0 0 1
17.344496 2.005196 -17.466081 24.696484 0.115099 2.356368 0.050223 -0.020129 606431.000000 0 1 0
16.153296 1.950696 -16.675381 23.298122 0.120180 2.368478 0.035326 -0.010962 698762.000000 0 1 0
15.320196 3.258096 -16.453281 22.716383 0.209545 2.380802 0.048342 -0.015557 -82501.500000 0 1 0
14.635996 3.583496 -17.623081 23.186781 0.240118 2.434184 0.043760 -0.004988 75088.000000 0 1 0
13.753696 4.674796 -17.461081 22.713591 0.327643 2.447681 0.057321 -0.012688 -56910.500000 0 1 0
-19.785604 -21.789204 -17.774281 34.382621 0.833554 2.114087 0.023812 -0.002442 -119153.000000 0 0 1
-19.783904 -22.661204 -18.877881 35.514890 0.853083 2.131224 0.041577 -0.010650 -18220.000000 0 0 1
-20.735604 -22.383704 -19.859181 36.405804 0.823601 2.147776 0.033726 -0.004498 -458798.000000 0 0 1
-20.468204 -23.262804 -21.084981 37.479086 0.849216 2.168299 0.033581 -0.005668 12971.500000 0 0 1
-20.542804 -24.662704 -20.867181 38.284397 0.876284 2.147254 0.040954 -0.012453 123593.000000 0 0 1
-19.917404 -25.271214 -21.950181 38.950580 0.903325 2.169460 0.041178 -0.015097 -246570.000000 0 0 1
-19.934904 -26.796594 -21.821881 39.895518 0.931189 2.149544 0.049323 -0.005309 136383.000000 0 0 1
-21.204104 -27.416704 -21.947281 41.024052 0.912486 2.135287 0.042766 0.005816 97527.200000 0 0 1
-20.978104 -28.785354 -21.750581 41.734461 0.941017 2.119013 0.089017 -0.014424 -114465.000000 0 0 1
-22.229804 -29.666244 -21.838781 43.025371 0.927724 2.103169 0.072744 -0.007390 77745.600000 0 0 1
-22.904304 -29.700994 -23.099681 44.049421 0.913888 2.122811 0.042153 0.001561 86628.600000 0 0 1
-22.233804 -30.491704 -24.046981 44.747551 0.940757 2.138138 0.049646 0.000394 -232228.000000 0 0 1
-22.429504 -29.864694 -25.462981 45.203385 0.926632 2.169168 0.038059 0.005298 -363174.000000 0 0 1
-23.755504 -29.990984 -25.883131 46.192203 0.900898 2.165587 0.031439 0.011753 -344729.000000 0 0 1
-24.121704 -29.103464 -26.923961 46.408705 0.878724 2.189708 0.029755 0.014779 -91724.700000 0 0 1
-23.602804 -29.278374 -28.376801 47.112189 0.892316 2.217206 0.038803 -0.004250 -225385.000000 0 0 1
-24.092404 -30.503104 -28.847531 48.405200 0.902285 2.209256 0.034476 0.003561 264979.000000 0 0 1
-23.633304 -30.633144 -30.167981 49.061489 0.913680 2.233057 0.049650 0.000100 -340549.000000 0 0 1
-24.191104 -31.847234 -30.966771 50.580597 0.921181 2.229670 0.028382 -0.001618 -71074.200000 0 0 1
-23.796304 -33.088764 -30.493601 50.901769 0.947323 2.213132 0.034621 -0.007398 87289.700000 0 0 1
-24.612804 -34.066390 -31.130511 52.301222 0.945132 2.208330 0.033291 -0.007347 147766.000000 0 0 1
-24.101504 32.995371 -31.055691 51.322831 -0.939924 2.220694 0.052015 -0.013098 -462180.000000 0 0 1
-23.141404 32.628087 -31.955761 51.198509 -0.953891 2.244845 0.051649 -0.020274 -747250.000000 0 0 1
-22.843104 31.225025 -31.890511 50.137952 -0.939199 2.260172 0.067022 -0.011376 533019.000000 0 0 1
-21.562904 30.840555 -32.722841 49.868657 -0.960625 2.286542 0.059656 -0.004927 614163.000000 0 0 1
-21.769904 30.746375 -34.126222 50.831755 -0.954690 2.306834 0.042698 0.003390 313403.000000 0 0 1
-20.828804 29.812365 33.856513 49.687822 -0.960968 0.821144 0.030883 0.006817 213653.000000 0 0 1
-20.900504 29.671345 32.343303 48.613877 -0.957123 0.842887 0.017245 0.006410 -70746.000000 0 0 1
-20.344504 30.742695 31.607533 48.559740 -0.986193 0.862027 0.019624 0.005424 225896.000000 0 0 1
-20.306704 30.473065 30.227573 47.483430 -0.982991 0.880725 0.030505 0.007695 -242825.000000 0 0 1
-19.875104 31.758965 29.420813 47.636497 -1.011614 0.905095 0.022748 -0.005258 -501975.000000 0 0 1
-20.887404 32.681921 29.211883 48.556418 -1.002113 0.925285 0.016657 0.003322 -519986.000000 0 0 1
-20.430404 34.007569 29.153353 49.232450 -1.029818 0.937063 0.021524 -0.012021 -722101.000000 0 0 1
-21.503904 -33.483514 29.115203 49.307795 0.999907 0.939144 0.021802 -0.020968 -579424.000000 0 0 1
-21.761304 -33.131884 30.458033 49.989678 0.989650 0.915636 0.024531 -0.010495 211388.000000 0 0 1
-22.856104 -32.251694 30.688383 50.043483 0.954269 0.910648 0.030125 -0.015000 119106.000000 0 0 1
-22.542804 -30.757674 30.513983 48.839694 0.938319 0.895949 0.047625 -0.013983 -501787.000000 0 0 1
-22.433404 -30.426104 29.106253 47.709322 0.935468 0.914641 0.024509 -0.009075 -4621.870000 0 0 1
-22.166904 -29.102674 28.877023 46.607079 0.919862 0.902583 0.044614 -0.021327 -1039540.000000 0 0 1
-23.382104 -28.363974 28.372133 46.435071 0.881378 0.913465 0.042051 -0.020724 -2163230.000000 0 0 1
-24.409704 -28.280894 29.281943 47.466566 0.858737 0.906003 0.040761 -0.011518 -72955.200000 0 0 1
-25.478184 -29.209064 29.124123 48.482181 0.853515 0.926397 0.025254 -0.003896 -228442.000000 0 0 1
-26.320794 -29.245974 27.807363 48.180501 0.837992 0.955562 0.005397 -0.007729 -550922.000000 0 0 1
-25.628804 -29.569084 26.613283 47.322650 0.856662 0.973536 0.006506 -0.005537 -295363.000000 0 0 1
-26.631324 -29.664534 25.661233 47.410030 0.839226 0.998859 0.003237 -0.003763 -359645.000000 0 0 1
-26.154344 -29.933764 24.247983 46.562266 0.852680 1.023050 0.009325 -0.005262 -647597.000000 0 0 1
-25.621314 -28.775654 23.622463 45.194146 0.843321 1.020795 0.005100 -0.005514 168442.000000 0 0 1
-25.150004 -28.983654 22.311223 44.388801 0.856098 1.044156 0.019974 -0.008870 -30829.400000 0 0 1
-24.014104 -29.994194 22.009723 44.280434 0.895674 1.050597 0.014761 -0.012550 -550721.000000 0 0 1
-24.344104 -31.375124 22.053823 45.424717 0.910921 1.063858 0.005356 -0.018515 -227007.000000 0 0 1
-23.205804 -32.142564 21.803023 45.244067 0.945480 1.067977 0.017323 -0.003724 -445342.000000 0 0 1
-22.582104 -32.735504 23.058223 45.970059 0.966925 1.045358 0.010389 -0.004577 -370804.000000 0 0 1
-21.755604 -31.890894 23.796063 45.349621 0.972125 1.018405 0.038061 -0.020963 -181786.000000 0 0 1
-21.053904 -32.620424 24.765723 46.051059 0.997647 1.002985 0.049953 -0.029415 -190355.000000 0 0 1
-20.114904 -31.645614 25.528953 45.362779 1.004589 0.973060 0.054364 -0.028202 -1024780.000000 0 0 1
-18.964604 -31.187164 24.904593 44.187489 1.024449 0.972045 0.063505 -0.033579 -333596.000000 0 0 1
-17.999004 -30.601984 25.750193 43.857930 1.039125 0.943291 0.079372 -0.032026 338740.000000 0 0 1
-17.088104 -31.596344 26.514673 44.647062 1.075024 0.934932 0.070683 -0.035666 -229245.000000 0 0 1
-17.832804 -32.226484 27.576443 46.011036 1.065378 0.928115 0.057937 -0.021476 599867.000000 0 0 1
-16.938804 -32.642514 28.594013 46.584058 1.092129 0.909912 0.064433 -0.014692 -114188.000000 0 0 1
-17.293604 -32.204144 30.045853 47.317322 1.077989 0.882805 0.075025 -0.017874 -64311.200000 0 0 1
-17.245204 -30.782964 30.115613 46.388987 1.060141 0.864267 0.067927 -0.014309 198233.000000 0 0 1
-17.558504 -30.373804 31.420753 47.097057 1.046650 0.840421 0.074454 -0.014892 -189474.000000 0 0 1
-17.309904 -28.835714 31.587623 46.140103 1.030161 0.816738 0.067769 -0.016232 67147.200000 0 0 1
-18.185704 -27.894654 30.961293 45.469036 0.993057 0.821763 0.087280 -0.015662 166339.000000 0 0 1
-18.250604 -27.963304 29.547643 44.588050 0.992552 0.846404 0.082813 -0.018421 -354208.000000 0 0 1
-16.996104 -27.678884 28.699923 43.343671 1.020113 0.847115 0.083193 -0.012940 -253034.000000 0 0 1
-16.607904 -26.302714 28.639173 42.283064 1.007598 0.826682 0.068358 -0.011236 -242547.000000 0 0 1
-15.531504 -26.225874 27.750503 41.220317 1.036117 0.832236 0.048709 -0.010988 -388668.000000 0 0 1
-15.438604 -24.906704 26.942213 39.806749 1.015904 0.827355 0.050926 0.002186 -429903.000000 0 0 1
-16.484704 -24.664804 26.017493 39.458941 0.981630 0.850834 0.077721 -0.021033 -30731.900000 0 0 1
-16.313004 -23.585604 25.117563 38.121999 0.965696 0.851476 0.058759 -0.011164 -104135.000000 0 0 1
-16.615104 -22.199304 25.716803 37.818313 0.928287 0.823021 0.066816 -0.007275 -317824.000000 0 0 1
-16.708504 -21.201104 24.750293 36.622916 0.903356 0.828727 0.048917 -0.001218 47421.200000 0 0 1
-17.270304 -19.995104 25.189563 36.504544 0.858387 0.809253 0.046178 0.006070 -283587.000000 0 0 1
-16.873504 -18.777204 24.306313 35.044192 0.838746 0.804335 0.034252 -0.001614 536858.000000 0 0 1
-15.519204 -18.320204 24.296823 34.158618 0.867983 0.779459 0.030078 -0.001729 325095.000000 0 0 1
-15.330004 -17.276504 23.405323 32.883062 0.845024 0.778775 0.023038 -0.002630 -1658870.000000 0 0 1
-14.032504 -16.598704 23.530093 32.032693 0.868980 0.745771 0.046138 -0.005650 -1809590.000000 0 0 1
-12.893004 -17.442404 23.369223 31.883971 0.934259 0.748154 0.008747 -0.000535 736748.000000 0 0 1
-11.665904 -16.704904 23.521203 31.119032 0.961177 0.713851 0.013517 -0.009648 403432.000000 0 0 1
-11.268704 -15.821004 22.330723 29.596437 0.951888 0.715893 0.016514 -0.010036 -835626.000000 0 0 1
-10.731704 -16.608204 21.219723 29.004803 0.997119 0.750140 0.039120 -0.006570 710431.000000 0 0 1
-9.294704 -16.619004 21.337823 28.598698 1.060855 0.728593 0.035065 -0.006711 249832.000000 0 0 1
-8.731304 -17.864904 20.671223 28.682572 1.116197 0.766000 0.034763 -0.007669 -209230.000000 0 0 1
-8.673804 -17.713904 19.278823 27.580615 1.115454 0.796799 0.033658 -0.008278 -220860.000000 0 0 1
-8.259304 -18.899404 18.686023 27.831117 1.158794 0.834690 0.032774 -0.006344 111460.000000 0 0 1
-8.101804 -18.801404 17.165923 26.717054 1.163926 0.873029 0.029758 -0.016016 492571.000000 0 0 1
-7.075204 -17.843204 16.805323 25.511906 1.193293 0.851674 0.040355 -0.014211 473710.000000 0 0 1
-6.907004 -17.894704 15.390723 24.592713 1.202434 0.894608 0.056054 -0.020471 232985.000000 0 1 0
-5.941304 -16.755604 14.974623 23.244111 1.230042 0.870776 0.041337 -0.019381 147101.000000 0 1 0
-6.355404 -15.521104 15.557623 22.876527 1.182154 0.822939 0.040831 -0.025365 -482391.000000 0 1 0
-5.391004 -14.519904 15.512423 21.920899 1.215288 0.784623 0.034907 -0.020051 -609077.000000 0 1 0
-5.576504 -13.388804 16.512423 21.977661 1.176143 0.720725 0.021582 -0.013456 -303895.000000 0 1 0
-5.328904 -13.747104 17.895423 23.186769 1.200992 0.689138 0.030795 -0.009590 -240981.000000 0 1 0
-6.107604 -14.738504 18.528323 24.450462 1.177940 0.710876 0.046524 -0.015314 -773672.000000 0 1 0
-7.344904 -14.108904 19.152223 24.896113 1.090816 0.693074 0.053987 -0.022607 -889291.000000 0 1 0
-7.140204 -13.283304 20.283423 25.275402 1.077576 0.639329 0.050934 -0.021374 -575508.000000 0 0 1
-8.283104 -12.692304 20.826923 25.757817 0.992590 0.629084 0.050114 -0.014913 -135294.000000 0 0 1
-7.872004 -11.811404 22.012523 26.192153 0.982927 0.572731 0.050499 -0.010632 -379258.000000 0 0 1
-7.268004 -10.597104 21.718623 25.235315 0.969632 0.534263 0.035523 -0.006743 -15156.200000 0 0 1
-7.142004 -9.780304 22.846723 25.857984 0.940060 0.487416 0.040941 -0.008653 591965.000000 0 0 1
-5.820004 -10.053704 23.660083 26.358091 1.046042 0.456411 0.047404 -0.001591 563937.000000 0 0 1
-5.799104 -11.279504 24.400013 27.499409 1.095911 0.479356 0.051381 -0.002819 -1385970.000000 0 0 1
-4.465004 -11.418804 24.653893 27.534339 1.198053 0.461496 0.050044 -0.006207 -1367940.000000 0 0 1
-4.097904 -12.749204 25.330173 28.652272 1.259802 0.486329 0.049768 -0.013410 -311887.000000 0 0 1
-2.746004 -12.981004 25.667863 28.894398 1.362329 0.477093 0.048342 -0.016134 84840.300000 0 0 1
-2.570904 -14.071604 26.551983 30.160030 1.390088 0.494155 0.050760 -0.019701 -47000.400000 0 0 1
-2.592704 -15.535804 25.993243 30.392960 1.405435 0.544785 0.043993 -0.025269 57337.000000 0 0 1
-1.507004 -15.737004 25.091623 29.656600 1.475326 0.562223 0.032319 -0.023045 260578.000000 0 0 1
-1.485804 -17.065804 24.492033 29.888275 1.483952 0.610341 0.025799 -0.020057 -515702.000000 0 0 1
-0.183604 -17.850904 24.677093 30.457305 1.560511 0.626270 0.030642 -0.024070 -341166.000000 0 0 1
0.234296 -18.309604 25.973113 31.778910 -1.558001 0.614075 0.042985 -0.028054 -60426.600000 0 0 1
0.688096 -17.363604 26.897403 32.022469 -1.531188 0.573598 0.053075 -0.029074 -363436.000000 0 0 1
1.044196 -17.971504 28.277243 33.521155 -1.512759 0.566911 0.050194 -0.023593 -1062940.000000 0 0 1
2.069696 -18.924204 28.173413 34.002211 -1.461862 0.594237 0.049301 -0.019328 -273705.000000 0 0 1
2.833496 -19.060304 29.339443 35.101664 -1.423218 0.581132 0.056207 -0.024553 241321.000000 0 0 1
3.924596 -17.980804 29.528573 34.794373 -1.355901 0.557351 0.075210 -0.023021 -698688.000000 0 0 1
3.299696 -16.759104 29.799533 34.347748 -1.376393 0.520474 0.064775 -0.032554 -333737.000000 0 0 1
4.254796 -15.908804 30.319643 34.503248 -1.309464 0.497565 0.072155 -0.041446 -316709.000000 0 0 1
3.600896 -14.763804 31.174573 34.681269 -1.331567 0.453571 0.074252 -0.033584 502303.000000 0 0 1
2.827996 -15.300804 32.262973 35.819152 -1.388032 0.449376 0.069343 -0.038592 388908.000000 0 0 1
1.860196 -14.329904 32.643289 35.698611 -1.441706 0.416740 0.054865 -0.023842 76836.200000 0 0 1
0.996796 -14.719204 33.866276 36.940131 -1.503179 0.410834 0.042114 -0.019626 222231.000000 0 0 1
1.736896 -14.776904 -33.452311 36.611894 -1.453792 2.723095 0.061071 -0.014106 -8670.830000 0 0 1
0.893196 -15.238904 -32.418791 35.832946 -1.512250 2.701519 0.037983 -0.023747 230790.000000 0 0 1
1.646396 -15.309104 -31.092481 34.696133 -1.463664 2.681783 0.048021 -0.015543 219166.000000 0 0 1
1.133596 -16.344104 -30.230401 34.384472 -1.501549 2.644951 0.039664 -0.014181 -766.045000 0 0 1
1.844496 -16.316904 -28.992301 33.319619 -1.458232 2.626256 0.037613 -0.016260 211558.000000 0 0 1
1.461496 -17.395304 -27.909201 32.918932 -1.486976 2.582650 0.053305 -0.016396 -194020.000000 0 0 1
2.027696 -18.620804 -28.276491 33.917633 -1.462330 2.556537 0.058345 -0.017241 194070.000000 0 0 1
1.605996 -19.637704 -27.391211 33.741622 -1.489197 2.518012 0.066306 -0.020820 -419237.000000 0 0 1
2.429596 -20.984904 -27.668281 34.810960 -1.455531 2.489499 0.057010 -0.025556 -269034.000000 0 0 1
3.724896 -20.936204 -27.171921 34.503808 -1.394722 2.477546 0.051522 -0.026015 -811133.000000 0 0 1
3.930296 -20.962304 -25.763261 33.445643 -1.385455 2.450112 0.052232 -0.023957 -805701.000000 0 0 1
5.394496 -21.323704 -25.401961 33.601496 -1.323014 2.427942 0.042449 -0.023731 214998.000000 0 0 1
5.712496 -22.730404 -25.523751 34.652067 -1.324580 2.398785 0.050870 -0.022574 141477.000000 0 0 1
5.973496 -23.150004 -26.827651 35.935055 -1.318270 2.413672 0.045038 -0.026083 -677864.000000 0 0 1
5.538296 -24.583504 -27.190511 37.072163 -1.349211 2.394177 0.032110 -0.019168 125957.000000 0 0 1
6.343596 -25.532264 -26.557551 37.382365 -1.327273 2.360905 0.045274 -0.010460 -216441.000000 0 0 1
5.658496 -26.721714 -26.750601 38.231705 -1.362122 2.345769 0.038529 -0.011440 91782.900000 0 0 1
6.081996 -27.876014 -25.851681 38.501588 -1.355982 2.306953 0.040818 -0.010607 1021600.000000 0 0 1
7.472196 -28.249324 -25.955001 39.083502 -1.312210 2.297074 0.036745 -0.009596 671692.000000 0 0 1
7.630596 -29.550164 -25.321041 39.655937 -1.318091 2.263368 0.041971 -0.007338 415173.000000 0 0 1
9.038796 -30.111634 -25.686891 40.598359 -1.279178 2.255841 0.049716 -0.014545 372405.000000 0 0 1
9.206296 -30.120374 -27.066371 41.528078 -1.274164 2.280700 0.047233 -0.014246 163601.000000 0 0 1
10.461996 -30.673124 -27.438501 42.463693 -1.242090 2.273344 0.052486 -0.021480 231833.000000 0 0 1
10.618896 -30.695524 -28.958661 43.515287 -1.237740 2.298936 0.050494 -0.014925 -73715.900000 0 0 1
9.796296 -31.612644 -29.697111 44.466224 -1.270295 2.302123 0.046984 -0.025054 292241.000000 0 0 1
9.957296 -31.325364 -31.079771 45.236914 -1.263030 2.328210 0.059358 -0.023458 20036.800000 0 0 1
-35.088987 -4.291304 -5.437781 35.766210 0.121693 1.723425 0.103197 -0.016783 111961.000000 0 0 1
-34.298322 -3.682304 -4.404181 34.775438 0.106951 1.697784 0.103979 -0.025667 679566.000000 0 0 1
-33.480254 -2.588204 -4.830281 33.925769 0.077152 1.713660 0.118775 -0.025396 245543.000000 0 0 1
-34.254547 -1.371304 -5.476681 34.716689 0.040011 1.729212 0.136961 -0.018138 -321227.000000 0 0 1
-34.889039 -0.583404 -4.515181 35.184830 0.016720 1.699479 0.112497 -0.015106 -299400.000000 0 0 1
-35.769743 0.256296 -5.193081 36.145654 -0.007165 1.714966 0.103776 -0.024102 -61361.800000 0 0 1
35.835636 1.050496 -4.199481 36.096150 0.029306 1.687402 0.117541 -0.022338 267375.000000 0 0 1
-36.038254 2.197096 -3.681481 36.292372 -0.060890 1.672411 0.113833 -0.023439 65507.200000 0 0 1
35.628666 2.912096 -2.828081 35.859172 0.081553 1.649745 0.107646 -0.022672 -135717.000000 0 0 1
-36.244264 4.266496 -2.392881 36.572880 -0.117176 1.636271 0.088795 -0.026567 -108708.000000 0 0 1
-36.049714 5.090796 -3.525781 36.577715 -0.140288 1.667338 0.098678 -0.021373 734421.000000 0 0 1
-34.712263 5.196896 -4.027781 35.329477 -0.148610 1.685051 0.078261 -0.016846 477310.000000 0 0 1
-33.839064 6.281496 -3.348181 34.579615 -0.183539 1.667774 0.061417 -0.025270 -382268.000000 0 0 1
-33.453434 6.025096 -2.013581 34.051263 -0.178194 1.629965 0.069255 -0.026899 280997.000000 0 0 1
-33.201314 7.271496 -1.446281 34.019019 -0.215608 1.613323 0.071662 -0.037781 -69408.700000 0 0 1
-32.395074 7.146096 -0.103781 33.174060 -0.217115 1.573925 0.064615 -0.046478 477509.000000 0 0 1
-30.997544 6.827296 -0.282481 31.741763 -0.216791 1.579696 0.071479 -0.042768 1225590.000000 0 0 1
-30.156904 7.260096 0.776819 31.028234 -0.236248 1.545758 0.083502 -0.038407 127798.000000 0 0 1
-29.923914 8.755596 0.981219 31.193972 -0.284650 1.539336 0.085149 -0.040665 -1047060.000000 0 0 1
-31.127194 9.406996 1.294619 32.543353 -0.293484 1.531004 0.078961 -0.051716 -122042.000000 0 0 1
-30.883364 10.785696 1.386919 32.741975 -0.335997 1.528425 0.085461 -0.035054 -94634.200000 0 0 1
-32.129674 11.686196 1.438819 34.219195 -0.348845 1.528737 0.077254 -0.045132 -428412.000000 0 0 1
-32.846314 11.807796 0.201419 34.904798 -0.345101 1.565026 0.071598 -0.039497 904820.000000 0 0 1
-33.939434 12.738096 0.315619 36.252502 -0.359050 1.562090 0.068524 -0.027257 -158223.000000 0 0 1
-35.274245 12.074396 0.576219 37.288006 -0.329799 1.555343 0.087249 -0.045677 -984172.000000 0 0 1
-35.704383 11.296096 -0.516081 37.452251 -0.306414 1.584576 0.079598 -0.045561 530385.000000 0 0 1
35.444986 10.873596 -0.464981 37.078273 0.297660 1.583337 0.096476 -0.048980 659623.000000 0 0 1
35.035576 9.645296 -1.249081 36.360467 0.268645 1.605156 0.101452 -0.041210 47364.000000 0 0 1
34.933076 9.899896 -2.668181 36.406688 0.276155 1.644150 0.093019 -0.036089 203856.000000 0 0 1
34.383116 8.780096 -3.329381 35.642300 0.250018 1.664344 0.083486 -0.044744 -202363.000000 0 0 1
33.742906 9.064296 -4.666681 35.249441 0.262433 1.703576 0.062936 -0.034139 794799.000000 0 0 1
32.410436 9.618896 -4.591481 34.118049 0.288504 1.705782 0.084793 -0.037387 1097680.000000 0 0 1
31.867226 9.774096 -5.889981 33.848854 0.297604 1.745695 0.068137 -0.023627 22485.400000 0 0 1
30.461426 10.418896 -5.964981 32.741913 0.329562 1.754001 0.093247 -0.021938 -289891.000000 0 0 1
29.438726 9.519196 -5.700181 31.460225 0.312744 1.752990 0.091939 -0.017652 -1015830.000000 0 0 1
28.222596 10.013396 -6.111181 30.563533 0.340945 1.772103 0.114616 -0.009649 -478417.000000 0 0 1
27.102226 8.893296 -6.155581 29.180688 0.317068 1.783340 0.123635 0.002262 346770.000000 0 0 1
27.288926 7.951096 -7.157681 29.311053 0.283518 1.817488 0.111702 -0.002036 -64664.700000 0 0 1
26.129126 7.212896 -7.372481 28.091112 0.269340 1.836355 0.118093 -0.008697 -523062.000000 0 0 1
26.246026 6.314196 -8.644281 28.345133 0.236091 1.880698 0.103099 -0.014454 -623058.000000 0 0 1
27.179026 5.300996 -8.523381 28.973230 0.192622 1.869395 0.099270 -0.016966 158133.000000 0 0 1
27.010526 4.386796 -9.622181 29.006876 0.161005 1.908923 0.087961 -0.014491 -236188.000000 0 0 1
28.035116 3.239896 -9.648381 29.825424 0.115055 1.900217 0.074677 -0.009477 359969.000000 0 0 1
29.408816 3.589896 -9.863681 31.225919 0.121468 1.892182 0.099296 -0.009276 1308210.000000 0 0 1
30.379836 3.050696 -8.983281 31.826727 0.100083 1.856941 0.081571 -0.022687 15348.200000 0 0 1
30.548256 1.503796 -8.818881 31.831274 0.049187 1.851520 0.087893 -0.021322 -443354.000000 0 0 1
29.531746 0.996396 -7.949281 30.599149 0.033727 1.833599 0.099792 -0.025994 674055.000000 0 0 1
29.851176 -0.302304 -7.429781 30.763384 -0.010127 1.814722 0.093241 -0.018579 -306950.000000 0 0 1
29.717996 -1.574904 -8.245881 30.880968 -0.052945 1.841097 0.078125 -0.016763 -521045.000000 0 0 1
30.564536 -1.751104 -9.359681 32.013448 -0.057229 1.867498 0.076874 -0.017811 29754.900000 0 0 1
30.421096 -2.993004 -9.965981 32.151547 -0.098070 1.885957 0.060545 -0.017164 -274496.000000 0 0 1
31.401056 -3.335704 -11.097081 33.470860 -0.105832 1.908737 0.057545 -0.016479 1250700.000000 0 0 1
32.802986 -3.576904 -10.754181 34.705656 -0.108613 1.885851 0.083367 -0.008622 1327930.000000 0 0 1
33.485926 -3.888804 -11.931981 35.760344 -0.115615 1.910985 0.070909 -0.025818 -545022.000000 0 0 1
34.874956 -4.384204 -11.481681 36.977193 -0.125056 1.886523 0.091368 -0.016291 -461634.000000 0 0 1
34.893916 -5.581904 -10.661681 36.910899 -0.158624 1.863821 0.090669 -0.016453 -865252.000000 0 0 1
36.169346 -5.963904 -10.332981 38.086222 -0.163418 1.845545 0.093533 -0.005851 -1006920.000000 0 0 1
36.147336 -7.179404 -9.352881 38.021706 -0.196064 1.819335 0.094303 -0.015742 -234977.000000 0 0 1
35.733636 -6.856304 -8.044081 37.264043 -0.189569 1.788376 0.079870 -0.004948 428859.000000 0 0 1
35.592766 -8.083504 -7.340681 37.230010 -0.223323 1.769268 0.080039 -0.004791 -317353.000000 0 0 1
35.240976 -7.939704 -5.855181 36.595744 -0.221598 1.731483 0.078127 -0.004629 -420210.000000 0 0 1
-36.158794 -7.630304 -5.031581 37.296069 0.207971 1.706118 0.079727 -0.002350 465177.000000 0 0 1
-35.834588 -8.590904 -4.013781 37.067935 0.235297 1.679291 0.084836 -0.006249 -227378.000000 0 0 1
-35.269137 -9.968204 -4.509981 36.927186 0.275448 1.693234 0.080744 -0.004995 -196463.000000 0 0 1
-36.111104 -10.779304 -5.343181 38.062512 0.290084 1.711641 0.071669 -0.007777 293861.000000 0 0 1
-35.288136 -11.590304 -6.141181 37.647069 0.317347 1.734654 0.065054 -0.004029 -104576.000000 0 0 1
-35.909872 -12.134404 -7.466081 38.632953 0.325866 1.765277 0.072154 -0.015583 -68300.500000 0 0 1
-36.138424 -11.126404 -8.442981 38.743599 0.298673 1.790478 0.071670 -0.017109 118627.000000 0 0 1
35.867366 -11.866404 -9.515781 38.959333 -0.319506 1.817542 0.083832 -0.012364 -123123.000000 0 0 1
36.061166 -11.119504 -10.808581 39.254000 -0.299101 1.849750 0.072084 -0.017615 -670772.000000 0 0 1
35.099726 -10.115304 -11.005381 38.150080 -0.280585 1.863431 0.068947 -0.016786 94739.600000 0 0 1
35.262776 -9.443204 -12.232181 38.500179 -0.261656 1.894118 0.066843 -0.021072 104392.000000 0 0 1
34.087786 -8.498404 -12.631281 37.332952 -0.244329 1.915950 0.059085 -0.021375 109098.000000 0 0 1
34.379626 -7.930804 -13.925581 37.931230 -0.226717 1.946715 0.065934 -0.019321 12774.900000 0 0 1
33.437106 -7.019104 -14.359981 37.060990 -0.206915 1.968681 0.053536 -0.022146 -587574.000000 0 0 1
33.696946 -6.450304 -15.753281 37.752569 -0.189133 2.001243 0.051641 -0.021859 1001890.000000 0 0 1
34.794086 -5.474904 -15.847481 38.623124 -0.156072 1.993591 0.050380 -0.023091 1597050.000000 0 0 1
34.238736 -4.183604 -15.780481 37.931744 -0.121587 1.999864 0.054832 -0.017550 299090.000000 0 0 1
35.379526 -3.127604 -15.819081 38.881051 -0.088172 1.989809 0.066398 -0.021131 -67414.800000 0 0 1
36.042876 -3.311404 -17.087981 40.025660 -0.091617 2.011887 0.068307 -0.016239 352120.000000 0 0 1
-35.158729 -2.760904 -17.103581 39.195552 0.078366 2.022351 0.081155 -0.012876 244439.000000 0 0 1
-34.822902 -1.270704 -16.846781 38.704822 0.036474 2.021127 0.068624 -0.007112 -653381.000000 0 0 1
-35.119549 -0.399704 -17.951781 39.443743 0.011381 2.043307 0.066715 -0.010940 280845.000000 0 0 1
-34.764768 0.868796 -17.441581 38.904404 -0.024985 2.035680 0.071495 -0.013370 105090.000000 0 0 1
-35.243470 2.025896 -18.372881 39.796598 -0.057420 2.050673 0.057022 -0.011866 -133437.000000 0 0 1
-34.312693 2.401596 -19.361181 39.471305 -0.069878 2.083474 0.057992 -0.006387 96207.200000 0 0 1
-34.498085 3.683496 -19.880781 39.986641 -0.106371 2.091148 0.058594 -0.000860 -864747.000000 0 0 1
-33.658664 3.986096 -21.083981 39.916524 -0.117878 2.127278 0.051103 0.003531 -422282.000000 0 0 1
-32.304774 4.115796 -20.687081 38.580999 -0.126722 2.136724 0.046968 0.001935 -17193.500000 0 0 1
-31.518554 4.425596 -21.797181 38.576187 -0.139500 2.171281 0.037324 0.001250 1074220.000000 0 0 1
-29.950774 4.580696 -21.597881 37.208871 -0.151765 2.190077 0.056128 0.000199 1414760.000000 0 0 1
-29.305694 3.386296 -21.153781 36.301145 -0.115041 2.192881 0.049881 0.010884 1118090.000000 0 0 1
-27.880704 3.618696 -21.289181 35.265533 -0.129071 2.218908 0.045668 0.011680 998242.000000 0 0 1
-27.108934 2.510696 -20.544781 34.106977 -0.092352 2.217254 0.069384 -0.004330 -236514.000000 0 0 1
-26.729524 2.891196 -19.251881 33.067528 -0.107746 2.192227 0.070501 -0.000873 115400.000000 0 0 1
-26.016094 1.915296 -18.524981 31.995006 -0.073487 2.188293 0.073025 -0.001731 -295786.000000 0 0 1
-25.201814 2.400596 -17.310081 30.668113 -0.094968 2.170542 0.073876 -0.010842 271756.000000 0 0 1
-24.050304 3.133396 -17.723981 30.039554 -0.129555 2.201882 0.062940 -0.010497 364291.000000 0 0 1
-23.307504 3.632496 -16.609781 28.849949 -0.154607 2.184293 0.071804 -0.017358 108305.000000 0 0 1
-22.168404 4.563296 -17.002781 28.308238 -0.203011 2.215085 0.067767 -0.016993 430927.000000 0 0 1
-21.047604 4.043496 -17.735581 27.819100 -0.189799 2.262088 0.081370 -0.009093 785959.000000 0 0 1
-19.879804 4.836496 -17.535781 26.946278 -0.238651 2.279392 0.071369 -0.008725 -624353.000000 0 0 1
-18.634504 4.115896 -17.926481 26.182896 -0.217385 2.324939 0.078004 -0.011110 -1205070.000000 0 0 1
-18.531204 2.952596 -17.200081 25.455179 -0.158003 2.312711 0.105722 -0.015703 14841.200000 0 0 1
-17.421404 2.167296 -17.599281 24.858342 -0.123768 2.357434 0.079303 -0.018416 -300444.000000 0 1 0
-17.453204 0.673796 -17.064081 24.418255 -0.038587 2.344549 0.094371 -0.018053 337477.000000 0 1 0
-18.377104 -0.249704 -17.634281 25.470535 0.013587 2.335524 0.078758 -0.014234 1118040.000000 0 0 1
-19.764704 0.001596 -17.339681 26.292738 -0.000081 2.290931 0.084867 -0.023436 491408.000000 0 0 1
-20.764304 -0.991704 -17.919581 27.445422 0.047724 2.282226 0.084264 -0.027751 -312169.000000 0 0 1
-20.681604 -2.223504 -17.193681 26.986948 0.107100 2.261541 0.074580 -0.020339 329226.000000 0 0 1
-21.623204 -3.167604 -17.656381 28.095275 0.145456 2.250351 0.082030 -0.006773 26198.300000 0 0 1
-21.935804 -4.284904 -16.644281 27.867041 0.192909 2.210895 0.089223 -0.006925 90857.500000 0 0 1
-22.422504 -3.863604 -15.377981 27.462309 0.170634 2.165142 0.084773 -0.010926 438677.000000 0 0 1
-23.001404 -4.918104 -14.600381 27.684354 0.210646 2.126319 0.100231 -0.016374 122761.000000 0 0 1
-23.211104 -4.483704 -13.186381 27.069163 0.190820 2.079604 0.087390 -0.015848 24815.200000 0 0 1
-24.101104 -3.380904 -13.099981 27.638799 0.139371 2.064591 0.084347 -0.014984 490119.000000 0 0 1
-24.127004 -2.823704 -11.781581 26.997986 0.116505 2.022376 0.087782 -0.020834 -340444.000000 0 0 1
-24.999404 -1.570804 -11.655081 27.627496 0.062751 2.006298 0.109775 -0.030515 -306862.000000 0 0 1
-25.224854 -1.137204 -10.343281 27.286809 0.045052 1.959574 0.107361 -0.033094 263149.000000 0 0 1
-25.790154 0.124996 -10.401381 27.808926 -0.004847 1.954147 0.119971 -0.032631 -340617.000000 0 0 1
-26.141544 0.680496 -8.967481 27.645237 -0.026025 1.901149 0.137468 -0.031171 167253.000000 0 0 1
-25.028704 0.729496 -8.094181 26.315090 -0.029138 1.883452 0.115578 -0.026983 662463.000000 0 0 1
-25.608944 1.022296 -6.834681 26.525006 -0.039898 1.831406 0.120042 -0.029456 390501.000000 0 0 1
-24.577904 1.274196 -5.709481 25.264503 -0.051797 1.798754 0.096415 -0.022984 89219.000000 0 0 1
-23.974904 2.541896 -5.741681 24.783546 -0.105629 1.804594 0.101039 -0.026225 1113880.000000 0 1 0
-22.610004 2.586596 -5.285381 23.363176 -0.113905 1.798999 0.089388 -0.014376 860672.000000 0 1 0
-21.919204 3.938496 -5.424581 22.921373 -0.177785 1.809723 0.082423 -0.017621 -319113.000000 0 1 0
-22.403804 4.819196 -4.418081 23.338263 -0.211878 1.761252 0.082011 -0.021106 662757.000000 0 1 0
-22.061904 6.183796 -4.605581 23.370458 -0.273280 1.769163 0.073654 -0.023262 -411597.000000 0 1 0
-22.750404 7.231296 -3.659481 24.150866 -0.307755 1.722908 0.093230 -0.024434 -315453.000000 0 1 0
-22.340804 7.352896 -2.303381 23.632227 -0.317957 1.668419 0.097519 -0.021840 316064.000000 0 1 0
-21.028504 7.814796 -2.086881 22.530514 -0.355812 1.663554 0.111684 -0.021607 -346477.000000 0 1 0
-20.543904 9.308896 -2.449181 22.687133 -0.425447 1.678962 0.097326 -0.023012 -362297.000000 0 1 0
-20.338704 9.592396 -3.791681 22.804688 -0.440697 1.737840 0.076771 -0.019532 447807.000000 0 1 0
-20.186804 11.003596 -4.024281 23.340544 -0.499065 1.744078 0.115017 -0.008142 -301772.000000 0 1 0
-19.971104 11.333496 -5.527081 23.618673 -0.516176 1.807000 0.115376 -0.015248 61707.400000 0 1 0
-18.740904 10.880796 -6.074681 22.505887 -0.526026 1.844101 0.080807 -0.017557 532214.000000 0 1 0
-18.689904 11.317696 -7.399981 23.068647 -0.544491 1.897350 0.085870 -0.013835 144330.000000 0 1 0
-17.313204 10.968196 -8.019781 22.008299 -0.564700 1.943783 0.073043 -0.017701 68073.000000 0 1 0
-17.071404 9.585996 -8.329281 21.276773 -0.511647 1.973028 0.057066 -0.019397 413968.000000 0 1 0
-17.998004 8.925996 -9.188781 22.091520 -0.460397 1.999774 0.063313 -0.017918 -333427.000000 0 1 0
-18.229904 9.477896 -10.605881 23.122383 -0.479448 2.047311 0.087536 -0.017284 -255389.000000 0 1 0
-17.036404 9.436896 -11.340381 22.536599 -0.505852 2.098092 0.069486 -0.015497 -6718.350000 0 1 0
-17.197404 10.275796 -12.450181 23.587066 -0.538594 2.126851 0.076463 -0.016882 199312.000000 0 1 0
-15.982004 10.062896 -13.387781 23.149924 -0.561928 2.187449 0.044290 -0.008843 228566.000000 0 1 0
-15.896904 8.839496 -14.123081 23.028453 -0.507477 2.231013 0.034383 -0.004244 36038.100000 0 1 0
-15.544304 7.711596 -13.332681 21.882744 -0.460526 2.225946 0.026633 -0.006446 -415110.000000 0 1 0
-15.621604 6.442196 -14.237781 22.096398 -0.391142 2.270967 0.039536 -0.007513 -50376.700000 0 1 0
-14.675904 6.353596 -15.294881 22.128798 -0.408566 2.333911 0.053348 -0.005199 377052.000000 0 1 0
-14.721204 5.078396 -15.939181 22.283658 -0.332188 2.367829 0.048104 -0.012685 -33278.700000 0 1 0
32.545386 -15.920004 28.505703 46.100150 -0.454941 0.904164 0.005871 0.012261 -685013.000000 0 0 1
31.591986 -14.884604 28.556913 45.112109 -0.440303 0.885347 0.003676 0.014824 -292419.000000 0 0 1
30.626116 -15.084704 29.567033 45.163224 -0.457665 0.857050 0.009623 0.010439 -16035.600000 0 0 1
31.140946 -15.094204 31.028263 46.479530 -0.451338 0.839858 -0.007696 0.009452 -263935.000000 0 0 1
31.672586 -13.860004 31.476643 46.755016 -0.412497 0.832235 -0.019961 0.005711 -31110.900000 0 0 1
31.711416 -13.808404 32.912493 47.744300 -0.410680 0.810206 -0.024092 0.006959 -142843.000000 0 0 1
32.057366 -12.384204 33.444109 47.953641 -0.368653 0.798997 -0.016875 0.004082 32951.200000 0 0 1
31.919426 -12.273404 -33.686051 48.002461 -0.367084 2.348657 -0.024991 -0.006991 230298.000000 0 0 1
31.694946 -10.899804 -33.463551 47.362270 -0.331228 2.355400 -0.003031 -0.000731 -69961.300000 0 0 1
31.532896 -10.505704 -31.994601 46.134021 -0.321600 2.337152 0.007289 -0.002191 19402.300000 0 0 1
30.330396 -11.009404 -31.462431 45.066889 -0.348193 2.343575 0.060669 -0.007273 49942.200000 0 0 1
29.759486 -10.109204 -30.490481 43.789182 -0.327467 2.341028 0.039778 -0.002656 1008450.000000 0 0 1
28.510476 -10.791804 -29.780651 42.616868 -0.361854 2.344514 0.042348 0.012772 727410.000000 0 0 1
28.031236 -10.216304 -28.595201 41.325641 -0.349500 2.334980 0.025209 0.012959 25799.400000 0 0 1
27.271326 -11.199704 -27.909351 40.596681 -0.389677 2.328808 0.045507 0.013524 -468341.000000 0 0 1
26.785526 -10.743204 -26.454881 39.150244 -0.381439 2.312747 0.033459 0.016066 -398602.000000 0 0 1
25.867626 -9.681504 -26.185291 38.059625 -0.358131 2.329536 0.024830 0.010188 271064.000000 0 0 1
24.669826 -9.592704 -26.915261 37.749855 -0.370852 2.364549 0.030410 0.000970 222340.000000 0 0 1
23.657026 -10.761904 -26.931951 37.427309 -0.426933 2.373994 0.035944 0.008009 -955318.000000 0 0 1
24.139326 -11.790404 -27.731971 38.610658 -0.454350 2.372075 0.029990 0.009233 -655740.000000 0 0 1
23.396426 -12.925804 -27.563431 38.395467 -0.504737 2.371552 0.041190 -0.004548 -390337.000000 0 0 1
24.009526 -14.159904 -28.296571 39.719720 -0.532857 2.363717 0.031055 0.007676 221355.000000 0 0 1
24.084326 -14.021804 -29.698721 40.726893 -0.527226 2.387973 0.030482 -0.004649 681350.000000 0 0 1
25.095426 -14.894504 -30.255981 42.036306 -0.535637 2.374250 0.026382 0.009530 457793.000000 0 0 1
25.193426 -14.999404 -31.817111 43.266840 -0.537008 2.397008 0.044775 -0.010413 -81812.600000 0 0 1
24.031626 -15.560204 -32.419571 43.251215 -0.574608 2.418200 0.060129 -0.018364 300097.000000 0 0 1
24.123726 -15.803004 -33.830411 44.454312 -0.579939 2.435673 0.067529 -0.013667 -6461.870000 0 0 1
24.297326 -14.604704 33.761395 44.085023 -0.541215 0.698474 0.058365 -0.025409 -213871.000000 0 0 1
23.140426 -13.830004 33.732918 43.181688 -0.538694 0.674233 0.067994 -0.029435 -139505.000000 0 0 1
23.260926 -12.971204 32.625389 42.115779 -0.508689 0.684620 0.072833 -0.025235 -816968.000000 0 0 1
22.372226 -11.740204 32.735783 41.351910 -0.483264 0.657309 0.092653 -0.033607 971622.000000 0 0 1
20.943526 -11.932004 32.744358 40.659526 -0.517859 0.634563 0.083948 -0.026903 1324660.000000 0 0 1
20.350826 -12.439004 31.562323 39.560905 -0.548635 0.647132 0.066658 -0.012981 -2248160.000000 0 0 1
18.905426 -12.796804 31.627763 39.006266 -0.595044 0.625214 0.071536 -0.009904 -1314380.000000 0 0 1
18.094326 -11.669104 31.569923 38.212991 -0.572784 0.598544 0.075073 -0.014799 -677742.000000 0 0 1
17.177126 -11.605704 32.610744 38.642033 -0.594195 0.566249 0.052218 -0.009847 -370748.000000 0 0 1
16.336526 -10.333504 32.791198 38.064762 -0.564003 0.532662 0.064369 -0.018406 -1035860.000000 0 0 1
15.493426 -10.230004 31.681323 36.720641 -0.583568 0.530081 0.070894 -0.014331 -186308.000000 0 0 1
14.717426 -9.026004 31.729723 36.122662 -0.550132 0.498317 0.075153 -0.013428 532391.000000 0 0 1
13.554926 -8.931004 32.756119 36.557656 -0.582589 0.460090 0.073451 -0.013729 -1296100.000000 0 0 1
12.562726 -9.901304 32.554954 36.272344 -0.667473 0.456696 0.064017 -0.012838 -148212.000000 0 0 1
11.426926 -9.839104 33.381759 36.629557 -0.710872 0.424283 0.057187 -0.012660 206717.000000 0 0 1
10.340926 -8.871504 32.871607 35.583436 -0.709064 0.392934 0.069832 -0.017030 -486821.000000 0 0 1
10.805026 -7.523704 32.992753 35.522901 -0.608249 0.379705 0.074679 -0.017644 522840.000000 0 0 1
9.823726 -6.709704 32.365943 34.483040 -0.599232 0.352233 0.086600 -0.011536 402369.000000 0 0 1
10.213426 -5.245404 32.534615 34.501153 -0.474452 0.339261 0.085823 -0.015929 121287.000000 0 0 1
10.103326 -4.676104 33.813387 35.598993 -0.433471 0.318069 0.076006 -0.022929 454062.000000 0 0 1
10.606826 -3.314204 33.695632 35.480760 -0.302848 0.318560 0.055737 -0.021550 -22099.000000 0 0 1
10.452226 -2.593204 -33.473741 35.163405 -0.243190 2.830332 0.050135 -0.025068 414602.000000 0 0 1
9.102426 -2.165404 -33.290361 34.580215 -0.233552 2.867605 0.052074 -0.011278 436979.000000 0 0 1
8.881526 -1.227204 -32.263181 33.485823 -0.137306 2.870533 0.052224 -0.012613 -1158080.000000 0 0 1
7.431326 -1.084704 -31.910291 32.782127 -0.144940 2.910449 0.045406 -0.008896 -1199660.000000 0 0 1
6.692626 -0.338104 -32.836051 33.512860 -0.050476 2.940278 0.055974 -0.011888 598867.000000 0 0 1
5.316226 -0.187904 -32.453771 32.886849 -0.035331 2.979126 0.061725 -0.008910 723892.000000 0 0 1
4.570326 0.831296 -33.318061 33.640335 0.179923 3.003062 0.050339 -0.001603 -199259.000000 0 0 1
5.105326 2.157096 -33.198961 33.658408 0.399767 2.976175 0.052596 -0.008561 273138.000000 0 0 1
4.592826 2.902996 34.188029 34.617088 0.563668 0.157608 0.040136 -0.009476 -74055.000000 0 0 1
5.436926 4.162396 33.972519 34.655703 0.653397 0.198890 0.045989 -0.013414 -220056.000000 0 0 1
4.929226 5.023996 33.032939 33.774441 0.794919 0.209930 0.065515 -0.030550 223258.000000 0 0 1
5.853526 6.103596 32.843838 33.915120 0.806309 0.252011 0.066365 -0.028652 286273.000000 0 0 1
5.378726 7.178196 31.858673 33.097315 0.927734 0.274445 0.066764 -0.028554 1010670.000000 0 0 1
4.179926 7.889696 32.324203 33.534657 1.083597 0.269499 0.063032 -0.021693 1156770.000000 0 0 1
3.763426 9.161796 31.829433 33.334887 1.181037 0.301681 0.068141 -0.026215 -26744.000000 0 0 1
3.510726 9.165696 30.247853 31.800437 1.205005 0.313768 0.067999 -0.017630 -858635.000000 0 0 1
2.306926 8.554696 29.952353 31.235368 1.307394 0.287611 0.056837 -0.016171 -696270.000000 0 0 1
2.238426 8.321296 28.558993 29.830699 1.308017 0.293043 0.044629 0.002217 -120893.000000 0 0 1
0.878126 7.790196 28.040343 29.115616 1.458548 0.272620 0.044105 -0.005550 -283524.000000 0 0 1
-0.062674 8.831296 28.112813 29.467371 -1.563700 0.304383 0.044013 -0.001124 -963204.000000 0 0 1
-1.171874 8.544496 27.319503 28.648507 -1.434497 0.305788 0.036669 -0.000338 -152395.000000 0 0 1
-2.485874 8.639096 28.132703 29.534091 -1.290618 0.309289 0.033957 -0.004828 -248981.000000 0 0 1
-2.662574 9.962496 28.576153 30.379881 -1.309640 0.346322 0.028854 -0.001407 -130398.000000 0 0 1
-3.942174 9.992296 29.173123 31.087905 -1.195022 0.352804 0.020859 -0.002368 -181667.000000 0 0 1
-4.408074 11.314596 29.799733 32.178802 -1.199295 0.386942 0.015961 -0.005946 -111115.000000 0 0 1
-4.656574 12.469996 28.988003 31.898100 -1.213410 0.430472 0.010475 -0.010363 825875.000000 0 0 1
-5.923674 12.556296 28.305743 31.527219 -1.129987 0.456004 0.013571 -0.016247 561625.000000 0 0 1
-6.176374 13.955896 27.738193 31.659469 -1.154144 0.502996 0.006926 -0.012508 -393039.000000 0 0 1
-5.339474 14.387896 26.712043 30.806733 -1.215442 0.521476 0.012092 -0.005033 -605197.000000 0 0 1
-5.628674 15.690596 26.219673 31.070050 -1.226366 0.566305 -0.008839 -0.001993 -267009.000000 0 0 1
-4.402074 16.481096 25.735423 30.875828 -1.309791 0.585359 0.027068 -0.005990 13508.100000 0 0 1
-3.961074 15.974296 24.445033 29.469100 -1.327733 0.592559 0.027082 -0.001751 276246.000000 0 0 1
-2.949274 16.807596 23.879753 29.350232 -1.397092 0.620455 0.039450 -0.003202 201989.000000 0 0 1
-2.906474 16.734196 22.360323 28.079618 -1.398827 0.649612 0.048189 -0.005989 -162277.000000 0 0 1
-2.180374 15.634396 21.885023 26.984117 -1.432230 0.624880 0.050153 -0.015442 -78108.400000 0 0 1
-2.190874 15.525296 20.462023 25.778462 -1.430606 0.653823 0.047292 -0.015724 -4601.420000 0 0 1
-1.366274 14.326796 19.984223 24.627078 -1.475719 0.624127 0.046153 -0.019593 -87281.200000 0 1 0
-1.943274 13.013496 20.217123 24.121763 -1.422564 0.576954 0.049187 -0.014403 91069.900000 0 1 0
-1.390774 12.010696 19.396523 22.856425 -1.455515 0.557417 0.043980 -0.015270 -895605.000000 0 1 0
-2.307274 10.865496 19.079923 22.077726 -1.361556 0.527206 0.034142 -0.016963 -649349.000000 0 1 0
-2.661074 9.865296 20.060223 22.512617 -1.307326 0.471108 0.052400 -0.025225 364358.000000 0 1 0
-3.541874 10.240096 21.118123 23.735618 -1.237794 0.474058 0.051532 -0.016047 -64122.200000 0 1 0
-5.074674 10.249996 20.957823 23.875617 -1.111084 0.499563 0.040157 -0.008904 -17111.300000 0 1 0
-5.505974 8.847896 20.857823 23.316299 -1.014147 0.463351 0.021830 -0.010779 411891.000000 0 1 0
-6.896874 8.805496 21.164023 23.937826 -0.906355 0.486179 0.016917 0.001465 310955.000000 0 1 0
-7.456374 7.411196 21.255423 23.713210 -0.782359 0.459321 0.011660 0.009517 -8241.450000 0 1 0
-6.979974 6.740596 22.404823 24.415810 -0.767953 0.408706 0.007492 0.010444 316583.000000 0 1 0
-7.750074 5.552296 22.557023 24.488996 -0.621660 0.399878 0.006815 0.011627 318134.000000 0 1 0
-7.863074 4.870596 23.933863 25.658925 -0.554581 0.368775 0.005245 0.008480 -168131.000000 0 0 1
-8.556174 5.609996 24.939183 26.956317 -0.580348 0.389312 -0.007458 0.013184 141728.000000 0 0 1
-8.866774 4.786396 26.039543 27.921086 -0.494988 0.369212 -0.008988 0.015891 140945.000000 0 0 1
-9.787774 5.522596 27.051153 29.292737 -0.513706 0.393751 0.009082 0.011794 315691.000000 0 0 1
-9.079974 6.607896 27.685663 29.876515 -0.629104 0.385342 0.006252 0.003943 221783.000000 0 0 1
-9.896174 7.335696 28.577353 31.119316 -0.637888 0.406992 0.019432 0.002514 23450.900000 0 0 1
-9.150574 8.459396 29.390773 31.923532 -0.746169 0.401024 0.016986 0.001553 122336.000000 0 0 1
-8.384674 7.853496 30.420883 32.517846 -0.752698 0.361087 0.029062 -0.001226 -73538.900000 0 0 1
-7.807074 8.828096 31.236503 33.385698 -0.846699 0.360770 0.034606 -0.010286 -333169.000000 0 0 1
-6.755374 8.258096 32.208663 33.929769 -0.885157 0.319876 0.056542 -0.010348 14231.200000 0 0 1
-5.471274 8.241596 31.612163 33.123822 -0.984739 0.303275 0.051342 -0.010371 -154106.000000 0 0 1
-4.526874 7.613096 32.473804 33.660062 -1.034345 0.266275 0.060914 -0.010243 462321.000000 0 0 1
-3.090074 7.552096 31.896853 32.924033 -1.182412 0.250448 0.047521 -0.011153 334147.000000 0 0 1
-2.488974 8.828096 31.879743 33.173005 -1.295992 0.280148 0.047193 -0.012721 145110.000000 0 0 1
-1.087374 8.825596 31.619783 32.846373 -1.448207 0.274146 0.042654 -0.015109 515652.000000 0 0 1
-0.702574 10.241096 31.179823 32.826133 -1.502300 0.318048 0.044275 -0.016574 -359544.000000 0 0 1
-0.719674 11.271296 32.187243 34.111269 -1.507033 0.337469 0.037094 -0.029241 -209569.000000 0 0 1
-1.330874 12.499296 31.780683 34.176241 -1.464720 0.376640 0.032364 -0.026548 -98082.800000 0 0 1
-1.597074 13.452396 33.010213 35.681813 -1.452629 0.389426 0.028033 -0.026778 -1055000.000000 0 0 1
-0.430574 13.946196 33.541468 36.327839 -1.539932 0.394213 0.055219 -0.023115 -1062440.000000 0 0 1
-0.676374 14.941796 -33.969871 37.116935 -1.525560 2.726830 0.058834 -0.027328 920446.000000 0 0 1
0.715226 15.260096 -33.290411 36.628316 1.523962 2.711365 0.048704 -0.020631 844271.000000 0 0 1
1.551426 15.878396 -34.240748 37.775113 1.473399 2.705565 0.062578 -0.022154 470922.000000 0 0 1
2.877126 16.073396 -33.734441 37.478586 1.393673 2.690793 0.070906 -0.023577 778879.000000 0 0 1
3.672526 17.105496 33.914066 38.160835 1.359308 0.476264 0.083732 -0.014720 -133192.000000 0 0 1
3.249926 18.415196 34.171075 38.953098 1.396114 0.500722 0.077825 -0.009931 274704.000000 0 0 1
3.971326 19.368796 33.369185 38.786907 1.368562 0.534898 0.070087 -0.002519 254543.000000 0 0 1
3.461626 20.814196 33.561839 39.643545 1.405994 0.561250 0.078692 -0.010236 -23734.500000 0 0 1
3.602126 21.339296 -33.647151 40.005895 1.403570 2.570027 0.084366 -0.024818 140057.000000 0 0 1
3.177926 22.671196 -33.516261 40.588447 1.431529 2.542342 0.077984 -0.019882 -105367.000000 0 0 1
3.565226 23.329896 -32.201291 39.923902 1.419152 2.509117 0.075747 -0.023094 -238994.000000 0 0 1
2.978426 24.591596 -32.098071 40.545083 1.450268 2.484324 0.069287 -0.031077 123556.000000 0 0 1
3.107726 24.994796 -30.765891 39.761009 1.447096 2.455568 0.078155 -0.032275 14394.600000 0 0 1
2.666326 26.400396 -30.283781 40.264098 1.470142 2.422082 0.082783 -0.033500 82826.600000 0 0 1
3.652826 27.345596 -30.599361 41.200068 1.438002 2.407892 0.084473 -0.037520 -62447.100000 0 0 1
3.263426 28.588996 -30.159671 41.684366 1.457139 2.379691 0.078903 -0.037722 -356294.000000 0 0 1
4.327226 29.724196 -30.277151 42.649250 1.426233 2.360167 0.089098 -0.041675 -354661.000000 0 0 1
5.440726 29.422096 -29.496491 42.015523 1.387942 2.349051 0.066438 -0.048182 -725039.000000 0 0 1
6.146026 30.596296 -29.231551 42.759683 1.372560 2.323513 0.071618 -0.048491 -641151.000000 0 0 1
7.300126 30.414896 -28.257651 42.152729 1.335234 2.305495 0.061400 -0.041366 -229949.000000 0 0 1
8.484726 29.779596 -28.749451 42.253353 1.293234 2.319113 0.057089 -0.037127 577087.000000 0 0 1
9.692326 30.498296 -28.738141 43.011254 1.263091 2.302521 0.065759 -0.033257 35014.900000 0 0 1
9.707826 31.829596 -29.586281 44.527666 1.274764 2.297550 0.075901 -0.038022 -1105610.000000 0 0 1
8.949826 32.846896 -28.979801 44.708464 1.304783 2.276008 0.075834 -0.034166 16417.600000 0 0 1
8.630226 34.026696 -29.728901 46.001134 1.322403 2.273475 0.056615 -0.025581 266103.000000 0 0 1
7.345826 34.011996 -30.621811 46.351616 1.358086 2.292470 0.056377 -0.027926 254437.000000 0 0 1
7.377826 33.150496 -31.795901 46.522758 1.351810 2.323272 0.044036 -0.024429 410231.000000 0 0 1
6.059226 32.814296 -32.216321 46.383009 1.388201 2.338621 0.058379 -0.023971 400229.000000 0 0 1
6.043926 32.015696 -33.517941 46.743835 1.384212 2.370365 0.069207 -0.035847 -77853.400000 0 0 1
6.121326 32.867196 33.839390 47.569187 1.386662 0.779348 0.060505 -0.025120 69974.100000 0 0 1
6.246226 32.090196 32.631672 46.191147 1.378554 0.786328 0.078839 -0.023197 -171747.000000 0 0 1
5.635126 32.805996 31.433473 45.782652 1.400685 0.814021 0.062477 -0.021511 182172.000000 0 0 1
6.550726 33.753296 30.919733 46.240965 1.379103 0.838384 0.061289 -0.018014 471235.000000 0 0 1
5.876726 -33.932794 30.008233 45.677834 -1.399310 0.854025 0.040427 -0.022604 157454.000000 0 0 1
18.101896 -22.278604 30.134683 41.618674 -0.888465 0.761116 0.068457 -0.007380 -805757.000000 0 0 1
17.166896 -21.260004 30.011293 40.587779 -0.891515 0.738592 0.062462 -0.006530 1971860.000000 0 0 1
15.742996 -21.610904 30.215043 40.346276 -0.941214 0.724406 0.065740 -0.006795 2447090.000000 0 0 1
15.260096 -22.136504 31.594163 41.485980 -0.967245 0.705076 0.065762 -0.008671 -633235.000000 0 0 1
15.659596 -23.484304 31.936303 42.622329 -0.982694 0.723813 0.092855 -0.011633 132524.000000 0 0 1
15.309996 -23.807104 33.274674 43.684988 -0.999298 0.704870 0.074341 -0.016106 103210.000000 0 0 1
16.220696 -24.885004 33.929071 45.094970 -0.993138 0.719111 0.075909 -0.021541 176375.000000 0 0 1
16.105996 -26.194594 33.465851 45.448026 -1.019522 0.743130 0.082443 -0.021849 -129477.000000 0 0 1
17.078296 -26.972484 34.119692 46.726187 -1.006340 0.752174 0.083116 -0.021991 148227.000000 0 0 1
16.772396 -28.483544 33.856505 47.316895 -1.038619 0.773418 0.080753 -0.015838 189468.000000 0 0 1
17.121996 -28.987794 32.561400 46.836949 -1.037271 0.802088 0.075212 -0.020779 297275.000000 0 0 1
16.562596 -30.281814 32.371773 47.320604 -1.070299 0.817435 0.081605 -0.024971 392306.000000 0 0 1
17.373696 -30.874094 31.158003 47.179192 -1.058234 0.849421 0.083743 -0.024344 195762.000000 0 0 1
18.707596 -31.139114 31.488773 48.074540 -1.029807 0.856615 0.076361 -0.030005 -703901.000000 0 0 1
19.392996 -31.522374 30.349543 47.862753 -1.019265 0.883958 0.056368 -0.023757 263193.000000 0 0 1
20.851396 -32.065954 30.532373 48.941107 -0.994234 0.897125 0.053070 -0.016063 645354.000000 0 0 1
21.869996 -31.118424 30.766683 48.920771 -0.958194 0.890648 0.048673 -0.016388 -414562.000000 0 0 1
23.010296 -31.788074 31.199193 50.133273 -0.944232 0.899087 0.036920 -0.013849 -937045.000000 0 0 1
24.158596 -30.850284 31.547603 50.305358 -0.906451 0.892943 0.039458 -0.011643 -448610.000000 0 0 1
24.846896 -30.424014 30.416133 49.680278 -0.885963 0.911909 0.039535 -0.009456 -171218.000000 0 0 1
25.785296 -29.375244 30.584353 49.630526 -0.850388 0.906836 0.036387 -0.007187 114759.000000 0 0 1
26.885196 -29.306364 29.511323 49.523681 -0.828459 0.932406 0.034260 -0.004278 -366631.000000 0 0 1
27.892096 -30.229094 29.742573 50.758131 -0.825586 0.944724 0.027720 0.004309 -52404.500000 0 0 1
28.957196 -30.209504 28.778773 50.787313 -0.806561 0.968359 0.027810 -0.008956 1113750.000000 0 0 1
29.969696 -31.408314 28.968073 52.190173 -0.808833 0.982375 0.019294 0.002849 703601.000000 0 0 1
29.396096 -32.689634 28.647033 52.472804 -0.838397 0.993285 0.028908 0.003192 297874.000000 0 0 1
30.365796 -33.675704 28.930883 53.787830 -0.837036 1.002887 0.039940 -0.003042 -396630.000000 0 0 1
29.746696 33.535264 29.332003 53.570946 0.845195 0.991380 0.033969 0.003005 -640994.000000 0 0 1
29.314496 33.252787 30.689333 53.915885 0.848260 0.965255 0.030678 0.008377 442169.000000 0 0 1
28.319596 34.139684 31.195223 54.227848 0.878312 0.957872 0.012870 0.014194 -102098.000000 0 0 1
26.893296 34.063475 30.600803 53.103473 0.902487 0.956665 0.022346 0.012871 -271510.000000 0 0 1
26.310196 32.763215 30.750293 52.069523 0.894204 0.939041 0.023274 0.018117 -167455.000000 0 0 1
24.903696 32.838704 30.829613 51.468822 0.921964 0.928550 0.013327 0.014031 165983.000000 0 0 1
24.230196 31.454465 30.797513 50.249105 0.914413 0.911075 0.017738 0.006690 -342082.000000 0 0 1
24.284196 30.930825 29.476373 49.145648 0.905199 0.927575 0.016610 0.009148 3256.670000 0 0 1
23.786296 29.630195 29.482233 48.093018 0.894367 0.910912 0.051395 -0.012011 -226263.000000 0 0 1
23.474396 29.107015 28.034133 46.735193 0.892113 0.927482 0.060479 -0.023426 -184300.000000 0 0 1
22.113796 29.336355 27.747033 46.038457 0.924867 0.923925 0.069494 -0.018577 -114982.000000 0 0 1
21.713796 28.984375 26.420373 44.828775 0.927836 0.940528 0.079767 -0.023701 1143050.000000 0 0 1
20.282196 29.494075 25.987513 44.233684 0.968393 0.942824 0.082941 -0.023073 929686.000000 0 0 1
20.306396 30.883355 25.782653 45.065248 0.989153 0.961710 0.082609 -0.026021 622430.000000 0 0 1
19.037596 31.333355 25.276633 44.532206 1.024820 0.967204 0.071199 -0.021458 339909.000000 0 0 1
18.887596 32.844366 24.842243 45.305968 1.048914 0.990440 0.083533 -0.021909 -134550.000000 0 0 1
19.500196 33.246609 23.600993 45.195150 1.040339 1.021366 0.091589 -0.020127 579488.000000 0 0 1
20.861196 33.627709 23.814223 46.185815 1.015543 1.029068 0.088507 -0.015511 584984.000000 0 0 1
21.615496 33.949618 22.485623 46.102164 1.003832 1.061303 0.100429 -0.020577 458452.000000 0 0 1
20.955396 -33.499224 21.892023 45.172861 -1.011803 1.064859 0.085973 -0.013367 576830.000000 0 0 1
21.545796 -33.391414 20.612723 44.767089 -0.997768 1.092301 0.105388 -0.015176 221849.000000 0 0 1
21.303196 -32.025784 19.927023 43.319318 -0.983817 1.092798 0.085848 -0.012450 -417562.000000 0 0 1
21.931996 -30.953794 20.537923 43.138801 -0.954362 1.074594 0.077042 -0.005640 -129565.000000 0 0 1
21.592496 -29.643474 20.047523 41.795630 -0.941259 1.070534 0.080915 -0.016251 -302799.000000 0 0 1
22.379696 -29.152744 18.833123 41.296729 -0.916082 1.097251 0.063094 -0.011305 -456396.000000 0 0 1
22.127296 -29.937124 17.653823 41.200802 -0.934291 1.127984 0.045006 -0.017989 141229.000000 0 0 1
22.497696 -29.325884 16.474323 40.466741 -0.916402 1.151511 0.036919 -0.017215 -503510.000000 0 0 1
21.954296 -30.051824 15.252623 40.221211 -0.939861 1.181845 0.026856 -0.013210 -340494.000000 0 0 1
22.734796 -31.145804 14.877623 41.331293 -0.940253 1.202571 0.066385 -0.011529 -116187.000000 0 0 1
22.783296 -31.421804 13.440523 41.073788 -0.943436 1.237427 0.057211 -0.015278 321001.000000 0 0 1
21.433896 -31.434564 12.626323 40.087003 -0.972351 1.250368 0.045899 -0.016789 234383.000000 0 0 1
20.634796 -32.546754 12.896523 40.637499 -1.005748 1.247857 0.047341 -0.011826 -1327650.000000 0 0 1
19.563896 -32.549084 12.064923 39.846597 -1.029599 1.263184 0.048622 -0.001785 -1065550.000000 0 0 1
18.325596 -33.188654 12.742823 39.996172 -1.066293 1.246543 0.055277 0.002457 -150047.000000 0 0 1
17.972496 -32.562614 14.008823 39.743951 -1.066468 1.210580 0.056445 0.012107 274572.000000 0 0 1
18.312096 -33.453874 15.048323 40.999349 -1.069964 1.194973 0.039162 0.000726 -649546.000000 0 0 1
18.318796 -32.731024 16.376623 40.927888 -1.060554 1.159134 0.052071 -0.009693 9818.480000 0 0 1
17.040896 -32.327654 16.791323 40.217135 -1.085681 1.140086 0.056780 -0.010453 582786.000000 0 0 1
15.969696 -33.214384 17.158323 40.652609 -1.122621 1.135067 0.059264 -0.005329 178197.000000 0 0 1
16.199696 -33.954334 18.500523 41.923697 -1.125634 1.113760 0.050202 -0.008770 -146081.000000 0 0 1
17.060496 33.457295 18.414023 41.827352 1.099245 1.114932 0.047175 -0.005689 190333.000000 0 0 1
17.211896 32.790120 19.618723 41.908658 1.087419 1.083622 0.047086 -0.005949 526420.000000 0 0 1
18.179396 31.549255 19.606523 41.355310 1.048044 1.076856 0.069293 -0.012278 148755.000000 0 0 1
17.622796 30.455865 18.947923 39.964315 1.046235 1.076831 0.035491 -0.010432 -175285.000000 0 0 1
18.541796 29.403785 18.762823 39.502207 1.008186 1.075853 0.051530 -0.021050 -453759.000000 0 0 1
17.849096 28.046655 18.536423 38.063159 1.004036 1.062155 0.053176 -0.023249 35771.000000 0 0 1
17.464296 27.305235 19.706623 37.933211 1.001770 1.024521 0.062262 -0.026795 -22930.100000 0 0 1
17.019096 26.037315 19.317223 36.616206 0.991865 1.015071 0.054815 -0.022866 -179229.000000 0 0 1
16.847596 25.098425 20.508523 36.529056 0.979620 0.974683 0.066638 -0.020806 358411.000000 0 0 1
15.688196 25.324535 21.297023 36.619869 1.016172 0.950139 0.066431 -0.021852 467781.000000 0 0 1
14.684696 24.306645 21.243823 35.464818 1.027336 0.928531 0.052141 -0.016071 1086420.000000 0 0 1
13.465696 24.731045 22.160523 35.833481 1.072197 0.904052 0.050641 -0.029352 512998.000000 0 0 1
12.776196 25.857395 21.682223 36.082612 1.111878 0.926163 0.047688 -0.028740 305945.000000 0 0 1
11.471096 25.985605 22.241623 36.076690 1.155083 0.906495 0.037299 -0.026512 492244.000000 0 0 1
10.603096 27.126405 21.642223 36.285718 1.198179 0.931739 0.013843 -0.019233 -385884.000000 0 0 1
11.168996 28.388665 21.694223 37.433970 1.195965 0.952641 0.007912 -0.017314 -347317.000000 0 0 1
10.440396 29.292515 20.917523 37.477941 1.228415 0.978667 0.012543 -0.021539 33942.100000 0 0 1
11.128696 30.724465 20.815223 38.744214 1.223286 1.003626 0.000044 -0.017028 -183628.000000 0 0 1
10.819296 31.599075 21.873023 39.924778 1.240915 0.990997 0.008740 -0.016518 -217702.000000 0 0 1
11.404796 31.348395 23.131823 40.593996 1.221874 0.964493 0.020715 -0.021790 -708657.000000 0 0 1
10.936996 32.309995 24.240163 41.846615 1.244401 0.952973 0.022725 -0.025192 -37390.400000 0 0 1
9.593796 32.064225 24.579593 41.524834 1.280068 0.937351 0.016607 -0.019443 -354483.000000 0 0 1
9.480896 32.514901 25.947843 42.666108 1.287076 0.917055 0.014290 -0.023531 -155740.000000 0 0 1
8.045896 32.365895 26.535013 42.619180 1.327143 0.898726 0.074002 -0.033760 177436.000000 0 0 1
7.031396 33.323001 26.162823 42.945969 1.362840 0.915741 0.070662 -0.023265 702644.000000 0 0 1
6.476896 33.105712 24.838183 41.891213 1.377594 0.936115 0.058652 -0.031542 -534415.000000 0 0 1
5.466596 31.948825 24.787053 40.804523 1.401333 0.917939 0.053937 -0.030879 -1342830.000000 0 0 1
5.941496 30.737085 25.178093 40.174696 1.379851 0.893466 0.043102 -0.033286 -879183.000000 0 0 1
5.168496 29.589285 24.836723 38.975659 1.397866 0.879889 0.035144 -0.024006 -650331.000000 0 0 1
6.016696 28.272185 24.936543 38.175231 1.361111 0.858977 0.039868 -0.015770 226925.000000 0 0 1
6.992196 28.069405 23.910813 37.530112 1.326661 0.880053 0.026502 -0.015366 197620.000000 0 0 1
8.097496 28.931195 23.959233 38.426922 1.297891 0.897583 0.038565 -0.013638 -670204.000000 0 0 1
9.293596 28.376715 24.795673 38.812811 1.254298 0.877790 0.022908 -0.029421 -633375.000000 0 0 1
8.971096 28.463245 26.200103 39.712496 1.265470 0.850318 0.031786 -0.029960 503236.000000 0 0 1
9.986896 27.984945 27.092383 40.210602 1.228017 0.831508 0.039844 -0.019345 588208.000000 0 0 1
11.232196 28.921375 27.205103 41.264098 1.200356 0.850919 0.047442 -0.021468 -250298.000000 0 0 1
10.964096 30.086335 27.839443 42.431516 1.221332 0.855153 0.053837 -0.030946 102435.000000 0 0 1
12.180396 30.759575 28.097533 43.404895 1.193754 0.866713 0.058839 -0.021906 -332036.000000 0 0 1
12.012396 32.065615 28.889963 44.801019 1.212360 0.869969 0.043467 -0.032949 -152182.000000 0 0 1
11.637096 31.925105 30.211973 45.468645 1.221252 0.844029 0.054969 -0.045497 708641.000000 0 0 1
10.231896 31.745205 30.443463 45.158102 1.258997 0.830979 0.082549 -0.043538 541428.000000 0 0 1
9.984196 31.564525 31.976943 46.027474 1.264444 0.802744 0.105048 -0.036793 67820.600000 0 0 1
10.499296 30.323075 32.515732 45.683662 1.237468 0.778798 0.088097 -0.037097 342121.000000 0 0 1
10.748496 30.366745 33.913826 46.774106 1.230601 0.759681 0.086744 -0.033458 -10733.300000 0 0 1
10.834296 28.909185 -34.015571 45.936717 1.212227 2.404592 0.075101 -0.032401 203456.000000 0 0 1
11.999696 28.242645 34.028304 45.821013 1.169028 0.733799 0.077066 -0.026558 199123.000000 0 0 1
12.000496 26.884005 -33.977221 44.957904 1.150956 2.427605 0.077815 -0.026263 -998323.000000 0 0 1
13.205296 26.087525 34.145676 44.954043 1.102207 0.708147 0.084045 -0.023504 -903503.000000 0 0 1
13.093396 24.739825 -34.009771 44.047253 1.084028 2.452967 0.065946 -0.026675 -76905.700000 0 0 1
13.428596 24.560395 -32.646921 43.004205 1.070445 2.432813 0.067696 -0.029707 -535346.000000 0 0 1
13.473096 23.049785 -32.292341 41.900026 1.041836 2.450735 0.051247 -0.048311 269408.000000 0 0 1
14.467896 22.282385 -32.980701 42.350340 0.994915 2.463481 0.062914 -0.039391 233349.000000 0 0 1
14.368096 20.971885 -32.644801 41.375659 0.970132 2.479953 0.062572 -0.037435 -279602.000000 0 0 1
15.651296 20.235085 -32.955211 41.718912 0.912441 2.481499 0.075369 -0.046867 468908.000000 0 0 1
16.840296 20.526085 -32.201821 41.735752 0.883719 2.452093 0.074888 -0.042008 667471.000000 0 0 1
17.986796 19.884585 -32.724941 42.306540 0.835468 2.455172 0.083932 -0.038891 -245435.000000 0 0 1
19.211296 20.103585 -31.834861 42.269213 0.808090 2.423627 0.066577 -0.033292 -633096.000000 0 0 1
19.765996 21.376685 -32.056311 43.304322 0.824527 2.404248 0.061170 -0.026801 12026.300000 0 0 1
20.840296 21.613585 -31.149241 43.263613 0.803611 2.374580 0.050190 -0.011029 302310.000000 0 0 1
20.446496 21.997285 -29.712651 42.246673 0.821919 2.350844 0.046210 -0.021595 -145001.000000 0 0 1
19.906796 23.281985 -29.601701 42.598029 0.863389 2.339088 0.033445 -0.007593 87414.200000 0 0 1
19.446196 23.656195 -28.296981 41.695194 0.882764 2.316737 0.043229 -0.000176 354640.000000 0 0 1
20.561296 24.401355 -27.493331 42.119785 0.870597 2.281994 0.028925 0.000837 291187.000000 0 0 1
21.090496 25.566905 -28.110081 43.458627 0.881048 2.274209 0.035450 0.003196 -165187.000000 0 0 1
20.188396 26.656865 -28.301951 43.808221 0.922612 2.273184 0.030099 0.006159 -784628.000000 0 0 1
20.793796 27.731505 -29.171241 45.303197 0.927407 2.270396 0.040562 0.002342 -386877.000000 0 0 1
21.017796 27.429075 -30.564691 46.133526 0.916970 2.294983 0.036637 0.005256 430616.000000 0 0 1
21.751096 26.253075 -31.001131 46.080411 0.878908 2.308731 0.044012 0.004213 369451.000000 0 0 1
23.145196 25.996995 -30.396651 46.211473 0.843365 2.288654 0.059098 -0.009560 -251703.000000 0 0 1
24.215096 26.849165 -30.745291 47.460736 0.836936 2.275496 0.052506 -0.010837 -74486.900000 0 0 1
25.465096 26.353195 -30.330031 47.569662 0.802535 2.262165 0.062034 -0.018262 -22886.200000 0 0 1
26.625096 27.224325 -30.862561 49.015888 0.796526 2.251891 0.056375 -0.006835 -327964.000000 0 0 1
26.898896 28.419055 -30.155221 49.401727 0.812872 2.227372 0.046249 -0.006999 644919.000000 0 0 1
28.088896 29.079695 -30.621121 50.717529 0.802728 2.219003 0.052093 -0.010196 754023.000000 0 0 1
28.287896 30.440295 -29.916321 51.203544 0.822032 2.194768 0.046291 -0.005957 -184462.000000 0 0 1
28.777996 30.348265 -28.607591 50.671338 0.811950 2.170710 0.059793 -0.010734 85707.400000 0 0 1
28.335396 31.360045 -27.762061 50.567570 0.836023 2.151975 0.056954 -0.005364 -641519.000000 0 0 1
28.796196 31.050135 -26.368221 49.886019 0.823042 2.127711 0.058267 -0.002156 -479300.000000 0 0 1
28.373996 29.818105 -25.714821 48.533030 0.810209 2.129210 0.059072 0.003662 1042620.000000 0 0 1
26.951996 29.614385 -25.616971 47.535787 0.832430 2.139925 0.068867 0.002871 862300.000000 0 0 1
26.320896 29.715595 -24.187481 46.484840 0.845904 2.118034 0.064552 0.005947 80140.700000 0 0 1
26.406396 31.081015 -23.726081 47.183198 0.866535 2.097689 0.080603 0.002734 42385.400000 0 0 1
25.807396 31.225285 -22.495281 46.336571 0.880110 2.077704 0.067018 0.015006 -39299.400000 0 0 1
3.041696 -26.570504 -20.044781 33.422101 -1.456816 2.213980 0.051221 -0.001268 -397181.000000 0 0 1
2.916496 -27.292934 -18.870581 33.309294 -1.464341 2.173080 0.043313 0.011691 -42403.600000 0 0 1
3.316496 -26.600244 -17.725581 32.136714 -1.446757 2.155039 0.073312 0.007104 -127783.000000 0 0 1
3.176296 -27.401634 -16.407881 32.096059 -1.455395 2.107390 0.069708 -0.009259 22981.500000 0 0 1
4.142196 -28.426474 -16.297381 33.027668 -1.426099 2.086844 0.077889 -0.000121 -70177.800000 0 0 1
4.137596 -29.025364 -14.992381 32.929667 -1.429199 2.043489 0.072629 -0.010673 406705.000000 0 0 1
5.486296 -29.682924 -14.522381 33.497388 -1.388029 2.019211 0.110772 -0.002048 1071900.000000 0 0 1
6.435196 -28.802514 -13.857881 32.604255 -1.350982 2.009795 0.085857 0.004776 707661.000000 0 0 1
7.742596 -29.375344 -13.985081 33.443103 -1.313083 2.002232 0.084871 0.003380 695180.000000 0 0 1
8.277896 -30.197634 -12.769281 33.815310 -1.303245 1.958019 0.066438 0.001028 -509029.000000 0 0 1
8.658996 -29.351614 -11.660881 32.748613 -1.283925 1.934858 0.068026 -0.008858 68263.200000 0 0 1
8.853196 -30.003874 -10.389681 32.962964 -1.283870 1.891456 0.072035 -0.007410 409903.000000 0 0 1
10.092296 -30.926694 -10.133681 34.073543 -1.255362 1.872771 0.066170 0.000563 1184580.000000 0 0 1
11.334496 -30.274374 -9.778381 33.773144 -1.212558 1.864533 0.069177 -0.001155 1101390.000000 0 0 1
12.266796 -31.280304 -9.393581 34.887979 -1.197069 1.843410 0.070245 -0.003822 623375.000000 0 0 1
13.498696 -30.863334 -8.519881 34.746922 -1.158495 1.818520 0.066575 -0.009877 621972.000000 0 0 1
14.549796 -30.221414 -9.220681 34.785793 -1.122107 1.839073 0.062449 -0.017368 665388.000000 0 0 1
15.630696 -29.958764 -8.315581 34.799355 -1.089908 1.812089 0.056911 -0.012427 327349.000000 0 0 1
16.813596 -29.165354 -8.908981 34.823625 -1.047841 1.829504 0.057770 -0.021465 -105542.000000 0 0 1
16.589296 -27.794724 -9.253481 33.665685 -1.032696 1.849244 0.057492 -0.023013 186115.000000 0 0 1
15.874096 -27.580024 -10.502481 33.510398 -1.048538 1.889578 0.040813 -0.020373 -122054.000000 0 0 1
15.474696 -26.099104 -10.674081 32.164662 -1.035599 1.909068 0.041885 -0.022054 -1002680.000000 0 0 1
14.531696 -25.629784 -9.727981 31.027240 -1.055007 1.889705 0.035223 -0.024881 105811.000000 0 0 1
14.108896 -24.303004 -9.859681 29.781039 -1.044808 1.908236 0.022351 -0.022678 -66785.800000 0 0 1
13.543596 -23.774404 -11.214681 29.570600 -1.052976 1.959783 0.024184 -0.017324 89887.700000 0 0 1
14.494596 -23.737204 -12.287281 30.406010 -1.022599 1.986799 0.014218 -0.020645 264880.000000 0 0 1
13.768396 -23.695904 -13.523881 30.560759 -1.044431 2.029208 0.030249 -0.023909 132080.000000 0 0 1
14.478496 -23.019104 -14.741881 30.932654 -1.009342 2.067557 0.003764 -0.022331 278181.000000 0 0 1
15.510296 -23.774604 -15.357181 32.274512 -0.992743 2.066704 0.005867 -0.015564 154629.000000 0 0 1
15.873696 -23.246304 -16.608081 32.683226 -0.971675 2.103835 0.001736 -0.013466 -615210.000000 0 0 1
16.855296 -24.266804 -17.332281 34.254733 -0.963716 2.101316 0.012227 -0.010865 659780.000000 0 0 1
18.105096 -24.492904 -16.721881 34.746484 -0.934245 2.072881 0.029726 -0.014848 -100518.000000 0 0 1
18.976296 -23.368304 -16.840581 34.493226 -0.888749 2.080855 0.035525 -0.018552 668029.000000 0 0 1
20.467696 -23.639704 -16.320281 35.271997 -0.857190 2.051832 0.039900 -0.012207 1561150.000000 0 0 1
21.110996 -24.588004 -17.160081 36.670322 -0.861337 2.057772 0.054077 -0.010210 -1662970.000000 0 0 1
22.431396 -24.700904 -16.852081 37.380407 -0.833513 2.038487 0.057708 0.011417 -1359050.000000 0 0 1
23.182096 -25.809904 -17.591681 38.897660 -0.838984 2.040089 0.058195 0.004714 -288724.000000 0 0 1
23.425396 -25.511364 -18.959281 39.484595 -0.827998 2.071644 0.074883 -0.001189 63598.500000 0 0 1
23.853496 -26.702124 -19.591481 40.814444 -0.841685 2.071466 0.067348 -0.009919 227997.000000 0 0 1
25.254696 -26.574684 -20.271981 41.892323 -0.810861 2.075910 0.070053 -0.016091 523367.000000 0 0 1
25.230396 -25.815164 -21.493981 42.011746 -0.796853 2.107864 0.078094 -0.023967 195990.000000 0 0 1
25.851496 -24.517504 -21.241081 41.480012 -0.758920 2.108401 0.084997 -0.027398 -1978.500000 0 0 1
24.885396 -23.270804 -21.085581 40.067630 -0.751883 2.124981 0.100048 -0.019073 436405.000000 0 0 1
24.501496 -22.475604 -22.217781 39.988822 -0.742300 2.159880 0.099426 -0.013041 356618.000000 0 0 1
23.878096 -23.232904 -23.258381 40.631067 -0.771704 2.180261 0.071715 -0.012533 -377165.000000 0 0 1
23.043596 -22.402804 -24.266081 40.270779 -0.771299 2.217517 0.060914 -0.005668 172763.000000 0 0 1
23.792296 -21.680404 -25.249211 40.910096 -0.738988 2.235960 0.051946 0.000129 -5002.060000 0 0 1
22.965596 -20.890304 -26.057391 40.531605 -0.738113 2.269063 0.040721 0.009915 -309298.000000 0 0 1
23.699796 -20.179004 -27.215311 41.346653 -0.705331 2.289252 0.039958 0.009158 120587.000000 0 0 1
22.850296 -19.301104 -27.939391 40.930163 -0.701395 2.322126 0.025159 0.012833 148748.000000 0 0 1
23.498696 -18.812704 -29.085911 41.858055 -0.675098 2.339036 0.030941 0.003377 -172374.000000 0 0 1
22.654896 -17.836804 -29.912711 41.547156 -0.666965 2.374556 0.048813 -0.005229 -158512.000000 0 0 1
21.396596 -18.319304 -30.343691 41.402304 -0.708070 2.393369 0.046777 -0.007334 137156.000000 0 0 1
20.722396 -17.376104 -31.130311 41.236427 -0.697790 2.426332 0.058204 -0.012059 -972965.000000 0 0 1
19.403896 -17.912704 -31.597751 41.180020 -0.745459 2.445429 0.047955 -0.010004 -1030410.000000 0 0 1
19.639396 -18.905404 -32.585611 42.484612 -0.766358 2.444946 0.051322 -0.005341 1003830.000000 0 0 1
18.427896 -19.257304 -33.307221 42.659138 -0.807403 2.466703 0.055594 -0.008913 750453.000000 0 0 1
18.723796 -20.115104 34.014621 43.728622 -0.821205 0.679548 0.068305 -0.009773 119948.000000 0 0 1
19.346596 -21.351004 -34.074031 44.622816 -0.834610 2.439668 0.064851 -0.009215 252050.000000 0 0 1
19.845296 -22.093704 33.376267 44.675975 -0.838958 0.727147 0.062649 -0.014170 -41753.000000 0 0 1
20.581696 -23.394604 33.870362 46.022985 -0.849275 0.743736 0.051924 -0.008671 -95212.200000 0 0 1
19.800796 -24.250204 -33.853101 46.110480 -0.886063 2.395245 0.062569 -0.009534 -109277.000000 0 0 1
19.663496 -23.935504 -32.450491 44.861964 -0.883070 2.379425 0.062436 -0.006921 -134697.000000 0 0 1
18.760296 -24.969004 -31.741471 44.529999 -0.926436 2.364294 0.066024 -0.015542 -299909.000000 0 0 1
19.183996 -26.283364 -31.849131 45.532495 -0.940290 2.345468 0.067293 -0.026153 -98475.600000 0 0 1
20.300596 -26.627284 -31.053501 45.666688 -0.919407 2.318564 0.061365 -0.023712 20856.500000 0 0 1
20.600696 -28.129454 -31.076511 46.705507 -0.938685 2.298788 0.066513 -0.030297 -136657.000000 0 0 1
19.497296 -28.900104 -30.633381 46.408669 -0.977291 2.291720 0.063447 -0.029228 -154581.000000 0 0 1
19.639796 -30.231884 -30.547791 47.253105 -0.994675 2.273747 0.072443 -0.028298 -388697.000000 0 0 1
18.356696 -30.832864 -29.915001 46.717674 -1.033795 2.265732 0.089608 -0.030860 -37726.100000 0 0 1
17.143796 -30.768474 -30.577151 46.643016 -1.062452 2.285716 0.093796 -0.033166 -757193.000000 0 0 1
17.089396 -31.424674 -31.832441 47.883838 -1.072709 2.298002 0.100064 -0.035914 -144195.000000 0 0 1
15.700296 -31.944114 -32.355091 48.101743 -1.113978 2.308565 0.101975 -0.038551 838215.000000 0 0 1
14.808196 -31.012864 -32.905961 47.580276 -1.125322 2.334482 0.101849 -0.033435 -633243.000000 0 0 1
13.710596 -31.496104 -33.588811 48.043660 -1.160225 2.344978 0.068546 -0.021254 -574793.000000 0 0 1
12.953696 -30.385824 34.209791 47.554247 -1.167819 0.767880 0.063661 -0.011685 -198928.000000 0 0 1
12.175096 -29.623034 -33.405671 46.278461 -1.180842 2.377255 0.070309 -0.019421 -240526.000000 0 0 1
11.329196 -28.805494 -34.181974 46.114147 -1.196079 2.405723 0.054131 -0.018260 -84620.800000 0 0 1
10.409796 -27.972454 -33.266071 44.692880 -1.214531 2.410321 0.058857 -0.021036 -367973.000000 0 0 1
9.336696 -28.670774 -32.722481 44.496606 -1.255975 2.397042 0.052536 -0.014682 -743699.000000 0 0 1
8.379896 -27.757404 -32.269331 43.382092 -1.277599 2.409594 0.027363 -0.013952 -502878.000000 0 0 1
7.197296 -28.319954 -31.486031 42.955687 -1.321923 2.393501 0.022044 -0.011610 -858262.000000 0 0 1
6.261596 -29.063914 -32.195181 43.822921 -1.358597 2.395970 0.029074 -0.011668 -451724.000000 0 0 1
6.619796 -30.367684 -32.627861 45.062127 -1.356166 2.380473 0.025727 -0.008298 -129974.000000 0 0 1
5.407296 -31.342374 -32.890801 45.753558 -1.399955 2.372970 0.034523 -0.011148 664121.000000 0 0 1
4.823296 -31.592304 -31.601521 44.944343 -1.419293 2.350580 0.037691 -0.023817 630685.000000 0 0 1
3.782996 -32.600184 -31.695461 45.625490 -1.455271 2.338782 0.053327 -0.045754 -506106.000000 0 0 1
3.020496 -32.838894 -30.346491 44.815465 -1.479075 2.314670 0.041578 -0.054464 543780.000000 0 0 1
1.906196 -31.982774 -30.102671 43.962509 -1.511266 2.325036 0.048491 -0.053717 1106600.000000 0 0 1
0.777096 -32.091754 -31.010671 44.633466 -1.546586 2.338918 0.039265 -0.028831 209745.000000 0 0 1
-0.378604 -31.122114 -30.678101 43.702119 1.558632 2.348973 0.038384 -0.027949 -137094.000000 0 0 1
-1.016604 -31.356114 -29.445211 43.026269 1.538386 2.324514 0.029702 -0.039151 -515366.000000 0 0 1
-1.612304 -30.204184 -29.039371 41.930625 1.517467 2.335825 0.054006 -0.033584 -169805.000000 0 0 1
-2.335204 -30.349374 -27.674591 41.139041 1.494004 2.308660 0.049429 -0.031545 -21820.200000 0 0 1
-1.395804 -30.525114 -26.658161 40.551059 1.525102 2.288156 0.031973 -0.023917 -372276.000000 0 0 1
-2.051704 -30.664984 -25.406001 39.875000 1.503989 2.261580 0.029857 -0.020908 226170.000000 0 0 1
-1.072204 -30.802484 -24.215781 39.196259 1.536001 2.236749 0.027717 -0.008307 415944.000000 0 0 1
-1.674804 -30.817654 -22.881781 38.420160 1.516504 2.208768 0.040678 -0.015180 -718417.000000 0 0 1
-0.722604 -31.110194 -21.950681 38.081475 1.547573 2.185129 0.047435 -0.006625 -689533.000000 0 0 1
-1.203404 -31.035704 -20.487881 37.207746 1.532041 2.153921 0.013546 0.002435 -61013.200000 0 0 1
-1.371604 -29.767734 -19.886081 35.825347 1.524752 2.159260 0.015636 0.006226 -951565.000000 0 0 1
-0.193004 -29.243324 -19.403981 35.095922 1.564196 2.156618 0.039825 -0.000293 -1142450.000000 0 0 1
-0.232804 -27.786444 -18.891581 33.601079 1.562418 2.167878 0.030353 -0.000652 -463297.000000 0 0 1
-0.940804 -27.656084 -17.682381 32.839164 1.536791 2.139398 0.032784 -0.002677 13822.500000 0 0 1
-1.005204 -26.241314 -17.438381 31.523232 1.532509 2.156987 0.033537 -0.006009 103648.000000 0 0 1
-1.759004 -26.034124 -16.113581 30.667853 1.503334 2.124008 0.027653 -0.008491 -22366.700000 0 0 1
-2.109704 -24.715304 -15.828181 29.424963 1.485643 2.138760 0.022883 -0.005807 -103102.000000 0 0 1
-3.078804 -24.671104 -14.817581 28.943102 1.446644 2.108256 0.026155 -0.010779 -184323.000000 0 0 1
-2.936604 -23.532404 -13.791581 27.433655 1.446648 2.097544 0.023556 -0.010814 571179.000000 0 0 1
-1.859404 -23.742904 -12.843281 27.057952 1.492642 2.065372 0.031260 -0.007665 452324.000000 0 0 1
-1.632504 -22.599404 -11.991181 25.635650 1.498685 2.057544 0.028309 -0.007968 439614.000000 0 0 1
-0.280504 -22.617004 -11.221981 25.249563 1.558395 2.031348 0.020245 -0.005803 333394.000000 0 0 1
0.024296 -21.357904 -10.673181 23.876295 -1.569659 2.034227 0.018151 -0.004884 1895.490000 0 1 0
1.323696 -21.447504 -10.091081 23.739788 -1.509157 2.009836 0.018060 -0.001095 705366.000000 0 1 0
1.917496 -20.052004 -9.692581 22.354100 -1.475460 2.019273 0.019892 -0.004945 -809799.000000 0 1 0
2.380096 -19.248004 -10.787581 22.192846 -1.447767 2.078399 0.021220 -0.001835 462910.000000 0 1 0
3.207696 -18.118004 -10.400081 21.135588 -1.395567 2.085256 0.008844 -0.002382 1621940.000000 0 1 0
4.621496 -18.420304 -9.757181 21.351075 -1.324979 2.045402 0.026718 -0.020200 625750.000000 0 1 0
4.406596 -19.016804 -8.518081 21.298231 -1.343094 1.982251 0.023406 -0.013193 -106061.000000 0 1 0
5.568196 -19.752604 -8.160881 22.085519 -1.296030 1.949281 0.042682 -0.018810 -61735.800000 0 1 0
5.285996 -20.859804 -7.137581 22.671971 -1.322615 1.891063 0.042184 -0.019148 -358508.000000 0 1 0
4.560596 -21.861704 -7.773981 23.646732 -1.365135 1.905781 0.039093 -0.018994 -267761.000000 0 1 0
4.321596 -22.871404 -6.798181 24.248559 -1.384046 1.854959 0.047753 -0.025894 417006.000000 0 1 0
3.331896 -24.000504 -7.290081 25.303577 -1.432852 1.863043 0.045974 -0.022514 477545.000000 0 0 1
3.727896 -24.520604 -8.548481 26.234210 -1.419921 1.902710 0.060055 -0.024116 -42013.800000 0 0 1
2.906896 -25.581794 -8.994281 27.272245 -1.457650 1.906884 0.044980 -0.018381 91321.000000 0 0 1
3.585096 -26.282564 -10.171681 28.409315 -1.435227 1.936965 0.048583 -0.014111 632442.000000 0 0 1
4.791496 -26.973944 -9.787281 29.091974 -1.394996 1.913915 0.058686 -0.017923 592595.000000 0 0 1
5.369296 -27.736094 -10.846281 30.261561 -1.379576 1.937369 0.078343 -0.011262 138127.000000 0 0 1
4.945096 -29.187714 -10.784681 31.506920 -1.402966 1.920155 0.057486 -0.005659 -753244.000000 0 0 1
3.695096 -29.564574 -11.252381 31.848609 -1.446457 1.931902 0.061465 -0.001628 -684514.000000 0 0 1
3.617296 -30.982244 -11.176181 33.134443 -1.454569 1.914842 0.063567 -0.005023 -33037.800000 0 0 1
2.280396 -31.578204 -11.663881 33.740618 -1.498707 1.923773 0.054563 -0.011616 -99006.800000 0 0 1
2.216896 -31.686024 -13.095081 34.356949 -1.500946 1.961834 0.065053 -0.012937 248286.000000 0 0 1
1.295096 -32.675964 -13.506881 35.381234 -1.531183 1.962488 0.064104 -0.012443 -164624.000000 0 0 1
0.873096 -32.582534 -14.967381 35.866507 -1.544006 2.001277 0.070604 -0.011397 -638407.000000 0 0 1
-0.308704 -31.892414 -15.170781 35.318182 1.561117 2.014786 0.063216 -0.007045 -670044.000000 0 0 1
-0.739204 -31.936924 -16.495981 35.953177 1.547655 2.047461 0.040073 -0.009183 -361301.000000 0 0 1
-1.980804 -31.129024 -16.835981 35.445592 1.507250 2.065739 0.041777 -0.000961 -12838.100000 0 0 1
-3.167704 -31.525804 -16.150881 35.563488 1.470653 2.042205 0.035724 -0.005844 -218947.000000 0 0 1
-4.270304 -31.005554 -16.832981 35.537714 1.433930 2.064244 0.037036 0.002851 345091.000000 0 0 1
-5.625404 -31.159914 -16.063781 35.505359 1.392187 2.040287 0.035312 -0.010269 232653.000000 0 0 1
-5.807004 -30.282124 -14.951681 34.267785 1.381333 2.022300 0.021965 -0.014158 -810497.000000 0 0 1
-7.132904 -29.933284 -14.739381 34.119337 1.336866 2.017500 0.040029 -0.016056 -561144.000000 0 0 1
-7.836904 -30.884854 -13.748781 34.703318 1.322295 1.978150 0.036956 -0.022590 -194699.000000 0 0 1
-8.054204 -32.216604 -14.206381 36.119262 1.325816 1.975035 0.044184 -0.028801 -193069.000000 0 0 1
-8.808104 -32.949704 -13.272081 36.598003 1.309584 1.941901 0.036436 -0.024849 -217508.000000 0 0 1
-8.993204 34.116510 -13.571281 37.802032 -1.313057 1.938003 0.068739 -0.035538 568019.000000 0 0 1
-7.788804 33.323775 -13.634881 36.838152 -1.341187 1.949945 0.061557 -0.032938 645765.000000 0 0 1
-8.017004 32.064065 -14.237281 35.987175 -1.325789 1.977540 0.078346 -0.042086 -635016.000000 0 0 1
-7.821404 -22.471104 -3.627781 24.068355 1.235846 1.722101 0.051010 0.005956 215686.000000 0 1 0
-7.434004 -21.261704 -4.166481 22.905983 1.234440 1.753709 0.043634 -0.006598 -80093.400000 0 1 0
-6.247704 -21.345004 -4.938181 22.782200 1.286049 1.789287 0.036542 -0.003751 221642.000000 0 1 0
-6.056204 -20.199104 -5.975481 21.917751 1.279500 1.846924 0.039879 -0.013673 551253.000000 0 1 0
-7.006104 -20.280004 -7.043881 22.582744 1.238164 1.888004 0.049304 -0.013579 11765.100000 0 1 0
-6.861404 -19.222104 -7.879681 21.878243 1.227940 1.939236 0.031947 -0.014512 168728.000000 0 1 0
-7.797604 -19.344404 -9.133381 22.768998 1.187626 1.983549 0.035766 -0.019788 241877.000000 0 1 0
-7.351604 -20.230404 -10.076481 23.766590 1.222240 2.008628 0.038934 -0.010370 -338250.000000 0 1 0
-8.275904 -20.354204 -11.146181 24.637808 1.184618 2.040253 0.049174 -0.005426 235606.000000 0 1 0
-7.786704 -21.256204 -12.311881 25.769001 1.219652 2.068921 0.043097 -0.007571 355156.000000 0 0 1
-6.784704 -20.648204 -13.125981 25.390390 1.253325 2.114100 0.045911 -0.006676 -25944.900000 0 0 1
-6.542104 -21.396304 -14.313781 26.560973 1.274065 2.139930 0.036543 -0.004946 202193.000000 0 0 1
-5.493404 -20.676304 -15.226081 26.258724 1.311110 2.189339 0.021836 0.002422 -188974.000000 0 0 1
-4.175704 -20.832704 -14.733181 25.855458 1.372978 2.177094 0.013028 0.002177 68290.600000 0 0 1
-3.174704 -20.164104 -15.497881 25.629166 1.414635 2.220182 0.024519 0.002158 328114.000000 0 0 1
-3.213104 -18.615504 -15.639481 24.524567 1.399877 2.262314 0.040356 0.007284 -1278030.000000 0 1 0
-4.351704 -18.112904 -16.274981 24.736403 1.335011 2.288872 0.027837 0.006801 -333768.000000 0 1 0
-4.289804 -18.117704 -17.757081 25.728730 1.338304 2.332514 0.034030 -0.003332 -1153690.000000 0 0 1
-5.677004 -17.885704 -18.336681 26.236628 1.263450 2.344649 0.019844 0.010956 -559236.000000 0 0 1
-6.436104 -19.033904 -18.086881 27.034204 1.244727 2.303709 0.013950 0.011842 -1888830.000000 0 0 1
-7.748704 -18.891904 -18.402581 27.488206 1.181562 2.304294 0.008386 0.010292 -1116960.000000 0 0 1
-8.631204 -19.921204 -17.599581 27.948118 1.161944 2.251993 0.044092 0.002364 277330.000000 0 0 1
-8.273904 -21.259204 -17.892481 28.992277 1.199642 2.235907 0.048618 0.001698 -122755.000000 0 0 1
-9.398804 -22.063504 -17.744481 29.832907 1.168089 2.207808 0.058638 0.002888 -135467.000000 0 0 1
-9.084204 -23.559304 -18.076581 31.053605 1.202775 2.192116 0.055814 -0.005226 -311788.000000 0 0 1
-8.865604 -23.740804 -19.481181 31.964686 1.213400 2.226175 0.056481 -0.010355 227071.000000 0 0 1
-7.935204 -24.711804 -19.880181 32.693460 1.260087 2.224434 0.063675 -0.019516 145514.000000 0 0 1
-6.418804 -24.452604 -19.712581 32.058022 1.314088 2.233060 0.064651 -0.012302 -302078.000000 0 0 1
-5.892904 -23.425904 -20.583281 31.735954 1.324355 2.276513 0.066106 -0.011721 70496.100000 0 0 1
-5.606904 -22.158804 -20.071281 30.418848 1.322965 2.291389 0.053895 -0.011179 550942.000000 0 0 1
-4.470904 -22.124104 -18.966281 29.481940 1.371399 2.269621 0.033756 0.000910 767543.000000 0 0 1
-3.213204 -22.586404 -19.447281 29.977776 1.429482 2.276702 0.038206 -0.008745 996964.000000 0 0 1
-2.146404 -22.287604 -18.512981 29.052966 1.474788 2.261675 0.034856 -0.002957 751993.000000 0 0 1
-0.725704 -22.803304 -18.757881 29.536002 1.538983 2.258915 0.052145 -0.009200 -246280.000000 0 0 1
-0.005304 -22.100204 -19.728681 29.624988 1.570556 2.299559 0.064916 -0.018393 -89054.100000 0 0 1
1.270496 -22.759804 -19.773481 30.176372 -1.515032 2.285328 0.056788 -0.017806 716034.000000 0 0 1
2.188796 -22.224604 -20.918781 30.599334 -1.472628 2.323528 0.063277 -0.021265 174501.000000 0 0 1
1.766996 -22.448204 -22.245381 31.652822 -1.492244 2.350112 0.056436 -0.024006 -776366.000000 0 0 1
1.007696 -21.400004 -22.675681 31.195547 -1.523742 2.384576 0.069791 -0.019580 -699988.000000 0 0 1
0.610996 -21.595104 -24.148681 32.401862 -1.542511 2.411761 0.069207 -0.027178 41327.100000 0 0 1
0.131396 -20.405704 -24.865481 32.166787 -1.564357 2.454380 0.060878 -0.026425 -1356640.000000 0 0 1
-1.222004 -20.260104 -24.716881 31.982641 1.510554 2.454072 0.040792 -0.021282 -1410130.000000 0 0 1
-1.714504 -19.018304 -25.490401 31.849583 1.480889 2.498653 0.034925 -0.007485 69099.900000 0 0 1
-1.185904 -17.831104 -24.906881 30.654647 1.504387 2.519223 0.032751 -0.008015 81746.200000 0 0 1
-1.649404 -16.736904 -25.624261 30.650404 1.472565 2.560780 0.038488 -0.007031 -213793.000000 0 0 1
-1.285004 -15.341404 -25.086641 29.433815 1.487231 2.591176 0.042530 -0.002767 878892.000000 0 0 1
0.055896 -14.887304 -25.389871 29.432643 -1.567042 2.611269 0.049217 -0.015928 753389.000000 0 0 1
0.393996 -13.684704 -24.682081 28.224661 -1.542013 2.635172 0.050554 -0.017397 242173.000000 0 0 1
0.068096 -12.377804 -25.384171 28.241296 -1.565295 2.687893 0.048878 -0.010745 128922.000000 0 0 1
0.867696 -11.262804 -24.966881 27.403445 -1.493907 2.716706 0.042201 -0.010617 249916.000000 0 0 1
0.608796 -10.129904 -25.823741 27.746192 -1.510770 2.767154 0.028494 -0.008866 -29503.700000 0 0 1
1.678796 -9.008404 -25.675171 27.261403 -1.386551 2.798783 0.036819 -0.016135 821887.000000 0 0 1
3.021396 -9.224904 -26.090551 27.837826 -1.254281 2.785407 0.052992 -0.020182 26447.200000 0 0 1
3.196396 -9.191704 -27.486121 29.158039 -1.236129 2.801309 0.045163 -0.016028 -666462.000000 0 0 1
4.624796 -9.121004 -28.029111 29.836429 -1.101525 2.791747 0.048513 -0.012709 -519984.000000 0 0 1
5.041796 -7.738104 -28.117541 29.595507 -0.993329 2.824228 0.035050 -0.015626 -32127.800000 0 0 1
6.229296 -7.437504 -28.810381 30.399978 -0.873574 2.816780 0.038333 -0.020312 -111102.000000 0 0 1
7.527096 -7.547004 -27.956831 29.919874 -0.786719 2.777339 0.043010 -0.025587 -7966.640000 0 0 1
8.010096 -8.818304 -27.519901 29.987815 -0.833388 2.733055 0.039515 -0.026819 506158.000000 0 0 1
8.676096 -9.549804 -28.584901 31.361919 -0.833299 2.717597 0.039402 -0.032879 -196215.000000 0 0 1
9.052296 -10.926304 -28.100661 31.479761 -0.878925 2.674005 0.045809 -0.039069 425106.000000 0 0 1
7.863196 -11.674504 -27.796001 31.156726 -0.978053 2.672845 0.044945 -0.029360 654893.000000 0 0 1
8.103496 -12.877204 -27.022241 31.011136 -1.009118 2.628789 0.055710 -0.027443 588176.000000 0 0 1
9.148896 -13.931604 -27.590901 32.234294 -0.989725 2.598179 0.049808 -0.033297 640941.000000 0 0 1
8.545096 -14.511004 -28.712161 33.286275 -1.038601 2.611149 0.056594 -0.036936 87984.200000 0 0 1
9.352296 -15.531104 -29.280361 34.438644 -1.028786 2.587196 0.057106 -0.033105 133345.000000 0 0 1
8.720996 -16.249804 -30.509821 35.650541 -1.078235 2.597896 0.066094 -0.035156 -15257.800000 0 0 1
8.393796 -15.320004 -31.511981 36.030033 -1.069569 2.635413 0.063310 -0.034949 73369.500000 0 0 1
7.716496 -15.936304 -32.559651 37.062663 -1.119861 2.643515 0.076979 -0.029870 -1005180.000000 0 0 1
6.605296 -15.091504 -33.188951 37.052529 -1.158232 2.680860 0.083277 -0.027395 -280347.000000 0 0 1
6.972096 -13.940504 -33.979201 37.383604 -1.107043 2.711515 0.086497 -0.020479 50124.400000 0 0 1
5.809396 -13.274904 34.093329 37.044936 -1.158283 0.401889 0.065935 -0.023044 142645.000000 0 0 1
6.077496 -12.168904 33.020505 35.712350 -1.107606 0.390748 0.089890 -0.017872 113270.000000 0 0 1
6.752396 -12.492004 31.800843 34.827269 -1.075247 0.419968 0.081519 -0.017581 319516.000000 0 0 1
7.026296 -11.330804 31.082533 33.821293 -1.015724 0.405202 0.077881 -0.012927 99264.600000 0 0 1
7.646696 -11.579204 29.681643 32.765071 -0.987157 0.437313 0.059638 -0.009535 -96600.400000 0 0 1
6.676296 -12.134604 28.847043 31.999585 -1.067810 0.447615 0.061541 -0.009953 16745.200000 0 0 1
7.115496 -12.148304 27.486063 30.881957 -1.040944 0.473371 0.057337 -0.012593 -516247.000000 0 0 1
6.173696 -12.752404 26.459863 30.014375 -1.119933 0.491612 0.047094 -0.019663 -287842.000000 0 0 1
6.256496 -14.121904 26.445693 30.625914 -1.153750 0.528614 0.055330 -0.018938 -143804.000000 0 0 1
5.891396 -14.680104 25.202333 29.755195 -1.189154 0.560500 0.034738 -0.013748 863344.000000 0 0 1
4.404496 -15.181904 25.067593 29.635689 -1.288433 0.562624 0.025144 -0.018271 1070730.000000 0 0 1
3.470496 -14.127404 24.905583 28.842954 -1.329909 0.528649 0.014447 -0.021574 106307.000000 0 0 1
2.138296 -14.558004 24.639243 28.698434 -1.424958 0.538348 0.017902 -0.018403 502354.000000 0 0 1
1.266296 -13.295504 24.603443 27.994702 -1.475840 0.497328 0.024332 -0.015494 -838899.000000 0 0 1
1.467096 -12.547304 23.429623 26.618311 -1.454400 0.494498 0.010181 -0.013243 -220045.000000 0 0 1
0.488096 -11.552704 23.216523 25.936657 -1.528572 0.462087 0.021417 -0.001862 -62713.400000 0 0 1
-0.910604 -12.023804 22.826923 25.816071 1.495207 0.485988 0.020968 -0.000182 -910656.000000 0 0 1
-1.015604 -12.556904 21.517523 24.934135 1.490092 0.529669 0.018628 -0.009738 659134.000000 0 1 0
-2.248904 -13.293104 21.357923 25.257179 1.403205 0.563075 0.040809 -0.012164 936093.000000 0 0 1
-2.497004 -13.964604 19.969523 24.495450 1.393857 0.617663 0.048102 -0.022286 238946.000000 0 1 0
-1.535704 -14.954404 19.636823 24.730496 1.468463 0.653382 0.055086 -0.033454 -61489.200000 0 1 0
-1.741404 -15.400704 18.308523 23.987835 1.458202 0.702480 0.054645 -0.033239 127854.000000 0 1 0
-2.815904 -16.470804 18.059423 24.604054 1.401470 0.746600 0.039971 -0.038307 288283.000000 0 1 0
-2.270504 -17.758804 17.810523 25.253615 1.443634 0.787998 0.026100 -0.022309 -165420.000000 0 0 1
-3.351704 -18.649404 17.822123 26.012733 1.392973 0.816013 0.030266 -0.013953 17647.400000 0 0 1
-2.966604 -19.986804 17.285123 26.590385 1.423444 0.863144 0.029588 -0.008648 -185813.000000 0 0 1
-2.030204 -20.686904 18.036223 27.520449 1.472970 0.856117 0.034721 -0.020269 -468012.000000 0 0 1
-2.035404 -22.015404 17.607823 28.264047 1.478605 0.898255 0.025523 -0.027136 121858.000000 0 0 1
-0.883004 -22.898004 18.198623 29.262402 1.532253 0.899615 0.040851 -0.022132 213335.000000 0 0 1
0.334896 -22.784404 17.525323 28.746795 -1.556099 0.915184 0.060813 -0.025463 -681875.000000 0 0 1
1.245896 -23.788304 17.933323 29.816770 -1.518470 0.925480 0.060101 -0.017815 799918.000000 0 0 1
2.617396 -23.636504 17.157623 29.324378 -1.460510 0.945796 0.062903 -0.030331 660886.000000 0 0 1
3.261996 -22.425304 17.438323 28.594230 -1.426349 0.914919 0.049054 -0.030327 -396208.000000 0 0 1
4.427396 -22.333504 16.646223 28.204326 -1.375094 0.939488 0.053454 -0.025195 -73344.700000 0 0 1
5.132596 -20.994004 16.886123 27.426865 -1.331020 0.907550 0.065659 -0.024163 -1384550.000000 0 0 1
5.871196 -20.999904 18.040123 28.300406 -1.298175 0.879611 0.075487 -0.018069 -428851.000000 0 0 1
6.409796 -19.754504 18.506723 27.817705 -1.257041 0.842920 0.075650 -0.014453 247626.000000 0 0 1
7.390996 -19.019804 17.589623 26.940205 -1.200161 0.859372 0.081845 -0.012057 -877122.000000 0 0 1
6.823196 -18.419904 16.497123 25.651588 -1.216042 0.872227 0.066147 -0.014379 -377271.000000 0 0 1
7.829096 -17.895904 15.696223 25.058523 -1.158403 0.893892 0.070259 -0.012897 31659.700000 0 0 1
7.172196 -16.776504 14.829623 23.511895 -1.166798 0.888305 0.045191 -0.007288 317785.000000 0 1 0
6.389296 -17.337204 13.775923 23.047295 -1.217709 0.930137 0.046556 -0.009687 173338.000000 0 1 0
5.797896 -16.288604 13.045323 21.659056 -1.228832 0.924413 0.037854 -0.010977 -90893.500000 0 1 0
6.250896 -16.324304 11.574123 20.964659 -1.205101 0.985942 0.037266 -0.016384 -371305.000000 0 1 0
7.601796 -15.996604 11.446923 21.088165 -1.127174 0.997014 0.047516 -0.009879 -401831.000000 0 1 0
8.084296 -16.290904 10.112523 20.808953 -1.110156 1.063324 0.048315 -0.012079 702201.000000 0 1 0
9.633696 -16.113804 10.069823 21.304087 -1.031957 1.078477 0.049397 -0.005080 665389.000000 0 1 0
10.213896 -16.612704 8.873523 21.425336 -1.019548 1.143776 0.056605 -0.006676 899140.000000 0 1 0
11.627396 -16.309204 8.913523 21.923444 -0.951442 1.152094 0.058945 0.000474 1303470.000000 0 1 0
12.622996 -17.099904 8.003223 22.711194 -0.934896 1.210671 0.062490 -0.008961 239746.000000 0 1 0
13.031896 -18.207204 8.726223 24.030805 -0.949575 1.199175 0.068245 -0.017710 -297567.000000 0 1 0
13.745996 -19.051104 7.879323 24.778634 -0.945765 1.247189 0.069119 -0.014760 -83695.700000 0 1 0
14.193696 -20.441804 8.454823 26.283311 -0.963875 1.243293 0.060123 -0.014140 28878.200000 0 0 1
13.128596 -21.252304 8.903423 26.519642 -1.017428 1.228417 0.067388 -0.018436 35067.900000 0 0 1
13.685796 -22.349704 9.630823 27.920656 -1.021347 1.218626 0.063358 -0.014672 -63961.000000 0 0 1
12.663196 -23.204704 10.356223 28.391305 -1.071248 1.197413 0.081990 -0.022613 -190284.000000 0 0 1
12.160696 -22.562504 11.516923 28.099620 -1.076455 1.148495 0.082930 -0.030461 -341331.000000 0 0 1
11.193596 -23.212704 12.314623 28.561796 -1.121475 1.125021 0.091972 -0.025901 -108751.000000 0 0 1
11.502496 -24.663404 12.852523 30.096151 -1.134405 1.129570 0.079295 -0.018976 -433872.000000 0 0 1
12.584796 -24.669904 13.742923 30.916811 -1.099080 1.110166 0.072863 -0.026653 -267701.000000 0 0 1
12.812496 -25.954694 14.287823 32.279221 -1.112243 1.112264 0.066412 -0.025634 14635.500000 0 0 1
14.038896 -26.153214 15.197223 33.347216 -1.078148 1.097608 0.075175 -0.021715 38132.100000 0 0 1
13.862596 -25.642154 16.496623 33.493734 -1.075185 1.055803 0.065712 -0.017505 -489889.000000 0 0 1
14.930396 -26.047094 17.258523 34.629821 -1.050310 1.049077 0.072901 -0.016796 -710343.000000 0 0 1
14.861496 -25.467224 18.713823 34.923499 -1.042557 1.005280 0.078287 -0.014485 -25250.900000 0 0 1
15.089896 -24.110104 18.965323 34.186044 -1.011569 0.982712 0.044182 -0.017715 883679.000000 0 0 1
16.432196 -23.899404 19.465623 34.930060 -0.968470 0.979697 0.044313 -0.018044 1076440.000000 0 0 1
16.871696 -22.434404 19.642923 34.260780 -0.925987 0.960225 0.030152 -0.016846 24443.100000 0 0 1
16.926896 -21.590504 18.525623 33.103903 -0.905890 0.976869 0.022155 -0.013695 267576.000000 0 0 1
15.687296 -20.971704 18.216623 31.902179 -0.928562 0.963055 0.046816 -0.010068 -308578.000000 0 0 1
15.787696 -19.886604 17.156423 30.644269 -0.899795 0.976583 0.036311 -0.011500 225118.000000 0 0 1
16.625096 -18.783804 17.482123 30.575313 -0.846288 0.962132 0.037270 -0.009323 754633.000000 0 0 1
18.029296 -18.966504 17.305623 31.373052 -0.810726 0.986506 0.036909 -0.013975 478293.000000 0 0 1
18.900696 -17.708004 17.661023 31.348389 -0.752830 0.972326 0.051885 -0.011876 77646.300000 0 0 1
19.217496 -17.638504 19.033223 32.290751 -0.742582 0.940440 0.047336 -0.007471 84643.900000 0 0 1
19.514396 -16.314404 19.381123 31.978108 -0.696321 0.919680 0.060824 -0.007614 -196899.000000 0 0 1
20.028396 -16.074004 20.811623 33.055014 -0.676300 0.889751 0.058167 -0.004973 -33400.700000 0 0 1
21.295396 -16.696504 20.882623 34.181151 -0.664935 0.913549 0.049801 0.001163 -18515.200000 0 0 1
21.876096 -16.736704 22.174223 35.360671 -0.653075 0.892988 0.051420 0.006102 224372.000000 0 0 1
33.558326 -1.347804 -8.181281 34.567488 -0.040141 1.809739 0.100575 -0.012506 -1092800.000000 0 0 1
34.717636 -1.260404 -8.917481 35.866758 -0.036289 1.822060 0.098859 -0.009522 -390326.000000 0 0 1
35.702046 -2.208304 -8.504881 36.767455 -0.061775 1.804226 0.115752 -0.022318 -234242.000000 0 0 1
-35.433645 -2.011404 -9.093881 36.637244 0.056705 1.821633 0.093704 -0.019995 -587255.000000 0 0 1
-34.446257 -2.912904 -8.627381 35.629501 0.084363 1.815369 0.116058 -0.011549 96997.800000 0 0 1
-33.187414 -2.444004 -9.090881 34.496691 0.073510 1.837475 0.163362 -0.021441 -228358.000000 0 0 1
-32.060984 -3.423304 -8.767981 33.414117 0.106372 1.836308 0.144456 -0.014279 -539421.000000 0 0 1
-31.633534 -3.334304 -7.419481 32.662620 0.105016 1.799952 0.131139 -0.015360 55155.900000 0 0 1
-30.377844 -3.940104 -7.259481 31.480754 0.128983 1.803491 0.122407 -0.022315 -125211.000000 0 0 1
-29.874984 -3.906704 -5.763581 30.675656 0.130031 1.759808 0.114969 -0.034205 -189794.000000 0 0 1
-29.533154 -2.578904 -5.383181 30.130326 0.087101 1.750424 0.116036 -0.031549 429161.000000 0 0 1
-29.363794 -2.526204 -3.935381 29.733841 0.085820 1.703539 0.106402 -0.027761 -238438.000000 0 0 1
-29.129674 -1.149804 -3.340881 29.343167 0.039451 1.684899 0.125228 -0.032484 -303414.000000 0 0 1
-27.865244 -0.588904 -3.613881 28.104782 0.021131 1.699739 0.114376 -0.027140 283109.000000 0 0 1
-27.653684 0.582996 -2.808681 27.802065 -0.021079 1.671993 0.120349 -0.028999 -911137.000000 0 0 1
-26.218074 0.826196 -2.412481 26.341793 -0.031502 1.662509 0.127898 -0.021616 -880194.000000 0 0 1
-25.811644 0.107296 -1.276981 25.843436 -0.004157 1.620229 0.112378 -0.024423 1240950.000000 0 0 1
-24.389004 0.007196 -1.050481 24.411618 -0.000295 1.613842 0.105237 -0.025302 983311.000000 0 1 0
-24.028904 -0.747904 0.233019 24.041670 0.031115 1.561104 0.094257 -0.027361 -275904.000000 0 1 0
-24.169804 -2.131504 0.058719 24.263680 0.087961 1.568376 0.099061 -0.023766 464004.000000 0 1 0
-23.446604 -2.879604 1.014519 23.644547 0.122203 1.527876 0.085519 -0.017907 -208639.000000 0 1 0
-23.614404 -4.370104 0.804419 24.028836 0.182991 1.537313 0.081493 -0.006161 61945.000000 0 1 0
-24.782904 -4.933204 1.396019 25.307661 0.196488 1.515606 0.074525 -0.003078 519002.000000 0 0 1
-25.006604 -6.276504 1.054819 25.803825 0.245914 1.529907 0.070609 0.004642 148379.000000 0 0 1
-26.216074 -6.938104 1.770719 27.176374 0.258719 1.505594 0.065932 0.001352 71588.200000 0 0 1
-26.014674 -7.139504 3.157019 27.160680 0.267847 1.454298 0.056748 0.002687 -292559.000000 0 0 1
-27.143834 -7.705504 3.748119 28.464204 0.276600 1.438734 0.059505 0.013658 -402747.000000 0 0 1
-27.195914 -7.658104 5.282119 28.743088 0.274483 1.385976 0.046066 0.011899 161340.000000 0 0 1
-26.247114 -8.526804 5.923519 28.225972 0.314111 1.359364 0.050086 0.032681 222736.000000 0 0 1
-26.353164 -8.708804 7.310019 28.701375 0.319167 1.313267 0.038874 0.020288 -177959.000000 0 0 1
-25.828904 -7.551504 8.139619 28.114247 0.284439 1.277072 0.051288 0.020338 -1142730.000000 0 0 1
-24.482904 -7.295704 8.021219 26.776479 0.289613 1.266563 0.069091 0.012755 -1157860.000000 0 0 1
-24.094704 -6.126704 8.692019 26.337093 0.248999 1.234461 0.067449 -0.006324 -189084.000000 0 0 1
-22.673004 -5.678704 8.302319 24.804058 0.245413 1.229492 0.088059 -0.017095 38538.600000 0 1 0
-21.670904 -6.607704 8.656519 24.253354 0.295957 1.205827 0.091364 -0.017695 146125.000000 0 1 0
-20.466404 -6.310304 7.965919 22.850591 0.299077 1.214710 0.086361 -0.017187 1201950.000000 0 1 0
-19.122804 -6.597504 8.752219 22.041099 0.332220 1.162456 0.077783 -0.023592 774773.000000 0 1 0
-18.976904 -5.600204 9.741319 22.053990 0.286961 1.113300 0.071670 -0.022540 187814.000000 0 1 0
-17.942104 -5.807304 10.671919 21.668727 0.313028 1.055833 0.066166 -0.025633 -207521.000000 0 1 0
-17.769104 -4.568604 11.584319 21.698149 0.251659 1.007608 0.060016 -0.026304 21999.600000 0 1 0
-18.735804 -4.562404 12.611519 23.041187 0.238864 0.991606 0.060984 -0.018274 149982.000000 0 1 0
-18.743104 -3.374204 13.334019 23.248339 0.178116 0.959967 0.058658 -0.010588 -216738.000000 0 1 0
-19.998004 -3.285904 14.195619 24.743341 0.162856 0.959762 0.060125 -0.011863 -333127.000000 0 1 0
-20.032504 -4.291704 15.150119 25.480307 0.211047 0.934051 0.056694 -0.014658 224747.000000 0 0 1
-21.297804 -4.303904 15.785019 26.856785 0.199397 0.942524 0.048202 0.002056 50622.700000 0 0 1
-21.389904 -5.221404 17.024819 27.832275 0.239424 0.912597 0.051083 -0.001309 -199772.000000 0 0 1
-22.158504 -4.727604 18.091219 28.993823 0.210202 0.896986 0.039876 -0.003270 97014.800000 0 0 1
-21.918004 -5.501404 19.193919 29.649130 0.245919 0.866669 0.049096 -0.006387 -214530.000000 0 0 1
-22.686804 -5.040004 20.500219 30.989542 0.218606 0.847952 0.038204 -0.003289 -205875.000000 0 0 1
-22.347904 -3.784504 20.997019 30.897024 0.167753 0.823605 0.040428 -0.003457 205840.000000 0 0 1
-22.959404 -3.471904 22.240619 32.153281 0.150082 0.806948 0.043754 -0.004343 -3707.470000 0 0 1
-22.938904 -1.930504 22.473719 32.171233 0.083961 0.797405 0.043526 0.000684 13399.000000 0 0 1
-24.053804 -1.326704 21.853319 32.525578 0.055100 0.834051 0.052496 -0.000807 -31907.000000 0 0 1
-24.117904 0.091296 22.114119 32.721796 -0.003785 0.828717 0.051850 -0.011072 -572597.000000 0 0 1
-25.430624 0.693196 21.623519 33.388228 -0.027252 0.866315 0.082522 -0.018208 -469571.000000 0 0 1
-26.493774 0.302896 22.491019 34.754248 -0.011432 0.866963 0.087071 -0.021114 -645084.000000 0 0 1
-27.591624 1.096996 22.226119 35.447165 -0.039737 0.893073 0.074854 -0.017533 -1199340.000000 0 0 1
-28.613984 1.189596 23.313819 36.928436 -0.041550 0.887537 0.062156 -0.011929 -719656.000000 0 0 1
-28.162814 1.912296 24.461919 37.352195 -0.067797 0.856747 0.059549 -0.012524 -8517.310000 0 0 1
-29.121344 1.909196 25.479419 38.741431 -0.065466 0.853063 0.055229 -0.010567 -376795.000000 0 0 1
-28.714754 2.888796 26.576919 39.232829 -0.100266 0.826553 0.071761 -0.010604 318295.000000 0 0 1
-27.590994 2.553896 27.378319 38.953276 -0.092300 0.791400 0.052814 -0.011570 275308.000000 0 0 1
-27.256654 3.550096 28.306719 39.456289 -0.129518 0.770705 0.045042 -0.012191 302406.000000 0 0 1
-25.947354 3.177996 29.095719 39.114265 -0.121872 0.731962 0.050983 -0.012901 384152.000000 0 0 1
-26.091344 2.164796 30.067819 39.868764 -0.082780 0.716407 0.050094 -0.010129 841986.000000 0 0 1
-24.889404 1.951996 30.835919 39.675517 -0.078267 0.680588 0.031507 -0.011051 875407.000000 0 0 1
-25.159604 0.827096 31.851919 40.598455 -0.032862 0.668810 0.037245 -0.006785 224394.000000 0 0 1
-25.443844 -0.396104 31.197819 40.259782 0.015567 0.684219 0.038106 -0.012068 -158609.000000 0 0 1
-25.774804 -1.535104 32.009819 41.125729 0.059488 0.678778 0.043180 -0.011000 -389269.000000 0 0 1
-26.528404 -2.634904 31.225319 41.057515 0.098999 0.706673 0.040071 -0.000457 700757.000000 0 0 1
-27.842264 -2.310404 30.750019 41.546279 0.082792 0.737519 0.034572 0.002427 711829.000000 0 0 1
-27.913744 -1.278904 29.735619 40.804654 0.045784 0.754329 0.035537 0.007411 -498559.000000 0 0 1
-29.375604 -1.330004 29.198819 41.439909 0.045245 0.788928 0.043335 -0.000998 421316.000000 0 0 1
-30.292664 -1.007004 30.193319 42.781960 0.033230 0.787317 0.053425 -0.000522 -607847.000000 0 0 1
-31.640104 -1.012604 29.739919 43.434829 0.031993 0.816601 0.042582 -0.001388 276967.000000 0 0 1
-32.565544 -0.669304 30.912019 44.905630 0.020550 0.811547 0.044464 -0.004290 -287598.000000 0 0 1
-32.899814 -1.735704 31.809519 45.795807 0.052708 0.802940 0.036887 0.000655 -122410.000000 0 0 1
-33.193964 -1.175404 33.061419 46.864467 0.035395 0.787712 0.054638 -0.005115 -70892.200000 0 0 1
-33.542904 -2.305304 34.040319 47.845420 0.068619 0.779216 0.057095 0.000177 -213940.000000 0 0 1
-34.674805 -3.033104 33.664419 48.423496 0.087251 0.802087 0.028624 0.006131 -116302.000000 0 0 1
-34.592146 -4.317104 -34.255985 48.874599 0.124158 2.347448 0.020425 0.006055 256707.000000 0 0 1
-35.794763 -5.125004 33.748019 49.461698 0.142211 0.819884 0.011408 0.000542 168843.000000 0 0 1
35.421756 -4.838304 34.192419 49.469501 -0.135751 0.807673 0.020081 -0.005954 -324177.000000 0 0 1
34.432746 -5.378804 33.352919 48.238603 -0.154960 0.807350 0.012216 -0.006001 622236.000000 0 0 1
32.984256 -5.153104 33.951819 47.615561 -0.154976 0.776971 0.041017 -0.009321 607655.000000 0 0 1
32.710966 -5.972204 -33.423385 47.146550 -0.180586 2.358770 0.048573 -0.007435 210741.000000 0 0 1
32.264216 -7.312604 -33.696885 47.222176 -0.222882 2.365394 0.036612 -0.009666 441764.000000 0 0 1
30.786136 -7.556604 -34.159185 46.601914 -0.240696 2.393518 0.042085 -0.018608 421780.000000 0 0 1
29.821686 -7.245604 -33.197185 45.209345 -0.238346 2.395430 0.058237 -0.025922 -78363.800000 0 0 1
28.509506 -7.424404 -33.710885 44.769828 -0.254760 2.423379 0.072924 -0.022617 -187965.000000 0 0 1
27.438626 -6.860404 -32.773385 43.290162 -0.245004 2.429602 0.082346 -0.024720 -210470.000000 0 0 1
26.148126 -7.358204 -33.088285 42.810072 -0.274311 2.454209 0.075751 -0.023993 -149611.000000 0 0 1
25.341826 -7.183304 -31.949785 41.407690 -0.276211 2.452134 0.086481 -0.026638 302505.000000 0 0 1
23.847426 -7.623104 -32.144085 40.743756 -0.309396 2.479867 0.086700 -0.034731 599957.000000 0 0 1
23.576926 -9.015304 -32.252685 40.955865 -0.365224 2.477536 0.080137 -0.037696 255152.000000 0 0 1
23.796926 -9.742804 -31.076385 40.335563 -0.388596 2.450337 0.067765 -0.031605 -469177.000000 0 0 1
23.437726 -11.211904 -31.364085 40.727627 -0.446194 2.449784 0.075914 -0.031761 -143329.000000 0 0 1
22.083126 -11.409304 -31.702285 40.284880 -0.476881 2.476650 0.090172 -0.041897 29542.400000 0 0 1
21.853326 -12.791504 -31.852085 40.690856 -0.529566 2.469921 0.081314 -0.031166 -504217.000000 0 0 1
20.567826 -12.989204 -32.669185 40.731199 -0.563281 2.501546 0.082610 -0.031334 436506.000000 0 0 1
19.355426 -12.779304 -31.928485 39.463544 -0.583543 2.513352 0.084615 -0.026593 554850.000000 0 0 1
18.771026 -11.505304 -32.283285 39.076002 -0.549872 2.543066 0.089326 -0.037356 -531579.000000 0 0 1
17.420626 -11.223704 -31.620785 37.806399 -0.572341 2.561455 0.080773 -0.040880 -603600.000000 0 0 1
16.356126 -11.694504 -32.398685 38.130815 -0.620717 2.586159 0.065333 -0.016941 -557842.000000 0 0 1
15.125226 -11.399504 -31.739385 36.960921 -0.645849 2.603579 0.071078 -0.031089 573254.000000 0 0 1
13.956726 -11.669304 -32.746785 37.460843 -0.696372 2.634501 0.057898 -0.012393 -370433.000000 0 0 1
13.749826 -12.999004 -33.017885 38.055388 -0.757336 2.621206 0.061388 -0.011851 534614.000000 0 0 1
12.579626 -13.259804 -33.804985 38.429759 -0.811715 2.645936 0.046827 -0.011910 1021940.000000 0 0 1
11.270526 -13.458304 -32.973785 37.355337 -0.873639 2.652386 0.034699 -0.006419 38626.200000 0 0 1
10.760426 -12.255804 -32.412485 36.284441 -0.850278 2.675406 0.079733 -0.012472 -801095.000000 0 0 1
9.746126 -12.492204 -31.501085 35.261317 -0.908260 2.675567 0.068462 -0.022251 -238603.000000 0 0 1
8.484726 -11.707004 -31.959185 35.077543 -0.943648 2.716744 0.052132 -0.014915 -280173.000000 0 0 1
8.755226 -10.322104 -31.901585 34.654162 -0.867347 2.740334 0.058089 -0.014646 -82451.200000 0 0 1
7.697226 -9.476804 -32.273185 34.505298 -0.888650 2.779933 0.052524 -0.009332 -307505.000000 0 0 1
8.078026 -8.009604 -32.596885 34.524849 -0.781145 2.805824 0.069457 -0.012784 -348390.000000 0 0 1
8.369126 -7.207904 -31.517185 33.396543 -0.710989 2.804517 0.061151 -0.022737 154371.000000 0 0 1
8.899526 -5.946204 -31.863785 33.613386 -0.589028 2.817529 0.062103 -0.020175 -83908.500000 0 0 1
9.165826 -5.066004 -30.608485 32.350519 -0.504918 2.811929 0.057575 -0.020232 -963736.000000 0 0 1
8.000726 -4.641104 -30.016085 31.408865 -0.525648 2.842677 0.071294 -0.019832 -967403.000000 0 0 1
8.222826 -3.652804 -29.043885 30.405675 -0.418043 2.841174 0.064313 -0.017386 -192251.000000 0 0 1
6.941926 -3.021604 -28.495985 29.484599 -0.410536 2.881905 0.050986 -0.013071 -603734.000000 0 0 1
6.163226 -2.361904 -29.480385 30.210214 -0.365962 2.921337 0.045801 -0.006509 881468.000000 0 0 1
4.863126 -1.881504 -29.079485 29.543299 -0.369156 2.964163 0.045080 -0.009157 842583.000000 0 0 1
3.794026 -2.973404 -29.046385 29.443645 -0.664727 2.977138 0.029860 -0.013328 -1111540.000000 0 0 1
3.847226 -3.784504 -27.901185 28.418299 -0.777180 2.950533 0.040539 -0.015930 -305366.000000 0 0 1
2.913526 -4.827304 -27.751385 28.318384 -1.027770 2.941146 0.054161 -0.017096 -78520.500000 0 0 1
3.097926 -5.637804 -26.456585 27.227428 -1.068343 2.903073 0.049896 -0.030134 -170210.000000 0 0 1
2.909326 -4.949804 -25.230085 25.875122 -1.039421 2.917838 0.057138 -0.033018 15450.400000 0 0 1
3.255926 -5.826804 -24.170285 25.074995 -1.061234 2.872152 0.062314 -0.041930 3026.720000 0 0 1
3.109426 -5.168104 -22.754085 23.539885 -1.029159 2.882482 0.070032 -0.046863 -26870.100000 0 1 0
4.011126 -4.099704 -22.667885 23.382252 -0.796319 2.893768 0.060186 -0.040254 -189870.000000 0 1 0
3.842226 -3.358804 -21.486385 22.084135 -0.718366 2.908398 0.058379 -0.035453 211487.000000 0 1 0
4.949026 -2.285904 -21.264285 21.951948 -0.432697 2.890631 0.070528 -0.030668 962471.000000 0 1 0
6.280426 -2.771004 -21.023085 22.115432 -0.415522 2.825982 0.070475 -0.029429 315734.000000 0 1 0
7.094826 -1.727304 -20.582085 21.839010 -0.238814 2.800668 0.084240 -0.020336 -1138360.000000 0 1 0
8.517526 -2.114404 -20.316385 22.130848 -0.243323 2.733834 0.069320 -0.020423 -2182490.000000 0 1 0
9.253426 -2.378504 -21.463685 23.494104 -0.251594 2.722792 0.071809 -0.028618 -91813.800000 0 1 0
10.312326 -3.296104 -21.226385 23.827878 -0.309365 2.669946 0.049089 -0.032415 1135240.000000 0 1 0
11.607526 -2.771904 -20.485385 23.707997 -0.234412 2.614098 0.038592 -0.019828 -39415.500000 0 1 0
11.339626 -2.471804 -19.117085 22.364254 -0.214622 2.595972 0.045633 -0.011998 -416895.000000 0 1 0
12.381526 -1.928604 -18.372785 22.239176 -0.154523 2.543028 0.035465 -0.019138 -584594.000000 0 1 0
12.719626 -0.430804 -18.447385 22.411615 -0.033856 2.537675 0.034147 -0.015280 188852.000000 0 1 0
13.381526 0.108696 -19.587885 23.722611 0.008123 2.542248 0.039771 -0.013844 363944.000000 0 1 0
13.144126 1.532096 -19.613785 23.660430 0.116038 2.548060 0.050820 -0.022973 -10588.500000 0 1 0
13.476326 2.229596 -20.951485 25.010941 0.163960 2.563841 0.036849 -0.012035 -930567.000000 0 0 1
14.807326 2.349396 -21.302485 26.049423 0.157353 2.528325 0.032035 -0.004522 -795909.000000 0 0 1
14.919426 3.467396 -22.192285 26.964970 0.228354 2.537476 0.038170 -0.013359 312848.000000 0 0 1
16.359026 3.707196 -22.795385 28.301777 0.222851 2.507214 0.044635 -0.011748 949054.000000 0 0 1
16.763726 2.604796 -23.601585 29.066171 0.154150 2.518358 0.031440 -0.012910 129732.000000 0 0 1
17.437926 1.575096 -22.898585 28.825464 0.090081 2.488795 0.028223 -0.007428 -319179.000000 0 0 1
8.941496 26.644596 2.853819 28.249409 1.247022 1.469601 0.001506 0.011455 -17411.000000 0 0 1
8.962096 27.214896 4.156519 28.952484 1.252673 1.426735 0.006401 0.008532 15374.600000 0 0 1
10.239996 27.576096 4.628819 29.777920 1.215242 1.414719 0.024685 -0.001960 -210602.000000 0 0 1
10.242796 28.274696 5.942919 30.654389 1.223241 1.375692 0.026140 -0.004392 -77424.200000 0 0 1
10.117696 27.384996 7.040819 30.031298 1.216890 1.334144 0.020487 -0.007078 125498.000000 0 0 1
10.050596 28.171896 8.238419 31.024857 1.228112 1.302030 0.036253 -0.014920 -743741.000000 0 0 1
10.322796 27.401496 9.586819 30.810861 1.210515 1.254393 0.033525 -0.021401 -411279.000000 0 0 1
11.581296 26.955896 9.953619 30.980982 1.165003 1.243714 0.032073 -0.021044 -513316.000000 0 0 1
12.242096 26.100596 9.023519 30.208176 1.132226 1.267454 0.037043 -0.016453 -595404.000000 0 0 1
13.379296 25.282896 9.639919 30.185401 1.084075 1.245745 0.051594 -0.019203 88199.200000 0 0 1
14.495896 26.064396 10.079419 31.481398 1.063238 1.244887 0.055211 -0.026768 188697.000000 0 0 1
15.437296 25.155596 10.585619 31.355533 1.020384 1.226431 0.057850 -0.020689 754519.000000 0 0 1
16.795296 25.712496 11.188119 32.686211 0.992178 1.221445 0.056604 -0.020712 725652.000000 0 0 1
17.532096 26.324996 10.137719 33.213749 0.983265 1.260620 0.043105 -0.016040 -306076.000000 0 0 1
18.879896 26.581296 10.411419 34.225917 0.953211 1.261701 0.048278 -0.029985 -140175.000000 0 0 1
19.356096 27.596596 11.533319 35.626507 0.959135 1.241129 0.044685 -0.020029 -504621.000000 0 0 1
19.223796 28.982796 11.370319 36.590175 0.985140 1.254817 0.035397 -0.022188 -147622.000000 0 0 1
17.925696 29.513196 11.387319 36.359735 1.024969 1.252252 0.032818 -0.011352 -248172.000000 0 0 1
18.088896 31.084196 11.555019 37.775043 1.043768 1.259923 0.034611 -0.002253 -470824.000000 0 0 1
18.682296 31.877696 10.564219 38.429395 1.040689 1.292311 0.043933 -0.022120 162707.000000 0 0 1
17.960496 31.991496 9.339219 37.858371 1.059232 1.321535 0.056936 -0.030123 -309969.000000 0 0 1
16.625196 32.719896 9.435519 37.894825 1.100684 1.319157 0.053232 -0.021273 -724661.000000 0 0 1
16.737696 34.082496 9.760819 39.205109 1.114299 1.319182 0.049990 -0.021153 -382236.000000 0 0 1
15.488796 -33.916794 10.045419 38.615569 -1.142409 1.307630 0.060458 -0.008659 -491556.000000 0 0 1
15.474596 -32.390394 10.209419 37.320678 -1.125104 1.293705 0.066385 -0.004448 63012.500000 0 0 1
15.921496 -31.752794 8.998519 36.642971 -1.106013 1.322686 0.065879 -0.014814 223561.000000 0 0 1
16.055896 -30.319794 9.135319 35.504025 -1.083788 1.310565 0.058300 -0.006262 -199688.000000 0 0 1
16.723696 -29.752594 7.909119 35.035026 -1.058717 1.343085 0.054636 0.002067 -669275.000000 0 0 1
16.012696 -29.977394 6.747319 34.649342 -1.080196 1.374813 0.052218 0.002352 -259646.000000 0 0 1
16.617096 -29.423294 5.569119 34.247236 -1.056692 1.407456 0.054276 0.004083 -121729.000000 0 0 1
16.147696 -29.928794 4.186819 34.263833 -1.076021 1.448297 0.057391 -0.007258 -346061.000000 0 0 1
16.640896 -31.145694 3.800019 35.516388 -1.080093 1.463598 0.050936 -0.010095 -362546.000000 0 0 1
16.485596 -31.468894 2.393419 35.606104 -1.088236 1.503526 0.048148 -0.009990 -227696.000000 0 0 1
16.713396 -32.973294 2.124019 37.028195 -1.101662 1.513403 0.050281 -0.013132 -205247.000000 0 0 1
18.083296 -33.313094 2.097519 37.962711 -1.073476 1.515516 0.062668 -0.004660 122475.000000 0 0 1
18.251396 33.905496 1.642219 38.540796 1.076979 1.528174 0.073330 -0.011979 -496041.000000 0 0 1
19.665296 33.385696 1.886519 38.792879 1.038479 1.522147 0.089504 -0.017608 -343866.000000 0 0 1
19.982296 33.196196 3.256619 38.882967 1.028948 1.486944 0.072112 -0.040960 511872.000000 0 0 1
21.350496 32.862596 3.476419 39.343098 0.994639 1.482319 0.058607 -0.026197 334313.000000 0 0 1
21.632096 33.003296 4.989119 39.775073 0.990598 1.445032 0.053381 -0.012881 -431199.000000 0 0 1
21.137896 31.911696 5.733919 38.704584 0.985762 1.422103 0.058019 -0.024501 343564.000000 0 0 1
21.994996 30.748896 5.807619 38.249220 0.949869 1.418370 0.045770 -0.024596 276284.000000 0 0 1
21.397296 29.669296 6.751019 37.197952 0.945988 1.388296 0.049453 -0.032063 -96480.200000 0 0 1
20.205596 29.173096 6.201519 36.024914 0.965047 1.397789 0.062153 -0.029214 -414547.000000 0 0 1
19.317796 28.750396 7.220019 35.382074 0.979170 1.365294 0.054276 -0.034357 33732.000000 0 0 1
17.858696 29.066696 6.814419 34.788534 1.019853 1.373640 0.073670 -0.034036 -482915.000000 0 0 1
17.531696 30.439096 6.721619 35.764215 1.048241 1.381729 0.077099 -0.040240 9679.730000 0 0 1
17.779396 31.141696 5.488219 36.277165 1.052034 1.418927 0.076141 -0.033947 -406557.000000 0 0 1
17.585096 32.665396 5.564819 37.513076 1.076949 1.421903 0.080194 -0.035934 -387517.000000 0 0 1
16.269196 33.145496 5.492219 37.329279 1.114502 1.423131 0.083750 -0.036022 -575068.000000 0 0 1
16.208396 -34.003694 5.416719 38.056592 -1.125990 1.427978 0.077975 -0.037882 -169329.000000 0 0 1
14.805596 -33.415594 5.681519 36.987664 -1.153717 1.416580 0.068354 -0.033913 -158726.000000 0 0 1
13.919496 -33.522494 4.607619 36.588798 -1.177231 1.444531 0.061126 -0.021908 -166740.000000 0 0 1
12.896396 -32.526994 4.731219 35.308736 -1.193326 1.436396 0.049697 -0.015122 919498.000000 0 0 1
11.875096 -32.594794 3.502719 34.866998 -1.221417 1.470167 0.046911 -0.014273 960047.000000 0 0 1
11.015696 -31.431494 3.400119 33.479026 -1.233706 1.469061 0.040642 -0.012522 144413.000000 0 0 1
10.261396 -31.567894 2.237519 33.269125 -1.256512 1.503490 0.041091 -0.004403 -893646.000000 0 0 1
9.576296 -30.198194 1.889419 31.736513 -1.263713 1.511227 0.038350 0.000613 -180367.000000 0 0 1
8.992696 -30.070394 0.654019 31.393071 -1.280207 1.549962 0.048049 -0.001765 713941.000000 0 0 1
7.953896 -31.025094 0.281919 32.029680 -1.319832 1.561994 0.033970 -0.000875 -71197.900000 0 0 1
8.272396 -31.576294 -1.097381 32.660360 -1.314573 1.604402 0.052144 0.000247 75426.600000 0 0 1
9.516396 -32.240794 -1.072681 33.633038 -1.283780 1.602695 0.046481 -0.004480 -117766.000000 0 0 1
9.778096 -33.024494 -2.248081 34.514957 -1.282934 1.635976 0.044953 -0.002394 -67800.300000 0 0 1
11.137596 -33.736694 -2.241281 35.598229 -1.251929 1.633798 0.043610 0.001389 -123563.000000 0 0 1
11.054896 33.880096 -1.222781 35.659035 1.255394 1.605094 0.031300 0.001659 -172739.000000 0 0 1
12.063696 32.919296 -1.269981 35.083125 1.219531 1.607003 0.050106 -0.009647 -533226.000000 0 0 1
12.026596 32.035396 0.037819 34.218518 1.211661 1.569691 0.034468 -0.009727 -356820.000000 0 0 1
12.353496 32.705496 1.294219 34.984758 1.209644 1.533794 0.045586 -0.012375 1381860.000000 0 0 1
13.698596 33.238996 1.465119 35.980952 1.179882 1.530066 0.053011 -0.010237 1372520.000000 0 0 1
14.871496 32.220796 1.553319 35.521175 1.138379 1.527053 0.063213 -0.015672 -425472.000000 0 0 1
15.275296 31.660796 0.322619 35.154583 1.121273 1.561619 0.059916 -0.016445 267218.000000 0 0 1
16.200496 30.597596 0.511419 34.625575 1.083852 1.556026 0.069893 -0.011736 27668.100000 0 0 1
16.933896 30.020596 -0.718181 34.474756 1.057211 1.591630 0.063816 -0.005889 426393.000000 0 0 1
18.005796 30.778996 -1.304381 35.682722 1.041477 1.607359 0.043628 -0.002287 636368.000000 0 0 1
17.612996 31.836796 -2.146281 36.447300 1.065478 1.629718 0.061129 -0.012414 111412.000000 0 0 1
18.880096 32.483096 -2.783681 37.674373 1.044294 1.644752 0.056015 -0.010290 531911.000000 0 0 1
19.616096 33.271996 -1.857581 38.668689 1.038083 1.618853 0.048497 -0.005479 20986.400000 0 0 1
20.616196 34.027196 -2.507881 39.864358 1.026069 1.633748 0.052620 -0.006581 199209.000000 0 0 1
21.585196 -33.747294 -1.462181 40.086638 -1.001758 1.607280 0.066615 -0.007394 808932.000000 0 0 1
22.572496 34.055496 -0.694781 40.862906 0.985465 1.587800 0.060626 -0.006502 1244220.000000 0 0 1
23.590896 33.381696 -1.407381 40.900473 0.955587 1.605213 0.054666 -0.005065 67633.300000 0 0 1
24.489696 34.097196 -2.448381 42.051855 0.947939 1.629052 0.039049 0.000998 -1158670.000000 0 0 1
23.821096 -34.126694 -3.617581 41.775145 -0.961401 1.657501 0.047078 -0.007990 -125379.000000 0 0 1
24.712696 -33.487794 -4.501681 41.861854 -0.935045 1.678541 0.034919 -0.008914 29802.300000 0 0 1
23.989796 -33.016294 -5.776381 41.218352 -0.942437 1.711400 0.040567 -0.016930 775247.000000 0 0 1
22.997496 -31.961494 -5.602581 39.771986 -0.947078 1.712134 0.053423 -0.017625 590742.000000 0 0 1
22.461496 -31.636794 -6.827781 39.395738 -0.953404 1.744989 0.050097 -0.019370 248941.000000 0 0 1
21.443896 -30.417494 -6.734181 37.820812 -0.956732 1.749806 0.057676 -0.026178 675306.000000 0 0 1
20.255196 -30.681894 -6.020281 37.254468 -0.987307 1.733107 0.064330 -0.018321 -7555.090000 0 0 1
19.418496 -29.543294 -5.943381 35.849798 -0.989314 1.737351 0.066762 -0.023373 286005.000000 0 0 1
18.353496 -29.515394 -4.827981 35.090151 -1.014481 1.708822 0.057989 -0.008099 817781.000000 0 0 1
17.169496 -30.262094 -5.118981 35.168024 -1.054723 1.716873 0.059808 -0.017956 -60553.400000 0 0 1
16.211896 -30.284894 -4.102481 34.595241 -1.079299 1.689661 0.044085 -0.009370 659232.000000 0 0 1
14.858196 -30.892594 -4.604681 34.587880 -1.122494 1.704323 0.040305 -0.012743 633617.000000 0 0 1
15.051196 -32.294794 -4.838581 35.956976 -1.134670 1.705772 0.031086 0.008271 -1182220.000000 0 0 1
13.893096 -32.986794 -5.029681 36.144770 -1.172173 1.710403 0.044281 0.007840 -1034440.000000 0 0 1
14.128096 34.048396 -5.156381 37.222098 1.177476 1.709773 0.036686 0.001268 -125661.000000 0 0 1
14.221796 33.323996 -3.944181 36.445915 1.167425 1.679229 0.046038 -0.006493 -175003.000000 0 0 1
14.454096 31.930596 -4.167481 35.296625 1.145722 1.689143 0.042804 -0.009146 -399197.000000 0 0 1
13.326796 31.041196 -4.718881 34.109048 1.165267 1.709588 0.038479 -0.015697 115399.000000 0 0 1
12.281196 30.561396 -3.882681 33.164769 1.188693 1.688138 0.031103 -0.010230 132519.000000 0 0 1
12.724396 29.568796 -2.972081 32.327344 1.164418 1.662863 0.039541 -0.011688 -301929.000000 0 0 1
11.649096 28.555896 -2.443181 30.937190 1.183464 1.649851 0.034657 -0.007217 184828.000000 0 0 1
10.735496 29.325696 -1.686681 31.274465 1.219870 1.624754 0.022267 -0.008275 -621583.000000 0 0 1
9.813596 28.472496 -1.063781 30.135051 1.238878 1.606104 0.009734 0.001576 -378411.000000 0 0 1
8.934496 29.365296 -0.159681 30.694809 1.275442 1.575999 -0.005335 0.011655 -26150.900000 0 0 1
7.844796 28.643296 0.366519 29.700396 1.303473 1.558455 -0.009190 0.007918 -87801.700000 0 0 1
6.688896 29.451096 0.476219 30.204886 1.347466 1.555029 -0.008265 0.008074 -319739.000000 0 0 1
5.564396 28.799096 1.239519 29.357909 1.379934 1.528563 -0.017859 0.011014 -288228.000000 0 0 1
4.851096 27.753896 0.583819 28.180715 1.397755 1.550078 -0.011915 0.005269 469212.000000 0 0 1
3.702696 27.340796 1.344719 27.623130 1.436188 1.522096 -0.003232 -0.002457 628201.000000 0 0 1
3.002196 26.187496 0.534119 26.364434 1.456652 1.550536 0.005881 -0.010176 -249456.000000 0 0 1
1.947096 25.600996 1.255919 25.705631 1.494887 1.521919 0.028264 -0.010772 -257956.000000 0 0 1
1.509396 24.483896 0.536519 24.536244 1.509226 1.548928 0.026748 -0.014455 -489509.000000 0 1 0
0.146196 23.903296 0.928719 23.921777 1.564680 1.531963 0.033835 -0.014232 -15943.800000 0 1 0
-0.885804 24.877796 0.714919 24.903824 -1.535205 1.542085 0.039535 -0.019643 -446592.000000 0 1 0
-2.095204 24.207796 0.909419 24.315310 -1.484461 1.533387 0.038438 -0.015362 -132619.000000 0 1 0
-3.338304 25.081496 1.321519 25.337168 -1.438476 1.518615 0.066570 -0.027403 -517463.000000 0 0 1
-4.336504 24.234296 1.718619 24.679141 -1.393730 1.501101 0.056012 -0.027498 -541484.000000 0 1 0
-5.474104 24.932796 2.228019 25.623703 -1.354671 1.483735 0.058441 -0.025967 654705.000000 0 0 1
-6.689004 25.086696 1.278519 25.994609 -1.310223 1.521592 0.069260 -0.026934 -323735.000000 0 0 1
-6.583804 26.224896 0.509319 27.043502 -1.324828 1.551962 0.081863 -0.035640 169797.000000 0 0 1
-7.529104 26.312496 -0.535281 27.373735 -1.292101 1.590352 0.088761 -0.030861 -208623.000000 0 0 1
-7.117904 27.471596 -1.474581 28.417028 -1.317271 1.622710 0.088173 -0.033665 -72647.300000 0 0 1
-7.373804 28.779796 -1.048681 29.727922 -1.319977 1.606080 0.092375 -0.040664 137263.000000 0 0 1
-7.079704 29.625896 -2.166381 30.537012 -1.336225 1.641799 0.084887 -0.030733 -92229.600000 0 0 1
-7.119504 31.067496 -1.570081 31.911468 -1.345524 1.620017 0.067043 -0.033817 -699351.000000 0 0 1
-7.160604 32.162196 -2.507281 33.044932 -1.351729 1.646744 0.067379 -0.021144 46125.000000 0 0 1
-5.963904 32.325896 -3.249181 33.031634 -1.388355 1.669321 0.061560 -0.015453 375453.000000 0 0 1
-4.768604 32.942396 -2.466081 33.376977 -1.427039 1.644749 0.065706 -0.012939 -286629.000000 0 0 1
-4.973304 -34.249094 -2.204381 34.678430 1.426594 1.634406 0.051076 -0.007283 127767.000000 0 0 1
-3.929304 -33.830294 -1.364481 34.085041 1.455167 1.610839 0.047852 -0.007586 -28499.700000 0 0 1
-3.978304 -32.313094 -1.334181 32.584398 1.448295 1.611753 0.037712 -0.000725 51503.200000 0 0 1
-5.149104 -31.807494 -0.736881 32.230001 1.410305 1.593662 0.033922 -0.002118 -205065.000000 0 0 1
-5.332604 -30.522294 -1.278781 31.011004 1.397830 1.612044 0.038030 0.004482 153725.000000 0 0 1
-6.745604 -29.904794 -1.077381 30.675082 1.348940 1.605926 0.050332 -0.001386 174528.000000 0 0 1
-7.032804 -29.559194 0.241519 30.385270 1.337216 1.562848 0.046199 -0.004565 85189.600000 0 0 1
-8.200004 -28.758594 0.283919 29.906143 1.293035 1.561303 0.024502 -0.002341 -67658.600000 0 0 1
-8.241104 -27.987894 1.618619 29.220848 1.284437 1.515375 0.034367 -0.004545 229059.000000 0 0 1
-7.219704 -27.002394 1.742919 28.005199 1.309535 1.508521 0.049925 0.001298 17168.700000 0 0 1
-7.101304 -26.490394 3.047719 27.594530 1.308883 1.460124 0.053690 -0.002870 -4566.280000 0 0 1
-8.205304 -25.465794 3.403019 26.970618 1.259091 1.444284 0.045136 -0.000589 152201.000000 0 0 1
-8.140204 -24.243994 2.610119 25.706943 1.246862 1.469087 0.038307 -0.006041 -320911.000000 0 0 1
-8.938904 -23.193794 3.184819 25.059912 1.202939 1.443363 0.044275 -0.011260 123278.000000 0 0 1
-8.190104 -21.915094 3.559119 23.664667 1.213149 1.419825 0.015453 -0.000794 426307.000000 0 1 0
-7.551504 -22.083594 4.859119 23.839492 1.241310 1.365531 0.011075 0.001488 -164128.000000 0 1 0
-6.916504 -20.930394 5.358019 22.685409 1.251641 1.332355 0.001412 0.007292 372880.000000 0 1 0
-7.901004 -19.801094 5.874819 22.113858 1.191136 1.301905 0.008537 -0.000963 431793.000000 0 1 0
-8.328304 -20.094894 7.178619 22.906287 1.177897 1.252035 0.018407 0.001688 -285078.000000 0 1 0
-9.131504 -19.063094 7.668919 22.485512 1.124077 1.222752 0.017112 -0.003241 -808055.000000 0 1 0
-27.250524 28.893296 -5.770381 40.133663 -0.814650 1.715075 0.090353 -0.003990 -109773.000000 0 0 1
-26.577454 29.831396 -4.912281 40.254239 -0.843019 1.693133 0.074322 -0.011264 290592.000000 0 0 1
-25.425084 29.214196 -4.345581 38.971633 -0.854635 1.682535 0.061552 -0.004056 -98609.600000 0 0 1
-24.598504 30.182196 -3.517181 39.095037 -0.886975 1.660883 0.056969 -0.007721 -621206.000000 0 0 1
-25.185834 30.625096 -2.327981 39.719544 -0.882550 1.629440 0.040002 -0.012727 -97246.700000 0 0 1
-24.548204 31.712496 -1.679081 40.138710 -0.912057 1.612640 0.045138 -0.013381 -259695.000000 0 0 1
-23.354404 31.407196 -0.750281 39.145920 -0.931404 1.589964 0.026561 -0.006272 119208.000000 0 0 1
-22.248804 30.941496 -1.491481 38.139349 -0.947392 1.609912 0.041962 -0.010866 -576043.000000 0 0 1
-21.105004 30.733396 -0.717381 37.289106 -0.969044 1.590036 0.037444 -0.008369 -570711.000000 0 0 1
-19.950704 30.234296 -1.586681 36.258251 -0.987514 1.614571 0.035012 -0.010813 -37855.100000 0 0 1
-18.783204 29.966396 -0.798681 35.375578 -1.010897 1.593375 0.033535 -0.013720 347415.000000 0 0 1
-17.751304 29.494296 -1.667981 34.464539 -1.029014 1.619212 0.034435 -0.013225 701107.000000 0 0 1
-16.322204 29.923796 -1.194981 34.106830 -1.071446 1.605840 0.039134 -0.023797 550100.000000 0 0 1
-15.868704 29.170096 -0.033381 33.207098 -1.072567 1.571802 0.036979 -0.021270 -247721.000000 0 0 1
-14.682304 29.718796 0.461619 33.151017 -1.111927 1.556871 0.046323 -0.028758 -135743.000000 0 0 1
-14.023804 28.888096 1.567319 32.150360 -1.118854 1.522027 0.057478 -0.030989 -20919.900000 0 0 1
-14.859804 28.953596 2.717819 32.657480 -1.096622 1.487478 0.040178 -0.030897 68365.500000 0 0 1
-14.348404 28.331996 3.881519 31.994450 -1.102011 1.449178 0.047363 -0.034164 -172217.000000 0 0 1
-13.278204 29.048696 4.689619 32.282037 -1.142052 1.425010 0.059335 -0.027125 -191355.000000 0 0 1
-13.669804 30.219396 5.427419 33.608515 -1.145988 1.408597 0.050143 -0.027609 -347858.000000 0 0 1
-13.736404 31.441096 4.683019 34.628918 -1.158895 1.435146 0.055049 -0.032928 42669.800000 0 0 1
-13.434304 32.679896 5.532219 35.763970 -1.180768 1.415486 0.061697 -0.024353 -410481.000000 0 0 1
-14.436504 33.069696 6.418919 36.649965 -1.159185 1.394747 0.060925 -0.020688 -431489.000000 0 0 1
-14.143204 34.201296 7.130519 37.690889 -1.178682 1.380465 0.064473 -0.019472 302384.000000 0 0 1
-15.370704 -34.037494 8.027019 38.200034 1.146628 1.359087 0.048249 -0.011951 367083.000000 0 0 1
-15.674104 33.679996 9.105819 38.248341 -1.135224 1.330417 0.031428 -0.014669 619248.000000 0 0 1
-16.697504 -34.269594 9.948919 39.397877 1.117409 1.315508 0.044026 -0.013268 207957.000000 0 0 1
-16.848304 33.510396 11.283119 39.167853 -1.104928 1.278585 0.040694 -0.008773 670851.000000 0 0 1
-15.983604 33.784496 12.424019 39.385581 -1.128896 1.249870 0.044896 -0.016127 373133.000000 0 0 1
-14.687404 33.237496 12.350819 38.379600 -1.154705 1.243159 0.049100 -0.014686 -160824.000000 0 0 1
-13.856104 33.266796 13.653519 38.536864 -1.176135 1.208633 0.047933 -0.012319 -306049.000000 0 0 1
-14.131604 32.322196 14.681719 38.209677 -1.158629 1.176411 0.045799 -0.008368 73908.900000 0 0 1
-13.808804 30.961596 14.477519 36.863288 -1.151276 1.167192 0.041681 -0.012758 250530.000000 0 0 1
-14.737404 30.119896 13.479719 36.140033 -1.115752 1.188571 0.052923 -0.018306 451893.000000 0 0 1
-14.315104 30.152396 12.141319 35.517612 -1.127545 1.221923 0.049208 -0.009128 537391.000000 0 0 1
-15.393504 29.728896 11.317419 35.339088 -1.093013 1.244801 0.023309 -0.006957 250780.000000 0 0 1
-14.988604 29.664896 9.835119 34.661129 -1.102946 1.283093 0.018395 -0.003918 -512592.000000 0 0 1
-14.012704 28.715396 9.542419 33.346478 -1.116806 1.280580 0.007343 -0.001686 -349349.000000 0 0 1
-14.070404 28.189196 8.249919 32.567901 -1.107836 1.314691 0.020153 -0.002949 -445086.000000 0 0 1
-13.231004 26.949696 7.915119 31.048264 -1.114413 1.313022 0.032624 -0.002939 -34061.100000 0 0 1
-11.856904 27.312396 7.903519 30.806148 -1.161225 1.311339 0.031554 -0.003273 418473.000000 0 0 1
-11.058204 26.126596 7.684419 29.392740 -1.170405 1.306283 0.048198 -0.007596 -81589.800000 0 0 1
-10.014604 26.279996 6.571919 28.881146 -1.206712 1.341235 0.058556 -0.014835 -725532.000000 0 0 1
-10.577804 26.486196 5.296819 29.008012 -1.190833 1.387168 0.067139 -0.023863 499046.000000 0 0 1
-9.632404 26.131896 4.286419 28.178583 -1.217642 1.418087 0.073054 -0.020665 132530.000000 0 0 1
-9.988404 26.494596 2.841919 28.457131 -1.210275 1.470763 0.078951 -0.032046 -77417.100000 0 0 1
-9.753104 27.856796 2.501019 29.620587 -1.234018 1.486261 0.083627 -0.028181 -18996.800000 0 0 1
-10.304104 28.206896 1.274119 30.057061 -1.220553 1.528394 0.091462 -0.035288 -198084.000000 0 0 1
-9.927904 29.652296 0.961219 31.284914 -1.247717 1.540067 0.109323 -0.040669 17044.100000 0 0 1
-10.596904 30.651296 1.699719 32.475919 -1.237935 1.518435 0.088074 -0.045015 -100841.000000 0 0 1
-10.208004 31.939296 1.296819 33.555978 -1.261450 1.532140 0.085413 -0.038647 -157712.000000 0 0 1
-10.716504 33.098096 2.236019 34.861543 -1.257668 1.506612 0.069372 -0.032584 1151440.000000 0 0 1
-12.093804 33.518196 2.170519 35.699309 -1.224521 1.509959 0.074662 -0.028654 505905.000000 0 0 1
-12.317204 34.267196 0.977419 36.426770 -1.225731 1.543961 0.062378 -0.031880 -672423.000000 0 0 1
-13.807204 -33.958194 0.811419 36.666827 1.184618 1.548665 0.063867 -0.032262 48853.100000 0 0 1
-14.590804 33.525596 0.283519 36.564156 -1.160306 1.563042 0.054370 -0.034504 -44833.400000 0 0 1
-14.794704 33.639896 -1.110781 36.766284 -1.156460 1.601013 0.055926 -0.034239 -700362.000000 0 0 1
-13.628204 33.348596 -2.066081 36.084976 -1.182848 1.628084 0.058957 -0.030283 -313429.000000 0 0 1
-13.388604 31.969596 -2.075981 34.722031 -1.174196 1.630621 0.057119 -0.028948 -777939.000000 0 0 1
-12.066104 31.651996 -2.332681 33.954103 -1.206591 1.639551 0.070985 -0.025871 -781296.000000 0 0 1
-11.694304 30.138996 -2.444381 32.420530 -1.200667 1.646264 0.080621 -0.035865 103418.000000 0 0 1
-11.753004 29.434396 -3.711881 31.910732 -1.190898 1.687381 0.072274 -0.033957 -490408.000000 0 0 1
-10.680704 29.738096 -4.558581 31.925106 -1.225985 1.714076 0.054266 -0.021065 -151232.000000 0 0 1
-10.853904 29.125596 -5.973081 31.650991 -1.214080 1.760652 0.064585 -0.018092 -56926.800000 0 0 1
-10.894304 27.718196 -5.971681 30.375075 -1.196306 1.768683 0.056292 -0.010072 58361.100000 0 0 1
-10.754104 27.130496 -7.290081 30.080888 -1.193411 1.815583 0.045543 -0.004217 91695.400000 0 0 1
-11.291504 25.687096 -7.312181 28.996430 -1.156642 1.825724 0.058592 -0.009030 178536.000000 0 0 1
-10.552804 24.763696 -6.507981 27.693972 -1.167960 1.808011 0.040650 -0.010249 -55898.600000 0 0 1
-11.038904 23.432796 -6.590681 26.728082 -1.130545 1.819949 0.066675 -0.017541 279017.000000 0 0 1
-10.245504 22.336796 -5.758581 25.240128 -1.140745 1.800975 0.055359 -0.025262 591146.000000 0 0 1
-8.869504 22.099296 -6.075281 24.575516 -1.189129 1.820595 0.062057 -0.025232 655406.000000 0 1 0
-8.325304 20.985696 -5.399181 23.213385 -1.193127 1.805535 0.060202 -0.024943 -493908.000000 0 1 0
-8.290204 20.849796 -3.828481 22.761782 -1.192347 1.739797 0.046126 -0.028815 -370339.000000 0 1 0
-9.476904 20.757496 -3.058181 23.022550 -1.142506 1.704024 0.044798 -0.028738 -134341.000000 0 1 0
-10.194504 19.528996 -3.335581 22.280837 -1.089689 1.721068 0.043260 -0.029115 65595.300000 0 1 0
-11.523704 19.598396 -2.517381 22.874223 -1.039253 1.681073 0.040108 -0.023594 -35189.200000 0 1 0
-11.466604 19.474396 -1.116981 22.627035 -1.038650 1.620181 0.037083 -0.020230 -26878.100000 0 1 0
-11.019404 18.269796 -0.610081 21.344435 -1.028065 1.599383 0.032854 -0.019872 -429443.000000 0 1 0
-10.819804 18.267396 0.925519 21.251411 -1.036057 1.527232 0.026092 -0.016341 84054.300000 0 1 0
-12.005504 18.315496 1.705119 21.965813 -0.990576 1.493092 0.042334 -0.016538 178503.000000 0 1 0
-11.681404 18.370996 3.091219 21.988732 -1.004425 1.429747 0.033190 -0.014191 740690.000000 0 1 0
-12.879104 18.354096 4.138819 22.800745 -0.958929 1.388263 0.054605 -0.014956 821647.000000 0 1 0
-13.472304 17.116396 4.440419 22.230414 -0.903971 1.369698 0.031444 -0.019628 -188790.000000 0 1 0
-14.759304 17.246196 4.975619 23.238440 -0.862944 1.355014 0.051608 -0.020408 -356723.000000 0 1 0
-15.304104 15.883696 5.384019 22.704516 -0.803980 1.331381 0.040630 -0.022889 -444830.000000 0 1 0
-14.660204 15.270996 6.481319 22.138934 -0.805802 1.273688 0.038446 -0.019171 -141822.000000 0 1 0
-15.173104 15.683396 7.697919 23.139791 -0.801934 1.231663 0.036725 -0.022606 -672590.000000 0 1 0
-14.163804 15.507696 8.875719 22.800885 -0.830660 1.170956 0.023146 -0.016606 1635490.000000 0 1 0
-12.937704 16.296796 8.837719 22.606968 -0.899798 1.169156 0.018711 -0.019833 1384660.000000 0 1 0
-11.986304 15.926596 7.847819 21.422329 -0.925635 1.195726 0.018000 -0.021252 -183886.000000 0 1 0
-10.915404 17.010496 7.494719 21.556294 -1.000288 1.215699 0.026033 -0.028293 947941.000000 0 1 0
-9.908004 17.171196 8.506919 21.572811 -1.047450 1.165452 0.024696 -0.019258 385773.000000 0 1 0
-9.136404 18.343896 8.364019 22.134344 -1.108700 1.183296 0.027166 -0.019861 -932971.000000 0 1 0
-7.886204 18.384196 9.188319 22.013543 -1.165571 1.140221 0.028234 -0.015333 -1359150.000000 0 1 0
-6.859204 17.559996 8.681719 20.755105 -1.198406 1.139231 0.021265 -0.013360 -215053.000000 0 1 0
-5.683604 17.678496 9.458619 20.839819 -1.259735 1.099690 0.029617 -0.013169 549464.000000 0 1 0
-4.641304 18.745196 9.014319 21.311546 -1.328078 1.134067 0.019027 -0.010589 -761104.000000 0 1 0
-5.069804 20.053196 9.237219 22.653030 -1.323167 1.150786 0.024872 -0.008738 32343.700000 0 1 0
-4.559704 20.959896 8.258019 22.984843 -1.356590 1.203299 0.031415 -0.016057 893784.000000 0 1 0
-3.085304 21.509096 8.361919 23.282654 -1.428326 1.203441 0.036070 -0.013051 1515420.000000 0 1 0
-1.983004 20.564696 8.237819 22.241868 -1.474666 1.191384 0.025736 -0.005272 683100.000000 0 1 0
-0.827604 21.392996 8.203019 22.926725 -1.532130 1.204893 0.028289 -0.000269 -147597.000000 0 1 0
0.522996 20.687896 8.100519 22.223433 1.545521 1.197697 0.019862 0.009575 -67828.400000 0 1 0
0.864696 19.893996 9.210619 21.939787 1.527358 1.137556 0.022061 -0.004393 -163215.000000 0 1 0
2.189796 19.409396 9.167219 21.576787 1.458450 1.131984 0.014912 -0.008901 -154484.000000 0 1 0
2.705996 18.925496 10.556619 21.838933 1.428777 1.066279 0.004003 -0.016377 348064.000000 0 1 0
4.021896 18.382196 10.547919 21.571726 1.355398 1.059888 0.020986 -0.005231 208381.000000 0 1 0
4.559096 18.323196 11.847619 22.291051 1.326933 1.010430 0.014490 0.000196 565327.000000 0 1 0
6.114996 18.302696 11.900419 22.671608 1.248353 1.018194 0.023872 -0.002541 353513.000000 0 1 0
6.800396 17.242196 11.280019 21.697408 1.195123 1.024087 0.014540 0.000379 -2343.010000 0 1 0
7.800096 16.755196 12.173619 22.130863 1.135101 0.988343 0.017905 0.008312 -167174.000000 0 1 0
9.010896 16.099296 11.498219 21.739195 1.060531 1.013473 0.025845 0.001763 -29778.300000 0 1 0
9.933996 17.099896 11.074619 22.665787 1.044510 1.060306 0.035221 -0.001802 432783.000000 0 1 0
11.090296 16.499596 10.474119 22.470836 0.979003 1.085896 0.036005 -0.001921 785019.000000 0 1 0
12.033796 17.559396 9.800319 23.434822 0.969991 1.139339 0.044827 -0.000481 -129796.000000 0 1 0
13.135096 16.955696 9.200219 23.338175 0.911691 1.165585 0.048941 -0.000809 -551864.000000 0 1 0
13.728596 17.904796 8.320219 24.047497 0.916658 1.217501 0.057815 -0.002587 368316.000000 0 1 0
14.733096 17.354896 7.266519 23.896837 0.866924 1.261825 0.071519 -0.018445 843998.000000 0 1 0
16.025096 17.017896 7.774219 24.634345 0.815435 1.249724 0.086655 -0.013408 691845.000000 0 1 0
16.976596 16.707496 6.759719 24.759625 0.777409 1.294272 0.103812 -0.013753 117504.000000 0 1 0
18.380996 16.507496 7.358819 25.778104 0.731750 1.281302 0.093345 -0.010573 -243238.000000 0 0 1
18.545296 15.292796 8.055619 25.351343 0.689573 1.247431 0.089808 -0.012604 -191321.000000 0 0 1
19.643896 15.373996 8.898019 26.484281 0.664062 1.228158 0.098456 -0.009698 -560893.000000 0 0 1
19.719296 14.219796 10.002719 26.288926 0.624754 1.180468 0.072646 -0.005869 -295298.000000 0 0 1
20.408796 13.149796 9.465019 26.058063 0.572372 1.199066 0.076145 -0.012974 60332.600000 0 0 1
20.568996 12.233896 10.530819 26.146701 0.536568 1.156267 0.073144 -0.009678 -244784.000000 0 0 1
21.448196 11.036096 10.123119 26.159091 0.475217 1.173439 0.068472 -0.003180 13570.500000 0 0 1
22.847396 11.348096 10.175619 27.464996 0.460997 1.191255 0.069604 -0.015059 958482.000000 0 0 1
23.683796 10.380696 9.606719 27.585686 0.413085 1.215093 0.078267 -0.010379 -364821.000000 0 0 1
23.679896 8.887596 10.121719 27.242908 0.359053 1.190133 0.081410 -0.015122 -572533.000000 0 0 1
22.566696 8.063796 9.766119 25.877744 0.343191 1.183815 0.082604 -0.022607 856877.000000 0 0 1
22.772796 6.698696 10.117419 25.803777 0.286084 1.167893 0.081815 -0.026772 220416.000000 0 0 1
23.876096 5.839796 9.413319 26.320748 0.239878 1.205058 0.093963 -0.028394 594172.000000 0 0 1
23.497796 5.628396 8.028319 25.461327 0.235099 1.250009 0.076720 -0.017626 135768.000000 0 0 1
24.608396 5.329796 7.258619 26.204340 0.213290 1.290125 0.080765 -0.014144 -480062.000000 0 0 1
24.175996 5.098196 5.811519 25.381965 0.207833 1.339785 0.070077 -0.015727 -422246.000000 0 0 1
23.253596 4.077196 5.574719 24.257591 0.173572 1.338910 0.064668 -0.013660 454345.000000 0 1 0
23.183396 3.705496 4.219319 23.853788 0.158493 1.392978 0.077120 -0.018310 -149701.000000 0 1 0
22.232596 2.511096 4.016419 22.731598 0.112470 1.393175 0.070089 -0.015701 67803.100000 0 1 0
22.886596 1.287796 4.353719 23.332586 0.056209 1.383102 0.081677 -0.017432 699923.000000 0 1 0
22.157596 0.174996 3.873119 22.494238 0.007898 1.397751 0.081773 -0.015753 59896.500000 0 1 0
22.847096 -1.224604 4.119619 23.247811 -0.053549 1.392651 0.090100 -0.017734 -395711.000000 0 1 0
22.939396 -1.643504 5.454319 23.636129 -0.071523 1.337936 0.095862 -0.020643 668928.000000 0 1 0
22.680896 -3.033604 5.635919 23.566701 -0.132962 1.329308 0.072340 -0.021622 -437319.000000 0 1 0
22.860296 -3.507904 7.098019 24.192569 -0.152262 1.273018 0.115337 -0.027445 -361799.000000 0 1 0
22.823596 -4.877504 7.344219 24.467205 -0.210538 1.265930 0.100060 -0.023965 316184.000000 0 1 0
22.874296 -5.203704 8.684019 25.014479 -0.223684 1.216256 0.126189 -0.031668 -449428.000000 0 0 1
22.362496 -6.675004 9.026619 25.022325 -0.290072 1.201732 0.117955 -0.028396 515908.000000 0 0 1
20.954596 -6.736704 8.854419 23.725072 -0.311054 1.188330 0.107847 -0.029743 452856.000000 0 1 0
20.377696 -7.816904 9.596419 23.842100 -0.366290 1.156551 0.084893 -0.028054 -118691.000000 0 1 0
-25.988654 -33.130994 5.153719 42.422090 0.905627 1.449009 0.037081 -0.009149 -751761.000000 0 0 1
-27.006724 -33.857594 5.714019 43.684664 0.897486 1.439619 0.036005 -0.012412 -505711.000000 0 0 1
-26.925764 -33.770594 7.131519 43.775659 0.897695 1.407156 0.035264 0.003052 147373.000000 0 0 1
-27.758974 33.714696 7.916119 44.383626 -0.881979 1.391480 0.039023 0.015182 1846400.000000 0 0 1
-29.205084 33.855196 7.770519 45.381628 -0.859006 1.398722 0.050533 0.000028 1403480.000000 0 0 1
-29.820624 32.590496 8.012319 44.895515 -0.829750 1.391369 0.063433 -0.000184 -752576.000000 0 0 1
-31.321374 32.482896 7.999519 45.827495 -0.803601 1.395340 0.073001 -0.007641 -795392.000000 0 0 1
-31.919534 32.742296 6.725719 46.218501 -0.798122 1.424758 0.054398 -0.003446 -595271.000000 0 0 1
-33.275314 32.453596 6.774719 46.972111 -0.772897 1.426063 0.050159 -0.006142 -532418.000000 0 0 1
-33.987694 32.393796 5.364819 47.257831 -0.761392 1.457029 0.040789 0.000330 -181054.000000 0 0 1
-33.732534 31.249896 4.612619 46.213808 -0.747212 1.470819 0.045044 -0.000703 53116.900000 0 0 1
-34.533436 31.114896 3.488719 46.614012 -0.733372 1.495884 0.056914 0.002712 -376664.000000 0 0 1
-34.071122 29.843396 2.741319 45.376034 -0.719348 1.510346 0.065202 -0.002430 71402.500000 0 0 1
-34.362173 28.636396 3.425919 44.861331 -0.694760 1.494355 0.084166 -0.014225 198419.000000 0 0 1
-33.925764 27.544096 2.653319 43.779844 -0.681951 1.510153 0.069837 -0.011000 -229754.000000 0 0 1
-34.291398 26.153596 3.246919 43.248734 -0.651571 1.495650 0.078693 -0.014679 -529241.000000 0 0 1
-35.673533 25.933096 3.149019 44.215865 -0.628589 1.499517 0.086344 -0.010119 -388531.000000 0 0 1
-36.152034 25.023796 4.098419 44.158317 -0.605460 1.477851 0.085638 -0.014434 323427.000000 0 0 1
34.822136 24.802496 4.044719 42.943041 0.618908 1.476469 0.089690 -0.017023 186827.000000 0 0 1
34.238606 24.070096 2.982419 41.958867 0.612743 1.499657 0.089418 -0.017002 156194.000000 0 0 1
34.578596 22.688096 2.985619 41.464960 0.580673 1.498731 0.071503 -0.016952 -1118050.000000 0 0 1
33.891416 21.814296 1.887619 40.349160 0.571900 1.523997 0.083647 -0.014536 258489.000000 0 0 1
32.553336 21.434796 2.178519 39.037368 0.582294 1.514961 0.071322 -0.013652 441806.000000 0 0 1
32.367006 20.581596 3.273219 38.495963 0.566386 1.485666 0.044450 -0.005455 -889506.000000 0 0 1
32.671366 19.107496 3.206819 37.984184 0.529197 1.486271 0.060312 -0.012510 -705094.000000 0 0 1
31.940756 18.458496 2.201319 36.956377 0.524009 1.511196 0.043055 -0.012257 246413.000000 0 0 1
32.250796 17.075496 1.971419 36.545491 0.486937 1.516826 0.044470 -0.015254 -404575.000000 0 0 1
31.601226 16.081696 3.007919 35.585194 0.470738 1.486168 0.050139 -0.014436 204107.000000 0 0 1
30.195066 16.083196 2.785419 34.324478 0.489420 1.489557 0.024274 0.001257 173533.000000 0 0 1
29.596956 15.152296 3.668619 33.451916 0.473165 1.460907 0.025738 -0.000047 227787.000000 0 0 1
28.048446 15.132096 3.680719 32.081823 0.494745 1.455814 0.018971 0.001268 217447.000000 0 0 1
27.442226 14.695996 2.488619 31.228854 0.491662 1.491022 0.026028 -0.013467 -500642.000000 0 0 1
26.054426 14.758696 2.559219 30.053317 0.515390 1.485537 0.013464 -0.005532 -262252.000000 0 0 1
25.267826 14.134596 1.335319 28.983321 0.510025 1.524708 0.034474 -0.016815 -340175.000000 0 0 1
25.573726 14.607696 0.050819 29.451703 0.518973 1.569071 0.039799 -0.017509 58232.200000 0 0 1
26.820026 14.188796 -0.448881 30.345300 0.486607 1.585589 0.045357 -0.019306 -872237.000000 0 0 1
27.187926 14.961196 -1.721481 31.080287 0.503064 1.626213 0.060830 -0.020913 -95148.700000 0 0 1
27.577716 16.327396 -1.636281 32.090368 0.534554 1.621808 0.030668 -0.011605 566674.000000 0 0 1
28.649396 16.604896 -0.742181 33.121916 0.525277 1.593206 0.040036 -0.016708 -380806.000000 0 0 1
28.974606 18.073896 -0.621581 34.155232 0.557724 1.588996 0.041381 -0.002348 -129409.000000 0 0 1
29.568556 18.546196 -1.823381 34.951189 0.560199 1.622989 0.061375 0.002686 410507.000000 0 0 1
30.250066 19.759596 -1.510181 36.163362 0.578627 1.612568 0.055517 0.021482 198151.000000 0 0 1
30.684076 20.577396 -2.744781 37.046937 0.590735 1.644954 0.054124 0.016878 -354713.000000 0 0 1
31.476506 21.684796 -2.543081 38.307546 0.603251 1.637231 0.042227 0.021813 -273670.000000 0 0 1
31.376726 22.564596 -3.621381 38.817191 0.623464 1.664225 0.046220 0.013174 -242358.000000 0 0 1
32.408426 23.722496 -3.688681 40.331988 0.631872 1.662382 0.030606 0.017498 -228535.000000 0 0 1
32.416606 24.658496 -2.609781 40.812850 0.650298 1.634785 0.052388 0.015732 259581.000000 0 0 1
32.907736 24.124996 -1.375281 40.826780 0.632604 1.604488 0.069708 0.020229 -727019.000000 0 0 1
32.483916 24.968396 -0.187281 40.971462 0.655324 1.575367 0.076634 -0.002179 -22045.500000 0 0 1
33.134986 26.238896 -0.113981 42.266062 0.669769 1.573493 0.078588 -0.001921 958493.000000 0 0 1
34.511266 26.101196 0.298719 43.271112 0.647527 1.563893 0.096102 -0.009184 788529.000000 0 0 1
35.351666 27.396896 0.095119 44.725152 0.659299 1.568670 0.086359 -0.008266 63667.200000 0 0 1
35.956416 27.627096 -1.178481 45.359774 0.655142 1.596780 0.068241 -0.013076 178838.000000 0 0 1
35.076686 27.669696 -2.301981 44.735725 0.667895 1.622276 0.055232 -0.012594 -62007.000000 0 0 1
35.659246 27.255996 -3.690781 45.034354 0.652619 1.652843 0.052294 -0.007460 -108168.000000 0 0 1
-35.768674 28.044896 -4.104481 45.637276 -0.664947 1.660855 0.051234 -0.004773 -39214.400000 0 0 1
-35.231733 27.712496 -5.379781 45.146422 -0.666503 1.690243 0.048400 -0.007243 -21655.300000 0 0 1
-36.208944 27.726896 -6.612581 46.082476 -0.653503 1.714788 0.031114 -0.000125 -453935.000000 0 0 1
35.345346 26.749596 -6.519681 44.803355 0.647843 1.716833 0.023599 0.006667 -1299140.000000 0 0 1
34.311146 26.944896 -7.409281 44.251323 0.665719 1.739025 0.001982 0.007080 47286.200000 0 0 1
33.046066 26.080196 -7.077881 42.688588 0.668125 1.737368 0.000873 0.009643 252506.000000 0 0 1
32.986266 24.760796 -7.544581 41.929840 0.643910 1.751715 0.005345 0.007770 12228.200000 0 0 1
34.001916 23.962396 -6.950681 42.173910 0.613898 1.736362 0.010587 0.008009 64984.500000 0 0 1
33.937806 22.477696 -7.369481 41.368234 0.584987 1.749896 0.017519 0.009980 459363.000000 0 0 1
32.957126 21.700596 -6.631081 40.013239 0.582292 1.737287 0.032067 0.017046 772083.000000 0 0 1
33.208196 20.293396 -6.681181 39.487269 0.548538 1.740813 0.047515 -0.001628 476565.000000 0 0 1
32.035926 19.425696 -6.069881 37.953942 0.545092 1.731414 0.058676 0.005812 950859.000000 0 0 1
30.864466 19.419996 -6.884681 37.109976 0.561616 1.757398 0.046476 -0.002791 188433.000000 0 0 1
29.779286 18.865396 -6.179981 35.789680 0.564694 1.744341 0.081467 -0.010468 219956.000000 0 0 1
28.456926 18.763496 -6.976181 34.792708 0.582930 1.772672 0.058973 -0.023087 200788.000000 0 0 1
28.639236 17.786796 -7.965281 34.641329 0.555764 1.802808 0.059992 -0.025246 -423832.000000 0 0 1
27.533016 17.683896 -8.789981 33.882900 0.570929 1.833220 0.061538 -0.026100 -660321.000000 0 0 1
27.624466 16.496196 -9.793381 33.632513 0.538328 1.866265 0.068857 -0.024531 -37129.700000 0 0 1
26.628326 16.488796 -10.810181 33.133188 0.554432 1.903145 0.059653 -0.022110 214095.000000 0 0 1
26.810926 15.434296 -11.802281 33.110981 0.522339 1.935258 0.065298 -0.024554 -13364.600000 0 0 1
25.839426 15.450396 -13.023381 32.802426 0.538903 1.979069 0.064707 -0.012427 -466157.000000 0 0 1
24.511226 15.171896 -12.670081 31.488372 0.554257 1.984904 0.050006 -0.006845 -366915.000000 0 0 1
23.668926 15.201096 -13.786481 31.326641 0.570900 2.026493 0.053103 -0.009261 -593525.000000 0 0 1
23.485826 13.818896 -14.502381 30.868511 0.531841 2.059874 0.051195 -0.010046 -485457.000000 0 0 1
24.609926 13.243496 -15.161781 31.794941 0.493689 2.067877 0.067005 -0.010638 413839.000000 0 0 1
24.976326 13.863996 -16.386181 32.932266 0.506739 2.091594 0.093061 -0.017657 -462105.000000 0 0 1
26.463326 13.571196 -16.738181 34.126994 0.473859 2.083422 0.112857 -0.018716 254376.000000 0 0 1
26.700226 12.251796 -17.154081 34.018687 0.430201 2.099315 0.119419 -0.026044 779556.000000 0 0 1
28.085186 11.920396 -17.315481 35.081326 0.401394 2.086999 0.110569 -0.016062 796577.000000 0 0 1
28.228896 10.458196 -17.907981 35.027707 0.354801 2.107437 0.082559 -0.009135 -319516.000000 0 0 1
27.598996 10.407196 -19.138581 35.161052 0.360598 2.146365 0.072633 -0.017954 51384.500000 0 0 1
27.847756 9.216996 -19.890281 35.441132 0.319629 2.166656 0.043440 -0.012109 425661.000000 0 0 1
29.213876 9.084896 -20.652081 36.911981 0.301498 2.164573 0.047016 -0.011068 -368199.000000 0 0 1
29.497036 9.966196 -21.752481 37.981188 0.325829 2.180613 0.058699 -0.011962 374717.000000 0 0 1
30.105086 9.237696 -22.827581 38.894083 0.297728 2.198041 0.043532 -0.007509 881763.000000 0 0 1
31.595076 8.708096 -22.590181 39.804473 0.268938 2.174298 0.037503 -0.004889 600190.000000 0 0 1
32.455716 9.827796 -22.605281 40.754850 0.294029 2.158756 0.042497 -0.003594 -1044270.000000 0 0 1
33.768596 9.461796 -22.737281 41.795067 0.273190 2.146015 0.030361 0.000218 -917230.000000 0 0 1
34.883836 10.499796 -22.410481 42.770988 0.292368 2.122295 0.044005 -0.002270 211895.000000 0 0 1
34.925406 10.894096 -21.019281 42.193311 0.302361 2.092279 0.039901 -0.006814 -246465.000000 0 0 1
35.899496 11.869896 -20.888881 43.197380 0.319327 2.075523 0.025187 -0.000318 -559910.000000 0 0 1
35.965046 12.457996 -19.526981 42.778373 0.333457 2.044818 0.024148 0.008053 -113469.000000 0 0 1
-35.999921 11.538296 -18.606081 42.134461 -0.310165 2.028164 0.024457 0.003116 235201.000000 0 0 1
-36.035694 12.145896 -17.333481 41.791669 -0.325093 1.998475 0.027411 -0.000111 67976.500000 0 0 1
-35.552076 11.203196 -16.195581 40.641832 -0.305271 1.980672 0.027715 -0.007091 -27278.200000 0 0 1
35.918556 10.291496 -15.901081 40.606674 0.279047 1.973153 0.021542 -0.005004 519489.000000 0 0 1
-36.206704 9.300696 -15.029081 40.290217 -0.251441 1.953059 0.021616 -0.005582 -396824.000000 0 0 1
35.195286 8.251396 -14.957781 39.121975 0.230287 1.963121 0.053105 -0.001024 323785.000000 0 0 1
34.156166 8.567796 -14.004381 37.896880 0.245771 1.949309 0.059551 -0.011511 733583.000000 0 0 1
34.383866 8.250996 -12.690581 37.568338 0.235514 1.915375 0.056478 -0.013031 -814969.000000 0 0 1
33.314856 8.801896 -11.732781 36.400703 0.258301 1.898979 0.067350 -0.017620 -215564.000000 0 0 1
33.280186 10.219696 -11.654681 36.713003 0.297940 1.893839 0.072278 -0.024243 87972.300000 0 0 1
32.432426 10.745596 -10.649481 35.787450 0.319940 1.872949 0.058743 -0.018866 -527162.000000 0 0 1
32.836226 10.654796 -9.162481 35.716852 0.313764 1.830228 0.068802 -0.018176 -202485.000000 0 0 1
34.032476 11.264496 -8.732381 36.896515 0.319642 1.809736 0.061909 -0.014884 144078.000000 0 0 1
33.917306 12.642796 -8.555481 37.194357 0.356800 1.802896 0.069731 -0.017911 -571954.000000 0 0 1
33.631346 13.148996 -7.134481 36.808482 0.372702 1.765858 0.056405 -0.018003 -242013.000000 0 0 1
34.667346 12.885896 -6.222481 37.504539 0.355875 1.737480 0.063385 -0.015572 1541.410000 0 0 1
34.244856 13.184596 -4.963981 37.029513 0.367517 1.705256 0.062734 -0.016271 431109.000000 0 0 1
35.407616 13.123196 -3.911181 37.963336 0.354936 1.674005 0.069088 -0.011824 201449.000000 0 0 1
-36.145964 14.126896 -3.971481 39.011185 -0.372576 1.672777 0.059044 -0.001768 -674691.000000 0 0 1
-35.026125 13.672096 -3.265281 37.741458 -0.372151 1.657422 0.046218 -0.007202 -466414.000000 0 0 1
-33.857154 14.663696 -3.271981 37.041014 -0.408715 1.659246 0.052097 -0.016534 -297820.000000 0 0 1
-34.084814 15.707896 -2.374881 37.605220 -0.431838 1.633991 0.077270 -0.017195 74222.700000 0 0 1
-33.114024 16.725496 -2.436681 37.178195 -0.467710 1.636384 0.060979 -0.014637 -275445.000000 0 0 1
-33.300424 17.898896 -1.401481 37.831903 -0.493194 1.607850 0.079396 -0.007140 455704.000000 0 0 1
-34.532090 18.591596 -1.664281 39.254076 -0.493883 1.613207 0.055190 0.002221 658725.000000 0 0 1
-34.827360 19.435696 -0.583981 39.887746 -0.509009 1.585437 0.051375 0.008099 284421.000000 0 0 1
36.234696 20.026996 -0.653981 41.406056 0.504915 1.586591 0.058925 0.010678 639367.000000 0 0 1
36.069286 21.126296 -1.570281 41.830367 0.529849 1.608344 0.066548 0.012564 34384.700000 0 0 1
36.045936 20.806796 -2.911381 41.721798 0.523509 1.640634 0.037888 0.020352 -344192.000000 0 0 1
-36.139044 21.975496 -3.826581 42.468761 -0.546341 1.661022 0.058635 -0.018764 -96774.300000 0 0 1
-34.775632 22.316096 -3.736381 41.488712 -0.570530 1.660976 0.055235 -0.002352 -161157.000000 0 0 1
-34.571227 23.481296 -4.508881 42.034164 -0.596640 1.678270 0.061831 -0.012346 566806.000000 0 0 1
-33.076924 23.833796 -4.806681 41.051637 -0.624390 1.688154 0.050398 -0.020448 801615.000000 0 0 1
-32.544764 22.996996 -5.838081 40.275385 -0.615160 1.716263 0.045760 -0.016080 880310.000000 0 0 1
-31.177674 23.233796 -6.257081 39.382835 -0.640426 1.730351 0.070720 -0.010748 865744.000000 0 0 1
-30.742714 22.377596 -7.441781 38.745985 -0.629206 1.764063 0.072891 -0.026755 25649.800000 0 0 1
-31.468804 22.659296 -8.658681 39.732884 -0.624060 1.790481 0.062759 -0.037359 209984.000000 0 0 1
-30.701654 22.296296 -9.803981 39.189723 -0.628110 1.823649 0.039506 -0.030839 434142.000000 0 0 1
-31.637434 22.194096 -11.027781 40.188519 -0.611741 1.848763 0.023238 -0.012016 135176.000000 0 0 1
-32.047274 23.476196 -11.434581 41.338955 -0.632239 1.851056 0.027464 -0.014716 206754.000000 0 0 1
-32.789084 23.431696 -12.678981 42.248372 -0.620470 1.875600 0.023123 -0.005507 -90948.200000 0 0 1
-33.292544 24.851096 -13.090281 43.558304 -0.641223 1.876037 0.032718 -0.007928 973496.000000 0 0 1
-32.246514 25.827896 -13.410281 43.436776 -0.675321 1.884655 0.028564 -0.010383 711708.000000 0 0 1
-31.321184 25.566996 -14.447081 42.934904 -0.684592 1.913981 0.021568 -0.015902 34460.300000 0 0 1
-29.984084 26.327296 -14.239281 42.366601 -0.720551 1.913566 0.016461 -0.010409 396727.000000 0 0 1
-29.080254 25.843096 -13.198081 41.081822 -0.726527 1.897860 0.025304 -0.012050 618697.000000 0 0 1
-29.542014 25.576396 -11.858881 40.835226 -0.713575 1.865450 0.042477 -0.012474 -762742.000000 0 0 1
-29.867454 26.850096 -11.017281 41.645803 -0.732249 1.838531 0.061399 -0.004082 -210103.000000 0 0 1
-28.710784 27.546696 -10.652981 41.189993 -0.764709 1.832400 0.070787 -0.000808 -135942.000000 0 0 1
-29.021224 28.770096 -9.953181 42.059668 -0.781053 1.809707 0.049230 -0.004555 1332240.000000 0 0 1
-27.677644 29.512696 -9.535681 41.568983 -0.817474 1.802251 0.057668 -0.006694 1250430.000000 0 0 1
-27.992694 30.777896 -9.053981 42.577510 -0.832754 1.785079 0.045238 -0.020326 -806384.000000 0 0 1
-26.889144 31.451496 -8.542881 42.251668 -0.863441 1.774390 0.066095 -0.013625 -481534.000000 0 0 1
34.800166 -25.075854 -34.226036 54.875054 -0.624396 2.244274 0.019382 -0.009934 -172285.000000 0 0 1
34.161526 -23.837404 -34.111909 53.841007 -0.609238 2.256952 0.017211 -0.011378 -192532.000000 0 0 1
33.064246 -23.942104 -33.236041 52.641269 -0.626724 2.254113 0.022097 -0.009372 -63695.800000 0 0 1
32.486886 -22.571904 -32.920741 51.465171 -0.607228 2.264866 0.019420 -0.008929 -321711.000000 0 0 1
31.952226 -21.901304 -33.960911 51.516554 -0.600887 2.290582 0.017473 -0.006004 -192024.000000 0 0 1
31.576836 -20.547004 -33.652971 50.515329 -0.576866 2.299889 0.010037 0.003648 305311.000000 0 0 1
31.346016 -19.666104 33.616090 49.993699 -0.560314 0.833341 0.002688 0.005350 -4171.970000 0 0 1
32.549716 -19.602404 32.900972 50.261439 -0.542057 0.857147 0.023090 -0.005960 76978.200000 0 0 1
32.324736 -18.822204 31.748723 49.062668 -0.527292 0.867015 0.016455 0.000679 -306820.000000 0 0 1
33.522166 -18.741604 30.808483 49.235617 -0.509788 0.894722 0.013089 0.002029 -787397.000000 0 0 1
34.445266 -17.747704 31.073603 49.669168 -0.475768 0.894881 -0.000531 -0.001900 -126366.000000 0 0 1
35.392836 -17.719104 30.008593 49.670265 -0.464160 0.922090 0.005897 -0.000254 -197506.000000 0 0 1
-36.006474 -16.694504 30.251683 49.903276 0.434149 0.919514 -0.001778 -0.002397 -1473950.000000 0 0 1
-35.000894 -16.647104 29.284213 48.577297 0.443954 0.923744 0.009687 -0.006250 39241.600000 0 0 1
-34.031984 -15.653104 29.601963 47.743815 0.431100 0.902032 0.010772 -0.006095 440189.000000 0 0 1
-32.964674 -16.205104 30.613893 47.817210 0.456897 0.876002 0.049740 -0.016892 -855924.000000 0 0 1
-31.882864 -15.307204 30.670303 46.813407 0.447607 0.856401 0.048438 -0.011828 575340.000000 0 0 1
-30.915474 -15.670704 31.690623 46.964168 0.469143 0.830126 0.057046 -0.021804 433753.000000 0 0 1
-29.928564 -14.594004 32.143463 46.280732 0.453701 0.803027 0.064050 -0.023236 -245632.000000 0 0 1
-30.410224 -13.656904 33.070648 46.957007 0.422096 0.789395 0.063569 -0.018054 552549.000000 0 0 1
-29.372614 -12.828404 33.633170 46.459752 0.411778 0.761328 0.063638 -0.026058 262937.000000 0 0 1
-29.562104 -12.353604 -33.422921 46.299257 0.395830 2.377324 0.053411 -0.013760 -242707.000000 0 0 1
-29.478644 -13.414904 -32.445631 45.843964 0.427064 2.357091 0.066541 -0.014951 202553.000000 0 0 1
-29.584984 -12.860404 -31.141161 44.837854 0.410053 2.338560 0.064133 -0.010018 -341244.000000 0 0 1
-29.662404 -13.961204 -30.043751 44.467970 0.439910 2.312611 0.065209 -0.012112 -223592.000000 0 0 1
-30.867554 -14.680504 -30.160001 45.584523 0.443935 2.293784 0.063912 -0.014630 -125598.000000 0 0 1
-31.121834 -15.394604 -28.965691 45.216962 0.459363 2.266067 0.064479 -0.015853 263113.000000 0 0 1
-32.223804 -16.480904 -28.984461 46.369092 0.472767 2.246032 0.066192 -0.020617 140427.000000 0 0 1
-31.918914 -17.672604 -29.653941 47.015893 0.505658 2.253279 0.060847 -0.021660 270980.000000 0 0 1
-33.085284 -18.480804 -29.625161 48.102248 0.509407 2.234297 0.056998 -0.018848 348683.000000 0 0 1
-32.882604 -19.762704 -30.432751 48.969199 0.541160 2.241410 0.049864 -0.019263 -131612.000000 0 0 1
-34.100193 -20.421604 -30.649771 50.192365 0.539589 2.227673 0.051217 -0.023764 -403921.000000 0 0 1
-33.929164 -21.740004 -31.185581 50.954454 0.569843 2.229419 0.041345 -0.014955 370483.000000 0 0 1
-35.245538 -22.583704 -31.327081 52.284392 0.569848 2.213257 0.032538 -0.006925 817140.000000 0 0 1
-35.981264 -22.850004 -30.111941 52.187192 0.565796 2.185845 0.032544 -0.011596 487210.000000 0 0 1
35.633566 -23.985704 -30.146201 52.477219 -0.592458 2.182744 0.042769 -0.013829 251167.000000 0 0 1
36.162886 -25.432544 -30.411631 53.660376 -0.612922 2.173343 0.040931 -0.010886 -58010.200000 0 0 1
-35.842013 -25.548204 -31.776321 54.287155 0.619265 2.196093 0.040778 -0.007435 127238.000000 0 0 1
-34.844435 -26.581624 -31.713551 54.096827 0.651684 2.197202 0.020361 -0.000795 107944.000000 0 0 1
-34.867262 -27.496484 -32.976591 55.310380 0.667754 2.209568 0.021137 -0.001204 632075.000000 0 0 1
-36.148634 -28.138674 -33.069011 56.498391 0.661441 2.196057 0.040209 -0.002063 122186.000000 0 0 1
-36.227154 -29.187514 -34.013041 57.629894 0.678195 2.202100 0.022209 -0.006530 54042.000000 0 0 1
-35.746072 -30.564194 -33.537631 57.764386 0.707411 2.190254 0.022049 -0.010528 118443.000000 0 0 1
36.079706 -31.027264 -32.416051 57.578092 -0.710251 2.168799 0.024567 -0.010738 198382.000000 0 0 1
-35.529634 -31.853474 -31.648861 57.259489 0.730896 2.156429 0.017674 -0.016329 264093.000000 0 0 1
-36.040464 -32.347964 -30.273961 57.112333 0.731457 2.129488 0.011091 -0.012616 -235899.000000 0 0 1
35.412576 -33.274994 -30.286891 57.258812 -0.754288 2.128156 0.024687 -0.011433 -29334.200000 0 0 1
35.068726 -33.432344 -28.933081 56.432795 -0.761514 2.109123 0.025586 -0.010555 -262358.000000 0 0 1
33.831096 34.239036 -28.760901 56.071776 0.791391 2.109391 0.019096 -0.014962 156213.000000 0 0 1
32.605776 -33.735144 -29.208911 55.266238 -0.802420 2.127644 0.032369 -0.016462 576282.000000 0 0 1
31.581976 33.807729 -29.104471 54.657607 0.819423 2.132332 0.044031 -0.018026 1095620.000000 0 0 1
30.305916 33.987763 -29.990721 54.525773 0.842602 2.153195 0.043635 -0.015601 548514.000000 0 0 1
30.447716 33.736922 -31.374591 55.223259 0.836599 2.175041 0.045116 -0.008117 -687816.000000 0 0 1
29.306676 34.219520 -31.998241 55.260694 0.862580 2.188349 0.036516 0.004899 -439158.000000 0 0 1
28.864196 33.478638 -33.228741 55.300183 0.859281 2.215397 0.031461 -0.003025 10527.700000 0 0 1
28.463956 32.124265 -32.967921 54.120689 0.845738 2.225792 0.028696 0.004217 86978.200000 0 0 1
28.175156 31.528715 34.252758 54.416457 0.841509 0.889944 0.033964 0.009257 187548.000000 0 0 1
28.069056 30.006245 34.207396 53.463938 0.818742 0.876530 0.035501 0.001527 -198263.000000 0 0 1
29.303956 29.448105 -33.988181 53.675965 0.787852 2.256490 0.043720 -0.000399 -512927.000000 0 0 1
29.160556 28.014215 -34.159662 52.934080 0.765351 2.272244 0.047841 0.000496 494120.000000 0 0 1
30.489316 27.280075 -33.856531 53.104290 0.729903 2.262108 0.057871 -0.007703 402849.000000 0 0 1
30.924176 27.485165 -32.502801 52.613411 0.726588 2.236695 0.058833 -0.005832 -250122.000000 0 0 1
32.088256 26.744185 -32.210761 52.748846 0.694811 2.227670 0.060473 -0.014431 82541.400000 0 0 1
32.762556 27.175915 -30.915871 52.608997 0.692460 2.198952 0.064318 -0.015582 -396535.000000 0 0 1
33.601866 28.307315 -30.841891 53.680646 0.700084 2.182843 0.034069 -0.008634 69464.000000 0 0 1
33.011266 29.614135 -30.798171 53.993222 0.731206 2.177799 0.056970 -0.008899 53821.900000 0 0 1
32.122656 30.079185 -29.660771 53.069612 0.752558 2.163859 0.052420 0.004556 -265341.000000 0 0 1
32.888466 30.396205 -28.569321 53.120491 0.746037 2.138647 0.031017 0.002818 -641259.000000 0 0 1
32.074556 30.545295 -27.474921 52.121622 0.760982 2.126017 0.041085 -0.003412 -1117640.000000 0 0 1
32.807666 30.794325 -26.171001 52.053383 0.753753 2.097599 0.046309 -0.008900 -207604.000000 0 0 1
33.503446 32.028785 -26.156821 53.221267 0.762899 2.084577 0.029887 -0.005856 61824.100000 0 0 1
34.018316 32.277925 -24.869881 53.081270 0.759152 2.058416 0.021810 -0.017206 -275.448000 0 0 1
34.402216 33.790306 -24.659481 54.160754 0.776425 2.043507 0.032955 -0.015672 1098050.000000 0 0 1
33.133406 -34.096968 -24.503481 53.486881 -0.799729 2.046677 0.048038 -0.013855 1034860.000000 0 0 1
33.321086 -32.674924 -24.265781 52.600129 -0.775608 2.050285 0.042691 -0.012566 -872024.000000 0 0 1
33.605156 -31.779864 -25.531141 52.830914 -0.757489 2.075172 0.031522 -0.015134 -139931.000000 0 0 1
34.864396 -32.027574 -26.098201 54.059298 -0.743015 2.074611 0.031440 -0.018150 -466702.000000 0 0 1
35.884086 -31.346484 -25.389821 53.989932 -0.718007 2.060393 0.032025 -0.011924 -804353.000000 0 0 1
-35.206907 -31.788804 -25.759551 53.977855 0.734423 2.068290 0.004548 -0.007507 -398564.000000 0 0 1
-34.711686 -33.117344 -25.376151 54.273462 0.761897 2.057326 0.006409 -0.013759 -48869.900000 0 0 1
-34.308294 -33.251544 -24.021981 53.476909 0.769758 2.036669 0.015910 -0.019841 513964.000000 0 0 1
-32.951694 -32.603224 -23.577781 52.006693 0.780083 2.041328 0.003182 -0.006521 380787.000000 0 0 1
-33.005764 -31.204384 -23.560581 51.168301 0.757351 2.049301 0.008253 -0.006761 -170417.000000 0 0 1
-32.831144 -30.753714 -22.236381 50.180988 0.752738 2.029876 0.010637 -0.006930 -394302.000000 0 0 1
-32.676134 -29.219424 -22.107381 49.094203 0.729609 2.037904 0.014179 0.004710 335996.000000 0 0 1
-33.831464 -28.431734 -22.393381 49.541851 0.698890 2.039813 -0.002999 0.001986 -16283.800000 0 0 1
-34.086033 -28.223614 -23.783381 50.240216 0.691589 2.063935 0.004530 -0.000205 43053.700000 0 0 1
-35.390322 -27.463184 -24.099481 50.867341 0.659940 2.064364 0.014102 -0.000389 117125.000000 0 0 1
-35.302813 -26.120084 -23.633581 49.870769 0.636997 2.064507 0.012376 0.002205 -520371.000000 0 0 1
-36.252394 -25.220014 -24.139081 50.328724 0.607820 2.071027 0.026922 -0.003568 -175067.000000 0 0 1
-35.911501 -24.656404 -25.586631 50.519797 0.601668 2.101879 0.026028 -0.002055 410834.000000 0 0 1
-34.775011 -23.788904 -25.570261 49.285410 0.599962 2.116267 0.029040 -0.010700 27960.500000 0 0 1
-34.639290 -23.244504 -26.839331 49.603801 0.591027 2.142510 0.047152 -0.018104 -6450.090000 0 0 1
-33.397654 -22.334804 -26.970651 48.390730 0.589446 2.161989 0.042201 -0.024828 -318501.000000 0 0 1
-33.358234 -21.075004 -26.213691 47.371776 0.563459 2.157190 0.058224 -0.022206 -127141.000000 0 0 1
-34.287293 -20.071604 -26.616321 47.821714 0.529611 2.161053 0.050294 -0.018500 47354.400000 0 0 1
-35.420728 -19.953804 -25.560961 48.022339 0.513025 2.132079 0.037327 -0.009566 -29822.900000 0 0 1
-35.034835 -19.537604 -24.205681 46.851602 0.508707 2.113725 0.044354 -0.018026 -261949.000000 0 0 1
-34.430521 -20.568404 -23.438881 46.453215 0.538497 2.099680 0.027793 -0.021184 -236938.000000 0 0 1
-35.263015 -21.760404 -22.841081 47.315012 0.552890 2.074583 0.038160 -0.015547 362113.000000 0 0 1
36.187646 -21.322804 -22.005181 47.417673 -0.532462 2.053382 0.026414 -0.009798 186641.000000 0 0 1
35.611146 -22.450704 -21.325981 47.190946 -0.562502 2.039700 0.021197 0.004798 428005.000000 0 0 1
34.659356 -22.014504 -20.138981 45.732788 -0.565878 2.026798 0.024421 -0.001541 125293.000000 0 0 1
33.432946 -21.535104 -20.613081 44.793099 -0.572236 2.048999 0.044392 -0.007335 -781592.000000 0 0 1
32.452436 -21.605404 -19.607381 43.639472 -0.587372 2.036782 0.058462 -0.011106 229804.000000 0 0 1
31.089066 -21.078204 -20.127881 42.613992 -0.595804 2.062729 0.062724 -0.012462 -77058.400000 0 0 1
30.371816 -21.845304 -21.095281 42.949685 -0.623537 2.084220 0.057308 -0.008978 552735.000000 0 0 1
29.263276 -21.166604 -21.691181 42.129228 -0.626204 2.111655 0.070951 -0.005909 216162.000000 0 0 1
29.407146 -19.847604 -22.479981 42.000681 -0.593698 2.135575 0.055705 -0.005397 -780950.000000 0 0 1
29.921946 -18.788404 -21.695981 41.461339 -0.560692 2.121494 0.072501 -0.003653 27522.200000 0 0 1
29.913886 -17.584904 -22.481681 41.346045 -0.531438 2.145689 0.050995 -0.001901 -193648.000000 0 0 1
30.464226 -16.348104 -21.804981 40.875259 -0.492523 2.133473 0.055109 -0.008896 -240604.000000 0 0 1
29.810096 -16.017104 -20.547281 39.590153 -0.493044 2.116477 0.050000 -0.008894 753124.000000 0 0 1
30.691766 -15.756604 -19.426881 39.593671 -0.474296 2.083639 0.042653 -0.009163 920741.000000 0 0 1
31.681066 -16.924704 -18.967281 40.618879 -0.490648 2.056643 0.055931 -0.018544 -66580.200000 0 0 1
32.794906 -17.053304 -19.758581 41.913275 -0.479518 2.061692 0.054053 -0.013911 -540029.000000 0 0 1
33.734886 -18.049304 -19.349681 42.874586 -0.491280 2.039028 0.058555 -0.015344 606361.000000 0 0 1
34.853746 -18.348004 -20.383081 44.349779 -0.484566 2.048339 0.043634 -0.012072 202448.000000 0 0 1
35.690476 -17.239404 -20.639681 44.687846 -0.449976 2.050891 0.044223 -0.012761 -60230.300000 0 0 1
-35.739063 -17.694204 -21.418581 45.267219 0.459715 2.063669 0.040379 -0.008083 -239699.000000 0 0 1
-34.676722 -16.625204 -21.652281 44.132683 0.447060 2.083595 0.058786 -0.014356 -262099.000000 0 0 1
-33.730964 -16.370804 -20.633081 42.796089 0.451847 2.073875 0.072558 -0.021539 -213796.000000 0 0 1
-33.017544 -15.221204 -20.936781 41.954643 0.431967 2.093280 0.078411 -0.021260 390245.000000 0 0 1
-31.615124 -15.070204 -20.224281 40.443153 0.444816 2.094472 0.077896 -0.018544 1543000.000000 0 0 1
-30.523474 -15.953004 -20.515381 40.088174 0.481601 2.108024 0.074003 -0.025412 852670.000000 0 0 1
-30.806774 -17.206604 -19.945481 40.533280 0.509371 2.085270 0.069992 -0.028582 -662885.000000 0 0 1
-29.678824 -18.246404 -20.005581 40.174459 0.551227 2.092050 0.056695 -0.036416 -307527.000000 0 0 1
-30.057334 -19.367904 -19.299281 40.632761 0.572404 2.065725 0.056401 -0.033017 182720.000000 0 0 1
-29.174614 -20.497904 -19.443081 40.612259 0.612465 2.070026 0.049203 -0.031498 48192.900000 0 0 1
-29.749754 -21.868704 -18.980981 41.515849 0.633889 2.045639 0.030991 -0.007673 36068.200000 0 0 1
-30.688554 -22.482204 -19.862181 42.915534 0.632267 2.051970 0.021381 -0.008180 171639.000000 0 0 1
-31.063794 -23.749104 -19.468181 43.680537 0.652734 2.032746 0.012120 0.002884 573612.000000 0 0 1
-32.138054 -24.275104 -20.521481 45.202504 0.646909 2.042035 0.003417 0.003409 692288.000000 0 0 1
-31.576074 -24.419604 -21.842281 45.502206 0.658283 2.071482 -0.001536 -0.001371 50989.100000 0 0 1
-32.473604 -24.946804 -22.772281 46.855680 0.655059 2.078314 0.009718 0.003191 -382941.000000 0 0 1
-31.986174 -24.749804 -24.226781 47.144512 0.658538 2.110502 0.014097 0.009574 402803.000000 0 0 1
-30.711454 -25.319424 -24.526581 46.752752 0.689460 2.123044 0.007719 0.001603 212271.000000 0 0 1
-30.541774 -25.736254 -25.835621 47.567153 0.700216 2.144969 0.009933 0.009137 6019.000000 0 0 1
-29.074374 -26.169274 -26.040121 46.991893 0.732860 2.158127 0.010167 0.003121 561761.000000 0 0 1
-28.198214 -25.028304 -26.158521 45.889253 0.725913 2.177346 0.017102 -0.002476 -274931.000000 0 0 1
-26.871674 -25.361604 -26.452431 45.442589 0.756496 2.192113 0.014974 -0.002631 -37877.700000 0 0 1
-26.047324 -24.096304 -26.817471 44.477766 0.746509 2.217979 0.021589 -0.004265 -411048.000000 0 0 1
-26.279474 -23.557804 -28.094191 45.109472 0.730841 2.243113 0.018685 -0.012438 100456.000000 0 0 1
-25.511344 -22.378804 -28.346481 44.217220 0.720080 2.266692 0.021229 -0.016469 198690.000000 0 0 1
-25.453144 -21.924104 -29.835621 44.929869 0.711047 2.297017 0.017582 -0.013704 -56073.800000 0 0 1
-24.692904 -22.855104 -30.573601 45.462516 0.746766 2.308380 0.025440 -0.011557 70704.300000 0 0 1
-24.576704 -22.324804 -31.866201 46.020278 0.737422 2.335659 0.030359 -0.008593 -223422.000000 0 0 1
-24.126104 -23.301804 -32.978051 47.038227 0.768020 2.347722 0.025238 -0.014756 246888.000000 0 0 1
-24.966804 -24.482304 -33.024931 48.097511 0.775601 2.327632 0.008291 -0.009883 151091.000000 0 0 1
-24.569904 -25.505434 -33.910471 49.031902 0.804078 2.334498 0.042380 -0.014334 24546.500000 0 0 1
-20.020504 -14.902204 -11.886681 27.643977 0.639873 2.015280 0.006974 0.005804 -227252.000000 0 0 1
-20.112504 -14.158604 -10.686281 26.817448 0.613386 1.980658 0.018333 0.000240 385942.000000 0 0 1
-19.153004 -14.514504 -9.677781 25.906907 0.648486 1.953640 0.019027 -0.007766 201224.000000 0 0 1
-19.591804 -13.968204 -8.323781 25.460457 0.619372 1.903849 0.048352 -0.019733 -44578.800000 0 0 1
-20.764404 -14.571804 -7.810781 26.542537 0.611912 1.869492 0.049451 -0.017135 142502.000000 0 0 1
-21.087204 -13.943404 -6.599781 26.127491 0.584226 1.826162 0.063820 -0.025562 364830.000000 0 0 1
-22.468304 -14.460604 -6.064281 27.399074 0.571863 1.793976 0.063116 -0.026316 91199.000000 0 0 1
-22.599704 -15.770904 -5.524881 28.106803 0.609273 1.768652 0.051245 -0.016926 419038.000000 0 0 1
-21.993304 -15.787504 -4.227781 27.401183 0.622594 1.725707 0.065240 -0.026170 -197817.000000 0 0 1
-21.684204 -17.166004 -3.648781 27.896057 0.669620 1.701971 0.044694 -0.013018 294785.000000 0 0 1
-22.835404 -17.903604 -3.262781 29.200008 0.664926 1.682769 0.040699 -0.008830 603457.000000 0 0 1
-22.394804 -18.857104 -2.309181 29.367498 0.699849 1.649508 0.044037 -0.006615 279470.000000 0 0 1
-23.459104 -19.949104 -2.032881 30.861447 0.704713 1.636715 0.042347 -0.008930 85337.500000 0 0 1
-23.543804 -20.908304 -3.003281 31.630485 0.726179 1.665889 0.031109 -0.000059 189072.000000 0 0 1
-24.581104 -21.821004 -2.652381 32.976083 0.725986 1.651317 0.047092 0.005063 76494.100000 0 0 1
-24.658404 -23.048604 -3.563981 33.940787 0.751668 1.675996 0.043811 0.002594 -298238.000000 0 0 1
-23.484104 -23.805504 -3.734881 33.647504 0.792194 1.682026 0.044895 0.002758 -506385.000000 0 0 1
-23.408604 -24.481104 -4.991281 34.237408 0.807790 1.717102 0.044809 0.004519 860823.000000 0 0 1
-21.957004 -24.587504 -5.641981 33.443794 0.841854 1.740307 0.032723 0.011055 1461360.000000 0 0 1
-21.456804 -23.448404 -6.362281 32.414514 0.829720 1.768358 0.009814 0.021679 124450.000000 0 0 1
-21.347204 -22.256604 -5.582781 31.340501 0.806251 1.749885 0.007923 0.023753 -819086.000000 0 0 1
-21.408804 -20.962904 -6.438081 30.646845 0.774875 1.782446 0.007842 0.022467 92352.800000 0 0 1
-20.261804 -20.504604 -7.141981 29.698273 0.791354 1.813662 -0.003261 0.022962 117310.000000 0 0 1
-20.420604 -19.186604 -7.588281 29.029448 0.754252 1.835268 -0.014176 0.028425 41977.000000 0 0 1
-19.179404 -18.831504 -8.407481 28.163111 0.776246 1.873946 -0.003549 0.018768 -345726.000000 0 0 1
-19.280504 -19.369204 -9.724581 29.008126 0.787693 1.912652 -0.016807 0.014822 363999.000000 0 0 1
-18.026304 -19.449004 -10.404381 28.486182 0.823344 1.944690 0.031262 0.009104 287186.000000 0 0 1
-17.488004 -18.132004 -11.046981 27.507011 0.803476 1.984066 0.015584 0.009209 -140748.000000 0 0 1
-17.139604 -17.022004 -10.215681 26.227367 0.781956 1.970890 0.026497 0.004302 824261.000000 0 0 1
-15.893704 -17.332604 -9.551381 25.382235 0.828677 1.956598 0.059164 0.001925 -134527.000000 0 0 1
-15.524704 -16.247604 -8.617581 24.067899 0.808147 1.936978 0.051943 0.002918 162452.000000 0 1 0
-16.483104 -16.116404 -7.548881 24.257304 0.774150 1.887252 0.054189 0.001875 552183.000000 0 1 0
-16.147304 -15.190204 -6.548481 23.116235 0.754866 1.858014 0.037478 -0.007339 228413.000000 0 1 0
-17.115404 -15.444404 -5.334981 23.662813 0.734122 1.798210 0.050306 -0.009130 387443.000000 0 1 0
-17.304604 -14.260704 -4.592981 22.889135 0.689264 1.772830 0.043666 -0.006545 68394.400000 0 1 0
-17.885304 -14.596804 -3.384181 23.332455 0.684502 1.716352 0.043810 -0.009021 -471679.000000 0 1 0
-18.668504 -13.451204 -2.747081 23.173140 0.624372 1.689622 0.053214 -0.012752 -643495.000000 0 1 0
-19.958804 -13.294604 -3.277081 24.204124 0.587612 1.706607 0.076759 -0.028226 -332032.000000 0 1 0
-20.512304 -12.285404 -2.498381 24.040127 0.539631 1.674910 0.076310 -0.025527 -1584320.000000 0 1 0
-22.012104 -12.326704 -2.632381 25.365524 0.510486 1.674761 0.076591 -0.022304 -1080750.000000 0 0 1
-22.605604 -11.596304 -3.706781 25.675432 0.473980 1.715673 0.092587 -0.027091 721452.000000 0 0 1
-24.017104 -11.746904 -3.825881 27.008303 0.454894 1.712930 0.082404 -0.022628 67501.000000 0 0 1
-24.511804 -11.123704 -5.119481 27.400263 0.426018 1.758741 0.084510 -0.027655 -375177.000000 0 0 1
-24.041304 -11.718704 -6.278081 27.472288 0.453550 1.801358 0.084426 -0.036046 227470.000000 0 0 1
-24.771204 -11.235304 -7.400381 28.188832 0.425813 1.836438 0.090062 -0.035462 -170912.000000 0 0 1
-24.219804 -11.670504 -8.756381 28.274967 0.449029 1.885660 0.095313 -0.037617 351523.000000 0 0 1
-23.059104 -10.848604 -8.982681 27.020419 0.439745 1.909686 0.091189 -0.030484 419215.000000 0 0 1
-22.372204 -11.271904 -10.140481 27.025926 0.466711 1.955423 0.067439 -0.022572 -805112.000000 0 0 1
-20.938304 -10.777004 -10.040881 25.600306 0.475341 1.973837 0.075352 -0.016877 -904906.000000 0 0 1
-20.747704 -9.494704 -10.578281 25.149884 0.429178 2.004913 0.072010 -0.016853 142776.000000 0 0 1
-19.502004 -8.909504 -10.305381 23.788827 0.428536 2.018839 0.066178 -0.006353 -341060.000000 0 1 0
-19.186504 -7.591704 -11.040781 23.402025 0.376776 2.062113 0.029969 0.001143 -72897.400000 0 1 0
-18.988404 -7.762804 -12.416681 23.979045 0.388085 2.115090 0.059435 -0.002367 262085.000000 0 1 0
-18.769504 -6.550004 -13.093281 23.804009 0.335757 2.153215 0.068227 -0.004458 -114591.000000 0 1 0
-18.117404 -6.722104 -14.484381 24.150037 0.355286 2.214005 0.067997 -0.001572 -184118.000000 0 1 0
-18.969604 -7.202404 -15.480281 25.521748 0.362869 2.222514 0.079440 -0.014502 81030.600000 0 0 1
-18.378104 -7.047704 -16.763081 25.853930 0.366188 2.276246 0.080831 -0.024001 -51994.900000 0 0 1
-19.087304 -7.879604 -17.862181 27.303312 0.391508 2.283938 0.082095 -0.026549 501805.000000 0 0 1
-20.341904 -7.267404 -18.209581 28.252381 0.343130 2.271208 0.095002 -0.032801 702000.000000 0 0 1
-21.055304 -8.007504 -19.115281 29.543864 0.363416 2.274457 0.092735 -0.034125 -1153500.000000 0 0 1
-22.458604 -7.549404 -19.443781 30.650335 0.324281 2.257995 0.085569 -0.032391 -1525270.000000 0 0 1
-22.509704 -6.428304 -20.347281 31.016475 0.278175 2.286323 0.089302 -0.031315 1433380.000000 0 0 1
-23.824704 -6.307304 -20.959481 32.352719 0.258801 2.275546 0.073076 -0.028399 2555740.000000 0 0 1
-25.062654 -5.956604 -19.996881 32.611240 0.233339 2.230889 0.080355 -0.025928 563535.000000 0 0 1
-24.987504 -4.654404 -19.516481 32.045778 0.184159 2.225619 0.081859 -0.022845 533797.000000 0 0 1
-26.153014 -4.434804 -18.722181 32.467949 0.167974 2.185401 0.093917 -0.016479 116411.000000 0 0 1
-26.299244 -2.933304 -18.395881 32.228294 0.111077 2.178275 0.081355 -0.012019 98153.900000 0 0 1
-26.650504 -2.090404 -19.510081 33.094749 0.078277 2.201263 0.079414 -0.017229 575105.000000 0 0 1
-28.032584 -2.204804 -19.874381 34.433674 0.078490 2.186066 0.074454 -0.009975 385900.000000 0 0 1
-28.435304 -0.942404 -20.657981 35.159733 0.033130 2.198820 0.066816 -0.008277 -460245.000000 0 0 1
-27.747074 -0.667104 -21.844381 35.320279 0.024038 2.237585 0.062568 -0.000161 -157022.000000 0 0 1
-28.128974 -1.564304 -22.863681 36.282697 0.055555 2.252548 0.053271 0.004417 -125418.000000 0 0 1
-27.419224 -1.468904 -24.230681 36.620997 0.053521 2.293828 0.048145 0.005059 -573916.000000 0 0 1
-27.677094 -0.345504 -25.060981 37.338903 0.012483 2.306591 0.029550 0.008039 67147.600000 0 0 1
-27.315554 0.994996 -24.552881 36.741985 -0.036410 2.302652 0.047163 0.009206 115905.000000 0 0 1
-25.854104 1.280296 -24.108781 35.373820 -0.049480 2.320666 0.052868 -0.004352 -332625.000000 0 0 1
-24.969604 0.990196 -25.135721 35.443844 -0.039635 2.359117 0.044931 -0.004482 -161456.000000 0 0 1
-23.614204 1.246096 -24.741781 34.224832 -0.052720 2.378814 0.048157 -0.004851 435323.000000 0 0 1
-22.661304 0.408396 -25.594071 34.187102 -0.018020 2.416815 0.051314 -0.011431 -396889.000000 0 0 1
-22.540604 0.827596 -26.934051 35.131280 -0.036699 2.444433 0.025812 -0.003990 -41941.300000 0 0 1
-21.441404 0.214496 -27.561851 34.920416 -0.010003 2.480426 0.018194 -0.011367 -85441.600000 0 0 1
-21.101804 0.799396 -28.958451 35.840160 -0.037865 2.511527 0.017808 -0.003516 -439571.000000 0 0 1
-20.547304 2.097196 -28.900121 35.521922 -0.101714 2.521089 0.024944 -0.003649 169836.000000 0 0 1
-20.487004 2.930296 -30.053531 36.489980 -0.142068 2.538544 0.006025 -0.001431 -156810.000000 0 0 1
-19.825704 2.396296 -31.314851 37.140553 -0.120285 2.573901 -0.001925 -0.000425 1091950.000000 0 0 1
-18.387104 2.234596 -31.253711 36.330063 -0.120938 2.606598 -0.008231 0.005682 1114190.000000 0 0 1
-17.883204 1.907296 -32.540131 37.179388 -0.106251 2.636686 -0.005978 -0.000726 1111850.000000 0 0 1
-16.317304 1.763696 -32.674071 36.564463 -0.107669 2.676103 0.008076 -0.013325 1263760.000000 0 0 1
-15.664404 3.048696 -32.704961 36.390693 -0.192223 2.687633 0.013107 -0.005591 -1839530.000000 0 0 1
-14.359504 2.910196 -32.992291 36.099250 -0.199959 2.723667 0.027915 -0.013368 -1896800.000000 0 0 1
-13.614904 4.226896 -33.260571 36.186984 -0.301026 2.736665 0.036856 -0.006640 -348461.000000 0 0 1
-13.472404 4.990796 -32.079381 35.149685 -0.354772 2.720519 0.035010 -0.020009 146919.000000 0 0 1
-13.003504 6.218996 -32.618391 35.661274 -0.446101 2.725494 0.037642 -0.006203 -292438.000000 0 0 1
-12.689304 7.238096 -31.462061 34.688178 -0.518377 2.706893 0.045517 -0.017055 49540.500000 0 0 1
-11.438104 6.975396 -30.849981 33.633431 -0.547622 2.731896 0.072244 -0.030841 305958.000000 0 0 1
-11.570304 6.055796 -29.838381 32.571054 -0.482185 2.729042 0.062012 -0.033789 -152842.000000 0 0 1
-10.259504 5.326796 -29.423261 31.612663 -0.478894 2.767235 0.091029 -0.040781 -46436.000000 0 0 1
-9.690704 4.359096 -30.334231 32.141515 -0.422706 2.804654 0.078211 -0.049703 432831.000000 0 0 1
-10.514904 3.289896 -30.795951 32.707449 -0.303230 2.798021 0.083633 -0.044752 -325177.000000 0 0 1
-9.961204 2.713096 -32.090391 33.710231 -0.265916 2.830332 0.076284 -0.039976 -83879.700000 0 0 1
-10.743304 1.641996 -32.543751 34.310500 -0.151665 2.819285 0.081779 -0.040328 69292.400000 0 0 1
-10.192404 1.000096 -33.680081 35.202743 -0.097809 2.846399 0.071263 -0.033296 -420869.000000 0 0 1
-10.668304 1.517196 33.459181 35.151548 -0.141268 0.311565 0.072176 -0.029707 272591.000000 0 0 1
-12.031204 1.189996 33.242008 35.372264 -0.098588 0.348822 0.060941 -0.026930 -37166.400000 0 0 1
-12.304104 1.218596 31.847343 34.163273 -0.098718 0.370324 0.044772 -0.016870 278206.000000 0 0 1
-13.791404 0.971296 31.466343 34.369710 -0.070312 0.413984 0.038864 -0.012445 966279.000000 0 0 1
-14.738004 1.875996 32.097723 35.369365 -0.126609 0.433501 0.032140 0.003568 1071820.000000 0 0 1
-16.059604 1.488796 31.712503 35.578227 -0.092440 0.470491 0.031542 0.006061 282812.000000 0 0 1
-17.088204 2.549496 31.385463 35.826721 -0.148104 0.503218 0.026912 0.011468 -604748.000000 0 0 1
-17.519604 3.366996 32.454665 37.034828 -0.189869 0.502610 0.012509 0.004895 165722.000000 0 0 1
-16.667604 4.488296 32.653374 36.935033 -0.263043 0.486283 0.018568 0.004739 -111227.000000 0 0 1
-17.089504 5.277396 33.914739 38.342034 -0.299519 0.485307 0.007665 0.009418 499610.000000 0 0 1
-18.417504 5.803896 33.831853 38.954896 -0.305278 0.518653 -0.001987 0.010963 289977.000000 0 0 1
-19.142504 5.434996 -33.506041 38.969596 -0.276643 2.605673 -0.014942 0.014157 -30805.400000 0 0 1
-20.523504 6.085096 -33.351771 39.630584 -0.288237 2.570973 -0.013626 0.006655 -281624.000000 0 0 1
-20.471404 7.496596 -33.191031 39.710475 -0.351032 2.560431 -0.014534 0.000847 168764.000000 0 0 1
-20.035604 8.310796 34.224526 40.519291 -0.393201 0.564890 -0.014349 -0.000635 -348606.000000 0 0 1
-20.089104 9.809296 -34.011781 40.701297 -0.454235 2.560100 -0.002629 0.003721 -738217.000000 0 0 1
-19.168504 10.275896 -33.056151 39.569365 -0.492095 2.559652 -0.008976 0.009865 188996.000000 0 0 1
-19.082404 11.700096 -33.049771 39.916384 -0.550022 2.546283 0.003539 0.002368 -166561.000000 0 0 1
-18.245204 12.329996 -34.182257 40.661320 -0.594295 2.569293 0.002125 -0.005552 -635727.000000 0 0 1
-18.961104 12.289396 33.115930 40.090118 -0.575065 0.598756 0.019174 -0.010215 88507.100000 0 0 1
-18.209504 12.426096 31.928593 38.799858 -0.598813 0.604291 0.027979 -0.006412 -190824.000000 0 0 1
-18.961404 11.776296 30.721833 37.974294 -0.555766 0.628319 0.037786 -0.012493 -7774.010000 0 0 1
-19.123904 10.370396 30.738683 37.658139 -0.496892 0.615896 0.029102 -0.012968 494522.000000 0 0 1
-17.900804 9.631696 30.723233 36.839183 -0.493630 0.584510 0.030182 -0.017101 434744.000000 0 0 1
-18.123104 8.163496 30.849463 36.698487 -0.423225 0.572370 0.023604 -0.008420 -242938.000000 0 0 1
-18.839904 7.660496 29.777773 36.060241 -0.386192 0.599215 0.029021 -0.007955 -39324.600000 0 0 1
-19.118304 6.284096 30.074543 36.186704 -0.317570 0.589725 0.029860 -0.005800 -378741.000000 0 0 1
-19.813704 5.459596 28.973193 35.522331 -0.268874 0.616974 0.039209 -0.014425 -1291760.000000 0 0 1
-21.053204 5.941196 28.643443 36.041394 -0.275047 0.652222 0.056851 -0.021941 -1126630.000000 0 0 1
-21.748804 4.821796 28.036753 35.809492 -0.218175 0.671415 0.052139 -0.022947 441.204000 0 0 1
-23.169804 5.275996 27.645403 36.454688 -0.223892 0.710019 0.048411 -0.019753 -359824.000000 0 0 1
-23.387604 6.002996 26.450173 35.813791 -0.251250 0.739883 0.056350 -0.029567 -265450.000000 0 0 1
-24.758504 6.231896 26.298763 36.653035 -0.246585 0.770582 0.060983 -0.023271 -781920.000000 0 0 1
-25.169004 6.941396 24.991193 36.141686 -0.269102 0.807263 0.065063 -0.025804 -163573.000000 0 0 1
-25.209324 6.106696 23.804473 35.205890 -0.237661 0.828271 0.066100 -0.026478 393543.000000 0 0 1
-26.314984 5.222996 23.838133 35.888921 -0.195934 0.844347 0.059514 -0.023041 -187732.000000 0 0 1
-26.575924 4.534296 22.491923 35.110201 -0.168989 0.875505 0.065887 -0.021025 90954.500000 0 0 1
-27.036114 5.395796 21.421623 34.913493 -0.196989 0.910232 0.067399 -0.011161 67750.500000 0 0 1
-27.332514 4.563496 20.317523 34.361222 -0.165436 0.938136 0.082662 -0.012941 -191062.000000 0 0 1
-28.211834 5.214796 19.246323 34.547397 -0.182781 0.979908 0.077856 -0.008361 428191.000000 0 0 1
-29.595404 5.183096 19.590023 35.868112 -0.173374 0.993013 0.079099 -0.006477 96321.200000 0 0 1
-30.410664 5.442596 18.484723 36.001602 -0.177095 1.031606 0.083004 -0.004660 762850.000000 0 0 1
-31.914214 5.669896 18.901223 37.522274 -0.175826 1.042881 0.085489 -0.003649 889311.000000 0 0 1
-32.123804 6.807896 19.769623 38.329156 -0.208837 1.028872 0.070537 -0.005266 -406715.000000 0 0 1
-33.486644 6.953796 20.046023 39.642826 -0.204749 1.040643 0.068307 -0.001842 -251531.000000 0 0 1
-33.779984 8.121896 21.062423 40.628539 -0.235956 1.025801 0.073952 0.002946 94380.700000 0 0 1
-33.600774 7.782696 22.391723 41.121426 -0.227609 0.994971 0.059670 0.003844 140974.000000 0 0 1
-33.734664 8.890496 23.246123 41.921960 -0.257683 0.983023 0.074378 0.011656 85565.900000 0 0 1
-0.374604 32.068296 11.540919 34.083848 -1.559115 1.225364 0.026382 0.001014 -113705.000000 0 0 1
-0.428804 32.409096 12.932219 34.896642 -1.557566 1.191156 0.018200 -0.005779 104406.000000 0 0 1
-0.275704 33.817296 13.180319 36.296092 -1.562644 1.199168 0.017236 -0.012214 -367906.000000 0 0 1
-0.007104 34.108796 14.679019 37.133322 -1.570588 1.164396 0.016430 -0.008318 -1391480.000000 0 0 1
-1.080504 33.910296 15.497419 37.299405 -1.538944 1.142318 0.015633 0.002729 -1090790.000000 0 0 1
-0.775504 34.115296 16.852219 38.058535 -1.548068 1.112080 0.006868 -0.012237 166396.000000 0 0 1
-1.971004 -34.075594 17.763119 38.478038 1.513019 1.090950 0.016756 -0.009481 100364.000000 0 0 1
-2.913604 33.476796 18.099319 38.167660 -1.483982 1.076735 0.002930 -0.010141 105081.000000 0 0 1
-3.805604 33.994096 19.072419 39.164248 -1.459312 1.062161 0.010966 -0.010263 125608.000000 0 0 1
-5.003104 33.092196 19.448419 38.708726 -1.420746 1.044390 0.012710 -0.014916 122811.000000 0 0 1
-5.913704 32.915796 18.388819 38.165039 -1.393031 1.068062 0.021241 -0.020197 -333829.000000 0 0 1
-7.013204 32.166696 18.817919 37.920910 -1.356129 1.051532 0.037300 -0.029853 -541739.000000 0 0 1
-8.082704 31.891896 17.775819 37.395225 -1.322582 1.075435 0.031391 -0.031870 -948527.000000 0 0 1
-8.781104 33.043896 17.453619 38.387962 -1.311059 1.098802 0.034338 -0.026098 464614.000000 0 0 1
-9.792904 32.829196 16.421719 37.991182 -1.280901 1.123809 0.039300 -0.015030 188784.000000 0 0 1
-10.794304 33.932396 16.285319 39.155282 -1.262807 1.141846 0.054796 -0.025157 -631947.000000 0 0 1
-11.830004 33.914996 17.256819 39.849388 -1.235179 1.122921 0.056174 -0.020648 -1550.540000 0 0 1
-12.815304 -33.759194 16.760319 39.809842 1.207991 1.136238 0.036025 -0.019782 -440073.000000 0 0 1
-14.160304 -33.853694 17.482919 40.647746 1.174632 1.126184 0.065104 -0.016444 -293651.000000 0 0 1
-14.205904 -33.177294 18.743219 40.667540 1.166234 1.091800 0.069183 -0.015692 -375967.000000 0 0 1
-15.469704 -33.410494 19.287219 41.564043 1.137168 1.088250 0.058759 -0.025541 -287825.000000 0 0 1
-15.543604 -33.072394 20.807819 42.051780 1.131446 1.053175 0.063402 -0.040215 -460316.000000 0 0 1
-15.380204 -31.742194 21.092419 41.097539 1.119597 1.031854 0.069005 -0.032662 50318.700000 0 0 1
-15.380004 -31.479894 22.501419 41.639430 1.116338 0.999899 0.067547 -0.028094 6358.840000 0 0 1
-15.101704 -30.040494 22.913719 40.688220 1.104982 0.972599 0.072290 -0.036694 -198589.000000 0 0 1
-15.147204 -29.681894 24.270919 41.225358 1.098928 0.941300 0.072819 -0.042000 -227235.000000 0 0 1
-15.047804 -28.298694 24.475019 40.327150 1.082073 0.918627 0.050971 -0.025886 942064.000000 0 0 1
-16.386004 -27.495094 24.181719 40.115295 1.033352 0.923784 0.071795 -0.021956 759526.000000 0 0 1
-17.385304 -27.606894 25.143019 41.189329 1.008792 0.914199 0.084324 -0.023851 98493.900000 0 0 1
-18.513204 -26.785694 24.899419 40.990160 0.966028 0.917951 0.087552 -0.027453 -409430.000000 0 0 1
-19.549604 -26.450094 26.030919 41.945241 0.934299 0.901298 0.073428 -0.020733 201146.000000 0 0 1
-20.398704 -27.457394 26.492119 43.264859 0.931841 0.911799 0.074237 -0.022474 178805.000000 0 0 1
-21.182704 -28.116294 25.508619 43.473240 0.925125 0.943737 0.063414 -0.025617 -895595.000000 0 0 1
-22.502304 -27.478794 25.022919 43.446338 0.884639 0.957031 0.050063 -0.010261 -455552.000000 0 0 1
-22.417604 -26.290994 24.268219 42.222172 0.864753 0.958468 0.058797 -0.016578 24102.400000 0 0 1
-23.624404 -25.966594 23.605919 42.303852 0.832593 0.978812 0.058957 -0.011003 -147808.000000 0 0 1
-23.858704 -24.427694 23.308219 41.342751 0.797181 0.971841 0.057817 -0.001345 -56240.400000 0 0 1
-24.407504 -23.694094 24.372319 41.846700 0.770568 0.949095 0.048057 -0.006070 123082.000000 0 0 1
-24.943104 -22.461194 23.930919 41.223204 0.733090 0.951428 0.042139 0.001383 254698.000000 0 0 1
-25.516884 -21.446394 24.978019 41.652859 0.698940 0.927706 0.052006 0.001804 -405874.000000 0 0 1
-26.611194 -21.971394 25.629919 42.985935 0.690184 0.931987 0.039169 0.008567 -629494.000000 0 0 1
-27.049304 -21.068094 26.662719 43.433052 0.661728 0.909829 0.032900 0.004762 -174686.000000 0 0 1
-28.149664 -21.740194 27.562919 44.997268 0.657626 0.911518 0.022682 0.002426 1788920.000000 0 0 1
-29.512614 -21.645494 27.032119 45.500080 0.632813 0.934636 0.016355 -0.000043 1621610.000000 0 0 1
-29.826574 -22.592694 26.044119 45.588930 0.648264 0.962730 0.006380 0.005052 -554474.000000 0 0 1
-31.349664 -22.869294 25.991119 46.704864 0.630246 0.980633 0.009923 0.002289 177248.000000 0 0 1
-31.837454 -23.401494 24.779319 46.639769 0.633851 1.010672 0.010841 -0.000069 183146.000000 0 0 1
-31.412744 -24.773094 24.522119 46.923353 0.667771 1.020899 0.010421 -0.002763 -556527.000000 0 0 1
-31.985454 -25.319994 23.202919 46.931299 0.669604 1.053650 0.018181 0.001644 754354.000000 0 0 1
-33.393304 -25.604894 23.171119 48.037736 0.654146 1.067458 0.016924 -0.002167 472087.000000 0 0 1
-33.665114 -26.141694 21.948619 47.942361 0.660260 1.095263 0.024289 0.001667 232302.000000 0 0 1
-35.028639 -26.852494 21.713319 49.188720 0.654032 1.113606 0.032258 0.000319 81438.100000 0 0 1
-35.270658 -28.005294 22.531119 50.358387 0.671078 1.106923 0.035829 0.001031 191406.000000 0 0 1
-34.328763 -29.073694 22.491819 50.295383 0.702703 1.107170 0.028506 0.000313 -573337.000000 0 0 1
-34.666116 -30.172494 21.435519 50.710950 0.716204 1.134374 0.046473 -0.004219 -19466.000000 0 0 1
-34.456517 -29.714494 20.099419 49.741224 0.711636 1.154824 0.035289 -0.002866 321572.000000 0 0 1
-34.785138 -30.766794 19.264319 50.276391 0.724175 1.177572 0.049290 -0.001276 -342717.000000 0 0 1
-35.185658 -30.338794 17.834119 49.764734 0.711562 1.204276 0.062439 0.002390 -261658.000000 0 0 1
-34.113647 -29.989794 16.965519 48.486674 0.721155 1.213331 0.069375 0.003143 270009.000000 0 0 1
-34.473933 -29.406094 15.690219 47.951574 0.706230 1.237447 0.089963 0.001790 -80189.600000 0 0 1
-35.165460 -30.305994 14.662719 48.683243 0.711311 1.264860 0.082676 -0.009477 668040.000000 0 0 1
-34.209140 -31.200094 14.024319 48.377605 0.739427 1.276682 0.083390 -0.013476 713921.000000 0 0 1
-34.733253 -32.011294 13.006519 48.992768 0.744639 1.302096 0.087200 -0.012798 -44658.000000 0 0 1
-35.026688 -31.312694 11.634819 48.401681 0.729472 1.328039 0.085072 -0.018242 213076.000000 0 0 1
-36.027801 -30.316594 11.739719 48.527511 0.699526 1.326453 0.079046 -0.020127 97247.800000 0 0 1
-36.120404 -29.555194 10.505919 47.838974 0.685765 1.349382 0.061966 -0.017245 770640.000000 0 0 1
35.012106 -28.790394 10.443819 46.516747 -0.688190 1.344349 0.089741 -0.011847 679911.000000 0 0 1
35.021156 -27.725194 9.543819 45.675511 -0.669641 1.360297 0.102707 -0.047351 -796239.000000 0 0 1
33.882696 -26.976594 9.635719 44.369143 -0.672405 1.351880 0.082599 -0.040548 -1033930.000000 0 0 1
33.871116 -25.838294 8.603119 43.461289 -0.651669 1.371531 0.076260 -0.038690 -3860.020000 0 0 1
34.855996 -24.855794 8.809119 43.707569 -0.619464 1.367859 0.089502 -0.045391 21838.800000 0 0 1
34.983296 -24.095994 7.675519 43.166672 -0.603160 1.392035 0.082117 -0.043462 260559.000000 0 0 1
35.658416 -22.700994 7.864419 42.996592 -0.566914 1.386853 0.086303 -0.044380 -142863.000000 0 0 1
34.716716 -21.823294 8.388819 41.855452 -0.561191 1.369006 0.078054 -0.047603 -354731.000000 0 0 1
35.098746 -20.470294 8.232219 41.457501 -0.527990 1.370898 0.081312 -0.037759 354614.000000 0 0 1
34.279916 -19.396394 9.024119 40.407518 -0.514911 1.345569 0.093430 -0.029335 301933.000000 0 0 1
34.517186 -19.525894 10.424219 41.004403 -0.514806 1.313753 0.084841 -0.050280 -213685.000000 0 0 1
33.761306 -18.607894 11.138719 40.126682 -0.503734 1.289513 0.084197 -0.031903 -264450.000000 0 0 1
34.174596 -18.644094 12.597719 40.917085 -0.499424 1.257828 0.068563 -0.045303 -1080100.000000 0 0 1
35.425116 -18.189594 12.903719 41.860556 -0.474362 1.257438 0.032179 -0.025922 -1100960.000000 0 0 1
35.634626 -18.180794 14.273319 42.474646 -0.471774 1.228084 0.049498 -0.018479 -936118.000000 0 0 1
-35.642170 -17.377794 14.586119 42.250525 0.453648 1.218313 0.069170 -0.020807 -1043180.000000 0 0 1
-34.461580 -18.004694 14.170419 41.383213 0.481451 1.221305 0.074696 -0.027032 -538436.000000 0 0 1
-33.377694 -17.381894 14.807719 40.440935 0.480120 1.195921 0.082809 -0.026442 -737912.000000 0 0 1
-32.073144 -17.489994 14.054819 39.142361 0.499240 1.203526 0.084365 -0.027851 -554841.000000 0 0 1
-31.427794 -18.715294 13.721119 39.067091 0.537105 1.211923 0.070963 -0.028596 281532.000000 0 0 1
-30.156514 -18.491194 13.144619 37.737523 0.550050 1.215021 0.049723 -0.023733 -433527.000000 0 0 1
-29.455914 -19.765994 12.791319 37.708928 0.591022 1.224717 0.037548 -0.019878 -613722.000000 0 0 1
-30.020104 -20.562594 11.797619 38.251938 0.600561 1.257266 0.046914 -0.017337 -509935.000000 0 0 1
-29.033304 -21.312894 11.127319 37.696013 0.633237 1.271147 0.037230 -0.013740 -5414.530000 0 0 1
-29.670784 -22.387994 10.170919 38.536026 0.646405 1.303699 0.054514 -0.017004 641783.000000 0 0 1
-30.396394 -23.484894 10.755519 39.889375 0.657822 1.297784 0.063055 -0.017782 -378844.000000 0 0 1
-31.770884 -23.270894 10.662419 40.799642 0.632181 1.306390 0.089114 -0.031754 -740770.000000 0 0 1
-32.618894 -24.541694 10.786419 42.221249 0.645020 1.312459 0.108083 -0.032263 -114048.000000 0 0 1
-32.817114 -25.189894 9.537919 42.455455 0.654660 1.344205 0.100289 -0.025721 44508.400000 0 0 1
-33.628034 -26.357194 9.656819 43.804115 0.664776 1.348516 0.112216 -0.024388 296334.000000 0 0 1
-33.754924 -27.186694 8.355019 44.139751 0.678034 1.380362 0.098469 -0.024523 -168568.000000 0 0 1
-32.538144 -27.645894 7.838519 43.410467 0.704288 1.389233 0.090789 -0.023728 -469809.000000 0 0 1
-32.705074 -28.453394 6.657419 43.858166 0.715991 1.418413 0.073671 -0.024767 -564027.000000 0 0 1
-31.396394 -28.691294 5.934819 42.943521 0.740409 1.432152 0.056132 -0.018134 -214271.000000 0 0 1
-30.751064 -27.552594 5.317219 41.629872 0.730594 1.442720 0.058617 -0.007833 445140.000000 0 0 1
-29.515094 -28.003094 4.758219 40.962845 0.759117 1.454374 0.048984 -0.014141 424665.000000 0 0 1
-28.694684 -26.944594 3.973519 39.562418 0.753954 1.470190 0.045615 -0.009015 250933.000000 0 0 1
-29.291564 -26.435094 2.769619 39.553517 0.734184 1.500717 0.057535 -0.006488 103698.000000 0 0 1
-28.495554 -25.363394 2.223719 38.213130 0.727309 1.512571 0.058940 -0.011362 140469.000000 0 0 1
-28.979444 -24.679494 0.922019 38.075395 0.705434 1.546578 0.064950 -0.007104 -149451.000000 0 0 1
-28.884334 -25.456794 -0.252881 38.502170 0.722407 1.577364 0.056662 -0.009597 -215495.000000 0 0 1
-29.111184 -24.762894 -1.473581 38.247005 0.704861 1.609334 0.058950 -0.006170 -29775.400000 0 0 1
-30.509594 -24.529194 -2.079081 39.202542 0.677165 1.623856 0.059961 -0.001632 168890.000000 0 0 1
-31.223364 -23.442894 -1.494681 39.073032 0.644021 1.609059 0.046874 -0.002390 -491034.000000 0 0 1
-32.538764 -23.406994 -1.952381 40.130666 0.623600 1.619466 0.043025 -0.005362 -486382.000000 0 0 1
-33.346094 -22.135494 -1.661281 40.058731 0.586023 1.612279 0.048485 -0.011680 -176853.000000 0 0 1
-33.521474 -21.939894 -0.248981 40.063826 0.579534 1.577011 0.049300 -0.018288 127307.000000 0 0 1
-34.153711 -20.675294 -0.053281 39.924261 0.544351 1.572131 0.047507 -0.014483 -216088.000000 0 0 1
-34.237066 -20.114694 1.413119 39.733796 0.531187 1.535224 0.052236 -0.012053 -119643.000000 0 0 1
-35.063121 -20.914294 2.233419 40.887875 0.537824 1.516146 0.051450 -0.015926 86998.400000 0 0 1
-35.145477 -20.541094 3.591019 40.866080 0.528914 1.482810 0.066197 -0.027538 -2014210.000000 0 0 1
-36.174254 -21.388294 4.324319 42.246130 0.533966 1.468257 0.080253 -0.015369 490647.000000 0 0 1
35.066946 -21.337094 3.678019 41.212743 -0.546622 1.481433 0.075912 -0.015961 65573.600000 0 0 1
34.384956 -20.105394 3.723119 40.005171 -0.529105 1.477596 0.094473 -0.029611 -1223590.000000 0 0 1
33.155266 -20.132094 2.773619 38.887863 -0.545702 1.499412 0.094284 -0.020071 1081530.000000 0 0 1
32.087006 -21.008494 3.250619 38.490250 -0.579697 1.486243 0.079049 -0.012794 951977.000000 0 0 1
30.944536 -20.845794 2.396319 37.387883 -0.592822 1.506659 0.084284 -0.022752 1271790.000000 0 0 1
29.628756 -21.569594 2.840119 36.758358 -0.629269 1.493455 0.069667 -0.008128 717394.000000 0 0 1
29.689886 -22.908794 2.393819 37.577022 -0.657184 1.507049 0.048534 -0.007423 334407.000000 0 0 1
28.402186 -23.502794 2.544919 36.953243 -0.691285 1.501873 0.045724 0.002548 394886.000000 0 0 1
28.123586 -24.676794 1.646719 37.451194 -0.720211 1.526812 0.032381 0.005354 -48280.200000 0 0 1
27.925316 -24.313994 0.292419 37.028086 -0.716378 1.562899 0.027204 -0.004876 -144539.000000 0 0 1
27.392726 -25.302594 -0.513381 37.294052 -0.745754 1.584563 0.032074 -0.009367 -321112.000000 0 0 1
26.526126 -24.727194 -1.666581 36.302163 -0.750314 1.616721 0.044856 -0.018213 13417.300000 0 0 1
27.196026 -24.002194 -2.684781 36.372204 -0.723097 1.644678 0.031538 -0.035846 -235187.000000 0 0 1
27.869666 -24.771894 -3.646781 37.465505 -0.726619 1.668288 0.033254 -0.039955 -636330.000000 0 0 1
27.028726 -25.521594 -4.796981 37.482194 -0.756726 1.699129 0.040647 -0.040803 479640.000000 0 0 1
26.307626 -24.771894 -5.774981 36.593556 -0.755342 1.729273 0.044575 -0.046780 412479.000000 0 0 1
25.256526 -23.989294 -5.264781 35.229196 -0.759671 1.720802 0.050987 -0.040014 -509270.000000 0 0 1
24.570526 -23.047994 -6.283581 34.269581 -0.753436 1.755197 0.068364 -0.044345 -306969.000000 0 0 1
24.080426 -23.770194 -7.417881 34.639775 -0.778915 1.786611 0.078952 -0.047043 1566490.000000 0 0 1
22.857826 -23.252694 -8.048981 33.585028 -0.793961 1.812812 0.059572 -0.051446 1111060.000000 0 0 1
22.749626 -21.780094 -8.528181 32.628942 -0.763629 1.835236 0.055385 -0.044413 -692905.000000 0 0 1
23.450226 -21.505594 -9.694881 33.262508 -0.742169 1.866555 0.048098 -0.039778 -13439.800000 0 0 1
23.304526 -20.189894 -10.180981 32.471297 -0.713910 1.889713 0.046042 -0.036064 9701.360000 0 0 1
23.774926 -19.993394 -11.679781 33.187350 -0.699213 1.930434 0.032754 -0.041937 -482172.000000 0 0 1
25.159926 -19.943494 -11.778381 34.197882 -0.670255 1.922416 0.055402 -0.035323 -691508.000000 0 0 1
25.604326 -19.689394 -13.109981 34.858648 -0.655542 1.956369 0.061963 -0.035820 -422507.000000 0 0 1
27.096326 -19.946494 -13.338381 36.193728 -0.634567 1.948221 0.065559 -0.042879 -293555.000000 0 0 1
27.451026 -21.311194 -13.241381 37.189515 -0.660144 1.934835 0.043247 -0.036971 -217290.000000 0 0 1
28.044146 -21.600594 -12.011081 37.380822 -0.656326 1.897916 0.056327 -0.057001 -316215.000000 0 0 1
28.364146 -23.145494 -12.037981 38.537666 -0.684429 1.888482 0.039111 -0.037094 -58616.400000 0 0 1
29.336216 -23.458394 -13.034281 39.759305 -0.674521 1.904802 0.048749 -0.046254 465785.000000 0 0 1
29.441546 -24.897794 -13.096581 40.721312 -0.701974 1.898231 0.034828 -0.035299 -205382.000000 0 0 1
-4.494604 -8.843704 -27.440581 29.178726 1.100589 2.794692 0.041612 -0.005810 133673.000000 0 0 1
-3.910804 -7.625104 -27.040971 28.366366 1.096894 2.834696 0.017232 -0.004836 170474.000000 0 0 1
-4.524804 -6.549504 -27.742571 28.862087 0.966230 2.862158 0.014119 -0.003177 58305.100000 0 0 1
-4.366704 -5.160504 -27.015981 27.848916 0.868525 2.896401 0.016996 -0.012821 279042.000000 0 0 1
-5.218104 -5.078804 -25.857591 26.863318 0.771871 2.867094 0.015267 -0.006251 427118.000000 0 0 1
-4.851704 -4.032904 -25.012081 25.795494 0.693498 2.894509 0.012037 -0.015713 -59823.300000 0 0 1
-5.572604 -4.004104 -23.661981 24.636885 0.623057 2.859335 0.011515 -0.013654 -154851.000000 0 1 0
-5.072004 -5.079304 -22.856081 23.956731 0.786117 2.837292 0.015960 -0.014984 369352.000000 0 1 0
-5.382304 -5.046704 -21.476681 22.708726 0.753230 2.810679 0.018923 -0.012425 -373132.000000 0 1 0
-4.714204 -6.157004 -20.700181 22.104975 0.917345 2.783163 0.023070 -0.013835 -501990.000000 0 1 0
-5.337404 -7.424004 -20.811381 22.731416 0.947473 2.727629 0.019670 -0.011580 168761.000000 0 1 0
-4.487304 -8.433904 -20.326381 22.459483 1.081834 2.702233 0.021494 -0.011595 -1060130.000000 0 1 0
-5.070704 -9.862504 -20.238681 23.077808 1.095901 2.640329 0.016149 -0.008950 -79126.700000 0 1 0
-6.247104 -10.010604 -19.472781 22.769007 1.012881 2.596794 0.016189 -0.005190 30491.500000 0 1 0
-7.437504 -9.566404 -20.097881 23.468220 0.909951 2.599028 0.015214 0.001632 -1171490.000000 0 1 0
-8.576504 -9.483904 -19.112281 22.995220 0.835598 2.551954 0.014575 0.008110 -1032040.000000 0 1 0
-9.018504 -10.724204 -18.715781 23.379958 0.871581 2.498934 0.021183 -0.000938 -148223.000000 0 1 0
-9.842304 -10.589704 -17.579481 22.760732 0.821962 2.453345 0.020756 0.004769 -26293.200000 0 1 0
-10.636004 -11.875604 -17.196281 23.449235 0.840408 2.394019 0.028425 -0.002200 745896.000000 0 1 0
-11.640404 -12.244904 -18.193081 24.827905 0.810701 2.393176 0.035152 -0.011078 575110.000000 0 1 0
-11.154104 -12.843304 -19.342481 25.758417 0.855673 2.420249 0.039919 -0.007026 -1210490.000000 0 0 1
-12.124604 -12.735904 -20.573281 27.064168 0.809982 2.434366 0.053175 -0.014763 943009.000000 0 0 1
-13.290304 -13.549704 -20.534081 27.962030 0.795063 2.395514 0.053687 -0.007117 355652.000000 0 0 1
-14.228704 -13.386404 -19.467681 27.579747 0.754906 2.354445 0.043200 0.002430 -575231.000000 0 0 1
-15.559804 -14.049604 -19.899581 28.904882 0.734438 2.330147 0.046351 0.005641 -44590.400000 0 0 1
-15.427204 -15.445604 -19.958581 29.578882 0.785994 2.311433 0.047205 0.007662 -434884.000000 0 0 1
-16.046604 -15.957604 -21.051781 30.908188 0.782617 2.320070 0.055689 0.000281 -270022.000000 0 0 1
-15.698304 -17.439604 -21.289481 31.683096 0.837897 2.307636 0.043914 0.001609 -32699.200000 0 0 1
-16.329904 -18.404104 -20.448281 31.992327 0.845044 2.264205 0.048047 0.011207 76593.800000 0 0 1
-15.996704 -19.724304 -20.831981 32.846829 0.889375 2.257790 0.050674 0.010382 -200299.000000 0 0 1
-16.564804 -20.910404 -20.051181 33.371958 0.900842 2.215347 0.035938 0.007831 -494624.000000 0 0 1
-16.053504 -22.066004 -20.545981 34.157881 0.941837 2.216174 0.044963 0.005100 -329060.000000 0 0 1
-16.660004 -23.215104 -20.052581 34.908492 0.948332 2.182707 0.052152 0.003045 -321500.000000 0 0 1
-16.007404 -24.509604 -20.543281 35.762887 0.992240 2.182704 0.065156 -0.002997 -50841.800000 0 0 1
-16.399604 -24.906504 -21.837881 36.961791 0.988506 2.202875 0.056039 -0.006769 219962.000000 0 0 1
-15.748404 -26.121804 -22.171681 37.708677 1.028259 2.199347 0.062777 -0.005819 11807.800000 0 0 1
-16.092704 -26.479974 -23.671781 38.993812 1.024712 2.223158 0.066696 -0.012336 926924.000000 0 0 1
-17.367304 -27.104374 -23.947681 40.121837 1.000947 2.210396 0.075311 -0.007941 695319.000000 0 0 1
-17.289304 -28.514274 -23.723781 40.924341 1.025729 2.189155 0.085723 -0.006479 -88347.200000 0 0 1
-18.094404 -29.468954 -24.650581 42.467374 1.020135 2.190089 0.087222 -0.010742 28040.600000 0 0 1
-17.631904 -29.469004 -26.003591 43.075434 1.031613 2.218900 0.079330 -0.004279 -41462.500000 0 0 1
-17.900604 -28.268364 -26.772531 42.852076 1.006295 2.245628 0.089448 -0.013297 269384.000000 0 0 1
-16.830204 -27.778754 -27.816701 42.763113 1.026075 2.279017 0.101137 -0.015351 41623.100000 0 0 1
-16.877004 -28.302004 -29.115401 43.972074 1.033088 2.294459 0.092277 -0.008946 785526.000000 0 0 1
-15.705104 -27.956534 -29.892101 43.837835 1.058963 2.321125 0.056508 -0.001647 627789.000000 0 0 1
-15.850404 -28.208384 -31.421731 45.102920 1.058860 2.341538 0.063858 -0.003948 -46508.800000 0 0 1
-16.003204 -29.551184 -31.775101 46.249671 1.074470 2.328196 0.046109 -0.003414 173854.000000 0 0 1
-16.542804 -29.814474 -33.033571 47.474035 1.064231 2.340363 0.050805 -0.004050 -109721.000000 0 0 1
-16.530804 -31.326154 -33.487391 48.744238 1.085235 2.328152 0.050895 -0.004361 791002.000000 0 0 1
-15.239204 -31.700884 -34.003701 48.922705 1.122692 2.339285 0.045369 -0.000611 673731.000000 0 0 1
-15.364404 -32.867894 33.747329 49.550435 1.133518 0.821573 0.044681 -0.003078 -839991.000000 0 0 1
-14.067404 -33.347674 33.172300 49.095425 1.171605 0.828923 0.035282 -0.006134 -795285.000000 0 0 1
-13.243904 -34.045304 34.094549 49.969211 1.199801 0.819877 0.043010 -0.005914 378661.000000 0 0 1
-12.107804 34.016173 33.370772 49.166120 -1.228837 0.824757 0.046272 -0.004069 128122.000000 0 0 1
-11.152404 33.161533 34.191438 48.919504 -1.246373 0.796892 0.053646 -0.006356 -117909.000000 0 0 1
-10.547804 33.949645 -33.301131 48.711394 -1.269562 2.323537 0.061084 -0.001450 -12655.000000 0 0 1
-9.699404 33.130201 -32.495491 47.409341 -1.285989 2.325982 0.062144 -0.013856 155268.000000 0 0 1
-8.940604 33.935186 -31.428721 47.109402 -1.313189 2.301164 0.052915 -0.011314 164087.000000 0 0 1
-9.825604 -33.922494 -30.566021 46.707170 1.288863 2.284209 0.059152 -0.010942 224744.000000 0 0 1
-9.168704 -32.767454 -30.046381 45.393350 1.297963 2.294162 0.054625 -0.013920 456047.000000 0 0 1
-10.113404 -31.990914 -29.065901 44.390609 1.264605 2.284682 0.055990 -0.007215 493601.000000 0 0 1
-10.077704 -32.366464 -27.684271 43.767191 1.268948 2.255618 0.076500 -0.018612 -106505.000000 0 0 1
-10.583604 -33.682804 -27.433291 44.711625 1.266351 2.231358 0.083170 -0.019665 -157655.000000 0 0 1
-10.696204 -33.946244 -25.910291 44.023851 1.265551 2.200062 0.074198 -0.025989 21565.100000 0 0 1
-9.512804 -33.876984 -25.153071 43.252982 1.297042 2.191409 0.082039 -0.033640 -528415.000000 0 0 1
-9.754504 -34.234059 -23.763581 42.799871 1.293217 2.159430 0.065949 -0.034101 292855.000000 0 0 1
-8.517104 -34.217062 -22.817481 41.999832 1.326840 2.145130 0.074914 -0.036910 244604.000000 0 0 1
-7.834204 33.093677 -22.872881 40.984569 -1.338347 2.162873 0.065345 -0.041110 -921066.000000 0 0 1
-6.937704 33.037664 -21.849481 40.212172 -1.363810 2.145225 0.074641 -0.044305 -946967.000000 0 0 1
-6.264204 31.669345 -21.712881 38.905486 -1.375517 2.162882 0.086040 -0.047438 55843.900000 0 0 1
-5.284704 31.412505 -22.718481 39.125477 -1.404121 2.190332 0.076886 -0.052089 274362.000000 0 0 1
-4.865104 30.062645 -22.721681 37.996140 -1.410355 2.211799 0.061494 -0.040891 872971.000000 0 0 1
-3.378604 29.741725 -23.198281 37.870112 -1.457683 2.230111 0.064142 -0.048526 993112.000000 0 0 1
-3.127504 30.101245 -24.538181 38.961373 -1.467268 2.252102 0.076848 -0.049395 68793.300000 0 0 1
-2.499704 31.358705 -24.702081 39.997621 -1.491251 2.236470 0.066354 -0.058427 -116075.000000 0 0 1
-2.029804 31.580635 -26.179611 41.071019 -1.506611 2.261945 0.065359 -0.038672 -230117.000000 0 0 1
-1.024304 32.539989 -26.277461 41.837842 -1.539328 2.249878 0.072170 -0.051239 -81209.400000 0 0 1
-1.568704 33.863042 -26.171911 42.826807 -1.524504 2.228259 0.049772 -0.043573 -313945.000000 0 0 1
-0.799704 -33.664274 -26.994851 43.158370 1.547046 2.246547 0.022804 -0.027753 91236.600000 0 0 1
0.435096 -33.305974 -26.373151 42.485531 -1.557733 2.240503 0.043459 -0.026527 -115804.000000 0 0 1
1.124896 -32.353184 -27.076851 42.203670 -1.536041 2.267347 0.030954 -0.013549 -533847.000000 0 0 1
2.494996 -31.989264 -26.491561 41.609384 -1.492959 2.260972 0.034035 -0.006106 -416519.000000 0 0 1
2.333196 -31.403174 -25.169601 40.312678 -1.496634 2.245108 0.031404 -0.012269 407344.000000 0 0 1
3.514696 -30.787664 -24.683481 39.617011 -1.457129 2.243436 0.023051 -0.007763 29776.100000 0 0 1
3.257696 -30.109564 -23.306481 38.215056 -1.463021 2.226702 0.035902 -0.005844 -57383.900000 0 0 1
3.162696 -30.999014 -22.203881 38.261650 -1.469122 2.189914 0.045700 -0.007428 468016.000000 0 0 1
2.897996 -30.320344 -20.972081 36.980398 -1.475507 2.173793 0.055096 0.001016 -533585.000000 0 0 1
2.977196 -31.311314 -19.763381 37.146377 -1.475998 2.131805 0.051811 0.004314 -308763.000000 0 0 1
1.783996 -31.950724 -19.358381 37.400245 -1.515018 2.114840 0.060032 0.001213 -112418.000000 0 0 1
1.762596 -33.375574 -19.333181 38.610978 -1.518034 2.095223 0.062467 0.006793 -199198.000000 0 0 1
2.694196 -34.103287 -18.300481 38.796914 -1.491959 2.062013 0.046315 -0.011878 1668530.000000 0 0 1
4.074696 34.256298 -18.705081 39.242543 1.452405 2.067640 0.044909 0.005408 947498.000000 0 0 1
4.748696 33.409804 -17.808181 38.156211 1.429607 2.056372 0.055461 -0.008664 280975.000000 0 0 1
6.003296 32.797791 -18.461981 38.112720 1.389761 2.076479 0.056388 -0.006671 285730.000000 0 0 1
7.015596 33.647063 -18.969581 39.257973 1.365236 2.075106 0.094543 -0.005287 -748596.000000 0 0 1
8.029196 32.874532 -19.509981 39.062030 1.331248 2.093773 0.060729 -0.009218 -1050870.000000 0 0 1
9.349396 33.599547 -19.582181 39.997532 1.299402 2.082410 0.037860 -0.019177 -989440.000000 0 0 1
10.075596 33.623745 -18.403481 39.632840 1.279654 2.053696 0.032529 -0.005380 319084.000000 0 0 1
11.234796 -34.070728 -18.516281 40.371869 -1.252275 2.047264 0.032420 0.005021 772998.000000 0 0 1
12.055296 -34.167503 -17.190981 40.103345 -1.231603 2.013813 0.009599 0.008834 -228891.000000 0 0 1
12.656496 33.139463 -16.973881 39.325863 1.205976 2.017086 0.005624 0.001276 44114.500000 0 0 1
13.556796 33.210545 -15.871881 39.225548 1.183235 1.987372 0.005985 -0.002618 88466.200000 0 0 1
14.505596 32.009345 -15.809581 38.535092 1.145311 1.993540 0.016594 -0.009279 42241.700000 0 0 1
14.044496 30.947535 -15.022581 37.157445 1.144773 1.987005 0.028557 -0.013182 -563494.000000 0 0 1
15.088596 30.059615 -14.804481 36.748045 1.105585 1.985441 0.026539 -0.003018 -286352.000000 0 0 1
14.766296 28.892595 -13.860781 35.283804 1.098328 1.974511 0.035660 -0.016183 -259395.000000 0 0 1
14.728696 29.354825 -12.502881 35.142030 1.105752 1.934546 0.037993 -0.021040 959982.000000 0 0 1
13.510696 29.106285 -11.733381 34.167045 1.136209 1.921344 0.065529 -0.020354 1155060.000000 0 0 1
13.066596 27.615435 -11.475781 32.634977 1.128848 1.930119 0.052488 -0.023439 -725409.000000 0 0 1
12.384196 27.044945 -12.537581 32.279844 1.141383 1.969694 0.032361 -0.020492 -227203.000000 0 0 1
11.819296 25.772255 -12.341281 30.922679 1.140809 1.981333 0.039791 -0.019103 166907.000000 0 0 1
10.782996 25.524755 -11.230681 29.898400 1.171085 1.955871 0.034361 -0.021422 -871970.000000 0 0 1
9.649196 26.334055 -11.264681 30.223873 1.219573 1.952722 0.019320 -0.014210 -332239.000000 0 0 1
9.122996 26.520845 -9.987281 29.771296 1.239483 1.912897 -0.004789 -0.002603 -313179.000000 0 0 1
8.030196 27.611935 -10.078081 30.470818 1.287780 1.907890 0.002607 -0.005089 20242.900000 0 0 1
8.544796 28.864765 -10.522081 31.888907 1.282987 1.907058 0.010728 -0.016736 245900.000000 0 0 1
7.542596 29.886125 -10.530281 32.572351 1.323581 1.899999 0.008508 -0.013141 -212301.000000 0 0 1
8.106696 31.226775 -11.026281 34.094118 1.316796 1.900124 0.039809 -0.011840 321114.000000 0 0 1
9.137096 31.747205 -10.158081 34.562381 1.290562 1.869107 0.033701 -0.012129 115208.000000 0 0 1
9.537896 33.037925 -10.581681 35.978437 1.289743 1.869322 0.046121 -0.010512 -22487.200000 0 0 1
10.656296 33.073976 -11.661681 36.652958 1.259103 1.894589 0.038461 -0.015345 144609.000000 0 0 1
11.924996 32.803393 -11.054581 36.612455 1.222120 1.877518 0.040493 -0.005290 743947.000000 0 0 1
12.950196 33.185496 -12.000181 37.589747 1.198735 1.895725 0.043026 -0.001683 -569867.000000 0 0 1
14.379496 33.077301 -11.578081 37.880466 1.160718 1.881415 0.046012 -0.003853 -989970.000000 0 0 1
14.799596 33.919091 -10.500681 38.468131 1.159376 1.847276 0.052968 -0.001480 271380.000000 0 0 1
16.221796 33.919325 -10.594681 39.062956 1.124703 1.845457 0.051503 -0.015218 172569.000000 0 0 1
16.864596 -33.592864 -9.695681 38.818827 -1.105527 1.823236 0.058160 -0.016458 -181576.000000 0 0 1
16.920096 -33.996564 -8.329981 38.877302 -1.108990 1.786734 0.059586 -0.010041 -3019.210000 0 0 1
17.373796 -33.025804 -7.451181 38.053550 -1.086513 1.767877 0.053102 -0.010696 -914180.000000 0 0 1
17.723796 -33.758724 -6.116081 38.615941 -1.087339 1.729848 0.057394 -0.010356 165337.000000 0 0 1
18.749996 33.819821 -6.044681 39.139249 1.064575 1.725857 0.043547 -0.016750 11796.800000 0 0 1
20.036796 -34.255046 -6.383681 40.194935 -1.041532 1.730290 0.044142 -0.017897 -559957.000000 0 0 1
20.874796 33.182794 -7.094281 39.839475 1.009265 1.749823 0.030461 -0.012177 165011.000000 0 0 1
21.114996 31.964405 -6.482781 38.853477 0.987021 1.738432 0.036112 -0.004228 -34778.000000 0 0 1
22.041996 32.027425 -5.418781 39.255175 0.968019 1.709278 0.045081 -0.004306 -720450.000000 0 0 1
22.383596 30.686985 -4.831981 38.289221 0.940599 1.697331 0.033715 -0.012787 -405685.000000 0 0 1
23.117996 29.841735 -5.703881 38.177286 0.911682 1.720763 0.027673 -0.010568 -41080.700000 0 0 1
23.441496 28.587845 -5.208381 37.334915 0.883990 1.710757 0.027860 -0.008120 -327312.000000 0 0 1
24.327596 27.850465 -6.243781 37.502868 0.852812 1.738063 0.019541 0.002042 -883362.000000 0 0 1
25.554696 28.529365 -6.374581 38.827857 0.840344 1.735718 0.024047 0.004263 -310351.000000 0 0 1
26.469496 27.825935 -7.195181 39.072849 0.810376 1.756001 0.018980 0.003986 -200293.000000 0 0 1
27.270696 26.792605 -6.450881 38.770458 0.776555 1.737960 0.025119 0.007407 -1694900.000000 0 0 1
28.315296 27.294045 -5.670881 39.735120 0.767035 1.714002 0.023183 0.008036 -303501.000000 0 0 1
28.912196 26.274825 -4.913581 39.375434 0.737645 1.695910 0.028501 0.015533 44855.600000 0 0 1
30.088896 26.678195 -4.006181 40.411845 0.725388 1.670093 0.032134 0.009540 -4074.340000 0 0 1
29.679596 27.643235 -3.003181 40.669964 0.749889 1.644706 0.035735 -0.006958 -184874.000000 0 0 1
30.649196 27.882905 -2.033581 41.484516 0.738172 1.619836 0.050565 -0.009679 -285956.000000 0 0 1
30.215696 29.032925 -1.100481 41.917897 0.765438 1.597053 0.076118 -0.012679 -23107.500000 0 0 1
30.485196 30.283525 -1.669581 43.002634 0.782080 1.609631 0.049422 -0.004404 -129692.000000 0 0 1
29.949696 31.325555 -0.891481 43.348235 0.807848 1.591363 0.044063 -0.004399 -383218.000000 0 0 1
33.101796 22.606396 19.509823 44.580391 0.599181 1.117832 0.084353 -0.005631 -40823.600000 0 0 1
33.363966 22.556096 20.913423 45.379544 0.594479 1.091837 0.062197 0.000008 213449.000000 0 0 1
34.135356 23.692596 21.234523 46.663333 0.606740 1.098359 0.067963 0.005627 -30442.600000 0 0 1
34.251896 23.952696 22.760523 47.591653 0.610263 1.072140 0.044213 0.012444 350916.000000 0 0 1
32.979266 24.306896 23.284823 47.123669 0.635152 1.053972 0.041853 0.014865 653321.000000 0 0 1
33.130696 24.504396 24.674013 48.030359 0.636830 1.031285 0.033349 0.014678 -432183.000000 0 0 1
31.859436 25.096096 25.243173 47.770865 0.667204 1.014056 0.044249 0.005353 -487750.000000 0 0 1
31.780396 26.497496 25.226433 48.461158 0.694995 1.023302 0.036516 0.000517 -187291.000000 0 0 1
30.428546 26.737796 25.492323 47.860889 0.720926 1.009087 0.034778 -0.002060 -289924.000000 0 0 1
30.087836 28.239696 25.780383 48.655796 0.753723 1.012370 0.032456 -0.007628 -298111.000000 0 0 1
30.130276 28.972596 24.575143 48.488994 0.765813 1.039306 0.034492 -0.020359 86143.000000 0 0 1
29.502686 30.207696 24.662413 48.899366 0.797205 1.042167 0.038463 -0.020599 -222101.000000 0 0 1
29.740846 31.097196 23.425823 48.993088 0.807689 1.072254 0.043660 -0.021994 225486.000000 0 0 1
31.099276 31.503596 23.200823 49.979193 0.791857 1.088054 0.044906 -0.025633 469721.000000 0 0 1
31.304436 32.213696 22.017023 50.024386 0.799712 1.115058 0.035358 -0.020356 -763212.000000 0 0 1
32.767576 32.466096 21.741223 50.994531 0.780777 1.130349 0.041015 -0.031883 -671598.000000 0 0 1
33.321416 33.473596 22.582023 52.352136 0.787676 1.124809 0.041713 -0.014597 477996.000000 0 0 1
34.661546 33.775796 22.167023 53.231608 0.772456 1.141286 0.049934 -0.006152 975167.000000 0 0 1
35.376826 -33.704394 23.087423 54.041976 -0.761193 1.129388 0.050510 -0.003239 278375.000000 0 0 1
34.916116 -32.400994 22.731923 52.779730 -0.748053 1.125535 0.027929 -0.001410 155124.000000 0 0 1
35.037176 -31.468494 23.798853 52.766043 -0.731790 1.102882 0.037782 -0.002467 -617779.000000 0 0 1
34.044466 -30.274694 23.626813 51.320650 -0.726855 1.092377 0.021384 -0.002708 878213.000000 0 0 1
32.656026 -30.577294 23.703393 50.628429 -0.752536 1.083562 0.023596 -0.001168 539595.000000 0 0 1
32.036056 -31.105594 22.530623 50.014957 -0.770663 1.103496 0.029950 0.001731 -316174.000000 0 0 1
31.299826 -32.454594 22.747023 50.501553 -0.803509 1.103558 0.023212 0.002851 1022300.000000 0 0 1
30.036366 -32.295294 23.447543 49.949541 -0.821623 1.082157 0.025659 -0.000978 1233780.000000 0 0 1
29.436736 -33.561194 23.806083 50.592537 -0.850775 1.080888 0.025831 0.000132 -47614.200000 0 0 1
28.545006 -33.469794 25.032423 50.612911 -0.864645 1.053438 0.013855 -0.001151 -180792.000000 0 0 1
28.106226 33.770096 25.385483 50.742508 0.876679 1.046874 0.014674 -0.011993 482655.000000 0 0 1
27.314526 33.806696 26.596853 50.954574 0.891219 1.021635 0.004339 -0.004333 -30050.100000 0 0 1
26.908926 32.321696 26.955073 49.953561 0.876530 1.000831 0.000567 0.013476 404463.000000 0 0 1
26.335826 31.469896 25.945423 48.549923 0.873982 1.006990 0.020997 -0.001661 1865770.000000 0 0 1
24.910326 31.714696 25.692663 47.816934 0.904990 1.003548 0.020477 0.000952 1277290.000000 0 0 1
24.563726 31.208296 24.336533 46.578978 0.903977 1.021041 0.055718 -0.021925 -32885.900000 0 0 1
24.967226 32.025196 23.209523 46.772401 0.908611 1.051554 0.071676 -0.026918 -175101.000000 0 0 1
26.344526 31.995996 22.953823 47.377799 0.881967 1.065022 0.047256 -0.026190 -1070450.000000 0 0 1
26.587726 32.665996 21.582923 47.326494 0.887621 1.097252 0.056182 -0.017215 206859.000000 0 0 1
27.885656 33.199896 21.358023 48.332267 0.872176 1.113081 0.063165 -0.017908 528705.000000 0 0 1
27.762916 34.062796 20.258123 48.388481 0.886945 1.138832 0.051992 -0.019376 650662.000000 0 0 1
29.175716 -34.124594 19.691223 49.025041 -0.863420 1.157471 0.066548 -0.029822 454373.000000 0 0 1
29.796566 33.412996 18.980723 48.626449 0.842549 1.169798 0.087001 -0.035329 -331104.000000 0 0 1
31.042646 33.830396 18.485423 49.495984 0.828344 1.188046 0.081488 -0.030408 -238714.000000 0 0 1
31.846526 32.744096 17.749123 49.004167 0.799294 1.200173 0.071661 -0.023205 -185432.000000 0 0 1
32.703526 32.047196 18.599323 49.421435 0.775262 1.184952 0.062283 -0.025756 157000.000000 0 0 1
33.662616 31.237396 17.919823 49.295707 0.748047 1.198756 0.089326 -0.028061 566234.000000 0 0 1
34.634526 30.468796 18.867523 49.838553 0.721499 1.182542 0.095094 -0.033650 549791.000000 0 0 1
35.551666 31.352296 19.539023 51.270468 0.722713 1.179814 0.104112 -0.030694 500795.000000 0 0 1
-36.117604 30.669696 20.461223 51.611754 -0.704007 1.163155 0.093883 -0.024390 46610.600000 0 0 1
-34.900687 31.490396 20.898023 51.443467 -0.734077 1.152469 0.098173 -0.017652 72774.200000 0 0 1
-34.038543 31.854396 19.779723 50.641508 -0.752263 1.169531 0.092096 -0.017512 1425740.000000 0 0 1
-32.819874 32.576096 20.100723 50.422071 -0.781670 1.160753 0.066445 -0.004547 969453.000000 0 0 1
-32.860524 33.935996 20.879423 51.647034 -0.801497 1.154614 0.061822 -0.001965 -524796.000000 0 0 1
-33.085124 33.872596 22.286223 52.332150 -0.797158 1.130883 0.077625 -0.002380 192194.000000 0 0 1
-32.900744 -33.443094 22.924923 52.215435 0.793573 1.116261 0.076141 -0.002311 -125370.000000 0 0 1
-32.967074 -33.545294 24.478703 53.021898 0.794091 1.090918 0.074422 -0.014736 1170760.000000 0 0 1
-34.244000 -34.072894 24.936013 54.363760 0.782894 1.094278 0.076867 -0.010215 887648.000000 0 0 1
-34.173094 34.047896 26.263213 54.925549 -0.783563 1.072238 0.086485 -0.014684 -123637.000000 0 0 1
-35.492160 33.593696 26.905773 55.786651 -0.757925 1.067521 0.071894 -0.016544 -50874.200000 0 0 1
-35.448070 32.949696 28.159453 55.992883 -0.748887 1.043833 0.087856 -0.022009 246485.000000 0 0 1
35.721956 32.879996 28.643653 56.370304 0.743995 1.037780 0.076233 -0.020683 591605.000000 0 0 1
35.626206 31.808396 29.707663 56.245408 0.728844 1.014341 0.075373 -0.016722 -229864.000000 0 0 1
35.722026 30.464796 29.402833 55.395790 0.706134 1.011279 0.072834 -0.021721 447633.000000 0 0 1
-35.572594 29.898296 28.926403 54.736225 -0.698945 1.014000 0.076464 -0.016977 -264638.000000 0 0 1
-35.813046 28.429896 28.656093 53.962996 -0.670975 1.010978 0.083984 -0.022797 -466287.000000 0 0 1
35.855556 28.206396 27.534133 53.285553 0.666558 1.027772 0.072551 -0.018639 216577.000000 0 0 1
35.671206 26.846396 27.140343 52.247126 0.645167 1.024576 0.071344 -0.018841 301069.000000 0 0 1
34.807836 25.989296 28.124353 51.749475 0.641354 0.996229 0.072778 -0.023156 -13622.700000 0 0 1
35.603846 25.531496 29.227583 52.666334 0.622110 0.982484 0.061012 -0.022741 172822.000000 0 0 1
35.320356 24.245396 29.792103 52.181761 0.601569 0.963159 0.061896 -0.010918 -237515.000000 0 0 1
35.760576 23.050996 28.860123 51.410835 0.572564 0.974765 0.040215 0.003374 -207170.000000 0 0 1
35.045456 22.847496 27.693323 50.170830 0.577737 0.986059 0.043873 -0.003329 -578938.000000 0 0 1
35.650066 21.945696 26.840463 49.728777 0.551801 1.000672 0.042000 0.000655 -399282.000000 0 0 1
35.317756 20.490296 27.166393 49.042931 0.525711 0.983718 0.042921 -0.001639 -668644.000000 0 0 1
33.952806 20.210896 26.911173 47.806742 0.536930 0.972887 0.033788 0.006647 279212.000000 0 0 1
33.412716 18.998396 27.407043 47.206935 0.517010 0.951365 0.040874 0.003654 -305572.000000 0 0 1
33.185646 19.028996 28.948803 47.973149 0.520639 0.922991 0.035107 -0.010982 601241.000000 0 0 1
31.985536 19.667996 29.468223 47.731340 0.551305 0.905393 0.035518 -0.008473 1249700.000000 0 0 1
32.126386 21.101296 29.274923 48.315531 0.581156 0.919886 0.029261 -0.006985 -521167.000000 0 0 1
31.025716 21.974396 29.918533 48.379621 0.616251 0.904076 0.032912 -0.013746 1046340.000000 0 0 1
29.746906 21.795296 29.220593 47.050573 0.632331 0.900719 0.031125 -0.018052 1385660.000000 0 0 1
29.355016 22.784596 28.210523 46.654993 0.660043 0.921454 0.027269 -0.010177 -12265.200000 0 0 1
29.338766 24.281796 28.625063 47.642030 0.691366 0.926249 0.031551 -0.002298 16721.400000 0 0 1
30.625276 24.903796 28.555463 48.718796 0.682725 0.944524 0.040879 -0.003834 256342.000000 0 0 1
30.762236 26.156696 29.246513 49.858264 0.704660 0.943951 0.037488 -0.000709 43581.800000 0 0 1
31.024256 25.902996 30.745443 50.781413 0.695678 0.920469 0.044697 -0.010556 287938.000000 0 0 1
32.292396 25.272196 30.917403 51.355317 0.664044 0.924756 0.047271 -0.008948 107214.000000 0 0 1
32.801196 25.152896 32.204293 52.399458 0.654185 0.908928 0.056367 -0.009678 -263909.000000 0 0 1
32.256316 24.017496 33.053974 52.056462 0.640025 0.882835 0.054633 -0.006761 -366751.000000 0 0 1
32.771966 23.953496 -34.165434 53.057032 0.631174 2.270431 0.044796 -0.014993 118249.000000 0 0 1
32.197816 22.865596 -33.491471 51.780435 0.617512 2.274175 0.023727 -0.017236 -373624.000000 0 0 1
32.776866 22.681996 -32.108171 51.183303 0.605345 2.248900 0.025505 -0.018546 -187062.000000 0 0 1
32.227306 23.541796 -31.108481 50.601907 0.630899 2.232889 0.013431 -0.016939 121915.000000 0 0 1
32.664796 23.252896 -29.804781 49.960094 0.618644 2.210019 0.046321 -0.025878 -828197.000000 0 0 1
33.955666 23.919496 -29.377311 50.873922 0.613695 2.186402 0.049962 -0.003165 -666353.000000 0 0 1
34.507896 23.097296 -28.379501 50.295885 0.589847 2.170322 0.048333 -0.008043 -799543.000000 0 0 1
35.462806 23.777196 -27.651371 50.868104 0.590640 2.145504 0.064112 -0.007231 -520711.000000 0 0 1
36.145916 22.996896 -26.525331 50.388269 0.566630 2.125179 0.058626 -0.012215 -444735.000000 0 0 1
-35.517589 22.024096 -27.057361 49.786149 -0.555061 2.145364 0.050254 -0.012618 -284652.000000 0 0 1
-35.589820 20.807096 -26.317531 48.909947 -0.529046 2.138956 0.032298 -0.007204 -378155.000000 0 0 1
-34.555445 19.704896 -26.631041 47.870388 -0.518250 2.160742 0.048348 -0.004202 -265643.000000 0 0 1
-33.297124 20.055296 -26.117571 46.829914 -0.542119 2.162422 0.051511 -0.008570 -377114.000000 0 0 1
-32.310294 19.108796 -26.487341 45.942142 -0.534083 2.185280 0.035542 -0.020829 -36612.000000 0 0 1
-30.954284 19.348196 -25.811331 44.707328 -0.558640 2.186264 0.034125 -0.024314 -347856.000000 0 0 1
-30.998774 19.174296 -24.376581 43.849690 -0.553948 2.160256 0.033334 -0.026395 413992.000000 0 0 1
-29.707854 19.376996 -23.817481 42.723494 -0.577956 2.162143 0.022441 -0.015176 101795.000000 0 0 1
-29.667654 19.830896 -22.368281 42.116198 -0.589226 2.130705 0.007671 -0.008299 -111528.000000 0 0 1
-30.382864 18.966996 -21.522381 41.786101 -0.558071 2.111875 0.013497 -0.001560 -967.610000 0 0 1
-31.107184 19.689796 -20.525881 42.150406 -0.564307 2.079411 0.015638 0.003657 -634414.000000 0 0 1
-31.962114 18.665996 -19.785781 41.969909 -0.528575 2.061705 0.012011 0.007894 179914.000000 0 0 1
-32.628094 19.145296 -18.578781 42.146245 -0.530637 2.027305 0.013400 0.001010 947277.000000 0 0 1
-33.678474 20.119596 -18.685481 43.453250 -0.538507 2.015304 0.006331 -0.001302 235634.000000 0 0 1
-34.861918 19.938396 -17.698481 43.887688 -0.519520 1.985881 0.027699 -0.005025 92593.800000 0 0 1
-34.624445 20.359696 -16.339481 43.362980 -0.531560 1.957143 0.027232 -0.010736 -312685.000000 0 0 1
-35.839029 20.452096 -15.652981 44.133208 -0.518571 1.933364 0.032239 -0.004634 -714205.000000 0 0 1
-35.807448 21.142496 -14.273081 43.964750 -0.533368 1.901436 0.027725 -0.002019 -18055.300000 0 0 1
-35.590796 22.577996 -14.287881 44.504092 -0.565314 1.897631 0.021400 -0.012198 1506070.000000 0 0 1
35.603306 23.163396 -14.515581 44.886974 0.576795 1.900096 0.022774 -0.011027 1395000.000000 0 0 1
35.549616 24.671496 -14.944981 45.780022 0.606689 1.903344 0.006387 -0.013308 -143897.000000 0 0 1
35.678476 25.562196 -13.856081 46.025759 0.621688 1.876590 0.012347 -0.009280 -166488.000000 0 0 1
35.384146 26.889996 -14.238881 46.667498 0.649835 1.880854 0.014175 -0.001604 128556.000000 0 0 1
-36.005932 27.681196 -14.999981 47.829647 -0.655422 1.889792 0.035718 -0.000882 402853.000000 0 0 1
-35.753740 27.246896 -16.296581 47.815288 -0.651182 1.918589 0.039124 -0.003750 -251995.000000 0 0 1
-34.716318 27.999096 -16.859981 47.680510 -0.678699 1.932217 0.047396 -0.008117 -784732.000000 0 0 1
-34.430655 27.654696 -18.340781 47.818787 -0.676689 1.964431 0.042599 -0.012486 182628.000000 0 0 1
-33.842254 26.389896 -18.736381 46.827094 -0.662297 1.982442 0.037940 -0.013388 46602.700000 0 0 1
-32.534814 26.130396 -18.318481 45.572782 -0.676660 1.984454 0.028953 -0.005240 -452020.000000 0 0 1
-32.027604 24.799396 -18.921381 44.707897 -0.658881 2.007795 0.024682 -0.004252 -309846.000000 0 0 1
-31.643264 24.800596 -20.294581 45.035938 -0.664757 2.038268 0.025454 -0.001685 158074.000000 0 0 1
-31.146384 23.552596 -20.653581 44.174567 -0.647451 2.057307 0.020639 0.001669 -164695.000000 0 0 1
-30.871584 23.371496 -22.182181 44.624328 -0.648001 2.091035 0.018124 0.001081 116695.000000 0 0 1
-32.079954 23.431696 -22.930681 45.869205 -0.630849 2.094296 0.044834 -0.002441 514467.000000 0 0 1
-31.924684 23.117396 -24.327181 46.318583 -0.626733 2.123763 0.047980 -0.008100 -52986.400000 0 0 1
-33.027554 23.868396 -25.108791 47.864089 -0.625787 2.123024 0.027174 0.005938 62295.400000 0 0 1
-32.653244 25.194496 -25.398181 48.436190 -0.657168 2.122764 0.012654 0.009746 -695959.000000 0 0 1
-33.692404 25.833596 -26.020641 49.795848 -0.654134 2.120631 0.017033 0.001050 -769754.000000 0 0 1
-33.337754 27.264196 -26.482051 50.557306 -0.685511 2.122105 0.000373 0.012115 417749.000000 0 0 1
-32.234824 27.437996 -27.367991 50.407682 -0.705185 2.144722 -0.001206 0.012324 -131878.000000 0 0 1
-31.750924 28.766996 -27.266441 50.785037 -0.736132 2.137554 -0.000725 0.001773 76640.100000 0 0 1
-30.400644 28.965396 -27.976461 50.456671 -0.761227 2.158516 0.006628 0.003807 -33281.700000 0 0 1
-29.291804 28.374896 -27.295661 49.073390 -0.769499 2.160628 -0.021799 0.007359 -401829.000000 0 0 1
-28.073254 28.602496 -27.915831 48.841621 -0.794736 2.179200 0.017395 0.000037 -184253.000000 0 0 1
-27.342684 29.967596 -27.721711 49.134228 -0.831168 2.170265 0.021076 -0.008006 -709220.000000 0 0 1
-26.654664 30.202696 -26.516981 48.226800 -0.847720 2.152968 0.032333 -0.006433 -175676.000000 0 0 1
-27.413704 30.287696 -25.327491 48.065970 -0.835165 2.125783 0.013281 -0.000660 -321459.000000 0 0 1
-26.594874 30.690996 -24.086081 47.216139 -0.856780 2.106125 -0.005295 -0.001273 3158.540000 0 0 1
-26.146544 32.049596 -24.141981 47.892103 -0.886486 2.099126 -0.000616 0.001878 173938.000000 0 0 1
-25.268104 32.210396 -23.032781 46.973350 -0.905597 2.083273 0.025399 0.009965 72762.600000 0 0 1
-24.732104 33.682796 -22.883581 47.643110 -0.937442 2.071807 0.017048 0.020334 200285.000000 0 0 1
-25.739304 -33.898294 -22.629781 48.204907 0.921364 2.059464 0.000015 0.008089 64378.900000 0 0 1
-25.310924 -32.640594 -23.055481 47.303345 0.911209 2.079902 0.009780 0.006844 -280102.000000 0 0 1
16.928496 8.543696 -26.136791 32.290874 0.467395 2.513955 0.044333 -0.020921 497584.000000 0 0 1
15.721296 8.025796 -25.561731 31.064041 0.472016 2.537243 0.035304 -0.027097 768019.000000 0 0 1
15.980296 6.620396 -25.418871 30.746032 0.392760 2.544078 0.028240 -0.027657 1500020.000000 0 0 1
14.577096 5.890896 -25.285841 29.775294 0.384053 2.585307 0.046695 -0.030234 1387580.000000 0 0 1
13.715596 6.208396 -24.228281 28.524925 0.425057 2.585591 0.064793 -0.034444 -709357.000000 0 0 1
12.408896 5.778196 -24.331281 27.917368 0.435792 2.629144 0.068903 -0.031840 -813996.000000 0 0 1
11.700296 6.054796 -23.010481 26.514896 0.477542 2.621619 0.078049 -0.041419 -412246.000000 0 0 1
12.152796 5.203896 -21.961881 25.633868 0.404583 2.599736 0.081964 -0.021544 425272.000000 0 0 1
11.409996 5.298996 -20.732281 24.250666 0.434778 2.596185 0.086779 -0.021229 -90720.800000 0 1 0
11.698396 6.597996 -19.865181 23.979396 0.513535 2.547090 0.074595 -0.037165 -253432.000000 0 1 0
11.219796 6.512496 -18.517581 22.609671 0.525918 2.530482 0.063800 -0.032118 -121173.000000 0 1 0
11.195296 7.795096 -17.876181 22.486796 0.608227 2.489744 0.052740 -0.036939 612539.000000 0 1 0
12.594096 8.384296 -17.471081 23.111606 0.587355 2.427891 0.032620 -0.033957 425905.000000 0 1 0
13.173396 7.737796 -16.403681 22.416346 0.531089 2.391716 0.049745 -0.030982 650694.000000 0 1 0
14.581096 8.006096 -16.327381 23.308567 0.502132 2.346878 0.037164 -0.022897 668814.000000 0 1 0
15.233996 7.532696 -15.000281 22.667699 0.459211 2.293943 0.046244 -0.028192 -654913.000000 0 1 0
16.637796 7.522196 -15.025081 23.646411 0.424611 2.259331 0.041921 -0.028807 147166.000000 0 1 0
17.159596 7.594896 -13.730481 23.252103 0.416686 2.202481 0.042696 -0.024181 -293336.000000 0 1 0
17.635596 9.007896 -13.364981 23.890984 0.472234 2.164476 0.050661 -0.026655 -255755.000000 0 1 0
16.571796 9.955896 -13.186081 23.401218 0.540988 2.169387 0.053768 -0.026187 954163.000000 0 1 0
17.067596 11.238296 -12.836981 24.132762 0.582298 2.131676 0.073028 -0.035907 169270.000000 0 1 0
15.929396 12.314696 -12.788581 23.852572 0.658109 2.136667 0.075191 -0.027145 133358.000000 0 1 0
15.148196 12.273796 -11.606081 22.689535 0.680959 2.107746 0.089000 -0.023582 456039.000000 0 1 0
15.636096 13.121696 -10.547181 22.976279 0.698186 2.047718 0.086871 -0.023591 -82031.900000 0 1 0
15.177896 14.600596 -10.813981 23.674630 0.766014 2.045163 0.085353 -0.018976 253638.000000 0 1 0
13.968196 14.972796 -10.171781 22.863950 0.820096 2.031840 0.096749 -0.029644 453411.000000 0 1 0
13.724596 16.377996 -10.277781 23.711517 0.873316 2.019115 0.081436 -0.032055 -505643.000000 0 1 0
12.435496 16.818296 -9.618481 23.021985 0.934112 2.001814 0.063234 -0.030280 -474064.000000 0 1 0
12.578996 16.667296 -8.214481 22.438974 0.924287 1.945590 0.069128 -0.030330 956280.000000 0 1 0
11.504796 17.268796 -7.448381 22.046542 0.983104 1.915426 0.056830 -0.016061 516192.000000 0 1 0
11.826896 17.102296 -5.940781 21.625375 0.965772 1.849088 0.049170 -0.014329 384276.000000 0 1 0
12.938996 17.929396 -5.660081 22.823614 0.945678 1.821404 0.063107 -0.014625 426166.000000 0 1 0
13.598096 17.629796 -4.406781 22.696643 0.913794 1.766197 0.079941 -0.016891 -12174.100000 0 1 0
14.793596 18.492796 -3.988281 24.015419 0.896077 1.737641 0.080320 -0.021994 -215373.000000 0 1 0
15.903196 18.416796 -4.861181 24.813728 0.858508 1.767979 0.085183 -0.030105 -195263.000000 0 1 0
16.590596 19.644096 -4.759981 26.149489 0.869470 1.753846 0.065141 -0.024930 -237252.000000 0 0 1
17.999096 19.478696 -5.379381 27.061500 0.824857 1.770913 0.064142 -0.016189 -13371.700000 0 0 1
18.952296 18.780296 -4.607681 27.076184 0.780840 1.741803 0.059809 -0.034459 142882.000000 0 0 1
19.212196 17.539196 -5.193081 26.527343 0.739907 1.767832 0.072035 -0.044531 -482608.000000 0 0 1
20.369196 16.763296 -4.551981 26.769997 0.688593 1.741667 0.086886 -0.044860 -1222070.000000 0 0 1
21.607096 17.235596 -4.928581 28.075314 0.673326 1.747259 0.063316 -0.041999 -931673.000000 0 0 1
22.560496 16.405496 -4.289781 28.222659 0.628734 1.723386 0.063850 -0.045525 -1270240.000000 0 0 1
23.975596 16.660596 -4.716081 29.574416 0.607294 1.730945 0.051608 -0.037452 -1077750.000000 0 0 1
24.519196 17.781896 -4.024381 30.554581 0.627455 1.702891 0.049555 -0.032589 626938.000000 0 0 1
25.941696 17.832196 -4.166381 31.754016 0.602216 1.702384 0.046348 -0.020853 386232.000000 0 0 1
26.456896 19.093196 -3.484581 32.812494 0.625123 1.677194 0.057205 -0.010848 -379689.000000 0 0 1
26.287296 20.289296 -4.225481 33.474350 0.657326 1.697364 0.059992 -0.016689 198752.000000 0 0 1
26.644296 21.370496 -3.401581 34.324734 0.676000 1.670059 0.056791 0.007664 -217544.000000 0 0 1
26.654596 22.725996 -4.196881 35.278211 0.706008 1.690044 0.045708 -0.001259 669613.000000 0 0 1
27.747496 23.124696 -5.071281 36.474552 0.694776 1.710284 0.042189 0.004963 855277.000000 0 0 1
27.905696 22.351096 -6.227781 36.291660 0.675321 1.743254 0.055386 -0.000876 150365.000000 0 0 1
28.936596 22.909496 -7.267081 37.616247 0.669668 1.765209 0.041347 0.001288 -67986.500000 0 0 1
28.590796 24.108596 -7.956881 38.235716 0.700550 1.780429 0.036294 -0.003553 437140.000000 0 0 1
29.646896 24.878296 -8.566881 39.639115 0.698163 1.788637 0.027878 -0.004838 322731.000000 0 0 1
30.575496 24.228796 -9.642781 40.185553 0.670105 1.813117 0.034266 -0.013974 43654.600000 0 0 1
29.954996 23.950596 -10.911081 39.874610 0.674468 1.847966 0.038498 -0.011845 14487.800000 0 0 1
30.832496 23.162896 -11.704181 40.300749 0.644300 1.865463 0.031341 -0.019086 146314.000000 0 0 1
30.209096 22.618896 -13.040181 39.928063 0.642697 1.903492 0.049924 -0.017712 148078.000000 0 0 1
30.289396 23.511096 -14.104581 40.855334 0.660069 1.923283 0.053382 -0.016383 38846.700000 0 0 1
29.871196 22.825496 -15.265081 40.574799 0.652484 1.956510 0.062135 -0.015367 12858.600000 0 0 1
29.984796 23.778296 -16.457681 41.657539 0.670465 1.976941 0.058441 -0.015489 -2082560.000000 0 0 1
31.268996 24.083496 -16.711281 42.860609 0.656307 1.971318 0.056964 -0.012101 -1873730.000000 0 0 1
31.411196 24.603496 -18.019081 43.779933 0.664457 1.994987 0.063586 -0.016597 460031.000000 0 0 1
32.850396 25.106496 -18.284181 45.208361 0.652570 1.987165 0.056532 -0.018777 507082.000000 0 0 1
33.929196 24.206296 -18.433581 45.573369 0.619686 1.987208 0.070979 -0.008318 -176824.000000 0 0 1
35.162296 24.837096 -18.653381 46.917129 0.614979 1.979676 0.071261 -0.017451 388226.000000 0 0 1
-36.170535 23.793096 -18.624281 47.130487 -0.581841 1.977043 0.060970 -0.018755 281858.000000 0 0 1
-36.192335 22.913496 -19.731781 47.162024 -0.564405 2.002460 0.061757 -0.010751 -20793.400000 0 0 1
-35.140135 23.218396 -20.608681 46.889665 -0.583886 2.025854 0.065561 -0.007758 -316505.000000 0 0 1
-35.061135 22.337696 -21.859281 46.968968 -0.567258 2.054881 0.071491 -0.015986 -51721.500000 0 0 1
-34.758935 20.965296 -21.606681 45.984517 -0.542742 2.059938 0.055277 -0.014393 354763.000000 0 0 1
-34.398935 20.325496 -22.829281 46.017263 -0.533683 2.089901 0.048068 -0.014288 55902.800000 0 0 1
-34.253535 18.761496 -22.793981 45.220171 -0.501094 2.099097 0.032494 -0.011727 531543.000000 0 0 1
-35.525135 18.170596 -22.528681 45.822998 -0.472794 2.084775 0.037391 -0.015634 718841.000000 0 0 1
-35.385735 16.771796 -22.726281 45.276121 -0.442608 2.096646 0.024448 -0.017790 -135292.000000 0 0 1
35.827096 15.986096 -22.503281 45.227577 0.419690 2.091576 0.037181 -0.015392 -285251.000000 0 0 1
34.935696 16.015896 -23.600681 45.099932 0.429850 2.121512 0.072601 -0.022210 -343516.000000 0 0 1
33.903596 15.107696 -23.456981 43.908157 0.419195 2.134391 0.080616 -0.013410 -821442.000000 0 0 1
34.136696 13.654096 -24.065181 43.941794 0.380492 2.150362 0.047633 -0.013680 -370475.000000 0 0 1
34.504096 13.638496 -25.449051 44.991059 0.376424 2.172014 0.044033 -0.010251 289171.000000 0 0 1
34.802596 12.342196 -25.828381 45.062798 0.340797 2.181158 0.040954 -0.003349 -332525.000000 0 0 1
34.752796 12.185996 -27.352141 45.873684 0.337252 2.209617 0.053363 -0.003710 129397.000000 0 0 1
33.404196 12.254596 -27.786461 45.145352 0.351613 2.233802 0.041624 0.001979 357669.000000 0 0 1
33.015096 13.486396 -28.374961 45.574311 0.387805 2.242868 0.050832 -0.010344 -254501.000000 0 0 1
33.395296 13.769296 -29.850201 46.860151 0.391075 2.261404 0.051035 -0.017415 183119.000000 0 0 1
34.802096 13.905296 -30.043591 48.032910 0.380121 2.246542 0.045601 -0.008180 619174.000000 0 0 1
35.197196 13.831096 -31.434641 49.175995 0.374423 2.264289 0.042053 -0.010041 -131287.000000 0 0 1
-35.797735 13.979596 -31.727381 49.835064 -0.372304 2.260940 0.060323 -0.016323 -107793.000000 0 0 1
-34.943235 12.957796 -31.414891 48.742481 -0.355105 2.271175 0.051870 -0.006690 -320727.000000 0 0 1
-34.705035 12.775796 -30.070361 47.664315 -0.352730 2.253480 0.041808 -0.006034 -889944.000000 0 0 1
-33.646935 11.680996 -29.810631 46.446050 -0.334146 2.267683 0.030361 -0.000877 -164751.000000 0 0 1
-34.048535 10.384696 -30.281301 46.734375 -0.296035 2.275680 0.025062 -0.000750 216438.000000 0 0 1
-33.152035 9.294896 -30.058131 45.704964 -0.273353 2.288499 0.022492 0.006410 -231167.000000 0 0 1
-33.642735 7.923496 -30.555541 46.133030 -0.231304 2.294728 0.022677 -0.004214 -794756.000000 0 0 1
-33.670435 7.914896 -32.008421 47.126242 -0.230878 2.317476 0.022256 -0.011756 198114.000000 0 0 1
-34.079735 6.717196 -32.697701 47.704179 -0.194608 2.325985 0.027529 -0.020612 576145.000000 0 0 1
-35.472535 6.105496 -32.272901 48.343747 -0.170449 2.301738 0.037088 -0.009375 453171.000000 0 0 1
-35.266035 5.287196 -31.095561 47.313650 -0.148815 2.287923 0.033877 -0.006573 493745.000000 0 0 1
35.991096 4.748196 -30.759971 47.582351 0.131169 2.273728 0.033892 0.001086 -393385.000000 0 0 1
36.019796 4.114296 -29.322161 46.627698 0.113730 2.250879 0.035393 -0.011032 27033.800000 0 0 1
-35.618235 3.015696 -29.189971 46.149837 -0.084466 2.255579 0.035124 0.000674 469754.000000 0 0 1
-35.951135 2.397696 -27.950641 45.601221 -0.066595 2.230568 0.046277 0.004518 -455312.000000 0 0 1
-35.063635 1.219896 -27.650041 44.670699 -0.034777 2.238233 0.082550 -0.006146 -777606.000000 0 0 1
-33.789435 1.582996 -27.204641 43.408804 -0.046815 2.248118 0.069832 -0.004917 -890336.000000 0 0 1
-32.959635 0.479496 -27.188511 42.729177 -0.014547 2.260487 0.062696 -0.005617 -311438.000000 0 0 1
-31.828235 0.683796 -26.153021 41.200541 -0.021481 2.258512 0.044619 -0.000558 -387697.000000 0 0 1
-32.226735 0.619696 -24.834481 40.690268 -0.019227 2.227273 0.048744 -0.000945 -90235.900000 0 0 1
-31.309435 1.024996 -23.824881 39.356781 -0.032726 2.221010 0.059495 0.009846 -19383.600000 0 0 1
-31.811135 0.586296 -22.428081 38.926994 -0.018428 2.184816 0.055920 0.009707 -243965.000000 0 0 1
-31.820435 -0.826504 -22.361581 38.900687 0.025968 2.183202 0.062996 -0.000240 10462.900000 0 0 1
-32.102535 -1.381604 -21.108681 38.445519 0.043011 2.152029 0.076524 -0.001823 -22374.500000 0 0 1
-33.570135 -1.302804 -20.604081 39.410397 0.038789 2.120938 0.070966 -0.004135 26560.400000 0 0 1
-34.460635 -2.238404 -21.195081 40.518850 0.064864 2.121271 0.069293 -0.009172 360889.000000 0 0 1
-35.760335 -2.062304 -20.651881 41.346763 0.057606 2.093795 0.063489 -0.006505 229248.000000 0 0 1
35.936496 -3.341904 -20.398681 41.457282 -0.092728 2.085229 0.057401 -0.008459 294887.000000 0 0 1
35.224196 -3.803204 -21.583781 41.485756 -0.107555 2.117963 0.044028 -0.008586 392038.000000 0 0 1
36.039596 -4.626904 -22.371381 42.670123 -0.127685 2.122674 0.053739 -0.013862 -422397.000000 0 0 1
35.272396 -5.421304 -23.416881 42.683519 -0.152505 2.151505 0.050290 -0.018044 -1112660.000000 0 0 1
34.747496 -6.574204 -22.810981 42.082651 -0.186989 2.143673 0.051542 -0.018004 187116.000000 0 0 1
34.132796 -7.463304 -23.732081 42.236955 -0.215267 2.167453 0.063336 -0.016923 671057.000000 0 0 1
32.764396 -7.067504 -24.384281 41.449348 -0.212452 2.199740 0.032063 -0.009266 46771.200000 0 0 1
32.934296 -6.014504 -25.288551 41.956560 -0.180631 2.217717 0.037658 -0.011145 593809.000000 0 0 1
31.654896 -5.463904 -25.657531 41.111988 -0.170924 2.244761 0.013146 -0.002054 882001.000000 0 0 1
31.710196 -4.279204 -26.669851 41.654880 -0.134137 2.265630 0.047073 -0.027822 -62857.300000 0 0 1
32.074496 -4.745004 -27.943591 42.803418 -0.146872 2.282118 0.057316 -0.027078 273773.000000 0 0 1
31.979296 -3.672904 -28.867381 43.237614 -0.114352 2.301837 0.054568 -0.028211 -219960.000000 0 0 1
31.923996 -4.130404 -30.335181 44.231493 -0.128668 2.326537 0.070441 -0.016358 45048.900000 0 0 1
31.400096 -3.095804 -31.137311 44.329247 -0.098275 2.349574 0.072209 -0.032432 -271966.000000 0 0 1
30.645096 -3.485304 -32.220441 44.602983 -0.113245 2.378039 0.067584 -0.035018 -883892.000000 0 0 1
30.076296 -2.301104 -33.077921 44.766366 -0.076360 2.402234 0.068872 -0.035203 -315273.000000 0 0 1
29.066696 -1.495004 -32.420701 43.568448 -0.051388 2.410032 0.071488 -0.033857 508049.000000 0 0 1
27.809896 -2.092004 -32.208451 42.604590 -0.075084 2.427955 0.081015 -0.037467 100235.000000 0 0 1
26.986296 -2.499704 -33.525441 43.109905 -0.092365 2.461753 0.084417 -0.043220 -611261.000000 0 0 1
27.468596 -3.629504 -34.204101 44.018378 -0.131372 2.460748 0.085184 -0.039281 -454328.000000 0 0 1
26.629396 -3.972104 33.259191 42.791076 -0.148071 0.680519 0.075556 -0.032307 -274274.000000 0 0 1
27.184296 -5.203504 32.465292 42.662133 -0.189128 0.705965 0.056999 -0.037358 506475.000000 0 0 1
28.473396 -5.124104 31.861833 43.036812 -0.178055 0.737222 0.058791 -0.032722 283696.000000 0 0 1
28.625196 -4.282404 30.703263 42.195156 -0.148501 0.755908 0.078440 -0.036636 -407044.000000 0 0 1
29.227496 -2.888804 30.993713 42.698969 -0.098519 0.758504 0.056636 -0.026689 440490.000000 0 0 1
30.600896 -2.931204 31.411043 43.950659 -0.095497 0.774617 0.054884 -0.027642 648144.000000 0 0 1
31.064596 -1.705504 32.010203 44.638223 -0.054847 0.771160 0.044017 -0.020625 -688971.000000 0 0 1
32.493196 -1.692704 32.477204 45.972185 -0.052047 0.786322 0.032272 -0.020201 -932937.000000 0 0 1
33.438496 -1.798604 31.457233 45.944809 -0.053737 0.816640 0.037923 -0.013972 429772.000000 0 0 1
34.787696 -1.882404 31.950003 47.270815 -0.054058 0.828621 0.033280 -0.009148 677329.000000 0 0 1
35.769996 -2.541504 30.990703 47.395944 -0.070932 0.858110 0.025209 -0.004057 -250170.000000 0 0 1
36.133896 -1.644004 29.981413 46.981340 -0.045466 0.878696 0.024767 -0.000973 -74972.100000 0 0 1
-35.426635 -2.165204 29.081953 45.885668 0.061042 0.884351 0.028139 -0.002602 -2446.900000 0 0 1
-35.289935 -1.400204 27.759503 44.921377 0.039656 0.904654 0.045838 -0.002980 397266.000000 0 0 1
36.017796 -1.406504 27.010483 45.042492 -0.039030 0.927712 0.051654 -0.011853 375070.000000 0 0 1
-36.102635 -1.105704 25.670023 44.312221 0.030617 0.952928 0.063168 -0.013936 62112.200000 0 0 1
-26.608354 15.101896 11.920819 32.835616 -0.516227 1.199262 0.058356 -0.017588 914709.000000 0 0 1
-27.833454 14.476596 12.388919 33.730673 -0.479610 1.194703 0.037073 -0.005601 1191660.000000 0 0 1
-28.517804 15.250296 13.362219 34.991221 -0.491071 1.178974 0.048737 -0.012598 1015130.000000 0 0 1
-29.954664 14.644596 13.635419 36.023197 -0.454722 1.182602 0.060292 -0.007117 1221560.000000 0 0 1
-30.802534 15.470996 14.423619 37.365607 -0.465457 1.174490 0.059311 -0.014785 949118.000000 0 0 1
-32.147384 14.973596 14.611419 38.355657 -0.435898 1.179978 0.070281 -0.008818 656226.000000 0 0 1
-32.875474 15.881596 15.543619 39.681557 -0.450023 1.168308 0.057893 -0.010023 -769672.000000 0 0 1
-32.394494 15.922096 16.872919 39.844846 -0.456830 1.133529 0.047418 -0.002222 -90694.900000 0 0 1
-33.344764 16.204596 17.891719 41.165226 -0.452362 1.121167 0.046671 -0.013704 -138814.000000 0 0 1
-32.762054 16.376696 19.299219 41.400582 -0.463542 1.085853 0.042653 -0.006627 -279770.000000 0 0 1
-32.174154 15.210896 19.843219 40.746790 -0.441625 1.062158 0.040310 -0.005246 396914.000000 0 0 1
-30.963814 15.500696 20.549019 40.265265 -0.464133 1.035215 0.033159 -0.003724 598069.000000 0 0 1
-31.158114 16.187096 21.967619 41.417707 -0.479137 1.011733 0.048447 -0.016438 -292973.000000 0 0 1
-31.907054 17.399096 21.930419 42.446813 -0.499232 1.027855 0.044335 -0.014637 244224.000000 0 0 1
-32.199284 18.013196 23.185919 43.575864 -0.510053 1.009739 0.052080 -0.021673 -418437.000000 0 0 1
-33.093834 17.297696 24.236019 44.517376 -0.481632 0.995102 0.033126 -0.016517 531852.000000 0 0 1
-34.441365 16.970196 23.905919 45.229284 -0.457812 1.013905 0.053792 -0.008792 234921.000000 0 0 1
-35.371166 18.013496 23.848019 46.306948 -0.471037 1.029790 0.055589 -0.007558 883059.000000 0 0 1
35.694846 17.347596 23.630219 46.189267 0.452383 1.033756 0.036229 -0.018105 1146710.000000 0 0 1
35.272086 16.679096 24.702719 46.179396 0.441709 1.006372 0.047190 -0.008670 -3655.230000 0 0 1
34.057696 15.984796 24.414419 44.849797 0.438824 0.995171 0.063218 -0.013414 466498.000000 0 0 1
33.546906 15.082396 25.529619 44.773151 0.422514 0.964048 0.052804 -0.018544 -303598.000000 0 0 1
32.944546 15.831796 26.577219 45.192228 0.447974 0.942098 0.055639 -0.019072 208816.000000 0 0 1
32.532976 15.196996 27.776619 45.396958 0.437004 0.912385 0.040907 -0.011550 -160152.000000 0 0 1
31.661416 13.949696 27.819219 44.395363 0.415001 0.893582 0.033878 -0.006084 -423273.000000 0 0 1
32.188676 12.882696 27.103019 44.007367 0.380700 0.907301 0.033160 -0.014346 -122793.000000 0 0 1
31.252816 11.838496 27.126919 43.043679 0.362096 0.888962 0.026539 -0.007583 -48014.400000 0 0 1
31.913166 10.534096 26.622319 42.873829 0.318825 0.900848 0.040751 -0.003697 -239557.000000 0 0 1
32.697626 10.044696 27.682119 44.003755 0.298049 0.890420 0.056001 -0.003189 -163653.000000 0 0 1
33.401816 8.931496 27.144619 43.957745 0.261283 0.905215 0.041942 -0.000031 142702.000000 0 0 1
34.383676 8.262796 28.150919 45.199394 0.235840 0.898459 0.053785 -0.005900 738906.000000 0 0 1
35.526106 9.008296 28.580619 46.476934 0.248334 0.908484 0.074827 -0.009419 567972.000000 0 0 1
-35.994390 8.196896 29.175519 47.053120 -0.223909 0.901984 0.066703 -0.014584 -174897.000000 0 0 1
-34.659490 8.886696 29.451319 46.342570 -0.250993 0.882123 0.074787 -0.021383 -608135.000000 0 0 1
-34.033962 9.075496 28.222419 45.135132 -0.260596 0.895297 0.061739 -0.013318 -645136.000000 0 0 1
-32.788344 9.681096 28.324119 44.396563 -0.287103 0.878924 0.068075 -0.011956 -397970.000000 0 0 1
-32.124434 10.095796 27.007619 43.166142 -0.304498 0.894810 0.065043 -0.011471 173858.000000 0 0 1
-31.261854 9.201596 26.305819 41.880413 -0.286256 0.891665 0.053166 -0.011739 250766.000000 0 0 1
-30.519574 9.891696 25.339819 40.882716 -0.313427 0.902286 0.042441 -0.005720 -275580.000000 0 0 1
-29.582584 8.970396 24.557519 39.479983 -0.294420 0.899471 0.048403 -0.010726 -227455.000000 0 0 1
-28.894824 9.555596 23.480719 38.439100 -0.319381 0.913656 0.047216 -0.015552 -117198.000000 0 0 1
-28.239614 8.548896 22.731419 37.246165 -0.293957 0.914354 0.060045 -0.005925 -385648.000000 0 0 1
-27.037894 9.088196 21.972419 36.005975 -0.324264 0.914428 0.056929 -0.002002 -405038.000000 0 0 1
-25.896784 9.475796 22.813919 35.789790 -0.350774 0.879622 0.063124 -0.012024 2043450.000000 0 0 1
-24.845304 10.194096 22.107419 34.784288 -0.389356 0.882066 0.059033 -0.001969 1274660.000000 0 0 1
-24.110604 9.436496 20.929619 33.292907 -0.373056 0.890979 0.060834 0.000020 -591621.000000 0 0 1
-25.012204 9.195896 19.863019 33.237244 -0.352317 0.930275 0.059884 -0.000293 352855.000000 0 0 1
-24.427804 8.371896 18.826319 31.956792 -0.330175 0.940830 0.063010 -0.009178 92422.800000 0 0 1
-24.169304 6.868296 19.148219 31.590870 -0.276875 0.919609 0.067846 0.002972 -92395.800000 0 0 1
-23.049104 6.537296 19.955119 31.180189 -0.276367 0.876306 0.066959 0.002721 423538.000000 0 0 1
-23.050704 5.204196 20.388019 31.210414 -0.222049 0.858935 0.077709 -0.001189 -159341.000000 0 0 1
-22.961704 4.018796 19.350519 30.295762 -0.173267 0.877962 0.075234 -0.006874 -547487.000000 0 0 1
-24.196204 3.797296 18.704519 30.817767 -0.155668 0.918592 0.098523 -0.012888 364954.000000 0 0 1
-24.061304 3.236596 17.416919 29.879273 -0.133712 0.948491 0.091004 -0.006538 -136555.000000 0 0 1
-23.972604 1.720696 17.400819 29.672126 -0.071655 0.944144 0.086546 -0.001996 1047520.000000 0 0 1
-22.685204 1.215396 17.857419 28.896074 -0.053525 0.904616 0.051971 0.002811 1472650.000000 0 0 1
-22.934604 -0.021304 18.528919 29.484188 0.000929 0.891256 0.060543 -0.005517 -495470.000000 0 0 1
-21.747804 -0.913304 18.866719 28.805454 0.041971 0.856653 0.054934 0.008192 -471807.000000 0 0 1
-20.859804 -0.356404 19.830219 28.783607 0.017084 0.810769 0.045825 0.006554 -26248.400000 0 0 1
-19.867704 -1.323204 20.095819 28.289901 0.066503 0.780797 0.038054 0.006061 38452.100000 0 0 1
-18.838704 -0.841904 21.148919 28.335179 0.044660 0.728185 0.042342 0.005559 209737.000000 0 0 1
-19.373204 -0.876304 22.453519 29.668999 0.045202 0.712392 0.050975 -0.000142 -543584.000000 0 0 1
-18.412104 -0.697104 23.437519 29.812897 0.037843 0.666236 0.060710 -0.004918 -1022960.000000 0 0 1
-18.883004 -1.037004 24.905919 31.272161 0.054862 0.649437 0.063140 -0.000929 467290.000000 0 0 1
-19.794804 -0.184604 25.600719 32.361477 0.009326 0.658214 0.068296 -0.003863 112263.000000 0 0 1
-21.058604 -0.077904 24.972419 32.666383 0.003699 0.700580 0.071748 -0.012823 -592878.000000 0 0 1
-21.912204 1.013996 25.687619 33.779086 -0.046242 0.706776 0.065630 -0.018623 -399123.000000 0 0 1
-21.500504 2.320396 25.405219 33.362870 -0.107507 0.705200 0.066768 -0.023386 -740814.000000 0 0 1
-22.528504 3.065896 24.892119 33.712769 -0.135259 0.740163 0.065698 -0.023680 -1283160.000000 0 0 1
-22.051404 4.282296 24.021419 32.888160 -0.191809 0.751893 0.075235 -0.022710 58842.200000 0 0 1
-21.482904 3.864996 22.779919 31.549613 -0.178006 0.764057 0.087784 -0.023181 -165849.000000 0 0 1
-20.155904 3.437196 22.820419 30.640599 -0.168906 0.730595 0.055111 -0.008537 -1044090.000000 0 0 1
-19.689004 2.812896 21.479919 29.273814 -0.141906 0.746958 0.047533 -0.004126 -170974.000000 0 0 1
-19.262304 3.712896 20.500819 28.374382 -0.190419 0.763368 0.040324 0.005512 202669.000000 0 0 1
-18.959504 3.032296 19.319619 27.237939 -0.158592 0.782305 0.034362 0.013160 -51639.900000 0 0 1
-18.615404 3.871296 18.058619 26.222775 -0.205039 0.811155 0.031307 0.007716 1143270.000000 0 0 1
-17.227604 4.288696 17.980719 25.268350 -0.243984 0.779037 0.026388 0.000059 1092790.000000 0 0 1
-17.075104 5.083496 16.798619 24.486623 -0.289358 0.814774 0.034190 0.011592 411048.000000 0 1 0
-15.645704 5.538496 16.327119 23.281706 -0.340229 0.793597 0.040068 0.000422 883906.000000 0 1 0
-15.022704 6.593396 17.151519 23.734555 -0.413581 0.763183 0.029277 -0.000087 550477.000000 0 1 0
-15.631204 7.893796 17.126619 24.494237 -0.467642 0.796504 0.030119 -0.003039 -634364.000000 0 1 0
-15.313104 8.778096 15.907819 23.761415 -0.520511 0.837286 0.019859 -0.005918 -9034.440000 0 1 0
-15.833904 8.394696 14.631819 23.135980 -0.487493 0.886114 0.038504 -0.002218 1978140.000000 0 1 0
-17.295804 8.341996 14.591219 24.117160 -0.449398 0.921013 0.041548 -0.001410 1162000.000000 0 1 0
-17.821404 7.705396 13.319819 23.545555 -0.408094 0.969509 0.047982 -0.007500 -188480.000000 0 1 0
-17.463204 6.308196 13.324519 22.853876 -0.346642 0.948342 0.045489 -0.006265 162696.000000 0 1 0
-18.030704 5.618196 12.284119 22.529314 -0.302056 0.994108 0.051985 -0.010880 -97137.800000 0 1 0
-17.627804 4.114296 12.290219 21.879588 -0.229293 0.974332 0.045717 -0.008273 -353116.000000 0 1 0
-18.152404 3.343496 13.277419 22.737163 -0.182149 0.947207 0.039337 -0.001652 -273471.000000 0 1 0
-17.632704 2.069096 13.533619 22.323805 -0.116810 0.919470 0.028818 -0.002359 -692870.000000 0 1 0
-18.519804 1.281196 14.508619 23.561083 -0.069070 0.907411 0.034049 -0.001196 190634.000000 0 1 0
-19.764604 0.966696 13.915519 24.191233 -0.048871 0.957911 0.046914 -0.003105 746052.000000 0 1 0
-20.773604 0.535596 14.849019 25.540612 -0.025777 0.950362 0.055472 -0.004082 828422.000000 0 0 1
-22.182104 0.254496 14.266719 26.375174 -0.011473 0.999272 0.069848 -0.006341 220336.000000 0 0 1
-22.171004 -0.927704 13.519919 25.984655 0.041819 1.023589 0.075997 -0.020545 1116740.000000 0 0 1
-23.473804 -1.062004 12.922819 26.816909 0.045211 1.067985 0.108962 -0.023425 804532.000000 0 0 1
-23.529204 -2.392104 12.156719 26.591943 0.101317 1.095999 0.102056 -0.028297 -70518.000000 0 0 1
-23.257504 -3.573704 12.876819 26.823410 0.152466 1.070074 0.084890 -0.022151 275852.000000 0 0 1
-23.246604 -4.653404 12.025319 26.583210 0.197564 1.101381 0.093978 -0.025311 20083.700000 0 0 1
-23.227704 -6.034804 12.707319 27.155498 0.254191 1.083831 0.086324 -0.021826 989238.000000 0 0 1
-24.525304 -6.316604 13.275619 28.594267 0.252076 1.087980 0.076261 -0.018200 1057920.000000 0 0 1
-24.561004 -7.628204 13.661519 29.121633 0.301137 1.082503 0.079898 -0.022618 -36624.600000 0 0 1
-25.517604 -8.116304 14.780619 30.585768 0.307948 1.066431 0.086446 -0.020182 -462666.000000 0 0 1
-26.822174 -7.654804 14.634919 31.499300 0.278001 1.087601 0.087144 -0.022595 -509088.000000 0 0 1
-27.581004 -7.955104 15.794319 32.763638 0.280806 1.067782 0.089034 -0.020613 -293509.000000 0 0 1
-29.046414 -7.420904 15.681219 33.832893 0.250134 1.088866 0.098122 -0.024780 713597.000000 0 0 1
-29.979664 -7.964504 14.736519 34.342082 0.259666 1.127289 0.094052 -0.022142 843504.000000 0 0 1
-30.204154 -9.398304 14.834819 34.938387 0.301663 1.132277 0.096949 -0.027913 -734299.000000 0 0 1
-30.436334 -10.142904 16.154719 35.919687 0.321675 1.104316 0.087428 -0.031502 -1119500.000000 0 0 1
-29.303474 -10.301304 16.942419 35.381578 0.338045 1.071454 0.100097 -0.023761 -457088.000000 0 0 1
-29.540884 -10.815304 18.232919 36.360335 0.350957 1.045521 0.096911 -0.018846 49659.400000 0 0 1
-28.234584 -10.703704 19.058119 35.706763 0.362360 1.007780 0.100749 -0.014034 313929.000000 0 0 1
-27.315834 -11.717804 18.659419 35.094667 0.405233 1.010204 0.096363 -0.014474 -307033.000000 0 0 1
-26.141584 -11.626204 19.421419 34.579511 0.418471 0.974423 0.092701 -0.018161 -673353.000000 0 0 1
-25.007504 -12.539604 19.010919 33.823542 0.464794 0.973920 0.077954 -0.009824 -754731.000000 0 0 1
-24.491504 -12.204204 17.777919 32.631745 0.462290 0.994640 0.065675 -0.004072 175172.000000 0 0 1
-23.483604 -13.166904 17.446919 32.081802 0.511010 0.995807 0.053035 -0.009967 184959.000000 0 0 1
-23.096704 -13.253404 15.948419 31.039693 0.520949 1.031180 0.055499 -0.006483 -90840.900000 0 0 1
-22.188204 -12.216904 15.655019 29.776648 0.503306 1.017202 0.052929 -0.017141 -300136.000000 0 0 1
-21.987804 -12.054004 14.256719 28.844698 0.501470 1.053815 0.073898 -0.011499 321101.000000 0 0 1
-20.899304 -11.049304 13.796719 27.371838 0.486337 1.042517 0.045366 -0.014161 -335660.000000 0 0 1
-21.309704 -9.740404 13.829719 27.207354 0.428732 1.037577 0.042222 -0.016884 -68908.800000 0 0 1
-20.326404 -8.756704 13.541619 25.946445 0.406777 1.021712 0.046746 -0.018759 -144893.000000 0 0 1
-19.840904 -8.776004 12.063119 24.823347 0.416448 1.063337 0.073871 -0.012127 -487343.000000 0 1 0
-18.976204 -9.827404 11.758219 24.391185 0.477849 1.067782 0.056804 -0.019955 -137105.000000 0 1 0
-18.654304 -9.673904 10.428719 23.459021 0.478407 1.110124 0.067534 -0.014163 -669704.000000 0 1 0
-18.038804 -10.942304 9.714619 23.227275 0.545257 1.139287 0.056653 -0.020252 455337.000000 0 1 0
-16.657604 -11.228704 9.809819 22.356031 0.593123 1.116534 0.068528 -0.027807 432035.000000 0 1 0
-16.183404 -11.368504 11.156919 22.707318 0.612388 1.057174 0.064907 -0.019715 -335515.000000 0 1 0
-14.712304 -11.890804 11.146419 21.956452 0.679734 1.038329 0.071387 -0.024822 415363.000000 0 1 0
-14.406604 -13.185804 10.645819 22.242957 0.741183 1.071719 0.061384 -0.032730 -679460.000000 0 1 0
-13.084404 -13.507904 10.882719 21.727832 0.801322 1.046198 0.077819 -0.028039 -810003.000000 0 1 0
-12.698904 -15.025504 10.756319 22.421560 0.869121 1.070448 0.081492 -0.027609 -66708.800000 0 1 0
-12.882504 -15.617704 9.447119 22.340986 0.881076 1.134197 0.052935 -0.030955 173559.000000 0 1 0
-12.663704 -16.998604 9.485319 23.222688 0.930513 1.150040 0.046927 -0.020393 -38350.400000 0 1 0
-12.915904 -17.776504 8.167719 23.442191 0.942459 1.214912 0.028345 -0.016004 -246654.000000 0 1 0
-12.079604 -17.524104 7.063019 22.425372 0.967278 1.250385 0.031678 -0.025892 -45301.300000 0 1 0
-12.504804 -18.288604 5.937319 22.936760 0.971061 1.308959 0.019072 -0.016831 208906.000000 0 1 0
-11.505104 -18.102304 4.730619 21.964508 1.004639 1.353720 0.020531 -0.017413 376464.000000 0 1 0
-11.920504 -18.554704 3.450619 22.322237 0.999746 1.415592 0.035097 -0.021956 -1062650.000000 0 1 0
-10.830804 -18.775404 2.684719 21.841013 1.047564 1.447564 0.032000 -0.025487 -1132900.000000 0 1 0
-11.074504 -19.621604 1.462219 22.578532 1.056962 1.505989 0.035906 -0.022886 -18510.200000 0 1 0
-11.304904 -20.942804 1.886119 23.873822 1.075819 1.491710 0.044536 -0.023470 705.027000 0 1 0
-11.799104 -21.853804 0.836519 24.849696 1.075732 1.537127 0.050840 -0.018544 38145.700000 0 1 0
-10.856904 -22.192804 -0.355381 24.708687 1.115819 1.585180 0.056338 -0.012399 -39572.100000 0 1 0
-10.877804 -21.357304 -1.558081 24.018507 1.099717 1.635712 0.059086 -0.025179 393058.000000 0 1 0
-11.993304 -21.575804 -2.451781 24.806570 1.063459 1.669794 0.080509 -0.013092 1024440.000000 0 1 0
-13.066204 -20.426904 -2.318381 24.358961 1.001727 1.666116 0.087107 -0.020567 296119.000000 0 1 0
-13.759404 -20.360004 -1.097981 24.597897 0.976493 1.615448 0.073717 -0.022156 -264397.000000 0 1 0
-14.535704 -19.196204 -1.090981 24.103344 0.922692 1.616074 0.070423 -0.021831 -8221.150000 0 1 0
26.380796 -20.067704 -4.317481 33.426035 -0.650310 1.700323 0.062388 -0.014921 -402253.000000 0 0 1
25.107396 -20.180504 -3.753181 32.430240 -0.677034 1.686787 0.054217 -0.012972 -400985.000000 0 0 1
25.087496 -21.250004 -2.824881 32.998865 -0.702771 1.656507 0.039085 -0.015228 964066.000000 0 0 1
23.684896 -21.648604 -2.192381 32.162757 -0.740510 1.639014 0.039905 -0.014796 975369.000000 0 0 1
22.814996 -22.364504 -3.046681 32.093260 -0.775427 1.665872 0.053424 -0.019615 -284477.000000 0 0 1
21.737496 -22.833704 -2.273081 31.607969 -0.809988 1.642773 0.039617 -0.012510 -162728.000000 0 0 1
20.536796 -23.308104 -3.125581 31.221739 -0.848521 1.671073 0.057952 -0.025381 -537967.000000 0 0 1
19.815696 -22.266004 -3.631581 30.027073 -0.843560 1.692037 0.059511 -0.031776 -707568.000000 0 0 1
18.869396 -22.870504 -4.511581 29.991139 -0.880964 1.721800 0.063110 -0.030775 323674.000000 0 0 1
17.937796 -21.796304 -5.220681 28.707123 -0.882203 1.753674 0.051844 -0.022068 478618.000000 0 0 1
16.954196 -21.169404 -4.370381 27.471598 -0.895518 1.730562 0.055586 -0.020518 605246.000000 0 0 1
17.424596 -20.220604 -3.415681 26.910152 -0.859535 1.698069 0.047812 -0.019909 300772.000000 0 0 1
16.252296 -19.813704 -2.431381 25.741632 -0.883826 1.665391 0.046501 -0.014418 762151.000000 0 0 1
15.832296 -20.882704 -1.616181 26.255685 -0.922097 1.632391 0.045526 -0.014550 -88895.000000 0 0 1
15.013996 -20.359804 -0.590081 25.303950 -0.935387 1.594118 0.052545 -0.005597 15159.500000 0 0 1
14.769896 -21.266404 0.632619 25.900000 -0.963759 1.546368 0.053402 -0.003865 389405.000000 0 0 1
13.852896 -22.347804 0.404219 26.296207 -1.015889 1.555424 0.053194 -0.002580 107044.000000 0 0 1
12.991496 -22.568004 1.477819 26.082135 -1.048466 1.514106 0.047028 0.000027 219789.000000 0 0 1
12.003596 -23.764104 1.329219 26.656815 -1.103065 1.520911 0.050004 -0.003921 464992.000000 0 0 1
12.620696 -24.989604 1.702919 28.047500 -1.103127 1.510043 0.044877 0.001700 -46242.900000 0 0 1
11.741196 -26.044724 1.545119 28.610675 -1.147270 1.516765 0.049928 -0.000438 -306754.000000 0 0 1
12.189996 -27.343164 2.258919 30.022448 -1.151428 1.495484 0.047486 0.005233 20678.800000 0 0 1
11.980396 -27.295694 3.656219 30.032528 -1.157202 1.448752 0.055944 -0.001247 92201.800000 0 0 1
12.139096 -28.532034 4.300419 31.303806 -1.168540 1.432984 0.054927 -0.002152 -14646.700000 0 0 1
11.949996 -28.452104 5.834319 31.406431 -1.173165 1.383943 0.063867 -0.004981 -124742.000000 0 0 1
12.046496 -29.780394 6.372319 32.750518 -1.186407 1.374976 0.051360 -0.003804 5405.730000 0 0 1
12.087796 -29.852764 7.749119 33.126292 -1.186061 1.334682 0.058955 -0.005006 -124276.000000 0 0 1
11.951396 -31.265164 8.365219 34.501062 -1.205677 1.325893 0.054082 -0.011177 111697.000000 0 0 1
11.813496 -31.478264 9.755619 35.008741 -1.211771 1.288395 0.052553 -0.005660 173736.000000 0 0 1
11.147796 -32.743904 9.965519 35.996503 -1.242651 1.290285 0.050414 -0.003826 368757.000000 0 0 1
10.829796 -33.044194 11.450019 36.610193 -1.254091 1.252704 0.042876 -0.002943 261785.000000 0 0 1
12.014996 -33.234984 12.236719 37.398685 -1.223899 1.237461 0.034572 -0.001586 320878.000000 0 0 1
11.948896 -33.759754 13.582819 38.301307 -1.230617 1.208277 0.037786 0.000758 41593.500000 0 0 1
11.015396 33.548810 13.861619 37.934234 1.253547 1.196721 0.032731 -0.000385 241958.000000 0 0 1
11.168496 32.511309 12.933119 36.728546 1.239900 1.210953 0.034252 0.000732 -8887.450000 0 0 1
10.182596 31.501025 13.109019 35.606828 1.258151 1.193767 0.033721 0.003891 36560.300000 0 0 1
10.135196 30.435245 11.976119 34.241112 1.249338 1.213483 0.032520 0.000586 -144229.000000 0 0 1
9.711896 30.861245 10.621119 34.052101 1.265913 1.253596 0.031753 -0.006003 161920.000000 0 0 1
10.543796 31.789565 9.951219 34.939589 1.250539 1.281986 0.025812 -0.009421 101806.000000 0 0 1
10.043696 32.046145 8.478619 34.636949 1.267079 1.323498 0.034652 -0.016513 -563383.000000 0 0 1
8.801096 32.646461 8.475719 34.858120 1.307468 1.325185 0.023477 -0.007978 -857755.000000 0 0 1
8.267896 32.862961 7.157519 34.634699 1.324325 1.362639 0.006241 -0.002135 -138143.000000 0 0 1
8.759496 34.055312 6.351019 35.732737 1.319040 1.392110 0.023108 0.000886 -231970.000000 0 0 1
8.269596 -33.280304 6.903819 34.980389 -1.327246 1.372129 0.023685 0.002890 235696.000000 0 0 1
8.834996 -32.166954 6.237719 33.936400 -1.302746 1.385939 0.046444 -0.009371 291487.000000 0 0 1
8.195796 -30.829694 6.797919 32.616757 -1.310965 1.360839 0.038245 -0.005855 280437.000000 0 0 1
8.588396 -30.602514 8.131019 32.808351 -1.297191 1.320353 0.047739 -0.001649 -155619.000000 0 0 1
8.178096 -29.326394 8.575219 31.629939 -1.298841 1.296249 0.068709 -0.002095 -21333.300000 0 0 1
8.922596 -28.046794 8.010319 30.502469 -1.262788 1.305068 0.064926 -0.005789 -154769.000000 0 0 1
8.866496 -26.985144 8.929119 29.774854 -1.253339 1.266221 0.064400 -0.003426 362784.000000 0 0 1
9.693196 -25.880574 8.509519 28.916675 -1.212433 1.272097 0.079669 -0.014895 231448.000000 0 0 1
9.108796 -24.916704 7.443019 27.553781 -1.220319 1.297271 0.058120 -0.019051 -54186.600000 0 0 1
9.243696 -25.496704 6.154219 27.810111 -1.222990 1.347655 0.060766 -0.013948 -377884.000000 0 0 1
8.778596 -24.640504 5.195219 26.668493 -1.228549 1.374735 0.059989 -0.009758 2479.100000 0 0 1
8.647896 -25.194434 3.782319 26.904490 -1.240151 1.429746 0.048265 -0.008804 158467.000000 0 0 1
7.679296 -26.221834 3.612019 27.560894 -1.285904 1.439362 0.052065 -0.009048 -298627.000000 0 0 1
7.917996 -27.559834 4.092219 28.965245 -1.291029 1.429042 0.047726 -0.006532 150039.000000 0 0 1
6.804496 -28.574864 3.693219 29.605133 -1.337021 1.445721 0.040552 -0.007085 107617.000000 0 0 1
5.661296 -28.595824 4.516919 29.498712 -1.375347 1.417069 0.026433 -0.002062 -333618.000000 0 0 1
4.591496 -29.389404 4.076419 30.023926 -1.415819 1.434603 0.023833 0.001211 62114.400000 0 0 1
4.732196 -30.925494 4.206819 31.567027 -1.418955 1.437132 0.022508 0.000361 -232759.000000 0 0 1
5.778096 -31.549104 3.473519 32.261397 -1.389658 1.462919 0.025001 0.001606 171626.000000 0 0 1
5.813696 -32.924684 3.764319 33.645267 -1.396022 1.458679 0.011913 -0.000086 21313.000000 0 0 1
6.993596 -33.579884 3.024819 34.433538 -1.365464 1.482838 0.009983 0.001746 4522.190000 0 0 1
6.687496 -33.773464 1.684519 34.470380 -1.375315 1.521908 0.014635 0.002741 226634.000000 0 0 1
7.662896 33.868206 1.165619 34.743834 1.348286 1.537241 0.008933 -0.000268 -11378.100000 0 0 1
7.517996 33.286670 -0.274081 34.126204 1.348667 1.578828 0.027859 -0.000168 287802.000000 0 0 1
6.477396 32.338175 -0.438381 32.983426 1.373111 1.584088 0.002383 -0.001865 1304680.000000 0 0 1
5.149396 32.920669 -0.672281 33.327747 1.415635 1.590969 0.013280 -0.005294 1633010.000000 0 0 1
3.973896 31.959685 -0.325881 32.207445 1.447090 1.580915 0.013855 -0.003850 139427.000000 0 0 1
3.813196 31.048945 -1.405781 31.313794 1.448596 1.615705 0.020104 -0.010893 -10470.200000 0 0 1
2.766096 30.124825 -1.197581 30.275247 1.479232 1.610363 0.018695 -0.011689 43690.400000 0 0 1
2.757996 29.027235 -2.256981 29.245186 1.476067 1.648048 0.023359 -0.010918 -42070.700000 0 0 1
2.270596 29.557665 -3.466681 29.846759 1.494128 1.687208 0.036705 -0.027525 -55007.400000 0 0 1
2.218896 28.645195 -4.559581 29.090557 1.493489 1.728183 0.037185 -0.032684 1394.050000 0 0 1
2.004896 29.345645 -5.916781 30.003246 1.502582 1.769302 0.039862 -0.028583 384567.000000 0 0 1
0.660596 29.755575 -6.138781 30.389394 1.548599 1.774200 0.055966 -0.026093 240524.000000 0 0 1
0.451896 30.587505 -7.324081 31.455394 1.556024 1.805793 0.052601 -0.026525 -4776.520000 0 0 1
0.304196 29.827935 -8.674681 31.065227 1.560598 1.853800 0.059292 -0.028326 324880.000000 0 0 1
-1.011304 29.333355 -8.983581 30.694840 -1.536334 1.867818 0.072713 -0.027427 553883.000000 0 0 1
-1.162204 28.968525 -10.342681 30.781443 -1.530698 1.913467 0.081185 -0.021895 114988.000000 0 0 1
-1.486504 30.159605 -11.335381 32.253718 -1.521548 1.929910 0.075151 -0.022833 434305.000000 0 0 1
-0.319004 30.975115 -11.586381 33.072704 -1.560498 1.928720 0.068439 -0.011504 732853.000000 0 0 1
-0.606404 32.364475 -11.746081 34.435409 -1.552062 1.918888 0.070073 -0.022832 45121.700000 0 0 1
-0.680404 33.193727 -10.386881 34.787552 -1.550301 1.874001 0.060417 -0.026774 37541.300000 0 0 1
0.590596 33.265098 -9.780881 34.678252 1.553044 1.856723 0.048336 -0.032075 -210821.000000 0 0 1
0.521696 34.161095 -8.683581 35.251343 1.555526 1.819692 0.047967 -0.016687 -51330.000000 0 0 1
1.761296 -34.070168 -7.805081 34.997112 -1.519146 1.795708 0.051074 -0.021178 897279.000000 0 0 1
2.748096 -33.195434 -8.481181 34.371781 -1.488199 1.820120 0.056960 -0.018684 819239.000000 0 0 1
3.647096 -32.719324 -7.489981 33.763224 -1.459788 1.794496 0.054235 -0.015475 -896289.000000 0 0 1
4.974596 -32.152634 -8.028581 33.511142 -1.417295 1.812729 0.039068 -0.005312 -11300.200000 0 0 1
5.870096 -33.066264 -8.607581 34.668809 -1.395102 1.821701 0.055832 -0.012849 170448.000000 0 0 1
6.536996 -33.862314 -7.621781 35.319686 -1.380096 1.788301 0.059868 -0.006422 -1369390.000000 0 0 1
6.678096 33.212163 -8.099381 34.831663 1.372368 1.805474 0.047721 -0.011030 -13390.200000 0 0 1
5.484896 32.467145 -8.150181 33.920864 1.403440 1.813441 0.046404 -0.011960 140601.000000 0 0 1
4.629196 32.692828 -9.304581 34.304893 1.430135 1.845469 0.052820 -0.022067 328100.000000 0 0 1
3.830596 31.395655 -9.537081 33.035080 1.449386 1.863660 0.049724 -0.029041 -384844.000000 0 0 1
4.558796 30.401715 -10.207581 32.391999 1.421953 1.891386 0.019578 -0.029353 -537471.000000 0 0 1
3.750296 29.345595 -10.663381 31.447359 1.443688 1.916742 0.016115 -0.019742 -197414.000000 0 0 1
4.373996 28.559245 -11.803781 31.210440 1.418822 1.958647 0.006787 -0.017895 -162013.000000 0 0 1
4.218996 29.223525 -13.023581 32.271164 1.427417 1.986209 0.027403 -0.013670 -30196.300000 0 0 1
5.328396 28.958565 -13.854981 32.541524 1.388831 2.010601 0.027465 -0.012471 -155552.000000 0 0 1
5.129796 29.399675 -15.355781 33.562713 1.398051 2.046006 0.029062 -0.006093 443996.000000 0 0 1
4.233396 28.531845 -16.101881 33.034200 1.423497 2.079941 0.040561 -0.007608 404927.000000 0 0 1
4.023396 28.948275 -17.442581 34.035775 1.432695 2.108864 0.059680 -0.006689 -117058.000000 0 0 1
2.915596 28.195445 -18.186381 33.678306 1.467756 2.141237 0.060162 -0.018836 -97220.000000 0 0 1
3.175396 26.817655 -18.439281 32.699799 1.452938 2.169892 0.073748 -0.004486 -257597.000000 0 0 1
2.268096 26.334535 -19.359281 32.763299 1.484882 2.202949 0.057724 -0.015893 304185.000000 0 0 1
3.058996 25.155845 -20.063581 32.322148 1.449789 2.240480 0.065880 -0.018929 688853.000000 0 0 1
3.254696 24.120505 -19.151981 30.970796 1.436672 2.237487 0.063447 -0.018706 142457.000000 0 0 1
4.281596 23.271085 -19.670881 30.770424 1.388843 2.264356 0.063999 -0.016815 279270.000000 0 0 1
4.756496 22.077385 -18.829181 29.403626 1.358593 2.265775 0.068061 -0.017838 -478549.000000 0 0 1
3.809196 21.120885 -18.473881 28.317592 1.392362 2.281519 0.082851 -0.017973 -331183.000000 0 0 1
4.435896 19.934585 -17.982781 27.211124 1.351841 2.292762 0.063201 -0.018507 172005.000000 0 0 1
3.355496 18.838685 -17.853581 26.170704 1.394528 2.321560 0.070422 -0.027097 81510.800000 0 0 1
2.527196 19.092985 -16.753181 25.526415 1.439199 2.286711 0.063416 -0.024812 -505066.000000 0 0 1
1.741796 17.974185 -16.389381 24.386820 1.474193 2.307782 0.044964 -0.016033 -233356.000000 0 1 0
2.365296 16.928485 -15.468881 23.053297 1.431972 2.306360 0.033878 -0.016074 212500.000000 0 1 0
3.437896 16.125885 -15.989081 22.967673 1.360750 2.340825 0.040789 -0.024403 139546.000000 0 1 0
3.101896 15.142085 -16.956381 22.943917 1.368739 2.402435 0.051020 -0.028420 -191449.000000 0 1 0
3.001096 15.394185 -18.499681 24.253365 1.378261 2.438378 0.053864 -0.021658 977660.000000 0 1 0
4.320296 15.524185 -19.076181 24.971303 1.299370 2.440169 0.061107 -0.020832 785408.000000 0 1 0
4.160396 16.101085 -20.375281 26.300302 1.317935 2.457063 0.065865 -0.020862 -603934.000000 0 0 1
4.393296 15.105185 -21.534581 26.668443 1.287758 2.510686 0.060649 -0.030868 693500.000000 0 0 1
3.451596 13.990685 -21.672081 26.025600 1.328920 2.554801 0.060684 -0.026284 246543.000000 0 0 1
2.156996 14.460385 -21.944381 26.368755 1.422722 2.553881 0.077027 -0.034106 -589350.000000 0 0 1
1.261296 13.383385 -22.669181 26.355220 1.476830 2.606341 0.080447 -0.027930 116036.000000 0 0 1
0.831796 12.416385 -21.742381 25.051739 1.503904 2.621753 0.070529 -0.027260 -631194.000000 0 0 1
-0.180404 11.728785 -22.393081 25.279379 -1.555416 2.659063 0.043762 -0.014845 -822133.000000 0 0 1
-0.814104 10.753885 -21.439481 23.999170 -1.495237 2.675526 0.025986 -0.011285 -884028.000000 0 1 0
-1.632404 11.368285 -20.474081 23.475320 -1.428178 2.630383 0.021250 -0.009228 -134820.000000 0 1 0
-2.108704 10.591185 -19.388581 22.193172 -1.374266 2.633406 0.008136 -0.003995 377614.000000 0 1 0
-3.227004 9.559285 -19.699081 22.132494 -1.245230 2.668257 0.007683 -0.006798 -412994.000000 0 1 0
-2.722104 8.501485 -20.496781 22.356277 -1.260920 2.730850 0.007316 -0.007787 -481.139000 0 1 0
-3.731704 7.657885 -21.073881 22.730536 -1.117358 2.757443 0.009176 0.001393 186127.000000 0 1 0
-3.078204 6.488685 -21.912081 23.059004 -1.127841 2.824870 0.005919 -0.001375 -102350.000000 0 1 0
-2.262504 5.674085 -21.158681 22.022805 -1.191374 2.860534 0.012526 -0.000931 -399479.000000 0 1 0
-2.140004 4.465785 -21.935781 22.487804 -1.123927 2.919562 0.015238 -0.004602 -421236.000000 0 1 0
-1.335704 3.384185 -21.203681 21.513551 -1.194876 2.971662 0.016519 -0.002513 137052.000000 0 1 0
0.056896 3.586585 -21.060281 21.363573 1.554934 2.972889 0.028879 -0.003297 86444.200000 0 1 0
0.666596 2.615385 -20.228981 20.408240 1.321235 3.008954 0.036682 -0.002946 368479.000000 0 1 0
2.208596 2.532985 -20.283981 20.560491 0.853705 2.977405 0.036372 -0.008599 338503.000000 0 1 0
2.775996 1.930385 -21.453581 21.718395 0.607622 2.985273 0.050754 -0.010646 -275534.000000 0 1 0
4.177496 1.928085 -21.293281 21.784692 0.432410 2.928788 0.066788 -0.010941 -327857.000000 0 1 0
4.933996 1.335785 -22.460281 23.034601 0.264393 2.917819 0.072302 -0.006196 -2149080.000000 0 1 0
6.262396 1.364885 -22.198881 23.105645 0.214593 2.860510 0.066437 -0.013611 -2009470.000000 0 1 0
6.845896 0.771585 -23.314981 24.311519 0.112234 2.854283 0.058869 -0.013240 120038.000000 0 1 0
8.403396 0.729785 -23.207881 24.693225 0.086627 2.792982 0.051985 -0.021053 353117.000000 0 1 0
8.918196 1.980785 -23.452081 25.168588 0.218558 2.770136 0.059169 -0.022576 -878205.000000 0 0 1
10.280696 2.039485 -23.156681 25.418184 0.195837 2.716567 0.043036 -0.021139 -529792.000000 0 0 1
14.112196 -20.902304 22.757623 33.970131 -0.976943 0.836681 0.084958 -0.000417 -1259910.000000 0 0 1
13.238996 -21.890904 23.206323 34.540066 -1.026876 0.834070 0.083210 -0.002057 -888687.000000 0 0 1
11.910996 -21.505904 23.112223 33.742416 -1.065004 0.816247 0.074104 -0.016516 -84847.100000 0 0 1
11.227296 -21.371004 21.671323 32.440997 -1.087074 0.839248 0.074308 -0.016092 -508622.000000 0 0 1
11.733496 -20.250804 21.003323 31.446933 -1.045655 0.839416 0.062620 -0.012925 -15833.700000 0 0 1
11.120396 -20.130104 19.693623 30.277436 -1.066092 0.862634 0.088874 -0.017503 306950.000000 0 0 1
11.418396 -18.871604 18.803123 28.984042 -1.026667 0.864868 0.086006 -0.016577 22130.000000 0 0 1
10.752796 -17.718704 19.287623 28.312321 -1.025347 0.821335 0.092667 -0.015170 -50017.700000 0 0 1
10.839696 -16.563004 18.462423 27.068306 -0.991298 0.820210 0.090568 -0.014365 -373473.000000 0 0 1
9.956696 -15.382404 18.853723 26.291007 -0.996337 0.771140 0.091092 -0.013638 -118612.000000 0 0 1
8.609796 -15.747904 18.658123 25.889199 -1.070470 0.765997 0.073313 -0.011533 -234439.000000 0 0 1
7.711696 -14.679104 18.952823 25.182452 -1.087073 0.718764 0.050051 -0.011765 75100.800000 0 0 1
6.252396 -14.954804 18.588323 24.663017 -1.174796 0.717134 0.032134 -0.004824 -509036.000000 0 1 0
5.876796 -14.955604 17.220723 23.553347 -1.196383 0.750809 0.020158 -0.003341 35990.400000 0 1 0
4.476196 -15.071704 17.062323 23.201627 -1.282100 0.744549 0.002215 0.005391 -76898.100000 0 1 0
3.838796 -16.476704 17.139723 24.082945 -1.341896 0.778888 -0.000052 0.006870 434266.000000 0 1 0
2.564096 -16.587804 16.475023 23.519274 -1.417433 0.794712 -0.001566 0.005173 587626.000000 0 1 0
2.016896 -17.882404 16.553323 24.451192 -1.458484 0.827125 0.004930 -0.007886 -1159720.000000 0 1 0
0.583496 -17.913704 16.139823 24.119187 -1.538235 0.837706 0.017361 0.001258 -1271270.000000 0 1 0
0.355696 -17.852804 14.751023 23.161214 -1.550875 0.880346 0.021001 0.004298 -441008.000000 0 1 0
-1.022804 -17.799604 14.498523 22.979974 1.513397 0.888058 0.020833 0.003509 -304097.000000 0 1 0
-1.602804 -18.269504 13.148423 22.566010 1.483289 0.948792 0.017515 -0.005332 228965.000000 0 1 0
-3.019104 -18.252204 13.075723 22.654635 1.406870 0.955529 0.016954 -0.013409 104675.000000 0 1 0
-3.411404 -19.403404 12.332023 23.242388 1.396760 1.011508 0.033597 -0.019625 -1055130.000000 0 1 0
-4.900404 -19.626904 12.181523 23.613955 1.326121 1.028784 0.032163 -0.022360 -1016300.000000 0 1 0
-5.436904 -20.002504 13.436723 24.702341 1.305397 0.995665 0.023619 -0.019382 -150923.000000 0 1 0
-5.566704 -21.407304 13.534223 25.931372 1.316393 1.021691 -0.009977 -0.001527 -178921.000000 0 0 1
-6.391504 -21.898604 14.772923 27.177922 1.286817 0.996120 0.007752 -0.002486 492598.000000 0 0 1
-7.776704 -21.596304 14.678923 27.246069 1.225157 1.001839 0.024771 0.001275 151509.000000 0 0 1
-8.515704 -22.398904 15.585723 28.585712 1.207489 0.994136 0.021951 0.000349 -228451.000000 0 0 1
-9.984704 -21.967004 15.579323 28.722098 1.144180 0.997486 0.036108 -0.002397 -300624.000000 0 0 1
-10.223404 -20.727004 16.204223 28.225938 1.112571 0.959304 0.022706 -0.006654 -275456.000000 0 0 1
-11.602304 -20.409204 16.151523 28.495978 1.053873 0.968180 0.045591 -0.011214 231786.000000 0 0 1
-12.012304 -19.208904 17.029523 28.342232 1.011945 0.926228 0.040583 -0.010956 -325063.000000 0 0 1
-12.084104 -19.529304 18.377123 29.413228 1.016691 0.895932 0.033640 -0.010667 -57960.400000 0 0 1
-12.474604 -18.467104 19.238823 29.441162 0.976700 0.858641 0.029323 -0.010626 -22325.100000 0 0 1
-12.930504 -18.946604 20.639723 30.857251 0.971932 0.838098 0.032159 -0.010729 -204044.000000 0 0 1
-14.143404 -19.648404 20.551723 31.756401 0.946889 0.866933 0.038352 -0.010669 -280176.000000 0 0 1
-14.330704 -20.473404 21.678323 33.082912 0.960093 0.856253 0.032699 0.002993 454926.000000 0 0 1
-15.720704 -21.182304 21.591223 34.088289 0.932330 0.884869 0.037726 -0.005667 -400711.000000 0 0 1
-15.702104 -22.208904 20.585323 34.110805 0.955376 0.922933 0.036170 -0.008513 680191.000000 0 0 1
-16.905504 -22.360504 19.803323 34.321420 0.923439 0.955750 0.048082 -0.007237 1240440.000000 0 0 1
-18.158204 -22.860904 20.602523 35.732412 0.899546 0.956262 0.057139 -0.016660 -153734.000000 0 0 1
-18.667804 -22.048404 21.634123 36.092303 0.868237 0.928031 0.052451 -0.017000 -27813.800000 0 0 1
-19.348004 -22.766304 22.671523 37.505304 0.866388 0.921673 0.064170 -0.013994 -32801.500000 0 0 1
-19.943104 -21.904504 23.793593 37.995655 0.832234 0.894103 0.053854 -0.008445 -152246.000000 0 0 1
-20.985404 -21.094704 23.270823 37.774395 0.787996 0.907081 0.053639 -0.001460 158838.000000 0 0 1
-21.378004 -20.128004 24.220543 38.062979 0.755291 0.881067 0.052006 0.002956 -49958.000000 0 0 1
-22.241104 -19.023704 23.583023 37.586261 0.707586 0.892539 0.063779 -0.002959 343165.000000 0 0 1
-21.602204 -18.321904 22.491023 36.168958 0.703419 0.899716 0.044442 0.005326 189056.000000 0 0 1
-22.512504 -17.361304 21.995523 35.944830 0.656922 0.912305 0.063427 -0.001363 -62738.400000 0 0 1
-22.122404 -16.660004 20.669123 34.556753 0.645471 0.929642 0.058106 0.002190 -583568.000000 0 0 1
-21.034904 -15.803804 20.775423 33.523807 0.644341 0.902409 0.050029 0.003170 -720427.000000 0 0 1
-20.581504 -15.532904 19.459023 32.303607 0.646504 0.924318 0.043087 0.005978 159380.000000 0 0 1
-19.845804 -14.177004 19.234323 31.061271 0.620297 0.903024 0.021595 -0.002179 72295.300000 0 0 1
-19.428104 -14.148604 17.915923 29.976900 0.629438 0.930220 0.025601 -0.006091 -94368.200000 0 0 1
-18.820204 -12.918704 17.531823 28.782943 0.601559 0.915865 0.027746 -0.015311 -45420.600000 0 0 1
-18.340604 -13.051104 16.039823 27.640279 0.618466 0.951692 0.025835 -0.019163 225252.000000 0 0 1
-17.913804 -11.894704 15.305823 26.394253 0.586152 0.952200 0.030237 -0.019306 133049.000000 0 0 1
-16.655704 -11.371504 15.669623 25.539395 0.599047 0.910252 0.023633 -0.024603 -186971.000000 0 0 1
-16.307204 -10.124804 14.797223 24.236221 0.555631 0.914052 0.040098 -0.034390 -37906.400000 0 1 0
-16.940904 -8.930504 15.220623 24.462533 0.485136 0.899245 0.048283 -0.028666 266184.000000 0 1 0
-16.670304 -7.768604 14.430923 23.377378 0.436092 0.905487 0.047891 -0.027746 -759188.000000 0 1 0
-17.143404 -6.539704 15.231323 23.846535 0.364431 0.877959 0.058181 -0.017693 401411.000000 0 1 0
-16.385604 -6.253704 16.408523 24.017420 0.364595 0.818671 0.064953 -0.017114 58634.000000 0 1 0
-15.000704 -6.054404 16.277623 22.948594 0.383613 0.782280 0.069861 -0.022420 -614733.000000 0 1 0
-14.213204 -6.169204 17.587723 23.439332 0.409509 0.722204 0.066954 -0.015285 -158145.000000 0 1 0
-14.176304 -7.399104 18.319023 24.316681 0.481041 0.717652 0.062580 -0.021696 81449.100000 0 1 0
-13.463004 -8.490304 17.715123 23.815191 0.562645 0.731972 0.063343 -0.021931 -52591.800000 0 1 0
-13.261604 -9.618904 18.786523 24.926430 0.627518 0.717155 0.045132 -0.020618 930389.000000 0 1 0
-14.487004 -10.326204 19.104123 26.105005 0.619259 0.749810 0.041380 -0.021029 567395.000000 0 0 1
-15.237504 -9.706104 20.109423 27.032922 0.567173 0.731929 0.036705 -0.015173 5335.830000 0 0 1
-16.677304 -10.368304 20.249323 28.207611 0.556224 0.770062 0.021042 -0.008632 1260240.000000 0 0 1
-17.509204 -10.164904 19.099523 27.833241 0.525993 0.814527 0.028750 -0.014074 348619.000000 0 0 1
-18.143804 -8.886604 19.119923 27.816197 0.455444 0.812939 0.031475 -0.019482 -529287.000000 0 0 1
-19.234904 -8.689404 18.031323 27.759969 0.424310 0.863812 0.045880 -0.026106 -715837.000000 0 0 1
-20.513604 -8.815404 18.547423 29.026302 0.405874 0.877616 0.041313 -0.026877 -786556.000000 0 0 1
-21.379704 -8.770904 17.402623 28.928737 0.389306 0.925333 0.056974 -0.020671 438798.000000 0 0 1
-22.863904 -9.142904 17.678623 30.313108 0.380406 0.948133 0.062675 -0.010590 486367.000000 0 0 1
-23.509504 -8.175604 18.529523 31.030316 0.334676 0.930862 0.067820 -0.009981 -64811.400000 0 0 1
-24.888704 -8.332404 18.640023 32.192033 0.323058 0.953263 0.078758 -0.013070 -729886.000000 0 0 1
-25.630914 -7.246404 19.414623 32.960305 0.275530 0.940938 0.067922 -0.013173 -230234.000000 0 0 1
-25.542034 -7.486504 20.849023 33.810132 0.285119 0.906316 0.066280 -0.012711 607723.000000 0 0 1
-26.368174 -6.510804 21.501623 34.640886 0.242077 0.901160 0.063671 -0.016785 -509275.000000 0 0 1
-26.475854 -6.574304 23.056623 35.718345 0.243390 0.869103 0.057122 -0.012161 -35501.200000 0 0 1
-25.356064 -6.228304 23.865183 35.373277 0.240865 0.830283 0.062000 -0.015282 114761.000000 0 0 1
-24.203804 -7.024004 23.632913 34.549607 0.282444 0.817525 0.061139 -0.014018 -372937.000000 0 0 1
-23.165804 -6.784904 24.785823 34.598070 0.284916 0.772177 0.060296 -0.013281 -57537.900000 0 0 1
-22.560004 -5.559104 24.599513 33.837752 0.241601 0.756877 0.051441 -0.015272 -260245.000000 0 0 1
-21.687804 -5.318804 25.682863 34.033219 0.240497 0.715689 0.067726 -0.018074 76861.000000 0 0 1
-21.039904 -3.940604 25.728163 33.468557 0.185147 0.693949 0.064101 -0.018133 364235.000000 0 0 1
-20.120104 -3.621704 26.802393 33.709103 0.178097 0.651610 0.054477 -0.014897 390645.000000 0 0 1
-20.631104 -3.526504 28.115523 35.050839 0.169295 0.639933 0.043407 -0.013517 -297457.000000 0 0 1
-21.373604 -2.250104 28.507073 35.700800 0.104889 0.645998 0.051448 -0.016860 40012.800000 0 0 1
-22.627704 -2.082504 27.909933 35.990474 0.091775 0.683320 0.063199 -0.015736 -791281.000000 0 0 1
-23.395204 -1.046504 28.438613 36.839998 0.044702 0.688894 0.057534 -0.015408 -425427.000000 0 0 1
-24.729704 -0.888104 27.751073 37.181569 0.035897 0.728211 0.059698 -0.012546 -1192830.000000 0 0 1
-24.536504 -0.410004 26.417573 36.056848 0.016708 0.748568 0.052963 -0.013325 -708892.000000 0 0 1
-25.668984 -0.264504 25.628403 36.273706 0.010304 0.786216 0.056433 -0.016926 -645563.000000 0 0 1
-26.441134 -1.551104 25.195653 36.556264 0.058595 0.810371 0.050572 -0.014161 145738.000000 0 0 1
-27.292614 -2.008104 26.260413 37.927939 0.073445 0.806019 0.039445 -0.006608 178376.000000 0 0 1
-27.730474 -3.322604 26.083983 38.215090 0.119249 0.819540 0.029918 -0.004103 458517.000000 0 0 1
-26.660714 -4.402404 26.501083 37.848147 0.163650 0.795126 0.048618 -0.017626 555170.000000 0 0 1
-26.443364 -4.702204 27.917753 38.739685 0.175982 0.766057 0.059226 -0.014473 -456062.000000 0 0 1
-25.448824 -5.642304 28.111623 38.337209 0.218182 0.747674 0.065297 -0.016737 -535116.000000 0 0 1
-25.376374 -6.052504 29.584383 39.443997 0.234135 0.722681 0.059132 -0.019828 -725656.000000 0 0 1
-26.471924 -6.764804 30.046773 40.611992 0.250192 0.737949 0.065288 -0.014961 -380077.000000 0 0 1
-26.257134 -7.316204 31.291953 41.498798 0.271744 0.716598 0.076366 -0.005546 -386644.000000 0 0 1
-27.602834 -7.849104 31.766623 42.809383 0.277046 0.734676 0.042922 -0.012962 -316627.000000 0 0 1
-28.198264 -8.810304 30.918913 42.763802 0.302831 0.762638 0.047794 -0.020581 -44228.100000 0 0 1
-29.539184 -9.001904 31.306263 43.973626 0.295804 0.778550 0.059802 -0.010424 -107041.000000 0 0 1
-30.405294 -9.745904 30.274393 44.000039 0.310186 0.811993 0.040753 -0.017091 -508350.000000 0 0 1
-30.054234 -11.060604 30.098863 43.949238 0.352639 0.816391 0.056417 -0.024445 -608880.000000 0 0 1
-30.836864 -11.787904 29.246463 44.104676 0.365126 0.845824 0.025565 -0.013285 -947874.000000 0 0 1
-30.231944 -13.142104 28.685283 43.698179 0.410066 0.854705 0.045625 -0.020196 -867603.000000 0 0 1
-29.244894 -12.766204 27.840203 42.347570 0.411594 0.853405 0.067364 -0.024225 -898582.000000 0 0 1
-28.330134 -13.811704 27.514103 41.837609 0.453619 0.853114 0.079817 -0.022364 1081950.000000 0 0 1
-27.006544 -13.216704 26.868453 40.323051 0.455123 0.841520 0.094991 -0.023872 994611.000000 0 0 1
-26.040054 -12.519904 27.676863 40.010513 0.448165 0.806901 0.087354 -0.026643 381377.000000 0 0 1
-26.435174 -11.307304 28.377673 40.397598 0.404187 0.791949 0.085658 -0.028118 -681633.000000 0 0 1
-26.526794 -10.003604 27.541223 39.525459 0.360622 0.799874 0.088747 -0.023120 211830.000000 0 0 1
-25.277364 -9.603604 26.997953 38.210782 0.363085 0.786181 0.078154 -0.026413 285772.000000 0 0 1
-24.741304 -10.357804 25.930563 37.306975 0.396475 0.802294 0.072799 -0.029475 -406767.000000 0 0 1
-25.461274 -10.132104 24.595563 36.822245 0.378731 0.839340 0.074770 -0.018368 -367514.000000 0 0 1
-26.656064 -10.851004 24.467143 37.774742 0.386590 0.866219 0.085089 -0.021013 -309675.000000 0 0 1
-27.264494 -10.671804 23.202423 37.357630 0.373086 0.900665 0.092030 -0.016338 -163351.000000 0 0 1
-28.492444 -11.586704 22.909223 38.352361 0.386234 0.930622 0.095085 -0.027841 1313470.000000 0 0 1
-29.742034 -11.205504 23.552763 39.558622 0.360310 0.933047 0.079297 -0.019068 780099.000000 0 0 1
-29.808204 -11.141104 24.934943 40.427771 0.357683 0.906154 0.086089 -0.019734 -30180.000000 0 0 1
-31.282904 -10.936304 25.458893 41.789689 0.336313 0.915726 0.040797 -0.014952 301522.000000 0 0 1
-31.784574 -9.658004 25.183973 41.686553 0.294993 0.922126 0.034048 -0.019222 1393700.000000 0 0 1
-33.183724 -9.388604 25.519163 42.901435 0.275722 0.933739 0.021396 -0.011355 1560490.000000 0 0 1
-33.600324 -9.578304 26.971813 44.138469 0.277700 0.913381 -0.002016 -0.001285 -775778.000000 0 0 1
-33.844264 -10.884804 27.493293 44.942122 0.311167 0.912527 0.003890 -0.006334 299875.000000 0 0 1
-34.380920 -10.828004 28.824393 46.153429 0.305108 0.896261 -0.004604 -0.000272 -1403410.000000 0 0 1
-34.998761 -12.141704 29.271513 47.213936 0.333927 0.902084 -0.006163 0.008927 206532.000000 0 0 1
-36.146924 -12.601504 28.581463 47.773403 0.335444 0.929454 -0.018433 0.007807 352432.000000 0 0 1
35.216506 -11.796604 28.645573 46.903423 -0.323226 0.913808 -0.020187 0.006632 -1633520.000000 0 0 1
33.955366 -12.309104 28.036273 45.722135 -0.347774 0.910706 -0.005400 0.004990 -916104.000000 0 0 1
33.974056 -12.408404 26.637283 44.919371 -0.350179 0.936014 0.001582 0.006184 195472.000000 0 0 1
32.713146 -12.899704 26.173113 43.835878 -0.375607 0.930952 0.015921 0.008210 454503.000000 0 0 1
32.294396 -12.472504 24.749133 42.555975 -0.368565 0.950143 0.029640 0.001728 -29306.400000 0 0 1
32.060286 -11.135304 24.755753 42.008384 -0.334289 0.940598 0.044926 -0.011268 156543.000000 0 0 1
32.510866 -10.582604 23.522463 41.500051 -0.314693 0.968173 0.035806 -0.020602 -265178.000000 0 0 1
32.231866 -9.095304 23.463933 40.892224 -0.275032 0.959659 0.061268 -0.006564 709935.000000 0 0 1
30.836216 -8.757104 23.360723 39.664626 -0.276703 0.941030 0.067547 -0.020499 658732.000000 0 0 1
30.633106 -7.475004 22.807123 38.915650 -0.239340 0.944602 0.078044 -0.005661 -846754.000000 0 0 1
29.146286 -7.223104 22.755523 37.676161 -0.242928 0.922315 0.058063 0.010790 -970724.000000 0 0 1
28.520246 -7.999104 21.781523 36.767171 -0.273445 0.936740 0.058723 0.009686 -1442690.000000 0 0 1
27.163626 -7.813404 21.911723 35.763606 -0.280081 0.911346 0.060112 -0.008875 -1361940.000000 0 0 1
14.390596 -17.348004 26.564603 34.838494 -0.878310 0.703617 0.059433 -0.010683 -99863.700000 0 0 1
13.930196 -18.620804 26.215463 35.043334 -0.928513 0.725622 0.055872 -0.010396 337351.000000 0 0 1
14.838996 -19.661504 26.615913 36.265375 -0.924279 0.746720 0.063635 -0.011263 -571721.000000 0 0 1
14.262896 -21.107704 26.534283 36.783605 -0.976552 0.765030 0.045653 -0.018639 180961.000000 0 0 1
13.373796 -21.643604 27.495173 37.460494 -1.017312 0.746636 0.041734 -0.017944 846050.000000 0 0 1
12.169996 -20.855204 27.627423 36.692273 -1.042562 0.718264 0.044071 -0.011987 72407.000000 0 0 1
11.350996 -21.301204 28.907623 37.659489 -1.081192 0.695700 0.041207 -0.008467 75604.300000 0 0 1
11.799596 -20.839104 30.178733 38.526026 -1.055583 0.670785 0.041494 -0.010304 -363719.000000 0 0 1
11.112296 -19.802804 30.789883 38.257693 -1.059435 0.635454 0.049585 -0.012618 -342097.000000 0 0 1
11.125096 -18.388904 30.063543 36.955868 -1.026716 0.620654 0.047757 -0.011547 378907.000000 0 0 1
12.364096 -17.706904 30.153483 37.089593 -0.961236 0.621527 0.047114 0.001924 -20146.500000 0 0 1
12.226396 -16.463504 29.414073 35.856930 -0.932025 0.608830 0.050907 0.001481 802833.000000 0 0 1
13.399996 -15.443504 29.638893 36.007301 -0.856128 0.603885 0.042506 0.001168 686186.000000 0 0 1
12.908396 -14.190304 29.224503 34.958018 -0.832668 0.580865 0.058180 -0.005058 -239539.000000 0 0 1
13.650196 -13.221404 29.819943 35.360464 -0.769442 0.567378 0.056211 -0.007071 -681634.000000 0 0 1
13.139896 -11.779704 29.565153 34.431332 -0.730869 0.538127 0.054953 -0.011794 -66040.300000 0 0 1
13.317096 -11.154604 28.344113 33.243932 -0.697260 0.549836 0.076498 -0.016438 626440.000000 0 0 1
14.671596 -10.959004 27.904083 33.376539 -0.641549 0.580773 0.070664 -0.016141 303111.000000 0 0 1
14.845896 -9.628104 27.136233 32.395620 -0.575346 0.577827 0.071921 -0.010634 -53421.700000 0 0 1
14.812696 -8.387004 27.788123 32.587384 -0.515199 0.549614 0.067986 -0.016842 1295390.000000 0 0 1
16.111896 -8.082004 28.387983 33.627215 -0.464941 0.565732 0.067955 -0.016648 947335.000000 0 0 1
16.628196 -6.733204 27.851133 33.128818 -0.384747 0.572236 0.069149 -0.017875 -64825.600000 0 0 1
17.932696 -6.484504 28.341583 34.159563 -0.346973 0.592258 0.066652 -0.022484 -105383.000000 0 0 1
18.414396 -5.284804 27.845433 33.799220 -0.279482 0.602629 0.062143 -0.015814 1427660.000000 0 0 1
19.990896 -5.213804 27.612293 34.485626 -0.255126 0.642350 0.051853 -0.014280 205981.000000 0 0 1
20.437396 -5.992904 26.525543 34.017738 -0.285236 0.676520 0.049874 -0.005538 1132940.000000 0 0 1
21.848496 -5.950804 26.227143 34.650136 -0.265916 0.712220 0.046270 0.000255 1719760.000000 0 0 1
22.892196 -6.163204 27.394603 36.228470 -0.262992 0.713368 0.043815 -0.002554 -677407.000000 0 0 1
23.022096 -5.017004 28.234153 36.774375 -0.214567 0.695448 0.043391 -0.002987 -121306.000000 0 0 1
24.091696 -5.251304 29.130753 38.165256 -0.214615 0.702422 0.065891 -0.021230 -140749.000000 0 0 1
24.809696 -3.972104 29.533073 38.775005 -0.158756 0.704937 0.065675 -0.023486 -506999.000000 0 0 1
25.590396 -3.404504 28.507633 38.459643 -0.132262 0.735888 0.051639 -0.006439 117443.000000 0 0 1
26.038896 -2.128104 28.925573 38.977451 -0.081547 0.734583 0.035468 -0.013502 -735802.000000 0 0 1
26.871296 -1.300404 27.932873 38.781478 -0.048356 0.766615 0.035110 -0.012297 387827.000000 0 0 1
28.260396 -1.619404 28.067823 39.863206 -0.057240 0.789636 0.052383 -0.008848 -130358.000000 0 0 1
28.892996 -0.959504 27.024993 39.573680 -0.033197 0.819067 0.048000 0.000348 618003.000000 0 0 1
30.435996 -0.799504 27.291283 40.887690 -0.026262 0.839991 0.041053 -0.000388 659574.000000 0 0 1
30.722696 0.107396 28.336783 41.795560 0.003496 0.825778 0.029181 0.005608 -281277.000000 0 0 1
31.964796 -0.125704 28.947683 43.124614 -0.003933 0.834893 0.038384 -0.002059 8035.540000 0 0 1
32.344296 1.087796 29.848083 44.025502 0.033619 0.825795 0.041996 -0.008342 33505.200000 0 0 1
32.397796 2.299696 29.111333 43.616230 0.070864 0.840027 0.030636 0.001223 104788.000000 0 0 1
32.535596 3.324096 30.072433 44.429336 0.101815 0.827308 0.027006 0.001847 -18697.100000 0 0 1
32.674796 4.682396 29.387313 44.194811 0.142334 0.843370 0.026361 0.004046 37929.800000 0 0 1
32.901996 5.820896 30.250603 45.072421 0.175104 0.835030 0.036828 0.000380 -80159.800000 0 0 1
31.707496 6.255796 30.822843 44.660362 0.194795 0.809085 0.028167 0.007225 -590177.000000 0 0 1
31.918296 7.267396 31.986323 45.768084 0.223871 0.796968 0.028463 -0.000868 -176265.000000 0 0 1
32.546996 6.569596 33.036806 46.839055 0.199173 0.787913 0.028917 -0.001675 82903.600000 0 0 1
32.668496 7.361396 34.222083 47.880808 0.221634 0.774551 0.028482 -0.008661 -368457.000000 0 0 1
33.461596 6.707996 -33.155331 47.581000 0.197846 2.341749 0.048371 -0.002331 -517275.000000 0 0 1
32.819896 5.767196 -32.291941 46.402323 0.173947 2.340486 0.030429 -0.006642 307164.000000 0 0 1
32.845796 4.480096 -32.812831 46.643321 0.135561 2.351084 0.050380 -0.012388 -164793.000000 0 0 1
32.647696 3.393596 -31.759531 45.673366 0.103574 2.339720 0.041341 -0.020522 -224735.000000 0 0 1
32.599996 2.100496 -32.328811 45.960024 0.064343 2.350982 0.043129 -0.019393 202681.000000 0 0 1
32.739996 1.152196 -31.294261 45.305250 0.035178 2.333312 0.041190 -0.024480 5452.470000 0 0 1
32.845796 -0.282904 -31.841371 45.747123 -0.008613 2.340650 0.045361 -0.032092 29107.900000 0 0 1
34.010796 -0.461804 -32.665321 47.158994 -0.013577 2.335972 0.040876 -0.030982 645732.000000 0 0 1
34.657596 -1.762004 -32.637361 47.638755 -0.050797 2.325539 0.043973 -0.029148 591767.000000 0 0 1
35.471196 -2.097204 -31.340231 47.379469 -0.059055 2.293577 0.047889 -0.031043 -299278.000000 0 0 1
34.749896 -1.935904 -30.128681 46.033036 -0.055652 2.284319 0.056996 -0.030926 285643.000000 0 0 1
35.614596 -1.819404 -28.980061 45.951644 -0.051042 2.253205 0.066487 -0.034373 121775.000000 0 0 1
34.754396 -1.527704 -27.766391 44.510385 -0.043929 2.244415 0.074792 -0.035675 -211082.000000 0 0 1
34.212096 -0.196504 -27.787981 44.075821 -0.005744 2.252940 0.054936 -0.024943 336376.000000 0 0 1
33.539196 0.141096 -26.604251 42.809856 0.004207 2.241390 0.070699 -0.022100 -43913.400000 0 0 1
33.066396 1.651696 -26.567051 42.449062 0.049909 2.247026 0.048979 -0.011932 -100482.000000 0 0 1
32.116996 1.925096 -27.547921 42.356763 0.059868 2.278879 0.061783 -0.024292 142030.000000 0 0 1
31.345996 3.105796 -27.341201 41.710415 0.098759 2.285642 0.042474 -0.003604 -114400.000000 0 0 1
30.401096 3.348496 -28.511111 41.812946 0.109702 2.321116 0.049858 -0.015122 -790648.000000 0 0 1
29.422396 4.258496 -28.121451 40.922221 0.143738 2.328414 0.043983 -0.011984 -238445.000000 0 0 1
28.728196 4.691196 -29.273371 41.282524 0.161867 2.359015 0.046705 -0.015944 330661.000000 0 0 1
27.523696 5.669696 -28.979561 40.367242 0.203152 2.371574 0.046849 -0.017106 -110353.000000 0 0 1
26.402596 4.979096 -28.523691 39.185321 0.186395 2.386077 0.063910 -0.019915 -486367.000000 0 0 1
25.443396 5.890196 -28.047411 38.323857 0.227494 2.391833 0.064030 -0.019687 -646110.000000 0 0 1
24.129296 5.148896 -27.797771 37.167864 0.210235 2.415686 0.066318 -0.020076 -678592.000000 0 0 1
23.385496 4.655896 -28.867841 37.442102 0.196524 2.451205 0.069193 -0.015602 -714700.000000 0 0 1
22.200696 4.130696 -28.408491 36.290162 0.183958 2.469974 0.074823 -0.011106 -967891.000000 0 0 1
21.198996 3.764796 -29.527541 36.543765 0.175761 2.511554 0.068686 -0.004083 -125503.000000 0 0 1
21.626596 2.629296 -30.315231 37.331435 0.120983 2.518464 0.069476 -0.012152 558211.000000 0 0 1
20.787096 2.281696 -31.449221 37.767221 0.109327 2.554784 0.045291 -0.012445 127247.000000 0 0 1
20.942796 3.204296 -32.672081 38.940122 0.151825 2.566301 0.061804 -0.012320 432298.000000 0 0 1
22.268596 3.162596 -33.213141 40.112406 0.141077 2.546331 0.072200 -0.024860 444562.000000 0 0 1
22.414196 3.584796 33.977742 40.862378 0.158591 0.588964 0.068349 -0.026169 117139.000000 0 0 1
23.777296 3.233696 33.331010 41.070340 0.135170 0.623981 0.074831 -0.019371 168528.000000 0 0 1
24.022096 1.843396 33.140017 40.972185 0.076587 0.628616 0.089813 -0.030829 819460.000000 0 0 1
25.412596 1.638096 32.839733 41.556365 0.064371 0.659587 0.082059 -0.032335 661424.000000 0 0 1
25.560796 0.091896 32.860791 41.631651 0.003595 0.661092 0.062995 -0.029762 -399893.000000 0 0 1
25.167796 -0.626204 31.660043 40.449579 -0.024876 0.671798 0.055458 -0.030059 1034160.000000 0 0 1
23.789296 -0.730104 31.255273 39.285567 -0.030681 0.650813 0.081889 -0.041513 793695.000000 0 0 1
22.897596 -1.628204 32.171453 39.521556 -0.070989 0.619751 0.084336 -0.045973 -163320.000000 0 0 1
23.186996 -3.025604 32.018793 39.648382 -0.129754 0.630778 0.077688 -0.044349 456688.000000 0 0 1
22.303696 -3.767904 32.854615 39.888315 -0.167356 0.602952 0.096806 -0.040853 98524.500000 0 0 1
22.333496 -5.263104 32.441187 39.735575 -0.231437 0.615601 0.090010 -0.042809 480135.000000 0 0 1
23.606696 -5.900304 32.613545 40.690699 -0.244924 0.640999 0.083013 -0.031681 594026.000000 0 0 1
23.509896 -7.335804 32.550871 40.817747 -0.302457 0.647708 0.103115 -0.040302 -481103.000000 0 0 1
24.834796 -8.045904 32.271983 41.508849 -0.313306 0.680160 0.073468 -0.030265 -405921.000000 0 0 1
25.125096 -7.903404 30.909203 40.609274 -0.304762 0.705733 0.085894 -0.034628 195666.000000 0 0 1
26.302696 -8.653804 30.588393 41.259786 -0.317853 0.735700 0.072427 -0.031403 375765.000000 0 0 1
26.719496 -8.336604 29.155383 40.416170 -0.302433 0.765005 0.062280 -0.018132 440581.000000 0 0 1
25.721596 -8.698404 28.197683 39.145524 -0.326102 0.766519 0.047264 -0.010664 137802.000000 0 0 1
26.206796 -8.322004 26.923463 38.482786 -0.307480 0.795926 0.059803 -0.002684 499424.000000 0 0 1
25.548896 -9.207604 25.770173 37.438321 -0.345902 0.811603 0.032709 -0.000168 259461.000000 0 0 1
24.166996 -8.998704 25.615743 36.348132 -0.356450 0.788749 0.047938 -0.005330 -328898.000000 0 0 1
23.598196 -9.732704 24.580053 35.436978 -0.391179 0.804284 0.056403 -0.005737 184561.000000 0 0 1
22.144896 -9.303904 24.265313 34.143293 -0.397745 0.780317 0.028477 -0.003146 -264416.000000 0 0 1
21.187796 -9.709804 25.163373 34.298664 -0.429713 0.747112 0.027800 0.008549 -476291.000000 0 0 1
19.918096 -9.159704 24.883013 33.163159 -0.431030 0.722249 0.034175 0.006958 507090.000000 0 0 1
18.985396 -8.943304 26.125353 33.510626 -0.440231 0.676747 0.040018 -0.006896 30885.000000 0 0 1
18.271896 -10.054204 26.645383 33.836750 -0.503039 0.664105 0.048444 -0.006981 -111338.000000 0 0 1
19.044296 -11.038204 27.249963 35.029811 -0.525290 0.679467 0.041983 -0.004416 -228168.000000 0 0 1
18.149896 -12.051204 28.039643 35.508757 -0.586142 0.660551 0.054911 -0.007271 -16722.500000 0 0 1
17.499796 -12.963204 27.207183 34.849940 -0.637563 0.675019 0.053366 -0.008951 -326137.000000 0 0 1
16.811996 -13.981404 27.919053 35.462606 -0.693734 0.664409 0.063029 -0.007246 -433075.000000 0 0 1
17.489696 -15.255804 28.574623 36.812201 -0.717284 0.682137 0.067104 0.000040 12404.300000 0 0 1
16.577796 -16.248204 29.071503 37.201879 -0.775358 0.673806 0.061511 0.002481 379880.000000 0 0 1
17.268296 -17.259404 29.792243 38.518292 -0.785141 0.686519 0.062638 0.002724 -18202.500000 0 0 1
17.694196 -18.468804 28.927553 38.613270 -0.806815 0.724002 0.064907 0.003030 -211719.000000 0 0 1
18.816396 -18.191804 28.132643 38.424525 -0.768523 0.749318 0.069054 -0.001569 -30509.700000 0 0 1
19.106296 -19.314304 27.295883 38.511792 -0.790812 0.783048 0.055859 0.002593 -353354.000000 0 0 1
20.150496 -18.954504 26.234723 38.125797 -0.754824 0.811916 0.056976 -0.001355 -484427.000000 0 0 1
21.357796 -18.521304 26.815493 38.964918 -0.714390 0.811797 0.068089 -0.004151 -724299.000000 0 0 1
22.128196 -18.033104 25.762423 38.451949 -0.683783 0.836601 0.050416 -0.004617 -72427.100000 0 0 1
23.578296 -17.679704 26.213463 39.441775 -0.643392 0.843822 0.038392 -0.004146 -35332.800000 0 0 1
24.255796 -18.881804 26.432633 40.540724 -0.661459 0.860574 0.026157 -0.009811 292205.000000 0 0 1
25.647196 -18.611804 26.630913 41.393036 -0.627758 0.871908 0.022092 -0.006287 649310.000000 0 0 1
26.494096 -19.893404 26.831253 42.633330 -0.644052 0.890081 0.022085 -0.000670 -167461.000000 0 0 1
26.178796 -20.580204 28.017303 43.518312 -0.666233 0.871336 0.037630 -0.005619 407.682000 0 0 1
27.105596 -21.609704 28.352033 44.783149 -0.673057 0.885250 0.046064 -0.001075 69200.400000 0 0 1
26.483396 -22.690904 29.241003 45.511358 -0.708427 0.873041 0.045726 -0.000401 -63759.000000 0 0 1
26.427396 -22.460704 30.596503 46.249719 -0.704437 0.847912 0.042286 -0.001216 -186992.000000 0 0 1
25.715996 -23.467404 31.249773 46.782260 -0.739711 0.839301 0.047034 -0.000238 -529675.000000 0 0 1
25.485896 -23.360104 32.775017 47.638505 -0.741905 0.812075 0.042724 -0.003701 -89437.200000 0 0 1
24.933196 -24.499504 33.381725 48.334559 -0.776625 0.808424 0.048942 -0.008253 -144160.000000 0 0 1
24.665496 -24.319404 -33.806091 48.401156 -0.778333 2.344034 0.042723 -0.006275 -404197.000000 0 0 1
24.475796 -25.738164 -33.087171 48.541514 -0.810533 2.320779 0.052763 -0.008938 248169.000000 0 0 1
23.278996 -26.469134 -33.244261 48.453149 -0.849436 2.326927 0.060058 -0.011498 -317163.000000 0 0 1
22.991796 -26.811784 33.946960 48.988678 -0.861949 0.805216 0.056148 -0.011606 733321.000000 0 0 1
21.643496 -27.646214 33.820031 48.749858 -0.906586 0.804119 0.081641 -0.017305 1022890.000000 0 0 1
21.770996 -28.977054 34.085337 49.753956 -0.926452 0.816086 0.084791 -0.024590 -11353.700000 0 0 1
20.524796 -29.638534 34.174049 49.674698 -0.965119 0.812126 0.096761 -0.028705 -223767.000000 0 0 1
20.545196 -31.155324 34.172631 50.601661 -0.987811 0.829389 0.073449 -0.027262 42475.200000 0 0 1
21.139496 -31.840374 -33.195461 50.622390 -0.984697 2.285967 0.061157 -0.028731 92201.300000 0 0 1
22.403096 -32.351944 -33.500121 51.679833 -0.965135 2.276046 0.049518 -0.024368 -428527.000000 0 0 1
23.061596 -33.060254 -32.257281 51.627026 -0.961708 2.245689 0.040468 -0.021201 54537.000000 0 0 1
24.267996 -33.809924 -32.424371 52.757809 -0.948239 2.232661 0.038174 -0.012881 931900.000000 0 0 1
24.856996 -34.272863 -31.175691 52.577782 -0.943313 2.205507 0.035923 -0.005992 187843.000000 0 0 1
25.665396 -33.313654 -30.353111 51.863508 -0.914356 2.195984 0.038892 -0.016986 -635965.000000 0 0 1
26.269296 -33.905264 -29.196721 51.885368 -0.911620 2.168464 0.052810 -0.007077 -59692.000000 0 0 1
26.903796 -32.870814 -28.501191 51.152933 -0.884894 2.161778 0.052555 -0.007405 -271579.000000 0 0 1
27.353096 -33.206634 -27.067791 50.828513 -0.881756 2.132385 0.054426 -0.004674 228252.000000 0 0 1
28.604196 -33.863844 -27.091641 51.951102 -0.869397 2.119385 0.050024 0.002785 -55052.600000 0 0 1
29.284996 -33.785154 -25.847151 51.644195 -0.856629 2.094955 0.050786 0.002500 335504.000000 0 0 1
-26.299474 -30.486094 9.594019 41.389727 0.858992 1.336872 0.035251 -0.002769 -253253.000000 0 0 1
-26.412354 -31.771394 10.205219 42.557966 0.877244 1.328641 0.036130 -0.005443 299411.000000 0 0 1
-25.194604 -32.094094 10.863819 42.223471 0.905255 1.310576 0.015430 -0.001857 256664.000000 0 0 1
-25.316104 -33.334594 11.718619 43.467532 0.921272 1.297824 0.001442 0.001697 58617.700000 0 0 1
-25.296694 34.082296 10.863219 43.812500 -0.932291 1.320235 0.011084 0.005552 145297.000000 0 0 1
-26.128514 33.032196 11.365019 43.623260 -0.901566 1.307229 0.007509 -0.005835 227478.000000 0 0 1
-25.718714 31.584496 10.945319 42.176209 -0.887407 1.308277 0.017744 -0.000663 -90806.600000 0 0 1
-25.827604 31.373496 9.575619 41.749896 -0.882050 1.339380 0.029880 -0.004411 71307.000000 0 0 1
-26.221674 30.065896 9.282319 40.959684 -0.853588 1.342189 0.046987 0.000570 -106880.000000 0 0 1
-25.704504 29.594496 7.909219 39.988891 -0.855627 1.371698 0.035752 0.007856 -145749.000000 0 0 1
-24.339404 29.262096 7.891819 38.871039 -0.876980 1.366349 0.017519 0.008884 -391872.000000 0 0 1
-23.813904 29.330196 6.640219 38.359548 -0.888827 1.396815 0.014277 0.007247 -473973.000000 0 0 1
-22.390704 28.779996 6.494919 37.038031 -0.909618 1.394527 0.028829 0.009831 -352166.000000 0 0 1
-22.326004 27.415796 6.612219 35.969400 -0.887368 1.385916 0.033464 0.003013 46876.400000 0 0 1
-22.896604 26.614496 5.576919 35.548388 -0.860350 1.413263 0.023911 -0.001274 -538494.000000 0 0 1
-23.304104 25.161896 6.064419 34.827854 -0.823711 1.395779 0.041931 -0.006017 769597.000000 0 0 1
-24.456704 25.071096 6.967319 35.710415 -0.797803 1.374431 0.046080 -0.015147 1507600.000000 0 0 1
-24.865604 23.728096 7.307619 35.138612 -0.761994 1.361302 0.054044 -0.026918 177780.000000 0 0 1
-25.488884 22.858896 6.188019 34.792297 -0.731054 1.391989 0.036537 -0.033994 295183.000000 0 0 1
-26.783874 23.159896 5.635919 35.854153 -0.712964 1.412952 0.041029 -0.035121 877789.000000 0 0 1
-26.928434 22.431396 4.467019 35.330756 -0.694542 1.444023 0.034739 -0.029401 -32419.400000 0 0 1
-26.628634 23.222696 3.185119 35.475664 -0.717182 1.480892 0.024818 -0.027434 782809.000000 0 0 1
-25.244124 23.633696 3.147119 34.723504 -0.752462 1.480038 0.026500 -0.025734 1071570.000000 0 0 1
-25.064684 24.469696 1.999819 35.085662 -0.773387 1.513767 0.021005 -0.017187 497256.000000 0 0 1
-23.605804 25.009896 1.824919 34.439210 -0.814272 1.517782 0.024050 -0.006294 510729.000000 0 0 1
-23.320904 25.794196 0.646719 34.779640 -0.835713 1.552200 0.018902 -0.005733 -290567.000000 0 0 1
-22.128804 26.531996 0.819119 34.558671 -0.875640 1.547092 0.034714 -0.011148 -404917.000000 0 0 1
-21.458004 26.894296 -0.514981 34.409508 -0.897359 1.585763 0.042811 -0.004267 67942.700000 0 0 1
-21.056404 25.841096 -1.390781 33.362683 -0.887071 1.612495 0.047509 -0.010642 200908.000000 0 0 1
-20.022404 24.984996 -0.943481 32.031810 -0.895216 1.600255 0.047740 -0.019734 -251347.000000 0 0 1
-19.554104 24.058696 -2.106281 31.074431 -0.888319 1.638630 0.053554 -0.024105 -524551.000000 0 0 1
-20.611304 23.304196 -2.614481 31.220937 -0.846641 1.654636 0.058590 -0.022120 -299363.000000 0 0 1
-20.242504 22.276096 -3.547181 30.307852 -0.833190 1.688104 0.063697 -0.021588 -207441.000000 0 0 1
-21.427204 21.654296 -4.326381 30.769322 -0.790669 1.711871 0.057863 -0.016740 -251291.000000 0 0 1
-21.913304 22.574196 -5.226781 31.892106 -0.800253 1.735428 0.043182 -0.013987 -332951.000000 0 0 1
-23.039104 22.037196 -5.873181 32.418090 -0.763175 1.752972 0.049946 -0.007599 103562.000000 0 0 1
-23.334304 22.662996 -7.273281 33.331692 -0.770805 1.790775 0.048711 -0.003539 -62881.700000 0 0 1
-22.422104 22.187596 -8.208881 32.594875 -0.780141 1.825383 0.038566 -0.009513 -74974.700000 0 0 1
-22.308204 23.085196 -9.254781 33.410076 -0.802513 1.851473 0.046387 -0.009436 -175428.000000 0 0 1
-21.667704 22.562396 -10.553781 33.014139 -0.805624 1.896182 0.041239 -0.008950 -93306.100000 0 0 1
-22.534904 21.729296 -11.299481 33.281563 -0.767200 1.917194 0.018766 -0.010094 364614.000000 0 0 1
-21.819504 21.162296 -12.396681 32.826989 -0.770109 1.958039 0.009023 -0.005471 594758.000000 0 0 1
-22.719704 21.003496 -13.705081 33.840228 -0.746167 1.987768 -0.006560 -0.007551 757213.000000 0 0 1
-23.695904 19.972396 -13.567781 33.830122 -0.700336 1.983466 0.000835 -0.001448 549019.000000 0 0 1
-24.586204 19.955896 -14.690581 34.907483 -0.681817 2.005171 0.006212 -0.006427 634225.000000 0 0 1
-25.389504 18.601196 -14.871181 34.810679 -0.632293 2.012192 0.044409 -0.007666 -203116.000000 0 0 1
-24.781604 17.680996 -15.698781 34.251967 -0.619711 2.046914 0.037646 -0.001924 -233365.000000 0 0 1
-25.511994 16.496796 -16.009481 34.341077 -0.574002 2.055776 0.057225 -0.007155 -209619.000000 0 0 1
-24.998204 15.701396 -17.256281 34.193907 -0.560826 2.099784 0.057289 0.004513 473848.000000 0 0 1
-23.914304 14.802196 -17.002981 32.864879 -0.554250 2.114560 0.065210 0.004012 489202.000000 0 0 1
-23.566904 14.086896 -18.165181 32.921321 -0.538757 2.155288 0.071963 -0.005132 175913.000000 0 0 1
-22.518404 12.950196 -17.899981 31.546718 -0.521905 2.174156 0.075827 0.000264 655185.000000 0 0 1
-21.235604 13.307696 -17.423781 30.522676 -0.559799 2.178334 0.065019 -0.005734 932989.000000 0 0 1
-20.394104 12.149796 -17.104781 29.259367 -0.537289 2.195173 0.069841 -0.008984 787941.000000 0 0 1
-19.236404 12.448896 -16.104881 28.006810 -0.574371 2.183443 0.064965 -0.010832 515104.000000 0 0 1
-18.190904 13.224496 -16.686981 28.004492 -0.628607 2.209142 0.051934 -0.004721 481515.000000 0 0 1
-17.276804 13.711896 -15.693981 27.070372 -0.670863 2.189215 0.052188 0.006257 308202.000000 0 0 1
-16.441704 14.927096 -16.222081 27.500977 -0.737152 2.201698 0.027998 0.010275 157954.000000 0 0 1
-15.507904 14.487596 -17.183781 27.306919 -0.751396 2.251427 0.040854 0.003913 4090.950000 0 0 1
-14.746904 15.527196 -17.747681 27.812680 -0.811167 2.262844 0.043093 0.002494 70384.200000 0 0 1
-13.872604 15.130296 -18.960981 27.944477 -0.828735 2.316547 0.042666 -0.000583 -282271.000000 0 0 1
-12.924804 14.209596 -18.621081 26.752716 -0.832712 2.340670 0.038204 0.002425 -1124540.000000 0 0 1
-11.937804 13.943196 -19.547081 26.814403 -0.862729 2.387623 0.034884 -0.003065 -84290.800000 0 0 1
-11.328104 12.548796 -19.388581 25.723827 -0.836478 2.424502 0.029705 -0.012252 304006.000000 0 0 1
-12.182904 11.605396 -20.045581 26.171237 -0.761126 2.443297 0.038343 -0.008812 204490.000000 0 0 1
-11.721204 10.331296 -19.949381 25.339694 -0.722454 2.477178 0.030034 0.002146 -238193.000000 0 0 1
-12.199204 9.459896 -21.147381 26.182473 -0.659592 2.511024 0.044784 0.002582 -195628.000000 0 0 1
-11.478804 9.651496 -22.325481 26.895007 -0.699135 2.550079 0.034974 -0.005844 -193464.000000 0 0 1
-11.944504 8.856696 -23.441181 27.759704 -0.638031 2.576300 0.025375 0.013827 -35508.300000 0 0 1
-11.211804 9.166296 -24.758281 28.682712 -0.685355 2.612326 0.029670 -0.016156 567382.000000 0 0 1
-9.855004 8.667296 -24.828481 28.083742 -0.721363 2.655334 0.025428 -0.013422 896876.000000 0 0 1
-9.478804 8.037396 -26.077401 28.887338 -0.703293 2.696865 0.005758 -0.020380 -131123.000000 0 0 1
-9.158304 8.940296 -27.290741 30.142793 -0.773353 2.703075 0.037404 -0.019615 -65357.500000 0 0 1
-7.879804 9.542796 -27.336091 30.006968 -0.880560 2.716478 0.045432 -0.020906 124370.000000 0 0 1
-7.829904 10.742196 -26.552151 29.693751 -0.940942 2.677437 0.022235 -0.017375 -244901.000000 0 0 1
-6.478004 11.476796 -26.579801 29.667612 -1.056932 2.681294 0.013109 -0.018247 -225933.000000 0 0 1
-6.273904 12.070496 -27.839531 30.985451 -1.091457 2.687071 0.025830 -0.021907 -476303.000000 0 0 1
-4.950904 12.462396 -27.992931 31.039119 -1.192648 2.694851 0.046903 -0.017541 -823305.000000 0 0 1
-4.441304 12.560796 -29.436691 32.311260 -1.230932 2.716584 0.049633 -0.020654 463970.000000 0 0 1
-3.023404 12.731496 -29.504441 32.276059 -1.337641 2.724148 0.064790 -0.029382 571079.000000 0 0 1
-2.571704 12.676596 -30.860211 33.461356 -1.370642 2.744694 0.066844 -0.022566 -396730.000000 0 0 1
-1.054804 12.542596 -30.899261 33.364556 -1.486896 2.754765 0.073821 -0.032173 -814507.000000 0 0 1
-0.604504 11.302696 -30.382391 32.422307 -1.517364 2.784975 0.059975 -0.013529 -116742.000000 0 0 1
0.792596 11.226596 -30.247511 32.273465 1.500313 2.785383 0.063892 -0.019843 462350.000000 0 0 1
1.639496 10.745296 -31.509651 33.331778 1.419386 2.809413 0.070203 -0.015990 39650.600000 0 0 1
1.656196 11.653796 -32.572411 34.634028 1.429625 2.794819 0.071228 -0.023880 293028.000000 0 0 1
1.644596 10.964996 -33.772931 35.546402 1.421920 2.824379 0.068187 -0.018686 -79167.100000 0 0 1
1.822396 11.925296 33.525911 35.630332 1.419152 0.345408 0.060547 -0.021026 -1108260.000000 0 0 1
3.158196 12.308396 33.283067 35.626302 1.319626 0.364710 0.070070 -0.024666 -207475.000000 0 0 1
3.327196 13.142296 32.154603 34.895683 1.322839 0.399002 0.068852 -0.017806 26868.200000 0 0 1
4.839896 13.229096 31.885663 34.858702 1.220070 0.416002 0.065776 -0.016659 -126329.000000 0 0 1
5.411896 12.002696 31.483973 34.126147 1.147202 0.396091 0.072326 -0.015588 -533591.000000 0 0 1
6.799096 11.981896 31.369783 34.261594 1.054657 0.413808 0.084354 -0.003358 59968.500000 0 0 1
7.495696 10.582796 30.981973 33.586659 0.954528 0.396421 0.073927 0.001423 356154.000000 0 0 1
7.289596 10.288796 29.584543 32.159644 0.954389 0.402901 0.069138 -0.008667 -87753.800000 0 0 1
8.123896 9.287196 29.081293 31.590684 0.852113 0.401271 0.066619 -0.003318 -174170.000000 0 0 1
7.397296 8.434796 28.061603 30.221174 0.850836 0.380333 0.057369 -0.002694 -347028.000000 0 0 1
6.591396 7.459896 28.613173 30.295383 0.847129 0.334809 0.060265 -0.002875 -449178.000000 0 0 1
5.900796 6.758696 27.613973 29.034994 0.853062 0.314153 0.066525 -0.003757 23224.900000 0 0 1
4.985296 5.630696 28.140883 29.128461 0.846118 0.261142 0.074163 -0.017531 -234412.000000 0 0 1
5.706396 4.471296 28.479593 29.387798 0.664635 0.249257 0.062148 -0.017831 60380.900000 0 0 1
5.120196 3.870196 29.626103 30.313377 0.647246 0.213347 0.067006 -0.022672 -602773.000000 0 0 1
5.875996 2.712396 30.370833 31.052728 0.432464 0.209953 0.074530 -0.018143 58230.300000 0 0 1
6.118496 1.523996 29.631143 30.294607 0.244113 0.209670 0.069755 -0.005551 299862.000000 0 0 1
7.284996 1.562696 28.805903 29.753878 0.211307 0.253105 0.060353 -0.003205 256941.000000 0 0 1
7.529296 0.159096 28.118583 29.109626 0.021127 0.261687 0.044757 -0.003239 19220.900000 0 0 1
7.733496 -0.916904 28.977613 30.005829 -0.118012 0.262544 0.026808 -0.003897 -142997.000000 0 0 1
7.701296 -2.168004 28.246513 29.357720 -0.274410 0.276014 0.038894 -0.005904 -257840.000000 0 0 1
7.990196 -3.417804 29.151673 30.419479 -0.404197 0.289725 0.044118 -0.004241 454277.000000 0 0 1
9.348896 -3.575104 29.537223 31.187029 -0.365251 0.326722 0.044284 -0.011619 274809.000000 0 0 1
10.128796 -4.383604 28.673223 30.723968 -0.408447 0.367433 0.048739 -0.007256 648557.000000 0 0 1
11.656196 -4.363404 29.027483 31.583239 -0.358194 0.405060 0.045619 -0.011260 1086140.000000 0 0 1
12.581096 -5.372704 28.630823 31.731277 -0.403602 0.445744 0.056668 -0.013050 420594.000000 0 0 1
12.528696 -6.603804 29.351093 32.589341 -0.485087 0.449568 0.067565 -0.013153 -327526.000000 0 0 1
11.660996 -7.784004 28.779193 32.012677 -0.588596 0.453330 0.069491 -0.009854 124627.000000 0 0 1
10.304996 -7.436804 28.916763 31.586044 -0.625122 0.414068 0.066427 -0.003921 -106566.000000 0 0 1
9.379296 -8.382504 28.339103 31.005521 -0.729337 0.417756 0.056637 -0.014323 1848980.000000 0 0 1
7.872896 -7.903804 28.489033 30.595386 -0.787357 0.373230 0.065216 -0.014089 1082960.000000 0 0 1
7.355396 -7.884504 29.795423 31.686504 -0.820103 0.347230 0.064086 -0.007237 -1159810.000000 0 0 1
6.042696 -7.498204 29.709663 31.231416 -0.892477 0.313452 0.043475 -0.011624 -1067700.000000 0 0 1
5.520996 -6.917204 31.040873 32.277933 -0.897182 0.277750 0.040583 -0.007945 26015.100000 0 0 1
5.626996 -7.766604 32.134693 33.535380 -0.943808 0.290040 0.042448 0.001166 52864.500000 0 0 1
5.019296 -7.223204 33.320616 34.462030 -0.963512 0.258091 0.043896 0.000696 28773.900000 0 0 1
5.599296 -6.031204 34.101682 35.080654 -0.822517 0.236800 0.048170 -0.005813 -169283.000000 0 0 1
5.492596 -4.909204 33.305223 34.110215 -0.729371 0.217684 0.050876 0.002369 -232473.000000 0 0 1
6.271396 -3.849404 33.789373 34.581354 -0.550507 0.214429 0.057652 -0.004128 -2226.380000 0 0 1
6.425696 -2.644604 32.855052 33.581810 -0.390438 0.208422 0.049811 -0.007139 -199365.000000 0 0 1
5.181996 -2.080404 32.530525 33.006306 -0.381771 0.169998 0.049676 -0.012784 -165567.000000 0 0 1
5.342096 -0.886804 31.765373 32.223646 -0.164503 0.168852 0.055029 -0.008803 -590091.000000 0 0 1
4.020896 -0.367004 31.222233 31.482220 -0.091022 0.128605 0.046341 -0.010207 -182831.000000 0 0 1
3.153096 0.116496 32.229933 32.384011 0.036930 0.097587 0.034959 -0.010965 287535.000000 0 0 1
1.843196 0.459896 31.773233 31.829974 0.244517 0.059718 0.045322 -0.015248 792320.000000 0 0 1
0.931496 0.751696 33.013137 33.034830 0.678981 0.036241 0.036834 -0.017955 54791.600000 0 0 1
1.335596 1.907896 33.803474 33.883606 0.960046 0.068787 0.027205 -0.011680 340186.000000 0 0 1
0.609596 1.990596 -33.492251 33.556891 1.273626 3.079514 0.019893 -0.022385 32500.800000 0 0 1
1.198396 3.156896 -32.647001 32.821164 1.207988 3.038528 0.016101 -0.016286 -394794.000000 0 0 1
2.248696 2.726996 -31.844831 32.040387 0.881231 3.031052 0.008816 -0.005954 -616374.000000 0 0 1
2.931696 3.851396 -31.335231 31.706857 0.920163 2.988337 0.014881 -0.006522 -470340.000000 0 0 1
3.965196 3.458896 -30.266121 30.720104 0.717307 2.969461 0.020450 0.001749 -430176.000000 0 0 1
3.428596 2.848896 -29.066871 29.406708 0.693313 2.989417 0.016993 -0.006160 -379155.000000 0 0 1
4.366396 2.627796 -28.053851 28.512967 0.541759 2.961896 0.035819 -0.013160 -726315.000000 0 0 1
3.879696 1.957796 -26.766861 27.117335 0.467342 2.980644 0.027255 -0.017127 -237014.000000 0 0 1
3.801296 0.500596 -26.959151 27.230429 0.130937 3.000321 0.039731 -0.017005 98345.100000 0 0 1
3.300096 -0.110604 -25.759691 25.970455 -0.033503 3.014105 0.046104 -0.016331 -65072.000000 0 0 1
3.947096 -1.487504 -25.452221 25.799375 -0.360401 2.977360 0.053648 -0.022439 581372.000000 0 0 1
5.248096 -1.518304 -24.868481 25.461522 -0.281617 2.925340 0.044803 -0.026387 198589.000000 0 0 1
5.759896 -2.819104 -24.914781 25.726835 -0.455161 2.889672 0.049441 -0.025828 211899.000000 0 0 1
7.222796 -3.025404 -24.420981 25.645782 -0.396666 2.831291 0.054508 -0.028262 575614.000000 0 0 1
8.128596 -2.732004 -25.445521 26.851675 -0.324237 2.816536 0.047404 -0.019164 -263426.000000 0 0 1
9.469496 -3.150604 -25.228981 27.131147 -0.321190 2.764910 0.039827 -0.016584 550511.000000 0 0 1
-29.768924 -3.765804 17.313623 34.642917 0.125833 1.047459 0.099693 -0.023907 -448345.000000 0 0 1
-31.130334 -4.000104 17.479823 35.925517 0.127795 1.062651 0.093291 -0.018498 -787645.000000 0 0 1
-31.389554 -5.002704 18.485323 36.770074 0.158046 1.044045 0.083052 -0.020146 135970.000000 0 0 1
-32.849444 -4.879504 18.968023 38.245019 0.147463 1.051856 0.074485 -0.016152 833601.000000 0 0 1
-33.833744 -4.883804 17.898323 38.586575 0.143357 1.088462 0.064855 -0.013363 816085.000000 0 0 1
-35.167645 -4.984504 18.359723 39.983596 0.140798 1.093723 0.047134 -0.006350 278740.000000 0 0 1
-36.230414 -4.896004 17.249323 40.424657 0.134322 1.129952 0.028900 -0.008914 1997520.000000 0 0 1
34.924936 -5.330904 17.623923 39.481292 -0.151470 1.108073 0.032565 -0.005545 2367160.000000 0 0 1
33.922046 -5.126004 16.603223 38.113622 -0.149977 1.120065 0.025066 -0.006219 537318.000000 0 0 1
32.498016 -5.445704 17.066123 37.108346 -0.166028 1.092914 0.037158 -0.004514 -433542.000000 0 0 1
31.949386 -4.594104 18.021423 36.968105 -0.142814 1.061589 0.050654 -0.009682 270993.000000 0 0 1
31.027856 -5.324704 18.833623 36.684952 -0.169955 1.031668 0.071534 -0.013543 95850.000000 0 0 1
30.354896 -4.506504 19.945223 36.599730 -0.147384 0.994460 0.084450 -0.015057 91987.600000 0 0 1
29.355156 -3.524104 19.683523 35.518806 -0.119479 0.983429 0.083931 -0.013392 646186.000000 0 0 1
29.884116 -2.283404 19.194123 35.590571 -0.076260 1.001186 0.079592 -0.014890 127336.000000 0 0 1
28.813296 -1.189404 19.401523 34.756868 -0.041256 0.978573 0.061692 -0.002361 228932.000000 0 0 1
29.361556 0.081596 19.241323 35.104646 0.002779 0.990689 0.062927 -0.010047 -281267.000000 0 0 1
28.439536 0.998596 19.712923 34.617969 0.035099 0.964970 0.056277 -0.010868 -188365.000000 0 0 1
28.615256 2.397796 19.173923 34.528563 0.083599 0.982065 0.055839 -0.015206 77199.700000 0 0 1
28.457436 2.378396 17.741023 33.618839 0.083384 1.014893 0.053896 -0.017832 43106.500000 0 0 1
28.362036 3.668196 17.199123 33.371704 0.128621 1.029345 0.043806 -0.016798 -37936.100000 0 0 1
28.035586 3.630496 15.717323 32.345152 0.128779 1.063375 0.044667 -0.018409 -134145.000000 0 0 1
28.064596 4.916296 15.118923 32.254819 0.173418 1.082940 0.040790 -0.015455 197608.000000 0 0 1
27.743936 4.728196 13.739223 31.318495 0.168801 1.116652 0.050739 -0.014251 -343253.000000 0 0 1
27.129126 6.008296 13.137523 30.735706 0.217952 1.129142 0.043029 -0.006076 -145327.000000 0 0 1
26.010826 6.389096 13.912023 30.181584 0.240864 1.091738 0.046850 -0.012211 -17225.800000 0 0 1
25.450126 7.556696 13.322023 29.703348 0.288630 1.105707 0.068445 -0.020756 -224895.000000 0 0 1
24.294126 8.120996 14.205223 29.290673 0.322601 1.064463 0.070536 -0.020482 -103142.000000 0 0 1
23.012626 7.612496 13.996123 27.989686 0.319466 1.047145 0.066933 -0.012402 83418.500000 0 0 1
22.781026 6.340396 14.581223 27.781070 0.271449 1.018244 0.064682 -0.019877 -1527220.000000 0 0 1
21.390026 5.816496 14.332623 26.396760 0.265506 0.996828 0.073027 -0.015877 -1146210.000000 0 0 1
21.092626 5.508596 12.954123 25.358486 0.255456 1.034635 0.080436 -0.017035 777214.000000 0 0 1
20.012326 4.581696 12.856923 24.223658 0.225065 1.011301 0.077881 -0.015789 96756.600000 0 1 0
19.550626 4.425996 11.343723 23.032509 0.222634 1.055826 0.071883 -0.016399 -203074.000000 0 1 0
20.476726 3.756896 10.517623 23.324472 0.181453 1.102993 0.073285 -0.026337 365859.000000 0 1 0
20.102626 3.700396 9.171923 22.403854 0.182037 1.149011 0.075599 -0.021851 -824939.000000 0 1 0
21.202426 3.105096 8.354523 22.999621 0.145416 1.199047 0.076846 -0.014986 -1642740.000000 0 1 0
21.559426 1.789396 8.601723 23.280903 0.082808 1.192352 0.075606 -0.016061 100731.000000 0 1 0
22.388126 1.197496 7.646123 23.688086 0.053437 1.242127 0.070610 -0.011124 -600703.000000 0 1 0
23.880626 1.631396 7.759223 25.162498 0.068209 1.257323 0.069908 -0.014650 -445696.000000 0 0 1
24.737326 0.804396 8.519523 26.175650 0.032506 1.239282 0.067310 -0.004540 392015.000000 0 0 1
24.486326 0.905896 9.864123 26.414045 0.036979 1.188079 0.063436 -0.013934 -1005720.000000 0 0 1
25.383126 -0.029004 10.704823 27.548089 -0.001143 1.171699 0.052847 -0.018542 103000.000000 0 0 1
26.695626 0.519796 10.829723 28.813357 0.019469 1.185474 0.067206 -0.027985 404927.000000 0 0 1
27.378626 -0.232804 11.816223 29.820572 -0.008503 1.163374 0.059154 -0.023822 219257.000000 0 0 1
28.893196 0.084096 11.963823 31.272303 0.002911 1.178221 0.062537 -0.023217 428854.000000 0 0 1
29.177826 1.420996 12.423623 31.744467 0.048663 1.168684 0.060611 -0.018088 -20790.600000 0 0 1
30.551046 1.588296 12.691823 33.120560 0.051941 1.177537 0.048387 -0.013933 167045.000000 0 0 1
31.063466 2.979096 13.147423 33.862497 0.095611 1.172055 0.054163 -0.015748 -329494.000000 0 0 1
30.931926 3.939096 12.132923 33.459055 0.126665 1.199719 0.062668 -0.014233 442429.000000 0 0 1
31.747516 5.112396 12.318523 34.435264 0.159662 1.204961 0.067275 -0.014884 1048240.000000 0 0 1
33.208666 5.024096 11.753523 35.583738 0.150150 1.234169 0.067161 -0.014161 408387.000000 0 0 1
34.007496 4.061396 12.421023 36.431944 0.118864 1.222882 0.046103 -0.016784 487600.000000 0 0 1
35.346116 4.288596 11.965423 37.562100 0.120741 1.246596 0.045168 -0.009860 407617.000000 0 0 1
-36.068144 3.551396 12.758823 38.422793 -0.098147 1.232306 0.084100 -0.005582 -167427.000000 0 0 1
-35.842740 2.144496 12.470423 38.010687 -0.059759 1.236529 0.083910 -0.011277 773092.000000 0 0 1
35.546906 1.282896 12.762823 37.790449 0.036075 1.226296 0.067167 -0.002599 481937.000000 0 0 1
35.232866 0.959296 14.235523 38.012172 0.027221 1.186940 0.058015 0.002033 56907.800000 0 0 1
36.175606 0.064196 14.816523 39.092301 0.001775 1.182066 0.073283 -0.002996 188714.000000 0 0 1
35.921286 -0.144504 16.165623 39.391459 -0.004023 1.147921 0.072512 -0.006321 72299.200000 0 0 1
-35.713196 -1.205004 16.964223 39.555901 0.033728 1.127558 0.071122 -0.008279 -941191.000000 0 0 1
-34.461027 -0.691404 17.154023 38.500662 0.020061 1.109006 0.074624 -0.005474 -1314320.000000 0 0 1
-33.536804 -1.475204 17.852323 38.021032 0.043959 1.082029 0.072371 -0.009537 -106385.000000 0 0 1
-33.519344 -1.261304 19.385823 38.742063 0.037611 1.046757 0.066768 -0.008633 -570567.000000 0 0 1
-34.668372 -1.621504 20.108123 40.110621 0.046738 1.045677 0.064432 -0.016398 -179207.000000 0 0 1
-34.588177 -1.350804 21.511023 40.754028 0.039034 1.014758 0.063746 -0.012662 52310.200000 0 0 1
-35.043711 -2.591704 22.315823 41.626609 0.073822 1.004992 0.052211 -0.011266 149563.000000 0 0 1
-34.161288 -3.709404 22.168423 40.892448 0.108161 0.997844 0.060628 -0.017547 85433.100000 0 0 1
-34.568922 -4.953404 22.707123 41.655252 0.142322 0.994264 0.051959 -0.012713 -171259.000000 0 0 1
-34.752261 -4.987704 24.246193 42.667022 0.142548 0.966400 0.052534 -0.018350 619053.000000 0 0 1
-33.525314 -4.569704 24.857423 41.984764 0.135471 0.937186 0.050914 -0.022354 173989.000000 0 0 1
-33.503184 -4.733204 26.240543 42.818602 0.140347 0.911159 0.041175 -0.019489 52833.000000 0 0 1
-32.238254 -4.123004 26.886893 42.180674 0.127201 0.879648 0.035372 -0.013071 59249.400000 0 0 1
-32.292754 -2.685904 26.861223 42.089920 0.082983 0.878656 0.043710 -0.006839 -29825.200000 0 0 1
-32.019414 -2.110704 25.566563 41.028613 0.065824 0.898045 0.046832 -0.014637 -377814.000000 0 0 1
-31.796254 -0.603904 25.315643 40.647857 0.018991 0.898475 0.048815 -0.008865 -124303.000000 0 0 1
-32.936454 0.186496 25.575453 41.700703 -0.005662 0.910552 0.065441 -0.014037 -91554.000000 0 0 1
-32.879494 1.473296 24.979013 41.318069 -0.044779 0.921590 0.060744 -0.006536 -415536.000000 0 0 1
-34.290735 2.015896 24.729113 42.325493 -0.058721 0.946828 0.068997 -0.003835 -87298.400000 0 0 1
-34.943658 1.367096 23.656493 42.220349 -0.039103 0.976036 0.065503 0.000122 241294.000000 0 0 1
-36.051014 2.015796 23.008423 42.815028 -0.055857 1.003456 0.064252 0.002652 540604.000000 0 0 1
-35.834133 3.270796 22.087923 42.221553 -0.091024 1.020261 0.061759 0.003305 -437823.000000 0 0 1
-35.100934 2.947196 20.943423 40.980343 -0.083767 1.034379 0.065278 -0.007399 -466513.000000 0 0 1
-35.865784 2.998496 19.758123 41.057629 -0.083409 1.068740 0.075351 -0.005245 -28371.400000 0 0 1
-35.185410 2.453296 18.486223 39.821755 -0.069612 1.088038 0.085808 -0.005108 876642.000000 0 0 1
-34.061993 3.200896 17.926423 38.624108 -0.093697 1.088150 0.081842 -0.007385 1135960.000000 0 0 1
-33.661884 2.626096 16.678623 37.658934 -0.077856 1.111981 0.097068 -0.003620 26158.700000 0 0 1
-32.636994 3.465396 15.896623 36.467588 -0.105784 1.119746 0.108452 -0.010604 287426.000000 0 0 1
-33.240884 4.713996 15.497823 36.977840 -0.140874 1.138330 0.109084 -0.017232 470826.000000 0 0 1
-32.343004 5.467496 14.688623 35.940493 -0.167464 1.149775 0.106078 -0.013326 -99044.100000 0 0 1
-32.884654 6.814896 14.097523 36.422293 -0.204344 1.173358 0.110911 -0.020404 24384.500000 0 0 1
-31.988864 7.481896 13.211123 35.409038 -0.229760 1.188448 0.112781 -0.016907 190709.000000 0 0 1
-32.434444 8.761596 12.804323 35.954268 -0.263835 1.206675 0.107007 -0.015505 -59524.100000 0 0 1
-31.576774 9.374596 11.655823 34.940434 -0.288594 1.230686 0.109127 -0.012598 -1081.420000 0 0 1
-31.667074 10.749996 11.508123 35.366692 -0.327263 1.239368 0.095677 -0.007114 -4623.410000 0 0 1
-30.930724 11.270396 10.440223 34.535920 -0.349424 1.263691 0.072517 -0.013971 -251885.000000 0 0 1
-31.195744 12.755496 10.313023 35.245362 -0.388143 1.273845 0.079708 -0.007907 283956.000000 0 0 1
-30.447654 13.367596 9.268023 34.520262 -0.413698 1.298981 0.071400 -0.011737 216712.000000 0 0 1
-30.572204 14.790796 9.419523 35.244215 -0.450603 1.300243 0.066964 -0.006277 -242262.000000 0 0 1
-29.911664 15.705596 8.396123 34.811898 -0.483499 1.327209 0.070589 -0.013061 568046.000000 0 0 1
-28.484764 15.606496 8.579423 33.593913 -0.501221 1.312549 0.075263 -0.006092 976433.000000 0 0 1
-27.772574 16.628296 7.854923 33.309397 -0.539486 1.332737 0.060503 -0.030811 687363.000000 0 0 1
-26.326024 16.774696 8.448023 32.339126 -0.567318 1.306498 0.069360 -0.020566 356768.000000 0 0 1
-26.173444 17.361296 9.757423 32.888768 -0.585680 1.269583 0.061193 -0.020519 122927.000000 0 0 1
-26.459614 18.731196 9.962023 33.914757 -0.616019 1.272662 0.056639 -0.027553 -241660.000000 0 0 1
-26.456174 19.059996 11.465723 34.564076 -0.624311 1.232666 0.069616 -0.014344 98360.500000 0 0 1
-25.147794 19.136896 12.005723 33.804877 -0.650490 1.207724 0.064905 -0.006683 252856.000000 0 0 1
-25.098664 19.327096 13.401523 34.395936 -0.656207 1.170572 0.073315 -0.013729 -304119.000000 0 0 1
-25.671884 18.339796 14.429823 34.693134 -0.620320 1.141834 0.060469 -0.010634 28706.000000 0 0 1
-24.991004 17.071896 14.547223 33.580077 -0.599308 1.122745 0.067492 -0.014303 411055.000000 0 0 1
-25.428664 16.354496 15.717923 34.075498 -0.571546 1.091373 0.064509 -0.013549 -44341.800000 0 0 1
-24.405604 15.251796 16.148123 33.000192 -0.558549 1.059470 0.070546 -0.003891 212776.000000 0 0 1
-23.178804 15.859396 16.571523 32.609704 -0.600056 1.037729 0.066204 -0.001118 1000920.000000 0 0 1
-22.118004 14.897596 16.829223 31.533589 -0.592753 1.007836 0.055070 -0.008434 691647.000000 0 0 1
-22.412604 13.837396 17.925523 31.860991 -0.553111 0.973249 0.071332 -0.003154 -809605.000000 0 0 1
-22.474704 14.296896 19.286123 32.885682 -0.566565 0.944115 0.082218 -0.002320 96123.900000 0 0 1
-22.875204 13.250496 20.121223 33.222195 -0.525024 0.920206 0.083246 -0.006097 -490694.000000 0 0 1
-22.508604 13.535496 21.567223 33.985173 -0.541410 0.883297 0.085715 -0.006586 -898172.000000 0 0 1
-21.166804 13.647896 21.864923 33.352264 -0.572696 0.855852 0.096567 -0.004655 -857455.000000 0 0 1
-20.615504 14.980596 21.710723 33.477944 -0.628400 0.865173 0.089331 0.011665 -754019.000000 0 0 1
-19.175204 15.039296 22.288423 33.024880 -0.665100 0.829970 0.088952 0.001341 446381.000000 0 0 1
-18.188904 14.555296 21.385323 31.623170 -0.674881 0.828130 0.059561 -0.000651 52209.400000 0 0 1
-17.920204 15.475396 20.290623 31.182222 -0.712321 0.862276 0.064653 -0.003513 -1137190.000000 0 0 1
-16.661304 15.061796 19.444323 29.707549 -0.735020 0.857243 0.045855 0.000506 910925.000000 0 0 1
-15.469604 14.983296 20.209623 29.533653 -0.769430 0.817165 0.034847 -0.001964 229463.000000 0 0 1
-14.867404 16.204696 20.673523 30.183214 -0.828410 0.816283 0.017142 -0.002711 -841281.000000 0 0 1
-13.713604 15.924896 21.664623 30.183127 -0.859869 0.770198 -0.007395 0.006337 -440562.000000 0 0 1
-12.668304 15.307396 20.918323 28.850971 -0.879455 0.759693 -0.003005 0.001800 -752847.000000 0 0 1
-11.877904 14.879996 21.986423 29.084389 -0.897126 0.713688 0.007340 0.002624 -481533.000000 0 0 1
-10.500904 14.270196 21.653423 27.978174 -0.936405 0.685757 -0.010058 0.005132 -901941.000000 0 0 1
-10.248904 13.263796 22.570323 28.113836 -0.912926 0.638788 0.007061 -0.002871 989284.000000 0 0 1
-8.983304 12.551096 22.484323 27.272230 -0.949585 0.601584 0.006772 0.014500 2134630.000000 0 0 1
-7.680804 13.401896 22.813823 27.551335 -1.050381 0.595180 0.001592 0.020138 122307.000000 0 0 1
-7.364104 14.295096 21.707523 27.014743 -1.095103 0.637572 0.002863 0.020618 -357094.000000 0 0 1
-6.564404 15.409296 22.024923 27.670111 -1.168077 0.650167 0.012690 0.012083 -127916.000000 0 0 1
-7.324304 16.559496 22.728723 29.059545 -1.154362 0.672698 0.004260 -0.001287 597181.000000 0 0 1
-8.296504 17.281196 21.962523 29.151743 -1.123204 0.717600 -0.023315 0.008234 -6889.140000 0 0 1
-7.720804 18.052996 20.934623 28.701566 -1.166663 0.753367 0.005370 0.007518 -794019.000000 0 0 1
-8.590104 18.020696 19.625623 27.994650 -1.125978 0.793929 0.012402 0.001281 1591740.000000 0 0 1
-9.781804 18.835696 19.604923 28.893254 -1.091810 0.825037 -0.001272 0.002415 1098250.000000 0 0 1
-10.811604 18.520096 20.544223 29.697640 -1.042391 0.806846 -0.003949 0.007492 -854072.000000 0 0 1
-12.077404 19.352496 20.553423 30.705471 -1.012863 0.837431 0.000821 0.000060 -403147.000000 0 0 1
-12.816804 19.167596 19.379323 30.120182 -0.981408 0.871865 0.008633 0.003388 -1211470.000000 0 0 1
-14.035304 19.773596 19.470523 31.098008 -0.953523 0.894252 0.005830 0.002089 -435492.000000 0 0 1
-15.037904 19.630896 18.249823 30.733803 -0.917113 0.935019 0.028393 0.003717 406811.000000 0 0 1
-15.733304 18.416696 18.046923 30.206009 -0.863814 0.930465 0.043093 0.002712 -68478.700000 0 0 1
-16.686804 18.654496 17.048323 30.283411 -0.841018 0.972834 0.045438 -0.008663 -904425.000000 0 0 1
-17.247504 17.340896 16.381023 29.436728 -0.788098 0.980650 0.049694 -0.012536 1074540.000000 0 0 1
-18.401904 16.777596 17.056523 30.183485 -0.739259 0.970248 0.052772 -0.012822 1075550.000000 0 0 1
-19.603204 17.509496 16.806623 31.198247 -0.729043 1.001898 0.063467 -0.016511 -309911.000000 0 0 1
34.354086 -9.217304 11.755919 37.461495 -0.262129 1.251590 0.042697 -0.009178 183106.000000 0 0 1
33.192476 -9.935704 11.346619 36.458257 -0.290848 1.254317 0.049843 -0.003331 477540.000000 0 0 1
32.716616 -10.888904 12.277819 36.601777 -0.321293 1.228721 0.038448 -0.000475 178788.000000 0 0 1
31.385766 -11.577604 11.801219 35.473596 -0.353395 1.231656 0.043166 0.007526 344847.000000 0 0 1
30.318646 -10.622804 11.903619 34.260188 -0.337006 1.215949 0.043780 0.000975 955953.000000 0 0 1
28.990486 -11.140704 11.861019 33.245261 -0.366889 1.205985 0.052769 0.008931 412416.000000 0 0 1
28.485266 -11.851704 13.052519 33.499874 -0.394278 1.170568 0.035640 0.012720 -1133830.000000 0 0 1
28.216346 -10.978604 14.147619 33.419262 -0.371063 1.133671 0.040184 -0.005223 156987.000000 0 0 1
27.951956 -11.616704 15.413419 33.968120 -0.393878 1.099815 0.045362 -0.014241 223634.000000 0 0 1
26.419426 -11.623704 15.729019 32.870939 -0.414480 1.071841 0.062305 -0.018602 508423.000000 0 0 1
26.014526 -10.393904 16.242419 32.382171 -0.380112 1.045366 0.059672 -0.016946 -168173.000000 0 0 1
25.480726 -9.528504 15.281319 31.202220 -0.357849 1.058992 0.081539 -0.020556 -120343.000000 0 0 1
24.940126 -8.228504 15.927619 30.714935 -0.318685 1.025627 0.112906 -0.032670 -67729.100000 0 0 1
26.032226 -7.371904 16.112319 31.490135 -0.275959 1.033678 0.091703 -0.027768 -12078.100000 0 0 1
25.713326 -6.017404 16.458119 31.116780 -0.229882 1.013475 0.098046 -0.026718 -249649.000000 0 0 1
26.945626 -5.136904 16.276619 31.896440 -0.188379 1.035268 0.094264 -0.025440 -113808.000000 0 0 1
27.310626 -4.923704 14.927319 31.510919 -0.178369 1.077288 0.103156 -0.025453 42518.900000 0 0 1
28.498386 -4.179704 14.826419 32.395226 -0.145626 1.095420 0.088766 -0.020110 -100968.000000 0 0 1
28.721876 -3.584104 13.437819 31.911863 -0.124145 1.136148 0.082299 -0.022015 8516.540000 0 0 1
29.259946 -4.406604 12.409119 32.086584 -0.149479 1.173704 0.062123 -0.025129 383736.000000 0 0 1
29.483446 -3.673004 11.210719 31.756020 -0.123940 1.209992 0.060771 -0.023011 33164.200000 0 0 1
30.053956 -4.450304 9.982219 31.979528 -0.147009 1.253347 0.066765 -0.024010 1290790.000000 0 0 1
31.396626 -5.001904 10.135419 33.369056 -0.157986 1.262184 0.068526 -0.025409 1292360.000000 0 0 1
31.747716 -5.642204 8.917919 33.455661 -0.175884 1.300975 0.066352 -0.028407 -879673.000000 0 0 1
33.044016 -6.377904 9.145619 34.874447 -0.190668 1.305449 0.057437 -0.021268 -1040030.000000 0 0 1
34.150296 -5.528604 9.284819 35.819214 -0.160498 1.308589 0.061805 -0.021430 -608073.000000 0 0 1
35.340286 -6.222904 9.050819 37.007806 -0.174299 1.323725 0.078963 -0.024637 -362668.000000 0 0 1
-35.969703 -5.401704 8.591719 37.373996 0.149060 1.338837 0.073141 -0.017381 -215764.000000 0 0 1
-35.929864 -4.973104 7.240919 36.988077 0.137538 1.373760 0.089738 -0.020177 -160645.000000 0 0 1
-35.053550 -3.901104 7.048319 35.967329 0.110834 1.373555 0.086154 -0.007220 -275465.000000 0 0 1
-35.154950 -3.274104 5.666919 35.758974 0.092866 1.411650 0.088514 -0.019403 171255.000000 0 0 1
-34.348874 -3.871104 4.632519 34.875361 0.112226 1.437572 0.093949 -0.024051 550331.000000 0 0 1
-34.472657 -3.082204 3.479419 34.784629 0.089173 1.470601 0.092468 -0.025934 151157.000000 0 0 1
-33.528084 -3.539804 2.332019 33.794984 0.105188 1.501737 0.102870 -0.020206 -28349.200000 0 0 1
-33.981394 -4.689904 1.585319 34.340116 0.137147 1.524615 0.098564 -0.012473 670139.000000 0 0 1
-35.117334 -4.448204 0.741919 35.405708 0.125996 1.549840 0.095019 -0.017058 228382.000000 0 0 1
-34.758675 -4.717604 -0.721981 35.084791 0.134900 1.591376 0.102647 -0.013971 -1126480.000000 0 0 1
-34.602641 -6.085004 -1.066381 35.149783 0.174074 1.601139 0.097435 -0.016594 190311.000000 0 0 1
-33.866074 -6.311904 -2.253581 34.522887 0.184264 1.636121 0.081268 -0.011839 -1018270.000000 0 0 1
-32.391204 -5.966004 -2.185481 33.008478 0.182145 1.637054 0.075739 -0.015977 -1484910.000000 0 0 1
-31.706854 -6.868104 -1.314081 32.468789 0.213317 1.611280 0.074441 -0.012649 139621.000000 0 0 1
-30.522934 -6.240304 -0.829481 31.165348 0.201667 1.597415 0.080282 -0.021642 1113.040000 0 0 1
-29.855884 -7.204904 0.170519 30.713410 0.236795 1.565244 0.070610 -0.011151 -69673.300000 0 0 1
-29.225124 -8.342304 -0.472581 30.396139 0.278055 1.586344 0.072030 -0.003352 555116.000000 0 0 1
-28.769294 -9.278704 0.508919 30.232857 0.311988 1.553962 0.072763 0.000053 -77244.900000 0 0 1
-28.382494 -10.653504 -0.128681 30.316327 0.359082 1.575041 0.061944 -0.002347 153220.000000 0 0 1
-27.285664 -10.653904 -1.029581 29.309950 0.372254 1.605931 0.082905 -0.009430 422021.000000 0 0 1
-26.737784 -11.931504 -1.375181 29.311449 0.419724 1.617730 0.065561 -0.000623 -190560.000000 0 0 1
-27.551994 -12.840504 -2.329681 30.486363 0.436118 1.647288 0.058933 -0.007009 -3574.240000 0 0 1
-28.629604 -13.503304 -1.658781 31.697713 0.440716 1.623151 0.060931 -0.008282 461256.000000 0 0 1
-28.952834 -14.641504 -2.461281 32.537642 0.468199 1.646513 0.046858 -0.009707 -73880.100000 0 0 1
-29.885434 -15.704104 -1.814881 33.809050 0.483821 1.624502 0.059659 -0.012322 373464.000000 0 0 1
-29.205014 -16.485904 -0.822081 33.546888 0.513899 1.595304 0.042961 -0.008050 298569.000000 0 0 1
-30.094174 -17.186504 -0.003581 34.655956 0.518891 1.570900 0.037684 -0.001042 -181606.000000 0 0 1
-30.496354 -18.617904 -0.351981 35.732029 0.548101 1.580647 0.039437 0.004125 599502.000000 0 0 1
-29.398374 -19.554204 -0.202781 35.308249 0.586949 1.576540 0.054126 -0.005159 975140.000000 0 0 1
-29.824054 -20.934104 -0.120581 36.437967 0.612013 1.574106 0.057592 -0.007395 33055.100000 0 0 1
-30.665984 -21.429004 1.090319 37.427177 0.609912 1.541660 0.050286 -0.010260 -473400.000000 0 0 1
-30.060004 -21.450204 2.356419 37.003619 0.619782 1.507072 0.065543 -0.016469 -225972.000000 0 0 1
-30.931474 -21.970104 3.332419 38.086042 0.617594 1.483187 0.063888 -0.013532 -10926.800000 0 0 1
-30.195854 -22.305604 4.636919 37.826322 0.636228 1.447903 0.067338 -0.016276 252636.000000 0 0 1
-29.407714 -21.165104 5.067719 36.584930 0.623834 1.431830 0.057864 -0.010908 202190.000000 0 0 1
-28.843914 -21.343704 6.331719 36.436462 0.637053 1.396135 0.046622 -0.012118 -37541.500000 0 0 1
-28.147064 -20.095904 6.864419 35.259365 0.620034 1.374861 0.048332 -0.006740 -66616.400000 0 0 1
-27.408354 -20.298904 8.046419 35.042949 0.637464 1.339113 0.049263 -0.015796 -256181.000000 0 0 1
-26.897044 -19.024604 8.400219 33.999268 0.615617 1.321140 0.056215 -0.015834 102026.000000 0 0 1
-25.865244 -19.114704 9.545219 33.548383 0.636431 1.282290 0.055574 -0.012116 -178027.000000 0 0 1
-26.427284 -19.451004 10.773719 34.537168 0.634494 1.253556 0.051844 -0.015590 840.055000 0 0 1
-25.484784 -19.640804 11.842319 34.285215 0.656610 1.218125 0.045528 -0.002409 207756.000000 0 0 1
-25.135004 -18.327104 12.680019 33.592173 0.630021 1.183734 0.049181 -0.014190 -470924.000000 0 0 1
-24.319704 -17.432204 11.988419 32.234329 0.621908 1.189726 0.047218 -0.008090 -121822.000000 0 0 1
-23.916204 -16.211904 12.625219 31.531045 0.595714 1.158836 0.047180 -0.000656 620472.000000 0 0 1
-22.976804 -16.341104 13.890019 31.430842 0.618203 1.113055 0.045355 -0.004990 -194026.000000 0 0 1
-23.562504 -16.974504 15.010519 32.690076 0.624289 1.093728 0.044735 -0.020974 -583239.000000 0 0 1
-22.683204 -17.270604 16.050419 32.717235 0.650746 1.058041 0.054202 -0.018613 -764318.000000 0 0 1
-23.337804 -18.083604 17.179119 34.158337 0.659225 1.043815 0.047235 0.001343 -175301.000000 0 0 1
-24.183904 -17.242704 17.902919 34.679772 0.619386 1.028347 0.056378 -0.006580 -541873.000000 0 0 1
-24.960804 -17.938104 18.810319 36.036724 0.623134 1.021630 0.061137 0.002471 -186832.000000 0 0 1
-26.035444 -17.038104 19.486319 36.713185 0.579476 1.011285 0.092972 -0.000449 164051.000000 0 0 1
-25.482204 -16.287004 20.566319 36.572978 0.568711 0.973588 0.105722 -0.007578 301148.000000 0 0 1
-26.360664 -15.309604 21.088419 37.067371 0.526163 0.965603 0.101784 -0.011304 288661.000000 0 0 1
-25.574234 -14.606704 22.242319 36.906883 0.518936 0.923965 0.088707 -0.009493 -209969.000000 0 0 1
-24.460004 -13.991504 21.694419 35.562646 0.519589 0.914693 0.086678 -0.009762 -495615.000000 0 0 1
-23.618104 -13.445504 22.718419 35.422069 0.517531 0.874522 0.091025 -0.009971 757486.000000 0 0 1
-22.483104 -12.600304 22.057319 33.923192 0.510819 0.862931 0.070534 -0.009073 -53110.100000 0 0 1
-23.114404 -11.493604 21.491219 33.589450 0.461444 0.876532 0.071178 -0.007241 397218.000000 0 0 1
-22.295904 -10.508604 20.860019 32.290533 0.440445 0.868450 0.055326 -0.007274 -626721.000000 0 0 1
-22.147604 -9.238104 21.753619 32.389487 0.395173 0.834395 0.062185 -0.006521 48387.700000 0 0 1
-21.636004 -9.381004 23.102019 33.012471 0.409118 0.795683 0.061852 -0.009191 710924.000000 0 0 1
-20.230204 -9.616404 23.071019 32.156000 0.443733 0.770630 0.037326 -0.007737 45392.300000 0 0 1
-19.509304 -9.810704 24.400219 32.744978 0.465943 0.730023 0.043850 -0.014386 53024.700000 0 0 1
-19.677404 -11.067404 25.021819 33.701322 0.512346 0.734064 0.041557 -0.011347 79698.100000 0 0 1
-18.920904 -11.124804 26.232119 34.203596 0.531522 0.696737 0.053693 -0.014748 -532123.000000 0 0 1
-18.880004 -12.509704 26.899419 35.164272 0.585175 0.699810 0.046651 -0.020831 1409340.000000 0 0 1
-20.148604 -12.702704 27.572719 36.435968 0.562509 0.712478 0.059298 -0.019661 2020860.000000 0 0 1
-21.382704 -12.938404 26.844319 36.677511 0.544152 0.749688 0.046751 -0.011285 818383.000000 0 0 1
-22.622004 -13.061704 27.745119 38.107149 0.523628 0.755277 0.049029 -0.014140 23220.600000 0 0 1
-22.669504 -14.250004 28.510919 39.113189 0.561182 0.754033 0.042890 -0.013697 -360185.000000 0 0 1
-21.919404 -14.237804 29.705619 39.567653 0.576061 0.721592 0.040788 -0.009844 -241485.000000 0 0 1
-22.249804 -15.269004 30.770819 40.927248 0.601440 0.719945 0.030622 -0.015925 -892200.000000 0 0 1
-22.005204 -16.673604 30.460819 41.110821 0.648418 0.736321 0.030030 -0.018259 -155211.000000 0 0 1
-22.281704 -17.623704 31.493519 42.413572 0.669198 0.733951 0.032552 -0.014134 276876.000000 0 0 1
-23.747304 -17.777304 32.046319 43.668451 0.642606 0.746816 0.034457 -0.013395 706701.000000 0 0 1
-24.256204 -16.752804 32.898419 44.173814 0.604430 0.730637 0.038774 -0.018885 757325.000000 0 0 1
-25.472614 -17.188904 33.561619 45.504888 0.593612 0.741378 0.045566 -0.020200 933018.000000 0 0 1
-26.260874 -16.106804 -34.130185 45.977518 0.550170 2.407328 0.050155 -0.020167 324633.000000 0 0 1
-25.726704 -15.751004 -32.821385 44.578030 0.549373 2.398335 0.044380 -0.022030 136293.000000 0 0 1
-26.437194 -14.638104 -32.311885 44.240900 0.505675 2.389649 0.055666 -0.022803 -155270.000000 0 0 1
-25.978464 -14.178204 -30.896485 42.784283 0.499588 2.377695 0.044851 -0.017298 -250083.000000 0 0 1
-26.384184 -15.111704 -29.916085 42.655139 0.520146 2.348083 0.047602 -0.011967 254068.000000 0 0 1
-25.695594 -14.858504 -28.693985 41.284179 0.524274 2.339266 0.044568 -0.007799 -149118.000000 0 0 1
-26.056664 -15.740204 -27.453685 40.992787 0.543411 2.304628 0.043430 -0.012212 -175984.000000 0 0 1
-27.287324 -15.416104 -26.856985 41.274108 0.514252 2.279300 0.046596 -0.013720 75752.700000 0 0 1
-27.290004 -14.204404 -26.072585 40.327275 0.479912 2.273817 0.044213 -0.011521 -268751.000000 0 0 1
-26.298674 -14.191604 -24.838785 38.858553 0.494848 2.264267 0.031631 -0.019040 -165035.000000 0 0 1
-24.978604 -13.857504 -25.176885 38.076720 0.506502 2.293233 0.022251 -0.018999 -148841.000000 0 0 1
-24.091704 -14.291504 -24.174085 37.000590 0.535414 2.282788 0.014711 -0.017871 -5397.420000 0 0 1
-23.360604 -15.659904 -24.249085 37.134466 0.590552 2.282345 0.010294 -0.015023 -357999.000000 0 0 1
-22.431004 -15.849804 -25.297185 37.340511 0.615143 2.315118 0.012960 -0.003599 170384.000000 0 0 1
-22.087004 -17.215104 -25.408885 37.812789 0.662067 2.307656 0.025571 -0.005191 -320246.000000 0 0 1
-21.280404 -17.525904 -26.693185 38.373676 0.688949 2.340068 0.017876 -0.003465 -162901.000000 0 0 1
-21.899904 -17.583804 -27.976285 39.641752 0.676517 2.354246 0.023232 -0.004728 -70725.800000 0 0 1
-22.863504 -18.601304 -28.134285 40.746611 0.682967 2.332934 0.022029 -0.009787 -60045.900000 0 0 1
-23.712904 -18.457004 -29.415285 42.050230 0.661401 2.345532 0.031807 -0.015214 -49278.700000 0 0 1
-23.035604 -18.970404 -30.532885 42.693938 0.688922 2.367646 0.023952 -0.010191 322062.000000 0 0 1
-23.585904 -18.376604 -31.686285 43.566215 0.661888 2.385195 0.025554 -0.009539 -707700.000000 0 0 1
-22.812904 -18.727604 -32.940285 44.229109 0.687368 2.410979 0.027193 -0.012420 -300326.000000 0 0 1
-21.650404 -17.958604 -33.244585 43.548294 0.692461 2.439350 0.030613 -0.010560 417345.000000 0 0 1
-20.403104 -18.409904 -32.778385 42.774218 0.734089 2.443877 0.032453 -0.010995 -261768.000000 0 0 1
-19.837004 -19.620004 -33.579085 43.657831 0.779899 2.448294 0.037490 -0.016195 -956991.000000 0 0 1
-19.613504 -19.288404 33.564019 43.396722 0.777041 0.686573 0.028995 -0.013365 281739.000000 0 0 1
-19.264704 -20.394304 32.700419 43.085658 0.813873 0.709077 0.039501 -0.010781 346330.000000 0 0 1
-20.520104 -20.890904 31.902619 43.304523 0.794352 0.742613 0.048656 -0.011043 586381.000000 0 0 1
-21.353204 -21.598904 32.818919 44.716367 0.791118 0.746699 0.046827 -0.015802 304227.000000 0 0 1
-22.545104 -22.166204 32.254119 45.165812 0.776924 0.775420 0.047688 -0.008658 404993.000000 0 0 1
-22.504404 -23.415204 31.337019 45.130132 0.805230 0.803252 0.051830 -0.005277 -492998.000000 0 0 1
-22.104004 -24.611204 31.955419 45.993991 0.839017 0.802691 0.047291 -0.005810 11213.700000 0 0 1
-22.167504 -25.690524 31.060019 46.001370 0.858880 0.829564 0.053820 -0.002198 -175494.000000 0 0 1
-21.633604 -26.930014 31.798519 46.950871 0.894030 0.826748 0.077155 -0.009063 -518901.000000 0 0 1
-22.422004 -27.512334 32.770919 48.307432 0.886988 0.825237 0.052169 -0.012431 -676562.000000 0 0 1
-21.776104 -28.589674 33.374619 49.045218 0.919864 0.822370 0.061140 -0.014010 -631889.000000 0 0 1
-22.599504 -29.407564 -34.089685 50.375083 0.915564 2.314091 0.050888 -0.011620 -196129.000000 0 0 1
-23.662104 -30.234404 33.972819 51.265650 0.906742 0.846402 0.036614 -0.011983 880184.000000 0 0 1
-24.816804 -29.653214 33.335719 51.053473 0.873956 0.859314 0.022505 -0.007108 -346007.000000 0 0 1
-25.754044 -29.179534 -34.077385 51.729916 0.847674 2.289960 0.013030 -0.010237 -1247950.000000 0 0 1
-26.818874 -28.389044 33.957219 51.752126 0.813832 0.855089 0.008412 -0.003343 139832.000000 0 0 1
-27.735114 -28.012164 -33.541985 51.758890 0.790368 2.275808 0.004713 0.006661 150874.000000 0 0 1
-28.746034 -26.990514 -34.114185 52.140195 0.753912 2.284024 -0.009719 0.004341 225583.000000 0 0 1
-29.727714 -27.550034 33.549419 52.614683 0.747397 0.879361 -0.009137 0.007238 -840374.000000 0 0 1
-30.881634 -26.786424 33.457819 52.826258 0.714504 0.884914 0.004445 -0.000467 -267866.000000 0 0 1
